# el_label, x, y, sXX, sYY, sZZ, sXY
1.000000000000000000e+00 2.633811759948730469e+01 -1.567413806915283203e+01 -2.871465444564819336e+00 -2.027591943740844727e+00 -1.469717264175415039e+00 1.987821221351623535e+00
2.000000000000000000e+00 2.620440101623535156e+01 -1.552670192718505859e+01 -5.747441649436950684e-01 -1.290538072586059570e+00 -5.595846772193908691e-01 1.103705048561096191e+00
3.000000000000000000e+00 2.607068443298339844e+01 -1.537926578521728516e+01 -9.037131071090698242e-01 -1.403482913970947266e+00 -6.921588182449340820e-01 9.563398957252502441e-01
4.000000000000000000e+00 2.593696975708007812e+01 -1.523182964324951172e+01 -6.942212581634521484e-01 -1.454726338386535645e+00 -6.446842551231384277e-01 1.089089751243591309e+00
5.000000000000000000e+00 2.629890060424804688e+01 -1.571741771697998047e+01 -1.001961827278137207e+00 -1.271748542785644531e-01 -3.387410044670104980e-01 -1.157624274492263794e-01
6.000000000000000000e+00 2.613903808593750000e+01 -1.559883594512939453e+01 -7.422236800193786621e-01 -9.648486971855163574e-01 -5.121217370033264160e-01 6.867009401321411133e-01
7.000000000000000000e+00 2.597917747497558594e+01 -1.548025417327880859e+01 -2.311464846134185791e-01 -1.233953595161437988e+00 -4.395300149917602539e-01 6.890479326248168945e-01
8.000000000000000000e+00 2.581931686401367188e+01 -1.536167240142822266e+01 -4.729746878147125244e-01 -1.456132888793945312e+00 -5.787322521209716797e-01 7.771301269531250000e-01
9.000000000000000000e+00 2.626885795593261719e+01 -1.576750564575195312e+01 1.508864402770996094e+00 -2.843320369720458984e-01 3.673596978187561035e-01 -7.808580994606018066e-01
1.000000000000000000e+01 2.608897018432617188e+01 -1.568231582641601562e+01 4.040700793266296387e-01 -8.948443531990051270e-01 -1.472322791814804077e-01 -7.827664166688919067e-02
1.100000000000000000e+01 2.590908050537109375e+01 -1.559712505340576172e+01 2.511729001998901367e-01 -1.296496629714965820e+00 -3.135971128940582275e-01 4.744272232055664062e-01
1.200000000000000000e+01 2.572919273376464844e+01 -1.551193523406982422e+01 1.915566027164459229e-01 -1.694319128990173340e+00 -4.508287608623504639e-01 6.653668284416198730e-01
1.300000000000000000e+01 2.624914360046386719e+01 -1.582248401641845703e+01 3.671800851821899414e+00 -7.237666249275207520e-01 8.844102621078491211e-01 -8.263234496116638184e-01
1.400000000000000000e+01 2.605611228942871094e+01 -1.577394580841064453e+01 1.971861004829406738e+00 -1.197662591934204102e+00 2.322595268487930298e-01 -2.309188805520534515e-02
1.500000000000000000e+01 2.586308097839355469e+01 -1.572540760040283203e+01 1.140451669692993164e+00 -1.686301112174987793e+00 -1.637548208236694336e-01 3.542599678039550781e-01
1.600000000000000000e+01 2.567004776000976562e+01 -1.567686843872070312e+01 7.942361831665039062e-01 -1.917030930519104004e+00 -3.368384242057800293e-01 7.327625751495361328e-01
1.700000000000000000e+01 2.624051094055175781e+01 -1.588024806976318359e+01 5.771763801574707031e+00 -8.231928944587707520e-01 1.484571337699890137e+00 1.183487549424171448e-01
1.800000000000000000e+01 2.604172134399414062e+01 -1.587021923065185547e+01 3.159290790557861328e+00 -1.730736494064331055e+00 4.285663068294525146e-01 3.370556533336639404e-01
1.900000000000000000e+01 2.584293365478515625e+01 -1.586019039154052734e+01 2.168227672576904297e+00 -1.837345361709594727e+00 9.926468878984451294e-02 8.165426850318908691e-01
2.000000000000000000e+01 2.564414405822753906e+01 -1.585016155242919922e+01 1.368453264236450195e+00 -2.382658720016479492e+00 -3.042616248130798340e-01 1.020612835884094238e+00
2.100000000000000000e+01 2.624328613281250000e+01 -1.593858718872070312e+01 6.971774578094482422e+00 -1.248710513114929199e+00 1.716919183731079102e+00 1.355751872062683105e+00
2.200000000000000000e+01 2.604635047912597656e+01 -1.596745204925537109e+01 4.181520462036132812e+00 -1.263339519500732422e+00 8.754541873931884766e-01 1.333413481712341309e+00
2.300000000000000000e+01 2.584941291809082031e+01 -1.599631690979003906e+01 2.703930139541625977e+00 -2.410273551940917969e+00 8.809693902730941772e-02 1.356963038444519043e+00
2.400000000000000000e+01 2.565247535705566406e+01 -1.602518081665039062e+01 1.917465806007385254e+00 -2.227803468704223633e+00 -9.310129284858703613e-02 1.737705349922180176e+00
2.500000000000000000e+01 2.625736808776855469e+01 -1.599527072906494141e+01 7.733490467071533203e+00 -5.181995406746864319e-02 2.304501295089721680e+00 2.854981184005737305e+00
2.600000000000000000e+01 2.606981849670410156e+01 -1.606192398071289062e+01 4.509379386901855469e+00 -1.433538079261779785e+00 9.227523207664489746e-01 2.498519659042358398e+00
2.700000000000000000e+01 2.588227081298828125e+01 -1.612857627868652344e+01 2.860983371734619141e+00 -1.450468897819519043e+00 4.231543242931365967e-01 2.196908235549926758e+00
2.800000000000000000e+01 2.569472122192382812e+01 -1.619523048400878906e+01 1.768568158149719238e+00 -2.838774204254150391e+00 -3.210618197917938232e-01 2.282394170761108398e+00
2.900000000000000000e+01 2.628221511840820312e+01 -1.604812812805175781e+01 7.335826396942138672e+00 9.029208421707153320e-01 2.471624135971069336e+00 4.444915771484375000e+00
3.000000000000000000e+01 2.611123085021972656e+01 -1.615001869201660156e+01 4.513391494750976562e+00 -2.035967111587524414e-01 1.292938351631164551e+00 3.366954088211059570e+00
3.100000000000000000e+01 2.594024658203125000e+01 -1.625190925598144531e+01 2.527316808700561523e+00 -1.181102752685546875e+00 4.038642644882202148e-01 3.350526571273803711e+00
3.200000000000000000e+01 2.576926422119140625e+01 -1.635379981994628906e+01 1.143424868583679199e+00 -1.434711217880249023e+00 -8.738590031862258911e-02 2.801392793655395508e+00
3.300000000000000000e+01 2.631687736511230469e+01 -1.609513473510742188e+01 6.728761672973632812e+00 2.719804763793945312e+00 2.834569931030273438e+00 5.370521545410156250e+00
3.400000000000000000e+01 2.616900253295898438e+01 -1.622836494445800781e+01 3.756363153457641602e+00 1.039797306060791016e+00 1.438848137855529785e+00 4.289063930511474609e+00
3.500000000000000000e+01 2.602112770080566406e+01 -1.636159515380859375e+01 2.017601013183593750e+00 -1.468663066625595093e-01 5.612204074859619141e-01 3.868668079376220703e+00
3.600000000000000000e+01 2.587325096130371094e+01 -1.649482345581054688e+01 4.329201579093933105e-01 -4.752752482891082764e-01 -1.270652469247579575e-02 3.911249399185180664e+00
3.700000000000000000e+01 2.636002922058105469e+01 -1.613449478149414062e+01 5.517191410064697266e+00 4.950008869171142578e+00 3.140160083770751953e+00 5.723537445068359375e+00
3.800000000000000000e+01 2.624092102050781250e+01 -1.629396438598632812e+01 2.905223846435546875e+00 2.368644475936889648e+00 1.582160472869873047e+00 4.715503215789794922e+00
3.900000000000000000e+01 2.612181282043457031e+01 -1.645343399047851562e+01 1.127640604972839355e+00 1.329441189765930176e+00 7.371245026588439941e-01 4.175167560577392578e+00
4.000000000000000000e+01 2.600270462036132812e+01 -1.661290359497070312e+01 -2.887658774852752686e-01 7.409077137708663940e-02 -6.440252810716629028e-02 4.145278930664062500e+00
4.100000000000000000e+01 2.641001892089843750e+01 -1.616470146179199219e+01 4.215463638305664062e+00 6.661912918090820312e+00 3.263212919235229492e+00 5.585543632507324219e+00
4.200000000000000000e+01 2.632423591613769531e+01 -1.634430885314941406e+01 2.053001165390014648e+00 4.163516998291015625e+00 1.864955425262451172e+00 4.484341144561767578e+00
4.300000000000000000e+01 2.623845291137695312e+01 -1.652391624450683594e+01 7.644899189472198486e-02 2.425933361053466797e+00 7.507147192955017090e-01 4.179833889007568359e+00
4.400000000000000000e+01 2.615266990661621094e+01 -1.670352172851562500e+01 -1.125047564506530762e+00 1.462866425514221191e+00 1.013456732034683228e-01 3.708551883697509766e+00
4.500000000000000000e+01 2.646493148803710938e+01 -1.618459701538085938e+01 3.558664560317993164e+00 8.537265777587890625e+00 3.628778934478759766e+00 4.583461761474609375e+00
4.600000000000000000e+01 2.641575622558593750e+01 -1.637746810913085938e+01 9.695442914962768555e-01 5.316882133483886719e+00 1.885927915573120117e+00 4.090387821197509766e+00
4.700000000000000000e+01 2.636658287048339844e+01 -1.657033920288085938e+01 -5.027636885643005371e-01 3.877616643905639648e+00 1.012455940246582031e+00 3.481970548629760742e+00
4.800000000000000000e+01 2.631740951538085938e+01 -1.676321029663085938e+01 -2.251640558242797852e+00 2.507259130477905273e+00 7.668556272983551025e-02 3.261979579925537109e+00
4.900000000000000000e+01 2.652266693115234375e+01 -1.619342231750488281e+01 2.721185684204101562e+00 9.449753761291503906e+00 3.651282072067260742e+00 3.534650802612304688e+00
5.000000000000000000e+01 2.651198196411132812e+01 -1.639217567443847656e+01 8.198258280754089355e-01 6.517899513244628906e+00 2.201317548751831055e+00 3.005358457565307617e+00
5.100000000000000000e+01 2.650129890441894531e+01 -1.659093093872070312e+01 -1.326079487800598145e+00 4.645473957061767578e+00 9.958183169364929199e-01 2.834002971649169922e+00
5.200000000000000000e+01 2.649061393737792969e+01 -1.678968429565429688e+01 -2.540570020675659180e+00 3.751914739608764648e+00 3.634033501148223877e-01 2.392874479293823242e+00
5.300000000000000000e+01 2.658101463317871094e+01 -1.619083786010742188e+01 3.157367467880249023e+00 1.009761047363281250e+01 3.976493358612060547e+00 2.148255825042724609e+00
5.400000000000000000e+01 2.660923004150390625e+01 -1.638786888122558594e+01 3.654057681560516357e-01 7.005171775817871094e+00 2.211173295974731445e+00 1.996286034584045410e+00
5.500000000000000000e+01 2.663744544982910156e+01 -1.658489990234375000e+01 -9.862653017044067383e-01 5.221879005432128906e+00 1.270684123039245605e+00 1.682072281837463379e+00
5.600000000000000000e+01 2.666566085815429688e+01 -1.678193092346191406e+01 -2.846376657485961914e+00 4.018144130706787109e+00 3.515303134918212891e-01 1.843099236488342285e+00
5.700000000000000000e+01 2.663774299621582031e+01 -1.617694282531738281e+01 3.369571924209594727e+00 1.000226497650146484e+01 4.011550903320312500e+00 9.913606643676757812e-01
5.800000000000000000e+01 2.670377922058105469e+01 -1.636471176147460938e+01 1.093723893165588379e+00 7.140259265899658203e+00 2.470194816589355469e+00 8.555192351341247559e-01
5.900000000000000000e+01 2.676981353759765625e+01 -1.655247879028320312e+01 -9.228861331939697266e-01 5.309803009033203125e+00 1.316075086593627930e+00 7.191168069839477539e-01
6.000000000000000000e+01 2.683584785461425781e+01 -1.674024581909179688e+01 -1.815630435943603516e+00 3.701236963272094727e+00 5.656819939613342285e-01 6.762382984161376953e-01
6.100000000000000000e+01 2.669068145751953125e+01 -1.615226936340332031e+01 4.443698406219482422e+00 9.608160972595214844e+00 4.215557575225830078e+00 9.849523007869720459e-02
6.200000000000000000e+01 2.679200935363769531e+01 -1.632358932495117188e+01 1.699120640754699707e+00 6.821999549865722656e+00 2.556335926055908203e+00 -5.685326084494590759e-02
6.300000000000000000e+01 2.689333534240722656e+01 -1.649490737915039062e+01 1.378863900899887085e-01 4.928793907165527344e+00 1.520004153251647949e+00 -1.481633037328720093e-01
6.400000000000000000e+01 2.699466323852539062e+01 -1.666622543334960938e+01 -1.293310284614562988e+00 3.519103765487670898e+00 6.677380204200744629e-01 -4.127048850059509277e-01
6.500000000000000000e+01 2.673780441284179688e+01 -1.611776351928710938e+01 5.484163761138916016e+00 8.985243797302246094e+00 4.340822219848632812e+00 -4.088014662265777588e-01
6.600000000000000000e+01 2.687054443359375000e+01 -1.626607704162597656e+01 2.860698699951171875e+00 6.127394676208496094e+00 2.696428060531616211e+00 -6.509054899215698242e-01
6.700000000000000000e+01 2.700328636169433594e+01 -1.641438865661621094e+01 1.156424283981323242e+00 4.420713901519775391e+00 1.673141479492187500e+00 -7.093547582626342773e-01
6.800000000000000000e+01 2.713602828979492188e+01 -1.656270217895507812e+01 -2.586596608161926270e-01 3.118658781051635742e+00 8.579996824264526367e-01 -9.850943684577941895e-01
6.900000000000000000e+01 2.677730560302734375e+01 -1.607474136352539062e+01 6.550106525421142578e+00 8.060605049133300781e+00 4.383213520050048828e+00 -5.716703534126281738e-01
7.000000000000000000e+01 2.693638229370117188e+01 -1.619437408447265625e+01 4.089702129364013672e+00 5.551610946655273438e+00 2.892394065856933594e+00 -7.604573965072631836e-01
7.100000000000000000e+01 2.709545707702636719e+01 -1.631400680541992188e+01 2.376797914505004883e+00 3.537624359130859375e+00 1.774326682090759277e+00 -9.713006019592285156e-01
7.200000000000000000e+01 2.725453376770019531e+01 -1.643363952636718750e+01 9.459953904151916504e-01 2.713157415390014648e+00 1.097745776176452637e+00 -8.756469488143920898e-01
7.300000000000000000e+01 2.680767631530761719e+01 -1.602485275268554688e+01 7.666700363159179688e+00 7.663777828216552734e+00 4.599143505096435547e+00 -2.417504489421844482e-01
7.400000000000000000e+01 2.698699951171875000e+01 -1.611122703552246094e+01 5.134851932525634766e+00 4.532163143157958984e+00 2.900104522705078125e+00 -5.670568346977233887e-01
7.500000000000000000e+01 2.716632270812988281e+01 -1.619759941101074219e+01 3.540972471237182617e+00 3.280249834060668945e+00 2.046366691589355469e+00 -7.002619504928588867e-01
7.600000000000000000e+01 2.734564590454101562e+01 -1.628397560119628906e+01 2.411582946777343750e+00 1.475527644157409668e+00 1.166133165359497070e+00 -7.080963850021362305e-01
7.700000000000000000e+01 2.682775306701660156e+01 -1.597000598907470703e+01 8.355703353881835938e+00 6.777091026306152344e+00 4.539838314056396484e+00 3.703371584415435791e-01
7.800000000000000000e+01 2.702046203613281250e+01 -1.601981544494628906e+01 6.024983882904052734e+00 4.423883438110351562e+00 3.134660243988037109e+00 4.543214663863182068e-02
7.900000000000000000e+01 2.721316909790039062e+01 -1.606962585449218750e+01 4.384458065032958984e+00 2.485060691833496094e+00 2.060855627059936523e+00 -1.131006106734275818e-01
8.000000000000000000e+01 2.740587806701660156e+01 -1.611943626403808594e+01 3.546122550964355469e+00 1.576427459716796875e+00 1.536764979362487793e+00 -5.945081114768981934e-01
8.100000000000000000e+01 2.683676910400390625e+01 -1.591230010986328125e+01 8.852108001708984375e+00 6.834744930267333984e+00 4.706055641174316406e+00 1.172739505767822266e+00
8.200000000000000000e+01 2.703548622131347656e+01 -1.592364025115966797e+01 6.350729465484619141e+00 4.016510963439941406e+00 3.110172033309936523e+00 9.616820812225341797e-01
8.300000000000000000e+01 2.723420333862304688e+01 -1.593497848510742188e+01 4.986406803131103516e+00 2.661619901657104492e+00 2.294408082962036133e+00 5.411257147789001465e-01
8.400000000000000000e+01 2.743292236328125000e+01 -1.594631767272949219e+01 3.720702648162841797e+00 1.624586939811706543e+00 1.603586912155151367e+00 1.629581749439239502e-01
8.500000000000000000e+01 2.683437538146972656e+01 -1.585394382476806641e+01 8.694928169250488281e+00 6.838214874267578125e+00 4.659943103790283203e+00 2.232368469238281250e+00
8.600000000000000000e+01 2.703149795532226562e+01 -1.582637882232666016e+01 6.369485855102539062e+00 4.417949199676513672e+00 3.236230611801147461e+00 1.792929291725158691e+00
8.700000000000000000e+01 2.722862243652343750e+01 -1.579881381988525391e+01 4.877693176269531250e+00 2.891879320144653320e+00 2.330871582031250000e+00 1.391677856445312500e+00
8.800000000000000000e+01 2.742574501037597656e+01 -1.577124786376953125e+01 3.884612560272216797e+00 2.046952962875366211e+00 1.779469728469848633e+00 1.089370608329772949e+00
8.900000000000000000e+01 2.682066917419433594e+01 -1.579716873168945312e+01 8.157961845397949219e+00 7.513052940368652344e+00 4.701304435729980469e+00 3.135955095291137695e+00
9.000000000000000000e+01 2.700865364074707031e+01 -1.573175430297851562e+01 5.698716163635253906e+00 5.009464263916015625e+00 3.212454080581665039e+00 2.556499719619750977e+00
9.100000000000000000e+01 2.719663810729980469e+01 -1.566633987426757812e+01 4.510175704956054688e+00 3.578506469726562500e+00 2.426604747772216797e+00 2.073055744171142578e+00
9.200000000000000000e+01 2.738462257385253906e+01 -1.560092544555664062e+01 3.725267410278320312e+00 2.529058694839477539e+00 1.876297831535339355e+00 1.778905391693115234e+00
9.300000000000000000e+01 2.679617118835449219e+01 -1.574415016174316406e+01 6.959268569946289062e+00 8.424261093139648438e+00 4.615058898925781250e+00 3.817946434020996094e+00
9.400000000000000000e+01 2.696782302856445312e+01 -1.564338874816894531e+01 4.758178234100341797e+00 6.031035900115966797e+00 3.236764192581176758e+00 2.966694593429565430e+00
9.500000000000000000e+01 2.713947486877441406e+01 -1.554262828826904297e+01 3.665826559066772461e+00 4.355685234069824219e+00 2.406453609466552734e+00 2.442829132080078125e+00
9.600000000000000000e+01 2.731112861633300781e+01 -1.544186687469482422e+01 3.194646596908569336e+00 3.330559968948364258e+00 1.957561969757080078e+00 2.025227546691894531e+00
9.700000000000000000e+01 2.676181793212890625e+01 -1.569691467285156250e+01 5.449079036712646484e+00 9.757572174072265625e+00 4.561995506286621094e+00 3.966803073883056641e+00
9.800000000000000000e+01 2.691057014465332031e+01 -1.556466293334960938e+01 3.482384681701660156e+00 6.986989498138427734e+00 3.140812158584594727e+00 2.949472665786743164e+00
9.900000000000000000e+01 2.705932044982910156e+01 -1.543241214752197266e+01 2.714382886886596680e+00 5.371566772460937500e+00 2.425784826278686523e+00 2.395279407501220703e+00
1.000000000000000000e+02 2.720807266235351562e+01 -1.530016136169433594e+01 2.110380411148071289e+00 4.167929172515869141e+00 1.883492946624755859e+00 1.925439715385437012e+00
1.010000000000000000e+02 2.671892738342285156e+01 -1.565727043151855469e+01 3.682132720947265625e+00 1.097201538085937500e+01 4.396244525909423828e+00 3.506265401840209961e+00
1.020000000000000000e+02 2.683908653259277344e+01 -1.549859046936035156e+01 2.255165576934814453e+00 7.945863723754882812e+00 3.060308694839477539e+00 2.403732538223266602e+00
1.030000000000000000e+02 2.695924377441406250e+01 -1.533990955352783203e+01 1.667602300643920898e+00 6.108557701110839844e+00 2.332848072052001953e+00 1.926727771759033203e+00
1.040000000000000000e+02 2.707940101623535156e+01 -1.518122959136962891e+01 1.188836097717285156e+00 5.091572284698486328e+00 1.884122610092163086e+00 1.691701889038085938e+00
1.050000000000000000e+02 2.666913986206054688e+01 -1.562673568725585938e+01 2.037084817886352539e+00 1.193552207946777344e+01 4.191781997680664062e+00 2.351912498474121094e+00
1.060000000000000000e+02 2.675610542297363281e+01 -1.544769859313964844e+01 1.250296115875244141e+00 8.438097000122070312e+00 2.906517982482910156e+00 1.419783830642700195e+00
1.070000000000000000e+02 2.684307098388671875e+01 -1.526866149902343750e+01 7.816625237464904785e-01 6.645732402801513672e+00 2.228218555450439453e+00 1.151922702789306641e+00
1.080000000000000000e+02 2.693003845214843750e+01 -1.508962440490722656e+01 6.830651760101318359e-01 5.412497997283935547e+00 1.828668951988220215e+00 1.075452804565429688e+00
1.090000000000000000e+02 2.661436080932617188e+01 -1.560647773742675781e+01 9.386547803878784180e-01 1.217853641510009766e+01 3.935157537460327148e+00 6.868311762809753418e-01
1.100000000000000000e+02 2.666480636596679688e+01 -1.541393566131591797e+01 5.059731006622314453e-01 8.452771186828613281e+00 2.687623262405395508e+00 1.492427736520767212e-01
1.110000000000000000e+02 2.671525192260742188e+01 -1.522139358520507812e+01 4.365553855895996094e-01 6.569876670837402344e+00 2.101929664611816406e+00 1.922801733016967773e-01
1.120000000000000000e+02 2.676569747924804688e+01 -1.502885055541992188e+01 1.973472833633422852e-01 5.469004154205322266e+00 1.699905395507812500e+00 1.893191933631896973e-01
1.130000000000000000e+02 2.655668449401855469e+01 -1.559727287292480469e+01 3.444331884384155273e-01 1.150774192810058594e+01 3.555652618408203125e+00 -1.303627610206604004e+00
1.140000000000000000e+02 2.656867980957031250e+01 -1.539859294891357422e+01 4.397376179695129395e-01 7.716025829315185547e+00 2.446728944778442383e+00 -1.050091743469238281e+00
1.150000000000000000e+02 2.658067512512207031e+01 -1.519991397857666016e+01 2.840568125247955322e-01 6.091331005096435547e+00 1.912616372108459473e+00 -8.299645185470581055e-01
1.160000000000000000e+02 2.659267234802246094e+01 -1.500123500823974609e+01 2.198523133993148804e-01 5.067717075347900391e+00 1.586270809173583984e+00 -5.658314228057861328e-01
1.170000000000000000e+02 2.649831962585449219e+01 -1.559947204589843750e+01 5.932533740997314453e-01 9.730856895446777344e+00 3.097233057022094727e+00 -2.929298400878906250e+00
1.180000000000000000e+02 2.647140693664550781e+01 -1.540225887298583984e+01 6.992679834365844727e-01 6.416533946990966797e+00 2.134740591049194336e+00 -2.108599901199340820e+00
1.190000000000000000e+02 2.644449234008789062e+01 -1.520504570007324219e+01 6.039249897003173828e-01 5.111317634582519531e+00 1.714572787284851074e+00 -1.439418077468872070e+00
1.200000000000000000e+02 2.641757774353027344e+01 -1.500783252716064453e+01 3.505685031414031982e-01 4.461520671844482422e+00 1.443626761436462402e+00 -1.212128281593322754e+00
1.210000000000000000e+02 2.644150161743164062e+01 -1.561299228668212891e+01 1.414605259895324707e+00 6.808698177337646484e+00 2.466990947723388672e+00 -4.126384735107421875e+00
1.220000000000000000e+02 2.637670707702636719e+01 -1.542479228973388672e+01 1.249214768409729004e+00 4.703300476074218750e+00 1.785754561424255371e+00 -2.223278999328613281e+00
1.230000000000000000e+02 2.631191444396972656e+01 -1.523659229278564453e+01 8.672293424606323242e-01 4.300224304199218750e+00 1.550236105918884277e+00 -1.862289190292358398e+00
1.240000000000000000e+02 2.624711990356445312e+01 -1.504839229583740234e+01 7.197229862213134766e-01 3.449777603149414062e+00 1.250850200653076172e+00 -1.609124660491943359e+00
1.250000000000000000e+02 2.638840103149414062e+01 -1.563731479644775391e+01 1.847841620445251465e+00 3.125686407089233398e+00 1.492058396339416504e+00 -3.118264675140380859e+00
1.260000000000000000e+02 2.628820800781250000e+01 -1.546533012390136719e+01 1.550575971603393555e+00 4.074289321899414062e+00 1.687459588050842285e+00 -2.233018398284912109e+00
1.270000000000000000e+02 2.618801498413085938e+01 -1.529334640502929688e+01 1.182973384857177734e+00 2.922518491744995117e+00 1.231647610664367676e+00 -1.978810310363769531e+00
1.280000000000000000e+02 2.608782196044921875e+01 -1.512136173248291016e+01 1.036849617958068848e+00 2.644952774047851562e+00 1.104540705680847168e+00 -1.621570110321044922e+00
1.290000000000000000e+02 1.707021331787109375e+01 -4.268254280090332031e+00 -1.007122755050659180e+00 -5.446425676345825195e-01 -4.655295908451080322e-01 9.383309483528137207e-01
1.300000000000000000e+02 1.621372604370117188e+01 -3.519178628921508789e+00 -1.168319582939147949e+00 -4.271057546138763428e-01 -4.786276221275329590e-01 8.325069546699523926e-01
1.310000000000000000e+02 1.551975250244140625e+01 -3.071315765380859375e+00 -1.308843851089477539e+00 -2.580307126045227051e-01 -4.700623452663421631e-01 8.287779092788696289e-01
1.320000000000000000e+02 1.743298530578613281e+01 -3.927525758743286133e+00 -1.032991528511047363e+00 -6.715958714485168457e-01 -5.113762617111206055e-01 9.464882016181945801e-01
1.330000000000000000e+02 1.686964225769042969e+01 -3.746908664703369141e+00 -1.080552458763122559e+00 -5.366657376289367676e-01 -4.851654469966888428e-01 9.009393453598022461e-01
1.340000000000000000e+02 1.770870399475097656e+01 -3.523030519485473633e+00 -1.064781188964843750e+00 -5.871146917343139648e-01 -4.955687820911407471e-01 8.599440455436706543e-01
1.350000000000000000e+02 1.647576141357421875e+01 -2.802853107452392578e+00 -1.325363874435424805e+00 -5.361437797546386719e-01 -5.584523081779479980e-01 8.834749460220336914e-01
1.360000000000000000e+02 1.583880043029785156e+01 -2.393620014190673828e+00 -1.295929670333862305e+00 -3.929086625576019287e-01 -5.066514611244201660e-01 7.811089158058166504e-01
1.370000000000000000e+02 1.709996223449707031e+01 -3.162671089172363281e+00 -1.295137763023376465e+00 -6.057435274124145508e-01 -5.702643990516662598e-01 8.878812193870544434e-01
1.380000000000000000e+02 1.831673240661621094e+01 -5.410979747772216797e+00 -8.559805750846862793e-01 -7.915757894515991211e-01 -4.942668974399566650e-01 9.639528989791870117e-01
1.390000000000000000e+02 1.916439056396484375e+01 -5.026451110839843750e+00 -9.577942490577697754e-01 -1.085549831390380859e+00 -6.130032539367675781e-01 1.015510916709899902e+00
1.400000000000000000e+02 1.766269302368164062e+01 -4.787173271179199219e+00 -9.469357132911682129e-01 -6.566755771636962891e-01 -4.810833930969238281e-01 9.602959156036376953e-01
1.410000000000000000e+02 1.960504913330078125e+01 -5.639448642730712891e+00 -8.101161718368530273e-01 -1.081173896789550781e+00 -5.673870444297790527e-01 9.910206198692321777e-01
1.420000000000000000e+02 1.899693298339843750e+01 -6.071344852447509766e+00 -7.721697688102722168e-01 -9.948483705520629883e-01 -5.301054120063781738e-01 9.889124035835266113e-01
1.430000000000000000e+02 1.877602386474609375e+01 -4.501259326934814453e+00 -9.419904351234436035e-01 -1.015208363533020020e+00 -5.871596336364746094e-01 9.983037710189819336e-01
1.440000000000000000e+02 1.796581268310546875e+01 -4.379739761352539062e+00 -9.891148209571838379e-01 -6.800388693809509277e-01 -5.007461309432983398e-01 9.717230200767517090e-01
1.450000000000000000e+02 1.826732254028320312e+01 -3.990119457244873047e+00 -9.046480655670166016e-01 -7.839544415473937988e-01 -5.065807700157165527e-01 8.851212263107299805e-01
1.460000000000000000e+02 1.856897354125976562e+01 -4.905802249908447266e+00 -9.321398138999938965e-01 -8.742446303367614746e-01 -5.419153571128845215e-01 9.511095881462097168e-01
1.470000000000000000e+02 2.053260231018066406e+01 -6.879840850830078125e+00 -7.363310456275939941e-01 -1.408664703369140625e+00 -6.434987187385559082e-01 1.040214061737060547e+00
1.480000000000000000e+02 1.993260192871093750e+01 -7.313529014587402344e+00 -7.200711369514465332e-01 -1.149595260620117188e+00 -5.608999133110046387e-01 9.881992340087890625e-01
1.490000000000000000e+02 1.952820014953613281e+01 -6.721570968627929688e+00 -7.367708086967468262e-01 -1.074914216995239258e+00 -5.435054898262023926e-01 1.029804468154907227e+00
1.500000000000000000e+02 2.073616981506347656e+01 -8.501105308532714844e+00 -6.438860297203063965e-01 -1.366011261940002441e+00 -6.029692292213439941e-01 1.023188352584838867e+00
1.510000000000000000e+02 2.033558845520019531e+01 -7.906519412994384766e+00 -6.687330007553100586e-01 -1.264825820922851562e+00 -5.800676345825195312e-01 9.941554665565490723e-01
1.520000000000000000e+02 2.136049652099609375e+01 -8.103272438049316406e+00 -6.746290922164916992e-01 -1.528157830238342285e+00 -6.608361005783081055e-01 1.059148430824279785e+00
1.530000000000000000e+02 2.011603736877441406e+01 -6.269954204559326172e+00 -7.228355407714843750e-01 -1.218905329704284668e+00 -5.825222730636596680e-01 9.907427430152893066e-01
1.540000000000000000e+02 2.094775009155273438e+01 -7.490758895874023438e+00 -7.427156567573547363e-01 -1.492027401924133301e+00 -6.704229116439819336e-01 1.061807155609130859e+00
1.550000000000000000e+02 2.211177825927734375e+01 -9.384786605834960938e+00 -6.597009897232055664e-01 -1.819151520729064941e+00 -7.436557412147521973e-01 1.111220836639404297e+00
1.560000000000000000e+02 2.111507797241210938e+01 -9.119487762451171875e+00 -6.550312042236328125e-01 -1.423136711120605469e+00 -6.234503388404846191e-01 1.053526520729064941e+00
1.570000000000000000e+02 2.147401618957519531e+01 -9.760485649108886719e+00 -6.708832383155822754e-01 -1.482816815376281738e+00 -6.461099982261657715e-01 1.046871900558471680e+00
1.580000000000000000e+02 2.247536849975585938e+01 -1.003463172912597656e+01 -6.927673816680908203e-01 -1.925068855285644531e+00 -7.853508591651916504e-01 1.153328418731689453e+00
1.590000000000000000e+02 2.219019126892089844e+01 -1.104334068298339844e+01 -6.950100660324096680e-01 -1.662159204483032227e+00 -7.071507573127746582e-01 1.107357859611511230e+00
1.600000000000000000e+02 2.283775901794433594e+01 -1.068520069122314453e+01 -6.878907084465026855e-01 -2.008850097656250000e+00 -8.090222477912902832e-01 1.197602272033691406e+00
1.610000000000000000e+02 2.174793815612792969e+01 -8.735008239746093750e+00 -6.390690803527832031e-01 -1.651455998420715332e+00 -6.871575117111206055e-01 1.060035347938537598e+00
1.620000000000000000e+02 2.183270454406738281e+01 -1.040155124664306641e+01 -6.787862181663513184e-01 -1.582036852836608887e+00 -6.782469153404235840e-01 1.066732168197631836e+00
1.630000000000000000e+02 2.284141540527343750e+01 -1.225241661071777344e+01 -7.481915354728698730e-01 -1.788785934448242188e+00 -7.610932588577270508e-01 1.165766835212707520e+00
1.640000000000000000e+02 2.304174232482910156e+01 -1.282745361328125000e+01 -8.252946138381958008e-01 -1.807955384254455566e+00 -7.899749875068664551e-01 1.201719403266906738e+00
1.650000000000000000e+02 2.372536468505859375e+01 -1.397525501251220703e+01 -7.955062985420227051e-01 -1.948840379714965820e+00 -8.233039975166320801e-01 1.161293864250183105e+00
1.660000000000000000e+02 2.252681159973144531e+01 -1.165486717224121094e+01 -7.404839992523193359e-01 -1.741618752479553223e+00 -7.446308135986328125e-01 1.158251285552978516e+00
1.670000000000000000e+02 2.349051475524902344e+01 -1.399608230590820312e+01 -7.937422394752502441e-01 -1.767040491104125977e+00 -7.682347893714904785e-01 1.144665956497192383e+00
1.680000000000000000e+02 2.418996429443359375e+01 -1.365352153778076172e+01 -9.208357930183410645e-01 -2.276629924774169922e+00 -9.592397212982177734e-01 1.369524717330932617e+00
1.690000000000000000e+02 2.353775596618652344e+01 -1.198604297637939453e+01 -7.699148654937744141e-01 -2.257043838500976562e+00 -9.080876111984252930e-01 1.311492204666137695e+00
1.700000000000000000e+02 2.396005630493164062e+01 -1.359663105010986328e+01 -9.142437577247619629e-01 -2.197936773300170898e+00 -9.336541295051574707e-01 1.293607831001281738e+00
1.710000000000000000e+02 2.381213951110839844e+01 -1.331842327117919922e+01 -8.773546814918518066e-01 -2.159591436386108398e+00 -9.110838770866394043e-01 1.309313893318176270e+00
1.720000000000000000e+02 2.434462356567382812e+01 -1.350036048889160156e+01 -1.024937391281127930e+00 -2.382672071456909180e+00 -1.022282838821411133e+00 1.507938027381896973e+00
1.730000000000000000e+02 2.391927146911621094e+01 -1.261391162872314453e+01 -7.950622439384460449e-01 -2.395004987716674805e+00 -9.570201635360717773e-01 1.394501090049743652e+00
1.740000000000000000e+02 2.319227218627929688e+01 -1.133024215698242188e+01 -7.131599783897399902e-01 -2.123226404190063477e+00 -8.509159088134765625e-01 1.233098745346069336e+00
1.750000000000000000e+02 2.405472564697265625e+01 -1.379232692718505859e+01 -8.897838592529296875e-01 -2.129478693008422852e+00 -9.057787656784057617e-01 1.306898355484008789e+00
1.760000000000000000e+02 2.451067161560058594e+01 -1.329527378082275391e+01 -9.829337596893310547e-01 -2.719146966934204102e+00 -1.110624194145202637e+00 1.616199374198913574e+00
1.770000000000000000e+02 2.416917610168457031e+01 -1.312596893310546875e+01 -9.534149765968322754e-01 -2.516523361206054688e+00 -1.040981411933898926e+00 1.480573058128356934e+00
1.780000000000000000e+02 2.389385986328125000e+01 -1.390019512176513672e+01 -8.424531817436218262e-01 -2.083620786666870117e+00 -8.778222203254699707e-01 1.242907643318176270e+00
1.790000000000000000e+02 2.322485351562500000e+01 -1.330673027038574219e+01 -7.970332503318786621e-01 -1.757574915885925293e+00 -7.663824558258056641e-01 1.180243134498596191e+00
1.800000000000000000e+02 2.352353668212890625e+01 -1.360437488555908203e+01 -8.129626512527465820e-01 -1.826556444168090820e+00 -7.918557524681091309e-01 1.176683664321899414e+00
1.810000000000000000e+02 2.376494026184082031e+01 -1.374950027465820312e+01 -8.610932230949401855e-01 -2.041673421859741211e+00 -8.708299994468688965e-01 1.207409977912902832e+00
1.820000000000000000e+02 2.350441169738769531e+01 -1.294815540313720703e+01 -8.496178984642028809e-01 -1.995722055435180664e+00 -8.536019921302795410e-01 1.272121548652648926e+00
1.830000000000000000e+02 2.518205261230468750e+01 -1.429246520996093750e+01 -1.040272355079650879e+00 -2.078787088394165039e+00 -9.357178211212158203e-01 1.493284106254577637e+00
1.840000000000000000e+02 2.508295822143554688e+01 -1.615725326538085938e+01 1.868120878934860229e-01 -2.565986633300781250e+00 -7.137523889541625977e-01 2.180835008621215820e+00
1.850000000000000000e+02 2.568024444580078125e+01 -1.660319328308105469e+01 -8.605192899703979492e-01 -1.506133675575256348e+00 -7.099959254264831543e-01 3.268555164337158203e+00
1.860000000000000000e+02 2.624429512023925781e+01 -1.693477058410644531e+01 -3.574093818664550781e+00 2.133690357208251953e+00 -4.321210682392120361e-01 2.760267496109008789e+00
1.870000000000000000e+02 2.722450447082519531e+01 -1.698904991149902344e+01 -4.312169551849365234e+00 6.613066196441650391e-01 -1.095258831977844238e+00 3.608421981334686279e-01
1.880000000000000000e+02 2.742454147338867188e+01 -1.650965881347656250e+01 -4.997871518135070801e-01 1.090080857276916504e+00 1.770881116390228271e-01 -9.768701195716857910e-01
1.890000000000000000e+02 2.760736274719238281e+01 -1.614108657836914062e+01 3.005296468734741211e+00 7.220242619514465332e-01 1.118196249008178711e+00 -7.392780184745788574e-01
1.900000000000000000e+02 2.718869209289550781e+01 -1.496634101867675781e+01 9.062818288803100586e-01 4.147265911102294922e+00 1.516064405441284180e+00 1.441962122917175293e+00
1.910000000000000000e+02 2.534838485717773438e+01 -1.327428054809570312e+01 1.612073332071304321e-01 1.316803574562072754e+00 4.434032738208770752e-01 -5.826914310455322266e-01
1.920000000000000000e+02 2.563881683349609375e+01 -1.404144191741943359e+01 4.063877165317535400e-01 1.634284257888793945e+00 6.122016310691833496e-01 -8.503265380859375000e-01
1.930000000000000000e+02 2.679003906250000000e+01 -1.483554553985595703e+01 1.467359811067581177e-01 4.701911926269531250e+00 1.454594373703002930e+00 1.945217102766036987e-01
1.940000000000000000e+02 2.747181129455566406e+01 -1.528816127777099609e+01 2.315987586975097656e+00 2.597657918930053711e+00 1.474093556404113770e+00 1.592701911926269531e+00
1.950000000000000000e+02 2.570365524291992188e+01 -1.693431472778320312e+01 -2.888267278671264648e+00 -1.603692889213562012e+00 -1.347588062286376953e+00 4.135201454162597656e+00
1.960000000000000000e+02 2.546782493591308594e+01 -1.625537300109863281e+01 9.872837066650390625e-01 -2.437658309936523438e+00 -4.351123571395874023e-01 2.672197341918945312e+00
1.970000000000000000e+02 2.567183685302734375e+01 -1.492162704467773438e+01 -8.125220537185668945e-01 -1.673936009407043457e+00 -7.459374070167541504e-01 1.186305522918701172e+00
1.980000000000000000e+02 2.364050865173339844e+01 -1.429580879211425781e+01 -6.526783704757690430e-01 -1.829912304878234863e+00 -7.447772026062011719e-01 1.170969963073730469e+00
1.990000000000000000e+02 2.387033462524414062e+01 -1.460423851013183594e+01 -6.191791892051696777e-01 -1.917291641235351562e+00 -7.609412670135498047e-01 1.183021664619445801e+00
2.000000000000000000e+02 2.400439453125000000e+01 -1.407310009002685547e+01 -7.954408526420593262e-01 -2.072707653045654297e+00 -8.604445457458496094e-01 1.250243902206420898e+00
2.010000000000000000e+02 2.529671859741210938e+01 -1.650524902343750000e+01 -3.467141985893249512e-01 -2.150592803955078125e+00 -7.491921186447143555e-01 3.299179792404174805e+00
2.020000000000000000e+02 2.518810653686523438e+01 -1.633591461181640625e+01 -4.181515872478485107e-01 -2.655734062194824219e+00 -9.221656918525695801e-01 2.476312875747680664e+00
2.030000000000000000e+02 2.496880722045898438e+01 -1.518428230285644531e+01 -2.843008637428283691e-01 -2.251183032989501953e+00 -7.606451511383056641e-01 1.221345186233520508e+00
2.040000000000000000e+02 2.543435859680175781e+01 -1.460364246368408203e+01 -9.290802478790283203e-01 -1.880888462066650391e+00 -8.429906368255615234e-01 1.374436855316162109e+00
2.050000000000000000e+02 2.375551605224609375e+01 -1.445158195495605469e+01 -6.740339994430541992e-01 -1.879569649696350098e+00 -7.660810947418212891e-01 1.164154648780822754e+00
2.060000000000000000e+02 2.600890159606933594e+01 -1.281853675842285156e+01 -1.132440343499183655e-01 1.660208821296691895e+00 4.640894234180450439e-01 -2.703028619289398193e-01
2.070000000000000000e+02 2.591176986694335938e+01 -1.311667919158935547e+01 -3.936213627457618713e-02 1.698851346969604492e+00 4.978467524051666260e-01 -3.896776735782623291e-01
2.080000000000000000e+02 2.553114318847656250e+01 -1.430891227722167969e+01 5.961672067642211914e-01 1.447805047035217285e+00 6.131916642189025879e-01 -9.431721568107604980e-01
2.090000000000000000e+02 2.748483467102050781e+01 -1.488159942626953125e+01 1.133208632469177246e+00 3.020057678222656250e+00 1.245979905128479004e+00 1.572566390037536621e+00
2.100000000000000000e+02 2.494071578979492188e+01 -1.349442863464355469e+01 3.207515776157379150e-01 8.826650977134704590e-01 3.610250055789947510e-01 -5.636970400810241699e-01
2.110000000000000000e+02 2.612356376647949219e+01 -1.298819923400878906e+01 -1.383821964263916016e-01 1.771860837936401367e+00 4.900435805320739746e-01 -2.755714356899261475e-01
2.120000000000000000e+02 2.562463378906250000e+01 -1.447868251800537109e+01 6.694918870925903320e-01 1.542195796966552734e+00 6.635063290596008301e-01 -1.037164449691772461e+00
2.130000000000000000e+02 2.572173690795898438e+01 -1.462526035308837891e+01 7.776481509208679199e-01 1.758452892303466797e+00 7.608303427696228027e-01 -1.143426060676574707e+00
2.140000000000000000e+02 2.579812812805175781e+01 -1.448311996459960938e+01 5.948452949523925781e-01 1.934894919395446777e+00 7.589221000671386719e-01 -1.067936658859252930e+00
2.150000000000000000e+02 2.598707771301269531e+01 -1.493716239929199219e+01 8.561424016952514648e-01 2.284541130065917969e+00 9.422050714492797852e-01 -1.433691859245300293e+00
2.160000000000000000e+02 2.765676879882812500e+01 -1.646288490295410156e+01 1.183059960603713989e-01 4.854829907417297363e-01 1.811366975307464600e-01 -1.216355323791503906e+00
2.170000000000000000e+02 2.757615280151367188e+01 -1.551090908050537109e+01 3.288442134857177734e+00 1.918329954147338867e+00 1.562031626701354980e+00 1.537181854248046875e+00
2.180000000000000000e+02 2.699716949462890625e+01 -1.487022209167480469e+01 3.551574349403381348e-01 4.540601730346679688e+00 1.468727827072143555e+00 8.569172024726867676e-01
2.190000000000000000e+02 2.656711959838867188e+01 -1.465190792083740234e+01 1.047378033399581909e-01 3.957989215850830078e+00 1.218818068504333496e+00 -4.847874045372009277e-01
2.200000000000000000e+02 2.618392944335937500e+01 -1.485200881958007812e+01 5.935851335525512695e-01 3.096941947937011719e+00 1.107158064842224121e+00 -1.332454442977905273e+00
2.210000000000000000e+02 2.580022430419921875e+01 -1.508060932159423828e+01 -8.380842804908752441e-01 -1.581747770309448242e+00 -7.259495854377746582e-01 1.096253633499145508e+00
2.220000000000000000e+02 2.555574798583984375e+01 -1.475922679901123047e+01 -8.939144611358642578e-01 -1.814268589019775391e+00 -8.124549388885498047e-01 1.248670697212219238e+00
2.230000000000000000e+02 2.551270294189453125e+01 -1.542175388336181641e+01 -1.870125345885753632e-02 -1.886922478675842285e+00 -5.716871023178100586e-01 8.549330830574035645e-01
2.240000000000000000e+02 2.483040809631347656e+01 -1.379622459411621094e+01 -1.213901996612548828e+00 -2.423520803451538086e+00 -1.091226816177368164e+00 1.694027900695800781e+00
2.250000000000000000e+02 2.453282546997070312e+01 -1.374154472351074219e+01 -1.063749194145202637e+00 -2.426675558090209961e+00 -1.047127366065979004e+00 1.400771379470825195e+00
2.260000000000000000e+02 2.471676254272460938e+01 -1.362605285644531250e+01 -1.273993492126464844e+00 -2.809353828430175781e+00 -1.225004196166992188e+00 1.761437892913818359e+00
2.270000000000000000e+02 2.539207649230957031e+01 -1.584801578521728516e+01 8.599265217781066895e-01 -2.489723682403564453e+00 -4.889391362667083740e-01 1.367715120315551758e+00
2.280000000000000000e+02 2.541613578796386719e+01 -1.667404937744140625e+01 -2.074429750442504883e+00 -3.174294233322143555e+00 -1.574617266654968262e+00 3.284682035446166992e+00
2.290000000000000000e+02 2.484116554260253906e+01 -1.560044765472412109e+01 -6.695982068777084351e-02 -2.340412378311157227e+00 -7.222117185592651367e-01 1.479868769645690918e+00
2.300000000000000000e+02 2.563358879089355469e+01 -1.523227310180664062e+01 -3.886025547981262207e-01 -1.721943140029907227e+00 -6.331636905670166016e-01 9.780640602111816406e-01
2.310000000000000000e+02 2.382320594787597656e+01 -1.418400955200195312e+01 -7.425175905227661133e-01 -1.948704123497009277e+00 -8.073665499687194824e-01 1.198212265968322754e+00
2.320000000000000000e+02 2.556045341491699219e+01 -1.643442535400390625e+01 2.062520086765289307e-01 -3.044074296951293945e+00 -8.513467311859130859e-01 2.937901496887207031e+00
2.330000000000000000e+02 2.598150444030761719e+01 -1.457851886749267578e+01 5.598319768905639648e-01 2.353378057479858398e+00 8.739629983901977539e-01 -1.130755662918090820e+00
2.340000000000000000e+02 2.671826744079589844e+01 -1.381926822662353516e+01 -1.325456202030181885e-01 2.669565677642822266e+00 7.611060142517089844e-01 -2.638396620750427246e-02
2.350000000000000000e+02 2.658950233459472656e+01 -1.481961727142333984e+01 9.235759824514389038e-02 4.482633590698242188e+00 1.372497439384460449e+00 -5.007700920104980469e-01
2.360000000000000000e+02 2.753667449951171875e+01 -1.676360702514648438e+01 -1.558068513870239258e+00 3.676024675369262695e-01 -3.571398258209228516e-01 -1.614544272422790527e+00
2.370000000000000000e+02 2.730381774902343750e+01 -1.668060493469238281e+01 -6.560487151145935059e-01 2.148057222366333008e+00 4.476025402545928955e-01 -1.202446937561035156e+00
2.380000000000000000e+02 2.720858573913574219e+01 -1.451649570465087891e+01 2.954662740230560303e-01 3.460683822631835938e+00 1.126845002174377441e+00 8.796235918998718262e-01
2.390000000000000000e+02 2.761727333068847656e+01 -1.505528926849365234e+01 1.339369297027587891e+00 2.524660825729370117e+00 1.159209012985229492e+00 1.432351589202880859e+00
2.400000000000000000e+02 2.734312629699707031e+01 -1.511905670166015625e+01 1.430521368980407715e+00 3.592656850814819336e+00 1.506953477859497070e+00 1.698301792144775391e+00
2.410000000000000000e+02 2.761830520629882812e+01 -1.592778778076171875e+01 2.798596143722534180e+00 1.032379031181335449e+00 1.149292588233947754e+00 -2.677586078643798828e-01
2.420000000000000000e+02 2.779247665405273438e+01 -1.579128074645996094e+01 2.273930788040161133e+00 1.043354392051696777e+00 9.951855540275573730e-01 2.508378922939300537e-01
2.430000000000000000e+02 2.709650993347167969e+01 -1.431706523895263672e+01 2.448615385219454765e-03 3.340535163879394531e+00 1.002895116806030273e+00 5.586103200912475586e-01
2.440000000000000000e+02 2.778153610229492188e+01 -1.541228580474853516e+01 2.461390733718872070e+00 1.404794931411743164e+00 1.159855723381042480e+00 1.242665290832519531e+00
2.450000000000000000e+02 2.658445930480957031e+01 -1.365607070922851562e+01 -1.713213920593261719e-01 2.469594955444335938e+00 6.894820928573608398e-01 -1.122689843177795410e-01
2.460000000000000000e+02 2.711317634582519531e+01 -1.682373237609863281e+01 -2.027930021286010742e+00 2.366276264190673828e+00 1.015038639307022095e-01 -1.977911144495010376e-01
2.470000000000000000e+02 2.690366172790527344e+01 -1.690946960449218750e+01 -3.904948234558105469e+00 2.884459018707275391e+00 -3.061467409133911133e-01 4.099493622779846191e-01
2.480000000000000000e+02 2.547557449340820312e+01 -1.506540107727050781e+01 -5.912368893623352051e-01 -1.863538980484008789e+00 -7.364327907562255859e-01 1.082294106483459473e+00
2.490000000000000000e+02 2.636830711364746094e+01 -1.720928764343261719e+01 -4.928033828735351562e+00 1.487613558769226074e+00 -1.032126069068908691e+00 2.611681938171386719e+00
2.500000000000000000e+02 2.696453666687011719e+01 -1.704577827453613281e+01 -3.989044427871704102e+00 3.635767221450805664e+00 -1.059831231832504272e-01 -2.253914773464202881e-01
2.510000000000000000e+02 2.539660072326660156e+01 -1.606061744689941406e+01 8.024833202362060547e-01 -2.731747150421142578e+00 -5.787791609764099121e-01 1.868747115135192871e+00
2.520000000000000000e+02 2.606175804138183594e+01 -1.705955696105957031e+01 -3.769440650939941406e+00 -1.489219665527343750e-01 -1.175508856773376465e+00 3.069029092788696289e+00
2.530000000000000000e+02 2.585967063903808594e+01 -1.676827812194824219e+01 -1.338850975036621094e+00 -1.465481072664260864e-01 -4.456197023391723633e-01 4.141381263732910156e+00
2.540000000000000000e+02 2.668982124328613281e+01 -1.697691345214843750e+01 -3.353006601333618164e+00 2.612709283828735352e+00 -2.220892161130905151e-01 1.386182665824890137e+00
2.550000000000000000e+02 2.606951141357421875e+01 -1.687277030944824219e+01 -2.339765310287475586e+00 -1.447148919105529785e-01 -7.453440427780151367e-01 3.582512855529785156e+00
2.560000000000000000e+02 2.602967643737792969e+01 -1.327616596221923828e+01 -5.562563240528106689e-02 1.824197053909301758e+00 5.305714607238769531e-01 -3.997870385646820068e-01
2.570000000000000000e+02 2.505078697204589844e+01 -1.365970897674560547e+01 4.068312942981719971e-01 9.722903370857238770e-01 4.137364923954010010e-01 -6.199303865432739258e-01
2.580000000000000000e+02 2.505819702148437500e+01 -1.413127899169921875e+01 -1.115591287612915039e+00 -2.180370330810546875e+00 -9.887884259223937988e-01 1.546375274658203125e+00
2.590000000000000000e+02 2.435394096374511719e+01 -1.522706031799316406e+01 -3.644604086875915527e-01 -2.112054347991943359e+00 -7.429544329643249512e-01 1.316866517066955566e+00
2.600000000000000000e+02 2.483230590820312500e+01 -1.430050659179687500e+01 -8.599227666854858398e-01 -2.222452640533447266e+00 -9.247126579284667969e-01 1.411233663558959961e+00
2.610000000000000000e+02 2.511648559570312500e+01 -1.462607765197753906e+01 -7.471515536308288574e-01 -2.070215940475463867e+00 -8.452102541923522949e-01 1.321584463119506836e+00
2.620000000000000000e+02 2.697933197021484375e+01 -1.414212417602539062e+01 -3.467483073472976685e-02 3.094146728515625000e+00 9.178415536880493164e-01 3.332281112670898438e-01
2.630000000000000000e+02 2.624151039123535156e+01 -1.315300464630126953e+01 -1.233169138431549072e-01 1.910433769226074219e+00 5.361350774765014648e-01 -2.586709856986999512e-01
2.640000000000000000e+02 2.734087371826171875e+01 -1.471164417266845703e+01 5.649858117103576660e-01 3.414630413055419922e+00 1.193884849548339844e+00 1.209015846252441406e+00
2.650000000000000000e+02 2.646595954895019531e+01 -1.348770332336425781e+01 -1.480311304330825806e-01 2.271974802017211914e+00 6.371831297874450684e-01 -1.802465021610260010e-01
2.660000000000000000e+02 2.679826354980468750e+01 -1.423454666137695312e+01 -8.706795424222946167e-02 3.274964809417724609e+00 9.563690423965454102e-01 6.493476033210754395e-02
2.670000000000000000e+02 2.582166099548339844e+01 -1.293282699584960938e+01 -5.356064811348915100e-02 1.545847296714782715e+00 4.476859867572784424e-01 -3.604735434055328369e-01
2.680000000000000000e+02 2.568300628662109375e+01 -1.318808460235595703e+01 3.435950353741645813e-02 1.558967351913452148e+00 4.779980480670928955e-01 -4.850758910179138184e-01
2.690000000000000000e+02 2.526609420776367188e+01 -1.361379337310791016e+01 3.129962384700775146e-01 1.227055788040161133e+00 4.620155990123748779e-01 -6.499901413917541504e-01
2.700000000000000000e+02 2.541818046569824219e+01 -1.413527965545654297e+01 5.399295091629028320e-01 1.330521821975708008e+00 5.611354112625122070e-01 -8.498014807701110840e-01
2.710000000000000000e+02 2.517637252807617188e+01 -1.379767894744873047e+01 4.458270967006683350e-01 1.134506940841674805e+00 4.741002321243286133e-01 -6.968421936035156250e-01
2.720000000000000000e+02 2.515384483337402344e+01 -1.339852142333984375e+01 2.315437346696853638e-01 1.165164589881896973e+00 4.190125167369842529e-01 -6.025087237358093262e-01
2.730000000000000000e+02 2.417807579040527344e+01 -1.396009349822998047e+01 -8.746777176856994629e-01 -2.156769990921020508e+00 -9.094342589378356934e-01 1.274603843688964844e+00
2.740000000000000000e+02 2.412352943420410156e+01 -1.490429973602294922e+01 -5.105681419372558594e-01 -2.030883789062500000e+00 -7.624356150627136230e-01 1.274530410766601562e+00
2.750000000000000000e+02 2.435158348083496094e+01 -1.384948539733886719e+01 -9.703196287155151367e-01 -2.302267789840698242e+00 -9.817762374877929688e-01 1.393396019935607910e+00
2.760000000000000000e+02 2.479298973083496094e+01 -1.585185718536376953e+01 -7.132720202207565308e-02 -2.387864589691162109e+00 -7.377575635910034180e-01 1.696030735969543457e+00
2.770000000000000000e+02 2.446541023254394531e+01 -1.538608264923095703e+01 -3.824948072433471680e-01 -2.220866918563842773e+00 -7.810084819793701172e-01 1.436166167259216309e+00
2.780000000000000000e+02 2.423581123352050781e+01 -1.506941699981689453e+01 -4.903148412704467773e-01 -2.091856241226196289e+00 -7.746513485908508301e-01 1.301771044731140137e+00
2.790000000000000000e+02 2.607275009155273438e+01 -1.393194580078125000e+01 9.392262995243072510e-02 2.255109071731567383e+00 7.047095298767089844e-01 -6.268571615219116211e-01
2.800000000000000000e+02 2.531277847290039062e+01 -1.395262622833251953e+01 4.674923419952392578e-01 1.222267031669616699e+00 5.069277882575988770e-01 -7.749757170677185059e-01
2.810000000000000000e+02 2.494205665588378906e+01 -1.396619033813476562e+01 -1.147571921348571777e+00 -2.278294801712036133e+00 -1.027760028839111328e+00 1.621369600296020508e+00
2.820000000000000000e+02 2.496655464172363281e+01 -1.496560382843017578e+01 -4.328843653202056885e-01 -2.130949497222900391e+00 -7.691501975059509277e-01 1.194994449615478516e+00
2.830000000000000000e+02 2.635734939575195312e+01 -1.331865310668945312e+01 -1.415826231241226196e-01 2.067571640014648438e+00 5.777966976165771484e-01 -2.501268982887268066e-01
2.840000000000000000e+02 2.671642684936523438e+01 -1.446279716491699219e+01 -2.698502270504832268e-03 3.674133062362670898e+00 1.101430416107177734e+00 -6.048654764890670776e-02
2.850000000000000000e+02 2.619726943969726562e+01 -1.360126972198486328e+01 -4.685746505856513977e-02 2.160293579101562500e+00 6.340308189392089844e-01 -4.354671537876129150e-01
2.860000000000000000e+02 2.617309951782226562e+01 -1.464105796813964844e+01 4.569527804851531982e-01 2.883622646331787109e+00 1.002172589302062988e+00 -1.126339673995971680e+00
2.870000000000000000e+02 2.467226028442382812e+01 -1.570433139801025391e+01 -2.652811408042907715e-01 -2.346733570098876953e+00 -7.836043834686279297e-01 1.526852011680603027e+00
2.880000000000000000e+02 2.525356101989746094e+01 -1.537282943725585938e+01 -7.203292101621627808e-02 -2.179318904876708984e+00 -6.754055619239807129e-01 1.093193769454956055e+00
2.890000000000000000e+02 2.420680427551269531e+01 -1.441164875030517578e+01 -6.764099597930908203e-01 -2.128290891647338867e+00 -8.414102792739868164e-01 1.231896758079528809e+00
2.900000000000000000e+02 2.470496749877929688e+01 -1.526180839538574219e+01 -2.413232773542404175e-01 -2.230036497116088867e+00 -7.414079308509826660e-01 1.282307267189025879e+00
2.910000000000000000e+02 2.434027481079101562e+01 -1.479305458068847656e+01 -5.702118873596191406e-01 -2.111043691635131836e+00 -8.043766617774963379e-01 1.251194834709167480e+00
2.920000000000000000e+02 2.403622817993164062e+01 -1.448527050018310547e+01 -6.773545742034912109e-01 -2.008018016815185547e+00 -8.056117892265319824e-01 1.214450359344482422e+00
2.930000000000000000e+02 2.635738754272460938e+01 -1.433768844604492188e+01 9.936299920082092285e-02 2.990749597549438477e+00 9.270337820053100586e-01 -6.481952071189880371e-01
2.940000000000000000e+02 2.558034515380859375e+01 -1.384969329833984375e+01 3.287397623062133789e-01 1.546097874641418457e+00 5.624513030052185059e-01 -7.600199580192565918e-01
2.950000000000000000e+02 2.479376029968261719e+01 -1.462876796722412109e+01 -6.405227184295654297e-01 -2.175700187683105469e+00 -8.448668718338012695e-01 1.286976814270019531e+00
2.960000000000000000e+02 2.476717948913574219e+01 -1.492506122589111328e+01 -4.009678363800048828e-01 -2.208953380584716797e+00 -7.829763889312744141e-01 1.223163008689880371e+00
2.970000000000000000e+02 2.556194114685058594e+01 -1.362181663513183594e+01 2.230796217918395996e-01 1.522449254989624023e+00 5.236586928367614746e-01 -6.757427453994750977e-01
2.980000000000000000e+02 2.637695503234863281e+01 -1.448689174652099609e+01 1.676465570926666260e-01 3.274338245391845703e+00 1.032595396041870117e+00 -7.508756518363952637e-01
2.990000000000000000e+02 2.623074913024902344e+01 -1.443764019012451172e+01 2.397486269474029541e-01 2.854345798492431641e+00 9.282283186912536621e-01 -8.492687344551086426e-01
3.000000000000000000e+02 2.538322067260742188e+01 -1.488755416870117188e+01 -6.643326878547668457e-01 -1.877733826637268066e+00 -7.626199722290039062e-01 1.210187077522277832e+00
3.010000000000000000e+02 2.444921302795410156e+01 -1.493959999084472656e+01 -4.387039244174957275e-01 -2.142564535140991211e+00 -7.743805646896362305e-01 1.264242053031921387e+00
3.020000000000000000e+02 2.450303840637207031e+01 -1.467552947998046875e+01 -5.656182765960693359e-01 -2.171488761901855469e+00 -8.211320638656616211e-01 1.264608860015869141e+00
3.030000000000000000e+02 2.612181282043457031e+01 -1.414321517944335938e+01 1.555260270833969116e-01 2.436434984207153320e+00 7.775883078575134277e-01 -7.157652974128723145e-01
3.040000000000000000e+02 2.613553047180175781e+01 -1.342222213745117188e+01 -5.353868007659912109e-02 2.003263235092163086e+00 5.849173665046691895e-01 -3.910062909126281738e-01
3.050000000000000000e+02 2.413508605957031250e+01 -1.423771762847900391e+01 -7.616967558860778809e-01 -2.098629713058471680e+00 -8.580979108810424805e-01 1.243028759956359863e+00
3.060000000000000000e+02 2.393951225280761719e+01 -1.433987998962402344e+01 -6.736796498298645020e-01 -1.993578672409057617e+00 -8.001774549484252930e-01 1.203954696655273438e+00
3.070000000000000000e+02 2.399952507019042969e+01 -1.474897575378417969e+01 -6.116811037063598633e-01 -1.956955432891845703e+00 -7.705909609794616699e-01 1.209722280502319336e+00
3.080000000000000000e+02 2.415836524963378906e+01 -1.458895397186279297e+01 -6.240751743316650391e-01 -2.075761318206787109e+00 -8.099508881568908691e-01 1.247143983840942383e+00
3.090000000000000000e+02 2.456786537170410156e+01 -1.554667186737060547e+01 -2.397029697895050049e-01 -2.257876873016357422e+00 -7.492738962173461914e-01 1.466391444206237793e+00
3.100000000000000000e+02 2.494790458679199219e+01 -1.571599864959716797e+01 -7.932526059448719025e-03 -2.505318164825439453e+00 -7.539752125740051270e-01 1.493900895118713379e+00
3.110000000000000000e+02 2.494504165649414062e+01 -1.599320697784423828e+01 -1.119969636201858521e-01 -2.562529802322387695e+00 -8.023580312728881836e-01 1.856776237487792969e+00
3.120000000000000000e+02 2.448080062866210938e+01 -1.419242095947265625e+01 -7.928181886672973633e-01 -2.255271911621093750e+00 -9.144269824028015137e-01 1.304304838180541992e+00
3.130000000000000000e+02 2.544712066650390625e+01 -1.563275527954101562e+01 5.018404722213745117e-01 -2.261046171188354492e+00 -5.277617573738098145e-01 1.018177986145019531e+00
3.140000000000000000e+02 2.429808807373046875e+01 -1.411819553375244141e+01 -8.113502860069274902e-01 -2.204364776611328125e+00 -9.047145247459411621e-01 1.300040602684020996e+00
3.150000000000000000e+02 2.444662475585937500e+01 -1.401205730438232422e+01 -9.427561163902282715e-01 -2.265652656555175781e+00 -9.625226259231567383e-01 1.330790162086486816e+00
3.160000000000000000e+02 2.463384056091308594e+01 -1.392197990417480469e+01 -9.819598793983459473e-01 -2.466854095458984375e+00 -1.034644246101379395e+00 1.473888754844665527e+00
3.170000000000000000e+02 2.471868896484375000e+01 -1.411720752716064453e+01 -9.358435869216918945e-01 -2.303063631057739258e+00 -9.716721773147583008e-01 1.444657444953918457e+00
3.180000000000000000e+02 2.530775260925292969e+01 -1.445083999633789062e+01 -1.036867618560791016e+00 -1.998814463615417480e+00 -9.107046127319335938e-01 1.402722358703613281e+00
3.190000000000000000e+02 2.548893165588378906e+01 -1.313161563873291016e+01 8.267744630575180054e-02 1.423347949981689453e+00 4.518076181411743164e-01 -5.258033871650695801e-01
3.200000000000000000e+02 2.562505912780761719e+01 -1.338701343536376953e+01 1.082247197628021240e-01 1.557027697563171387e+00 4.995757341384887695e-01 -5.657064914703369141e-01
3.210000000000000000e+02 2.563806915283203125e+01 -1.302819156646728516e+01 1.659825444221496582e-02 1.494250774383544922e+00 4.532546997070312500e-01 -4.423846006393432617e-01
3.220000000000000000e+02 2.571510314941406250e+01 -1.421055030822753906e+01 4.688160717487335205e-01 1.754813432693481445e+00 6.670888662338256836e-01 -9.475064873695373535e-01
3.230000000000000000e+02 2.586127471923828125e+01 -1.476389789581298828e+01 8.195913434028625488e-01 2.071668148040771484e+00 8.673778176307678223e-01 -1.255007982254028320e+00
3.240000000000000000e+02 2.497910308837890625e+01 -1.446141338348388672e+01 -8.563264012336730957e-01 -2.140632629394531250e+00 -8.990876674652099609e-01 1.360567450523376465e+00
3.250000000000000000e+02 2.526352119445800781e+01 -1.475877666473388672e+01 -7.429988384246826172e-01 -2.001300096511840820e+00 -8.232896924018859863e-01 1.236967682838439941e+00
3.260000000000000000e+02 2.523840332031250000e+01 -1.515345287322998047e+01 -2.773506939411163330e-01 -2.021694421768188477e+00 -6.897134780883789062e-01 1.061052560806274414e+00
3.270000000000000000e+02 2.521069335937500000e+01 -1.559249305725097656e+01 2.700631320476531982e-01 -2.297027111053466797e+00 -6.080891489982604980e-01 1.143557310104370117e+00
3.280000000000000000e+02 2.685318183898925781e+01 -1.397830867767333984e+01 -1.389789879322052002e-01 2.883583307266235352e+00 8.233813047409057617e-01 1.162724047899246216e-01
3.290000000000000000e+02 2.631436157226562500e+01 -1.379746532440185547e+01 -2.919653989374637604e-02 2.397892713546752930e+00 7.106088399887084961e-01 -4.174939393997192383e-01
3.300000000000000000e+02 2.649566459655761719e+01 -1.396126365661621094e+01 -8.178020268678665161e-02 2.708503007888793945e+00 7.880168557167053223e-01 -3.104209899902343750e-01
3.310000000000000000e+02 2.666774749755859375e+01 -1.408962535858154297e+01 -7.026667147874832153e-02 3.010872602462768555e+00 8.821817636489868164e-01 -1.306930035352706909e-01
3.320000000000000000e+02 2.689941596984863281e+01 -1.440852260589599609e+01 7.311390712857246399e-03 3.553303956985473633e+00 1.068184614181518555e+00 2.757862508296966553e-01
3.330000000000000000e+02 2.698229408264160156e+01 -1.462119293212890625e+01 1.588453203439712524e-01 3.984356641769409180e+00 1.242960572242736816e+00 6.153935194015502930e-01
3.340000000000000000e+02 2.637171745300292969e+01 -1.465249347686767578e+01 2.275626808404922485e-01 3.541006803512573242e+00 1.130570888519287109e+00 -8.846075534820556641e-01
3.350000000000000000e+02 2.676693916320800781e+01 -1.464278316497802734e+01 4.747738316655158997e-02 4.162920475006103516e+00 1.263119339942932129e+00 5.028111487627029419e-02
3.360000000000000000e+02 2.638908004760742188e+01 -1.482498836517333984e+01 3.156869411468505859e-01 3.859967708587646484e+00 1.252696394920349121e+00 -1.044035434722900391e+00
3.370000000000000000e+02 2.761235237121582031e+01 -1.574276828765869141e+01 3.054816722869873047e+00 1.549004435539245605e+00 1.381146311759948730e+00 9.619503021240234375e-01
3.380000000000000000e+02 2.645223236083984375e+01 -1.699022674560546875e+01 -3.713738918304443359e+00 2.801112413406372070e+00 -2.737879157066345215e-01 2.879280328750610352e+00
3.390000000000000000e+02 2.674275779724121094e+01 -1.717179679870605469e+01 -4.867696762084960938e+00 7.918918728828430176e-01 -1.222741484642028809e+00 1.048750400543212891e+00
3.400000000000000000e+02 2.751930427551269531e+01 -1.635208892822265625e+01 1.902287125587463379e+00 1.038075208663940430e+00 8.821086883544921875e-01 -7.987434864044189453e-01
3.410000000000000000e+02 2.784153938293457031e+01 -1.612719917297363281e+01 1.981039047241210938e+00 4.164780974388122559e-01 7.192551493644714355e-01 -8.531231880187988281e-01
3.420000000000000000e+02 2.702681159973144531e+01 -1.717636680603027344e+01 -5.166330337524414062e+00 1.871235966682434082e+00 -9.885283112525939941e-01 -4.783229902386665344e-02
3.430000000000000000e+02 2.651830291748046875e+01 -1.433831405639648438e+01 2.184148691594600677e-02 3.212931871414184570e+00 9.704320430755615234e-01 -3.933496475219726562e-01
3.440000000000000000e+02 2.590484428405761719e+01 -1.343747997283935547e+01 2.731062844395637512e-02 1.823811769485473633e+00 5.553367137908935547e-01 -5.093552470207214355e-01
3.450000000000000000e+02 2.589351654052734375e+01 -1.364067173004150391e+01 8.836852759122848511e-02 1.899913072586059570e+00 5.964844822883605957e-01 -5.879977345466613770e-01
3.460000000000000000e+02 2.519534873962402344e+01 -1.494345855712890625e+01 -5.877095460891723633e-01 -2.048289299011230469e+00 -7.907996177673339844e-01 1.202461242675781250e+00
3.470000000000000000e+02 2.463971900939941406e+01 -1.449051094055175781e+01 -7.133950591087341309e-01 -2.201071739196777344e+00 -8.743400573730468750e-01 1.297082543373107910e+00
3.480000000000000000e+02 2.606342887878417969e+01 -1.436586284637451172e+01 3.297685682773590088e-01 2.526992797851562500e+00 8.570284247398376465e-01 -9.287009239196777344e-01
3.490000000000000000e+02 2.513090896606445312e+01 -1.580491256713867188e+01 4.094052016735076904e-01 -2.530435800552368164e+00 -6.363092064857482910e-01 1.551376342773437500e+00
3.500000000000000000e+02 2.501041412353515625e+01 -1.556346416473388672e+01 7.683736830949783325e-02 -2.435811758041381836e+00 -7.076923251152038574e-01 1.329849720001220703e+00
3.510000000000000000e+02 2.665295791625976562e+01 -1.431080627441406250e+01 -4.539943858981132507e-02 3.343095541000366211e+00 9.893088340759277344e-01 -1.727618575096130371e-01
3.520000000000000000e+02 2.654206848144531250e+01 -1.448623466491699219e+01 5.684598535299301147e-02 3.546154260635375977e+00 1.080900073051452637e+00 -4.576266407966613770e-01
3.530000000000000000e+02 2.654563522338867188e+01 -1.420963573455810547e+01 -5.313536152243614197e-02 3.070304632186889648e+00 9.051507711410522461e-01 -2.950733006000518799e-01
3.540000000000000000e+02 2.442906379699707031e+01 -1.440987205505371094e+01 -7.320020794868469238e-01 -2.189027547836303711e+00 -8.763088583946228027e-01 1.292256593704223633e+00
3.550000000000000000e+02 2.477627182006835938e+01 -1.544214725494384766e+01 -2.012349069118499756e-01 -2.351884365081787109e+00 -7.659357786178588867e-01 1.371763467788696289e+00
3.560000000000000000e+02 2.500266456604003906e+01 -1.538415431976318359e+01 -5.861975625157356262e-02 -2.257278919219970703e+00 -6.947695612907409668e-01 1.210770726203918457e+00
3.570000000000000000e+02 2.589643287658691406e+01 -1.415609741210937500e+01 3.188256919384002686e-01 2.056997776031494141e+00 7.127470970153808594e-01 -8.782876729965209961e-01
3.580000000000000000e+02 2.586021995544433594e+01 -1.431583786010742188e+01 4.550533890724182129e-01 2.006824970245361328e+00 7.385635375976562500e-01 -9.794964790344238281e-01
3.590000000000000000e+02 2.586242485046386719e+01 -1.399706745147705078e+01 2.565020918846130371e-01 2.006551742553710938e+00 6.789160966873168945e-01 -8.132408857345581055e-01
3.600000000000000000e+02 2.586916160583496094e+01 -1.383197307586669922e+01 1.546837240457534790e-01 1.958448529243469238e+00 6.339396834373474121e-01 -6.792002916336059570e-01
3.610000000000000000e+02 2.433996200561523438e+01 -1.462311553955078125e+01 -5.825318098068237305e-01 -2.130925655364990234e+00 -8.140372633934020996e-01 1.236659765243530273e+00
3.620000000000000000e+02 2.462853240966796875e+01 -1.479352283477783203e+01 -5.563414692878723145e-01 -2.190668106079101562e+00 -8.241028189659118652e-01 1.261465311050415039e+00
3.630000000000000000e+02 2.458862304687500000e+01 -1.508978748321533203e+01 -4.228448569774627686e-01 -2.217387676239013672e+00 -7.920697331428527832e-01 1.301752209663391113e+00
3.640000000000000000e+02 2.492507362365722656e+01 -1.477602386474609375e+01 -6.654420495033264160e-01 -2.116613864898681641e+00 -8.346167802810668945e-01 1.253973484039306641e+00
3.650000000000000000e+02 2.635940170288085938e+01 -1.415460014343261719e+01 4.418355971574783325e-02 2.799601793289184570e+00 8.531355857849121094e-01 -5.232289433479309082e-01
3.660000000000000000e+02 2.513524627685546875e+01 -1.250455093383789062e+01 6.722218543291091919e-02 1.104574799537658691e+00 3.515391051769256592e-01 -3.725396692752838135e-01
3.670000000000000000e+02 2.489297676086425781e+01 -1.211029911041259766e+01 4.375714436173439026e-02 9.753738641738891602e-01 3.057393133640289307e-01 -2.996999323368072510e-01
3.680000000000000000e+02 2.530204582214355469e+01 -1.182826900482177734e+01 -9.957920014858245850e-02 1.106896877288818359e+00 3.021952807903289795e-01 -1.933464407920837402e-01
3.690000000000000000e+02 2.564361381530761719e+01 -1.269466686248779297e+01 -3.240001201629638672e-02 1.407921910285949707e+00 4.126565754413604736e-01 -3.683479130268096924e-01
3.700000000000000000e+02 2.453022766113281250e+01 -1.062025642395019531e+01 -1.240266039967536926e-01 7.011916637420654297e-01 1.731495261192321777e-01 -7.025338709354400635e-02
3.710000000000000000e+02 2.407065391540527344e+01 -1.152478027343750000e+01 7.778530567884445190e-02 6.520918011665344238e-01 2.189631313085556030e-01 -2.748511731624603271e-01
3.720000000000000000e+02 2.425745201110839844e+01 -1.201852226257324219e+01 1.722510606050491333e-01 7.751775979995727539e-01 2.842285931110382080e-01 -3.703004717826843262e-01
3.730000000000000000e+02 2.386531448364257812e+01 -1.094591331481933594e+01 3.953433409333229065e-02 5.503897070884704590e-01 1.769772022962570190e-01 -1.910636872053146362e-01
3.740000000000000000e+02 2.534972572326660156e+01 -1.298344993591308594e+01 9.578207135200500488e-02 1.315469980239868164e+00 4.233756065368652344e-01 -5.270946025848388672e-01
3.750000000000000000e+02 2.518733406066894531e+01 -1.309117221832275391e+01 1.509298086166381836e-01 1.202689409255981445e+00 4.060857594013214111e-01 -5.353232622146606445e-01
3.760000000000000000e+02 2.501851463317871094e+01 -1.316687393188476562e+01 2.165115028619766235e-01 1.056371808052062988e+00 3.818649947643280029e-01 -5.386252403259277344e-01
3.770000000000000000e+02 2.478522491455078125e+01 -1.319152832031250000e+01 2.443510591983795166e-01 9.038399457931518555e-01 3.444572985172271729e-01 -4.906578063964843750e-01
3.780000000000000000e+02 2.580792045593261719e+01 -1.249409198760986328e+01 -1.219721287488937378e-01 1.422037959098815918e+00 3.900197446346282959e-01 -2.481499612331390381e-01
3.790000000000000000e+02 2.506255912780761719e+01 -1.293958854675292969e+01 1.571795940399169922e-01 1.094966650009155273e+00 3.756438791751861572e-01 -4.905528724193572998e-01
3.800000000000000000e+02 2.548794746398925781e+01 -1.284543704986572266e+01 9.703153744339942932e-03 1.385084390640258789e+00 4.184362590312957764e-01 -4.337323307991027832e-01
3.810000000000000000e+02 2.453681564331054688e+01 -1.247318077087402344e+01 1.977955847978591919e-01 8.826901316642761230e-01 3.241457045078277588e-01 -4.091248512268066406e-01
3.820000000000000000e+02 2.482792091369628906e+01 -1.279228973388671875e+01 1.829381585121154785e-01 9.690386056900024414e-01 3.455930352210998535e-01 -4.576810002326965332e-01
3.830000000000000000e+02 2.548855590820312500e+01 -1.232759761810302734e+01 -6.865448504686355591e-02 1.272202849388122559e+00 3.610645234584808350e-01 -2.769274413585662842e-01
3.840000000000000000e+02 2.492488288879394531e+01 -1.125096130371093750e+01 -1.067749410867691040e-01 8.909032940864562988e-01 2.352385073900222778e-01 -1.360630542039871216e-01
3.850000000000000000e+02 2.454713821411132812e+01 -1.166442203521728516e+01 2.623279951512813568e-02 8.187628984451293945e-01 2.534987032413482666e-01 -2.437383979558944702e-01
3.860000000000000000e+02 2.526254653930664062e+01 -1.278699111938476562e+01 6.811273097991943359e-02 1.225557684898376465e+00 3.881011307239532471e-01 -4.435430467128753662e-01
3.870000000000000000e+02 2.352040100097656250e+01 -1.030764293670654297e+01 3.458477556705474854e-03 3.980311453342437744e-01 1.204468831419944763e-01 -1.051523834466934204e-01
3.880000000000000000e+02 2.342252731323242188e+01 -8.612430572509765625e+00 -2.762433886528015137e-01 2.389577627182006836e-01 -1.118568982928991318e-02 1.670606583356857300e-01
3.890000000000000000e+02 2.416796875000000000e+01 -9.949502944946289062e+00 -1.676587164402008057e-01 5.322055816650390625e-01 1.093640625476837158e-01 1.654230058193206787e-02
3.900000000000000000e+02 2.304839897155761719e+01 -7.944846630096435547e+00 -3.435313999652862549e-01 1.099559962749481201e-01 -7.007262110710144043e-02 2.418857365846633911e-01
3.910000000000000000e+02 2.278476524353027344e+01 -8.988129615783691406e+00 -1.022266820073127747e-01 6.035359576344490051e-02 -1.256192661821842194e-02 7.289902865886688232e-02
3.920000000000000000e+02 2.241554069519042969e+01 -8.329325675964355469e+00 -1.767170131206512451e-01 -1.060668826103210449e-01 -8.483517169952392578e-02 1.737544387578964233e-01
3.930000000000000000e+02 2.315305709838867188e+01 -9.647591590881347656e+00 -4.865904524922370911e-02 2.227316796779632568e-01 5.222178995609283447e-02 -1.885357871651649475e-02
3.940000000000000000e+02 2.379572296142578125e+01 -9.280672073364257812e+00 -2.144869267940521240e-01 3.881038725376129150e-01 5.208509042859077454e-02 9.034235775470733643e-02
3.950000000000000000e+02 2.176358604431152344e+01 -5.991405963897705078e+00 -5.903353691101074219e-01 -2.727840244770050049e-01 -2.589358091354370117e-01 4.847765862941741943e-01
3.960000000000000000e+02 2.073557853698730469e+01 -5.794119834899902344e+00 -5.737712383270263672e-01 -7.046375274658203125e-01 -3.835226297378540039e-01 6.117280721664428711e-01
3.970000000000000000e+02 2.159106254577636719e+01 -7.055338859558105469e+00 -3.289195299148559570e-01 -3.994614183902740479e-01 -2.185142934322357178e-01 3.740954995155334473e-01
3.980000000000000000e+02 2.201800537109375000e+01 -7.684557914733886719e+00 -2.566379308700561523e-01 -2.607349157333374023e-01 -1.552118510007858276e-01 2.762564122676849365e-01
3.990000000000000000e+02 2.264233016967773438e+01 -7.286725521087646484e+00 -4.132538735866546631e-01 -2.534727193415164948e-02 -1.315803378820419312e-01 3.151842355728149414e-01
4.000000000000000000e+02 2.132341575622558594e+01 -5.342503070831298828e+00 -6.888994574546813965e-01 -3.551256656646728516e-01 -3.132075369358062744e-01 5.330451130867004395e-01
4.010000000000000000e+02 2.116358566284179688e+01 -6.425094127655029297e+00 -4.093459844589233398e-01 -5.459043383598327637e-01 -2.865750789642333984e-01 4.812898933887481689e-01
4.020000000000000000e+02 2.220322418212890625e+01 -6.639578342437744141e+00 -4.780345559120178223e-01 -1.627216637134552002e-01 -1.922268718481063843e-01 3.982922732830047607e-01
4.030000000000000000e+02 1.974656295776367188e+01 -3.537436008453369141e+00 -9.458478093147277832e-01 -5.999141335487365723e-01 -4.637285768985748291e-01 7.368859648704528809e-01
4.040000000000000000e+02 1.870244216918945312e+01 -3.497282505035400391e+00 -1.113453865051269531e+00 -9.429141283035278320e-01 -6.169103980064392090e-01 9.518332481384277344e-01
4.050000000000000000e+02 1.974456596374511719e+01 -4.629005432128906250e+00 -7.935409545898437500e-01 -7.900915741920471191e-01 -4.750897586345672607e-01 7.881318926811218262e-01
4.060000000000000000e+02 2.026276969909667969e+01 -5.195233345031738281e+00 -7.224560976028442383e-01 -7.736309766769409180e-01 -4.488261044025421143e-01 7.220057845115661621e-01
4.070000000000000000e+02 2.083261680603027344e+01 -4.721695899963378906e+00 -7.532611489295959473e-01 -4.697702229022979736e-01 -3.669094145298004150e-01 5.894882082939147949e-01
4.080000000000000000e+02 1.920084571838378906e+01 -2.946005821228027344e+00 -9.797986745834350586e-01 -6.321606040000915527e-01 -4.835878014564514160e-01 6.952920556068420410e-01
4.090000000000000000e+02 1.922434425354003906e+01 -4.062799930572509766e+00 -8.726190328598022461e-01 -8.600392341613769531e-01 -5.197974443435668945e-01 8.655600547790527344e-01
4.100000000000000000e+02 2.029059791564941406e+01 -4.129554748535156250e+00 -8.135767579078674316e-01 -5.668016672134399414e-01 -4.141135215759277344e-01 6.846600174903869629e-01
4.110000000000000000e+02 1.724629974365234375e+01 -1.505973219871520996e+00 -9.359675645828247070e-01 -6.052913665771484375e-01 -4.623776972293853760e-01 7.263042330741882324e-01
4.120000000000000000e+02 1.620514488220214844e+01 -1.697480440139770508e+00 -1.136621713638305664e+00 -5.466343760490417480e-01 -5.049768090248107910e-01 7.289390563964843750e-01
4.130000000000000000e+02 1.748624420166015625e+01 -2.562495470046997070e+00 -1.172537565231323242e+00 -6.273440122604370117e-01 -5.399644970893859863e-01 8.541319966316223145e-01
4.140000000000000000e+02 1.812313652038574219e+01 -2.997157573699951172e+00 -1.257903218269348145e+00 -8.209471106529235840e-01 -6.236550807952880859e-01 9.429510831832885742e-01
4.150000000000000000e+02 1.859226417541503906e+01 -2.421155929565429688e+00 -9.298697113990783691e-01 -7.133241891860961914e-01 -4.929581582546234131e-01 7.163838148117065430e-01
4.160000000000000000e+02 1.657006454467773438e+01 -1.050868153572082520e+00 -8.334973454475402832e-01 -5.922971367835998535e-01 -4.277383387088775635e-01 6.405339837074279785e-01
4.170000000000000000e+02 1.792063713073730469e+01 -1.962957024574279785e+00 -9.314377307891845703e-01 -6.978207826614379883e-01 -4.887775778770446777e-01 7.819986939430236816e-01
4.180000000000000000e+02 1.684664344787597656e+01 -2.129048585891723633e+00 -1.102728962898254395e+00 -5.811864137649536133e-01 -5.051745772361755371e-01 7.974298000335693359e-01
4.190000000000000000e+02 1.437439537048339844e+01 -8.830149471759796143e-02 -6.352082490921020508e-01 -3.231049776077270508e-01 -2.874939739704132080e-01 4.446795284748077393e-01
4.200000000000000000e+02 1.338726615905761719e+01 -4.958960413932800293e-01 -6.023654341697692871e-01 -1.584763824939727783e-01 -2.282525449991226196e-01 2.784321308135986328e-01
4.210000000000000000e+02 1.481616306304931641e+01 -1.058209896087646484e+00 -8.495863676071166992e-01 -2.384737581014633179e-01 -3.264180421829223633e-01 4.384346902370452881e-01
4.220000000000000000e+02 1.552819252014160156e+01 -1.340840697288513184e+00 -1.061311602592468262e+00 -3.922563493251800537e-01 -4.360703825950622559e-01 5.945037007331848145e-01
4.230000000000000000e+02 1.586064529418945312e+01 -6.765008568763732910e-01 -7.427702546119689941e-01 -5.522814989089965820e-01 -3.885155320167541504e-01 5.991457104682922363e-01
4.240000000000000000e+02 1.362912273406982422e+01 2.041978091001510620e-01 -5.505222082138061523e-01 -2.608104646205902100e-01 -2.433997839689254761e-01 3.703063428401947021e-01
4.250000000000000000e+02 1.511841678619384766e+01 -3.819521367549896240e-01 -7.078385949134826660e-01 -4.296077787876129150e-01 -3.412339091300964355e-01 5.629404187202453613e-01
4.260000000000000000e+02 1.410233974456787109e+01 -7.764772772789001465e-01 -6.954379677772521973e-01 -1.801840215921401978e-01 -2.626865804195404053e-01 3.574253916740417480e-01
4.270000000000000000e+02 1.131013679504394531e+01 8.408998847007751465e-01 -3.793715238571166992e-01 -1.070581972599029541e-01 -1.459289193153381348e-01 1.768340021371841431e-01
4.280000000000000000e+02 1.042135906219482422e+01 2.992311716079711914e-01 -2.826222479343414307e-01 -4.196669533848762512e-02 -9.737668186426162720e-02 8.176811784505844116e-02
4.290000000000000000e+02 1.191366195678710938e+01 -7.340838760137557983e-02 -3.883001208305358887e-01 -6.667477637529373169e-02 -1.364924758672714233e-01 1.427212655544281006e-01
4.300000000000000000e+02 1.265766906738281250e+01 -2.614961266517639160e-01 -4.994089007377624512e-01 -9.401453286409378052e-02 -1.780270338058471680e-01 2.083436101675033569e-01
4.310000000000000000e+02 1.286749935150146484e+01 4.488001465797424316e-01 -4.797238409519195557e-01 -2.166730314493179321e-01 -2.089190632104873657e-01 2.991510927677154541e-01
4.320000000000000000e+02 1.052962684631347656e+01 1.034987807273864746e+00 -3.248419463634490967e-01 -6.981273740530014038e-02 -1.183964014053344727e-01 1.397109478712081909e-01
4.330000000000000000e+02 1.116801452636718750e+01 1.136300638318061829e-01 -3.189382851123809814e-01 -3.555854782462120056e-02 -1.063490509986877441e-01 1.114029958844184875e-01
4.340000000000000000e+02 1.208963775634765625e+01 6.453746557235717773e-01 -4.326157271862030029e-01 -1.371056437492370605e-01 -1.709164083003997803e-01 2.393667399883270264e-01
4.350000000000000000e+02 8.889401435852050781e+00 3.921107649803161621e-01 -1.464138925075531006e-01 -8.736136369407176971e-03 -4.654501006007194519e-02 2.757234871387481689e-02
4.360000000000000000e+02 8.116916656494140625e+00 3.926678001880645752e-01 -9.728293120861053467e-02 1.211618888191878796e-03 -2.882139384746551514e-02 2.087375894188880920e-02
4.370000000000000000e+02 6.570821762084960938e+00 3.927459418773651123e-01 -3.142619132995605469e-02 2.201194176450371742e-03 -8.767499588429927826e-03 1.263873279094696045e-02
4.380000000000000000e+02 7.343883514404296875e+00 3.927603960037231445e-01 -6.019966304302215576e-02 -5.711279809474945068e-03 -1.977328211069107056e-02 1.559599768370389938e-02
4.390000000000000000e+02 5.070312023162841797e+00 1.132621407508850098e+00 -4.033086448907852173e-02 -9.866790845990180969e-03 -1.505929604172706604e-02 2.452514506876468658e-02
4.400000000000000000e+02 5.024641513824462891e+00 3.926214277744293213e-01 7.939494214951992035e-03 1.449983916245400906e-03 2.816843567416071892e-03 6.679899990558624268e-03
4.410000000000000000e+02 2.729459524154663086e+00 1.132232308387756348e+00 -1.400071545504033566e-03 -4.417450167238712311e-03 -1.745256478898227215e-03 -2.700647804886102676e-03
4.420000000000000000e+02 2.704867601394653320e+00 3.922322988510131836e-01 2.194572240114212036e-02 -1.930899568833410740e-03 6.004447117447853088e-03 -1.691422425210475922e-03
4.430000000000000000e+02 1.949102401733398438e+00 1.132174730300903320e+00 1.841265009716153145e-03 -3.988543990999460220e-03 -6.441837176680564880e-04 -6.133688148111104965e-03
4.440000000000000000e+02 1.931536912918090820e+00 3.921746909618377686e-01 1.567579619586467743e-02 -5.160601576790213585e-04 4.547920543700456619e-03 -4.279562272131443024e-03
4.450000000000000000e+02 1.158940911293029785e+00 3.918712735176086426e-01 7.333929184824228287e-03 7.968404097482562065e-04 2.439230913296341896e-03 -3.881602315232157707e-03
4.460000000000000000e+02 3.899181485176086426e-01 1.130777001380920410e+00 9.572565904818475246e-04 6.902462802827358246e-03 2.357915742322802544e-03 -3.983069676905870438e-03
4.470000000000000000e+02 3.864050507545471191e-01 3.907769918441772461e-01 1.617436413653194904e-03 1.493347343057394028e-03 9.332351037301123142e-04 -1.596901565790176392e-03
4.480000000000000000e+02 4.251531124114990234e+00 3.925212025642395020e-01 1.899820938706398010e-02 -3.733200952410697937e-03 4.579502623528242111e-03 4.098530858755111694e-03
4.490000000000000000e+02 3.478284358978271484e+00 3.923543989658355713e-01 2.334953658282756805e-02 -2.311303796886932105e-05 6.997927092015743256e-03 3.151075216010212898e-04
4.500000000000000000e+02 4.290175437927246094e+00 1.132521271705627441e+00 -2.279979549348354340e-02 -4.434635397046804428e-03 -8.170329965651035309e-03 1.429977733641862869e-02
4.510000000000000000e+02 5.797791481018066406e+00 3.927051424980163574e-01 -8.641961961984634399e-03 -4.656122066080570221e-03 -3.989425022155046463e-03 9.630979970097541809e-03
4.520000000000000000e+02 6.630544662475585938e+00 1.132745981216430664e+00 -9.341084957122802734e-02 -1.083084009587764740e-02 -3.127250447869300842e-02 4.050599783658981323e-02
4.530000000000000000e+02 8.190691947937011719e+00 1.132667779922485352e+00 -1.713492423295974731e-01 -1.761405915021896362e-02 -5.668899044394493103e-02 6.354994326829910278e-02
4.540000000000000000e+02 8.970203399658203125e+00 1.132110714912414551e+00 -2.254036217927932739e-01 -1.948908716440200806e-02 -7.346781343221664429e-02 8.645049482583999634e-02
4.550000000000000000e+02 9.661880493164062500e+00 3.908598423004150391e-01 -2.240490764379501343e-01 -1.361114718019962311e-02 -7.129807025194168091e-02 5.010070279240608215e-02
4.560000000000000000e+02 9.749707221984863281e+00 1.130859851837158203e+00 -2.718063592910766602e-01 -5.761718004941940308e-02 -9.882705658674240112e-02 1.159388124942779541e-01
4.570000000000000000e+02 7.410632610321044922e+00 1.132760405540466309e+00 -1.292727887630462646e-01 -5.039754323661327362e-03 -4.029376059770584106e-02 5.022737011313438416e-02
4.580000000000000000e+02 1.169480204582214355e+00 1.131871223449707031e+00 2.797480439767241478e-03 2.030130010098218918e-03 1.448283088393509388e-03 -8.941158652305603027e-03
4.590000000000000000e+02 5.850488185882568359e+00 1.132705092430114746e+00 -6.499110907316207886e-02 -2.944862702861428261e-03 -2.038079127669334412e-02 3.156193345785140991e-02
4.600000000000000000e+02 3.509902238845825195e+00 1.132354378700256348e+00 -8.969071321189403534e-03 -9.275942109525203705e-03 -5.473503842949867249e-03 7.741244509816169739e-03
4.610000000000000000e+02 1.445141410827636719e+01 -1.738320231437683105e+00 -1.663187742233276367e+00 -2.734802365303039551e-01 -5.810003876686096191e-01 6.765437126159667969e-01
4.620000000000000000e+02 1.399005413055419922e+01 -2.351786375045776367e+00 -1.432548642158508301e+00 -1.437087357044219971e-01 -4.728772044181823730e-01 6.629787087440490723e-01
4.630000000000000000e+02 1.315893840789794922e+01 -1.124567389488220215e+00 -1.678547501564025879e+00 -1.802343279123306274e-01 -5.576345324516296387e-01 5.704218149185180664e-01
4.640000000000000000e+02 1.342884063720703125e+01 -1.939940571784973145e+00 -1.569574713706970215e+00 -1.032382324337959290e-01 -5.018438696861267090e-01 5.663126707077026367e-01
4.650000000000000000e+02 1.515422248840332031e+01 -2.034060716629028320e+00 -1.426513910293579102e+00 -2.467300593852996826e-01 -5.019732117652893066e-01 7.106213569641113281e-01
4.660000000000000000e+02 1.476873493194580078e+01 -2.677469968795776367e+00 -1.374154567718505859e+00 -2.248602360486984253e-01 -4.797044396400451660e-01 7.692580223083496094e-01
4.670000000000000000e+02 1.380067443847656250e+01 -1.425752282142639160e+00 -1.722680926322937012e+00 -2.167129814624786377e-01 -5.818181633949279785e-01 6.770499944686889648e-01
4.680000000000000000e+02 1.296116638183593750e+01 -1.574859380722045898e+00 -1.659063100814819336e+00 -7.665329426527023315e-02 -5.207149386405944824e-01 5.413355827331542969e-01
4.690000000000000000e+02 1.286564445495605469e+01 -2.057386875152587891e+00 -1.533905029296875000e+00 -2.230089902877807617e-02 -4.668617844581604004e-01 5.234954953193664551e-01
4.700000000000000000e+02 8.630937576293945312e+00 -1.906476259231567383e+00 -1.363002419471740723e+00 2.361505180597305298e-01 -3.380555808544158936e-01 -1.232957690954208374e-01
4.710000000000000000e+02 4.152989864349365234e+00 -1.872872233390808105e+00 -6.033974885940551758e-01 -3.768417239189147949e-02 -1.923245042562484741e-01 -4.997522234916687012e-01
4.720000000000000000e+02 5.712009072303771973e-01 -1.062618064880371094e+01 3.382008150219917297e-02 -4.225446224212646484e+00 -1.257487773895263672e+00 -3.229419291019439697e-01
4.730000000000000000e+02 9.843202590942382812e+00 -1.153270816802978516e+01 1.732235789299011230e+00 4.574970722198486328e+00 1.892161965370178223e+00 1.807801485061645508e+00
4.740000000000000000e+02 1.090670108795166016e+01 -1.166621017456054688e+01 2.949391841888427734e+00 1.908863067626953125e+00 1.457476496696472168e+00 1.826358914375305176e+00
4.750000000000000000e+02 1.191574764251708984e+01 -1.032788753509521484e+01 1.090899586677551270e+00 1.222380876541137695e+00 6.939840912818908691e-01 1.339753031730651855e+00
4.760000000000000000e+02 1.328015136718750000e+01 -1.102689361572265625e+01 9.097173810005187988e-01 1.717530637979507446e-01 3.244411349296569824e-01 3.139113783836364746e-01
4.770000000000000000e+02 1.831267547607421875e+01 -1.014553070068359375e+01 -3.574633300304412842e-01 -5.752807259559631348e-01 -2.798232138156890869e-01 6.699402928352355957e-01
4.780000000000000000e+02 1.970827674865722656e+01 -8.306672096252441406e+00 -6.320953965187072754e-01 -1.058878540992736816e+00 -5.072922110557556152e-01 9.508568644523620605e-01
4.790000000000000000e+02 2.081753730773925781e+01 -1.010665130615234375e+01 -6.299009323120117188e-01 -1.231758594512939453e+00 -5.584978461265563965e-01 9.665755033493041992e-01
4.800000000000000000e+02 2.277209663391113281e+01 -1.364647293090820312e+01 -7.776863574981689453e-01 -1.456236124038696289e+00 -6.701767444610595703e-01 1.045462608337402344e+00
4.810000000000000000e+02 2.242397117614746094e+01 -1.311424541473388672e+01 -7.281169295310974121e-01 -1.412465333938598633e+00 -6.421746611595153809e-01 1.003153681755065918e+00
4.820000000000000000e+02 2.504902076721191406e+01 -1.661705017089843750e+01 -2.197181463241577148e+00 -2.280519723892211914e+00 -1.343310356140136719e+00 2.525019884109497070e+00
4.830000000000000000e+02 2.555283164978027344e+01 -1.721854782104492188e+01 -6.212590694427490234e+00 -2.153204202651977539e+00 -2.509738445281982422e+00 3.644993066787719727e+00
4.840000000000000000e+02 2.731729507446289062e+01 -1.753847122192382812e+01 -7.933206081390380859e+00 3.844501078128814697e-02 -2.368428230285644531e+00 5.924231410026550293e-01
4.850000000000000000e+02 2.638005447387695312e+01 -1.762741851806640625e+01 -1.051094436645507812e+01 2.904882282018661499e-02 -3.144568681716918945e+00 2.889359474182128906e+00
4.860000000000000000e+02 1.699472188949584961e+00 -1.049228382110595703e+01 3.101218119263648987e-02 -2.933841228485107422e+00 -8.708487153053283691e-01 -9.020073413848876953e-01
4.870000000000000000e+02 6.074822545051574707e-01 -1.770425987243652344e+01 5.555404722690582275e-02 -5.578959941864013672e+00 -1.657021760940551758e+00 1.588336527347564697e-01
4.880000000000000000e+02 1.174900436401367188e+01 -1.843246269226074219e+01 2.271634817123413086e+00 3.425750732421875000e+00 1.709215641021728516e+00 -2.819880723953247070e+00
4.890000000000000000e+02 9.977222442626953125e+00 -1.616877174377441406e+01 2.169314622879028320e+00 6.952361583709716797e+00 2.736502885818481445e+00 -3.585135698318481445e+00
4.900000000000000000e+02 9.330520629882812500e+00 -1.491490268707275391e+01 1.863647341728210449e+00 1.027843666076660156e+01 3.642625331878662109e+00 -2.040640115737915039e+00
4.910000000000000000e+02 9.384919166564941406e+00 -1.275986671447753906e+01 2.420463085174560547e+00 8.511125564575195312e+00 3.279476642608642578e+00 1.746702909469604492e+00
4.920000000000000000e+02 1.814115881919860840e+00 -1.761583137512207031e+01 8.964131772518157959e-02 -3.918015480041503906e+00 -1.148512244224548340e+00 3.658429980278015137e-01
4.930000000000000000e+02 6.708155274391174316e-01 -2.328833580017089844e+01 8.978187106549739838e-03 -3.763323783874511719e+00 -1.126303672790527344e+00 2.138488143682479858e-01
4.940000000000000000e+02 7.018625736236572266e+00 -3.173389053344726562e+01 -2.122788429260253906e-01 -2.194470018148422241e-01 -1.295177489519119263e-01 3.419710397720336914e-01
4.950000000000000000e+02 1.739621162414550781e+01 -4.110985565185546875e+01 -2.294007986783981323e-01 7.973134517669677734e-01 1.703737974166870117e-01 -5.012252926826477051e-02
4.960000000000000000e+02 2.437255668640136719e+01 -3.968875885009765625e+01 1.126068904995918274e-01 6.580512523651123047e-01 2.311974465847015381e-01 -1.278633177280426025e-01
4.970000000000000000e+02 2.798403930664062500e+01 -4.098797988891601562e+01 2.407973408699035645e-01 4.920057952404022217e-01 2.198409289121627808e-01 -6.777350604534149170e-02
4.980000000000000000e+02 3.251170349121093750e+01 -3.892893600463867188e+01 4.141751825809478760e-01 2.114998847246170044e-01 1.877025216817855835e-01 -8.369804918766021729e-02
4.990000000000000000e+02 3.297018814086914062e+01 -3.244799423217773438e+01 5.274033546447753906e-01 4.450221359729766846e-02 1.715716719627380371e-01 -1.106631681323051453e-01
5.000000000000000000e+02 2.826003074645996094e+01 -3.273583221435546875e+01 5.490816831588745117e-01 2.945772707462310791e-01 2.530976831912994385e-01 -3.214839994907379150e-01
5.010000000000000000e+02 2.868952560424804688e+01 -3.118976211547851562e+01 6.853234767913818359e-01 1.694650799036026001e-01 2.564365565776824951e-01 -2.944076359272003174e-01
5.020000000000000000e+02 2.555892753601074219e+01 -3.163261795043945312e+01 6.275281906127929688e-01 3.805829584598541260e-01 3.024333417415618896e-01 -4.447769820690155029e-01
5.030000000000000000e+02 2.737503623962402344e+01 -3.066875076293945312e+01 7.117435336112976074e-01 2.321487367153167725e-01 2.831676900386810303e-01 -3.681548237800598145e-01
5.040000000000000000e+02 1.777888870239257812e+01 -2.676874160766601562e+01 9.722551107406616211e-01 1.303778648376464844e+00 6.828101277351379395e-01 -1.005431056022644043e+00
5.050000000000000000e+02 1.871235084533691406e+01 -2.556627845764160156e+01 1.371063113212585449e+00 1.380089402198791504e+00 8.253457546234130859e-01 -1.291321992874145508e+00
5.060000000000000000e+02 1.569526290893554688e+01 -2.251177024841308594e+01 1.517727017402648926e+00 1.763402700424194336e+00 9.843389391899108887e-01 -1.661520123481750488e+00
5.070000000000000000e+02 1.469127082824707031e+01 -2.151563835144042969e+01 1.692497730255126953e+00 2.043375253677368164e+00 1.120761871337890625e+00 -1.802542209625244141e+00
5.080000000000000000e+02 1.087245273590087891e+01 -1.928648185729980469e+01 1.256619334220886230e+00 3.731348752975463867e+00 1.496390461921691895e+00 -1.878107190132141113e+00
5.090000000000000000e+02 1.495777606964111328e+01 -2.554434204101562500e+01 6.874812841415405273e-01 1.656931519508361816e+00 7.033238410949707031e-01 -1.004962086677551270e+00
5.100000000000000000e+02 1.192873191833496094e+01 -2.477916145324707031e+01 2.506131231784820557e-01 1.762952208518981934e+00 6.040695905685424805e-01 -6.806674003601074219e-01
5.110000000000000000e+02 6.832060813903808594e-01 -2.470230674743652344e+01 -1.687794551253318787e-02 -3.342777967453002930e+00 -1.007896780967712402e+00 2.009160667657852173e-01
5.120000000000000000e+02 7.684745788574218750e-01 -3.036919593811035156e+01 -1.843764074146747589e-02 -2.103378772735595703e+00 -6.365449428558349609e-01 1.209385842084884644e-01
5.130000000000000000e+02 7.888234615325927734e+00 -3.810837554931640625e+01 -2.187315076589584351e-01 -1.600731164216995239e-01 -1.136413887143135071e-01 1.476753503084182739e-01
5.140000000000000000e+02 2.120466232299804688e+01 -3.836534118652343750e+01 -3.657779097557067871e-02 8.227607011795043945e-01 2.358548641204833984e-01 -2.153277099132537842e-01
5.150000000000000000e+02 8.093509078025817871e-01 -3.179045867919921875e+01 -1.526837702840566635e-03 -1.904781460762023926e+00 -5.718924999237060547e-01 1.057121306657791138e-01
5.160000000000000000e+02 9.047478437423706055e-01 -3.742416763305664062e+01 1.594367250800132751e-02 -1.387052774429321289e+00 -4.113327562808990479e-01 6.294917315244674683e-02
5.170000000000000000e+02 7.998808860778808594e+00 -4.096166610717773438e+01 -2.047912776470184326e-01 -1.855428069829940796e-01 -1.171002238988876343e-01 4.205104708671569824e-02
5.180000000000000000e+02 2.827080965042114258e+00 -3.833724594116210938e+01 1.335826120339334011e-03 -1.108706593513488770e+00 -3.322112262248992920e-01 1.190819069743156433e-01
5.190000000000000000e+02 3.620150375366210938e+01 -3.892647171020507812e+01 4.996297359466552734e-01 3.860351443290710449e-02 1.614699810743331909e-01 -6.096431612968444824e-02
5.200000000000000000e+02 3.854417037963867188e+01 -3.239366149902343750e+01 4.021633267402648926e-01 -1.387721579521894455e-02 1.164858341217041016e-01 -8.029669523239135742e-03
5.210000000000000000e+02 3.733128356933593750e+01 -3.238231277465820312e+01 4.422231018543243408e-01 2.002714388072490692e-02 1.386750638484954834e-01 -1.806991547346115112e-02
5.220000000000000000e+02 4.240526199340820312e+01 -3.705215454101562500e+01 4.946861267089843750e-01 -1.239199861884117126e-01 1.112298369407653809e-01 -1.316251605749130249e-01
5.230000000000000000e+02 4.730720520019531250e+01 -3.124705123901367188e+01 -2.960636019706726074e-01 -9.731269627809524536e-02 -1.180128902196884155e-01 -2.045719474554061890e-01
5.240000000000000000e+02 4.295693969726562500e+01 -3.231359863281250000e+01 1.462915688753128052e-01 -5.155618861317634583e-02 2.842061221599578857e-02 -6.699400395154953003e-02
5.250000000000000000e+02 4.150508117675781250e+01 -3.474087524414062500e+01 3.711300492286682129e-01 -6.715989112854003906e-02 9.119105339050292969e-02 -1.208697259426116943e-01
5.260000000000000000e+02 4.812893295288085938e+01 -4.111589813232421875e+01 8.151346445083618164e-01 -1.032081991434097290e-01 2.135779261589050293e-01 -4.837945848703384399e-02
5.270000000000000000e+02 5.267559814453125000e+01 -3.899146270751953125e+01 8.269150257110595703e-01 3.679547309875488281e-01 3.584609329700469971e-01 1.699335128068923950e-02
5.280000000000000000e+02 5.002024078369140625e+01 -3.023343467712402344e+01 -6.255698800086975098e-01 -1.679098159074783325e-01 -2.380439043045043945e-01 -3.306168019771575928e-01
5.290000000000000000e+02 4.868338394165039062e+01 -3.077750587463378906e+01 -4.779051244258880615e-01 -1.359305828809738159e-01 -1.841507107019424438e-01 -2.709053456783294678e-01
5.300000000000000000e+02 5.658071136474609375e+01 -3.878588485717773438e+01 7.514902949333190918e-01 1.332684874534606934e+00 6.252525448799133301e-01 1.222598552703857422e-01
5.310000000000000000e+02 5.725602340698242188e+01 -4.128349685668945312e+01 7.731182575225830078e-01 1.486207008361816406e+00 6.777975559234619141e-01 2.850585430860519409e-02
5.320000000000000000e+02 6.066273880004882812e+01 -3.037614250183105469e+01 4.480288922786712646e-02 2.310932874679565430e+00 7.067207694053649902e-01 7.018091678619384766e-01
5.330000000000000000e+02 6.184499359130859375e+01 -2.257089424133300781e+01 7.286610603332519531e-01 1.962568879127502441e+00 8.073689937591552734e-01 1.168935894966125488e+00
5.340000000000000000e+02 6.086057662963867188e+01 -2.360703277587890625e+01 4.034567773342132568e-01 1.296829462051391602e+00 5.100858807563781738e-01 8.114907145500183105e-01
5.350000000000000000e+02 5.867259979248046875e+01 -2.542952728271484375e+01 -2.149456888437271118e-01 3.296656608581542969e-01 3.441599756479263306e-02 1.131280362606048584e-01
5.360000000000000000e+02 5.632050704956054688e+01 -2.697068977355957031e+01 -6.440615057945251465e-01 -7.136106491088867188e-02 -2.146267741918563843e-01 -2.683482468128204346e-01
5.370000000000000000e+02 5.728324890136718750e+01 -2.816315841674804688e+01 -2.549874186515808105e-01 5.174976587295532227e-01 7.875306904315948486e-02 1.758765429258346558e-01
5.380000000000000000e+02 6.206756591796875000e+01 -4.093772506713867188e+01 4.798987507820129395e-01 3.318351507186889648e+00 1.139475107192993164e+00 1.124120578169822693e-01
5.390000000000000000e+02 7.203820037841796875e+01 -3.144875335693359375e+01 -3.192133009433746338e-01 7.373163223266601562e+00 2.116184949874877930e+00 2.213698625564575195e-02
5.400000000000000000e+02 6.673416137695312500e+01 -2.309321975708007812e+01 -4.232795834541320801e-01 6.725189685821533203e+00 1.890573024749755859e+00 1.237697482109069824e+00
5.410000000000000000e+02 7.936621093750000000e+01 -2.223645782470703125e+01 -5.724360793828964233e-02 7.856548309326171875e+00 2.339791536331176758e+00 -2.577446997165679932e-01
5.420000000000000000e+02 7.806217193603515625e+01 -1.654465293884277344e+01 8.821826428174972534e-02 6.454772472381591797e+00 1.962897181510925293e+00 -7.949191331863403320e-01
5.430000000000000000e+02 7.936692810058593750e+01 -1.249737167358398438e+01 3.531645983457565308e-02 4.134238243103027344e+00 1.250866413116455078e+00 -4.227211326360702515e-02
5.440000000000000000e+02 7.818659210205078125e+01 -9.686835289001464844e+00 2.440404891967773438e-01 5.914121627807617188e+00 1.847448706626892090e+00 6.022908091545104980e-01
5.450000000000000000e+02 7.940534973144531250e+01 -5.574676990509033203e+00 6.377616524696350098e-02 6.743352890014648438e+00 2.042138576507568359e+00 3.703126907348632812e-01
5.460000000000000000e+02 7.258658599853515625e+01 9.634875655174255371e-01 -1.081916689872741699e+00 8.235358238220214844e+00 2.146032571792602539e+00 -4.419296085834503174e-01
5.470000000000000000e+02 6.147634887695312500e+01 1.254431629180908203e+01 5.837811231613159180e-01 3.580729722976684570e+00 1.249353289604187012e+00 -7.857745289802551270e-01
5.480000000000000000e+02 5.628274917602539062e+01 1.114856338500976562e+01 3.703327775001525879e-01 3.290837049484252930e+00 1.098351001739501953e+00 -1.271234452724456787e-02
5.490000000000000000e+02 5.733240127563476562e+01 1.214662265777587891e+01 5.367004871368408203e-01 3.190173864364624023e+00 1.118062257766723633e+00 -4.414633512496948242e-01
5.500000000000000000e+02 5.539498519897460938e+01 1.006402015686035156e+01 3.971306681632995605e-01 2.821766853332519531e+00 9.656692743301391602e-01 4.966505169868469238e-01
5.510000000000000000e+02 5.357990646362304688e+01 7.785479545593261719e+00 5.594417452812194824e-01 8.904683589935302734e-01 4.349730312824249268e-01 5.547758936882019043e-01
5.520000000000000000e+02 5.228287124633789062e+01 7.038772583007812500e+00 5.282988548278808594e-01 3.279590606689453125e-01 2.568773627281188965e-01 3.628932535648345947e-01
5.530000000000000000e+02 5.100625610351562500e+01 6.454884052276611328e+00 3.582421243190765381e-01 1.340170800685882568e-01 1.476777642965316772e-01 2.165195196866989136e-01
5.540000000000000000e+02 4.988854980468750000e+01 3.826543807983398438e+00 3.320477902889251709e-02 1.739811003208160400e-01 6.215576454997062683e-02 3.444059193134307861e-01
5.550000000000000000e+02 4.977974700927734375e+01 6.042353153228759766e+00 1.139133498072624207e-01 4.282151907682418823e-02 4.702046141028404236e-02 1.483364254236221313e-01
5.560000000000000000e+02 4.426438522338867188e+01 7.286050319671630859e+00 -1.919391155242919922e-01 5.194132328033447266e-01 9.824223816394805908e-02 -5.611765757203102112e-02
5.570000000000000000e+02 4.004445648193359375e+01 4.426744461059570312e+00 -3.379657268524169922e-01 6.703604459762573242e-01 9.971841424703598022e-02 3.716537356376647949e-01
5.580000000000000000e+02 2.640287971496582031e+01 4.729063987731933594e+00 1.897684037685394287e-01 5.255142450332641602e-01 2.145847976207733154e-01 3.192199468612670898e-01
5.590000000000000000e+02 2.399864196777343750e+01 5.882392883300781250e+00 7.425513267517089844e-01 7.142001986503601074e-01 4.370254576206207275e-01 6.578359007835388184e-01
5.600000000000000000e+02 2.494802665710449219e+01 6.734673023223876953e+00 5.859553217887878418e-01 9.552996158599853516e-01 4.623764753341674805e-01 6.331402063369750977e-01
5.610000000000000000e+02 2.170682144165039062e+01 4.581556320190429688e+00 4.822548031806945801e-01 2.049089670181274414e-01 2.061491310596466064e-01 3.069404959678649902e-01
5.620000000000000000e+02 2.289299011230468750e+01 5.151544570922851562e+00 6.950024962425231934e-01 4.274379014968872070e-01 3.367321193218231201e-01 4.954170584678649902e-01
5.630000000000000000e+02 1.961400985717773438e+01 3.511152029037475586e+00 -3.670779168605804443e-01 -1.255829930305480957e-01 -1.477982699871063232e-01 4.432557225227355957e-01
5.640000000000000000e+02 1.735633850097656250e+01 4.055389165878295898e-01 -5.180611014366149902e-01 -6.474025845527648926e-01 -3.496390879154205322e-01 6.326540112495422363e-01
5.650000000000000000e+02 1.977070999145507812e+01 1.918824911117553711e+00 -4.000447392463684082e-01 -2.071086466312408447e-01 -1.821460127830505371e-01 5.776687264442443848e-01
5.660000000000000000e+02 1.462722110748291016e+01 7.155823111534118652e-01 -5.339153409004211426e-01 -4.576440453529357910e-01 -2.974678277969360352e-01 5.058341026306152344e-01
5.670000000000000000e+02 1.384109687805175781e+01 9.829631447792053223e-01 -4.967187941074371338e-01 -3.832342028617858887e-01 -2.639859020709991455e-01 4.182480275630950928e-01
5.680000000000000000e+02 1.399680042266845703e+01 1.880428671836853027e+00 -4.691392183303833008e-01 -4.722370207309722900e-01 -2.824128866195678711e-01 4.470746219158172607e-01
5.690000000000000000e+02 1.065194320678710938e+01 1.693408608436584473e+00 -3.587837517261505127e-01 -1.256921142339706421e-01 -1.453427672386169434e-01 1.922184675931930542e-01
5.700000000000000000e+02 5.671364665031433105e-01 6.399052143096923828e+00 -6.129886023700237274e-03 -8.726305514574050903e-02 -2.801788225769996643e-02 3.195445239543914795e-02
5.710000000000000000e+02 2.348029375076293945e+00 4.561428070068359375e+00 -3.640475869178771973e-02 -6.954259425401687622e-02 -3.178420662879943848e-02 6.026225164532661438e-02
5.720000000000000000e+02 6.701322937011718750e+01 -4.081918334960937500e+01 2.078577280044555664e-01 5.111144065856933594e+00 1.595700502395629883e+00 8.994616568088531494e-02
5.730000000000000000e+02 7.170519256591796875e+01 -4.090484237670898438e+01 4.445153474807739258e-02 7.088015556335449219e+00 2.139740228652954102e+00 2.416254952549934387e-02
5.740000000000000000e+02 7.918013000488281250e+01 -3.343470764160156250e+01 -5.681224167346954346e-02 9.728525161743164062e+00 2.901513814926147461e+00 -2.464225143194198608e-02
5.750000000000000000e+02 7.772383880615234375e+01 -3.045239067077636719e+01 -3.710275888442993164e-02 9.091067314147949219e+00 2.716189384460449219e+00 -1.744860261678695679e-01
5.760000000000000000e+02 7.933148193359375000e+01 -2.639791297912597656e+01 1.694608479738235474e-02 9.057208061218261719e+00 2.722246170043945312e+00 -1.528459489345550537e-01
5.770000000000000000e+02 7.810731506347656250e+01 -2.349320411682128906e+01 -1.030923649668693542e-01 8.300711631774902344e+00 2.459285974502563477e+00 -5.548852086067199707e-01
5.780000000000000000e+02 7.799384307861328125e+01 -4.160182952880859375e+01 1.317334473133087158e-01 9.326725006103515625e+00 2.837537765502929688e+00 3.704103082418441772e-02
5.790000000000000000e+02 7.815686798095703125e+01 -2.797803163528442383e+00 -1.776226609945297241e-01 8.314023971557617188e+00 2.440920352935791016e+00 7.548484802246093750e-01
5.800000000000000000e+02 7.934359741210937500e+01 2.808760404586791992e+00 -1.630518701858818531e-03 9.471974372863769531e+00 2.841103315353393555e+00 3.658815845847129822e-02
5.810000000000000000e+02 7.289556884765625000e+01 1.119704914093017578e+01 2.383264712989330292e-02 6.805471420288085938e+00 2.048791170120239258e+00 -7.416443824768066406e-01
5.820000000000000000e+02 6.079618453979492188e+01 1.923715400695800781e+01 3.958353698253631592e-01 3.740539789199829102e+00 1.240912556648254395e+00 -5.720108151435852051e-01
5.830000000000000000e+02 5.446477890014648438e+01 1.913213348388671875e+01 3.455790579319000244e-01 2.298461437225341797e+00 7.932121157646179199e-01 -9.184977412223815918e-01
5.840000000000000000e+02 5.353834533691406250e+01 1.758300018310546875e+01 6.634225845336914062e-01 1.238840937614440918e+00 5.706790685653686523e-01 -9.039835929870605469e-01
5.850000000000000000e+02 7.803191375732421875e+01 4.252530574798583984e+00 -7.525940239429473877e-02 8.984070777893066406e+00 2.672643423080444336e+00 -7.571616768836975098e-02
5.860000000000000000e+02 7.936056518554687500e+01 8.378976821899414062e+00 -1.248333975672721863e-02 9.075937271118164062e+00 2.719036102294921875e+00 -7.219715416431427002e-02
5.870000000000000000e+02 7.308922576904296875e+01 1.663001632690429688e+01 1.250833421945571899e-01 6.518272876739501953e+00 1.993006944656372070e+00 -5.950154662132263184e-01
5.880000000000000000e+02 6.093386077880859375e+01 2.276248359680175781e+01 3.522216975688934326e-01 3.775776386260986328e+00 1.238399386405944824e+00 -5.713712573051452637e-01
5.890000000000000000e+02 5.452526855468750000e+01 3.064290428161621094e+01 6.193422079086303711e-01 2.468686342239379883e+00 9.264085292816162109e-01 -2.784794867038726807e-01
5.900000000000000000e+02 4.731186294555664062e+01 4.051220703125000000e+01 7.006828784942626953e-01 1.711892127990722656e+00 7.237725257873535156e-01 5.736183375120162964e-04
5.910000000000000000e+02 3.825038909912109375e+01 4.020613098144531250e+01 6.110985279083251953e-01 8.868209719657897949e-01 4.493758678436279297e-01 3.498233854770660400e-02
5.920000000000000000e+02 4.271515655517578125e+01 4.045513153076171875e+01 6.765455603599548340e-01 1.252936005592346191e+00 5.788444876670837402e-01 1.820329762995243073e-02
5.930000000000000000e+02 3.458733367919921875e+01 3.858850097656250000e+01 5.426110029220581055e-01 6.446075439453125000e-01 3.561655580997467041e-01 6.265340000391006470e-02
5.940000000000000000e+02 3.689161682128906250e+01 3.215198898315429688e+01 5.313063859939575195e-01 8.071794509887695312e-01 4.015457332134246826e-01 1.634594053030014038e-01
5.950000000000000000e+02 3.866812133789062500e+01 2.376386642456054688e+01 3.379172384738922119e-01 1.014122486114501953e+00 4.056119322776794434e-01 2.685041129589080811e-01
5.960000000000000000e+02 4.032931518554687500e+01 1.666666221618652344e+01 5.605872869491577148e-01 1.413752317428588867e+00 5.923019051551818848e-01 3.578878343105316162e-01
5.970000000000000000e+02 3.854261779785156250e+01 1.174904441833496094e+01 2.664346396923065186e-01 9.806084036827087402e-01 3.741129040718078613e-01 5.781759023666381836e-01
5.980000000000000000e+02 3.723762512207031250e+01 1.141510295867919922e+01 1.683284789323806763e-01 8.678020238876342773e-01 3.108391463756561279e-01 6.241351962089538574e-01
5.990000000000000000e+02 4.146288299560546875e+01 1.184751987457275391e+01 2.616811096668243408e-01 1.561646580696105957e+00 5.469983220100402832e-01 3.709642291069030762e-01
6.000000000000000000e+02 4.242698669433593750e+01 8.213374137878417969e+00 -1.996610313653945923e-01 8.957039713859558105e-01 2.088128775358200073e-01 1.627034842967987061e-01
6.010000000000000000e+02 4.514677047729492188e+01 8.051646232604980469e+00 -5.986699461936950684e-02 1.218822970986366272e-01 1.860458962619304657e-02 -2.789415605366230011e-02
6.020000000000000000e+02 7.808239746093750000e+01 1.118186950683593750e+01 6.090907845646142960e-03 8.304280281066894531e+00 2.493111133575439453e+00 -2.480997294187545776e-01
6.030000000000000000e+02 7.936142730712890625e+01 1.672453498840332031e+01 -7.401173003017902374e-03 7.937248706817626953e+00 2.378954172134399414e+00 -6.620019674301147461e-02
6.040000000000000000e+02 7.199449157714843750e+01 2.422306632995605469e+01 1.347435861825942993e-01 5.947945594787597656e+00 1.824806809425354004e+00 -4.225297868251800537e-01
6.050000000000000000e+02 6.294333648681640625e+01 2.946760940551757812e+01 3.378558754920959473e-01 4.147469997406005859e+00 1.345597743988037109e+00 -4.247146546840667725e-01
6.060000000000000000e+02 5.804231643676757812e+01 3.492165374755859375e+01 5.229676365852355957e-01 3.250261783599853516e+00 1.131968855857849121e+00 -2.288677096366882324e-01
6.070000000000000000e+02 5.175774765014648438e+01 4.026571655273437500e+01 6.690340042114257812e-01 2.308241367340087891e+00 8.931826353073120117e-01 -2.265881374478340149e-02
6.080000000000000000e+02 7.806774139404296875e+01 1.948680114746093750e+01 1.896921545267105103e-02 7.400682926177978516e+00 2.225895643234252930e+00 -1.772281527519226074e-01
6.090000000000000000e+02 7.932543945312500000e+01 2.368180847167968750e+01 6.828979123383760452e-03 7.274607181549072266e+00 2.184430837631225586e+00 -4.484855011105537415e-02
6.100000000000000000e+02 7.318344879150390625e+01 3.104606437683105469e+01 7.331137359142303467e-02 5.920005798339843750e+00 1.797995090484619141e+00 -2.243343740701675415e-01
6.110000000000000000e+02 6.294982147216796875e+01 4.078299713134765625e+01 3.789823651313781738e-01 4.086768627166748047e+00 1.339725255966186523e+00 -4.554039239883422852e-02
6.120000000000000000e+02 5.863601303100585938e+01 4.033551788330078125e+01 5.158082246780395508e-01 3.286645412445068359e+00 1.140736103057861328e+00 -5.491342768073081970e-02
6.130000000000000000e+02 7.670337677001953125e+01 2.218385124206542969e+01 2.322204224765300751e-02 6.936326980590820312e+00 2.087864637374877930e+00 -2.418096959590911865e-01
6.140000000000000000e+02 7.927633666992187500e+01 2.927455139160156250e+01 -8.193507092073559761e-04 6.947087764739990234e+00 2.083880424499511719e+00 -3.110263310372829437e-02
6.150000000000000000e+02 6.771824645996093750e+01 3.791593551635742188e+01 2.162504047155380249e-01 4.941114902496337891e+00 1.547209501266479492e+00 -1.325251311063766479e-01
6.160000000000000000e+02 7.928783416748046875e+01 3.206745529174804688e+01 1.754619297571480274e-03 6.825182914733886719e+00 2.048081398010253906e+00 -2.412728592753410339e-02
6.170000000000000000e+02 7.904726409912109375e+01 3.753734207153320312e+01 1.327406801283359528e-02 6.622209072113037109e+00 1.990644931793212891e+00 -2.138402685523033142e-02
6.180000000000000000e+02 7.151653289794921875e+01 3.790998840332031250e+01 1.159867122769355774e-01 5.589607715606689453e+00 1.711678385734558105e+00 -1.030035987496376038e-01
6.190000000000000000e+02 7.729478454589843750e+01 3.715737152099609375e+01 -1.924426178447902203e-03 6.392834186553955078e+00 1.917272925376892090e+00 -7.057016342878341675e-02
6.200000000000000000e+02 3.151590347290039062e+01 4.069688796997070312e+01 5.052657127380371094e-01 4.737282395362854004e-01 2.936981916427612305e-01 3.440725803375244141e-02
6.210000000000000000e+02 2.996676826477050781e+01 3.757569122314453125e+01 4.565072655677795410e-01 3.609647452831268311e-01 2.452415972948074341e-01 1.016416698694229126e-01
6.220000000000000000e+02 3.326206207275390625e+01 3.353340911865234375e+01 4.868997037410736084e-01 5.397902727127075195e-01 3.080070018768310547e-01 1.497501730918884277e-01
6.230000000000000000e+02 2.867830085754394531e+01 2.417588424682617188e+01 3.460608720779418945e-01 1.299150437116622925e-01 1.427927762269973755e-01 2.622870802879333496e-01
6.240000000000000000e+02 2.716049194335937500e+01 1.687848854064941406e+01 -8.971828222274780273e-02 -1.388539522886276245e-01 -6.857167184352874756e-02 2.834802567958831787e-01
6.250000000000000000e+02 2.748539924621582031e+01 1.094004440307617188e+01 -1.926293373107910156e-01 1.532942652702331543e-01 -1.180052291601896286e-02 7.049982547760009766e-01
6.260000000000000000e+02 2.794486045837402344e+01 1.224075412750244141e+01 -2.915695905685424805e-01 1.538358330726623535e-01 -4.132013395428657532e-02 5.970511436462402344e-01
6.270000000000000000e+02 1.779121780395507812e+01 4.067159652709960938e+01 1.901084184646606445e-01 -2.448131740093231201e-01 -1.641142927110195160e-02 4.107208549976348877e-02
6.280000000000000000e+02 2.257936668395996094e+01 4.093445205688476562e+01 3.045453429222106934e-01 -2.598854480311274529e-03 9.058395028114318848e-02 3.296199813485145569e-02
6.290000000000000000e+02 2.435262489318847656e+01 3.092591667175292969e+01 3.334761857986450195e-01 3.713365271687507629e-02 1.111829504370689392e-01 2.553312182426452637e-01
6.300000000000000000e+02 1.945765876770019531e+01 2.243151855468750000e+01 1.857148706912994385e-01 -3.846935182809829712e-02 4.417365416884422302e-02 5.382752418518066406e-01
6.310000000000000000e+02 1.885811805725097656e+01 1.813420867919921875e+01 2.880850434303283691e-01 1.503890603780746460e-01 1.315422356128692627e-01 6.558753252029418945e-01
6.320000000000000000e+02 2.138024139404296875e+01 1.846326065063476562e+01 1.074438318610191345e-01 -3.101979196071624756e-01 -6.082622334361076355e-02 6.163350939750671387e-01
6.330000000000000000e+02 2.262780189514160156e+01 1.594007015228271484e+01 -6.278582811355590820e-01 -5.260285139083862305e-01 -3.461660444736480713e-01 5.249208211898803711e-01
6.340000000000000000e+02 2.489874649047851562e+01 1.629604530334472656e+01 -2.381691634654998779e-01 -5.000795125961303711e-01 -2.214746028184890747e-01 3.296109139919281006e-01
6.350000000000000000e+02 2.372729873657226562e+01 1.513914585113525391e+01 -6.728590130805969238e-01 -7.421810626983642578e-01 -4.245120286941528320e-01 6.282739639282226562e-01
6.360000000000000000e+02 2.539199066162109375e+01 1.307386493682861328e+01 -4.928627610206604004e-01 -8.746157288551330566e-01 -4.102435410022735596e-01 5.696071386337280273e-01
6.370000000000000000e+02 2.593876647949218750e+01 1.107391643524169922e+01 -1.375573128461837769e-01 -3.395536243915557861e-01 -1.431332826614379883e-01 3.714559674263000488e-01
6.380000000000000000e+02 2.586025047302246094e+01 9.801902770996093750e+00 8.409898728132247925e-03 2.012656480073928833e-01 6.290266662836074829e-02 2.594862282276153564e-01
6.390000000000000000e+02 2.580979728698730469e+01 8.566035270690917969e+00 2.466810643672943115e-01 7.143543958663940430e-01 2.883106470108032227e-01 4.311249554157257080e-01
6.400000000000000000e+02 2.612470626831054688e+01 7.335057258605957031e+00 4.527436792850494385e-01 6.867312788963317871e-01 3.418424725532531738e-01 5.030766725540161133e-01
6.410000000000000000e+02 1.809453201293945312e+01 3.266938781738281250e+01 1.883224844932556152e-01 -1.817322373390197754e-01 1.977077452465891838e-03 2.253993749618530273e-01
6.420000000000000000e+02 1.818164634704589844e+01 1.656784629821777344e+01 9.121887087821960449e-01 2.334617525339126587e-01 3.436951339244842529e-01 4.348782300949096680e-01
6.430000000000000000e+02 1.780100250244140625e+01 1.786382484436035156e+01 2.748871743679046631e-01 3.894719779491424561e-01 1.993077546358108521e-01 5.522381663322448730e-01
6.440000000000000000e+02 1.700765228271484375e+01 1.618494987487792969e+01 1.012674689292907715e+00 5.336404442787170410e-01 4.638945162296295166e-01 5.971819162368774414e-01
6.450000000000000000e+02 1.288211917877197266e+01 4.068397521972656250e+01 1.030026525259017944e-01 -4.900836050510406494e-01 -1.161242797970771790e-01 3.084675595164299011e-02
6.460000000000000000e+02 1.281329822540283203e+01 3.728142547607421875e+01 9.663336724042892456e-02 -4.779555499553680420e-01 -1.143966540694236755e-01 8.396271616220474243e-02
6.470000000000000000e+02 8.006676673889160156e+00 3.217271041870117188e+01 3.390357643365859985e-02 -7.088979482650756836e-01 -2.024983167648315430e-01 9.827318042516708374e-02
6.480000000000000000e+02 8.386551856994628906e+00 2.307985305786132812e+01 7.520335167646408081e-02 -5.504894256591796875e-01 -1.425858289003372192e-01 1.578356921672821045e-01
6.490000000000000000e+02 1.269441795349121094e+01 1.510079097747802734e+01 4.723652303218841553e-01 -2.169700860977172852e-01 7.661853730678558350e-02 3.626001477241516113e-01
6.500000000000000000e+02 1.315014648437500000e+01 9.773812294006347656e+00 -2.132333964109420776e-01 -5.606541037559509277e-01 -2.321662455797195435e-01 5.662679672241210938e-01
6.510000000000000000e+02 1.191842937469482422e+01 9.878362655639648438e+00 -1.979656368494033813e-01 -3.308892250061035156e-01 -1.586564630270004272e-01 6.148562431335449219e-01
6.520000000000000000e+02 1.259737968444824219e+01 1.362725830078125000e+01 4.071406424045562744e-01 -2.121794074773788452e-01 5.848836526274681091e-02 5.059339404106140137e-01
6.530000000000000000e+02 1.435890007019042969e+01 1.096595859527587891e+01 -2.312893792986869812e-02 -3.452123701572418213e-01 -1.105023920536041260e-01 1.903143376111984253e-01
6.540000000000000000e+02 1.448303604125976562e+01 8.370415687561035156e+00 -4.031777679920196533e-01 -1.277415633201599121e+00 -5.041780471801757812e-01 5.562947988510131836e-01
6.550000000000000000e+02 1.485678768157958984e+01 1.667592048645019531e+00 -4.512929916381835938e-01 -5.694587826728820801e-01 -3.062255382537841797e-01 4.955453872680664062e-01
6.560000000000000000e+02 2.021790742874145508e+00 4.163388824462890625e+01 -2.777564339339733124e-02 -1.266277790069580078e+00 -3.882160484790802002e-01 -7.869999855756759644e-03
6.570000000000000000e+02 4.551859855651855469e+00 3.757572174072265625e+01 1.652923598885536194e-02 -1.077216148376464844e+00 -3.182060718536376953e-01 4.720699414610862732e-02
6.580000000000000000e+02 2.008229970932006836e+00 3.572945404052734375e+01 1.014728657901287079e-02 -1.234783649444580078e+00 -3.673909008502960205e-01 -4.043263383209705353e-03
6.590000000000000000e+02 1.861321926116943359e+00 2.897323226928710938e+01 1.992657082155346870e-03 -1.179587244987487793e+00 -3.532783687114715576e-01 2.217570878565311432e-02
6.600000000000000000e+02 1.875233411788940430e+00 2.345940780639648438e+01 7.250090595334768295e-03 -1.089063763618469238e+00 -3.245441019535064697e-01 3.960284963250160217e-02
6.610000000000000000e+02 1.935823202133178711e+00 1.781166648864746094e+01 1.887442730367183685e-02 -8.916323781013488770e-01 -2.618273794651031494e-01 1.067835763096809387e-01
6.620000000000000000e+02 1.763363957405090332e+00 9.248740196228027344e+00 -1.017246302217245102e-02 -3.090515732765197754e-01 -9.576720744371414185e-02 1.434635519981384277e-01
6.630000000000000000e+02 5.944715499877929688e+00 1.905300498008728027e+00 -1.135171651840209961e-01 -2.017647214233875275e-02 -4.010809212923049927e-02 6.265255063772201538e-02
6.640000000000000000e+02 1.223812389373779297e+01 1.356614589691162109e+00 -4.361951053142547607e-01 -2.319404035806655884e-01 -2.004406601190567017e-01 2.848890423774719238e-01
6.650000000000000000e+02 1.694662857055664062e+01 -3.546103537082672119e-01 -6.575491428375244141e-01 -6.310338377952575684e-01 -3.865748941898345947e-01 6.349724531173706055e-01
6.660000000000000000e+02 1.974576759338378906e+01 -2.369314432144165039e+00 -8.501358628273010254e-01 -4.753607511520385742e-01 -3.976489901542663574e-01 6.069344878196716309e-01
6.670000000000000000e+02 2.190575599670410156e+01 -4.937644481658935547e+00 -7.385305762290954590e-01 -1.426425725221633911e-01 -2.643519341945648193e-01 4.898922145366668701e-01
6.680000000000000000e+02 2.659822082519531250e+01 -1.242042064666748047e+01 -2.803864181041717529e-01 1.648850560188293457e+00 4.105392396450042725e-01 5.673078075051307678e-02
6.690000000000000000e+02 2.676044273376464844e+01 -1.334928703308105469e+01 -2.256079763174057007e-01 2.287169218063354492e+00 6.184683442115783691e-01 4.554774984717369080e-02
6.700000000000000000e+02 2.843730163574218750e+01 -1.599892330169677734e+01 9.587966799736022949e-01 2.310039997100830078e-01 3.569402098655700684e-01 -6.532799005508422852e-01
6.710000000000000000e+02 3.196359443664550781e+01 -1.862755775451660156e+01 -2.460564374923706055e+00 -7.671874016523361206e-02 -7.611849308013916016e-01 1.313724219799041748e-01
6.720000000000000000e+02 2.880927658081054688e+01 -1.660436058044433594e+01 -1.028917670249938965e+00 1.186651140451431274e-01 -2.730757594108581543e-01 -1.146636486053466797e+00
6.730000000000000000e+02 3.055985069274902344e+01 -1.842704772949218750e+01 -3.331001281738281250e+00 4.065214842557907104e-02 -9.871047735214233398e-01 1.399767398834228516e-01
6.740000000000000000e+02 2.249500083923339844e+01 -4.592485904693603516e+00 -7.655534744262695312e-01 3.633031249046325684e-02 -2.187669426202774048e-01 4.554239213466644287e-01
6.750000000000000000e+02 2.337797737121582031e+01 -5.973871707916259766e+00 -6.614266633987426758e-01 2.060889899730682373e-01 -1.366013139486312866e-01 4.003445208072662354e-01
6.760000000000000000e+02 2.541184616088867188e+01 -1.093059825897216797e+01 -2.313872724771499634e-01 9.628333449363708496e-01 2.194338291883468628e-01 1.687692827545106411e-03
6.770000000000000000e+02 1.719122314453125000e+01 -5.309640407562255859e+00 -8.766492605209350586e-01 -5.416983366012573242e-01 -4.255042970180511475e-01 9.536123275756835938e-01
6.780000000000000000e+02 1.582884120941162109e+01 -4.270502090454101562e+00 -1.052586793899536133e+00 -2.946029901504516602e-01 -4.041569232940673828e-01 8.861303329467773438e-01
6.790000000000000000e+02 1.269302940368652344e+01 -2.727365016937255859e+00 -1.412592172622680664e+00 1.076420173048973083e-01 -3.914850354194641113e-01 5.174961090087890625e-01
6.800000000000000000e+02 1.101199150085449219e+01 -2.236637592315673828e+00 -1.474549055099487305e+00 2.338720709085464478e-01 -3.722030818462371826e-01 2.551685571670532227e-01
6.810000000000000000e+02 9.379494667053222656e+00 -1.934204697608947754e+00 -1.430242419242858887e+00 2.669613361358642578e-01 -3.489843010902404785e-01 8.634463883936405182e-03
6.820000000000000000e+02 1.097016429901123047e+01 -1.043570041656494141e+01 4.104604721069335938e-01 2.520636558532714844e+00 8.793291449546813965e-01 1.193544745445251465e+00
6.830000000000000000e+02 1.439876937866210938e+01 1.235123348236083984e+01 1.987506300210952759e-01 1.257404983043670654e-01 9.734733402729034424e-02 2.896129190921783447e-01
6.840000000000000000e+02 1.478745746612548828e+01 1.367826747894287109e+01 3.576209247112274170e-01 4.857828319072723389e-01 2.530211210250854492e-01 4.723062217235565186e-01
6.850000000000000000e+02 1.572947216033935547e+01 1.611967849731445312e+01 7.635954618453979492e-01 4.992913901805877686e-01 3.788660466670989990e-01 4.721967875957489014e-01
6.860000000000000000e+02 1.546856880187988281e+01 1.481412506103515625e+01 7.408965229988098145e-01 6.710959672927856445e-01 4.235977530479431152e-01 6.060762405395507812e-01
6.870000000000000000e+02 1.415131568908691406e+01 1.537810707092285156e+01 5.997996330261230469e-01 7.163058966398239136e-02 2.014290690422058105e-01 3.245058953762054443e-01
6.880000000000000000e+02 6.690137481689453125e+01 -6.995950222015380859e+00 8.913589119911193848e-01 6.981717586517333984e+00 2.361922979354858398e+00 -4.089758872985839844e+00
6.890000000000000000e+02 6.816598510742187500e+01 -7.212067127227783203e+00 8.926277756690979004e-01 1.374866867065429688e+01 4.392388820648193359e+00 -3.380704641342163086e+00
6.900000000000000000e+02 6.858905029296875000e+01 -9.939082145690917969e+00 1.305583953857421875e+00 2.341096878051757812e+01 7.414965629577636719e+00 -1.785122632980346680e+00
6.910000000000000000e+02 6.941239929199218750e+01 -1.265153694152832031e+01 2.972479820251464844e+00 1.895603752136230469e+01 6.578555107116699219e+00 1.646491885185241699e+00
6.920000000000000000e+02 7.055318450927734375e+01 -1.400582599639892578e+01 2.004519701004028320e+00 1.324244022369384766e+01 4.574088096618652344e+00 1.800152063369750977e-01
6.930000000000000000e+02 6.712707519531250000e+01 -1.787308692932128906e+01 1.263827204704284668e+00 9.861597061157226562e+00 3.337627172470092773e+00 2.932470083236694336e+00
6.940000000000000000e+02 6.623914337158203125e+01 -1.703055572509765625e+01 2.646196603775024414e+00 9.010687828063964844e+00 3.497065305709838867e+00 4.714379310607910156e+00
6.950000000000000000e+02 6.296231842041015625e+01 -2.366260910034179688e+01 1.908707171678543091e-01 3.299074649810791016e+00 1.046983599662780762e+00 1.358488559722900391e+00
6.960000000000000000e+02 6.855921936035156250e+01 -2.284267234802246094e+01 -6.449797153472900391e-01 7.909226417541503906e+00 2.179274082183837891e+00 6.713898777961730957e-01
6.970000000000000000e+02 2.299853706359863281e+01 -3.082524681091308594e+01 6.313912868499755859e-01 6.311069130897521973e-01 3.787494599819183350e-01 -6.214595437049865723e-01
6.980000000000000000e+02 2.098527145385742188e+01 -2.745091819763183594e+01 1.288695693016052246e+00 8.041467070579528809e-01 6.278527379035949707e-01 -9.441887736320495605e-01
6.990000000000000000e+02 1.979018211364746094e+01 -2.656521797180175781e+01 1.424083113670349121e+00 1.132302641868591309e+00 7.669157385826110840e-01 -1.174301266670227051e+00
7.000000000000000000e+02 3.332015609741210938e+01 -1.874963569641113281e+01 -1.889289259910583496e+00 8.360747992992401123e-02 -5.417045354843139648e-01 7.636956870555877686e-02
7.010000000000000000e+02 3.974654388427734375e+01 -1.730690956115722656e+01 -1.281757712364196777e+00 5.919731035828590393e-02 -3.667680919170379639e-01 -2.227083146572113037e-01
7.020000000000000000e+02 3.442029571533203125e+01 -1.385710334777832031e+01 -7.495949268341064453e-01 -3.594857826828956604e-02 -2.356630563735961914e-01 -6.712447851896286011e-02
7.030000000000000000e+02 4.012530899047851562e+01 -6.757969856262207031e+00 -8.142049312591552734e-01 2.936225831508636475e-01 -1.561747044324874878e-01 2.064586281776428223e-01
7.040000000000000000e+02 3.878820037841796875e+01 -1.859050941467285156e+01 -1.343136906623840332e+00 2.416322566568851471e-02 -3.956920802593231201e-01 -1.205707713961601257e-01
7.050000000000000000e+02 4.425457382202148438e+01 -1.483207798004150391e+01 -1.291439294815063477e+00 6.953441537916660309e-03 -3.853457570075988770e-01 -3.084722459316253662e-01
7.060000000000000000e+02 4.487147140502929688e+01 -1.330527973175048828e+01 -1.298239469528198242e+00 6.036588177084922791e-02 -3.713620901107788086e-01 -2.856638133525848389e-01
7.070000000000000000e+02 4.774091720581054688e+01 -4.351388454437255859e+00 -9.859468340873718262e-01 2.854876220226287842e-01 -2.101377546787261963e-01 2.106760144233703613e-01
7.080000000000000000e+02 4.596605682373046875e+01 7.152089595794677734e+00 -1.695129871368408203e-01 2.172451280057430267e-02 -4.433654248714447021e-02 6.234431266784667969e-02
7.090000000000000000e+02 4.413241195678710938e+01 -1.743328475952148438e+01 -1.337132692337036133e+00 -9.804860502481460571e-02 -4.305543899536132812e-01 -3.897760212421417236e-01
7.100000000000000000e+02 5.057880783081054688e+01 -1.497595787048339844e+01 -1.393680214881896973e+00 -2.685821056365966797e-01 -4.986786842346191406e-01 -6.588492989540100098e-01
7.110000000000000000e+02 4.743412399291992188e+01 -1.257061362266540527e+00 -5.979270339012145996e-01 2.595590651035308838e-01 -1.015103831887245178e-01 3.087828755378723145e-01
7.120000000000000000e+02 5.027217102050781250e+01 -1.226143550872802734e+01 -1.612076282501220703e+00 -4.120708256959915161e-02 -4.959850013256072998e-01 -5.204363465309143066e-01
7.130000000000000000e+02 5.422985458374023438e+01 -1.295975971221923828e+01 -1.791727304458618164e+00 -4.798510372638702393e-01 -6.814734935760498047e-01 -9.602815508842468262e-01
7.140000000000000000e+02 5.892082977294921875e+01 -9.959374427795410156e+00 -3.039591550827026367e+00 -9.954010248184204102e-01 -1.210497736930847168e+00 -1.704805493354797363e+00
7.150000000000000000e+02 5.532089614868164062e+01 -6.557082653045654297e+00 -2.081862688064575195e+00 2.032547146081924438e-01 -5.635824203491210938e-01 -2.156196236610412598e-01
7.160000000000000000e+02 5.450909805297851562e+01 5.414641857147216797e+00 1.891907751560211182e-01 1.123461604118347168e+00 3.937956988811492920e-01 2.705043256282806396e-01
7.170000000000000000e+02 5.467074584960937500e+01 8.822070121765136719e+00 5.050408244132995605e-01 1.708466768264770508e+00 6.640523076057434082e-01 6.650412678718566895e-01
7.180000000000000000e+02 5.803179931640625000e+01 -9.115612983703613281e+00 -2.896392822265625000e+00 -4.905322492122650146e-01 -1.016077518463134766e+00 -1.225067377090454102e+00
7.190000000000000000e+02 6.273492431640625000e+01 -5.007848739624023438e+00 -2.074728012084960938e+00 -3.813582360744476318e-01 -7.368258833885192871e-01 -1.126219511032104492e+00
7.200000000000000000e+02 6.175681686401367188e+01 -2.452692836523056030e-01 -3.854034543037414551e-01 1.482174873352050781e+00 3.290314078330993652e-01 -1.150122761726379395e+00
7.210000000000000000e+02 6.090407562255859375e+01 4.215827465057373047e+00 5.268129333853721619e-02 2.391785383224487305e+00 7.333400249481201172e-01 -8.596765995025634766e-01
7.220000000000000000e+02 4.720616531372070312e+01 1.899008750915527344e+01 3.159280419349670410e-01 2.600461542606353760e-01 1.727922558784484863e-01 3.738569021224975586e-01
7.230000000000000000e+02 4.478321075439453125e+01 1.760772705078125000e+01 8.386587500572204590e-01 1.076702475547790527e+00 5.746083855628967285e-01 8.742841482162475586e-01
7.240000000000000000e+02 3.780042266845703125e+01 1.584139156341552734e+01 4.146777391433715820e-01 9.654288887977600098e-01 4.140319824218750000e-01 3.992560505867004395e-01
7.250000000000000000e+02 4.094018554687500000e+01 1.550049877166748047e+01 5.567209124565124512e-01 1.529680371284484863e+00 6.259204149246215820e-01 3.912023901939392090e-01
7.260000000000000000e+02 4.245654678344726562e+01 1.594835090637207031e+01 7.025922536849975586e-01 2.093350648880004883e+00 8.387829065322875977e-01 6.608551144599914551e-01
7.270000000000000000e+02 4.285308837890625000e+01 1.455835247039794922e+01 4.835856854915618896e-01 2.631291151046752930e+00 9.344630241394042969e-01 7.056602835655212402e-01
7.280000000000000000e+02 5.760753250122070312e+01 1.519014358520507812e+01 7.234202027320861816e-01 3.325640439987182617e+00 1.214718222618103027e+00 -5.160133242607116699e-01
7.290000000000000000e+02 5.697305297851562500e+01 1.967444801330566406e+01 3.524832427501678467e-01 2.993469238281250000e+00 1.003785729408264160e+00 -6.713403463363647461e-01
7.300000000000000000e+02 5.543481445312500000e+01 1.331904697418212891e+01 3.281337767839431763e-02 3.961157798767089844e+00 1.198191404342651367e+00 -2.560431063175201416e-01
7.310000000000000000e+02 4.494514083862304688e+01 1.997424697875976562e+01 3.034178912639617920e-01 1.112445116043090820e+00 4.247588813304901123e-01 6.846846342086791992e-01
7.320000000000000000e+02 1.900576782226562500e+01 -3.066887092590332031e+01 3.554085195064544678e-01 1.090651512145996094e+00 4.338180124759674072e-01 -6.061671376228332520e-01
7.330000000000000000e+02 6.276741504669189453e+00 -3.385478210449218750e+01 -1.812468618154525757e-01 -4.408797919750213623e-01 -1.866379976272583008e-01 2.995770573616027832e-01
7.340000000000000000e+02 6.180818557739257812e+01 -2.923194694519042969e+01 -9.033832699060440063e-02 2.970039606094360352e+00 8.639104366302490234e-01 7.706432938575744629e-01
7.350000000000000000e+02 6.698434448242187500e+01 -1.584707546234130859e+01 2.695533514022827148e+00 1.198505496978759766e+01 4.404176235198974609e+00 4.915417194366455078e+00
7.360000000000000000e+02 6.842336273193359375e+01 -4.503830909729003906e+00 -2.795084714889526367e+00 9.610198974609375000e+00 2.044534206390380859e+00 -2.808645248413085938e+00
7.370000000000000000e+02 6.344476699829101562e+01 -6.934125900268554688e+00 -6.094918251037597656e+00 -1.298343181610107422e+00 -2.217978239059448242e+00 -2.293104410171508789e+00
7.380000000000000000e+02 4.855879974365234375e+01 -6.785393238067626953e+00 -1.308656692504882812e+00 2.739291191101074219e-01 -3.104182779788970947e-01 4.927266016602516174e-02
7.390000000000000000e+02 5.915691757202148438e+01 -6.731973648071289062e+00 -3.050076961517333984e+00 -7.739074528217315674e-02 -9.382402896881103516e-01 -6.699336171150207520e-01
7.400000000000000000e+02 4.223569488525390625e+01 -8.174735069274902344e+00 -9.830148220062255859e-01 2.428283393383026123e-01 -2.220559418201446533e-01 8.032874017953872681e-02
7.410000000000000000e+02 3.287851715087890625e+01 -5.470971107482910156e+00 -6.324850320816040039e-01 5.355404019355773926e-01 -2.908338978886604309e-02 4.968529045581817627e-01
7.420000000000000000e+02 2.607541084289550781e+01 -5.673971652984619141e+00 -7.409504652023315430e-01 6.277140378952026367e-01 -3.397094085812568665e-02 4.375507235527038574e-01
7.430000000000000000e+02 2.703651237487792969e+01 -6.087153434753417969e+00 -7.264842391014099121e-01 7.046665549278259277e-01 -6.545301992446184158e-03 4.684219062328338623e-01
7.440000000000000000e+02 2.653762626647949219e+01 -1.295523357391357422e+01 -2.430575639009475708e-01 1.937129497528076172e+00 5.082215666770935059e-01 -5.175986886024475098e-02
7.450000000000000000e+02 3.649715042114257812e+01 -1.463925170898437500e+01 -1.029415011405944824e+00 2.859649620950222015e-02 -3.002455532550811768e-01 -1.619002372026443481e-01
7.460000000000000000e+02 4.368668746948242188e+01 -1.375807666778564453e+01 -1.250843286514282227e+00 6.858134269714355469e-02 -3.546786010265350342e-01 -2.515630424022674561e-01
7.470000000000000000e+02 5.335878753662109375e+01 3.470674037933349609e+00 -1.134470384567975998e-02 6.816502213478088379e-01 2.010916471481323242e-01 3.595378696918487549e-01
7.480000000000000000e+02 2.140877342224121094e+01 -4.284201145172119141e+00 -7.855109572410583496e-01 -2.361346632242202759e-01 -3.064936697483062744e-01 5.314823389053344727e-01
7.490000000000000000e+02 2.856163978576660156e+01 5.509279251098632812e+00 1.749098151922225952e-01 3.748839497566223145e-01 1.649381369352340698e-01 4.362869262695312500e-01
7.500000000000000000e+02 7.278684997558593750e+01 4.604062080383300781e+00 -4.962178170680999756e-01 7.541069984436035156e+00 2.113455533981323242e+00 -6.729537844657897949e-01
7.510000000000000000e+02 7.283212280273437500e+01 1.254110527038574219e+01 6.659624725580215454e-02 6.654766082763671875e+00 2.016408681869506836e+00 -7.407333254814147949e-01
7.520000000000000000e+02 6.060399246215820312e+01 1.144589519500732422e+01 5.689999461174011230e-01 3.368364334106445312e+00 1.181209325790405273e+00 -7.217538356781005859e-01
7.530000000000000000e+02 6.083178329467773438e+01 1.682926750183105469e+01 6.012724637985229492e-01 3.674721240997314453e+00 1.282798051834106445e+00 -5.885116457939147949e-01
7.540000000000000000e+02 4.964334487915039062e+01 1.936653900146484375e+01 1.698353141546249390e-01 2.024197578430175781e-01 1.116765215992927551e-01 2.262774296104907990e-02
7.550000000000000000e+02 5.098953628540039062e+01 1.894610595703125000e+01 1.651832610368728638e-01 2.027837038040161133e-01 1.103900894522666931e-01 -2.198895215988159180e-01
7.560000000000000000e+02 4.771880722045898438e+01 2.355381774902343750e+01 6.593317985534667969e-01 9.145674109458923340e-01 4.721697568893432617e-01 2.420390397310256958e-01
7.570000000000000000e+02 5.176608657836914062e+01 2.933491325378417969e+01 6.752300858497619629e-01 1.932007789611816406e+00 7.821713685989379883e-01 -1.989047825336456299e-01
7.580000000000000000e+02 5.083160400390625000e+01 2.782100486755371094e+01 7.271539568901062012e-01 1.692752242088317871e+00 7.259718775749206543e-01 -1.860305070877075195e-01
7.590000000000000000e+02 4.619403839111328125e+01 3.029438972473144531e+01 6.688526868820190430e-01 1.375316739082336426e+00 6.132508516311645508e-01 8.703994005918502808e-02
7.600000000000000000e+02 4.532381439208984375e+01 2.324968147277832031e+01 4.818068146705627441e-01 1.092391967773437500e+00 4.722596108913421631e-01 4.303489923477172852e-01
7.610000000000000000e+02 4.285468292236328125e+01 2.255071067810058594e+01 3.437805473804473877e-01 1.225626468658447266e+00 4.708220958709716797e-01 4.269752204418182373e-01
7.620000000000000000e+02 4.688026046752929688e+01 2.190332412719726562e+01 6.061622500419616699e-01 8.362271785736083984e-01 4.327168166637420654e-01 4.724667966365814209e-01
7.630000000000000000e+02 5.405415344238281250e+01 2.484072113037109375e+01 5.875121951103210449e-01 2.130491018295288086e+00 8.154009580612182617e-01 -4.690188765525817871e-01
7.640000000000000000e+02 1.915205597877502441e+00 1.636456108093261719e+01 1.407322660088539124e-02 -8.153162002563476562e-01 -2.403728961944580078e-01 1.243005320429801941e-01
7.650000000000000000e+02 7.188991546630859375e+01 2.580642890930175781e+01 1.166173592209815979e-01 5.862211704254150391e+00 1.793648719787597656e+00 -3.907761871814727783e-01
7.660000000000000000e+02 6.259954833984375000e+01 2.436572837829589844e+01 3.280902802944183350e-01 4.085971832275390625e+00 1.324218630790710449e+00 -5.502238273620605469e-01
7.670000000000000000e+02 2.826073646545410156e+01 2.218204116821289062e+01 3.091178536415100098e-01 5.787054449319839478e-02 1.100965216755867004e-01 2.651774287223815918e-01
7.680000000000000000e+02 2.226470947265625000e+01 2.477085113525390625e+01 2.793533205986022949e-01 -1.106124445796012878e-01 5.062226578593254089e-02 4.343928992748260498e-01
7.690000000000000000e+02 1.760881996154785156e+01 2.194335174560546875e+01 1.301716119050979614e-01 3.601730614900588989e-02 4.985667392611503601e-02 4.773440659046173096e-01
7.700000000000000000e+02 7.337870121002197266e+00 2.646360397338867188e+01 2.903320640325546265e-02 -6.875542998313903809e-01 -1.975563168525695801e-01 1.168528720736503601e-01
7.710000000000000000e+02 7.152154541015625000e+01 3.093851852416992188e+01 1.092853397130966187e-01 5.652127742767333984e+00 1.728423953056335449e+00 -2.813034057617187500e-01
7.720000000000000000e+02 6.530714416503906250e+01 2.883461380004882812e+01 2.729456126689910889e-01 4.572449684143066406e+00 1.453618526458740234e+00 -4.247674942016601562e-01
7.730000000000000000e+02 5.598931884765625000e+01 3.292285919189453125e+01 5.896891355514526367e-01 2.820525646209716797e+00 1.023064374923706055e+00 -2.363321781158447266e-01
7.740000000000000000e+02 3.609696960449218750e+01 3.504374313354492188e+01 5.492498278617858887e-01 7.540416121482849121e-01 3.909874260425567627e-01 1.251728981733322144e-01
7.750000000000000000e+02 2.684939193725585938e+01 3.464163589477539062e+01 3.805961608886718750e-01 1.825165748596191406e-01 1.689338237047195435e-01 1.634650826454162598e-01
7.760000000000000000e+02 2.365118408203125000e+01 3.431745147705078125e+01 3.221022784709930420e-01 2.988532185554504395e-02 1.055962815880775452e-01 1.888165920972824097e-01
7.770000000000000000e+02 1.624275588989257812e+01 3.123002815246582031e+01 1.393434703350067139e-01 -2.562210559844970703e-01 -3.506327793002128601e-02 2.381313890218734741e-01
7.780000000000000000e+02 7.383164405822753906e+00 3.424254226684570312e+01 2.949119545519351959e-02 -7.989995479583740234e-01 -2.308524996042251587e-01 7.365481555461883545e-02
7.790000000000000000e+02 1.925611853599548340e+00 3.175321960449218750e+01 -4.446086677489802241e-06 -1.208730220794677734e+00 -3.626204133033752441e-01 1.965922862291336060e-02
7.800000000000000000e+02 7.129374504089355469e+00 -1.880553960800170898e+00 -1.158134341239929199e+00 1.386487483978271484e-01 -3.058456778526306152e-01 -3.584940433502197266e-01
7.810000000000000000e+02 6.379557132720947266e+00 -1.873872041702270508e+00 -1.043848156929016113e+00 9.536291658878326416e-02 -2.845455706119537354e-01 -4.161724746227264404e-01
7.820000000000000000e+02 5.635909080505371094e+00 -1.866437315940856934e+00 -9.001023173332214355e-01 4.098631814122200012e-02 -2.577348053455352783e-01 -4.744664132595062256e-01
7.830000000000000000e+02 4.896510124206542969e+00 -1.860921978950500488e+00 -7.307442426681518555e-01 6.288015749305486679e-03 -2.173368632793426514e-01 -5.011859536170959473e-01
7.840000000000000000e+02 3.404306411743164062e+00 -1.913632035255432129e+00 -4.418171346187591553e-01 -9.493065625429153442e-02 -1.610243469476699829e-01 -4.582113027572631836e-01
7.850000000000000000e+02 3.466203927993774414e+00 -2.714576244354248047e+00 -4.419896006584167480e-01 -1.492919027805328369e-01 -1.773844510316848755e-01 -6.135693788528442383e-01
7.860000000000000000e+02 1.897022724151611328e+00 -2.057737588882446289e+00 -1.785365343093872070e-01 -1.923399865627288818e-01 -1.112629547715187073e-01 -2.795346975326538086e-01
7.870000000000000000e+02 1.138892412185668945e+00 -2.129673242568969727e+00 -7.243232429027557373e-02 -2.170498222112655640e-01 -8.684464544057846069e-02 -1.728809028863906860e-01
7.880000000000000000e+02 3.795928061008453369e-01 -2.184252977371215820e+00 -2.943308791145682335e-03 -1.275133937597274780e-01 -3.913700953125953674e-02 -4.867449030280113220e-02
7.890000000000000000e+02 2.012416362762451172e+00 -4.168746948242187500e+01 -8.609741926193237305e-02 -1.147950530052185059e+00 -3.702143728733062744e-01 2.440165169537067413e-02
7.900000000000000000e+02 5.191276073455810547e+00 -3.877012634277343750e+01 -9.828814864158630371e-02 -6.688192486763000488e-01 -2.301322221755981445e-01 5.910407751798629761e-02
7.910000000000000000e+02 1.020740032196044922e+00 -3.878811645507812500e+01 1.221488928422331810e-04 -1.280676126480102539e+00 -3.841662108898162842e-01 7.284367084503173828e-02
7.920000000000000000e+02 8.823171854019165039e-01 -3.463563537597656250e+01 5.004019942134618759e-03 -1.603035449981689453e+00 -4.794094264507293701e-01 8.357694745063781738e-02
7.930000000000000000e+02 8.515251278877258301e-01 -3.321437454223632812e+01 -1.528998091816902161e-02 -1.741157531738281250e+00 -5.269342660903930664e-01 8.963364362716674805e-02
7.940000000000000000e+02 7.351577877998352051e-01 -2.895026588439941406e+01 1.066089840605854988e-03 -2.345091819763183594e+00 -7.032077312469482422e-01 1.404598802328109741e-01
7.950000000000000000e+02 7.105889320373535156e-01 -2.753281402587890625e+01 -2.051197551190853119e-02 -2.627958297729492188e+00 -7.945411205291748047e-01 1.553710848093032837e-01
7.960000000000000000e+02 6.941713094711303711e-01 -2.611707115173339844e+01 -3.787716152146458626e-03 -2.960185050964355469e+00 -8.891918063163757324e-01 1.829036027193069458e-01
7.970000000000000000e+02 6.462281942367553711e-01 -2.188306236267089844e+01 -3.262351453304290771e-02 -4.217731475830078125e+00 -1.275106430053710938e+00 2.298566997051239014e-01
7.980000000000000000e+02 6.126813292503356934e-01 -2.049213790893554688e+01 4.229751974344253540e-02 -4.716542720794677734e+00 -1.402273535728454590e+00 2.317723333835601807e-01
7.990000000000000000e+02 1.832328319549560547e+00 -2.028010940551757812e+01 2.521881274878978729e-02 -3.466663122177124023e+00 -1.032433271408081055e+00 5.508310198783874512e-01
8.000000000000000000e+02 6.237168312072753906e-01 -1.629899215698242188e+01 2.054820396006107330e-02 -5.796600341796875000e+00 -1.732815623283386230e+00 6.744503974914550781e-02
8.010000000000000000e+02 6.306973099708557129e-01 -1.488381862640380859e+01 6.834991276264190674e-02 -5.792197227478027344e+00 -1.717154264450073242e+00 -2.743356116116046906e-02
8.020000000000000000e+02 6.188066005706787109e-01 -1.346227264404296875e+01 5.021388828754425049e-02 -5.528266906738281250e+00 -1.643415927886962891e+00 -1.609991192817687988e-01
8.030000000000000000e+02 1.846832871437072754e+00 -1.334295272827148438e+01 2.426566928625106812e-01 -3.708186149597167969e+00 -1.039658904075622559e+00 -4.957285523414611816e-01
8.040000000000000000e+02 5.539810061454772949e-01 -9.214796066284179688e+00 -3.091052174568176270e-02 -3.341893196105957031e+00 -1.011841177940368652e+00 -3.270954489707946777e-01
8.050000000000000000e+02 5.416649580001831055e-01 -7.801317214965820312e+00 1.661542616784572601e-02 -2.476334571838378906e+00 -7.379157543182373047e-01 -2.975682318210601807e-01
8.060000000000000000e+02 4.176539421081542969e+00 -2.597476720809936523e+00 -5.605197548866271973e-01 -6.746703386306762695e-02 -1.883960366249084473e-01 -6.274330615997314453e-01
8.070000000000000000e+02 5.262240171432495117e-01 -6.378965854644775391e+00 -4.264928773045539856e-02 -1.690819740295410156e+00 -5.200406908988952637e-01 -2.639234066009521484e-01
8.080000000000000000e+02 6.690882873535156250e+01 -3.758349609375000000e+01 1.402608454227447510e-01 5.138813972473144531e+00 1.583722472190856934e+00 2.687110304832458496e-01
8.090000000000000000e+02 1.267909240722656250e+01 -4.094484710693359375e+01 -2.908167839050292969e-01 4.265104830265045166e-01 4.070810228586196899e-02 1.357930339872837067e-02
8.100000000000000000e+02 7.865537261962890625e+01 4.032374572753906250e+01 -1.921034976840019226e-02 6.512827396392822266e+00 1.948085188865661621e+00 -7.365967333316802979e-02
8.110000000000000000e+02 7.807926940917968750e+01 4.175779342651367188e+01 9.500850737094879150e-02 6.461349487304687500e+00 1.966907382011413574e+00 -2.662485465407371521e-02
8.120000000000000000e+02 7.879016876220703125e+01 3.892330932617187500e+01 -4.006512090563774109e-02 6.576224803924560547e+00 1.960847854614257812e+00 -4.423505812883377075e-02
8.130000000000000000e+02 7.771550750732421875e+01 3.602312469482421875e+01 2.024731785058975220e-02 6.519334316253662109e+00 1.961874485015869141e+00 -4.936777055263519287e-02
8.140000000000000000e+02 7.927046203613281250e+01 3.482453155517578125e+01 4.860025830566883087e-03 6.717702388763427734e+00 2.016768693923950195e+00 -2.453373186290264130e-02
8.150000000000000000e+02 7.786657714843750000e+01 3.348497009277343750e+01 5.105985328555107117e-03 6.587019443511962891e+00 1.977637648582458496e+00 -6.841888278722763062e-02
8.160000000000000000e+02 7.928930664062500000e+01 3.345450210571289062e+01 -3.536780597642064095e-03 6.771040916442871094e+00 2.030251264572143555e+00 -2.612692862749099731e-02
8.170000000000000000e+02 7.928028106689453125e+01 3.067441940307617188e+01 3.114695427939295769e-03 6.882509231567382812e+00 2.065687179565429688e+00 -2.933328039944171906e-02
8.180000000000000000e+02 7.634881591796875000e+01 2.784372901916503906e+01 2.286237105727195740e-02 6.569356918334960938e+00 1.977665901184082031e+00 -1.713668107986450195e-01
8.190000000000000000e+02 7.929328155517578125e+01 2.647208595275878906e+01 3.288700012490153313e-03 7.091745376586914062e+00 2.128510236740112305e+00 -3.752916678786277771e-02
8.200000000000000000e+02 7.650660705566406250e+01 2.496169281005859375e+01 2.805589884519577026e-02 6.736138343811035156e+00 2.029258251190185547e+00 -2.047247439622879028e-01
8.210000000000000000e+02 7.930982208251953125e+01 2.507623863220214844e+01 -1.492234528996050358e-03 7.177600383758544922e+00 2.152832269668579102e+00 -3.980099037289619446e-02
8.220000000000000000e+02 7.935076904296875000e+01 2.089522933959960938e+01 9.017798118293285370e-03 7.502932071685791016e+00 2.253584861755371094e+00 -5.218481272459030151e-02
8.230000000000000000e+02 7.935694122314453125e+01 1.950441932678222656e+01 -5.591848865151405334e-03 7.634593486785888672e+00 2.288700342178344727e+00 -5.662206187844276428e-02
8.240000000000000000e+02 7.936005401611328125e+01 1.811490631103515625e+01 1.078565046191215515e-02 7.780109882354736328e+00 2.337268829345703125e+00 -6.186252459883689880e-02
8.250000000000000000e+02 7.936239624023437500e+01 1.394291305541992188e+01 -9.611446410417556763e-03 8.289921760559082031e+00 2.484092950820922852e+00 -7.522859424352645874e-02
8.260000000000000000e+02 7.936260986328125000e+01 1.255129051208496094e+01 1.251442171633243561e-02 8.482949256896972656e+00 2.548639059066772461e+00 -7.834635674953460693e-02
8.270000000000000000e+02 7.936261749267578125e+01 1.115996265411376953e+01 -1.210952829569578171e-02 8.681754112243652344e+00 2.600893497467041016e+00 -7.930912077426910400e-02
8.280000000000000000e+02 7.935755920410156250e+01 6.989808559417724609e+00 -4.511048085987567902e-03 9.250413894653320312e+00 2.773770809173583984e+00 -5.338476598262786865e-02
8.290000000000000000e+02 7.935225677490234375e+01 5.598598003387451172e+00 -9.403918869793415070e-03 9.389403343200683594e+00 2.813999652862548828e+00 -3.918786719441413879e-02
8.300000000000000000e+02 7.934690093994140625e+01 4.204477310180664062e+00 -2.997822873294353485e-02 9.470838546752929688e+00 2.832257986068725586e+00 4.672468639910221100e-03
8.310000000000000000e+02 7.935344696044921875e+01 1.476405560970306396e-02 1.212212815880775452e-02 9.137225151062011719e+00 2.744804143905639648e+00 1.581466943025588989e-01
8.320000000000000000e+02 7.936625671386718750e+01 -1.385475039482116699e+00 -8.406435698270797729e-02 8.761222839355468750e+00 2.603147506713867188e+00 2.402457743883132935e-01
8.330000000000000000e+02 7.819923400878906250e+01 -4.196651458740234375e+00 -2.956014126539230347e-02 7.840540409088134766e+00 2.343294143676757812e+00 8.763136863708496094e-01
8.340000000000000000e+02 7.939546203613281250e+01 -4.180687904357910156e+00 -7.944802939891815186e-02 7.536826133728027344e+00 2.237213373184204102e+00 3.495762348175048828e-01
8.350000000000000000e+02 7.940568542480468750e+01 -8.350253105163574219e+00 1.054312437772750854e-01 5.152956008911132812e+00 1.577516198158264160e+00 3.093283772468566895e-01
8.360000000000000000e+02 7.813381195068359375e+01 -1.103835582733154297e+01 2.305407524108886719e-01 5.771839141845703125e+00 1.800713896751403809e+00 2.788006961345672607e-01
8.370000000000000000e+02 7.938098907470703125e+01 -1.111487102508544922e+01 1.103028282523155212e-01 4.198189258575439453e+00 1.292547583580017090e+00 1.163532733917236328e-01
8.380000000000000000e+02 7.935163116455078125e+01 -1.526653289794921875e+01 5.308397859334945679e-02 4.765082836151123047e+00 1.445449948310852051e+00 -2.533978521823883057e-01
8.390000000000000000e+02 7.802906036376953125e+01 -1.795898246765136719e+01 -1.276978943496942520e-02 6.851634979248046875e+00 2.051659584045410156e+00 -8.004940748214721680e-01
8.400000000000000000e+02 7.934403228759765625e+01 -1.806340217590332031e+01 3.747079521417617798e-02 6.021395683288574219e+00 1.817659974098205566e+00 -3.388182520866394043e-01
8.410000000000000000e+02 7.936766052246093750e+01 -2.362355995178222656e+01 1.661251857876777649e-02 8.345053672790527344e+00 2.508499622344970703e+00 -2.195724397897720337e-01
8.420000000000000000e+02 7.807080841064453125e+01 -2.485198593139648438e+01 -5.362260714173316956e-02 8.562933921813964844e+00 2.552793502807617188e+00 -4.694666266441345215e-01
8.430000000000000000e+02 7.935564422607421875e+01 -2.500913047790527344e+01 -4.709827899932861328e-02 8.743591308593750000e+00 2.608947992324829102e+00 -1.776538491249084473e-01
8.440000000000000000e+02 7.926773834228515625e+01 -2.919025230407714844e+01 2.007061801850795746e-02 9.468491554260253906e+00 2.846568584442138672e+00 -9.556362032890319824e-02
8.450000000000000000e+02 7.765215301513671875e+01 -3.189691352844238281e+01 -6.839616596698760986e-02 9.115715980529785156e+00 2.714195728302001953e+00 -1.116405054926872253e-01
8.460000000000000000e+02 7.920805358886718750e+01 -3.200551986694335938e+01 2.589982189238071442e-02 9.678098678588867188e+00 2.911199569702148438e+00 -5.447477474808692932e-02
8.470000000000000000e+02 7.922541046142578125e+01 -3.627146148681640625e+01 3.079911135137081146e-02 9.692913055419921875e+00 2.917113542556762695e+00 -8.678736165165901184e-03
8.480000000000000000e+02 7.935332489013671875e+01 -3.759198760986328125e+01 -8.090407401323318481e-02 9.661179542541503906e+00 2.874082565307617188e+00 3.363599255681037903e-02
8.490000000000000000e+02 7.925329589843750000e+01 -3.878063964843750000e+01 4.882213845849037170e-02 9.539674758911132812e+00 2.876549005508422852e+00 5.041372776031494141e-02
8.500000000000000000e+02 7.877918243408203125e+01 -4.002249145507812500e+01 -7.397007942199707031e-02 9.381567955017089844e+00 2.792279243469238281e+00 1.182599663734436035e-01
8.510000000000000000e+02 4.995313644409179688e+00 4.025185775756835938e+01 2.467324957251548767e-03 -1.042109608650207520e+00 -3.118926584720611572e-01 3.212838619947433472e-02
8.520000000000000000e+02 2.675735092163085938e+01 3.784025573730468750e+01 4.052735269069671631e-01 1.994865983724594116e-01 1.814280301332473755e-01 9.849887341260910034e-02
8.530000000000000000e+02 4.702042007446289062e+01 3.658120727539062500e+01 7.155709266662597656e-01 1.662648081779479980e+00 7.134656906127929688e-01 1.195825543254613876e-02
8.540000000000000000e+02 3.985092639923095703e-01 2.194688320159912109e+00 -1.159372506663203239e-03 1.576242782175540924e-02 4.380916710942983627e-03 -2.882350934669375420e-03
8.550000000000000000e+02 2.929907321929931641e+00 3.158705234527587891e+00 -4.617262259125709534e-02 -3.800380602478981018e-02 -2.525292895734310150e-02 3.839675337076187134e-02
8.560000000000000000e+02 5.739986896514892578e+00 4.375041484832763672e+00 -1.742496639490127563e-01 -8.171133697032928467e-02 -7.678829878568649292e-02 1.713920533657073975e-01
8.570000000000000000e+02 5.948722362518310547e-01 9.257336616516113281e+00 -7.196289487183094025e-03 -2.843852043151855469e-01 -8.747445046901702881e-02 5.273132771253585815e-02
8.580000000000000000e+02 5.889241099357604980e-01 1.209215927124023438e+01 -4.907850176095962524e-03 -5.519901514053344727e-01 -1.670693904161453247e-01 5.603544786572456360e-02
8.590000000000000000e+02 1.754809856414794922e+00 1.206512928009033203e+01 5.402617622166872025e-03 -5.227187275886535645e-01 -1.551948487758636475e-01 1.576489657163619995e-01
8.600000000000000000e+02 6.381413936614990234e-01 1.635154151916503906e+01 6.494311615824699402e-03 -9.115403890609741211e-01 -2.715138196945190430e-01 4.439484700560569763e-02
8.610000000000000000e+02 6.446949839591979980e-01 1.777370071411132812e+01 1.245271298103034496e-03 -1.001196742057800293e+00 -2.999854385852813721e-01 3.581816703081130981e-02
8.620000000000000000e+02 6.309167146682739258e-01 2.201594924926757812e+01 2.265427028760313988e-03 -1.177575349807739258e+00 -3.525929749011993408e-01 1.682762242853641510e-02
8.630000000000000000e+02 6.241008639335632324e-01 2.342193222045898438e+01 1.490777591243386269e-03 -1.212216377258300781e+00 -3.632176816463470459e-01 1.253095176070928574e-02
8.640000000000000000e+02 6.172927021980285645e-01 2.482487869262695312e+01 1.293582958169281483e-03 -1.238623023033142090e+00 -3.711988031864166260e-01 9.444003924727439880e-03
8.650000000000000000e+02 6.250470280647277832e-01 2.903629875183105469e+01 2.602465392556041479e-04 -1.294424057006835938e+00 -3.882491588592529297e-01 6.008546333760023117e-03
8.660000000000000000e+02 6.376400589942932129e-01 3.044347190856933594e+01 -2.923812717199325562e-04 -1.308897614479064941e+00 -3.927569985389709473e-01 6.150438450276851654e-03
8.670000000000000000e+02 1.922923326492309570e+00 3.037105369567871094e+01 6.846030591987073421e-04 -1.193403124809265137e+00 -3.578155338764190674e-01 1.959277316927909851e-02
8.680000000000000000e+02 6.355416178703308105e-01 3.184216499328613281e+01 6.072776159271597862e-04 -1.322840213775634766e+00 -3.966698944568634033e-01 5.678639281541109085e-03
8.690000000000000000e+02 6.710047125816345215e-01 3.600603103637695312e+01 -2.207041950896382332e-03 -1.337285161018371582e+00 -4.018476605415344238e-01 -1.178466365672647953e-03
8.700000000000000000e+02 2.475212812423706055e+00 3.807961273193359375e+01 1.341356430202722549e-02 -1.213947296142578125e+00 -3.601601123809814453e-01 -1.337751932442188263e-02
8.710000000000000000e+02 9.216406345367431641e-01 3.872038650512695312e+01 -5.918945651501417160e-03 -1.302698969841003418e+00 -3.925853967666625977e-01 -1.100645679980516434e-02
8.720000000000000000e+02 1.301560163497924805e+00 4.007558059692382812e+01 1.476362813264131546e-02 -1.277601599693298340e+00 -3.788514137268066406e-01 -2.254183962941169739e-02
8.730000000000000000e+02 9.865825653076171875e+00 1.812651634216308594e+00 -3.200709223747253418e-01 -7.227814942598342896e-02 -1.177047267556190491e-01 1.585183739662170410e-01
8.740000000000000000e+02 9.087700843811035156e+00 1.858803749084472656e+00 -2.732726335525512695e-01 -5.907806381583213806e-02 -9.970520436763763428e-02 1.356452554464340210e-01
8.750000000000000000e+02 8.307090759277343750e+00 1.884509801864624023e+00 -2.323458641767501831e-01 -2.891939878463745117e-02 -7.837957888841629028e-02 1.117741614580154419e-01
8.760000000000000000e+02 7.521641254425048828e+00 1.893759250640869141e+00 -1.877495497465133667e-01 -2.801612205803394318e-02 -6.472969800233840942e-02 9.138923138380050659e-02
8.770000000000000000e+02 5.157452583312988281e+00 1.924889802932739258e+00 -8.547068387269973755e-02 -1.410583872348070145e-02 -2.987295761704444885e-02 4.896818846464157104e-02
8.780000000000000000e+02 4.371614933013916016e+00 1.958044767379760742e+00 -5.930531769990921021e-02 -2.147780545055866241e-02 -2.423493750393390656e-02 3.785091638565063477e-02
8.790000000000000000e+02 3.581671237945556641e+00 2.003994703292846680e+00 -4.075168818235397339e-02 -1.722742617130279541e-02 -1.739373430609703064e-02 2.264788001775741577e-02
8.800000000000000000e+02 1.992034673690795898e+00 2.114602565765380859e+00 -1.246834639459848404e-02 -1.149500627070665359e-02 -7.189006078988313675e-03 6.795154185965657234e-04
8.810000000000000000e+02 1.195569157600402832e+00 2.161893844604492188e+00 -5.774389486759901047e-03 -1.257236581295728683e-03 -2.109487773850560188e-03 -3.650076221674680710e-03
8.820000000000000000e+02 1.144399833679199219e+01 1.519392013549804688e+00 -4.029745459556579590e-01 -1.550862938165664673e-01 -1.674182564020156860e-01 2.343893945217132568e-01
8.830000000000000000e+02 1.304253387451171875e+01 1.191789746284484863e+00 -4.718539118766784668e-01 -2.921450734138488770e-01 -2.291996926069259644e-01 3.528153896331787109e-01
8.840000000000000000e+02 1.571940517425537109e+01 1.324492335319519043e+00 -4.622931480407714844e-01 -6.294374465942382812e-01 -3.275191783905029297e-01 5.691157579421997070e-01
8.850000000000000000e+02 1.541326427459716797e+01 4.078657031059265137e-01 -5.542758703231811523e-01 -5.479464530944824219e-01 -3.306666910648345947e-01 5.511422157287597656e-01
8.860000000000000000e+02 1.619595718383789062e+01 6.422000378370285034e-02 -5.952273011207580566e-01 -6.086570024490356445e-01 -3.611652851104736328e-01 6.096616387367248535e-01
8.870000000000000000e+02 1.837518119812011719e+01 -1.317468643188476562e+00 -7.626332044601440430e-01 -6.083996295928955078e-01 -4.113098680973052979e-01 6.573539972305297852e-01
8.880000000000000000e+02 1.909205818176269531e+01 -1.806193709373474121e+00 -8.113563656806945801e-01 -5.483063459396362305e-01 -4.078988134860992432e-01 6.333354115486145020e-01
8.890000000000000000e+02 2.086999702453613281e+01 -3.646785974502563477e+00 -8.446336388587951660e-01 -3.160530328750610352e-01 -3.482059836387634277e-01 5.730929970741271973e-01
8.900000000000000000e+02 2.279761886596679688e+01 -6.274351119995117188e+00 -6.009826660156250000e-01 4.609366133809089661e-02 -1.664666980504989624e-01 4.055303633213043213e-01
8.910000000000000000e+02 2.323172760009765625e+01 -6.941757202148437500e+00 -5.217332839965820312e-01 1.538637727499008179e-01 -1.103608533740043640e-01 3.463688492774963379e-01
8.920000000000000000e+02 2.363618087768554688e+01 -7.615370750427246094e+00 -4.637621343135833740e-01 2.689789235591888428e-01 -5.843496695160865784e-02 2.896022200584411621e-01
8.930000000000000000e+02 2.437411308288574219e+01 -8.967185974121093750e+00 -3.464065194129943848e-01 5.095081329345703125e-01 4.893048107624053955e-02 1.743729710578918457e-01
8.940000000000000000e+02 2.473543930053710938e+01 -9.638358116149902344e+00 -2.973961830139160156e-01 6.554245948791503906e-01 1.074085310101509094e-01 1.086178123950958252e-01
8.950000000000000000e+02 2.606501770019531250e+01 -1.214202213287353516e+01 -2.104799449443817139e-01 1.429588198661804199e+00 3.657324910163879395e-01 -9.203901886940002441e-02
8.960000000000000000e+02 2.626959800720214844e+01 -1.256232070922851562e+01 -2.246246486902236938e-01 1.635730981826782227e+00 4.233319163322448730e-01 -1.024038046598434448e-01
8.970000000000000000e+02 2.708972358703613281e+01 -1.385091400146484375e+01 -1.119418665766716003e-01 2.702565670013427734e+00 7.771871685981750488e-01 3.979471623897552490e-01
8.980000000000000000e+02 2.744454383850097656e+01 -1.434490966796875000e+01 2.582013309001922607e-01 2.819206953048706055e+00 9.232224822044372559e-01 9.564022421836853027e-01
8.990000000000000000e+02 2.804839324951171875e+01 -1.515760326385498047e+01 1.713340401649475098e+00 1.159513950347900391e+00 8.618563413619995117e-01 9.515568614006042480e-01
9.000000000000000000e+02 2.472936058044433594e+01 -1.655901908874511719e+01 -1.566306948661804199e+00 -2.178819656372070312e+00 -1.123538017272949219e+00 2.630822658538818359e+00
9.010000000000000000e+02 2.446202087402343750e+01 -1.585136604309082031e+01 -4.169948399066925049e-01 -2.207368135452270508e+00 -7.873088717460632324e-01 1.662570476531982422e+00
9.020000000000000000e+02 2.435696029663085938e+01 -1.607403945922851562e+01 -8.678013086318969727e-01 -2.053904533386230469e+00 -8.765117526054382324e-01 1.789397597312927246e+00
9.030000000000000000e+02 2.396997261047363281e+01 -1.521317005157470703e+01 -5.103658437728881836e-01 -1.922283172607421875e+00 -7.297946810722351074e-01 1.336448550224304199e+00
9.040000000000000000e+02 2.379721450805664062e+01 -1.489766216278076172e+01 -5.893170833587646484e-01 -1.829737067222595215e+00 -7.257162332534790039e-01 1.217883944511413574e+00
9.050000000000000000e+02 2.352266120910644531e+01 -1.461053180694580078e+01 -6.476977467536926270e-01 -1.693947553634643555e+00 -7.024935483932495117e-01 1.147348403930664062e+00
9.060000000000000000e+02 2.344392013549804688e+01 -1.498982048034667969e+01 -6.299532651901245117e-01 -1.632217288017272949e+00 -6.786511540412902832e-01 1.173437476158142090e+00
9.070000000000000000e+02 2.311958885192871094e+01 -1.412800884246826172e+01 -7.235112786293029785e-01 -1.536556601524353027e+00 -6.780203580856323242e-01 1.101212620735168457e+00
9.080000000000000000e+02 2.300815010070800781e+01 -1.498073959350585938e+01 -7.226214408874511719e-01 -1.286807775497436523e+00 -6.028287410736083984e-01 1.104733347892761230e+00
9.090000000000000000e+02 2.178961753845214844e+01 -1.198107433319091797e+01 -6.836357116699218750e-01 -1.306147336959838867e+00 -5.969349145889282227e-01 9.846394062042236328e-01
9.100000000000000000e+02 2.108475494384765625e+01 -1.403227519989013672e+01 -4.839282333850860596e-01 -5.041496753692626953e-01 -2.964233756065368652e-01 5.714072585105895996e-01
9.110000000000000000e+02 2.014599609375000000e+01 -1.040527725219726562e+01 -5.536860823631286621e-01 -9.764308929443359375e-01 -4.590350985527038574e-01 8.458649516105651855e-01
9.120000000000000000e+02 2.047361755371093750e+01 -9.479993820190429688e+00 -6.132954359054565430e-01 -1.183991312980651855e+00 -5.391860008239746094e-01 9.598163962364196777e-01
9.130000000000000000e+02 1.868564033508300781e+01 -8.135540008544921875e+00 -5.814701914787292480e-01 -8.133248090744018555e-01 -4.184384942054748535e-01 8.967872262001037598e-01
9.140000000000000000e+02 1.930926322937011719e+01 -7.730612754821777344e+00 -6.504440903663635254e-01 -9.815455675125122070e-01 -4.895969033241271973e-01 9.714345335960388184e-01
9.150000000000000000e+02 1.634575653076171875e+01 -1.315059280395507812e+01 1.824843734502792358e-01 2.125146239995956421e-02 6.112075224518775940e-02 -4.500149935483932495e-02
9.160000000000000000e+02 1.839841079711914062e+01 -6.544628143310546875e+00 -7.222106456756591797e-01 -7.884278893470764160e-01 -4.531915783882141113e-01 9.764007329940795898e-01
9.170000000000000000e+02 1.653524208068847656e+01 -4.762871742248535156e+00 -9.567853212356567383e-01 -4.373685121536254883e-01 -4.182461500167846680e-01 9.156579375267028809e-01
9.180000000000000000e+02 1.529493427276611328e+01 -4.988879680633544922e+00 -9.325323104858398438e-01 -1.504599004983901978e-01 -3.248976767063140869e-01 8.594825863838195801e-01
9.190000000000000000e+02 1.510519027709960938e+01 -3.797027826309204102e+00 -1.171598196029663086e+00 -1.897793114185333252e-01 -4.084132611751556396e-01 8.027516603469848633e-01
9.200000000000000000e+02 1.185759639739990234e+01 -2.455185890197753906e+00 -1.467833280563354492e+00 1.630722880363464355e-01 -3.914283215999603271e-01 3.625352978706359863e-01
9.210000000000000000e+02 1.154601860046386719e+01 -3.268712043762207031e+00 -1.334946393966674805e+00 3.508333265781402588e-01 -2.952339053153991699e-01 3.372647166252136230e-01
9.220000000000000000e+02 7.779244422912597656e+00 -2.662836790084838867e+00 -1.181468605995178223e+00 3.140464723110198975e-01 -2.602266371250152588e-01 -3.668670356273651123e-01
9.230000000000000000e+02 2.141761207580566406e+01 1.643280220031738281e+01 -2.906931936740875244e-01 -2.453998625278472900e-01 -1.608279198408126831e-01 3.835133612155914307e-01
9.240000000000000000e+02 2.053966903686523438e+01 4.130871772766113281e+00 1.450434094294905663e-03 7.380050420761108398e-02 2.257528342306613922e-02 2.552284300327301025e-01
9.250000000000000000e+02 1.434707069396972656e+01 7.148543357849121094e+00 -6.672806739807128906e-01 -1.077360987663269043e+00 -5.233924984931945801e-01 6.112868785858154297e-01
9.260000000000000000e+02 6.791662597656250000e+01 -1.675782394409179688e+01 1.301475524902343750e+00 1.139721107482910156e+01 3.809606075286865234e+00 3.131780385971069336e+00
9.270000000000000000e+02 6.542723083496093750e+01 -1.818214035034179688e+01 2.535813570022583008e+00 6.666854858398437500e+00 2.760800361633300781e+00 3.802283525466918945e+00
9.280000000000000000e+02 6.455513000488281250e+01 -1.929233741760253906e+01 1.956942439079284668e+00 4.543200969696044922e+00 1.950042963027954102e+00 3.014102220535278320e+00
9.290000000000000000e+02 6.275853729248046875e+01 -2.147331619262695312e+01 9.797854423522949219e-01 2.545800924301147461e+00 1.057675838470458984e+00 1.663401961326599121e+00
9.300000000000000000e+02 5.979072189331054688e+01 -2.455179977416992188e+01 1.125728189945220947e-01 7.847508192062377930e-01 2.691971063613891602e-01 3.995946049690246582e-01
9.310000000000000000e+02 5.751567840576171875e+01 -2.623060226440429688e+01 -4.682616293430328369e-01 9.758675098419189453e-02 -1.112024560570716858e-01 -1.283042579889297485e-01
9.320000000000000000e+02 5.509860229492187500e+01 -2.768522453308105469e+01 -7.523977160453796387e-01 -1.447038948535919189e-01 -2.691304981708526611e-01 -3.598705232143402100e-01
9.330000000000000000e+02 5.259404373168945312e+01 -2.901116752624511719e+01 -7.564218044281005859e-01 -1.963234394788742065e-01 -2.858235538005828857e-01 -3.950415551662445068e-01
9.340000000000000000e+02 4.588911437988281250e+01 -3.167264556884765625e+01 -1.356421113014221191e-01 -7.511990517377853394e-02 -6.322860717773437500e-02 -1.508648991584777832e-01
9.350000000000000000e+02 3.991453933715820312e+01 -3.258942413330078125e+01 3.324004411697387695e-01 -4.843045026063919067e-03 9.826721996068954468e-02 -2.162458561360836029e-02
9.360000000000000000e+02 3.602912521362304688e+01 -3.255842971801757812e+01 4.657427966594696045e-01 1.022727787494659424e-02 1.427910178899765015e-01 -4.110382124781608582e-02
9.370000000000000000e+02 3.145057106018066406e+01 -3.210350036621093750e+01 5.641025900840759277e-01 6.945031136274337769e-02 1.900658607482910156e-01 -1.515415459871292114e-01
9.380000000000000000e+02 3.003737068176269531e+01 -3.165619087219238281e+01 6.249101758003234863e-01 1.054516285657882690e-01 2.191085368394851685e-01 -2.141999304294586182e-01
9.390000000000000000e+02 2.483277130126953125e+01 -2.945925331115722656e+01 8.422185182571411133e-01 3.394494354724884033e-01 3.545003831386566162e-01 -5.134319067001342773e-01
9.400000000000000000e+02 2.225785255432128906e+01 -2.822151756286621094e+01 1.078633785247802734e+00 5.493792295455932617e-01 4.884038865566253662e-01 -7.618511319160461426e-01
9.410000000000000000e+02 2.354539871215820312e+01 -2.889303398132324219e+01 9.561435580253601074e-01 4.701484143733978271e-01 4.278875887393951416e-01 -6.265748739242553711e-01
9.420000000000000000e+02 1.369342899322509766e+01 -2.050965118408203125e+01 1.847357034683227539e+00 2.305751085281372070e+00 1.245932459831237793e+00 -2.090757846832275391e+00
9.430000000000000000e+02 1.271512508392333984e+01 -1.948062896728515625e+01 2.074645042419433594e+00 2.837674140930175781e+00 1.473695755004882812e+00 -2.297857046127319336e+00
9.440000000000000000e+02 1.081444549560546875e+01 -1.734308815002441406e+01 2.577499866485595703e+00 5.050732612609863281e+00 2.288469791412353516e+00 -3.153857469558715820e+00
9.450000000000000000e+02 1.889787101745605469e+01 -7.151355266571044922e+00 -6.824746727943420410e-01 -9.091478586196899414e-01 -4.774867594242095947e-01 9.513896703720092773e-01
9.460000000000000000e+02 1.517054748535156250e+01 -1.249389553070068359e+01 2.814246416091918945e-01 1.600642688572406769e-02 8.922932296991348267e-02 -9.534634649753570557e-02
9.470000000000000000e+02 2.337000465393066406e+01 -1.444138336181640625e+01 -6.716036200523376465e-01 -1.638630628585815430e+00 -6.930702924728393555e-01 1.113744974136352539e+00
9.480000000000000000e+02 2.361637878417968750e+01 -1.534200763702392578e+01 -6.376749277114868164e-01 -1.619632720947265625e+00 -6.771922707557678223e-01 1.304322004318237305e+00
9.490000000000000000e+02 2.389543342590332031e+01 -1.503985214233398438e+01 -5.864778161048889160e-01 -1.846885800361633301e+00 -7.300090789794921875e-01 1.275074362754821777e+00
9.500000000000000000e+02 2.804553222656250000e+01 -1.706846809387207031e+01 -2.429634094238281250e+00 5.425174236297607422e-01 -5.661349892616271973e-01 -1.454138398170471191e+00
9.510000000000000000e+02 3.741896820068359375e+01 -1.867694664001464844e+01 -1.485109090805053711e+00 -2.395372278988361359e-02 -4.527188539505004883e-01 -9.589625895023345947e-02
9.520000000000000000e+02 3.715771865844726562e+01 -1.762339782714843750e+01 -1.369217872619628906e+00 2.433633059263229370e-02 -4.034644663333892822e-01 -1.558781564235687256e-01
9.530000000000000000e+02 4.014382553100585938e+01 -1.844835853576660156e+01 -1.206010341644287109e+00 1.247847685590386391e-03 -3.614287376403808594e-01 -1.745977997779846191e-01
9.540000000000000000e+02 4.545596313476562500e+01 -1.701960563659667969e+01 -1.389484286308288574e+00 -1.246828064322471619e-01 -4.542501270771026611e-01 -3.958166539669036865e-01
9.550000000000000000e+02 4.356933975219726562e+01 -1.633759880065917969e+01 -1.287955284118652344e+00 -3.661171719431877136e-02 -3.973701000213623047e-01 -2.993229031562805176e-01
9.560000000000000000e+02 4.677182769775390625e+01 -1.660848999023437500e+01 -1.294150114059448242e+00 -9.620368480682373047e-02 -4.171061515808105469e-01 -4.296936988830566406e-01
9.570000000000000000e+02 4.805963134765625000e+01 -1.611744499206542969e+01 -1.307974576950073242e+00 -1.605939418077468872e-01 -4.405705630779266357e-01 -5.018202662467956543e-01
9.580000000000000000e+02 5.221995544433593750e+01 -1.264524555206298828e+01 -1.704262614250183105e+00 -2.387009412050247192e-01 -5.828890800476074219e-01 -7.066282629966735840e-01
9.590000000000000000e+02 5.301650238037109375e+01 -1.363825225830078125e+01 -1.720823764801025391e+00 -4.478706717491149902e-01 -6.506083607673645020e-01 -8.741811513900756836e-01
9.600000000000000000e+02 5.541812133789062500e+01 -1.224208831787109375e+01 -1.928860902786254883e+00 -5.952499508857727051e-01 -7.572332620620727539e-01 -1.113542079925537109e+00
9.610000000000000000e+02 5.775507354736328125e+01 -1.072326374053955078e+01 -2.589134931564331055e+00 -8.723315000534057617e-01 -1.038439989089965820e+00 -1.506834268569946289e+00
9.620000000000000000e+02 6.123730468750000000e+01 -8.433981895446777344e+00 -4.127911567687988281e+00 -1.198453783988952637e+00 -1.597909569740295410e+00 -2.154399156570434570e+00
9.630000000000000000e+02 6.419215393066406250e+01 -5.948465824127197266e+00 -4.492893218994140625e+00 -8.197566270828247070e-01 -1.593794941902160645e+00 -1.789231419563293457e+00
9.640000000000000000e+02 5.605976104736328125e+01 1.590520858764648438e+01 8.876238465309143066e-01 3.513292551040649414e+00 1.320274829864501953e+00 -8.097847700119018555e-01
9.650000000000000000e+02 4.622077560424804688e+01 5.882253170013427734e+00 -1.564379036426544189e-01 6.720039993524551392e-02 -2.677124924957752228e-02 6.483091413974761963e-02
9.660000000000000000e+02 4.291790771484375000e+01 9.351894378662109375e+00 -2.211961336433887482e-02 1.027769446372985840e+00 3.016949594020843506e-01 -3.168328106403350830e-02
9.670000000000000000e+02 2.493638229370117188e+01 -1.644845390319824219e+01 -6.710268855094909668e-01 -2.384457588195800781e+00 -9.166452884674072266e-01 2.557217359542846680e+00
9.680000000000000000e+02 2.470022010803222656e+01 -1.613646125793457031e+01 -3.712501227855682373e-01 -2.347702026367187500e+00 -8.156856298446655273e-01 2.074141025543212891e+00
9.690000000000000000e+02 2.433971595764160156e+01 -1.570045948028564453e+01 -4.653985798358917236e-01 -2.122613191604614258e+00 -7.764035463333129883e-01 1.573097467422485352e+00
9.700000000000000000e+02 2.405978775024414062e+01 -1.575600624084472656e+01 -6.309731602668762207e-01 -1.858339786529541016e+00 -7.467938661575317383e-01 1.546137452125549316e+00
9.710000000000000000e+02 2.375582695007324219e+01 -1.560473918914794922e+01 -6.091050505638122559e-01 -1.639993667602539062e+00 -6.747295856475830078e-01 1.375022649765014648e+00
9.720000000000000000e+02 2.461432266235351562e+01 -1.640704727172851562e+01 -1.012544393539428711e+00 -2.083973646163940430e+00 -9.289554357528686523e-01 2.355380535125732422e+00
9.730000000000000000e+02 2.459435081481933594e+01 -1.598361206054687500e+01 -5.303332209587097168e-01 -2.312947034835815430e+00 -8.529840707778930664e-01 1.875839710235595703e+00
9.740000000000000000e+02 2.347407913208007812e+01 -1.593842792510986328e+01 -9.122136831283569336e-01 -1.191263675689697266e+00 -6.310432553291320801e-01 1.361160159111022949e+00
9.750000000000000000e+02 2.272480010986328125e+01 -1.448888969421386719e+01 -6.635736227035522461e-01 -1.178159594535827637e+00 -5.525199770927429199e-01 9.691747426986694336e-01
9.760000000000000000e+02 2.767198371887207031e+01 -1.468818092346191406e+01 8.273838758468627930e-01 2.548235416412353516e+00 1.012685775756835938e+00 1.313265800476074219e+00
9.770000000000000000e+02 2.689715194702148438e+01 -1.278920269012451172e+01 -2.734897434711456299e-01 1.853445887565612793e+00 4.739868640899658203e-01 1.862329989671707153e-01
9.780000000000000000e+02 2.617447662353515625e+01 -1.122443675994873047e+01 -3.224897086620330811e-01 1.208866715431213379e+00 2.659130990505218506e-01 9.700566530227661133e-02
9.790000000000000000e+02 2.697560882568359375e+01 -1.368422031402587891e+01 -1.810561418533325195e-01 2.546863317489624023e+00 7.097421288490295410e-01 2.597493827342987061e-01
9.800000000000000000e+02 2.732186508178710938e+01 -1.417251873016357422e+01 9.853017330169677734e-02 2.938450336456298828e+00 9.110941290855407715e-01 7.857247591018676758e-01
9.810000000000000000e+02 2.718595886230468750e+01 -1.401816368103027344e+01 -7.483115047216415405e-02 2.879015445709228516e+00 8.412553071975708008e-01 5.559203028678894043e-01
9.820000000000000000e+02 2.147455406188964844e+01 -1.137580776214599609e+01 -6.812402009963989258e-01 -1.296830654144287109e+00 -5.934212803840637207e-01 9.745100736618041992e-01
9.830000000000000000e+02 2.133112907409667969e+01 -1.555482196807861328e+01 -3.427071273326873779e-01 -2.249348908662796021e-01 -1.702926009893417358e-01 2.943171560764312744e-01
9.840000000000000000e+02 2.005635452270507812e+01 -1.491160106658935547e+01 -1.299777477979660034e-01 -1.296750903129577637e-01 -7.789584994316101074e-02 1.371389776468276978e-01
9.850000000000000000e+02 2.175227928161621094e+01 -1.355906867980957031e+01 -6.640663743019104004e-01 -9.780322909355163574e-01 -4.926295876502990723e-01 8.480743169784545898e-01
9.860000000000000000e+02 2.209744262695312500e+01 -1.255305576324462891e+01 -7.179153561592102051e-01 -1.352261424064636230e+00 -6.210530400276184082e-01 1.019858121871948242e+00
9.870000000000000000e+02 2.068791770935058594e+01 -1.168014621734619141e+01 -5.808048248291015625e-01 -9.493613243103027344e-01 -4.590498507022857666e-01 8.079935312271118164e-01
9.880000000000000000e+02 2.022122383117675781e+01 -1.266567516326904297e+01 -4.740123152732849121e-01 -6.133864521980285645e-01 -3.262196481227874756e-01 5.886353254318237305e-01
9.890000000000000000e+02 1.777569770812988281e+01 -7.009419918060302734e+00 -6.432355046272277832e-01 -6.422340869903564453e-01 -3.856408894062042236e-01 9.209258556365966797e-01
9.900000000000000000e+02 2.010102081298828125e+01 -8.882319450378417969e+00 -6.233648657798767090e-01 -1.124012112617492676e+00 -5.242130756378173828e-01 9.606114625930786133e-01
9.910000000000000000e+02 1.984119033813476562e+01 -9.807700157165527344e+00 -5.625776648521423340e-01 -9.627026319503784180e-01 -4.575840830802917480e-01 8.761867880821228027e-01
9.920000000000000000e+02 2.587157440185546875e+01 -1.064576721191406250e+01 -3.415765166282653809e-01 1.026322245597839355e+00 2.054237276315689087e-01 1.159423664212226868e-01
9.930000000000000000e+02 2.573852729797363281e+01 -1.155235195159912109e+01 -2.114307582378387451e-01 1.164936542510986328e+00 2.860517203807830811e-01 -6.215739622712135315e-02
9.940000000000000000e+02 2.508161926269531250e+01 -1.029387760162353516e+01 -2.703060209751129150e-01 8.086527585983276367e-01 1.615040153264999390e-01 5.727342888712882996e-02
9.950000000000000000e+02 2.555923652648925781e+01 -1.002537631988525391e+01 -3.597067594528198242e-01 8.681855797767639160e-01 1.525436490774154663e-01 1.530595272779464722e-01
9.960000000000000000e+02 1.927107620239257812e+01 -1.012423992156982422e+01 -4.760116934776306152e-01 -7.993651032447814941e-01 -3.826130330562591553e-01 7.703171372413635254e-01
9.970000000000000000e+02 2.114582443237304688e+01 -1.074090671539306641e+01 -6.411570906639099121e-01 -1.259142994880676270e+00 -5.700900554656982422e-01 9.615824818611145020e-01
9.980000000000000000e+02 1.949615287780761719e+01 -1.063083076477050781e+01 -4.828479290008544922e-01 -7.784338593482971191e-01 -3.783845305442810059e-01 7.484954595565795898e-01
9.990000000000000000e+02 1.755411529541015625e+01 -1.377776813507080078e+01 9.067694097757339478e-02 -1.243883091956377029e-02 2.347143180668354034e-02 -2.355602383613586426e-02
1.000000000000000000e+03 4.873813629150390625e+00 -2.581251859664916992e+00 -7.165291905403137207e-01 1.774753630161285400e-02 -2.096344977617263794e-01 -6.414041519165039062e-01
1.001000000000000000e+03 7.880693912506103516e+00 -1.890032410621643066e+00 -1.254675984382629395e+00 1.864026188850402832e-01 -3.204820156097412109e-01 -2.224965244531631470e-01
1.002000000000000000e+03 2.652428388595581055e+00 -1.979440450668334961e+00 -2.932973206043243408e-01 -1.690541654825210571e-01 -1.387054473161697388e-01 -3.868726491928100586e-01
1.003000000000000000e+03 1.613858819007873535e+00 -7.686644077301025391e+00 -5.420753359794616699e-02 -1.848285555839538574e+00 -5.707479119300842285e-01 -8.622235655784606934e-01
1.004000000000000000e+03 2.679572105407714844e+00 -7.613254070281982422e+00 -1.330703049898147583e-01 -1.225062131881713867e+00 -4.074397087097167969e-01 -1.194843530654907227e+00
1.005000000000000000e+03 4.069396853446960449e-01 -3.560967683792114258e+00 -3.679940477013587952e-02 -4.718730747699737549e-01 -1.526017487049102783e-01 -1.284230202436447144e-01
1.006000000000000000e+03 4.737218022346496582e-01 -4.959145069122314453e+00 -2.390846610069274902e-03 -1.027460932731628418e+00 -3.089555501937866211e-01 -1.914023458957672119e-01
1.007000000000000000e+03 1.122757911682128906e+01 -4.101071834564208984e+00 -1.233946919441223145e+00 5.305138230323791504e-01 -2.110299468040466309e-01 2.574142813682556152e-01
1.008000000000000000e+03 8.513823509216308594e+00 -2.707378149032592773e+00 -1.253648996353149414e+00 3.655724227428436279e-01 -2.664229869842529297e-01 -2.115816026926040649e-01
1.009000000000000000e+03 6.297512531280517578e+00 -2.629247188568115234e+00 -9.477087259292602539e-01 1.533247679471969604e-01 -2.383151948451995850e-01 -5.728627443313598633e-01
1.010000000000000000e+03 5.572783470153808594e+00 -2.613254785537719727e+00 -8.163790106773376465e-01 7.846388965845108032e-02 -2.213745415210723877e-01 -6.127292513847351074e-01
1.011000000000000000e+03 9.242476463317871094e+00 -2.778400421142578125e+00 -1.327910780906677246e+00 4.026731848716735840e-01 -2.775712907314300537e-01 -1.106753423810005188e-01
1.012000000000000000e+03 1.017083168029785156e+01 -2.041957616806030273e+00 -1.474230527877807617e+00 2.514779567718505859e-01 -3.668257892131805420e-01 1.008988842368125916e-01
1.013000000000000000e+03 2.455212783813476562e+01 -8.031729698181152344e+00 -4.919508993625640869e-01 4.964479804039001465e-01 1.349120633676648140e-03 2.852081358432769775e-01
1.014000000000000000e+03 2.400893592834472656e+01 -8.292686462402343750e+00 -3.992582857608795166e-01 3.892339468002319336e-01 -3.007300198078155518e-03 2.315848320722579956e-01
1.015000000000000000e+03 2.523448371887207031e+01 -9.376766204833984375e+00 -3.993753790855407715e-01 7.317206859588623047e-01 9.970359504222869873e-02 1.973544210195541382e-01
1.016000000000000000e+03 2.489860534667968750e+01 -8.709300041198730469e+00 -4.380422830581665039e-01 6.111704111099243164e-01 5.193844065070152283e-02 2.379789054393768311e-01
1.017000000000000000e+03 3.453190231323242188e+01 -1.777309608459472656e+01 -1.600793480873107910e+00 6.270684301853179932e-02 -4.614259898662567139e-01 -1.330811381340026855e-01
1.018000000000000000e+03 2.955426597595214844e+01 -1.619446372985839844e+01 -4.642299115657806396e-01 -2.695364356040954590e-01 -2.201299071311950684e-01 -5.607492923736572266e-01
1.019000000000000000e+03 2.921086692810058594e+01 -1.826998329162597656e+01 -4.278047561645507812e+00 1.180628910660743713e-01 -1.247995495796203613e+00 6.083378791809082031e-01
1.020000000000000000e+03 2.778938674926757812e+01 -1.438996219635009766e+01 5.219849348068237305e-01 2.156037569046020508e+00 8.034067749977111816e-01 1.136225938796997070e+00
1.021000000000000000e+03 2.843685531616210938e+01 -1.482616233825683594e+01 9.146146774291992188e-01 9.483466744422912598e-01 5.588883757591247559e-01 8.246792554855346680e-01
1.022000000000000000e+03 9.503587722778320312e+00 3.385081529617309570e+00 -3.594344556331634521e-01 -1.314938813447952271e-01 -1.472785025835037231e-01 2.329525053501129150e-01
1.023000000000000000e+03 8.477219581604003906e+00 2.666549921035766602e+00 -2.799160778522491455e-01 -6.702385097742080688e-02 -1.040819808840751648e-01 1.610760688781738281e-01
1.024000000000000000e+03 6.733841896057128906e+00 1.897084712982177734e+00 -1.495037972927093506e-01 -1.493778172880411148e-02 -4.933247715234756470e-02 7.563617825508117676e-02
1.025000000000000000e+03 6.088093280792236328e+00 2.699334383010864258e+00 -1.567748934030532837e-01 -2.838888578116893768e-02 -5.554913356900215149e-02 9.898370504379272461e-02
1.026000000000000000e+03 1.841369390487670898e+00 7.764293670654296875e+00 -2.447226084768772125e-02 -2.066131830215454102e-01 -6.932563334703445435e-02 1.266479343175888062e-01
1.027000000000000000e+03 3.981431484222412109e+00 3.906303405761718750e+00 -9.450045228004455566e-02 -6.201025098562240601e-02 -4.695320874452590942e-02 9.680813550949096680e-02
1.028000000000000000e+03 1.275464892387390137e+00 3.487598419189453125e+00 -1.087081618607044220e-02 -1.814771816134452820e-02 -8.705560117959976196e-03 1.237440388649702072e-02
1.029000000000000000e+03 2.787614822387695312e+00 2.058927536010742188e+00 -2.448080666363239288e-02 -1.934025250375270844e-02 -1.314631849527359009e-02 1.307059358805418015e-02
1.030000000000000000e+03 2.109811067581176758e+00 3.338294506072998047e+00 -2.772028185427188873e-02 -3.488676622509956360e-02 -1.878211461007595062e-02 2.787496708333492279e-02
1.031000000000000000e+03 9.270435333251953125e+00 2.598197698593139648e+00 -3.183783590793609619e-01 -7.975409179925918579e-02 -1.194397285580635071e-01 1.808858066797256470e-01
1.032000000000000000e+03 7.676649570465087891e+00 2.682853460311889648e+00 -2.392329275608062744e-01 -4.063247889280319214e-02 -8.395961672067642212e-02 1.391191184520721436e-01
1.033000000000000000e+03 7.500498771667480469e+00 5.048597335815429688e+00 -2.771836519241333008e-01 -1.103287637233734131e-01 -1.162537261843681335e-01 2.696499824523925781e-01
1.034000000000000000e+03 5.306731700897216797e+00 2.758581876754760742e+00 -1.212373375892639160e-01 -3.652413934469223022e-02 -4.732844233512878418e-02 8.596739172935485840e-02
1.035000000000000000e+03 2.235720252990722656e+01 -5.606672763824462891e+00 -6.699717044830322266e-01 -4.871470481157302856e-02 -2.156059294939041138e-01 4.467483460903167725e-01
1.036000000000000000e+03 2.395843315124511719e+01 -5.699941635131835938e+00 -7.093396186828613281e-01 3.313508331775665283e-01 -1.133966371417045593e-01 4.075255692005157471e-01
1.037000000000000000e+03 2.418625068664550781e+01 -7.346470832824707031e+00 -5.425087809562683105e-01 3.955782651901245117e-01 -4.407915845513343811e-02 3.250695765018463135e-01
1.038000000000000000e+03 2.379352188110351562e+01 -6.659018039703369141e+00 -6.064163446426391602e-01 2.950678467750549316e-01 -9.340454638004302979e-02 3.692639470100402832e-01
1.039000000000000000e+03 2.150100135803222656e+01 -3.207058668136596680e+00 -8.201653361320495605e-01 -1.206782385706901550e-01 -2.822530865669250488e-01 4.957649707794189453e-01
1.040000000000000000e+03 1.746108818054199219e+01 4.912591934204101562e+00 -9.959592223167419434e-01 -7.366964221000671387e-01 -5.197966694831848145e-01 7.519869804382324219e-01
1.041000000000000000e+03 1.550501823425292969e+01 6.564622402191162109e+00 -7.855493426322937012e-01 -1.153924107551574707e+00 -5.818420052528381348e-01 8.353625535964965820e-01
1.042000000000000000e+03 1.648136711120605469e+01 3.188077688217163086e+00 -4.459065794944763184e-01 -7.647404670715332031e-01 -3.631941080093383789e-01 5.924217700958251953e-01
1.043000000000000000e+03 1.645448684692382812e+01 5.733325004577636719e+00 -8.384370803833007812e-01 -8.360341787338256836e-01 -5.023413896560668945e-01 8.304981589317321777e-01
1.044000000000000000e+03 1.314725589752197266e+01 1.996578812599182129e+00 -4.585880935192108154e-01 -3.851112425327301025e-01 -2.531098127365112305e-01 3.714346289634704590e-01
1.045000000000000000e+03 1.155243492126464844e+01 2.164843082427978516e+00 -4.155320823192596436e-01 -2.265479266643524170e-01 -1.926240026950836182e-01 2.719605565071105957e-01
1.046000000000000000e+03 2.201099586486816406e+01 -3.899925231933593750e+00 -8.072463870048522949e-01 -4.478632658720016479e-02 -2.556098103523254395e-01 4.850120246410369873e-01
1.047000000000000000e+03 2.096495819091796875e+01 -2.500202655792236328e+00 -8.097082376480102539e-01 -1.956082433462142944e-01 -3.015949428081512451e-01 5.182825922966003418e-01
1.048000000000000000e+03 2.031981849670410156e+01 -3.007131576538085938e+00 -8.617549538612365723e-01 -3.899164795875549316e-01 -3.755014240741729736e-01 5.874665379524230957e-01
1.049000000000000000e+03 2.037723541259765625e+01 -1.743517756462097168e+00 -7.598673105239868164e-01 -2.846329510211944580e-01 -3.133500814437866211e-01 5.327947139739990234e-01
1.050000000000000000e+03 1.766208839416503906e+01 -8.346009254455566406e-01 -7.052167654037475586e-01 -6.423899531364440918e-01 -4.042820334434509277e-01 6.639387607574462891e-01
1.051000000000000000e+03 1.810155296325683594e+01 -1.137801334261894226e-01 -5.882641077041625977e-01 -5.941855311393737793e-01 -3.547348976135253906e-01 6.250927448272705078e-01
1.052000000000000000e+03 1.883959007263183594e+01 -6.260774731636047363e-01 -6.317748427391052246e-01 -5.200647115707397461e-01 -3.455518782138824463e-01 6.148924231529235840e-01
1.053000000000000000e+03 1.433732986450195312e+01 -3.395204544067382812e+00 -1.260435223579406738e+00 -7.259721308946609497e-02 -3.999097347259521484e-01 7.446950078010559082e-01
1.054000000000000000e+03 1.460281944274902344e+01 -4.555545806884765625e+00 -1.041687250137329102e+00 -6.579156033694744110e-03 -3.144799172878265381e-01 8.082383275032043457e-01
1.055000000000000000e+03 1.657547950744628906e+01 -5.975402355194091797e+00 -7.750413417816162109e-01 -3.967683613300323486e-01 -3.515429198741912842e-01 9.214814901351928711e-01
1.056000000000000000e+03 1.780458259582519531e+01 -5.918633937835693359e+00 -7.976220250129699707e-01 -6.791649460792541504e-01 -4.430361092090606689e-01 9.605193138122558594e-01
1.057000000000000000e+03 1.597974967956542969e+01 -6.746967792510986328e+00 -6.107172369956970215e-01 -2.048133462667465210e-01 -2.446591705083847046e-01 8.987485170364379883e-01
1.058000000000000000e+03 1.687127494812011719e+01 -8.856748580932617188e+00 -3.095026910305023193e-01 -3.737675249576568604e-01 -2.049810588359832764e-01 7.396148443222045898e-01
1.059000000000000000e+03 9.988093376159667969e+00 -2.892863512039184570e+00 -1.353607773780822754e+00 4.201291501522064209e-01 -2.800435721874237061e-01 5.791275203227996826e-02
1.060000000000000000e+03 1.310983180999755859e+01 -3.839433193206787109e+00 -1.218223571777343750e+00 2.022539675235748291e-01 -3.047908544540405273e-01 6.114720106124877930e-01
1.061000000000000000e+03 1.195989036560058594e+01 -4.320093631744384766e+00 -1.175956368446350098e+00 4.851863980293273926e-01 -2.072309851646423340e-01 4.321238100528717041e-01
1.062000000000000000e+03 1.232649040222167969e+01 -3.524732351303100586e+00 -1.297991275787353516e+00 2.762943804264068604e-01 -3.065090477466583252e-01 4.459288716316223145e-01
1.063000000000000000e+03 1.352016830444335938e+01 -3.053722143173217773e+00 -1.347010612487792969e+00 2.003568457439541817e-03 -4.035021066665649414e-01 6.180053949356079102e-01
1.064000000000000000e+03 1.855336380004882812e+01 4.264081954956054688e+00 -7.663917541503906250e-01 -3.431279063224792480e-01 -3.328559100627899170e-01 5.048654675483703613e-01
1.065000000000000000e+03 2.860790061950683594e+01 8.707805633544921875e+00 1.591335386037826538e-01 2.567215859889984131e-01 1.247565373778343201e-01 6.992922425270080566e-01
1.066000000000000000e+03 1.357986736297607422e+01 1.435458469390869141e+01 5.631458759307861328e-01 -3.018749505281448364e-02 1.598875075578689575e-01 4.344135820865631104e-01
1.067000000000000000e+03 1.938560104370117188e+01 1.677016830444335938e+01 3.595850467681884766e-01 1.171760726720094681e-02 1.113907918334007263e-01 3.400389254093170166e-01
1.068000000000000000e+03 1.643550682067871094e+01 1.907575798034667969e+01 2.123946249485015869e-01 2.299715280532836914e-01 1.327098459005355835e-01 4.158966243267059326e-01
1.069000000000000000e+03 1.979003524780273438e+01 1.865250968933105469e+01 2.693382203578948975e-01 -3.397431597113609314e-02 7.060917466878890991e-02 6.439308524131774902e-01
1.070000000000000000e+03 1.315480804443359375e+01 2.827238321304321289e+00 -4.673641324043273926e-01 -4.127816557884216309e-01 -2.640437483787536621e-01 3.787746727466583252e-01
1.071000000000000000e+03 2.461795806884765625e+01 1.406898403167724609e+01 -6.230638027191162109e-01 -8.724750876426696777e-01 -4.486616849899291992e-01 7.104501724243164062e-01
1.072000000000000000e+03 2.147722625732421875e+01 2.040802955627441406e+01 2.506810426712036133e-01 -2.285763472318649292e-01 6.631408818066120148e-03 5.849193334579467773e-01
1.073000000000000000e+03 1.606387710571289062e+01 2.259487628936767578e+00 -4.239890873432159424e-01 -6.949012279510498047e-01 -3.356671035289764404e-01 5.422323346138000488e-01
1.074000000000000000e+03 2.572909164428710938e+01 5.663885593414306641e+00 3.683443963527679443e-01 5.719235539436340332e-01 2.820803821086883545e-01 3.300870656967163086e-01
1.075000000000000000e+03 2.135281181335449219e+01 3.138420343399047852e+00 -1.782494783401489258e-01 2.015623152256011963e-01 6.993851624429225922e-03 4.514948725700378418e-01
1.076000000000000000e+03 2.471119689941406250e+01 4.948909282684326172e+00 2.850922644138336182e-01 6.960029602050781250e-01 2.943285703659057617e-01 3.662507832050323486e-01
1.077000000000000000e+03 1.551648616790771484e+01 1.758802032470703125e+01 4.184083938598632812e-01 2.721002101898193359e-01 2.071525752544403076e-01 2.884974181652069092e-01
1.078000000000000000e+03 1.309765815734863281e+01 1.105833530426025391e+01 5.223065614700317383e-02 -3.310611844062805176e-01 -8.364915847778320312e-02 5.066784024238586426e-01
1.079000000000000000e+03 2.238705253601074219e+01 3.674566745758056641e+00 2.417880855500698090e-02 3.958356678485870361e-01 1.260043382644653320e-01 3.689022958278656006e-01
1.080000000000000000e+03 2.558606529235839844e+01 1.512865066528320312e+01 -4.359220862388610840e-01 -4.690699875354766846e-01 -2.714976072311401367e-01 3.599276840686798096e-01
1.081000000000000000e+03 2.216615676879882812e+01 1.768016052246093750e+01 5.179942771792411804e-02 -5.144423246383666992e-01 -1.387928724288940430e-01 5.969833731651306152e-01
1.082000000000000000e+03 2.047446441650390625e+01 1.738317489624023438e+01 1.023664474487304688e-01 -1.514407545328140259e-01 -1.472229231148958206e-02 4.645850658416748047e-01
1.083000000000000000e+03 2.751058197021484375e+01 7.607355594635009766e+00 3.366704285144805908e-01 2.693669795989990234e-01 1.818112283945083618e-01 5.450168251991271973e-01
1.084000000000000000e+03 2.730018806457519531e+01 8.678224563598632812e+00 2.854660451412200928e-01 1.812917441129684448e-01 1.400273442268371582e-01 6.439767479896545410e-01
1.085000000000000000e+03 1.232760334014892578e+01 2.081593513488769531e+00 -4.500900506973266602e-01 -2.741144895553588867e-01 -2.172613590955734253e-01 3.213596940040588379e-01
1.086000000000000000e+03 1.697892379760742188e+01 1.738011598587036133e+00 -4.112963378429412842e-01 -6.894850134849548340e-01 -3.302344083786010742e-01 6.144341230392456055e-01
1.087000000000000000e+03 2.114569854736328125e+01 -1.273709654808044434e+00 -7.111425995826721191e-01 -9.797358512878417969e-02 -2.427348494529724121e-01 4.933497905731201172e-01
1.088000000000000000e+03 1.315186119079589844e+01 8.569149017333984375e+00 -4.406045675277709961e-01 -5.164285898208618164e-01 -2.871099412441253662e-01 5.712300539016723633e-01
1.089000000000000000e+03 1.437048530578613281e+01 9.634746551513671875e+00 -2.853980101644992828e-02 -8.291051983833312988e-01 -2.572935223579406738e-01 2.491628229618072510e-01
1.090000000000000000e+03 8.380329132080078125e+00 -1.180156993865966797e+01 1.003670573234558105e+00 4.146671772003173828e+00 1.545102715492248535e+00 -1.402835607528686523e+00
1.091000000000000000e+03 7.687895774841308594e+00 -1.254671955108642578e+01 1.990524172782897949e+00 3.346660375595092773e+00 1.601155400276184082e+00 -9.902906417846679688e-01
1.092000000000000000e+03 6.832343292236328125e+01 -8.624109268188476562e+00 3.473127603530883789e+00 2.025233078002929688e+01 7.117637157440185547e+00 -4.375953197479248047e+00
1.093000000000000000e+03 6.872817993164062500e+01 -1.127937126159667969e+01 1.621995806694030762e+00 2.273502922058105469e+01 7.307107448577880859e+00 1.132301330566406250e+00
1.094000000000000000e+03 5.553993606567382812e+01 1.453233718872070312e+01 5.944033265113830566e-01 4.216367244720458984e+00 1.443231225013732910e+00 -8.457840681076049805e-01
1.095000000000000000e+03 5.548094940185546875e+01 1.218758583068847656e+01 1.538625806570053101e-01 3.543594360351562500e+00 1.109237074851989746e+00 7.345280051231384277e-02
1.096000000000000000e+03 1.209326457977294922e+01 -1.149715042114257812e+01 1.771617293357849121e+00 1.760542690753936768e-01 5.843014717102050781e-01 4.052175581455230713e-01
1.097000000000000000e+03 1.010315990447998047e+01 -1.028863430023193359e+01 2.267546653747558594e-01 2.771618843078613281e+00 8.995120525360107422e-01 5.460829138755798340e-01
1.098000000000000000e+03 6.328734970092773438e+01 -3.947129249572753906e+00 -1.608017325401306152e+00 1.446199715137481689e-01 -4.390192031860351562e-01 -1.604773044586181641e+00
1.099000000000000000e+03 6.564910125732421875e+01 -6.581675529479980469e+00 -4.438001155853271484e+00 -6.118695810437202454e-02 -1.349756360054016113e+00 -2.074544668197631836e+00
1.100000000000000000e+03 4.301797485351562500e+01 1.057866096496582031e+01 9.914413094520568848e-02 1.495573520660400391e+00 4.784153103828430176e-01 -1.832662522792816162e-01
1.101000000000000000e+03 4.281165695190429688e+01 1.186826419830322266e+01 1.567445099353790283e-01 2.210353374481201172e+00 7.101293206214904785e-01 -1.270414236932992935e-02
1.102000000000000000e+03 4.373624801635742188e+01 1.669159126281738281e+01 8.782018423080444336e-01 1.984660267829895020e+00 8.588586449623107910e-01 9.818121194839477539e-01
1.103000000000000000e+03 4.599047470092773438e+01 1.834151458740234375e+01 6.288141012191772461e-01 6.029165983200073242e-01 3.695192039012908936e-01 5.453954935073852539e-01
1.104000000000000000e+03 7.917352294921875000e+01 -3.486648941040039062e+01 4.781084600836038589e-03 9.717491149902343750e+00 2.916681766510009766e+00 2.047977410256862640e-02
1.105000000000000000e+03 7.930026245117187500e+01 -2.779192733764648438e+01 -4.656394198536872864e-02 9.295953750610351562e+00 2.774816989898681641e+00 -1.144547760486602783e-01
1.106000000000000000e+03 7.784848022460937500e+01 3.212008666992187500e+01 6.773698609322309494e-03 6.632550716400146484e+00 1.991797327995300293e+00 -8.492857217788696289e-02
1.107000000000000000e+03 7.920986938476562500e+01 3.618114471435546875e+01 -7.701667491346597672e-03 6.665328025817871094e+00 1.997287869453430176e+00 -2.802415750920772552e-02
1.108000000000000000e+03 7.935526275634765625e+01 -2.084665679931640625e+01 3.685674816370010376e-02 7.289372920989990234e+00 2.197868824005126953e+00 -2.903579473495483398e-01
1.109000000000000000e+03 7.790768432617187500e+01 -2.761893653869628906e+01 -5.447801947593688965e-02 8.923903465270996094e+00 2.660827398300170898e+00 -3.105284571647644043e-01
1.110000000000000000e+03 7.800056457519531250e+01 -2.622461700439453125e+01 -9.878093004226684570e-02 8.773338317871093750e+00 2.602367162704467773e+00 -3.806420266628265381e-01
1.111000000000000000e+03 7.923726654052734375e+01 -3.059316062927246094e+01 -4.465508088469505310e-02 9.593321800231933594e+00 2.864599943161010742e+00 -6.636698544025421143e-02
1.112000000000000000e+03 7.749559783935546875e+01 -3.495182037353515625e+01 -7.727862894535064697e-02 9.199153900146484375e+00 2.736562490463256836e+00 -4.257190972566604614e-02
1.113000000000000000e+03 7.756349945068359375e+01 -3.340065002441406250e+01 -4.888887330889701843e-02 9.106257438659667969e+00 2.717210531234741211e+00 -6.326603144407272339e-02
1.114000000000000000e+03 7.280283355712890625e+01 -3.546342086791992188e+01 -9.820761531591415405e-02 7.514952182769775391e+00 2.225023269653320312e+00 1.021780446171760559e-02
1.115000000000000000e+03 7.814649963378906250e+01 -3.789382553100585938e+01 -4.500976949930191040e-02 9.275445938110351562e+00 2.769130945205688477e+00 7.760324329137802124e-02
1.116000000000000000e+03 7.684204101562500000e+01 -3.875793457031250000e+01 -5.247604101896286011e-02 9.119555473327636719e+00 2.720123767852783203e+00 5.810148268938064575e-02
1.117000000000000000e+03 7.808399200439453125e+01 1.395474529266357422e+01 1.738728955388069153e-02 7.971500396728515625e+00 2.396666288375854492e+00 -2.351274490356445312e-01
1.118000000000000000e+03 7.936205291748046875e+01 1.533375072479248047e+01 1.248710416257381439e-02 8.108101844787597656e+00 2.436176776885986328e+00 -7.151984423398971558e-02
1.119000000000000000e+03 7.805122375488281250e+01 2.086717224121093750e+01 5.371788982301950455e-03 7.279229164123535156e+00 2.185380220413208008e+00 -1.623482704162597656e-01
1.120000000000000000e+03 7.933998870849609375e+01 2.228800773620605469e+01 -4.524624440819025040e-03 7.382732391357421875e+00 2.213462352752685547e+00 -4.788902774453163147e-02
1.121000000000000000e+03 7.781814575195312500e+01 3.072494316101074219e+01 5.238624289631843567e-03 6.685667514801025391e+00 2.007271766662597656e+00 -8.711158484220504761e-02
1.122000000000000000e+03 7.782958221435546875e+01 2.786766624450683594e+01 1.006285939365625381e-02 6.803707122802734375e+00 2.044131040573120117e+00 -1.060441732406616211e-01
1.123000000000000000e+03 7.928066253662109375e+01 2.787165260314941406e+01 2.009462565183639526e-03 7.015150547027587891e+00 2.105148077011108398e+00 -3.268923237919807434e-02
1.124000000000000000e+03 7.791970825195312500e+01 2.504362297058105469e+01 1.500897388905286789e-02 6.966186523437500000e+00 2.094358682632446289e+00 -1.282827705144882202e-01
1.125000000000000000e+03 7.797276306152343750e+01 2.364846420288085938e+01 6.593735422939062119e-03 7.061611652374267578e+00 2.120461463928222656e+00 -1.368927210569381714e-01
1.126000000000000000e+03 7.807635498046875000e+01 1.810853004455566406e+01 4.950153175741434097e-03 7.527316093444824219e+00 2.259679794311523438e+00 -1.924390643835067749e-01
1.127000000000000000e+03 7.808322143554687500e+01 1.534013652801513672e+01 2.345195272937417030e-03 7.814447879791259766e+00 2.345037937164306641e+00 -2.216333299875259399e-01
1.128000000000000000e+03 7.808113861083984375e+01 1.672583007812500000e+01 1.849156245589256287e-02 7.668218612670898438e+00 2.306013107299804688e+00 -2.084414213895797729e-01
1.129000000000000000e+03 7.808377838134765625e+01 1.256783485412597656e+01 -2.524269046261906624e-03 8.134796142578125000e+00 2.439681529998779297e+00 -2.468147426843643188e-01
1.130000000000000000e+03 7.678955841064453125e+01 1.119902896881103516e+01 -5.041185300797224045e-03 7.922728538513183594e+00 2.375306129455566406e+00 -4.014955461025238037e-01
1.131000000000000000e+03 7.807066345214843750e+01 8.415069580078125000e+00 -1.380097307264804840e-02 8.629148483276367188e+00 2.584604263305664062e+00 -2.251094132661819458e-01
1.132000000000000000e+03 7.936184692382812500e+01 9.768858909606933594e+00 8.792346343398094177e-03 8.882170677185058594e+00 2.667289018630981445e+00 -7.569789886474609375e-02
1.133000000000000000e+03 7.934442138671875000e+01 -1.945642852783203125e+01 -5.905937403440475464e-02 6.680830955505371094e+00 1.986531376838684082e+00 -3.064044117927551270e-01
1.134000000000000000e+03 7.935572052001953125e+01 -1.388138103485107422e+01 5.277791246771812439e-02 4.338566780090332031e+00 1.317403435707092285e+00 -1.383195370435714722e-01
1.135000000000000000e+03 7.940889739990234375e+01 -6.964437484741210938e+00 -5.768701806664466858e-02 5.919222831726074219e+00 1.758460760116577148e+00 3.652300238609313965e-01
1.136000000000000000e+03 7.806100463867187500e+01 3.023275732994079590e-02 -1.839308142662048340e-01 8.872898101806640625e+00 2.606690168380737305e+00 3.974122107028961182e-01
1.137000000000000000e+03 7.934549713134765625e+01 1.412749886512756348e+00 -6.170798093080520630e-02 9.370822906494140625e+00 2.792734622955322266e+00 1.070687100291252136e-01
1.138000000000000000e+03 7.673191833496093750e+01 7.085615158081054688e+00 -7.515573501586914062e-02 8.327996253967285156e+00 2.475852012634277344e+00 -3.260557651519775391e-01
1.139000000000000000e+03 7.781224822998046875e+01 2.930025100708007812e+01 5.780710373073816299e-03 6.735548973083496094e+00 2.022398948669433594e+00 -9.494759887456893921e-02
1.140000000000000000e+03 7.807806396484375000e+01 9.796577453613281250e+00 -1.434885989874601364e-02 8.471762657165527344e+00 2.537224292755126953e+00 -2.487555146217346191e-01
1.141000000000000000e+03 7.676843261718750000e+01 1.047921180725097656e-02 -3.391765952110290527e-01 8.747984886169433594e+00 2.522642374038696289e+00 4.470010697841644287e-01
1.142000000000000000e+03 7.802302551269531250e+01 2.849070072174072266e+00 -1.272445470094680786e-01 9.017192840576171875e+00 2.666984319686889648e+00 7.515482604503631592e-02
1.143000000000000000e+03 7.810648345947265625e+01 -1.387270569801330566e+00 -1.120598763227462769e-01 8.636701583862304688e+00 2.557392358779907227e+00 5.551866292953491211e-01
1.144000000000000000e+03 7.938166046142578125e+01 -2.784498453140258789e+00 3.466222435235977173e-02 8.216916084289550781e+00 2.475473403930664062e+00 2.956686615943908691e-01
1.145000000000000000e+03 7.822434234619140625e+01 -8.330690383911132812e+00 1.150943040847778320e-01 6.303798675537109375e+00 1.925667881965637207e+00 8.165735602378845215e-01
1.146000000000000000e+03 7.822697448730468750e+01 -5.587787151336669922e+00 -7.525836676359176636e-02 7.332657814025878906e+00 2.177219867706298828e+00 9.454916119575500488e-01
1.147000000000000000e+03 7.939571380615234375e+01 -9.733830451965332031e+00 -2.454580739140510559e-02 4.563942909240722656e+00 1.361819148063659668e+00 2.184771299362182617e-01
1.148000000000000000e+03 7.805067443847656250e+01 -1.376984310150146484e+01 2.387287616729736328e-01 5.830690383911132812e+00 1.820825695991516113e+00 -3.964274525642395020e-01
1.149000000000000000e+03 7.809001922607421875e+01 -1.239918708801269531e+01 3.177065551280975342e-01 5.710881233215332031e+00 1.808576345443725586e+00 4.983217455446720123e-03
1.150000000000000000e+03 7.934993743896484375e+01 -1.666259002685546875e+01 -3.738284809514880180e-03 5.354046344757080078e+00 1.605092406272888184e+00 -2.989336252212524414e-01
1.151000000000000000e+03 7.806326293945312500e+01 -2.074804878234863281e+01 -6.753040105104446411e-02 7.634144783020019531e+00 2.269984245300292969e+00 -7.623324394226074219e-01
1.152000000000000000e+03 7.801866912841796875e+01 -1.935774040222167969e+01 -1.081351935863494873e-02 7.212224483489990234e+00 2.160423278808593750e+00 -8.218590021133422852e-01
1.153000000000000000e+03 4.591563796997070312e+01 4.376398086547851562e+00 -1.527600437402725220e-01 1.614608764648437500e-01 2.610250143334269524e-03 1.122635155916213989e-01
1.154000000000000000e+03 4.484169769287109375e+01 5.601198673248291016e+00 -1.960467398166656494e-01 3.043076395988464355e-01 3.247826918959617615e-02 3.005142509937286377e-02
1.155000000000000000e+03 6.964933013916015625e+01 -8.315665245056152344e+00 1.804933190345764160e+00 1.453662395477294922e+01 4.902467250823974609e+00 5.754904150962829590e-01
1.156000000000000000e+03 6.827715301513671875e+01 -5.766190528869628906e+00 -2.961706399917602539e+00 1.067862796783447266e+01 2.315076589584350586e+00 -2.007417678833007812e+00
1.157000000000000000e+03 4.878104400634765625e+01 5.081093788146972656e+00 -2.420048601925373077e-02 2.568830363452434540e-02 4.463453078642487526e-04 1.983314156532287598e-01
1.158000000000000000e+03 5.175154876708984375e+01 5.352283477783203125e+00 2.062229663133621216e-01 3.551554083824157715e-01 1.684135198593139648e-01 3.497449457645416260e-01
1.159000000000000000e+03 1.404803371429443359e+01 -1.188865661621093750e+01 7.341415286064147949e-01 6.500449031591415405e-02 2.397438138723373413e-01 -1.168457209132611752e-03
1.160000000000000000e+03 4.757962799072265625e+01 5.916918754577636719e+00 -1.214342191815376282e-01 -2.390590868890285492e-02 -4.360203817486763000e-02 1.196630224585533142e-01
1.161000000000000000e+03 6.834997558593750000e+01 -1.352231597900390625e+01 2.545201063156127930e+00 1.943483543395996094e+01 6.594010829925537109e+00 4.246106147766113281e+00
1.162000000000000000e+03 6.768395233154296875e+01 -1.466206264495849609e+01 2.204250812530517578e+00 1.432702922821044922e+01 4.959383964538574219e+00 5.412989616394042969e+00
1.163000000000000000e+03 5.052169418334960938e+01 2.144209098815917969e+01 7.344909310340881348e-01 7.293023467063903809e-01 4.391379952430725098e-01 -2.438404709100723267e-01
1.164000000000000000e+03 4.827817916870117188e+01 2.035937500000000000e+01 4.123618304729461670e-01 3.839981853961944580e-01 2.389080077409744263e-01 2.253045737743377686e-01
1.165000000000000000e+03 5.195276641845703125e+01 2.080211830139160156e+01 5.743329524993896484e-01 1.092277884483337402e+00 4.999832510948181152e-01 -5.956510305404663086e-01
1.166000000000000000e+03 5.230113601684570312e+01 1.834003448486328125e+01 3.945059478282928467e-01 6.427639722824096680e-01 3.111809790134429932e-01 -4.461554884910583496e-01
1.167000000000000000e+03 6.205806350708007812e+01 -5.918388366699218750e+00 -3.073280096054077148e+00 -2.756211459636688232e-01 -1.004670381546020508e+00 -6.696628928184509277e-01
1.168000000000000000e+03 4.148283004760742188e+01 -1.819071578979492188e+01 -1.191807866096496582e+00 -1.051086839288473129e-02 -3.606956005096435547e-01 -2.611177265644073486e-01
1.169000000000000000e+03 4.101639175415039062e+01 -1.704624557495117188e+01 -1.254441022872924805e+00 3.573513403534889221e-02 -3.656117618083953857e-01 -2.406985461711883545e-01
1.170000000000000000e+03 3.467689895629882812e+01 -1.877976799011230469e+01 -1.675534605979919434e+00 -1.106745470315217972e-02 -5.059806108474731445e-01 -2.932086959481239319e-02
1.171000000000000000e+03 2.973821449279785156e+01 -1.545090389251708984e+01 8.890717476606369019e-02 -1.204573363065719604e-01 -9.465049952268600464e-03 -2.639279663562774658e-01
1.172000000000000000e+03 2.009142494201660156e+01 -2.908589363098144531e+01 6.881734728813171387e-01 1.024589300155639648e+00 5.138288140296936035e-01 -7.923247814178466797e-01
1.173000000000000000e+03 4.278140640258789062e+01 1.323680591583251953e+01 1.385881304740905762e-01 2.556515455245971680e+00 8.085311055183410645e-01 2.934323251247406006e-01
1.174000000000000000e+03 4.143661880493164062e+01 1.311748027801513672e+01 4.268688857555389404e-01 1.788577675819396973e+00 6.646339893341064453e-01 4.980505108833312988e-01
1.175000000000000000e+03 4.131496047973632812e+01 1.432146358489990234e+01 5.775263309478759766e-01 1.600789546966552734e+00 6.534947752952575684e-01 4.802834689617156982e-01
1.176000000000000000e+03 5.323586273193359375e+01 1.992636871337890625e+01 4.650495350360870361e-01 1.400962829589843750e+00 5.598037242889404297e-01 -8.299142122268676758e-01
1.177000000000000000e+03 5.467974472045898438e+01 1.670663452148437500e+01 8.930102586746215820e-01 2.721107482910156250e+00 1.084235310554504395e+00 -1.190091252326965332e+00
1.178000000000000000e+03 5.421858215332031250e+01 6.588092327117919922e+00 3.198062479496002197e-01 1.139724612236022949e+00 4.378592669963836670e-01 4.029611647129058838e-01
1.179000000000000000e+03 5.566862106323242188e+01 6.641576290130615234e+00 2.409387230873107910e-01 1.642553687095642090e+00 5.650477409362792969e-01 2.024852186441421509e-01
1.180000000000000000e+03 3.453662490844726562e+01 -3.260575103759765625e+01 4.993848800659179688e-01 3.698240593075752258e-02 1.609101891517639160e-01 -7.435508817434310913e-02
1.181000000000000000e+03 4.003417205810546875e+01 1.406894683837890625e+01 4.915562272071838379e-01 1.341410875320434570e+00 5.498901009559631348e-01 4.432269930839538574e-01
1.182000000000000000e+03 1.879631805419921875e+01 -1.434636306762695312e+01 1.967177726328372955e-02 -3.796010836958885193e-02 -5.486499983817338943e-03 3.667933493852615356e-02
1.183000000000000000e+03 3.433798217773437500e+01 -1.673195838928222656e+01 -1.380219936370849609e+00 2.160530909895896912e-02 -4.075843691825866699e-01 -2.373315840959548950e-01
1.184000000000000000e+03 3.901550292968750000e+01 -1.518393516540527344e+01 -1.171408176422119141e+00 6.831418722867965698e-02 -3.309282064437866211e-01 -1.981701254844665527e-01
1.185000000000000000e+03 6.149100303649902344e+00 -1.721984100341796875e+01 9.809874892234802246e-01 1.399063825607299805e+00 7.140154242515563965e-01 3.463139235973358154e-01
1.186000000000000000e+03 9.932369232177734375e+00 -1.813634109497070312e+01 1.292248368263244629e+00 4.427335739135742188e+00 1.715875267982482910e+00 -1.881133794784545898e+00
1.187000000000000000e+03 7.023798370361328125e+01 -1.081273269653320312e+01 3.191338062286376953e+00 1.585195446014404297e+01 5.712987899780273438e+00 3.829740285873413086e-01
1.188000000000000000e+03 1.495828056335449219e+01 -1.092292785644531250e+01 3.592429757118225098e-01 -4.660136252641677856e-02 9.379249066114425659e-02 3.443574607372283936e-01
1.189000000000000000e+03 1.181411075592041016e+01 -2.040222740173339844e+01 1.249309062957763672e+00 2.842233657836914062e+00 1.227462768554687500e+00 -1.845516443252563477e+00
1.190000000000000000e+03 4.603777694702148438e+01 2.063857841491699219e+01 4.869753122329711914e-01 8.772190213203430176e-01 4.092583060264587402e-01 6.232537031173706055e-01
1.191000000000000000e+03 5.962150573730468750e+01 -2.660841369628906250e+01 -1.214471608400344849e-01 1.284029841423034668e+00 3.487748205661773682e-01 5.352498888969421387e-01
1.192000000000000000e+03 3.583885192871093750e+01 -1.771044921875000000e+01 -1.460957169532775879e+00 1.139734033495187759e-02 -4.348679482936859131e-01 -1.452008634805679321e-01
1.193000000000000000e+03 5.095119094848632812e+01 -3.164837455749511719e+01 -1.209613159298896790e-01 -1.256636232137680054e-01 -7.398748397827148438e-02 -2.200898528099060059e-01
1.194000000000000000e+03 5.132817840576171875e+01 -2.964603996276855469e+01 -7.232281565666198730e-01 -1.979331821203231812e-01 -2.763484120368957520e-01 -3.742792606353759766e-01
1.195000000000000000e+03 4.228978729248046875e+01 -1.671980667114257812e+01 -1.270166158676147461e+00 2.083191461861133575e-02 -3.748002648353576660e-01 -2.761970162391662598e-01
1.196000000000000000e+03 4.281119918823242188e+01 -1.784211540222167969e+01 -1.239408135414123535e+00 -6.970191746950149536e-02 -3.927330076694488525e-01 -3.279795050621032715e-01
1.197000000000000000e+03 4.443878936767578125e+01 -3.202423095703125000e+01 6.789561361074447632e-03 -5.655691027641296387e-02 -1.493020448833703995e-02 -1.155544891953468323e-01
1.198000000000000000e+03 4.821031570434570312e+01 -3.300012969970703125e+01 1.205609142780303955e-01 -1.695148944854736328e-01 -1.468619517982006073e-02 -2.463434338569641113e-01
1.199000000000000000e+03 4.661502456665039062e+01 -3.372763824462890625e+01 2.423612624406814575e-01 -1.575473397970199585e-01 2.544417418539524078e-02 -2.268151938915252686e-01
1.200000000000000000e+03 4.229662704467773438e+01 2.069603919982910156e+01 2.707659304141998291e-01 1.286060333251953125e+00 4.670478999614715576e-01 4.150901734828948975e-01
1.201000000000000000e+03 2.610286521911621094e+01 -3.004766845703125000e+01 7.437218427658081055e-01 2.634675800800323486e-01 3.021568357944488525e-01 -4.304195046424865723e-01
1.202000000000000000e+03 2.685608863830566406e+01 -3.235965347290039062e+01 5.943771600723266602e-01 3.290127217769622803e-01 2.770169675350189209e-01 -3.859558701515197754e-01
1.203000000000000000e+03 4.980567169189453125e+01 -1.389964294433593750e+01 -1.508775591850280762e+00 -1.286985278129577637e-01 -4.912422299385070801e-01 -5.873886942863464355e-01
1.204000000000000000e+03 5.180095672607421875e+01 -1.431988239288330078e+01 -1.532011508941650391e+00 -3.675700426101684570e-01 -5.698744654655456543e-01 -7.765558958053588867e-01
1.205000000000000000e+03 3.093485641479492188e+01 -3.400287628173828125e+01 5.179618000984191895e-01 1.575250774621963501e-01 2.026460617780685425e-01 -2.009264677762985229e-01
1.206000000000000000e+03 5.384803390502929688e+01 -2.835794067382812500e+01 -7.708252072334289551e-01 -1.840496510267257690e-01 -2.864624559879302979e-01 -3.877036273479461670e-01
1.207000000000000000e+03 5.702433013916015625e+01 -3.014490509033203125e+01 1.549251656979322433e-02 7.593853473663330078e-01 2.324633598327636719e-01 3.078948855400085449e-01
1.208000000000000000e+03 6.991025543212890625e+01 -9.584746360778808594e+00 3.399918556213378906e+00 1.625266075134277344e+01 5.895773887634277344e+00 -7.115608453750610352e-02
1.209000000000000000e+03 3.072982025146484375e+01 -1.764633178710937500e+01 -2.423833370208740234e+00 9.022058546543121338e-02 -7.000838518142700195e-01 -3.097006976604461670e-01
1.210000000000000000e+03 4.610782623291015625e+01 -1.547811508178710938e+01 -1.346868276596069336e+00 -7.169158011674880981e-02 -4.255679547786712646e-01 -4.292416870594024658e-01
1.211000000000000000e+03 2.962486076354980469e+01 -1.719659423828125000e+01 -2.632405281066894531e+00 4.402771964669227600e-02 -7.765132784843444824e-01 -6.862099170684814453e-01
1.212000000000000000e+03 2.883791542053222656e+01 -1.763065528869628906e+01 -4.114708900451660156e+00 5.038469433784484863e-01 -1.083258628845214844e+00 -7.812355756759643555e-01
1.213000000000000000e+03 5.694927215576171875e+01 1.399787902832031250e+01 7.344315648078918457e-01 3.250868558883666992e+00 1.195590019226074219e+00 -6.356713771820068359e-01
1.214000000000000000e+03 5.637118911743164062e+01 1.293416213989257812e+01 3.803564608097076416e-01 3.720558643341064453e+00 1.230274558067321777e+00 -4.651886224746704102e-01
1.215000000000000000e+03 6.872890472412109375e+01 -1.571010303497314453e+01 1.022252798080444336e+00 1.447396373748779297e+01 4.648864746093750000e+00 2.398644924163818359e+00
1.216000000000000000e+03 4.421263504028320312e+01 8.882866859436035156e+00 3.804792091250419617e-02 5.609011054039001465e-01 1.796846985816955566e-01 -1.495814472436904907e-01
1.217000000000000000e+03 6.120607757568359375e+01 -6.750266551971435547e+00 -4.049518108367919922e+00 -3.192904591560363770e-01 -1.310642600059509277e+00 -1.095843672752380371e+00
1.218000000000000000e+03 6.236437988281250000e+01 -7.661424636840820312e+00 -4.935838699340820312e+00 -1.296185493469238281e+00 -1.869607210159301758e+00 -2.476746559143066406e+00
1.219000000000000000e+03 5.458188247680664062e+01 -1.130103969573974609e+01 -2.072974920272827148e+00 -3.022799193859100342e-01 -7.125765085220336914e-01 -9.139353632926940918e-01
1.220000000000000000e+03 6.632807159423828125e+01 -1.901205062866210938e+01 1.033491492271423340e+00 7.727829456329345703e+00 2.628396272659301758e+00 2.839092254638671875e+00
1.221000000000000000e+03 5.088228607177734375e+01 2.780989408493041992e+00 -1.110636368393898010e-01 3.077436089515686035e-01 5.900399759411811829e-02 3.864508569240570068e-01
1.222000000000000000e+03 2.252336883544921875e+01 -1.619177055358886719e+01 -7.992498874664306641e-01 -3.494377136230468750e-01 -3.446062803268432617e-01 5.590501427650451660e-01
1.223000000000000000e+03 2.323346710205078125e+01 -1.526777648925781250e+01 -7.276613712310791016e-01 -1.412400126457214355e+00 -6.420184373855590820e-01 1.198922276496887207e+00
1.224000000000000000e+03 2.100348472595214844e+01 -1.231706333160400391e+01 -6.198350787162780762e-01 -9.458505511283874512e-01 -4.697057008743286133e-01 7.945108413696289062e-01
1.225000000000000000e+03 4.475565338134765625e+01 6.590695858001708984e+00 -1.710345298051834106e-01 3.321694135665893555e-01 4.834046587347984314e-02 -4.520021751523017883e-02
1.226000000000000000e+03 4.143747329711914062e+01 -3.256802749633789062e+01 2.517423033714294434e-01 -1.915574073791503906e-02 6.977597624063491821e-02 -3.410537540912628174e-02
1.227000000000000000e+03 4.332814407348632812e+01 -3.422105026245117188e+01 3.152150809764862061e-01 -1.057965755462646484e-01 6.282555311918258667e-02 -1.358505636453628540e-01
1.228000000000000000e+03 1.867948150634765625e+01 -1.123931217193603516e+01 -3.421043157577514648e-01 -5.241094827651977539e-01 -2.598641514778137207e-01 5.584470629692077637e-01
1.229000000000000000e+03 1.808637428283691406e+01 -8.549349784851074219e+00 -5.038594007492065430e-01 -6.354190111160278320e-01 -3.417835235595703125e-01 8.566537499427795410e-01
1.230000000000000000e+03 5.228995132446289062e+01 -3.100304222106933594e+01 -2.022163718938827515e-01 -7.922723144292831421e-02 -8.443307876586914062e-02 -1.795541346073150635e-01
1.231000000000000000e+03 1.724786949157714844e+01 -7.503507137298583984e+00 -5.697145462036132812e-01 -4.987923800945281982e-01 -3.205520808696746826e-01 8.800672888755798340e-01
1.232000000000000000e+03 6.409856414794921875e+01 -2.569619750976562500e+01 -2.315547764301300049e-01 4.438503265380859375e+00 1.262084484100341797e+00 1.168928861618041992e+00
1.233000000000000000e+03 6.381643676757812500e+01 -2.243600463867187500e+01 4.602437615394592285e-01 4.047156333923339844e+00 1.352220058441162109e+00 1.708419561386108398e+00
1.234000000000000000e+03 3.949802780151367188e+01 -3.445173645019531250e+01 4.036968946456909180e-01 -2.226399257779121399e-02 1.144298687577247620e-01 -7.789019495248794556e-02
1.235000000000000000e+03 4.735040283203125000e+01 -1.499337768554687500e+01 -1.375066637992858887e+00 -5.103220045566558838e-02 -4.278296530246734619e-01 -4.559791386127471924e-01
1.236000000000000000e+03 4.484803771972656250e+01 -1.592058372497558594e+01 -1.285519242286682129e+00 -6.409683078527450562e-02 -4.048848152160644531e-01 -3.650578558444976807e-01
1.237000000000000000e+03 6.008340835571289062e+01 -9.196722984313964844e+00 -3.520976305007934570e+00 -1.087648153305053711e+00 -1.382587313652038574e+00 -1.947090387344360352e+00
1.238000000000000000e+03 5.847119140625000000e+01 -2.741733169555664062e+01 -1.866914331912994385e-01 7.970148324966430664e-01 1.830970197916030884e-01 3.583083152770996094e-01
1.239000000000000000e+03 2.222546005249023438e+01 -1.411366653442382812e+01 -6.591671109199523926e-01 -1.118652820587158203e+00 -5.333459377288818359e-01 8.556367158889770508e-01
1.240000000000000000e+03 3.284963989257812500e+01 -3.453195571899414062e+01 4.916923046112060547e-01 1.189296469092369080e-01 1.831865906715393066e-01 -1.421770602464675903e-01
1.241000000000000000e+03 3.604502487182617188e+01 -1.874329948425292969e+01 -1.578711628913879395e+00 3.939363360404968262e-02 -4.617953896522521973e-01 -8.062881976366043091e-02
1.242000000000000000e+03 6.365502548217773438e+01 -2.037797164916992188e+01 1.430812716484069824e+00 3.352705955505371094e+00 1.435055613517761230e+00 2.179541587829589844e+00
1.243000000000000000e+03 2.398068046569824219e+01 -1.606978797912597656e+01 -8.767236471176147461e-01 -1.721586942672729492e+00 -7.794931530952453613e-01 1.628967165946960449e+00
1.244000000000000000e+03 5.263098526000976562e+01 -1.101497745513916016e+01 -1.870994567871093750e+00 -8.609086275100708008e-02 -5.871256589889526367e-01 -6.218898296356201172e-01
1.245000000000000000e+03 5.491381835937500000e+01 -9.684277534484863281e+00 -2.254199504852294922e+00 -1.105071678757667542e-01 -7.094119787216186523e-01 -7.343051433563232422e-01
1.246000000000000000e+03 2.135261344909667969e+01 -1.294200134277343750e+01 -6.198703050613403320e-01 -9.085692167282104492e-01 -4.585318565368652344e-01 7.952761650085449219e-01
1.247000000000000000e+03 2.149477005004882812e+01 -3.010659027099609375e+01 6.564708352088928223e-01 8.322176337242126465e-01 4.466065168380737305e-01 -7.150120139122009277e-01
1.248000000000000000e+03 6.550344085693359375e+01 -2.015526771545410156e+01 8.006018400192260742e-01 6.337133884429931641e+00 2.141320705413818359e+00 2.433622360229492188e+00
1.249000000000000000e+03 2.438362884521484375e+01 -3.114533233642578125e+01 6.212276220321655273e-01 5.307899713516235352e-01 3.456052839756011963e-01 -5.447238087654113770e-01
1.250000000000000000e+03 3.673112106323242188e+01 -3.422162628173828125e+01 4.470353126525878906e-01 3.482765704393386841e-02 1.445588916540145874e-01 -6.487721949815750122e-02
1.251000000000000000e+03 4.932905960083007812e+01 -1.556686973571777344e+01 -1.367318391799926758e+00 -2.158614844083786011e-01 -4.749539792537689209e-01 -5.771620869636535645e-01
1.252000000000000000e+03 3.490348434448242188e+01 -3.460611724853515625e+01 4.664007127285003662e-01 6.192361190915107727e-02 1.584973037242889404e-01 -9.570177644491195679e-02
1.253000000000000000e+03 6.958032226562500000e+01 -1.479213142395019531e+01 1.122791767120361328e+00 1.414435291290283203e+01 4.580143451690673828e+00 5.165419578552246094e-01
1.254000000000000000e+03 5.658783721923828125e+01 -1.148642158508300781e+01 -2.241672515869140625e+00 -7.572621107101440430e-01 -8.996803760528564453e-01 -1.299285888671875000e+00
1.255000000000000000e+03 5.574396896362304688e+01 -1.059147357940673828e+01 -2.282114982604980469e+00 -3.651014268398284912e-01 -7.941648960113525391e-01 -1.005425572395324707e+00
1.256000000000000000e+03 5.355407333374023438e+01 -3.032177734375000000e+01 -2.595463097095489502e-01 -2.521704137325286865e-02 -8.542900532484054565e-02 -1.466138362884521484e-01
1.257000000000000000e+03 1.770113182067871094e+01 -2.453372192382812500e+01 1.328753352165222168e+00 1.460808396339416504e+00 8.368685245513916016e-01 -1.402413368225097656e+00
1.258000000000000000e+03 1.885554313659667969e+01 -2.793965339660644531e+01 8.206393718719482422e-01 1.204709529876708984e+00 6.076046824455261230e-01 -8.373348116874694824e-01
1.259000000000000000e+03 5.479424285888671875e+01 -2.961483955383300781e+01 -2.800995409488677979e-01 9.772763401269912720e-02 -5.471157282590866089e-02 -9.738762676715850830e-02
1.260000000000000000e+03 6.466303253173828125e+01 -2.129220581054687500e+01 5.910284519195556641e-01 4.908620357513427734e+00 1.649894595146179199e+00 2.155734777450561523e+00
1.261000000000000000e+03 4.961531448364257812e+01 -3.232390975952148438e+01 5.001443787477910519e-04 -1.551298946142196655e-01 -4.638892412185668945e-02 -2.441169321537017822e-01
1.262000000000000000e+03 5.914297866821289062e+01 -8.350763320922851562e+00 -3.302257537841796875e+00 -5.120157003402709961e-01 -1.144281983375549316e+00 -1.287384390830993652e+00
1.263000000000000000e+03 5.101368331909179688e+01 -1.328836059570312500e+01 -1.610116720199584961e+00 -1.642357558012008667e-01 -5.323057770729064941e-01 -6.314703822135925293e-01
1.264000000000000000e+03 1.377536296844482422e+01 -2.254787635803222656e+01 1.102059960365295410e+00 2.087063789367675781e+00 9.567371606826782227e-01 -1.528794527053833008e+00
1.265000000000000000e+03 1.479431724548339844e+01 -2.355320549011230469e+01 1.072986960411071777e+00 1.891772389411926270e+00 8.894278407096862793e-01 -1.375483989715576172e+00
1.266000000000000000e+03 1.669972419738769531e+01 -2.351375579833984375e+01 1.423477053642272949e+00 1.632529735565185547e+00 9.168019890785217285e-01 -1.487123131752014160e+00
1.267000000000000000e+03 1.679067230224609375e+01 -2.562933540344238281e+01 1.009699344635009766e+00 1.500927925109863281e+00 7.531881928443908691e-01 -1.146773576736450195e+00
1.268000000000000000e+03 1.580580711364746094e+01 -2.455886840820312500e+01 1.014813303947448730e+00 1.632198333740234375e+00 7.941035032272338867e-01 -1.295735955238342285e+00
1.269000000000000000e+03 1.323748469352722168e+00 -4.016986083984375000e+01 2.793059218674898148e-03 -1.187912583351135254e+00 -3.555358648300170898e-01 7.513023912906646729e-02
1.270000000000000000e+03 7.427410483360290527e-01 3.737586593627929688e+01 9.865940548479557037e-03 -1.322902441024780273e+00 -3.939109444618225098e-01 -1.153713930398225784e-02
1.271000000000000000e+03 6.284781694412231445e-01 3.462285232543945312e+01 3.592105815187096596e-03 -1.339159727096557617e+00 -4.006702601909637451e-01 -7.477079052478075027e-04
1.272000000000000000e+03 6.226891875267028809e-01 3.323342514038085938e+01 5.268810200504958630e-04 -1.334788203239440918e+00 -4.002783894538879395e-01 4.489044658839702606e-03
1.273000000000000000e+03 6.127713918685913086e-01 2.763056182861328125e+01 6.331677432172000408e-04 -1.278323769569396973e+00 -3.833071887493133545e-01 7.078528404235839844e-03
1.274000000000000000e+03 6.109365820884704590e-01 2.622811698913574219e+01 6.993527495069429278e-05 -1.259850144386291504e+00 -3.779340684413909912e-01 7.830837741494178772e-03
1.275000000000000000e+03 8.917008042335510254e-01 -3.604063796997070312e+01 -2.476885728538036346e-02 -1.487148642539978027e+00 -4.535752534866333008e-01 6.498957425355911255e-02
1.276000000000000000e+03 2.547672986984252930e+00 -3.299745559692382812e+01 -3.747572749853134155e-02 -1.358436703681945801e+00 -4.187737405300140381e-01 2.391364872455596924e-01
1.277000000000000000e+03 3.035534858703613281e+00 2.625883483886718750e+01 7.517894729971885681e-03 -1.037671923637390137e+00 -3.090462088584899902e-01 4.603725671768188477e-02
1.278000000000000000e+03 3.090398311614990234e+00 2.491336059570312500e+01 1.181949209421873093e-02 -1.007563233375549316e+00 -2.987231314182281494e-01 5.421888083219528198e-02
1.279000000000000000e+03 1.859134078025817871e+00 3.441886138916015625e+01 4.503739066421985626e-03 -1.240521073341369629e+00 -3.708052039146423340e-01 1.032855920493602753e-02
1.280000000000000000e+03 1.864974856376647949e+00 3.310024642944335938e+01 7.232240401208400726e-03 -1.225620269775390625e+00 -3.655163943767547607e-01 1.332756131887435913e-02
1.281000000000000000e+03 3.404411315917968750e+00 3.906653213500976562e+01 8.889561519026756287e-03 -1.203176259994506836e+00 -3.582860231399536133e-01 7.395978085696697235e-03
1.282000000000000000e+03 2.279794216156005859e+00 -3.011852264404296875e+01 -3.973296284675598145e-02 -1.677390098571777344e+00 -5.151368975639343262e-01 3.163571953773498535e-01
1.283000000000000000e+03 2.114009380340576172e+00 -2.727998542785644531e+01 -4.105577617883682251e-02 -2.075468540191650391e+00 -6.349573135375976562e-01 4.108564555644989014e-01
1.284000000000000000e+03 1.950446128845214844e+00 -2.161702156066894531e+01 -2.510745450854301453e-02 -3.148779869079589844e+00 -9.521661996841430664e-01 5.538572072982788086e-01
1.285000000000000000e+03 2.616034984588623047e+00 -3.720335006713867188e+01 -2.870943583548069000e-02 -1.149626612663269043e+00 -3.535008132457733154e-01 1.529095619916915894e-01
1.286000000000000000e+03 6.063132286071777344e-01 7.828482627868652344e+00 -2.209662925451993942e-03 -1.734753549098968506e-01 -5.270550772547721863e-02 4.138557240366935730e-02
1.287000000000000000e+03 6.380916833877563477e-01 2.060697937011718750e+01 2.275019418448209763e-03 -1.132879972457885742e+00 -3.391815125942230225e-01 2.179116383194923401e-02
1.288000000000000000e+03 6.436388492584228516e-01 1.919324302673339844e+01 4.667438101023435593e-03 -1.074537634849548340e+00 -3.209610581398010254e-01 2.955084852874279022e-02
1.289000000000000000e+03 6.240401268005371094e-01 1.492903995513916016e+01 -1.786779146641492844e-03 -8.050413727760314941e-01 -2.420484423637390137e-01 4.951412975788116455e-02
1.290000000000000000e+03 6.052582859992980957e-01 1.350914669036865234e+01 6.195651832967996597e-03 -6.845061182975769043e-01 -2.034931331872940063e-01 5.442515388131141663e-02
1.291000000000000000e+03 3.439713716506958008e+00 -3.949724960327148438e+01 -3.820502012968063354e-02 -1.144902110099792480e+00 -3.549321293830871582e-01 8.043073862791061401e-02
1.292000000000000000e+03 4.172137260437011719e+00 -3.748924636840820312e+01 -5.410673841834068298e-02 -8.568444252014160156e-01 -2.732853591442108154e-01 1.300656646490097046e-01
1.293000000000000000e+03 2.675398349761962891e+00 -3.446471023559570312e+01 -4.834426939487457275e-02 -1.262898564338684082e+00 -3.933728337287902832e-01 1.939867734909057617e-01
1.294000000000000000e+03 2.403837680816650391e+00 -3.154874610900878906e+01 -6.012522056698799133e-02 -1.503985643386840820e+00 -4.692332446575164795e-01 2.749705016613006592e-01
1.295000000000000000e+03 3.482614278793334961e+00 -2.701912879943847656e+01 -1.243702843785285950e-01 -1.448258519172668457e+00 -4.717886447906494141e-01 5.474467277526855469e-01
1.296000000000000000e+03 2.013829946517944336e+00 -2.302788352966308594e+01 -3.579171374440193176e-02 -2.821254491806030273e+00 -8.571138381958007812e-01 5.601955056190490723e-01
1.297000000000000000e+03 2.069221496582031250e+00 -2.586904144287109375e+01 -6.693159043788909912e-02 -2.294309854507446289e+00 -7.083724737167358398e-01 4.536209404468536377e-01
1.298000000000000000e+03 5.969217419624328613e-01 -1.910179710388183594e+01 -1.912152394652366638e-02 -5.196004390716552734e+00 -1.564537763595581055e+00 1.941026449203491211e-01
1.299000000000000000e+03 1.772139072418212891e+00 -1.896789741516113281e+01 7.964614033699035645e-02 -3.776394844055175781e+00 -1.109024643898010254e+00 4.723910689353942871e-01
1.300000000000000000e+03 1.863945722579956055e+00 -1.622640800476074219e+01 2.502323389053344727e-01 -3.988766908645629883e+00 -1.121560335159301758e+00 1.682996004819869995e-01
1.301000000000000000e+03 5.934439301490783691e-01 -1.204119586944580078e+01 2.898437343537807465e-02 -4.986832141876220703e+00 -1.487354278564453125e+00 -2.511633336544036865e-01
1.302000000000000000e+03 1.761322140693664551e+00 -1.190355777740478516e+01 1.942835599184036255e-01 -3.409977912902832031e+00 -9.647082686424255371e-01 -8.053297996520996094e-01
1.303000000000000000e+03 5.466205596923828125e+00 -3.409361839294433594e+00 -7.603557705879211426e-01 1.083180457353591919e-01 -1.956113129854202271e-01 -7.761092185974121094e-01
1.304000000000000000e+03 2.300463199615478516e+00 -4.305290699005126953e+00 -1.990206986665725708e-01 -5.856072902679443359e-01 -2.353883832693099976e-01 -7.124407291412353516e-01
1.305000000000000000e+03 1.212761640548706055e+00 -3.407080411911010742e+00 -7.399021834135055542e-02 -4.619649946689605713e-01 -1.607865542173385620e-01 -3.160755932331085205e-01
1.306000000000000000e+03 4.874211847782135010e-01 4.984189033508300781e+00 -5.137559026479721069e-03 -2.036743238568305969e-02 -7.651497609913349152e-03 1.657284982502460480e-02
1.307000000000000000e+03 3.619669437408447266e+00 5.181579589843750000e+00 -8.857833594083786011e-02 -1.010122820734977722e-01 -5.687718465924263000e-02 1.333779990673065186e-01
1.308000000000000000e+03 1.734687209129333496e+00 1.066096496582031250e+01 -6.583024747669696808e-03 -4.115754663944244385e-01 -1.254475414752960205e-01 1.550939381122589111e-01
1.309000000000000000e+03 5.842494368553161621e-01 1.067680072784423828e+01 4.739352967590093613e-03 -4.158986210823059082e-01 -1.233477815985679626e-01 5.549597367644309998e-02
1.310000000000000000e+03 1.810036063194274902e+00 1.348134422302246094e+01 5.205941386520862579e-03 -6.281582117080688477e-01 -1.868856698274612427e-01 1.535955071449279785e-01
1.311000000000000000e+03 1.933297514915466309e+00 1.924860382080078125e+01 1.439501903951168060e-02 -9.564362168312072754e-01 -2.826123535633087158e-01 8.268701285123825073e-02
1.312000000000000000e+03 1.852347254753112793e+00 2.484128570556640625e+01 5.075041204690933228e-03 -1.120299696922302246e+00 -3.345673978328704834e-01 3.130705282092094421e-02
1.313000000000000000e+03 2.481968879699707031e+01 -1.629004669189453125e+01 -9.167796969413757324e-01 -2.401508092880249023e+00 -9.954863190650939941e-01 2.335937500000000000e+00
1.314000000000000000e+03 2.453504753112792969e+01 -1.699903869628906250e+01 -4.512067317962646484e+00 -1.430527687072753906e+00 -1.782778501510620117e+00 2.305986881256103516e+00
1.315000000000000000e+03 2.796367645263671875e+01 -1.420959091186523438e+01 4.400765597820281982e-01 1.902520060539245605e+00 7.027789950370788574e-01 1.083023309707641602e+00
1.316000000000000000e+03 2.664529228210449219e+01 -1.316324329376220703e+01 -2.302675396203994751e-01 2.125635623931884766e+00 5.686104297637939453e-01 4.073782358318567276e-03
1.317000000000000000e+03 2.685235023498535156e+01 -1.352753162384033203e+01 -1.954227089881896973e-01 2.379559040069580078e+00 6.552408933639526367e-01 1.079021021723747253e-01
1.318000000000000000e+03 2.366481781005859375e+01 -1.508236408233642578e+01 -6.223409175872802734e-01 -1.704966187477111816e+00 -6.981921792030334473e-01 1.213588356971740723e+00
1.319000000000000000e+03 2.438684272766113281e+01 -1.649428749084472656e+01 -1.297904849052429199e+00 -1.829631447792053223e+00 -9.382609128952026367e-01 2.256138324737548828e+00
1.320000000000000000e+03 2.423021888732910156e+01 -1.553878211975097656e+01 -4.062811136245727539e-01 -2.023764133453369141e+00 -7.290136218070983887e-01 1.429597020149230957e+00
1.321000000000000000e+03 2.327255058288574219e+01 -1.482438182830810547e+01 -6.790703535079956055e-01 -1.568758606910705566e+00 -6.743486523628234863e-01 1.158550381660461426e+00
1.322000000000000000e+03 2.253476333618164062e+01 -1.504985523223876953e+01 -6.894113421440124512e-01 -8.930425643920898438e-01 -4.747361838817596436e-01 8.878804445266723633e-01
1.323000000000000000e+03 2.715464210510253906e+01 -1.347172832489013672e+01 -2.000707089900970459e-01 2.344419956207275391e+00 6.433047652244567871e-01 3.931595683097839355e-01
1.324000000000000000e+03 2.172626495361328125e+01 -1.475018787384033203e+01 -5.978288650512695312e-01 -6.310515999794006348e-01 -3.686641454696655273e-01 6.307790279388427734e-01
1.325000000000000000e+03 2.021893310546875000e+01 -1.399705886840820312e+01 -3.544843494892120361e-01 -3.705896437168121338e-01 -2.175221890211105347e-01 3.791925311088562012e-01
1.326000000000000000e+03 1.049722957611083984e+01 -3.899256944656372070e+00 -1.251767873764038086e+00 5.952652692794799805e-01 -1.969507932662963867e-01 1.399204730987548828e-01
1.327000000000000000e+03 2.039857101440429688e+01 -1.103812503814697266e+01 -5.964015722274780273e-01 -9.716345667839050293e-01 -4.704108238220214844e-01 8.316219449043273926e-01
1.328000000000000000e+03 1.946969604492187500e+01 -9.248497962951660156e+00 -5.588057637214660645e-01 -9.313683509826660156e-01 -4.470522403717041016e-01 8.753486275672912598e-01
1.329000000000000000e+03 1.907866859436035156e+01 -8.696112632751464844e+00 -5.720547437667846680e-01 -8.690755367279052734e-01 -4.323390722274780273e-01 9.017543196678161621e-01
1.330000000000000000e+03 2.849862861633300781e+01 -1.535762596130371094e+01 1.544806241989135742e+00 4.641520678997039795e-01 6.026874780654907227e-01 4.775596857070922852e-01
1.331000000000000000e+03 1.826673126220703125e+01 -7.570683956146240234e+00 -6.199933290481567383e-01 -7.189715504646301270e-01 -4.016894698143005371e-01 9.276666641235351562e-01
1.332000000000000000e+03 1.684423065185546875e+01 -1.231169795989990234e+01 5.338612012565135956e-03 -1.035958454012870789e-01 -2.947716973721981049e-02 1.074949279427528381e-01
1.333000000000000000e+03 1.720005416870117188e+01 -6.473553180694580078e+00 -6.936818361282348633e-01 -5.102366209030151367e-01 -3.611755371093750000e-01 9.440402984619140625e-01
1.334000000000000000e+03 1.582341003417968750e+01 -1.163283729553222656e+01 2.729188501834869385e-01 -1.053151339292526245e-01 5.028111115097999573e-02 1.461580991744995117e-01
1.335000000000000000e+03 1.594321632385253906e+01 -5.483914375305175781e+00 -8.503459692001342773e-01 -2.668510377407073975e-01 -3.351590931415557861e-01 9.091696143150329590e-01
1.336000000000000000e+03 1.636134719848632812e+01 -7.747710704803466797e+00 -4.758785068988800049e-01 -2.911613881587982178e-01 -2.301119565963745117e-01 8.319396972656250000e-01
1.337000000000000000e+03 1.477316474914550781e+01 -5.665499687194824219e+00 -8.133438825607299805e-01 1.672181114554405212e-02 -2.389866262674331665e-01 8.577017188072204590e-01
1.338000000000000000e+03 1.387359142303466797e+01 -4.189116954803466797e+00 -1.134479045867919922e+00 7.490177452564239502e-02 -3.178731799125671387e-01 6.960890293121337891e-01
1.339000000000000000e+03 2.664951705932617188e+01 -1.090732574462890625e+01 -4.115949869155883789e-01 1.192200303077697754e+00 2.341815978288650513e-01 2.545202970504760742e-01
1.340000000000000000e+03 2.635626602172851562e+01 -1.035827827453613281e+01 -4.218824207782745361e-01 1.047611117362976074e+00 1.877186000347137451e-01 2.415530234575271606e-01
1.341000000000000000e+03 2.605780220031738281e+01 -9.758344650268554688e+00 -4.486084580421447754e-01 9.128103256225585938e-01 1.392605602741241455e-01 2.520681023597717285e-01
1.342000000000000000e+03 1.795129013061523438e+01 -1.292525291442871094e+01 -7.906641811132431030e-02 -1.479162275791168213e-01 -6.809479743242263794e-02 1.624390631914138794e-01
1.343000000000000000e+03 1.988186645507812500e+01 -1.199020004272460938e+01 -4.916019439697265625e-01 -6.637706160545349121e-01 -3.466117680072784424e-01 6.276853680610656738e-01
1.344000000000000000e+03 4.234476566314697266e+00 -3.248234033584594727e+00 -5.525872707366943359e-01 -8.753833919763565063e-02 -1.920376718044281006e-01 -7.374183535575866699e-01
1.345000000000000000e+03 2.742819070816040039e+00 -2.917394161224365234e+00 -3.013229966163635254e-01 -2.754024565219879150e-01 -1.730176359415054321e-01 -5.734801292419433594e-01
1.346000000000000000e+03 2.994284391403198242e+00 -3.764151573181152344e+00 -3.238297104835510254e-01 -3.189340829849243164e-01 -1.928291320800781250e-01 -7.602747678756713867e-01
1.347000000000000000e+03 7.038820266723632812e+00 -2.639751434326171875e+00 -1.066574811935424805e+00 2.388319373130798340e-01 -2.483228594064712524e-01 -4.598143994808197021e-01
1.348000000000000000e+03 1.994117021560668945e+00 -3.175906419754028320e+00 -1.561690568923950195e-01 -4.179298281669616699e-01 -1.722296625375747681e-01 -4.710935652256011963e-01
1.349000000000000000e+03 4.452707290649414062e+00 -3.786043643951416016e+00 -5.687420964241027832e-01 -5.644804611802101135e-02 -1.875570565462112427e-01 -8.230819106101989746e-01
1.350000000000000000e+03 1.436178803443908691e+00 -4.758175373077392578e+00 -8.676853775978088379e-02 -8.428921103477478027e-01 -2.788981795310974121e-01 -5.528426766395568848e-01
1.351000000000000000e+03 7.664515495300292969e+00 -3.417945384979248047e+00 -1.094258427619934082e+00 4.365097582340240479e-01 -1.973245888948440552e-01 -4.588429033756256104e-01
1.352000000000000000e+03 6.946649074554443359e+00 -3.390416383743286133e+00 -1.007245779037475586e+00 3.472484648227691650e-01 -1.979991942644119263e-01 -6.112166047096252441e-01
1.353000000000000000e+03 7.539968967437744141e+00 -4.151300430297851562e+00 -1.043966174125671387e+00 5.766398906707763672e-01 -1.401978880167007446e-01 -6.046829819679260254e-01
1.354000000000000000e+03 6.212756156921386719e+00 -3.396018743515014648e+00 -8.773918747901916504e-01 2.320542484521865845e-01 -1.936012804508209229e-01 -6.965420246124267578e-01
1.355000000000000000e+03 2.510132217407226562e+01 -7.780954837799072266e+00 -5.597794055938720703e-01 5.899225473403930664e-01 9.042941965162754059e-03 3.300518095493316650e-01
1.356000000000000000e+03 2.474379539489746094e+01 -7.091080665588378906e+00 -6.121553778648376465e-01 4.962701797485351562e-01 -3.476556390523910522e-02 3.615928590297698975e-01
1.357000000000000000e+03 2.575114631652832031e+01 -9.120718955993652344e+00 -4.750514030456542969e-01 7.937863469123840332e-01 9.562047570943832397e-02 2.740305066108703613e-01
1.358000000000000000e+03 3.737188816070556641e+00 2.987931728363037109e+00 -6.672064960002899170e-02 -4.390242695808410645e-02 -3.318692371249198914e-02 5.715639516711235046e-02
1.359000000000000000e+03 4.529264450073242188e+00 2.853863239288330078e+00 -9.476529061794281006e-02 -3.362148627638816833e-02 -3.851603344082832336e-02 6.996856629848480225e-02
1.360000000000000000e+03 5.496051788330078125e+00 3.563139915466308594e+00 -1.516631394624710083e-01 -4.838010668754577637e-02 -6.001297384500503540e-02 1.219655200839042664e-01
1.361000000000000000e+03 1.442912220954895020e+00 4.833309650421142578e+00 -1.974459737539291382e-02 -5.571928247809410095e-02 -2.263916470110416412e-02 4.332545399665832520e-02
1.362000000000000000e+03 4.272446036338806152e-01 3.585605621337890625e+00 -2.700684359297156334e-03 1.348151452839374542e-02 3.234249074012041092e-03 4.031624179333448410e-03
1.363000000000000000e+03 7.000010490417480469e+00 3.428454399108886719e+00 -2.305690199136734009e-01 -5.242976173758506775e-02 -8.489963412284851074e-02 1.614340543746948242e-01
1.364000000000000000e+03 6.879912376403808594e+00 2.679717540740966797e+00 -1.935079544782638550e-01 -4.152189940214157104e-02 -7.050895690917968750e-02 1.185889318585395813e-01
1.365000000000000000e+03 7.803287982940673828e+00 3.482093334197998047e+00 -2.741045057773590088e-01 -7.458168268203735352e-02 -1.046058610081672668e-01 1.873663514852523804e-01
1.366000000000000000e+03 1.004321479797363281e+01 2.469950437545776367e+00 -3.512431085109710693e-01 -1.224970519542694092e-01 -1.421220451593399048e-01 2.066564261913299561e-01
1.367000000000000000e+03 8.649756431579589844e+00 3.487432003021240234e+00 -3.187234699726104736e-01 -8.588492870330810547e-02 -1.213825196027755737e-01 2.086716741323471069e-01
1.368000000000000000e+03 1.079855918884277344e+01 2.300943851470947266e+00 -3.924066126346588135e-01 -1.503293961286544800e-01 -1.628208011388778687e-01 2.294229567050933838e-01
1.369000000000000000e+03 1.030733299255371094e+01 3.183857917785644531e+00 -3.923876881599426270e-01 -1.542425900697708130e-01 -1.639890819787979126e-01 2.508955299854278564e-01
1.370000000000000000e+03 2.294779205322265625e+01 -5.285728454589843750e+00 -7.222298383712768555e-01 1.192216202616691589e-01 -1.809024661779403687e-01 4.341969192028045654e-01
1.371000000000000000e+03 1.269648551940917969e+01 -4.616448879241943359e+00 -1.100145339965820312e+00 3.960116505622863770e-01 -2.112400978803634644e-01 5.456804037094116211e-01
1.372000000000000000e+03 1.076361179351806641e+01 -3.059904098510742188e+00 -1.369191050529479980e+00 3.841975033283233643e-01 -2.954980731010437012e-01 1.674798727035522461e-01
1.373000000000000000e+03 1.277414131164550781e+01 6.399900913238525391e+00 -6.018837094306945801e-01 -5.620156526565551758e-01 -3.491697907447814941e-01 4.454482197761535645e-01
1.374000000000000000e+03 1.656116485595703125e+01 8.950843214988708496e-01 -4.826781749725341797e-01 -6.530416607856750488e-01 -3.407159447669982910e-01 5.938735604286193848e-01
1.375000000000000000e+03 1.745692825317382812e+01 2.574597120285034180e+00 -4.332287609577178955e-01 -6.468198299407958984e-01 -3.240145742893218994e-01 5.997044444084167480e-01
1.376000000000000000e+03 1.160109329223632812e+01 2.812495231628417969e+00 -4.393211603164672852e-01 -2.562530338764190674e-01 -2.086722552776336670e-01 2.943220436573028564e-01
1.377000000000000000e+03 1.494286537170410156e+01 5.447916984558105469e+00 -5.762081742286682129e-01 -8.505411744117736816e-01 -4.280247986316680908e-01 5.300652980804443359e-01
1.378000000000000000e+03 2.123372268676757812e+01 1.706702113151550293e+00 -4.001610875129699707e-01 9.776478260755538940e-02 -9.071888774633407593e-02 4.913037717342376709e-01
1.379000000000000000e+03 2.165865325927734375e+01 -2.080026149749755859e+00 -7.748834490776062012e-01 -2.606426179409027100e-02 -2.402843087911605835e-01 4.662867486476898193e-01
1.380000000000000000e+03 1.964024925231933594e+01 -1.112329721450805664e+00 -6.994173526763916016e-01 -3.869861960411071777e-01 -3.259210586547851562e-01 5.753288269042968750e-01
1.381000000000000000e+03 2.263983535766601562e+01 -3.558456420898437500e+00 -8.021602630615234375e-01 1.155211851000785828e-01 -2.059917300939559937e-01 4.419738650321960449e-01
1.382000000000000000e+03 1.924759674072265625e+01 4.707192257046699524e-02 -5.685943365097045898e-01 -4.403795897960662842e-01 -3.026921749114990234e-01 5.979995727539062500e-01
1.383000000000000000e+03 2.436078834533691406e+01 -6.396589279174804688e+00 -6.578174233436584473e-01 4.135687351226806641e-01 -7.327460497617721558e-02 3.825350403785705566e-01
1.384000000000000000e+03 1.415300559997558594e+01 -5.320621013641357422e+00 -9.055439829826354980e-01 1.483714878559112549e-01 -2.271517366170883179e-01 7.742395997047424316e-01
1.385000000000000000e+03 1.647775077819824219e+01 -1.083859634399414062e+01 -1.316838781349360943e-03 -1.998015642166137695e-01 -6.033552065491676331e-02 4.019270837306976318e-01
1.386000000000000000e+03 9.769771575927734375e+00 -3.724103927612304688e+00 -1.263593196868896484e+00 5.976386070251464844e-01 -1.997863948345184326e-01 -6.472535431385040283e-02
1.387000000000000000e+03 2.310054397583007812e+01 -4.281047344207763672e+00 -7.859495282173156738e-01 1.843970715999603271e-01 -1.804657429456710815e-01 4.378284811973571777e-01
1.388000000000000000e+03 1.507004833221435547e+01 2.712725400924682617e+00 -4.596290886402130127e-01 -6.442637443542480469e-01 -3.311678469181060791e-01 5.117783546447753906e-01
1.389000000000000000e+03 1.381617450714111328e+01 3.770967245101928711e+00 -4.901897013187408447e-01 -5.658296942710876465e-01 -3.168058097362518311e-01 4.067349731922149658e-01
1.390000000000000000e+03 1.173894309997558594e+01 -5.828494548797607422e+00 -9.543829560279846191e-01 7.985599040985107422e-01 -4.674690961837768555e-02 4.298761188983917236e-01
1.391000000000000000e+03 1.098351192474365234e+01 2.920628547668457031e+00 -4.086031317710876465e-01 -2.081693857908248901e-01 -1.850317567586898804e-01 2.659495174884796143e-01
1.392000000000000000e+03 1.999977684020996094e+01 -2.768676877021789551e-01 -6.049634218215942383e-01 -2.664369642734527588e-01 -2.614201307296752930e-01 5.568092465400695801e-01
1.393000000000000000e+03 4.058091735839843750e+01 -1.594868278503417969e+01 -1.244271993637084961e+00 7.302480190992355347e-02 -3.513741791248321533e-01 -2.342778742313385010e-01
1.394000000000000000e+03 3.325934219360351562e+01 -1.783062362670898438e+01 -1.844811081886291504e+00 7.445645332336425781e-02 -5.311064124107360840e-01 -1.595023572444915771e-01
1.395000000000000000e+03 3.317938613891601562e+01 -1.541918849945068359e+01 -9.226598739624023438e-01 -9.755483269691467285e-02 -3.060643970966339111e-01 -2.650685608386993408e-01
1.396000000000000000e+03 1.277628040313720703e+01 -2.149460601806640625e+01 1.165030241012573242e+00 2.514901876449584961e+00 1.103979706764221191e+00 -1.615987062454223633e+00
1.397000000000000000e+03 2.976445579528808594e+01 5.885247707366943359e+00 1.306144297122955322e-01 3.740003407001495361e-01 1.513844281435012817e-01 5.289099812507629395e-01
1.398000000000000000e+03 2.680701637268066406e+01 6.171187877655029297e+00 3.826976120471954346e-01 4.489330351352691650e-01 2.494891881942749023e-01 4.172535538673400879e-01
1.399000000000000000e+03 5.075814819335937500e+01 4.672137260437011719e+00 8.743945509195327759e-02 2.453862130641937256e-01 9.984770417213439941e-02 3.658961057662963867e-01
1.400000000000000000e+03 5.169211196899414062e+01 3.608564376831054688e+00 2.946718595921993256e-02 3.874386250972747803e-01 1.250717490911483765e-01 3.882290124893188477e-01
1.401000000000000000e+03 2.917945671081542969e+01 1.190071105957031250e+01 -1.730374097824096680e-01 2.437262833118438721e-01 2.120666205883026123e-02 6.723995804786682129e-01
1.402000000000000000e+03 2.878488540649414062e+01 1.076474857330322266e+01 -6.583867222070693970e-02 2.476070225238800049e-01 5.453050881624221802e-02 7.210653424263000488e-01
1.403000000000000000e+03 4.668215942382812500e+01 -1.389959526062011719e+01 -1.371188879013061523e+00 -7.139552850276231766e-03 -4.134985208511352539e-01 -4.029624462127685547e-01
1.404000000000000000e+03 4.180070877075195312e+01 -1.562397575378417969e+01 -1.248111009597778320e+00 4.776208847761154175e-02 -3.601046800613403320e-01 -2.410632818937301636e-01
1.405000000000000000e+03 4.908308410644531250e+01 -1.284193038940429688e+01 -1.513509392738342285e+00 -1.833800040185451508e-02 -4.595542252063751221e-01 -4.683128595352172852e-01
1.406000000000000000e+03 3.549514770507812500e+01 -1.569859886169433594e+01 -1.155403256416320801e+00 1.506568305194377899e-02 -3.421012759208679199e-01 -2.066162973642349243e-01
1.407000000000000000e+03 2.631813240051269531e+01 1.428809642791748047e+01 -4.636279940605163574e-01 -2.264517545700073242e-01 -2.070239186286926270e-01 3.668958544731140137e-01
1.408000000000000000e+03 2.649749565124511719e+01 1.248079776763916016e+01 -3.763800561428070068e-01 -3.569355309009552002e-01 -2.199946790933609009e-01 5.280385613441467285e-01
1.409000000000000000e+03 5.072304153442382812e+01 -3.388183975219726562e+01 3.585096299648284912e-01 -4.624824225902557373e-02 9.367841482162475586e-02 -1.660438477993011475e-01
1.410000000000000000e+03 5.074163436889648438e+01 -1.065593147277832031e+01 -1.694257020950317383e+00 5.820933729410171509e-02 -4.908142983913421631e-01 -4.225443899631500244e-01
1.411000000000000000e+03 4.605883026123046875e+01 -1.282668685913085938e+01 -1.350806355476379395e+00 7.141835987567901611e-02 -3.838164210319519043e-01 -3.111965954303741455e-01
1.412000000000000000e+03 3.100333595275878906e+01 -1.695041275024414062e+01 -1.803583621978759766e+00 -3.352730721235275269e-02 -5.511332750320434570e-01 -5.690528154373168945e-01
1.413000000000000000e+03 6.489652252197265625e+01 -2.331786155700683594e+01 -8.240199089050292969e-02 5.060273170471191406e+00 1.493361353874206543e+00 1.542927026748657227e+00
1.414000000000000000e+03 6.570191192626953125e+01 -2.218260383605957031e+01 -6.475217640399932861e-03 6.131432056427001953e+00 1.837486982345581055e+00 1.677003264427185059e+00
1.415000000000000000e+03 3.563664245605468750e+01 -1.668514060974121094e+01 -1.315343260765075684e+00 2.200109139084815979e-02 -3.880026340484619141e-01 -1.892036795616149902e-01
1.416000000000000000e+03 2.458749961853027344e+01 -3.290997314453125000e+01 4.328084886074066162e-01 5.622051954269409180e-01 2.985041141510009766e-01 -4.379492998123168945e-01
1.417000000000000000e+03 5.578400802612304688e+01 -3.089523887634277344e+01 1.935404539108276367e-02 5.083837509155273438e-01 1.583213359117507935e-01 1.724019646644592285e-01
1.418000000000000000e+03 4.376911163330078125e+01 6.483419895172119141e+00 -2.537651360034942627e-01 5.742951631546020508e-01 9.615900367498397827e-02 5.883603170514106750e-02
1.419000000000000000e+03 8.547546386718750000e+00 -9.620450019836425781e+00 -4.180331826210021973e-01 3.254970788955688477e+00 8.510812520980834961e-01 -7.956306338310241699e-01
1.420000000000000000e+03 8.580833435058593750e+00 -1.367702293395996094e+01 2.557578086853027344e+00 8.039561271667480469e+00 3.179141759872436523e+00 -2.664690911769866943e-01
1.421000000000000000e+03 7.554175853729248047e+00 -1.441212749481201172e+01 2.475237369537353516e+00 3.964665651321411133e+00 1.931970953941345215e+00 -6.867856979370117188e-01
1.422000000000000000e+03 7.580148315429687500e+01 -9.468852043151855469e+00 8.811606168746948242e-01 8.030449867248535156e+00 2.673483133316040039e+00 1.118577599525451660e+00
1.423000000000000000e+03 7.152728271484375000e+01 -1.032295322418212891e+01 3.109391927719116211e+00 1.249784183502197266e+01 4.682170391082763672e+00 4.505605697631835938e-01
1.424000000000000000e+03 1.299784278869628906e+01 1.239420223236083984e+01 2.366984784603118896e-01 -2.121688723564147949e-01 7.358882110565900803e-03 5.195746421813964844e-01
1.425000000000000000e+03 1.182260799407958984e+01 1.105672264099121094e+01 9.493214078247547150e-03 -3.753066658973693848e-01 -1.097440347075462341e-01 6.362855434417724609e-01
1.426000000000000000e+03 5.816712188720703125e+01 1.322829818725585938e+01 6.384773850440979004e-01 3.349479913711547852e+00 1.196387171745300293e+00 -5.349608659744262695e-01
1.427000000000000000e+03 5.341056060791015625e+01 -1.198460102081298828e+01 -1.859947323799133301e+00 -2.924852967262268066e-01 -6.457297801971435547e-01 -8.309720754623413086e-01
1.428000000000000000e+03 7.461920166015625000e+01 -3.302972412109375000e+01 -1.218091621994972229e-01 8.153451919555664062e+00 2.409492731094360352e+00 -1.036523878574371338e-01
1.429000000000000000e+03 7.763414764404296875e+01 -3.648670959472656250e+01 -4.387203231453895569e-02 9.254590988159179688e+00 2.763215780258178711e+00 1.064803674817085266e-01
1.430000000000000000e+03 7.565209960937500000e+01 -2.322165298461914062e+01 -3.045409321784973145e-01 8.478529930114746094e+00 2.452196836471557617e+00 -8.538640141487121582e-01
1.431000000000000000e+03 7.780917358398437500e+01 -2.902982139587402344e+01 -8.798859268426895142e-02 9.032990455627441406e+00 2.683500528335571289e+00 -2.307718098163604736e-01
1.432000000000000000e+03 7.551547241210937500e+01 1.532415771484375000e+01 4.583470150828361511e-02 7.187960624694824219e+00 2.170138597488403320e+00 -4.693469107151031494e-01
1.433000000000000000e+03 7.679927062988281250e+01 1.533566570281982422e+01 3.238098323345184326e-02 7.507734775543212891e+00 2.262034654617309570e+00 -3.528039753437042236e-01
1.434000000000000000e+03 7.780289459228515625e+01 3.479461288452148438e+01 -1.933841558638960123e-04 6.548365116119384766e+00 1.964451432228088379e+00 -6.944608688354492188e-02
1.435000000000000000e+03 7.636499023437500000e+01 3.224277496337890625e+01 1.649570278823375702e-02 6.433297157287597656e+00 1.934937953948974609e+00 -1.185223534703254700e-01
1.436000000000000000e+03 7.810337829589843750e+01 -2.212819862365722656e+01 -5.997351929545402527e-02 7.992292404174804688e+00 2.379695653915405273e+00 -6.543752551078796387e-01
1.437000000000000000e+03 7.686616516113281250e+01 -2.336241912841796875e+01 -1.701105237007141113e-01 8.359245300292968750e+00 2.456740617752075195e+00 -7.743808031082153320e-01
1.438000000000000000e+03 7.621052551269531250e+01 -3.029243850708007812e+01 -1.420560330152511597e-01 8.672414779663085938e+00 2.559107542037963867e+00 -2.307687252759933472e-01
1.439000000000000000e+03 7.635813903808593750e+01 -2.883652877807617188e+01 -1.528254896402359009e-01 8.660778999328613281e+00 2.552386045455932617e+00 -3.206707537174224854e-01
1.440000000000000000e+03 7.669265747070312500e+01 -2.601505851745605469e+01 -1.651130765676498413e-01 8.593649864196777344e+00 2.528560876846313477e+00 -5.399569272994995117e-01
1.441000000000000000e+03 7.653827667236328125e+01 -2.740535736083984375e+01 -1.897535324096679688e-01 8.656334877014160156e+00 2.539974212646484375e+00 -4.217653274536132812e-01
1.442000000000000000e+03 7.614396667480468750e+01 -3.175477218627929688e+01 -1.291323751211166382e-01 8.665064811706542969e+00 2.560779809951782227e+00 -1.397927254438400269e-01
1.443000000000000000e+03 7.601562500000000000e+01 -3.328754806518554688e+01 -1.057875901460647583e-01 8.623558044433593750e+00 2.555331230163574219e+00 -7.061744481325149536e-02
1.444000000000000000e+03 7.463101196289062500e+01 -3.167037200927734375e+01 -2.240198254585266113e-01 8.182989120483398438e+00 2.387690782546997070e+00 -1.364343166351318359e-01
1.445000000000000000e+03 7.499747467041015625e+01 -4.007176208496093750e+01 4.079993441700935364e-02 8.306414604187011719e+00 2.504164457321166992e+00 -8.838444203138351440e-02
1.446000000000000000e+03 7.801989746093750000e+01 2.225559043884277344e+01 1.634549535810947418e-02 7.166761875152587891e+00 2.154932260513305664e+00 -1.503164172172546387e-01
1.447000000000000000e+03 7.676786041259765625e+01 1.945127868652343750e+01 2.725742198526859283e-02 7.144519329071044922e+00 2.151533126831054688e+00 -2.851264178752899170e-01
1.448000000000000000e+03 7.540576934814453125e+01 2.206972503662109375e+01 5.618206411600112915e-02 6.691116809844970703e+00 2.024189710617065430e+00 -3.281111121177673340e-01
1.449000000000000000e+03 7.675095367431640625e+01 2.081037521362304688e+01 3.521677851676940918e-02 7.041306018829345703e+00 2.122956991195678711e+00 -2.618729174137115479e-01
1.450000000000000000e+03 7.679559326171875000e+01 1.257706928253173828e+01 2.070585824549198151e-02 7.779497623443603516e+00 2.340060949325561523e+00 -3.877198398113250732e-01
1.451000000000000000e+03 7.538962554931640625e+01 8.490396499633789062e+00 -6.858798116445541382e-02 7.775769710540771484e+00 2.312154531478881836e+00 -5.044575929641723633e-01
1.452000000000000000e+03 7.679797363281250000e+01 1.395629024505615234e+01 1.833374239504337311e-02 7.640632629394531250e+00 2.297689914703369141e+00 -3.740403652191162109e-01
1.453000000000000000e+03 7.661256408691406250e+01 2.356793212890625000e+01 3.395615890622138977e-02 6.831636428833007812e+00 2.059677839279174805e+00 -2.269422560930252075e-01
1.454000000000000000e+03 7.786743164062500000e+01 2.644814682006835938e+01 9.197424165904521942e-03 6.878900527954101562e+00 2.066429376602172852e+00 -1.130278483033180237e-01
1.455000000000000000e+03 7.686686706542968750e+01 -2.204716873168945312e+01 -1.781388968229293823e-01 8.202516555786132812e+00 2.407313346862792969e+00 -8.836656212806701660e-01
1.456000000000000000e+03 7.353218841552734375e+01 -1.808604240417480469e+01 -3.286910057067871094e-02 9.497221946716308594e+00 2.839305877685546875e+00 -1.122851133346557617e+00
1.457000000000000000e+03 7.678162384033203125e+01 -2.069600486755371094e+01 -1.510437279939651489e-01 8.058961868286132812e+00 2.372375488281250000e+00 -1.026858925819396973e+00
1.458000000000000000e+03 7.595577239990234375e+01 -8.306683540344238281e+00 4.813727438449859619e-01 8.149268150329589844e+00 2.589192152023315430e+00 1.312007188796997070e+00
1.459000000000000000e+03 7.804900360107421875e+01 -1.514408493041992188e+01 1.845532953739166260e-01 6.092262268066406250e+00 1.883044719696044922e+00 -6.065471172332763672e-01
1.460000000000000000e+03 7.564692687988281250e+01 -1.533508658409118652e+00 -6.089996099472045898e-01 8.820737838745117188e+00 2.463521480560302734e+00 7.636596560478210449e-01
1.461000000000000000e+03 7.706594848632812500e+01 -8.312282562255859375e+00 3.322863876819610596e-01 7.271141052246093750e+00 2.281028270721435547e+00 1.196174502372741699e+00
1.462000000000000000e+03 7.804555511474609375e+01 5.649941921234130859e+00 -6.122292578220367432e-02 8.896598815917968750e+00 2.650612831115722656e+00 -1.335972398519515991e-01
1.463000000000000000e+03 7.536602783203125000e+01 5.758394718170166016e+00 -2.091400027275085449e-01 8.035032272338867188e+00 2.347767591476440430e+00 -3.974639177322387695e-01
1.464000000000000000e+03 7.628362274169921875e+01 3.476923370361328125e+01 1.391168031841516495e-02 6.348097801208496094e+00 1.908602833747863770e+00 -9.445250779390335083e-02
1.465000000000000000e+03 7.805962371826171875e+01 7.036259651184082031e+00 -3.754799067974090576e-02 8.777829170227050781e+00 2.622084379196166992e+00 -2.099167108535766602e-01
1.466000000000000000e+03 7.671609497070312500e+01 5.704865455627441406e+00 -1.358341723680496216e-01 8.468744277954101562e+00 2.499873161315917969e+00 -2.858597636222839355e-01
1.467000000000000000e+03 7.695848083496093750e+01 -2.851087570190429688e+00 -2.689739167690277100e-01 8.500555992126464844e+00 2.469474554061889648e+00 9.922810792922973633e-01
1.468000000000000000e+03 7.698200225830078125e+01 -9.617588043212890625e+00 5.415098667144775391e-01 7.115145683288574219e+00 2.296996593475341797e+00 8.213676214218139648e-01
1.469000000000000000e+03 7.684273529052734375e+01 -1.643504333496093750e+01 2.032963484525680542e-01 7.354539394378662109e+00 2.267350673675537109e+00 -9.744808673858642578e-01
1.470000000000000000e+03 7.648381805419921875e+01 3.354818344116210938e+01 1.340055651962757111e-02 6.410526275634765625e+00 1.927178025245666504e+00 -1.165579855442047119e-01
1.471000000000000000e+03 7.352970886230468750e+01 3.480741500854492188e+01 6.446674466133117676e-02 5.909286499023437500e+00 1.792126059532165527e+00 -1.427433788776397705e-01
1.472000000000000000e+03 7.630929565429687500e+01 3.081211280822753906e+01 1.627085357904434204e-02 6.448596477508544922e+00 1.939460277557373047e+00 -1.381864100694656372e-01
1.473000000000000000e+03 7.678257751464843750e+01 1.809003067016601562e+01 3.660016134381294250e-02 7.260285377502441406e+00 2.189065694808959961e+00 -3.095341920852661133e-01
1.474000000000000000e+03 7.677442169189453125e+01 9.821249008178710938e+00 -1.562262699007987976e-02 8.064329147338867188e+00 2.414612054824829102e+00 -3.879493474960327148e-01
1.475000000000000000e+03 7.672405242919921875e+01 -1.505628967285156250e+01 3.809603750705718994e-01 7.299811840057373047e+00 2.304231643676757812e+00 -8.365010619163513184e-01
1.476000000000000000e+03 7.823558044433593750e+01 -6.966213703155517578e+00 9.064827114343643188e-02 6.785410404205322266e+00 2.062817573547363281e+00 9.416018724441528320e-01
1.477000000000000000e+03 7.803096008300781250e+01 1.442881941795349121e+00 -1.098536252975463867e-01 8.980208396911621094e+00 2.661106586456298828e+00 1.890726536512374878e-01
1.478000000000000000e+03 7.686349487304687500e+01 -1.431315660476684570e+00 -3.955945074558258057e-01 8.707240104675292969e+00 2.493493556976318359e+00 7.710612416267395020e-01
1.479000000000000000e+03 7.669497680664062500e+01 4.298615932464599609e+00 -2.027437686920166016e-01 8.579447746276855469e+00 2.513011217117309570e+00 -1.291216313838958740e-01
1.480000000000000000e+03 7.667815399169921875e+01 2.879926919937133789e+00 -2.514532506465911865e-01 8.675291061401367188e+00 2.527151346206665039e+00 -1.387985236942768097e-02
1.481000000000000000e+03 7.707639312744140625e+01 -5.622848033905029297e+00 -5.649452097713947296e-03 7.894480705261230469e+00 2.366649389266967773e+00 1.323016047477722168e+00
1.482000000000000000e+03 7.703430175781250000e+01 -4.244601726531982422e+00 -2.473696917295455933e-01 8.283161163330078125e+00 2.410737276077270508e+00 1.220198631286621094e+00
1.483000000000000000e+03 7.550820159912109375e+01 -1.078863334655761719e+01 1.125032782554626465e+00 8.252247810363769531e+00 2.813184022903442383e+00 5.488061308860778809e-01
1.484000000000000000e+03 7.669393920898437500e+01 -1.365480899810791016e+01 6.612342000007629395e-01 7.210064411163330078e+00 2.361389636993408203e+00 -4.869054853916168213e-01
1.485000000000000000e+03 7.686339569091796875e+01 -1.093419361114501953e+01 5.581145882606506348e-01 6.976752281188964844e+00 2.260460138320922852e+00 5.053312182426452637e-01
1.486000000000000000e+03 7.663236236572265625e+01 -1.927593612670898438e+01 -4.574678465723991394e-02 7.946635246276855469e+00 2.370266437530517578e+00 -1.124312639236450195e+00
1.487000000000000000e+03 3.846389770507812500e+01 -1.749454689025878906e+01 -1.305889368057250977e+00 1.098626945167779922e-02 -3.884709477424621582e-01 -1.992536187171936035e-01
1.488000000000000000e+03 3.937142944335937500e+01 -1.622389030456542969e+01 -1.234336853027343750e+00 4.757362231612205505e-02 -3.560289740562438965e-01 -2.241764068603515625e-01
1.489000000000000000e+03 6.079812240600585938e+01 -5.082742214202880859e+00 -2.321979761123657227e+00 -1.614818722009658813e-01 -7.450384497642517090e-01 -7.252947688102722168e-01
1.490000000000000000e+03 5.608412551879882812e+01 7.925851345062255859e+00 2.616252601146697998e-01 2.079377174377441406e+00 7.023007273674011230e-01 1.056870967149734497e-01
1.491000000000000000e+03 1.593429756164550781e+01 4.780560493469238281e+00 -6.877074837684631348e-01 -8.547006249427795410e-01 -4.627224206924438477e-01 6.503964662551879883e-01
1.492000000000000000e+03 5.689590835571289062e+01 -9.861750602722167969e+00 -2.594431400299072266e+00 -4.463411271572113037e-01 -9.122317433357238770e-01 -1.107493400573730469e+00
1.493000000000000000e+03 5.377894592285156250e+01 -1.036011505126953125e+01 -2.025600194931030273e+00 -1.110040768980979919e-01 -6.409812569618225098e-01 -6.934221982955932617e-01
1.494000000000000000e+03 8.273041725158691406e+00 -1.565586948394775391e+01 2.013410806655883789e+00 5.098263740539550781e+00 2.133502483367919922e+00 -3.342032730579376221e-01
1.495000000000000000e+03 1.587852573394775391e+01 -2.660260200500488281e+01 6.769780516624450684e-01 1.437927365303039551e+00 6.344716548919677734e-01 -9.208538532257080078e-01
1.496000000000000000e+03 1.910650062561035156e+01 -1.346925449371337891e+01 -2.258220165967941284e-01 -2.081217765808105469e-01 -1.301831454038619995e-01 2.401935458183288574e-01
1.497000000000000000e+03 1.957642173767089844e+01 -1.130018234252929688e+01 -4.651846289634704590e-01 -7.019647359848022461e-01 -3.501448035240173340e-01 6.541508436203002930e-01
1.498000000000000000e+03 6.063286972045898438e+01 -2.789721298217773438e+01 -7.118122279644012451e-02 2.042617797851562500e+00 5.914309620857238770e-01 7.565246224403381348e-01
1.499000000000000000e+03 6.021305084228515625e+01 -7.564087390899658203e+00 -3.634280443191528320e+00 -4.718713164329528809e-01 -1.231845498085021973e+00 -1.350751519203186035e+00
1.500000000000000000e+03 5.604927825927734375e+01 -2.889332008361816406e+01 -2.787047922611236572e-01 2.621618211269378662e-01 -4.962890408933162689e-03 2.719185128808021545e-02
1.501000000000000000e+03 5.950862884521484375e+01 -2.875382614135742188e+01 -6.867886334657669067e-02 1.596210122108459473e+00 4.582593739032745361e-01 6.126506924629211426e-01
1.502000000000000000e+03 2.270603370666503906e+01 -3.306814575195312500e+01 3.491050302982330322e-01 7.454921007156372070e-01 3.283791244029998779e-01 -5.080679655075073242e-01
1.503000000000000000e+03 1.285735511779785156e+01 -2.361855697631835938e+01 6.307407021522521973e-01 2.099538087844848633e+00 8.190836906433105469e-01 -1.105004787445068359e+00
1.504000000000000000e+03 1.392803192138671875e+01 -2.462210655212402344e+01 6.487361788749694824e-01 1.793254494667053223e+00 7.325972318649291992e-01 -1.086031317710876465e+00
1.505000000000000000e+03 1.390048885345458984e+01 6.008396148681640625e+00 -6.155030727386474609e-01 -6.919549107551574707e-01 -3.922373950481414795e-01 4.756216704845428467e-01
1.506000000000000000e+03 2.316447830200195312e+01 1.739670372009277344e+01 3.676057606935501099e-02 -6.010386943817138672e-01 -1.692834347486495972e-01 4.455542564392089844e-01
1.507000000000000000e+03 4.918843746185302734e+00 3.624160766601562500e+01 2.699522860348224640e-02 -9.996510148048400879e-01 -2.917967438697814941e-01 4.524401947855949402e-02
1.508000000000000000e+03 1.824023842811584473e+00 2.759094047546386719e+01 7.571951719000935555e-04 -1.164312601089477539e+00 -3.490666449069976807e-01 2.248761616647243500e-02
1.509000000000000000e+03 3.245786428451538086e+00 3.029649925231933594e+01 1.701354049146175385e-03 -1.075237631797790527e+00 -3.220608532428741455e-01 3.760869428515434265e-02
1.510000000000000000e+03 1.828350663185119629e+00 2.621865081787109375e+01 2.869813004508614540e-03 -1.145860075950622559e+00 -3.428970575332641602e-01 2.515302971005439758e-02
1.511000000000000000e+03 2.997678518295288086e+00 2.757972908020019531e+01 4.346455447375774384e-03 -1.064075708389282227e+00 -3.179187774658203125e-01 3.877480328083038330e-02
1.512000000000000000e+03 6.007746696472167969e+00 2.952507781982421875e+01 1.776357740163803101e-02 -8.359763026237487793e-01 -2.454638183116912842e-01 8.343345671892166138e-02
1.513000000000000000e+03 3.283695697784423828e+00 3.173564529418945312e+01 4.222508519887924194e-03 -1.088774085044860840e+00 -3.253654837608337402e-01 3.333344310522079468e-02
1.514000000000000000e+03 3.037965059280395508e+00 2.890324974060058594e+01 3.151542041450738907e-03 -1.072914123535156250e+00 -3.209287822246551514e-01 3.441809862852096558e-02
1.515000000000000000e+03 2.130157947540283203e+00 3.699995422363281250e+01 4.010905046015977859e-03 -1.236024141311645508e+00 -3.696039617061614990e-01 -1.815875293686985970e-04
1.516000000000000000e+03 2.994344711303710938e+00 3.424642181396484375e+01 1.322596054524183273e-02 -1.145705103874206543e+00 -3.397437334060668945e-01 2.272513695061206818e-02
1.517000000000000000e+03 3.070598602294921875e+00 3.306283569335937500e+01 8.313107304275035858e-03 -1.121735215187072754e+00 -3.340266346931457520e-01 3.163313120603561401e-02
1.518000000000000000e+03 4.691894531250000000e+00 -3.600541305541992188e+01 -1.116240546107292175e-01 -7.700411081314086914e-01 -2.644995450973510742e-01 1.955535113811492920e-01
1.519000000000000000e+03 4.498715877532958984e+00 -3.427766036987304688e+01 -1.012964993715286255e-01 -8.165578246116638184e-01 -2.753562927246093750e-01 2.761031389236450195e-01
1.520000000000000000e+03 3.731019496917724609e+00 -2.982854461669921875e+01 -1.233015283942222595e-01 -1.195915579795837402e+00 -3.957651257514953613e-01 4.327259957790374756e-01
1.521000000000000000e+03 2.183529376983642578e+00 -2.869700622558593750e+01 -6.147059798240661621e-02 -1.861489772796630859e+00 -5.768881440162658691e-01 3.578248023986816406e-01
1.522000000000000000e+03 1.897119402885437012e+00 2.206750297546386719e+01 9.195115417242050171e-03 -1.053656578063964844e+00 -3.133384287357330322e-01 4.999577254056930542e-02
1.523000000000000000e+03 3.134581327438354492e+00 2.354767417907714844e+01 1.713058166205883026e-02 -9.777420163154602051e-01 -2.881834208965301514e-01 6.590535491704940796e-02
1.524000000000000000e+03 2.874035120010375977e+00 -1.174125671386718750e+01 3.376407325267791748e-01 -2.081420898437500000e+00 -5.231340527534484863e-01 -1.132486343383789062e+00
1.525000000000000000e+03 1.649661064147949219e+00 -9.091960906982421875e+00 9.244189597666263580e-03 -2.439747333526611328e+00 -7.291509509086608887e-01 -9.107997417449951172e-01
1.526000000000000000e+03 2.857148885726928711e+00 -1.887265968322753906e+01 1.782251000404357910e-01 -2.560436964035034180e+00 -7.146635651588439941e-01 6.284319758415222168e-01
1.527000000000000000e+03 1.918011069297790527e+00 2.066674041748046875e+01 1.371991727501153946e-02 -1.008872628211975098e+00 -2.985458076000213623e-01 6.644993275403976440e-02
1.528000000000000000e+03 3.175430297851562500e+00 2.216427612304687500e+01 2.337712608277797699e-02 -9.399929046630859375e-01 -2.749847173690795898e-01 8.391408622264862061e-02
1.529000000000000000e+03 2.897724866867065430e+00 1.202182388305664062e+01 3.503899555653333664e-03 -4.925520718097686768e-01 -1.467144489288330078e-01 2.416795492172241211e-01
1.530000000000000000e+03 3.237377882003784180e+00 1.786778640747070312e+01 4.062568768858909607e-02 -8.022140860557556152e-01 -2.284765094518661499e-01 1.601068526506423950e-01
1.531000000000000000e+03 3.019379615783691406e+00 -1.997457504272460938e+01 4.893233254551887512e-02 -2.258126974105834961e+00 -6.627583503723144531e-01 6.993102431297302246e-01
1.532000000000000000e+03 1.890407085418701172e+00 -1.479539394378662109e+01 2.610045373439788818e-01 -3.902096509933471680e+00 -1.092327594757080078e+00 -2.105616778135299683e-01
1.533000000000000000e+03 3.917468309402465820e+00 -1.158793067932128906e+01 4.319202303886413574e-01 -9.990801215171813965e-01 -1.701479703187942505e-01 -1.473766565322875977e+00
1.534000000000000000e+03 3.062757253646850586e+00 7.952849864959716797e+00 -4.626121744513511658e-02 -2.350861132144927979e-01 -8.440420031547546387e-02 1.958963125944137573e-01
1.535000000000000000e+03 1.721560120582580566e+00 6.253666400909423828e+00 -2.344689890742301941e-02 -1.249856427311897278e-01 -4.452976211905479431e-02 8.655808866024017334e-02
1.536000000000000000e+03 1.870556831359863281e+00 1.491589164733886719e+01 1.646979525685310364e-02 -7.285153865814208984e-01 -2.136136740446090698e-01 1.443027257919311523e-01
1.537000000000000000e+03 3.195424318313598633e+00 1.637306594848632812e+01 4.293864220380783081e-02 -7.396791577339172363e-01 -2.090221494436264038e-01 1.962984949350357056e-01
1.538000000000000000e+03 4.671845436096191406e+00 -4.436767578125000000e+00 -5.708603858947753906e-01 -4.380177706480026245e-02 -1.843986362218856812e-01 -9.758222103118896484e-01
1.539000000000000000e+03 3.874943017959594727e+00 -4.010279178619384766e+00 -4.591808915138244629e-01 -1.772493720054626465e-01 -1.909290850162506104e-01 -8.670711517333984375e-01
1.540000000000000000e+03 1.596195816993713379e+00 -6.221107959747314453e+00 -7.885929942131042480e-02 -1.281623840332031250e+00 -4.081449210643768311e-01 -7.232952117919921875e-01
1.541000000000000000e+03 2.901095867156982422e+00 9.330343246459960938e+00 -2.896114438772201538e-02 -3.145230412483215332e-01 -1.030452549457550049e-01 2.204951941967010498e-01
1.542000000000000000e+03 3.584262371063232422e+00 -2.842064094543457031e+01 -1.015295237302780151e-01 -1.333262801170349121e+00 -4.304377138614654541e-01 4.936872422695159912e-01
1.543000000000000000e+03 3.291148424148559570e+00 -2.125469970703125000e+01 -1.638735644519329071e-02 -1.944638848304748535e+00 -5.883078575134277344e-01 7.246116995811462402e-01
1.544000000000000000e+03 2.803844690322875977e+00 -1.035227775573730469e+01 9.585499763488769531e-02 -1.879035711288452148e+00 -5.349542498588562012e-01 -1.298622965812683105e+00
1.545000000000000000e+03 2.729926347732543945e+00 -8.971730232238769531e+00 -1.587396487593650818e-02 -1.506605267524719238e+00 -4.567437767982482910e-01 -1.302662491798400879e+00
1.546000000000000000e+03 3.086335659027099609e+00 -1.621273422241210938e+01 5.021465420722961426e-01 -2.326584815979003906e+00 -5.473314523696899414e-01 1.369304955005645752e-01
1.547000000000000000e+03 3.343194961547851562e+00 -2.277251243591308594e+01 -4.559451341629028320e-02 -1.768627166748046875e+00 -5.442665219306945801e-01 7.300612926483154297e-01
1.548000000000000000e+03 2.711161375045776367e+00 -3.590290069580078125e+01 -2.217486128211021423e-02 -1.207212448120117188e+00 -3.688161969184875488e-01 1.744910925626754761e-01
1.549000000000000000e+03 4.192783355712890625e+00 -3.271064376831054688e+01 -1.184531599283218384e-01 -9.491823911666870117e-01 -3.202906548976898193e-01 3.264213800430297852e-01
1.550000000000000000e+03 5.713472366333007812e+00 -3.229918289184570312e+01 -1.654290407896041870e-01 -5.413545966148376465e-01 -2.120350897312164307e-01 3.668598234653472900e-01
1.551000000000000000e+03 2.041372060775756836e+00 -2.445411872863769531e+01 -3.611700609326362610e-02 -2.529825687408447266e+00 -7.697827816009521484e-01 5.153340697288513184e-01
1.552000000000000000e+03 3.418333768844604492e+00 -2.562834548950195312e+01 -9.954432398080825806e-02 -1.573007106781005859e+00 -5.017654299736022949e-01 6.129604578018188477e-01
1.553000000000000000e+03 4.749839782714843750e+00 -2.540560150146484375e+01 -1.854045689105987549e-01 -8.217446804046630859e-01 -3.021447658538818359e-01 6.496546864509582520e-01
1.554000000000000000e+03 4.179543972015380859e+00 -1.773106575012207031e+01 5.034844875335693359e-01 -9.267504811286926270e-01 -1.269798129796981812e-01 4.398114383220672607e-01
1.555000000000000000e+03 3.162771224975585938e+00 -1.472751522064208984e+01 6.836787462234497070e-01 -2.209835529327392578e+00 -4.578470587730407715e-01 -2.892223298549652100e-01
1.556000000000000000e+03 3.063743114471435547e+00 -1.319662094116210938e+01 5.876342654228210449e-01 -2.183389663696289062e+00 -4.787266254425048828e-01 -8.207953572273254395e-01
1.557000000000000000e+03 2.856437683105468750e+00 1.066609668731689453e+01 -1.014022342860698700e-02 -4.045363068580627441e-01 -1.244029551744461060e-01 2.332281172275543213e-01
1.558000000000000000e+03 4.011097908020019531e+00 1.194086360931396484e+01 7.512941490858793259e-03 -4.693006277084350586e-01 -1.385363042354583740e-01 3.118945062160491943e-01
1.559000000000000000e+03 3.009572505950927734e+00 1.342182350158691406e+01 2.218504995107650757e-02 -5.852739810943603516e-01 -1.689266711473464966e-01 2.373699247837066650e-01
1.560000000000000000e+03 3.232223510742187500e+00 1.933650016784667969e+01 3.934265300631523132e-02 -8.552817702293395996e-01 -2.447817474603652954e-01 1.319544911384582520e-01
1.561000000000000000e+03 6.650862121582031250e+01 -2.102668571472167969e+01 5.311108753085136414e-02 7.149411201477050781e+00 2.160756587982177734e+00 1.851196408271789551e+00
1.562000000000000000e+03 5.712246704101562500e+01 -8.263406753540039062e+00 -2.701332807540893555e+00 -1.455736011266708374e-01 -8.540719151496887207e-01 -7.858184576034545898e-01
1.563000000000000000e+03 5.603170776367187500e+01 -8.985778808593750000e+00 -2.437999725341796875e+00 -1.340420246124267578e-01 -7.716125845909118652e-01 -7.713600993156433105e-01
1.564000000000000000e+03 1.675301170349121094e+01 -2.785455322265625000e+01 5.747932195663452148e-01 1.360910058021545410e+00 5.807110071182250977e-01 -7.614975571632385254e-01
1.565000000000000000e+03 2.624457931518554688e+01 -3.433274841308593750e+01 4.067661762237548828e-01 4.690062105655670166e-01 2.627317309379577637e-01 -3.584542870521545410e-01
1.566000000000000000e+03 3.265683364868164062e+01 -3.665771865844726562e+01 4.505024850368499756e-01 1.675561368465423584e-01 1.854175925254821777e-01 -1.336417943239212036e-01
1.567000000000000000e+03 1.164731884002685547e+01 1.222380638122558594e+01 1.912086904048919678e-01 -3.491455614566802979e-01 -4.738106206059455872e-02 5.780344009399414062e-01
1.568000000000000000e+03 3.200545883178710938e+01 -1.782369041442871094e+01 -2.165312051773071289e+00 -4.637052863836288452e-02 -6.635047793388366699e-01 -2.409462183713912964e-01
1.569000000000000000e+03 4.437591171264648438e+01 -3.576986312866210938e+01 4.489595890045166016e-01 -1.623739302158355713e-01 8.597569912672042847e-02 -1.728239357471466064e-01
1.570000000000000000e+03 5.333975219726562500e+01 -3.247726821899414062e+01 1.665762215852737427e-01 1.101449728012084961e-01 8.301635831594467163e-02 -1.621175184845924377e-02
1.571000000000000000e+03 4.779441452026367188e+01 -3.557360076904296875e+01 4.859296083450317383e-01 -1.487774401903152466e-01 1.011456549167633057e-01 -1.916615068912506104e-01
1.572000000000000000e+03 6.193706512451171875e+01 -2.478977012634277344e+01 7.103990763425827026e-02 2.691039085388183594e+00 8.286237120628356934e-01 1.013435602188110352e+00
1.573000000000000000e+03 6.414083862304687500e+01 -2.444568634033203125e+01 -1.478967666625976562e-01 4.451463222503662109e+00 1.291069984436035156e+00 1.302010774612426758e+00
1.574000000000000000e+03 3.545597839355468750e+01 -3.666985321044921875e+01 4.679803848266601562e-01 7.204888761043548584e-02 1.620087772607803345e-01 -9.814369678497314453e-02
1.575000000000000000e+03 5.460936737060546875e+01 -3.169870185852050781e+01 1.014384031295776367e-01 3.058539032936096191e-01 1.221876963973045349e-01 3.080356121063232422e-02
1.576000000000000000e+03 5.115758132934570312e+01 -9.066074371337890625e+00 -1.721741676330566406e+00 1.547753363847732544e-01 -4.700898826122283936e-01 -2.865701615810394287e-01
1.577000000000000000e+03 2.061692810058593750e+01 -1.333562660217285156e+01 -5.262690782546997070e-01 -6.087527871131896973e-01 -3.405065536499023438e-01 5.724067091941833496e-01
1.578000000000000000e+03 2.302904701232910156e+01 2.737623691558837891e+00 -1.947958767414093018e-01 4.450741410255432129e-01 7.508347928524017334e-02 3.839629888534545898e-01
1.579000000000000000e+03 6.962379455566406250e+01 -1.677037811279296875e+01 5.858591794967651367e-01 1.176818561553955078e+01 3.706213474273681641e+00 5.219113230705261230e-01
1.580000000000000000e+03 7.053669738769531250e+01 -1.597376346588134766e+01 1.093545079231262207e+00 1.215834522247314453e+01 3.975567340850830078e+00 3.758037984371185303e-01
1.581000000000000000e+03 2.948971557617187500e+01 -3.321995162963867188e+01 5.329316258430480957e-01 2.130179852247238159e-01 2.237848788499832153e-01 -2.386071532964706421e-01
1.582000000000000000e+03 6.805096435546875000e+01 -1.877384757995605469e+01 3.145411312580108643e-01 9.681076049804687500e+00 2.998685121536254883e+00 1.825094938278198242e+00
1.583000000000000000e+03 4.935210800170898438e+01 -3.468566894531250000e+01 4.176175296306610107e-01 -1.045449599623680115e-01 9.392177313566207886e-02 -1.743433624505996704e-01
1.584000000000000000e+03 3.801442337036132812e+01 -3.346428680419921875e+01 4.175017476081848145e-01 8.869543671607971191e-03 1.279113888740539551e-01 -4.060807451605796814e-02
1.585000000000000000e+03 2.049587249755859375e+01 2.559837579727172852e+00 -2.802153527736663818e-01 4.521391820162534714e-03 -8.270818740129470825e-02 5.212491750717163086e-01
1.586000000000000000e+03 2.240835189819335938e+01 -1.739416599273681641e+00 -7.426685094833374023e-01 1.393008977174758911e-01 -1.810102760791778564e-01 4.332698285579681396e-01
1.587000000000000000e+03 1.088892555236816406e+01 -2.131443405151367188e+01 6.031862497329711914e-01 2.841368198394775391e+00 1.033366322517395020e+00 -1.162391304969787598e+00
1.588000000000000000e+03 1.771097564697265625e+01 -8.000946044921875000e+00 -5.284717679023742676e-01 -5.804849863052368164e-01 -3.326870203018188477e-01 8.580473065376281738e-01
1.589000000000000000e+03 9.019395828247070312e+00 -1.901092338562011719e+01 6.336401700973510742e-01 3.708760261535644531e+00 1.302720189094543457e+00 -8.212573528289794922e-01
1.590000000000000000e+03 6.729473876953125000e+01 -1.988745117187500000e+01 1.293343901634216309e-01 8.683076858520507812e+00 2.643723487854003906e+00 1.836156010627746582e+00
1.591000000000000000e+03 1.428374099731445312e+01 -1.016115283966064453e+01 3.993009924888610840e-01 9.317332506179809570e-02 1.477423012256622314e-01 5.168457627296447754e-01
1.592000000000000000e+03 4.700461578369140625e+01 4.146836280822753906e+00 -7.789501547813415527e-02 9.705080091953277588e-02 5.746734794229269028e-03 1.691948324441909790e-01
1.593000000000000000e+03 2.992806053161621094e+01 -3.588217163085937500e+01 4.279170334339141846e-01 2.898846268653869629e-01 2.153404951095581055e-01 -2.046124935150146484e-01
1.594000000000000000e+03 4.302716445922851562e+01 -1.525013828277587891e+01 -1.255993008613586426e+00 3.236889094114303589e-02 -3.670872151851654053e-01 -2.730271518230438232e-01
1.595000000000000000e+03 2.799049186706542969e+01 6.542600631713867188e+00 3.186983168125152588e-01 3.726004362106323242e-01 2.073896229267120361e-01 4.841031134128570557e-01
1.596000000000000000e+03 2.868695068359375000e+01 7.821579456329345703e+00 2.314701974391937256e-01 2.810177803039550781e-01 1.537463963031768799e-01 6.458210945129394531e-01
1.597000000000000000e+03 2.291116333007812500e+01 1.854138946533203125e+01 1.579964905977249146e-01 -4.265108704566955566e-01 -8.055431395769119263e-02 4.678563773632049561e-01
1.598000000000000000e+03 9.044592857360839844e+00 -1.691621017456054688e+01 1.307691574096679688e+00 5.831833362579345703e+00 2.141857385635375977e+00 -1.330687880516052246e+00
1.599000000000000000e+03 9.992763519287109375e+00 -2.015302658081054688e+01 6.764351725578308105e-01 3.118657827377319336e+00 1.138527870178222656e+00 -1.141852736473083496e+00
1.600000000000000000e+03 2.552031326293945312e+01 2.423449039459228516e+00 -2.440472692251205444e-01 5.762544870376586914e-01 9.966215491294860840e-02 2.869088649749755859e-01
1.601000000000000000e+03 4.151864624023437500e+01 1.733048629760742188e+01 5.481235980987548828e-01 1.478362083435058594e+00 6.079456806182861328e-01 3.592039048671722412e-01
1.602000000000000000e+03 5.475907897949218750e+01 3.640118837356567383e+00 1.144686713814735413e-02 9.469855427742004395e-01 2.875297069549560547e-01 2.305317372083663940e-01
1.603000000000000000e+03 5.290736007690429688e+01 6.008011341094970703e+00 3.441374003887176514e-01 6.042817234992980957e-01 2.845257520675659180e-01 4.181774258613586426e-01
1.604000000000000000e+03 2.451124763488769531e+01 1.792934226989746094e+01 5.891752615571022034e-02 -4.359611272811889648e-01 -1.131130829453468323e-01 3.346560299396514893e-01
1.605000000000000000e+03 3.905293273925781250e+01 1.358014202117919922e+01 4.233049452304840088e-01 1.098244547843933105e+00 4.564648270606994629e-01 5.466091036796569824e-01
1.606000000000000000e+03 4.148310089111328125e+01 1.060670661926269531e+01 8.803677558898925781e-02 1.387204647064208984e+00 4.425724148750305176e-01 4.200209975242614746e-01
1.607000000000000000e+03 1.559343433380126953e+01 -2.873396110534667969e+01 2.975234985351562500e-01 1.307025551795959473e+00 4.813647270202636719e-01 -6.209601759910583496e-01
1.608000000000000000e+03 5.578580474853515625e+01 1.834752082824707031e+01 2.443680763244628906e-01 2.878914833068847656e+00 9.369848370552062988e-01 -6.403083801269531250e-01
1.609000000000000000e+03 5.264481353759765625e+01 2.271969985961914062e+01 6.372448801994323730e-01 1.540092706680297852e+00 6.532012820243835449e-01 -5.282983183860778809e-01
1.610000000000000000e+03 1.183049488067626953e+01 -2.248273468017578125e+01 6.336575746536254883e-01 2.287857055664062500e+00 8.764543533325195312e-01 -1.170076727867126465e+00
1.611000000000000000e+03 1.526605987548828125e+01 1.897259712219238281e+01 2.284143865108489990e-01 2.046319693326950073e-01 1.299139112234115601e-01 3.145887851715087891e-01
1.612000000000000000e+03 1.668415451049804688e+01 1.767476463317871094e+01 3.189146220684051514e-01 4.097142815589904785e-01 2.185886651277542114e-01 3.584224581718444824e-01
1.613000000000000000e+03 5.281286239624023438e+01 2.453690338134765625e+01 6.736832261085510254e-01 1.761710882186889648e+00 7.306182384490966797e-01 -4.669911265373229980e-01
1.614000000000000000e+03 4.915345382690429688e+01 2.232401847839355469e+01 7.074077725410461426e-01 7.849608659744262695e-01 4.477106034755706787e-01 6.607951223850250244e-02
1.615000000000000000e+03 4.007872772216796875e+01 1.305386734008789062e+01 4.261099994182586670e-01 1.237202882766723633e+00 4.989938735961914062e-01 4.827072918415069580e-01
1.616000000000000000e+03 5.461177825927734375e+01 2.083007812500000000e+01 3.259173929691314697e-01 2.289106130599975586e+00 7.845070362091064453e-01 -7.642260193824768066e-01
1.617000000000000000e+03 1.308329772949218750e+01 1.595100116729736328e+01 4.786246418952941895e-01 -1.083941906690597534e-01 1.110691353678703308e-01 3.156339526176452637e-01
1.618000000000000000e+03 1.446383953094482422e+01 1.640928840637207031e+01 5.237508416175842285e-01 1.857647299766540527e-01 2.128546684980392456e-01 2.693967819213867188e-01
1.619000000000000000e+03 5.709872436523437500e+01 1.736521911621093750e+01 5.285938382148742676e-01 3.142101764678955078e+00 1.101208686828613281e+00 -4.756162166595458984e-01
1.620000000000000000e+03 1.918513107299804688e+01 1.966073036193847656e+01 1.882547587156295776e-01 5.215818807482719421e-02 7.212388515472412109e-02 6.290968060493469238e-01
1.621000000000000000e+03 5.680510330200195312e+01 9.111000061035156250e+00 3.671067655086517334e-01 2.524893760681152344e+00 8.676001429557800293e-01 -1.708521544933319092e-01
1.622000000000000000e+03 5.760071945190429688e+01 1.019701480865478516e+01 5.167903304100036621e-01 2.766944646835327148e+00 9.851204752922058105e-01 -3.145113587379455566e-01
1.623000000000000000e+03 1.799307441711425781e+01 3.406415939331054688e+00 -4.374533295631408691e-01 -6.405119895935058594e-01 -3.233895897865295410e-01 6.106206774711608887e-01
1.624000000000000000e+03 4.141195297241210938e+01 9.417494773864746094e+00 -9.213031828403472900e-02 1.263083457946777344e+00 3.512859642505645752e-01 3.353169560432434082e-01
1.625000000000000000e+03 4.260268020629882812e+01 1.820201492309570312e+01 3.448281288146972656e-01 1.545447707176208496e+00 5.670827627182006836e-01 3.753827214241027832e-01
1.626000000000000000e+03 4.138298034667968750e+01 1.945184516906738281e+01 3.333999514579772949e-01 1.389698028564453125e+00 5.169293880462646484e-01 3.887447714805603027e-01
1.627000000000000000e+03 1.894017982482910156e+01 2.703548431396484375e+00 -4.358394443988800049e-01 -3.983722925186157227e-01 -2.502635121345520020e-01 6.327726840972900391e-01
1.628000000000000000e+03 7.164228057861328125e+01 -1.325882434844970703e+01 2.603760004043579102e+00 1.294406414031982422e+01 4.664347648620605469e+00 -1.337627619504928589e-01
1.629000000000000000e+03 7.079508209228515625e+01 -1.202977466583251953e+01 2.752156972885131836e+00 1.426241588592529297e+01 5.104371547698974609e+00 1.266272664070129395e-01
1.630000000000000000e+03 3.999658203125000000e+01 1.187604618072509766e+01 2.806425988674163818e-01 1.269789934158325195e+00 4.651297330856323242e-01 5.817311406135559082e-01
1.631000000000000000e+03 4.007116699218750000e+01 1.061398696899414062e+01 1.082429513335227966e-01 1.188655018806457520e+00 3.890693783760070801e-01 5.044961571693420410e-01
1.632000000000000000e+03 5.557935714721679688e+01 5.494667053222656250e+00 1.490415781736373901e-01 1.370961189270019531e+00 4.560008049011230469e-01 1.529882252216339111e-01
1.633000000000000000e+03 4.858635711669921875e+01 -1.446652221679687500e+01 -1.406577825546264648e+00 -1.005133837461471558e-01 -4.521273672580718994e-01 -5.113542079925537109e-01
1.634000000000000000e+03 6.947693634033203125e+01 -7.022766113281250000e+00 -3.640708923339843750e-01 1.464754867553710938e+01 4.285043239593505859e+00 2.072764635086059570e-01
1.635000000000000000e+03 1.203949737548828125e+01 1.459361457824707031e+01 4.624673426151275635e-01 -2.784588038921356201e-01 5.520256608724594116e-02 4.166558384895324707e-01
1.636000000000000000e+03 6.592617797851562500e+01 -5.212040901184082031e+00 -1.314493656158447266e+00 3.264820098876953125e+00 5.850979685783386230e-01 -4.790157318115234375e+00
1.637000000000000000e+03 5.848720550537109375e+01 1.649696350097656250e+01 7.082504630088806152e-01 3.388417005538940430e+00 1.229000210762023926e+00 -5.452656149864196777e-01
1.638000000000000000e+03 7.243748474121093750e+01 -3.585000991821289062e+00 -1.414140820503234863e+00 9.949464797973632812e+00 2.560597181320190430e+00 6.327006220817565918e-01
1.639000000000000000e+03 6.940614318847656250e+01 -4.599631786346435547e+00 -2.801883220672607422e+00 1.073241901397705078e+01 2.379160881042480469e+00 -1.237748861312866211e+00
1.640000000000000000e+03 1.091432666778564453e+01 -4.997708320617675781e+00 -1.103510737419128418e+00 8.029146790504455566e-01 -9.017883986234664917e-02 2.551493942737579346e-01
1.641000000000000000e+03 1.177704715728759766e+01 -6.967787265777587891e+00 -6.599639058113098145e-01 1.048887014389038086e+00 1.166769266128540039e-01 5.231021046638488770e-01
1.642000000000000000e+03 4.742842197418212891e+00 -4.062684249877929688e+01 -1.169829666614532471e-01 -8.233261704444885254e-01 -2.820927202701568604e-01 2.144614048302173615e-02
1.643000000000000000e+03 6.623217010498046875e+01 -3.930956363677978516e+00 -2.072427511215209961e+00 4.911914825439453125e+00 8.518461585044860840e-01 -3.327443599700927734e+00
1.644000000000000000e+03 2.774699783325195312e+01 -1.325199794769287109e+01 -1.169197708368301392e-01 1.861001968383789062e+00 5.232246518135070801e-01 6.972418427467346191e-01
1.645000000000000000e+03 2.708531951904296875e+01 -1.176868534088134766e+01 -3.759218156337738037e-01 1.424822330474853516e+00 3.146701455116271973e-01 3.031888604164123535e-01
1.646000000000000000e+03 1.746567153930664062e+01 -8.918566703796386719e+00 -3.669393360614776611e-01 -4.786529839038848877e-01 -2.536776959896087646e-01 7.583177089691162109e-01
1.647000000000000000e+03 2.819917678833007812e+01 -1.445052337646484375e+01 8.356754779815673828e-01 1.365234851837158203e+00 6.602730751037597656e-01 1.115476608276367188e+00
1.648000000000000000e+03 2.921118927001953125e+01 -1.574546623229980469e+01 8.850986510515213013e-02 -3.343510627746582031e-01 -7.375235855579376221e-02 -3.095359206199645996e-01
1.649000000000000000e+03 1.844935226440429688e+01 -9.114093780517578125e+00 -4.778383374214172363e-01 -7.033935785293579102e-01 -3.543695807456970215e-01 8.073546290397644043e-01
1.650000000000000000e+03 1.531097412109375000e+01 -6.256162166595458984e+00 -6.949865818023681641e-01 -1.013910770416259766e-01 -2.389132976531982422e-01 8.629470467567443848e-01
1.651000000000000000e+03 1.449299144744873047e+01 -8.659919738769531250e+00 -4.554326459765434265e-02 1.157065108418464661e-01 2.104897238314151764e-02 7.449007630348205566e-01
1.652000000000000000e+03 1.710255241394042969e+01 -1.012337303161621094e+01 -1.695655584335327148e-01 -3.485856354236602783e-01 -1.554453670978546143e-01 5.487059950828552246e-01
1.653000000000000000e+03 1.342366123199462891e+01 -5.020105838775634766e+00 -9.949803352355957031e-01 2.950408458709716797e-01 -2.099818438291549683e-01 7.044628262519836426e-01
1.654000000000000000e+03 2.683479690551757812e+01 -8.617061614990234375e+00 -5.852622389793395996e-01 8.528164625167846680e-01 8.026626706123352051e-02 4.161778092384338379e-01
1.655000000000000000e+03 2.657162094116210938e+01 -9.494878768920898438e+00 -5.075633525848388672e-01 9.324351549148559570e-01 1.274615377187728882e-01 3.433902561664581299e-01
1.656000000000000000e+03 1.836959457397460938e+01 -1.206803989410400391e+01 -2.697369456291198730e-01 -3.091019690036773682e-01 -1.736516654491424561e-01 3.568594157695770264e-01
1.657000000000000000e+03 9.065365791320800781e+00 -3.587801694869995117e+00 -1.217466473579406738e+00 5.579047203063964844e-01 -1.978685408830642700e-01 -1.701569110155105591e-01
1.658000000000000000e+03 1.020364093780517578e+01 -4.735540390014648438e+00 -1.159216403961181641e+00 8.256303668022155762e-01 -1.000757887959480286e-01 1.645484380424022675e-02
1.659000000000000000e+03 2.543369102478027344e+01 -8.459089279174804688e+00 -5.186105370521545410e-01 6.845003366470336914e-01 4.976693913340568542e-02 3.042639791965484619e-01
1.660000000000000000e+03 1.936948204040527344e+01 -1.258076000213623047e+01 -3.734105825424194336e-01 -4.535809755325317383e-01 -2.480974644422531128e-01 4.634403884410858154e-01
1.661000000000000000e+03 4.807711601257324219e+00 -3.296964406967163086e+00 -6.305875778198242188e-01 -8.341730572283267975e-03 -1.916787922382354736e-01 -7.662214040756225586e-01
1.662000000000000000e+03 6.868660449981689453e+00 -4.124402523040771484e+00 -9.416806697845458984e-01 4.547064006328582764e-01 -1.460922807455062866e-01 -7.022455930709838867e-01
1.663000000000000000e+03 7.414026260375976562e+00 -4.872524738311767578e+00 -9.478197097778320312e-01 6.580806970596313477e-01 -8.692169934511184692e-02 -7.048079371452331543e-01
1.664000000000000000e+03 8.370265960693359375e+00 -3.484904766082763672e+00 -1.188346624374389648e+00 5.210477113723754883e-01 -2.001896649599075317e-01 -3.492352366447448730e-01
1.665000000000000000e+03 5.424215316772460938e+00 -4.254328727722167969e+00 -6.935666203498840332e-01 1.416219621896743774e-01 -1.655834019184112549e-01 -9.031509757041931152e-01
1.666000000000000000e+03 3.800732851028442383e+00 -8.855230331420898438e+00 -9.828206151723861694e-02 -6.868348717689514160e-01 -2.355350852012634277e-01 -1.526196837425231934e+00
1.667000000000000000e+03 3.628741025924682617e+00 -3.432511568069458008e+00 -4.526312649250030518e-01 -1.697377860546112061e-01 -1.867107152938842773e-01 -7.297687530517578125e-01
1.668000000000000000e+03 3.769805669784545898e+00 -7.569883346557617188e+00 -2.567897140979766846e-01 -5.290071368217468262e-01 -2.357390522956848145e-01 -1.382129192352294922e+00
1.669000000000000000e+03 2.688994407653808594e+00 -6.241376399993896484e+00 -1.967182457447052002e-01 -8.761220574378967285e-01 -3.218520879745483398e-01 -1.043556094169616699e+00
1.670000000000000000e+03 2.565390396118164062e+01 -7.536209583282470703e+00 -6.188310384750366211e-01 6.556757688522338867e-01 1.105341687798500061e-02 3.779962062835693359e-01
1.671000000000000000e+03 8.791703224182128906e+00 4.372707843780517578e+00 -3.453374505043029785e-01 -1.282021254301071167e-01 -1.420618742704391479e-01 2.671970725059509277e-01
1.672000000000000000e+03 2.597872161865234375e+01 -8.212407112121582031e+00 -5.749784708023071289e-01 7.430937886238098145e-01 5.043460056185722351e-02 3.601997494697570801e-01
1.673000000000000000e+03 2.628343009948730469e+01 -8.867872238159179688e+00 -5.424902439117431641e-01 8.316472172737121582e-01 8.674710243940353394e-02 3.499808311462402344e-01
1.674000000000000000e+03 5.039616584777832031e+00 6.476100444793701172e+00 -1.333778351545333862e-01 -1.588053703308105469e-01 -8.765496313571929932e-02 2.454891204833984375e-01
1.675000000000000000e+03 6.237366676330566406e+00 3.449950933456420898e+00 -1.815659701824188232e-01 -5.775704979896545410e-02 -7.179690897464752197e-02 1.421463042497634888e-01
1.676000000000000000e+03 7.830310344696044922e+00 4.312198638916015625e+00 -2.942493259906768799e-01 -9.175822883844375610e-02 -1.158022582530975342e-01 2.326374351978302002e-01
1.677000000000000000e+03 4.854137420654296875e+00 5.241947650909423828e+00 -1.423988193273544312e-01 -1.026396080851554871e-01 -7.351152598857879639e-02 1.831201165914535522e-01
1.678000000000000000e+03 4.748564243316650391e+00 3.702763319015502930e+00 -1.216968595981597900e-01 -6.044749170541763306e-02 -5.464330688118934631e-02 1.114730313420295715e-01
1.679000000000000000e+03 3.190300464630126953e+00 4.214843273162841797e+00 -6.100719422101974487e-02 -7.776360213756561279e-02 -4.163124039769172668e-02 8.431550115346908569e-02
1.680000000000000000e+03 4.307103157043457031e+00 4.705572605133056641e+00 -1.081516370177268982e-01 -9.318909794092178345e-02 -6.040222197771072388e-02 1.381642669439315796e-01
1.681000000000000000e+03 1.164076995849609375e+01 -5.131265163421630859e+00 -1.055111646652221680e+00 6.820248365402221680e-01 -1.119260489940643311e-01 3.765222132205963135e-01
1.682000000000000000e+03 1.334306526184082031e+01 -6.454053401947021484e+00 -6.780533194541931152e-01 4.751344621181488037e-01 -6.087565422058105469e-02 7.886204719543457031e-01
1.683000000000000000e+03 1.667721939086914062e+01 -7.091628551483154297e+00 -5.613889098167419434e-01 -3.936567902565002441e-01 -2.865137159824371338e-01 8.883981704711914062e-01
1.684000000000000000e+03 2.215892028808593750e+01 -2.828349828720092773e+00 -8.001730442047119141e-01 4.446567595005035400e-02 -2.267121970653533936e-01 4.585188925266265869e-01
1.685000000000000000e+03 2.412225532531738281e+01 3.190054178237915039e+00 -1.109078675508499146e-01 5.742923617362976074e-01 1.390153467655181885e-01 3.201726973056793213e-01
1.686000000000000000e+03 1.232086277008056641e+01 2.840475797653198242e+00 -4.487129151821136475e-01 -3.337447941303253174e-01 -2.347373068332672119e-01 3.412267565727233887e-01
1.687000000000000000e+03 2.285026359558105469e+01 -2.507058143615722656e+00 -7.800005674362182617e-01 1.925693154335021973e-01 -1.762293726205825806e-01 4.214892089366912842e-01
1.688000000000000000e+03 2.492708396911621094e+01 -6.151563167572021484e+00 -6.998800039291381836e-01 5.029199123382568359e-01 -5.908802524209022522e-02 4.037230908870697021e-01
1.689000000000000000e+03 1.856731224060058594e+01 5.954223871231079102e-01 -4.905622899532318115e-01 -5.286720991134643555e-01 -3.057703077793121338e-01 6.186163425445556641e-01
1.690000000000000000e+03 2.353940391540527344e+01 -4.996291637420654297e+00 -7.487636804580688477e-01 2.582261562347412109e-01 -1.471612602472305298e-01 4.193348586559295654e-01
1.691000000000000000e+03 2.328940963745117188e+01 -3.264480590820312500e+00 -7.942791581153869629e-01 2.475534230470657349e-01 -1.640177220106124878e-01 4.238036572933197021e-01
1.692000000000000000e+03 1.443654632568359375e+01 4.442645072937011719e+00 -5.670943856239318848e-01 -6.725068688392639160e-01 -3.718803822994232178e-01 4.885297715663909912e-01
1.693000000000000000e+03 1.407168579101562500e+01 2.866052389144897461e+00 -4.516975283622741699e-01 -5.776851773262023926e-01 -3.088147938251495361e-01 4.388820528984069824e-01
1.694000000000000000e+03 1.217389583587646484e+01 3.648386716842651367e+00 -4.677880406379699707e-01 -3.482748270034790039e-01 -2.448188513517379761e-01 3.367410302162170410e-01
1.695000000000000000e+03 1.041822338104248047e+01 -7.160466194152832031e+00 -8.295634984970092773e-01 1.477570652961730957e+00 1.944021284580230713e-01 1.755025684833526611e-01
1.696000000000000000e+03 1.032272911071777344e+01 -9.280087471008300781e+00 -1.088735312223434448e-01 2.306932926177978516e+00 6.594178080558776855e-01 6.687911748886108398e-01
1.697000000000000000e+03 1.565053367614746094e+01 -7.718906402587890625e+00 -3.906842768192291260e-01 -1.356430798768997192e-01 -1.578982025384902954e-01 8.275547623634338379e-01
1.698000000000000000e+03 7.910162448883056641e+00 6.672916889190673828e+00 -2.730570733547210693e-01 -1.825698763132095337e-01 -1.366880834102630615e-01 3.762627542018890381e-01
1.699000000000000000e+03 2.164418983459472656e+01 -2.136711031198501587e-01 -6.129569411277770996e-01 7.833325862884521484e-02 -1.603871136903762817e-01 4.647270739078521729e-01
1.700000000000000000e+03 1.139667701721191406e+01 3.441047906875610352e+00 -4.510583877563476562e-01 -2.665899097919464111e-01 -2.152944952249526978e-01 3.127953410148620605e-01
1.701000000000000000e+03 2.199080467224121094e+01 -9.666482210159301758e-01 -6.752452850341796875e-01 1.032538488507270813e-01 -1.715974360704421997e-01 4.432699382305145264e-01
1.702000000000000000e+03 2.086104393005371094e+01 -3.657438755035400391e-01 -6.226362586021423340e-01 -1.115213036537170410e-01 -2.202472686767578125e-01 5.079054832458496094e-01
1.703000000000000000e+03 1.834064483642578125e+01 1.939155459403991699e+00 -3.891504406929016113e-01 -5.569836497306823730e-01 -2.838402092456817627e-01 6.190207004547119141e-01
1.704000000000000000e+03 4.016670227050781250e+01 -1.489082241058349609e+01 -1.183911204338073730e+00 7.186499983072280884e-02 -3.336138725280761719e-01 -2.055339217185974121e-01
1.705000000000000000e+03 3.907944107055664062e+01 1.620574951171875000e+01 4.625871479511260986e-01 1.135832667350769043e+00 4.795259535312652588e-01 3.538831174373626709e-01
1.706000000000000000e+03 3.959979248046875000e+01 1.510114002227783203e+01 5.090039968490600586e-01 1.243700504302978516e+00 5.258113741874694824e-01 4.382845461368560791e-01
1.707000000000000000e+03 1.056396579742431641e+01 1.102617168426513672e+01 -1.307685673236846924e-02 -3.403306901454925537e-01 -1.060222610831260681e-01 6.055927276611328125e-01
1.708000000000000000e+03 8.931432723999023438e+00 -1.093367099761962891e+01 1.487670838832855225e-01 4.966349124908447266e+00 1.534534931182861328e+00 -3.104314804077148438e-01
1.709000000000000000e+03 5.818259811401367188e+01 8.252436637878417969e+00 3.493148386478424072e-01 2.483846426010131836e+00 8.499483466148376465e-01 -3.818579018115997314e-01
1.710000000000000000e+03 4.133402252197265625e+01 -1.455591011047363281e+01 -1.202568650245666504e+00 8.311344683170318604e-02 -3.358365595340728760e-01 -2.149085253477096558e-01
1.711000000000000000e+03 3.428244018554687500e+01 -1.569919681549072266e+01 -1.131318449974060059e+00 -4.535211995244026184e-02 -3.530011475086212158e-01 -2.573698461055755615e-01
1.712000000000000000e+03 6.004188156127929688e+01 -5.923567295074462891e+00 -2.634408950805664062e+00 -1.203316301107406616e-01 -8.264221549034118652e-01 -5.022451281547546387e-01
1.713000000000000000e+03 5.848510360717773438e+01 -3.632409811019897461e+00 -1.457706809043884277e+00 2.742835283279418945e-01 -3.550269603729248047e-01 -2.062814086675643921e-01
1.714000000000000000e+03 5.146060180664062500e+01 -1.164982128143310547e+01 -1.729242205619812012e+00 -6.407018750905990601e-02 -5.379937291145324707e-01 -5.734476447105407715e-01
1.715000000000000000e+03 4.957709884643554688e+01 -1.124140930175781250e+01 -1.582996129989624023e+00 6.330504268407821655e-02 -4.559073150157928467e-01 -3.942664563655853271e-01
1.716000000000000000e+03 3.690544509887695312e+01 -1.659140014648437500e+01 -1.274635434150695801e+00 2.145982533693313599e-02 -3.759526908397674561e-01 -1.983104944229125977e-01
1.717000000000000000e+03 4.840861129760742188e+01 -1.179643535614013672e+01 -1.499469518661499023e+00 7.433068007230758667e-02 -4.275416433811187744e-01 -3.684563338756561279e-01
1.718000000000000000e+03 4.788891983032226562e+01 -1.338706111907958984e+01 -1.446849584579467773e+00 9.104000404477119446e-03 -4.313236773014068604e-01 -4.353061318397521973e-01
1.719000000000000000e+03 1.072127342224121094e+01 3.924200296401977539e+00 -4.339537024497985840e-01 -2.338112890720367432e-01 -2.003294974565505981e-01 3.025195002555847168e-01
1.720000000000000000e+03 6.452399730682373047e+00 -1.508889484405517578e+01 1.850435614585876465e+00 2.073072195053100586e+00 1.177052378654479980e+00 -1.838470995426177979e-01
1.721000000000000000e+03 4.547255706787109375e+01 -1.438142776489257812e+01 -1.313838839530944824e+00 4.421068821102380753e-03 -3.928253352642059326e-01 -3.486429154872894287e-01
1.722000000000000000e+03 4.250800323486328125e+01 -1.417847824096679688e+01 -1.228972792625427246e+00 7.143864035606384277e-02 -3.472602367401123047e-01 -2.281385362148284912e-01
1.723000000000000000e+03 1.007817554473876953e+01 5.047481536865234375e+00 -4.299735128879547119e-01 -2.085249871015548706e-01 -1.915495395660400391e-01 3.341466486454010010e-01
1.724000000000000000e+03 5.005771636962890625e+01 -9.664188385009765625e+00 -1.611878156661987305e+00 1.451178789138793945e-01 -4.400280714035034180e-01 -2.840870320796966553e-01
1.725000000000000000e+03 4.430463409423828125e+01 -1.224499416351318359e+01 -1.252778887748718262e+00 1.169826984405517578e-01 -3.407388627529144287e-01 -2.079884707927703857e-01
1.726000000000000000e+03 5.409291458129882812e+01 -8.767117500305175781e+00 -2.083964347839355469e+00 5.271755531430244446e-02 -6.093739867210388184e-01 -4.867540299892425537e-01
1.727000000000000000e+03 3.815097045898437500e+01 -1.643871688842773438e+01 -1.248826503753662109e+00 4.665965586900711060e-02 -3.606500625610351562e-01 -2.025099992752075195e-01
1.728000000000000000e+03 6.593081665039062500e+01 -2.425155258178710938e+01 -4.218082129955291748e-01 5.964364528656005859e+00 1.662766933441162109e+00 1.208266854286193848e+00
1.729000000000000000e+03 3.015703201293945312e+01 -1.662957572937011719e+01 -1.156749844551086426e+00 -8.016174286603927612e-02 -3.710734546184539795e-01 -7.780421972274780273e-01
1.730000000000000000e+03 3.194389152526855469e+01 -1.633094787597656250e+01 -1.284465551376342773e+00 -9.549292922019958496e-02 -4.139875471591949463e-01 -4.545167982578277588e-01
1.731000000000000000e+03 1.696775627136230469e+01 4.083633899688720703e+00 -6.200919151306152344e-01 -7.109484672546386719e-01 -3.993121087551116943e-01 5.652699470520019531e-01
1.732000000000000000e+03 1.542936801910400391e+01 3.778069019317626953e+00 -4.875462651252746582e-01 -7.390553355216979980e-01 -3.679804801940917969e-01 4.780632853507995605e-01
1.733000000000000000e+03 6.076565170288085938e+01 -2.572551727294921875e+01 -4.102382808923721313e-02 1.828061223030090332e+00 5.361112356185913086e-01 7.767541408538818359e-01
1.734000000000000000e+03 6.265384292602539062e+01 -2.815046501159667969e+01 -1.642997711896896362e-01 3.449367284774780273e+00 9.855202436447143555e-01 9.123212695121765137e-01
1.735000000000000000e+03 2.923835372924804688e+01 -1.401661205291748047e+01 4.163492321968078613e-01 5.202645659446716309e-01 2.809841334819793701e-01 7.231673598289489746e-01
1.736000000000000000e+03 3.311399078369140625e+01 -1.689175415039062500e+01 -1.497998952865600586e+00 -3.111653029918670654e-02 -4.587346315383911133e-01 -3.351432383060455322e-01
1.737000000000000000e+03 1.735376167297363281e+01 -1.150586795806884766e+01 -6.559297442436218262e-02 -2.769164144992828369e-01 -1.027528122067451477e-01 3.182248473167419434e-01
1.738000000000000000e+03 5.253609085083007812e+01 4.349501132965087891e+00 9.617523849010467529e-02 5.466296672821044922e-01 1.928414702415466309e-01 4.134984314441680908e-01
1.739000000000000000e+03 7.550260162353515625e+01 1.395082759857177734e+01 4.568720236420631409e-02 7.304519653320312500e+00 2.205061912536621094e+00 -4.918419718742370605e-01
1.740000000000000000e+03 7.548009490966796875e+01 -6.404064595699310303e-02 -6.600893139839172363e-01 8.755126953125000000e+00 2.428511381149291992e+00 4.590309858322143555e-01
1.741000000000000000e+03 7.420331573486328125e+01 -1.066558265686035156e+01 1.573959946632385254e+00 9.347953796386718750e+00 3.276573896408081055e+00 9.028007984161376953e-01
1.742000000000000000e+03 7.557975769042968750e+01 -1.528994655609130859e+01 6.482223868370056152e-01 8.312304496765136719e+00 2.688158035278320312e+00 -8.776908516883850098e-01
1.743000000000000000e+03 7.708049774169921875e+01 -6.983309745788574219e+00 6.317456066608428955e-02 7.595159530639648438e+00 2.297500133514404297e+00 1.274556875228881836e+00
1.744000000000000000e+03 7.593010711669921875e+01 -7.026057243347167969e+00 2.392611801624298096e-01 8.266815185546875000e+00 2.551822900772094727e+00 1.555082321166992188e+00
1.745000000000000000e+03 7.590824890136718750e+01 -4.325654983520507812e+00 -3.173330426216125488e-01 8.660806655883789062e+00 2.503042221069335938e+00 1.378807663917541504e+00
1.746000000000000000e+03 7.372830200195312500e+01 -1.171947097778320312e+01 1.966154932975769043e+00 9.992290496826171875e+00 3.587533473968505859e+00 1.068413257598876953e-01
1.747000000000000000e+03 7.680628204345703125e+01 -1.227480506896972656e+01 7.276553511619567871e-01 7.005948066711425781e+00 2.320080995559692383e+00 -7.366119418293237686e-03
1.748000000000000000e+03 7.441080474853515625e+01 -7.821828842163085938e+00 7.176826000213623047e-01 9.325813293457031250e+00 3.013048648834228516e+00 1.532255411148071289e+00
1.749000000000000000e+03 7.579372406005859375e+01 -2.952958345413208008e+00 -5.651260614395141602e-01 8.865860939025878906e+00 2.490220546722412109e+00 1.156931042671203613e+00
1.750000000000000000e+03 7.669869232177734375e+01 1.452141761779785156e+00 -3.384726047515869141e-01 8.747693061828613281e+00 2.522766113281250000e+00 2.426420897245407104e-01
1.751000000000000000e+03 7.533290863037109375e+01 1.430737495422363281e+00 -5.417236685752868652e-01 8.557443618774414062e+00 2.404716014862060547e+00 8.484612405300140381e-02
1.752000000000000000e+03 7.535636901855468750e+01 7.135022640228271484e+00 -1.268281787633895874e-01 7.912401199340820312e+00 2.335671901702880859e+00 -4.872948527336120605e-01
1.753000000000000000e+03 7.569113159179687500e+01 -2.200415992736816406e+01 -2.835263609886169434e-01 8.437973976135253906e+00 2.446334362030029297e+00 -1.007802367210388184e+00
1.754000000000000000e+03 7.314426422119140625e+01 3.283263778686523438e+01 7.170414924621582031e-02 5.882312297821044922e+00 1.786204814910888672e+00 -1.943347752094268799e-01
1.755000000000000000e+03 7.476988983154296875e+01 3.094063758850097656e+01 4.620969668030738831e-02 6.193966865539550781e+00 1.872052907943725586e+00 -1.814501434564590454e-01
1.756000000000000000e+03 7.382989501953125000e+01 2.952075004577636719e+00 -6.607376337051391602e-01 8.085342407226562500e+00 2.227381467819213867e+00 -4.090049862861633301e-01
1.757000000000000000e+03 7.529295349121093750e+01 2.903544902801513672e+00 -4.539097249507904053e-01 8.395342826843261719e+00 2.382429838180541992e+00 -8.711671829223632812e-02
1.758000000000000000e+03 7.404683685302734375e+01 -1.997602272033691406e+01 -2.990155220031738281e-01 9.086322784423828125e+00 2.636192083358764648e+00 -1.155478358268737793e+00
1.759000000000000000e+03 7.669186401367187500e+01 -1.783072090148925781e+01 1.854412816464900970e-02 7.650864124298095703e+00 2.300822496414184570e+00 -1.143246173858642578e+00
1.760000000000000000e+03 7.675152587890625000e+01 8.450381278991699219e+00 -4.505304992198944092e-02 8.206179618835449219e+00 2.448338031768798828e+00 -3.810486495494842529e-01
1.761000000000000000e+03 7.545462036132812500e+01 9.850684165954589844e+00 -3.379299119114875793e-02 7.660657882690429688e+00 2.288059473037719727e+00 -5.357600450515747070e-01
1.762000000000000000e+03 7.679535675048828125e+01 1.671659469604492188e+01 2.199158817529678345e-02 7.377702236175537109e+00 2.219908237457275391e+00 -3.311468362808227539e-01
1.763000000000000000e+03 7.548780059814453125e+01 1.121517181396484375e+01 8.458569645881652832e-03 7.535729885101318359e+00 2.263256549835205078e+00 -5.219918489456176758e-01
1.764000000000000000e+03 7.415137481689453125e+01 9.910073280334472656e+00 -2.988258190453052521e-02 7.247917652130126953e+00 2.165410518646240234e+00 -6.451989412307739258e-01
1.765000000000000000e+03 7.547308349609375000e+01 1.806101608276367188e+01 5.152018740773200989e-02 6.966259002685546875e+00 2.105333805084228516e+00 -4.092729985713958740e-01
1.766000000000000000e+03 7.415210723876953125e+01 1.799865913391113281e+01 8.828999847173690796e-02 6.667723655700683594e+00 2.026804208755493164e+00 -4.915003180503845215e-01
1.767000000000000000e+03 7.544931030273437500e+01 2.073815155029296875e+01 4.854659736156463623e-02 6.791747570037841797e+00 2.052088260650634766e+00 -3.515280485153198242e-01
1.768000000000000000e+03 7.543649291992187500e+01 1.940815162658691406e+01 6.720432639122009277e-02 6.878678321838378906e+00 2.083764791488647461e+00 -3.794195055961608887e-01
1.769000000000000000e+03 7.459317779541015625e+01 -3.016124153137207031e+01 -2.344682663679122925e-01 8.219993591308593750e+00 2.395657777786254883e+00 -2.096430063247680664e-01
1.770000000000000000e+03 7.443897247314453125e+01 -2.302551078796386719e+01 -4.146188497543334961e-01 8.593236923217773438e+00 2.453585386276245117e+00 -8.922504186630249023e-01
1.771000000000000000e+03 7.543226623535156250e+01 -2.577180862426757812e+01 -3.160492479801177979e-01 8.512866020202636719e+00 2.459044933319091797e+00 -6.031236648559570312e-01
1.772000000000000000e+03 7.680284881591796875e+01 -2.467169380187988281e+01 -1.962187439203262329e-01 8.498847007751464844e+00 2.490788459777832031e+00 -6.488788723945617676e-01
1.773000000000000000e+03 7.521959686279296875e+01 -2.714103317260742188e+01 -2.935527265071868896e-01 8.454689025878906250e+00 2.448340892791748047e+00 -4.585550725460052490e-01
1.774000000000000000e+03 7.331513977050781250e+01 2.777180290222167969e+01 7.756753265857696533e-02 6.040059566497802734e+00 1.835288166999816895e+00 -3.023675978183746338e-01
1.775000000000000000e+03 7.357424926757812500e+01 2.457231712341308594e+01 8.464024215936660767e-02 6.238424777984619141e+00 1.896919488906860352e+00 -3.650052547454833984e-01
1.776000000000000000e+03 7.641085052490234375e+01 2.638513183593750000e+01 3.137477114796638489e-02 6.649997711181640625e+00 2.004411697387695312e+00 -1.921702772378921509e-01
1.777000000000000000e+03 7.491598510742187500e+01 2.627797508239746094e+01 5.127730593085289001e-02 6.399214267730712891e+00 1.935147404670715332e+00 -2.607976496219635010e-01
1.778000000000000000e+03 7.631504058837890625e+01 2.932985687255859375e+01 2.164994366466999054e-02 6.506463527679443359e+00 1.958434104919433594e+00 -1.559231877326965332e-01
1.779000000000000000e+03 7.480413055419921875e+01 2.936524009704589844e+01 4.091330245137214661e-02 6.243435859680175781e+00 1.885304689407348633e+00 -2.124786525964736938e-01
1.780000000000000000e+03 7.484073638916015625e+01 2.780455589294433594e+01 5.082174763083457947e-02 6.322624683380126953e+00 1.912033915519714355e+00 -2.408165931701660156e-01
1.781000000000000000e+03 7.295938873291015625e+01 -2.975025939941406250e+01 -3.414211869239807129e-01 7.879550933837890625e+00 2.261438846588134766e+00 -1.464965939521789551e-01
1.782000000000000000e+03 7.580802917480468750e+01 -3.689493942260742188e+01 -9.006483852863311768e-02 8.643959045410156250e+00 2.566168308258056641e+00 -8.857331424951553345e-02
1.783000000000000000e+03 7.491702270507812500e+01 -2.858700370788574219e+01 -2.814521491527557373e-01 8.364859580993652344e+00 2.425022363662719727e+00 -3.259097337722778320e-01
1.784000000000000000e+03 7.569412231445312500e+01 -3.499834060668945312e+01 -7.389177381992340088e-02 8.441323280334472656e+00 2.510229349136352539e+00 -4.262296482920646667e-02
1.785000000000000000e+03 7.411240386962890625e+01 -3.450705337524414062e+01 -1.299301385879516602e-01 8.084385871887207031e+00 2.386336565017700195e+00 -4.555441811680793762e-02
1.786000000000000000e+03 7.521005249023437500e+01 3.402920150756835938e+01 3.148902207612991333e-02 6.207539081573486328e+00 1.871708393096923828e+00 -1.074167713522911072e-01
1.787000000000000000e+03 1.573159503936767578e+01 -1.011338710784912109e+01 7.569183409214019775e-02 -1.332608163356781006e-01 -1.727069169282913208e-02 4.862767755985260010e-01
1.788000000000000000e+03 1.510036277770996094e+01 -9.316141128540039062e+00 2.182079665362834930e-02 -1.701557449996471405e-02 1.441566622816026211e-03 6.709563732147216797e-01
1.789000000000000000e+03 1.498117637634277344e+01 -2.737873649597167969e+01 4.196095466613769531e-01 1.456555962562561035e+00 5.628496408462524414e-01 -6.956160664558410645e-01
1.790000000000000000e+03 1.774888801574707031e+01 -2.922970581054687500e+01 4.523160457611083984e-01 1.214081406593322754e+00 4.999192357063293457e-01 -6.950745582580566406e-01
1.791000000000000000e+03 3.000058650970458984e+00 -1.760190963745117188e+01 2.660810649394989014e-01 -2.523228168487548828e+00 -6.771441698074340820e-01 4.220536947250366211e-01
1.792000000000000000e+03 4.438249111175537109e+00 -1.494448852539062500e+01 1.113141536712646484e+00 -6.369811892509460449e-01 1.428481042385101318e-01 -3.642158508300781250e-01
1.793000000000000000e+03 4.470036506652832031e+00 2.231968307495117188e+01 3.965688869357109070e-02 -8.387441635131835938e-01 -2.397261857986450195e-01 1.082421764731407166e-01
1.794000000000000000e+03 3.209914445877075195e+00 2.076650619506835938e+01 2.910333871841430664e-02 -9.023895859718322754e-01 -2.619858682155609131e-01 1.016917526721954346e-01
1.795000000000000000e+03 5.381909847259521484e+00 -1.589660072326660156e+01 1.246262550354003906e+00 4.091112315654754639e-01 4.966121315956115723e-01 -2.045860141515731812e-02
1.796000000000000000e+03 5.223234176635742188e+00 -1.821393013000488281e+01 5.906278491020202637e-01 1.987943239510059357e-02 1.831521838903427124e-01 5.256103873252868652e-01
1.797000000000000000e+03 4.567435264587402344e+00 1.794353294372558594e+01 7.757699489593505859e-02 -7.208420038223266602e-01 -1.929794996976852417e-01 2.104988694190979004e-01
1.798000000000000000e+03 4.541003227233886719e+00 1.946382522583007812e+01 6.673852354288101196e-02 -7.692600488662719727e-01 -2.107564657926559448e-01 1.635033041238784790e-01
1.799000000000000000e+03 4.480149269104003906e+00 1.637031745910644531e+01 7.447063922882080078e-02 -6.727978587150573730e-01 -1.794981658458709717e-01 2.470034360885620117e-01
1.800000000000000000e+03 4.639372348785400391e+00 -2.103225326538085938e+01 5.439585074782371521e-02 -7.474339604377746582e-01 -2.079114317893981934e-01 7.504795789718627930e-01
1.801000000000000000e+03 6.955519199371337891e+00 -1.849437904357910156e+01 6.114817261695861816e-01 2.142305374145507812e+00 8.261361718177795410e-01 1.496017724275588989e-01
1.802000000000000000e+03 3.117372512817382812e+00 1.487723541259765625e+01 3.108121268451213837e-02 -6.620939373970031738e-01 -1.893038153648376465e-01 2.198666334152221680e-01
1.803000000000000000e+03 6.943039417266845703e+00 2.301414299011230469e+01 6.603986769914627075e-02 -6.598739624023437500e-01 -1.781502217054367065e-01 1.390272974967956543e-01
1.804000000000000000e+03 4.342655181884765625e+00 2.506007575988769531e+01 1.788864284753799438e-02 -9.024982452392578125e-01 -2.653828859329223633e-01 7.793799042701721191e-02
1.805000000000000000e+03 4.383710384368896484e+00 2.989816856384277344e+01 7.466451730579137802e-03 -9.764992594718933105e-01 -2.907098531723022461e-01 5.152654647827148438e-02
1.806000000000000000e+03 4.928594112396240234e+00 -2.814464378356933594e+01 -1.811378002166748047e-01 -7.637187242507934570e-01 -2.834569513797760010e-01 5.297611951828002930e-01
1.807000000000000000e+03 3.375888347625732422e+00 -2.422398185729980469e+01 -1.207293272018432617e-01 -1.683172106742858887e+00 -5.411704182624816895e-01 6.680225133895874023e-01
1.808000000000000000e+03 4.623106002807617188e+00 -2.259366035461425781e+01 -1.115604192018508911e-01 -8.305229544639587402e-01 -2.826250195503234863e-01 7.435791492462158203e-01
1.809000000000000000e+03 4.227204322814941406e+00 1.330060482025146484e+01 3.454964980483055115e-02 -5.381885766983032227e-01 -1.510916799306869507e-01 3.091319799423217773e-01
1.810000000000000000e+03 4.399900913238525391e+00 2.370114517211914062e+01 2.972216159105300903e-02 -8.672749400138854980e-01 -2.512658238410949707e-01 9.088964760303497314e-02
1.811000000000000000e+03 4.130113124847412109e+00 2.764461898803710938e+01 1.170391589403152466e-02 -9.654042720794677734e-01 -2.861101031303405762e-01 5.594860762357711792e-02
1.812000000000000000e+03 6.100138187408447266e+00 -2.521662902832031250e+01 -1.942291557788848877e-01 -8.541551977396011353e-02 -8.389340341091156006e-02 5.644438862800598145e-01
1.813000000000000000e+03 4.686277866363525391e+00 -2.402800750732421875e+01 -1.347264647483825684e-01 -8.325414657592773438e-01 -2.901803851127624512e-01 7.006821036338806152e-01
1.814000000000000000e+03 3.916980266571044922e+00 -1.023853778839111328e+01 1.711994260549545288e-01 -7.018087506294250488e-01 -1.591828018426895142e-01 -1.521751284599304199e+00
1.815000000000000000e+03 6.872912406921386719e+00 -1.323266696929931641e+01 2.156735897064208984e+00 3.015676736831665039e+00 1.551723718643188477e+00 -1.022641658782958984e+00
1.816000000000000000e+03 6.575053215026855469e+00 1.228012180328369141e+01 3.406712785363197327e-02 -4.249280095100402832e-01 -1.172582656145095825e-01 4.517298936843872070e-01
1.817000000000000000e+03 3.927995204925537109e+00 -3.124658393859863281e+01 -1.007090806961059570e-01 -1.075209379196166992e+00 -3.527755439281463623e-01 3.806671202182769775e-01
1.818000000000000000e+03 5.115723609924316406e+00 -2.951852798461914062e+01 -1.678360551595687866e-01 -7.281039953231811523e-01 -2.687820196151733398e-01 4.709190130233764648e-01
1.819000000000000000e+03 4.666973590850830078e+00 3.212868881225585938e+01 5.364363081753253937e-03 -9.822708368301391602e-01 -2.930719554424285889e-01 4.868844524025917053e-02
1.820000000000000000e+03 6.213776111602783203e+00 3.583155441284179688e+01 2.607508003711700439e-02 -9.002434611320495605e-01 -2.622505128383636475e-01 4.899733141064643860e-02
1.821000000000000000e+03 3.965905427932739258e+00 1.068863105773925781e+01 -2.328045666217803955e-02 -3.867168426513671875e-01 -1.229991912841796875e-01 3.047217428684234619e-01
1.822000000000000000e+03 5.945776939392089844e+00 -1.381617927551269531e+01 1.685737490653991699e+00 1.119435191154479980e+00 8.415517807006835938e-01 -8.895919919013977051e-01
1.823000000000000000e+03 4.901746749877929688e+00 -1.373056507110595703e+01 1.263641476631164551e+00 -2.723322510719299316e-01 2.973927557468414307e-01 -6.695801019668579102e-01
1.824000000000000000e+03 5.785761356353759766e+00 -5.987714290618896484e+00 -6.715989112854003906e-01 4.927196204662322998e-01 -5.366378277540206909e-02 -1.168880224227905273e+00
1.825000000000000000e+03 5.349494457244873047e+00 -3.088808441162109375e+01 -1.756207197904586792e-01 -6.536611318588256836e-01 -2.487845718860626221e-01 4.190370440483093262e-01
1.826000000000000000e+03 4.075952529907226562e+00 2.881486892700195312e+01 1.670790603384375572e-03 -9.969135522842407227e-01 -2.985728383064270020e-01 5.425997078418731689e-02
1.827000000000000000e+03 5.042844772338867188e+00 3.402262115478515625e+01 1.443457882851362228e-02 -9.588416218757629395e-01 -2.833220958709716797e-01 4.603444784879684448e-02
1.828000000000000000e+03 4.026220798492431641e+00 3.420324325561523438e+01 1.751835457980632782e-02 -1.065952658653259277e+00 -3.145302832126617432e-01 4.226819425821304321e-02
1.829000000000000000e+03 5.341172695159912109e+00 3.081166458129882812e+01 9.446308016777038574e-03 -9.243381619453430176e-01 -2.744675576686859131e-01 6.032092869281768799e-02
1.830000000000000000e+03 4.193650245666503906e+00 8.339249610900878906e+00 -7.786703109741210938e-02 -2.531211972236633301e-01 -9.929646551609039307e-02 2.772485315799713135e-01
1.831000000000000000e+03 1.423600006103515625e+01 -2.649674415588378906e+01 4.263231456279754639e-01 1.517025232315063477e+00 5.830045342445373535e-01 -7.751894593238830566e-01
1.832000000000000000e+03 2.774702072143554688e+00 5.808752536773681641e+00 -5.357583612203598022e-02 -1.301195919513702393e-01 -5.510862916707992554e-02 1.238142549991607666e-01
1.833000000000000000e+03 4.994565486907958984e+00 4.516020298004150391e+00 -1.460946798324584961e-01 -7.962295413017272949e-02 -6.771529465913772583e-02 1.531595736742019653e-01
1.834000000000000000e+03 3.404871463775634766e+00 -4.368928909301757812e+00 -3.823107481002807617e-01 -2.960617840290069580e-01 -2.035117596387863159e-01 -8.722852468490600586e-01
1.835000000000000000e+03 6.511816406250000000e+01 -2.521993255615234375e+01 -3.316157758235931396e-01 5.195959568023681641e+00 1.459303140640258789e+00 1.225546360015869141e+00
1.836000000000000000e+03 2.963411569595336914e+00 -5.089566230773925781e+00 -2.452645152807235718e-01 -5.784761905670166016e-01 -2.471222132444381714e-01 -9.339069128036499023e-01
1.837000000000000000e+03 5.517075729370117188e+01 -8.100602149963378906e+00 -2.268353462219238281e+00 6.901868432760238647e-02 -6.598004102706909180e-01 -4.799821376800537109e-01
1.838000000000000000e+03 5.817202377319335938e+01 -7.512051105499267578e+00 -2.849828004837036133e+00 -1.364919543266296387e-01 -8.958960175514221191e-01 -7.840952873229980469e-01
1.839000000000000000e+03 5.590753936767578125e+01 -3.310797500610351562e+01 3.635761141777038574e-01 8.016484379768371582e-01 3.495673835277557373e-01 2.222959846258163452e-01
1.840000000000000000e+03 5.299653625488281250e+01 -9.413519859313964844e+00 -1.962330937385559082e+00 5.931307747960090637e-02 -5.709053277969360352e-01 -4.676523804664611816e-01
1.841000000000000000e+03 4.918552398681640625e+01 -3.857867813110351562e+01 7.629075050354003906e-01 -3.459664434194564819e-02 2.184932678937911987e-01 -9.346222132444381714e-02
1.842000000000000000e+03 5.191155242919921875e+01 -3.307548904418945312e+01 2.285928726196289062e-01 4.537286981940269470e-02 8.218972384929656982e-02 -9.879860281944274902e-02
1.843000000000000000e+03 7.234056949615478516e+00 -1.641947937011718750e+01 1.489739775657653809e+00 3.050611734390258789e+00 1.362105488777160645e+00 -1.778023242950439453e-01
1.844000000000000000e+03 6.201127624511718750e+01 -3.195676803588867188e+00 -1.082346081733703613e+00 4.999146759510040283e-01 -1.747294366359710693e-01 -9.620745778083801270e-01
1.845000000000000000e+03 4.909107589721679688e+01 2.744261503219604492e+00 -1.355223804712295532e-01 1.479006558656692505e-01 3.713480196893215179e-03 3.286658823490142822e-01
1.846000000000000000e+03 4.804433822631835938e+01 3.593018770217895508e+00 -8.519639074802398682e-02 8.604934066534042358e-02 2.558845153544098139e-04 2.568430900573730469e-01
1.847000000000000000e+03 9.119345664978027344e+00 -2.101065826416015625e+01 2.179638892412185669e-01 2.683229923248291016e+00 8.703581094741821289e-01 -4.895899593830108643e-01
1.848000000000000000e+03 2.061535072326660156e+01 -3.206293487548828125e+01 3.066526949405670166e-01 9.069166779518127441e-01 3.640708029270172119e-01 -5.509778857231140137e-01
1.849000000000000000e+03 1.934456253051757812e+01 -3.407802581787109375e+01 3.818326815962791443e-02 9.536305665969848633e-01 2.975441515445709229e-01 -3.904431462287902832e-01
1.850000000000000000e+03 1.312719821929931641e+01 4.298295497894287109e+00 -5.327115058898925781e-01 -4.968711137771606445e-01 -3.088747859001159668e-01 3.965979814529418945e-01
1.851000000000000000e+03 5.347225952148437500e+01 4.996362209320068359e+00 1.516617685556411743e-01 7.992600798606872559e-01 2.852765619754791260e-01 3.844966292381286621e-01
1.852000000000000000e+03 5.579449462890625000e+01 3.488322734832763672e+00 -4.265858605504035950e-02 1.118143200874328613e+00 3.226453959941864014e-01 8.957041054964065552e-02
1.853000000000000000e+03 1.373900890350341797e+01 -9.361530303955078125e+00 2.773620784282684326e-01 3.090914189815521240e-01 1.759360432624816895e-01 7.307882308959960938e-01
1.854000000000000000e+03 1.252133846282958984e+01 -9.026491165161132812e+00 1.611758470535278320e-01 9.898290038108825684e-01 3.453014492988586426e-01 1.021977543830871582e+00
1.855000000000000000e+03 4.274258041381835938e+01 6.744531154632568359e+00 -2.597647607326507568e-01 6.964416503906250000e-01 1.310030668973922729e-01 1.505264490842819214e-01
1.856000000000000000e+03 4.230947494506835938e+01 4.388851165771484375e+00 -3.286942839622497559e-01 5.566458106040954590e-01 6.838545948266983032e-02 2.168120741844177246e-01
1.857000000000000000e+03 1.038552379608154297e+01 1.211988067626953125e+01 1.094273403286933899e-01 -3.910913467407226562e-01 -8.449920266866683960e-02 5.896013975143432617e-01
1.858000000000000000e+03 1.137375164031982422e+01 1.334073543548583984e+01 2.837510108947753906e-01 -3.562555909156799316e-01 -2.175137400627136230e-02 5.287335515022277832e-01
1.859000000000000000e+03 5.849111175537109375e+01 1.126528072357177734e+01 5.511346459388732910e-01 3.158591985702514648e+00 1.112918019294738770e+00 -4.889184832572937012e-01
1.860000000000000000e+03 4.128202056884765625e+01 8.238200187683105469e+00 -1.799033880233764648e-01 9.905981421470642090e-01 2.432084232568740845e-01 3.037921190261840820e-01
1.861000000000000000e+03 6.287584304809570312e+01 -2.614209938049316406e+01 -1.790553480386734009e-01 3.518329381942749023e+00 1.001782178878784180e+00 1.061107039451599121e+00
1.862000000000000000e+03 5.794281768798828125e+01 -3.141169357299804688e+01 1.588502079248428345e-01 1.087682723999023438e+00 3.739598691463470459e-01 4.339592456817626953e-01
1.863000000000000000e+03 5.828810119628906250e+01 -2.946266746520996094e+01 -4.022456705570220947e-03 1.116085648536682129e+00 3.336189389228820801e-01 4.457874596118927002e-01
1.864000000000000000e+03 4.462839889526367188e+01 -3.956673431396484375e+01 6.922751665115356445e-01 -1.901896893978118896e-01 1.506256461143493652e-01 -8.288963884115219116e-02
1.865000000000000000e+03 4.640883636474609375e+01 -3.730331420898437500e+01 6.094690561294555664e-01 -1.790313422679901123e-01 1.291313171386718750e-01 -1.660449057817459106e-01
1.866000000000000000e+03 4.466955184936523438e+01 2.163830566406250000e+01 4.303921163082122803e-01 1.148827314376831055e+00 4.737658202648162842e-01 5.491873621940612793e-01
1.867000000000000000e+03 3.800062561035156250e+01 -3.595777130126953125e+01 4.460351467132568359e-01 -1.120104221627116203e-03 1.334745138883590698e-01 -8.881162852048873901e-02
1.868000000000000000e+03 3.705970001220703125e+01 -4.130798721313476562e+01 5.136858224868774414e-01 7.727663964033126831e-03 1.564240455627441406e-01 -2.477574162185192108e-02
1.869000000000000000e+03 2.730980682373046875e+01 1.396440601348876953e+01 -3.987823426723480225e-01 -5.807755142450332642e-02 -1.370579600334167480e-01 4.405151903629302979e-01
1.870000000000000000e+03 5.240427398681640625e+01 -3.461975860595703125e+01 4.933591187000274658e-01 1.959601044654846191e-01 2.067957669496536255e-01 -3.633103519678115845e-02
1.871000000000000000e+03 5.566079330444335938e+01 -3.627730560302734375e+01 6.431920528411865234e-01 9.982600212097167969e-01 4.924356341361999512e-01 1.776458024978637695e-01
1.872000000000000000e+03 6.461655426025390625e+01 -4.668247222900390625e+00 -1.211561083793640137e+00 5.490704774856567383e-01 -1.987472027540206909e-01 -2.516946792602539062e+00
1.873000000000000000e+03 7.117053222656250000e+01 -9.178744316101074219e+00 2.362187623977661133e+00 1.267700672149658203e+01 4.511758327484130859e+00 1.455343484878540039e+00
1.874000000000000000e+03 7.088801574707031250e+01 -7.978837013244628906e+00 1.113098621368408203e+00 1.346875000000000000e+01 4.374554634094238281e+00 1.207910776138305664e+00
1.875000000000000000e+03 4.981011962890625000e+01 -3.646833419799804688e+01 6.338827610015869141e-01 -4.421886056661605835e-02 1.768991649150848389e-01 -1.120823845267295837e-01
1.876000000000000000e+03 5.255279922485351562e+01 -3.661906433105468750e+01 6.963094472885131836e-01 2.890346944332122803e-01 2.956032454967498779e-01 -1.305494457483291626e-02
1.877000000000000000e+03 7.249973297119140625e+01 -1.788823890686035156e+01 1.088048368692398071e-01 1.016373062133789062e+01 3.081760406494140625e+00 -7.544031143188476562e-01
1.878000000000000000e+03 7.160530853271484375e+01 -1.529915237426757812e+01 1.045109033584594727e+00 1.198196601867675781e+01 3.908122539520263672e+00 -4.292263686656951904e-01
1.879000000000000000e+03 4.361319732666015625e+01 5.508098602294921875e+00 -2.696975469589233398e-01 5.101872682571411133e-01 7.214690744876861572e-02 9.400676190853118896e-02
1.880000000000000000e+03 6.941883850097656250e+01 -5.742752552032470703e+00 -1.931887149810791016e+00 1.230844020843505859e+01 3.112965822219848633e+00 -9.790593981742858887e-01
1.881000000000000000e+03 6.763915252685546875e+01 -3.111625909805297852e+00 -2.315681695938110352e+00 7.238583087921142578e+00 1.476870417594909668e+00 -2.830816507339477539e+00
1.882000000000000000e+03 1.083820343017578125e+01 -2.345761489868164062e+01 1.999551355838775635e-01 2.120925188064575195e+00 6.962640881538391113e-01 -6.566585898399353027e-01
1.883000000000000000e+03 5.895728683471679688e+01 1.436551761627197266e+01 7.090194225311279297e-01 3.349681615829467773e+00 1.217610359191894531e+00 -6.275421977043151855e-01
1.884000000000000000e+03 6.880816650390625000e+01 -1.771533584594726562e+01 3.175005316734313965e-01 1.158175754547119141e+01 3.569777250289916992e+00 1.479634881019592285e+00
1.885000000000000000e+03 7.348960876464843750e+01 -1.669531822204589844e+01 5.669465065002441406e-01 9.919144630432128906e+00 3.145827531814575195e+00 -9.794074296951293945e-01
1.886000000000000000e+03 6.144078063964843750e+01 -4.187709331512451172e+00 -1.922443509101867676e+00 2.028426676988601685e-01 -5.158802866935729980e-01 -7.412646412849426270e-01
1.887000000000000000e+03 6.022080993652343750e+01 -3.450720787048339844e+00 -1.328887224197387695e+00 2.545011341571807861e-01 -3.223158121109008789e-01 -4.678597748279571533e-01
1.888000000000000000e+03 6.834015655517578125e+01 -2.079573059082031250e+01 -3.549189567565917969e-01 8.704449653625488281e+00 2.504859209060668945e+00 1.046068310737609863e+00
1.889000000000000000e+03 7.591788482666015625e+01 4.052672958374023438e+01 4.142363741993904114e-02 6.307859897613525391e+00 1.904785037040710449e+00 1.951049640774726868e-02
1.890000000000000000e+03 7.171817779541015625e+01 -1.808398437500000000e+01 1.953930109739303589e-01 1.028993606567382812e+01 3.145598649978637695e+00 -4.915389418601989746e-01
1.891000000000000000e+03 6.967562866210937500e+01 -1.861113739013671875e+01 2.118132077157497406e-03 1.032514286041259766e+01 3.098178386688232422e+00 4.281623363494873047e-01
1.892000000000000000e+03 5.120832824707031250e+01 2.321157455444335938e+01 7.062910795211791992e-01 1.241042375564575195e+00 5.842000246047973633e-01 -3.320884406566619873e-01
1.893000000000000000e+03 2.318143081665039062e+01 -1.451135396957397461e+00 -7.119149565696716309e-01 2.816359996795654297e-01 -1.290836930274963379e-01 3.966952264308929443e-01
1.894000000000000000e+03 2.206687927246093750e+01 2.243810176849365234e+00 -2.901751995086669922e-01 2.798720896244049072e-01 -3.090935293585062027e-03 4.350111782550811768e-01
1.895000000000000000e+03 8.061049461364746094e+00 -1.775702285766601562e+01 9.714016914367675781e-01 3.470533847808837891e+00 1.332580685615539551e+00 -1.813849061727523804e-01
1.896000000000000000e+03 6.316236972808837891e+00 -2.017686271667480469e+01 2.098235040903091431e-01 1.020077109336853027e+00 3.689701557159423828e-01 4.764321744441986084e-01
1.897000000000000000e+03 2.652054023742675781e+01 1.592150783538818359e+01 -2.348065227270126343e-01 -1.738328933715820312e-01 -1.225918233394622803e-01 2.650710046291351318e-01
1.898000000000000000e+03 2.609875869750976562e+01 3.487214565277099609e+00 -5.061017349362373352e-02 5.492215156555175781e-01 1.495833992958068848e-01 2.976699173450469971e-01
1.899000000000000000e+03 2.455846214294433594e+01 2.146823167800903320e+00 -3.026097714900970459e-01 5.243244767189025879e-01 6.651440262794494629e-02 3.048726618289947510e-01
1.900000000000000000e+03 5.936771392822265625e+01 1.235600566864013672e+01 6.257347464561462402e-01 3.255197048187255859e+00 1.164279460906982422e+00 -6.491882205009460449e-01
1.901000000000000000e+03 4.170959472656250000e+01 7.279383182525634766e+00 -2.552446424961090088e-01 8.575280308723449707e-01 1.806850135326385498e-01 2.430041432380676270e-01
1.902000000000000000e+03 2.306649971008300781e+01 2.032189369201660156e+01 2.632851302623748779e-01 -2.904199659824371338e-01 -8.140455000102519989e-03 4.762215316295623779e-01
1.903000000000000000e+03 2.238561058044433594e+01 2.124394607543945312e+01 2.839789390563964844e-01 -2.357761710882186890e-01 1.446083001792430878e-02 5.165406465530395508e-01
1.904000000000000000e+03 7.201379394531250000e+01 -1.143464756011962891e+01 2.678978204727172852e+00 1.233982181549072266e+01 4.505640029907226562e+00 3.610803484916687012e-01
1.905000000000000000e+03 2.483339500427246094e+01 2.113398933410644531e+01 2.845645844936370850e-01 -2.379844188690185547e-01 1.397404726594686508e-02 3.810570836067199707e-01
1.906000000000000000e+03 1.642468070983886719e+01 -3.036347007751464844e+01 1.820084303617477417e-01 1.218364119529724121e+00 4.201117753982543945e-01 -4.936194717884063721e-01
1.907000000000000000e+03 1.236489677429199219e+01 1.746550369262695312e+01 3.729043900966644287e-01 -1.803625822067260742e-01 5.776254460215568542e-02 2.521002888679504395e-01
1.908000000000000000e+03 7.267134094238281250e+01 -1.446675109863281250e+01 1.347827196121215820e+00 1.075048732757568359e+01 3.629494428634643555e+00 -7.412019968032836914e-01
1.909000000000000000e+03 5.595382690429687500e+01 2.328252220153808594e+01 4.340667724609375000e-01 2.630997896194458008e+00 9.195194244384765625e-01 -6.285923719406127930e-01
1.910000000000000000e+03 5.427080154418945312e+01 2.277466964721679688e+01 5.371208786964416504e-01 2.093049287796020508e+00 7.890510559082031250e-01 -6.488147377967834473e-01
1.911000000000000000e+03 4.989988327026367188e+01 2.403737449645996094e+01 7.438283562660217285e-01 1.136930942535400391e+00 5.642277598381042480e-01 -1.195004582405090332e-01
1.912000000000000000e+03 3.800364685058593750e+01 1.296661758422851562e+01 3.030661940574645996e-01 9.849097132682800293e-01 3.863927721977233887e-01 5.415914058685302734e-01
1.913000000000000000e+03 7.235040283203125000e+01 -8.761386871337890625e+00 1.634163379669189453e+00 1.143199825286865234e+01 3.919848680496215820e+00 1.250918865203857422e+00
1.914000000000000000e+03 2.957315063476562500e+01 8.272685050964355469e+00 1.393923908472061157e-01 2.637495398521423340e-01 1.209425851702690125e-01 6.994249224662780762e-01
1.915000000000000000e+03 2.869984436035156250e+01 9.689448356628417969e+00 4.833478108048439026e-02 2.366726994514465332e-01 8.550224453210830688e-02 7.376913428306579590e-01
1.916000000000000000e+03 2.819870185852050781e+01 1.620608329772949219e+01 -1.302334219217300415e-01 4.586618766188621521e-02 -2.531016804277896881e-02 2.847164869308471680e-01
1.917000000000000000e+03 2.063688087463378906e+01 1.947885131835937500e+01 2.217257916927337646e-01 -1.688048094511032104e-01 1.587629318237304688e-02 6.245744824409484863e-01
1.918000000000000000e+03 1.750602912902832031e+01 1.915716361999511719e+01 1.809595376253128052e-01 2.281068414449691772e-01 1.227199137210845947e-01 4.949898123741149902e-01
1.919000000000000000e+03 3.874933242797851562e+01 1.053909683227539062e+01 1.288414001464843750e-01 1.019542455673217773e+00 3.445151448249816895e-01 6.290932297706604004e-01
1.920000000000000000e+03 2.806136512756347656e+01 -1.292412281036376953e+01 -1.455828100442886353e-01 1.534844756126403809e+00 4.167785644531250000e-01 7.281816601753234863e-01
1.921000000000000000e+03 2.719070625305175781e+01 -1.282888603210449219e+01 -2.827802896499633789e-01 1.877112746238708496e+00 4.782997369766235352e-01 3.681231141090393066e-01
1.922000000000000000e+03 2.734443855285644531e+01 -1.383336257934570312e+01 -4.797839000821113586e-02 2.553454875946044922e+00 7.516429424285888672e-01 6.431892514228820801e-01
1.923000000000000000e+03 3.022679328918457031e+01 -1.525266361236572266e+01 -2.568819224834442139e-01 -1.977963298559188843e-01 -1.364034712314605713e-01 -1.133335679769515991e-01
1.924000000000000000e+03 2.674920654296875000e+01 -1.203124523162841797e+01 -3.369198441505432129e-01 1.532015085220336914e+00 3.585285842418670654e-01 1.641547530889511108e-01
1.925000000000000000e+03 2.695601272583007812e+01 -1.247834110260009766e+01 -3.177458345890045166e-01 1.723544478416442871e+00 4.217396080493927002e-01 2.328956127166748047e-01
1.926000000000000000e+03 2.691175079345703125e+01 -1.138430786132812500e+01 -3.902574777603149414e-01 1.327346205711364746e+00 2.811266183853149414e-01 2.869107127189636230e-01
1.927000000000000000e+03 2.646359062194824219e+01 -1.172334384918212891e+01 -3.222884535789489746e-01 1.389502525329589844e+00 3.201642334461212158e-01 1.084311529994010925e-01
1.928000000000000000e+03 2.733998107910156250e+01 -1.253343105316162109e+01 -3.114919960498809814e-01 1.720403194427490234e+00 4.226733446121215820e-01 4.138970077037811279e-01
1.929000000000000000e+03 1.722564888000488281e+01 -8.396914482116699219e+00 -4.658277928829193115e-01 -4.660530686378479004e-01 -2.795642614364624023e-01 8.252682089805603027e-01
1.930000000000000000e+03 1.684342193603515625e+01 -7.989008426666259766e+00 -4.700976610183715820e-01 -4.149282276630401611e-01 -2.655077576637268066e-01 8.287540078163146973e-01
1.931000000000000000e+03 1.783147811889648438e+01 -1.077057552337646484e+01 -2.652745842933654785e-01 -3.833369910717010498e-01 -1.945834755897521973e-01 5.212175250053405762e-01
1.932000000000000000e+03 1.777127647399902344e+01 -9.558237075805664062e+00 -3.617283701896667480e-01 -4.972019493579864502e-01 -2.576791048049926758e-01 7.168288826942443848e-01
1.933000000000000000e+03 1.912127113342285156e+01 1.268649578094482422e+00 -4.439696669578552246e-01 -4.008925557136535645e-01 -2.534586787223815918e-01 6.221687197685241699e-01
1.934000000000000000e+03 1.978173637390136719e+01 5.605425238609313965e-01 -5.100831985473632812e-01 -2.702366709709167480e-01 -2.340959459543228149e-01 5.716508030891418457e-01
1.935000000000000000e+03 5.521902561187744141e+00 -5.113319873809814453e+00 -6.818311214447021484e-01 2.235256135463714600e-01 -1.374916583299636841e-01 -1.073430418968200684e+00
1.936000000000000000e+03 3.973524093627929688e+00 -4.575236797332763672e+00 -4.327310919761657715e-01 -2.277380377054214478e-01 -1.981407254934310913e-01 -9.445154666900634766e-01
1.937000000000000000e+03 3.778774499893188477e+00 -6.374330520629882812e+00 -3.260168433189392090e-01 -4.234829246997833252e-01 -2.248499244451522827e-01 -1.255346417427062988e+00
1.938000000000000000e+03 2.685076713562011719e+01 -1.007917118072509766e+01 -4.867618680000305176e-01 1.033898234367370605e+00 1.641409248113632202e-01 3.505057990550994873e-01
1.939000000000000000e+03 2.710637283325195312e+01 -9.238935470581054688e+00 -5.555554628372192383e-01 9.260692000389099121e-01 1.111541166901588440e-01 4.227440357208251953e-01
1.940000000000000000e+03 1.402179336547851562e+01 -8.039590835571289062e+00 -1.911585777997970581e-01 3.265310823917388916e-01 4.061174765229225159e-02 8.422594070434570312e-01
1.941000000000000000e+03 1.453731822967529297e+01 -6.849151134490966797e+00 -5.461919307708740234e-01 1.346968710422515869e-01 -1.234485134482383728e-01 8.534647822380065918e-01
1.942000000000000000e+03 1.584246540069580078e+01 -8.687819480895996094e+00 -1.991081833839416504e-01 -1.475526094436645508e-01 -1.039982438087463379e-01 7.254891395568847656e-01
1.943000000000000000e+03 6.809523582458496094e+00 -4.847692966461181641e+00 -9.116716980934143066e-01 5.873791575431823730e-01 -9.728775918483734131e-02 -8.023774027824401855e-01
1.944000000000000000e+03 6.169136524200439453e+00 -4.158580780029296875e+00 -8.443064689636230469e-01 3.220432698726654053e-01 -1.566789597272872925e-01 -8.440753817558288574e-01
1.945000000000000000e+03 1.153114891052246094e+01 -7.781049251556396484e+00 -5.404824018478393555e-01 1.363155007362365723e+00 2.468017935752868652e-01 6.577540040016174316e-01
1.946000000000000000e+03 6.206000804901123047e+00 -4.878953456878662109e+00 -8.089151382446289062e-01 4.486925303936004639e-01 -1.080667898058891296e-01 -9.370205998420715332e-01
1.947000000000000000e+03 1.046726989746093750e+01 -5.883002758026123047e+00 -1.015865445137023926e+00 1.057718157768249512e+00 1.255581248551607132e-02 1.058740392327308655e-01
1.948000000000000000e+03 1.067935848236083984e+01 -7.900475502014160156e+00 -5.218881368637084961e-01 1.578464984893798828e+00 3.169730603694915771e-01 3.484126627445220947e-01
1.949000000000000000e+03 6.403747558593750000e+00 4.121210575103759766e+00 -2.096047699451446533e-01 -6.731782853603363037e-02 -8.307678252458572388e-02 1.779959946870803833e-01
1.950000000000000000e+03 3.558142423629760742e+00 6.771108150482177734e+00 -7.441984862089157104e-02 -1.700777858495712280e-01 -7.334928959608078003e-02 1.876286566257476807e-01
1.951000000000000000e+03 2.621378898620605469e+01 -7.291474819183349609e+00 -6.551512479782104492e-01 7.069432735443115234e-01 1.553762238472700119e-02 4.153068661689758301e-01
1.952000000000000000e+03 6.882544517517089844e+00 5.636359691619873047e+00 -2.376530468463897705e-01 -1.367622613906860352e-01 -1.123245880007743835e-01 2.809224128723144531e-01
1.953000000000000000e+03 9.776903152465820312e+00 4.202861309051513672e+00 -3.998716771602630615e-01 -1.597024500370025635e-01 -1.678722351789474487e-01 2.833717465400695801e-01
1.954000000000000000e+03 7.038531303405761719e+00 4.100669860839843750e+00 -2.382363975048065186e-01 -7.866427302360534668e-02 -9.507020562887191772e-02 2.010846138000488281e-01
1.955000000000000000e+03 3.008851623535156250e+01 -1.574687957763671875e+01 -3.593670725822448730e-01 -1.564596593379974365e-01 -1.547480225563049316e-01 -4.279524385929107666e-01
1.956000000000000000e+03 2.653507804870605469e+01 -7.964035987854003906e+00 -6.241216659545898438e-01 7.739807367324829102e-01 4.495771601796150208e-02 4.167099893093109131e-01
1.957000000000000000e+03 2.530223846435546875e+01 -6.846051216125488281e+00 -6.564071178436279297e-01 5.795677304267883301e-01 -2.305182255804538727e-02 3.883285820484161377e-01
1.958000000000000000e+03 2.586625862121582031e+01 -6.604746341705322266e+00 -6.934895515441894531e-01 6.373832225799560547e-01 -1.683189719915390015e-02 4.199078977108001709e-01
1.959000000000000000e+03 2.413445663452148438e+01 -4.740045070648193359e+00 -7.682119607925415039e-01 3.680209219455718994e-01 -1.200573146343231201e-01 4.189431965351104736e-01
1.960000000000000000e+03 2.322372436523437500e+01 4.963121712207794189e-01 -5.384579300880432129e-01 3.597309887409210205e-01 -5.361808091402053833e-02 3.836206197738647461e-01
1.961000000000000000e+03 2.953701210021972656e+01 -1.507599925994873047e+01 2.657511532306671143e-01 -1.928874701261520386e-01 2.185910567641258240e-02 -1.918990892590954900e-04
1.962000000000000000e+03 1.305001449584960938e+01 3.608382225036621094e+00 -4.726102650165557861e-01 -4.703851342201232910e-01 -2.828986346721649170e-01 3.958225846290588379e-01
1.963000000000000000e+03 1.369205856323242188e+01 -7.261258125305175781e+00 -4.266896247863769531e-01 4.191789627075195312e-01 -2.253194572404026985e-03 7.992617487907409668e-01
1.964000000000000000e+03 1.286956787109375000e+01 -5.775396823883056641e+00 -9.073340892791748047e-01 5.370249748229980469e-01 -1.110927313566207886e-01 6.306744217872619629e-01
1.965000000000000000e+03 8.847094535827636719e+00 -4.385972023010253906e+00 -1.164805769920349121e+00 7.621906399726867676e-01 -1.207845583558082581e-01 -3.136755228042602539e-01
1.966000000000000000e+03 8.199860572814941406e+00 -4.238744735717773438e+00 -1.090633273124694824e+00 6.628962159156799316e-01 -1.283211261034011841e-01 -4.302770197391510010e-01
1.967000000000000000e+03 2.453774452209472656e+01 -5.451414108276367188e+00 -7.345280051231384277e-01 4.361090362071990967e-01 -8.952569216489791870e-02 4.086061418056488037e-01
1.968000000000000000e+03 1.641720581054687500e+01 -9.436950683593750000e+00 -1.585477888584136963e-01 -2.574061751365661621e-01 -1.247861906886100769e-01 6.560062766075134277e-01
1.969000000000000000e+03 8.164741516113281250e+00 5.647763729095458984e+00 -3.106321990489959717e-01 -1.508378386497497559e-01 -1.384410113096237183e-01 3.204832971096038818e-01
1.970000000000000000e+03 2.395262908935546875e+01 -3.021836280822753906e+00 -7.823981046676635742e-01 3.607749342918395996e-01 -1.264869421720504761e-01 4.025991559028625488e-01
1.971000000000000000e+03 3.115787315368652344e+01 -1.566982841491699219e+01 -6.957105994224548340e-01 -1.615691781044006348e-01 -2.571839392185211182e-01 -3.350445628166198730e-01
1.972000000000000000e+03 2.356513404846191406e+01 -2.243327856063842773e+00 -7.576999664306640625e-01 3.163850605487823486e-01 -1.323944628238677979e-01 4.038168787956237793e-01
1.973000000000000000e+03 1.217890644073486328e+01 4.515064239501953125e+00 -5.005012750625610352e-01 -4.019722938537597656e-01 -2.707420885562896729e-01 3.722471892833709717e-01
1.974000000000000000e+03 1.111963462829589844e+01 4.759834766387939453e+00 -4.708293080329895020e-01 -2.749984562397003174e-01 -2.237483263015747070e-01 3.402886688709259033e-01
1.975000000000000000e+03 7.477839946746826172e+00 6.149668693542480469e+00 -2.635445296764373779e-01 -1.442313343286514282e-01 -1.223327666521072388e-01 3.324021100997924805e-01
1.976000000000000000e+03 4.239879226684570312e+01 5.588609695434570312e+00 -2.935171425342559814e-01 6.418519616127014160e-01 1.045004427433013916e-01 1.926250755786895752e-01
1.977000000000000000e+03 4.349728393554687500e+01 4.401371955871582031e+00 -2.905031144618988037e-01 4.592137336730957031e-01 5.061318352818489075e-02 1.452282220125198364e-01
1.978000000000000000e+03 6.047914028167724609e+00 1.125275707244873047e+01 -1.330843195319175720e-02 -3.961375355720520020e-01 -1.228337883949279785e-01 4.235079586505889893e-01
1.979000000000000000e+03 1.070345973968505859e+01 9.930588722229003906e+00 -1.482362300157546997e-01 -3.557359576225280762e-01 -1.511916518211364746e-01 6.115238666534423828e-01
1.980000000000000000e+03 4.741220855712890625e+01 2.326606273651123047e+00 -2.232967913150787354e-01 1.688274145126342773e-01 -1.634081080555915833e-02 2.596803009510040283e-01
1.981000000000000000e+03 6.127979278564453125e+01 -1.423568367958068848e+00 -5.891792178153991699e-01 1.030055999755859375e+00 1.322630196809768677e-01 -8.818389773368835449e-01
1.982000000000000000e+03 6.077132797241210938e+01 -2.491269111633300781e+00 -1.082282662391662598e+00 5.849277973175048828e-01 -1.492064595222473145e-01 -7.080366611480712891e-01
1.983000000000000000e+03 2.647897338867187500e+01 2.659932613372802734e+00 -1.724846959114074707e-01 5.626857876777648926e-01 1.170603185892105103e-01 2.742839753627777100e-01
1.984000000000000000e+03 2.549868392944335938e+01 4.172704219818115234e+00 9.661461412906646729e-02 5.539677143096923828e-01 1.951747089624404907e-01 2.742359340190887451e-01
1.985000000000000000e+03 1.303299808502197266e+01 7.453412055969238281e+00 -5.523383021354675293e-01 -5.465665459632873535e-01 -3.296714425086975098e-01 4.767536818981170654e-01
1.986000000000000000e+03 1.192954826354980469e+01 8.748296737670898438e+00 -3.519464135169982910e-01 -4.111263453960418701e-01 -2.289218306541442871e-01 5.608801841735839844e-01
1.987000000000000000e+03 1.099682044982910156e+01 -9.472681999206542969e+00 2.102060317993164062e-01 1.850998520851135254e+00 6.183613538742065430e-01 7.586739659309387207e-01
1.988000000000000000e+03 1.174658203125000000e+01 -9.345487594604492188e+00 2.148679643869400024e-02 1.608430147171020508e+00 4.889750778675079346e-01 8.301597833633422852e-01
1.989000000000000000e+03 3.867721557617187500e+01 -1.417860031127929688e+01 -1.087849140167236328e+00 7.146638631820678711e-02 -3.049148321151733398e-01 -1.617986857891082764e-01
1.990000000000000000e+03 3.541321182250976562e+01 -1.475059795379638672e+01 -9.867235422134399414e-01 -1.844000071287155151e-02 -3.015490770339965820e-01 -1.804435998201370239e-01
1.991000000000000000e+03 1.255745697021484375e+01 -6.925209999084472656e+00 -6.360923051834106445e-01 8.691372275352478027e-01 6.991347670555114746e-02 6.779688000679016113e-01
1.992000000000000000e+03 3.878940582275390625e+01 9.373550415039062500e+00 -4.234979860484600067e-03 9.681999087333679199e-01 2.891894876956939697e-01 5.754654407501220703e-01
1.993000000000000000e+03 3.437076950073242188e+01 -1.474340534210205078e+01 -8.565293550491333008e-01 -5.270014330744743347e-02 -2.727688550949096680e-01 -1.675226390361785889e-01
1.994000000000000000e+03 3.668737030029296875e+01 -1.559955883026123047e+01 -1.156886816024780273e+00 2.346717938780784607e-02 -3.400258719921112061e-01 -1.924495995044708252e-01
1.995000000000000000e+03 5.983460998535156250e+01 1.557679748535156250e+01 6.580950021743774414e-01 3.464894771575927734e+00 1.236896872520446777e+00 -5.749937295913696289e-01
1.996000000000000000e+03 2.280381584167480469e+01 -6.545650362968444824e-01 -6.469305753707885742e-01 2.513591647148132324e-01 -1.186714321374893188e-01 4.123789966106414795e-01
1.997000000000000000e+03 1.889178657531738281e+01 -1.056050682067871094e+01 -4.319850504398345947e-01 -6.474660038948059082e-01 -3.238353133201599121e-01 6.778556704521179199e-01
1.998000000000000000e+03 5.813616561889648438e+01 1.875145912170410156e+01 3.785097301006317139e-01 3.344687461853027344e+00 1.116959214210510254e+00 -5.795886516571044922e-01
1.999000000000000000e+03 5.182207489013671875e+01 1.885913372039794922e+00 -1.955709457397460938e-01 4.085666537284851074e-01 6.389871239662170410e-02 3.945605754852294922e-01
2.000000000000000000e+03 5.402960968017578125e+01 4.139034271240234375e+00 3.791125118732452393e-02 8.572394251823425293e-01 2.685452103614807129e-01 3.034169375896453857e-01
2.001000000000000000e+03 7.614113330841064453e+00 -1.087718391418457031e+01 5.320187807083129883e-01 2.963036537170410156e+00 1.048516631126403809e+00 -9.743832945823669434e-01
2.002000000000000000e+03 1.348577022552490234e+01 5.054254055023193359e+00 -5.338062644004821777e-01 -6.095966100692749023e-01 -3.430208563804626465e-01 4.335793554782867432e-01
2.003000000000000000e+03 1.245884609222412109e+01 5.426906585693359375e+00 -5.329357385635375977e-01 -4.482326805591583252e-01 -2.943505346775054932e-01 3.919031918048858643e-01
2.004000000000000000e+03 2.269048690795898438e+01 1.373537063598632812e+00 -4.345686733722686768e-01 3.281461894512176514e-01 -3.192674368619918823e-02 4.075726270675659180e-01
2.005000000000000000e+03 2.115928268432617188e+01 4.021248817443847656e-01 -5.460930466651916504e-01 -1.907958276569843292e-02 -1.695517748594284058e-01 4.907566905021667480e-01
2.006000000000000000e+03 5.222092056274414062e+01 -8.451011657714843750e+00 -1.801458477973937988e+00 1.552515327930450439e-01 -4.938620924949645996e-01 -2.802630960941314697e-01
2.007000000000000000e+03 9.408946037292480469e+00 6.161669731140136719e+00 -3.774010241031646729e-01 -2.035857886075973511e-01 -1.742960512638092041e-01 3.937735557556152344e-01
2.008000000000000000e+03 4.892555236816406250e+01 -1.022668933868408203e+01 -1.529119133949279785e+00 1.436554342508316040e-01 -4.156391024589538574e-01 -2.721976637840270996e-01
2.009000000000000000e+03 4.105789566040039062e+01 2.307676887512207031e+01 3.573750555515289307e-01 1.166473746299743652e+00 4.571546316146850586e-01 3.597136139869689941e-01
2.010000000000000000e+03 1.107939434051513672e+01 1.440415096282958984e+01 3.718813359737396240e-01 -3.525218963623046875e-01 5.807826761156320572e-03 4.626374542713165283e-01
2.011000000000000000e+03 1.019430446624755859e+01 1.320732498168945312e+01 2.186448425054550171e-01 -3.954825103282928467e-01 -5.305129662156105042e-02 5.339059829711914062e-01
2.012000000000000000e+03 3.786079788208007812e+01 -1.542385005950927734e+01 -1.161440730094909668e+00 4.469438269734382629e-02 -3.350238800048828125e-01 -1.981841325759887695e-01
2.013000000000000000e+03 3.195890998840332031e+01 -1.566702461242675781e+01 -7.048212885856628418e-01 -1.729317158460617065e-01 -2.633258998394012451e-01 -3.185574114322662354e-01
2.014000000000000000e+03 9.300618171691894531e+00 -9.944316864013671875e+00 -4.532235115766525269e-02 3.369905948638916016e+00 9.973750710487365723e-01 3.443771004676818848e-01
2.015000000000000000e+03 7.060315132141113281e+00 -9.917206764221191406e+00 -9.111374616622924805e-02 2.049619674682617188e+00 5.875517725944519043e-01 -1.559030890464782715e+00
2.016000000000000000e+03 2.048859596252441406e+01 1.083546280860900879e+00 -4.667911529541015625e-01 -8.302932977676391602e-02 -1.649461388587951660e-01 5.512976646423339844e-01
2.017000000000000000e+03 7.067868041992187500e+01 -6.747506618499755859e+00 -9.689085930585861206e-02 1.220631599426269531e+01 3.632827520370483398e+00 9.660791754722595215e-01
2.018000000000000000e+03 7.481431579589843750e+01 -4.446882247924804688e+00 -5.654689669609069824e-01 9.293787956237792969e+00 2.618495702743530273e+00 1.489264130592346191e+00
2.019000000000000000e+03 7.139569091796875000e+01 -2.570289039611816406e+01 -6.689423918724060059e-01 8.081224441528320312e+00 2.223684549331665039e+00 -2.137862294912338257e-01
2.020000000000000000e+03 7.204166412353515625e+01 -2.409604835510253906e+01 -6.907151341438293457e-01 8.470935821533203125e+00 2.334066152572631836e+00 -4.046199619770050049e-01
2.021000000000000000e+03 3.977434539794921875e+01 -1.386731243133544922e+01 -1.113926291465759277e+00 9.029994904994964600e-02 -3.070878982543945312e-01 -1.629706025123596191e-01
2.022000000000000000e+03 3.631757736206054688e+01 -1.370338249206542969e+01 -9.089574813842773438e-01 2.125582657754421234e-02 -2.663104832172393799e-01 -1.063135936856269836e-01
2.023000000000000000e+03 5.327793121337890625e+01 -7.833772182464599609e+00 -1.930519342422485352e+00 1.837311536073684692e-01 -5.240364670753479004e-01 -2.642532885074615479e-01
2.024000000000000000e+03 4.089047622680664062e+01 -1.351575660705566406e+01 -1.144648551940917969e+00 9.857499599456787109e-02 -3.138220608234405518e-01 -1.694622635841369629e-01
2.025000000000000000e+03 4.201043701171875000e+01 -1.312545013427734375e+01 -1.171900391578674316e+00 1.082448512315750122e-01 -3.190966844558715820e-01 -1.774856746196746826e-01
2.026000000000000000e+03 2.360201454162597656e+01 1.782448530197143555e+00 -3.637615144252777100e-01 4.659903943538665771e-01 3.066866286098957062e-02 3.518989980220794678e-01
2.027000000000000000e+03 6.657535552978515625e+01 -2.739135265350341797e+00 -1.443438172340393066e+00 5.121881484985351562e+00 1.103532910346984863e+00 -3.143602371215820312e+00
2.028000000000000000e+03 6.713143157958984375e+01 -5.571296691894531250e+00 -3.635667324066162109e+00 8.379288673400878906e+00 1.423086404800415039e+00 -4.270349979400634766e+00
2.029000000000000000e+03 5.188372802734375000e+01 -1.004374599456787109e+01 -1.806610822677612305e+00 4.996075108647346497e-02 -5.269950628280639648e-01 -4.533676803112030029e-01
2.030000000000000000e+03 6.754806518554687500e+01 -2.192235183715820312e+01 -4.310941696166992188e-01 7.910482883453369141e+00 2.243816614151000977e+00 1.174516320228576660e+00
2.031000000000000000e+03 6.866427612304687500e+01 -3.372915029525756836e+00 -2.189623832702636719e+00 8.323530197143554688e+00 1.840171933174133301e+00 -2.084687471389770508e+00
2.032000000000000000e+03 6.736372375488281250e+01 -4.284553527832031250e+00 -1.924761891365051270e+00 6.834720134735107422e+00 1.472987413406372070e+00 -3.343367815017700195e+00
2.033000000000000000e+03 2.909484863281250000e+01 4.494387149810791016e+00 3.277913853526115417e-02 4.437815248966217041e-01 1.429681926965713501e-01 4.136442840099334717e-01
2.034000000000000000e+03 2.742916679382324219e+01 5.146941184997558594e+00 1.861445307731628418e-01 4.620011150836944580e-01 1.944437026977539062e-01 3.547892868518829346e-01
2.035000000000000000e+03 7.483830261230468750e+01 3.251375198364257812e+01 4.118439182639122009e-02 6.157520294189453125e+00 1.859611392021179199e+00 -1.470969319343566895e-01
2.036000000000000000e+03 7.343388366699218750e+01 -3.236449813842773438e+01 -2.098239064216613770e-01 7.827862739562988281e+00 2.285411596298217773e+00 -6.709656119346618652e-02
2.037000000000000000e+03 7.418264007568359375e+01 2.190891647338867188e+01 7.410347461700439453e-02 6.463837623596191406e+00 1.961382269859313965e+00 -3.828907310962677002e-01
2.038000000000000000e+03 7.524286651611328125e+01 2.342159652709960938e+01 5.517885088920593262e-02 6.591297149658203125e+00 1.993942737579345703e+00 -3.001377582550048828e-01
2.039000000000000000e+03 7.021179199218750000e+01 -2.050145721435546875e+01 -4.730082750320434570e-01 9.377336502075195312e+00 2.671298503875732422e+00 7.194562256336212158e-02
2.040000000000000000e+03 7.556107330322265625e+01 -2.446543502807617188e+01 -2.956783473491668701e-01 8.490410804748535156e+00 2.458419799804687500e+00 -7.479032278060913086e-01
2.041000000000000000e+03 7.556977844238281250e+01 -2.076387596130371094e+01 -2.348426580429077148e-01 8.452679634094238281e+00 2.465351104736328125e+00 -1.089281797409057617e+00
2.042000000000000000e+03 7.459832000732421875e+01 -2.195326042175292969e+01 -3.897482156753540039e-01 8.660347938537597656e+00 2.481179714202880859e+00 -9.532212615013122559e-01
2.043000000000000000e+03 7.549518585205078125e+01 1.257946300506591797e+01 2.613987401127815247e-02 7.420946121215820312e+00 2.234125852584838867e+00 -5.149161815643310547e-01
2.044000000000000000e+03 7.424507141113281250e+01 1.532186222076416016e+01 8.301930129528045654e-02 6.865213871002197266e+00 2.084470033645629883e+00 -5.688828825950622559e-01
2.045000000000000000e+03 7.551148223876953125e+01 1.669784164428710938e+01 5.729167535901069641e-02 7.076856613159179688e+00 2.140244483947753906e+00 -4.377643764019012451e-01
2.046000000000000000e+03 7.395749664306640625e+01 8.565260887145996094e+00 -9.857174009084701538e-02 7.345823287963867188e+00 2.174175500869750977e+00 -6.647797822952270508e-01
2.047000000000000000e+03 7.401418304443359375e+01 4.414595603942871094e+00 -4.182266294956207275e-01 7.815204620361328125e+00 2.219093322753906250e+00 -4.720354974269866943e-01
2.048000000000000000e+03 7.580090332031250000e+01 -1.633666992187500000e+01 1.814183145761489868e-01 8.044142723083496094e+00 2.467668533325195312e+00 -1.168914675712585449e+00
2.049000000000000000e+03 7.541904449462890625e+01 -1.333770561218261719e+01 1.086217641830444336e+00 8.344698905944824219e+00 2.829275131225585938e+00 -4.358763694763183594e-01
2.050000000000000000e+03 7.384886932373046875e+01 -1.540577316284179688e+01 8.069102764129638672e-01 9.855634689331054688e+00 3.198763608932495117e+00 -1.011290192604064941e+00
2.051000000000000000e+03 7.422737121582031250e+01 -2.263374179601669312e-01 -9.400550723075866699e-01 8.770262718200683594e+00 2.349062442779541016e+00 2.379889935255050659e-01
2.052000000000000000e+03 7.534191894531250000e+01 4.344388008117675781e+00 -3.416393697261810303e-01 8.226130485534667969e+00 2.365347385406494141e+00 -3.286175429821014404e-01
2.053000000000000000e+03 7.390024566650390625e+01 1.359267830848693848e+00 -8.356610536575317383e-01 8.399614334106445312e+00 2.269186019897460938e+00 -9.801977872848510742e-02
2.054000000000000000e+03 7.308634948730468750e+01 -7.260960578918457031e+00 4.161540269851684570e-01 1.067360305786132812e+01 3.326926946640014648e+00 1.673281788825988770e+00
2.055000000000000000e+03 7.497388458251953125e+01 -8.777227401733398438e+00 8.362944722175598145e-01 8.928570747375488281e+00 2.929459571838378906e+00 1.468361020088195801e+00
2.056000000000000000e+03 7.335955047607421875e+01 2.613182640075683594e+01 9.216899424791336060e-02 6.123504638671875000e+00 1.864701986312866211e+00 -3.390328884124755859e-01
2.057000000000000000e+03 7.506108093261718750e+01 2.481376075744628906e+01 5.922783538699150085e-02 6.494109630584716797e+00 1.966001272201538086e+00 -2.843454480171203613e-01
2.058000000000000000e+03 7.419062805175781250e+01 1.122831344604492188e+01 1.988166756927967072e-02 7.160733222961425781e+00 2.154184341430664062e+00 -6.386687755584716797e-01
2.059000000000000000e+03 7.597020721435546875e+01 -5.669237613677978516e+00 -1.400310099124908447e-01 8.579574584960937500e+00 2.531862974166870117e+00 1.540101408958435059e+00
2.060000000000000000e+03 7.491773223876953125e+01 -5.718254089355468750e+00 -1.260410249233245850e-01 9.027723312377929688e+00 2.670504570007324219e+00 1.664471387863159180e+00
2.061000000000000000e+03 7.272742462158203125e+01 -9.852389335632324219e+00 2.066004514694213867e+00 1.101725673675537109e+01 3.924978494644165039e+00 1.304501295089721680e+00
2.062000000000000000e+03 7.271794128417968750e+01 -1.250065517425537109e+01 2.183585405349731445e+00 1.092852306365966797e+01 3.933632373809814453e+00 -7.826229184865951538e-02
2.063000000000000000e+03 6.966769409179687500e+01 -3.616809368133544922e+00 -2.455250501632690430e+00 9.887777328491210938e+00 2.229758024215698242e+00 -1.441452383995056152e+00
2.064000000000000000e+03 7.158907318115234375e+01 -5.192677497863769531e+00 -1.132127642631530762e+00 1.100779247283935547e+01 2.962699651718139648e+00 8.857289552688598633e-01
2.065000000000000000e+03 7.469951629638671875e+01 -1.437395954132080078e+01 9.505362510681152344e-01 8.862919807434082031e+00 2.944036722183227539e+00 -8.323664069175720215e-01
2.066000000000000000e+03 7.451054382324218750e+01 -1.256602287292480469e+01 1.545627593994140625e+00 9.023991584777832031e+00 3.170885801315307617e+00 -8.711788058280944824e-02
2.067000000000000000e+03 7.461898803710937500e+01 -1.700923538208007812e+01 2.657296955585479736e-01 9.051595687866210938e+00 2.795197725296020508e+00 -1.329202651977539062e+00
2.068000000000000000e+03 7.425638580322265625e+01 1.666920661926269531e+01 8.675476163625717163e-02 6.767258167266845703e+00 2.056203842163085938e+00 -5.279837250709533691e-01
2.069000000000000000e+03 7.332605743408203125e+01 2.939413261413574219e+01 7.889541238546371460e-02 5.988214015960693359e+00 1.820132732391357422e+00 -2.594692111015319824e-01
2.070000000000000000e+03 7.434327697753906250e+01 -2.424067115783691406e+01 -4.450876116752624512e-01 8.584243774414062500e+00 2.441746950149536133e+00 -7.395907044410705566e-01
2.071000000000000000e+03 7.447224426269531250e+01 -1.706217050552368164e+00 -9.515898823738098145e-01 9.089704513549804688e+00 2.441434383392333984e+00 7.560420632362365723e-01
2.072000000000000000e+03 7.399558258056640625e+01 -2.680322456359863281e+01 -4.137154221534729004e-01 8.322595596313476562e+00 2.372663974761962891e+00 -4.252342283725738525e-01
2.073000000000000000e+03 7.389278411865234375e+01 7.168817996978759766e+00 -1.681053936481475830e-01 7.447536468505859375e+00 2.183829307556152344e+00 -6.243818402290344238e-01
2.074000000000000000e+03 7.449555206298828125e+01 -2.099693489074707031e+01 -3.219163417816162109e-01 8.767498970031738281e+00 2.533674716949462891e+00 -1.101226806640625000e+00
2.075000000000000000e+03 7.521978759765625000e+01 -1.942205429077148438e+01 -1.479425281286239624e-01 8.545881271362304688e+00 2.519381523132324219e+00 -1.224386215209960938e+00
2.076000000000000000e+03 7.105663299560546875e+01 3.520078659057617188e+01 1.154743432998657227e-01 5.522326946258544922e+00 1.691340327262878418e+00 -1.833466291427612305e-01
2.077000000000000000e+03 7.419551849365234375e+01 1.395130443572998047e+01 5.838534981012344360e-02 6.961197853088378906e+00 2.105875015258789062e+00 -6.038100123405456543e-01
2.078000000000000000e+03 7.417908477783203125e+01 1.257229804992675781e+01 4.351088777184486389e-02 7.057760238647460938e+00 2.130381345748901367e+00 -6.134199500083923340e-01
2.079000000000000000e+03 7.273987579345703125e+01 -3.383965682983398438e+01 -1.855440139770507812e-01 7.402550220489501953e+00 2.165101766586303711e+00 1.720239967107772827e-02
2.080000000000000000e+03 7.414483642578125000e+01 2.073070526123046875e+01 9.151695668697357178e-02 6.517430305480957031e+00 1.982684254646301270e+00 -4.298270344734191895e-01
2.081000000000000000e+03 7.400715637207031250e+01 1.939579963684082031e+01 9.298556298017501831e-02 6.569314479827880859e+00 1.998690009117126465e+00 -4.666846096515655518e-01
2.082000000000000000e+03 7.354904174804687500e+01 -2.817533493041992188e+01 -3.922943472862243652e-01 8.121722221374511719e+00 2.318828344345092773e+00 -2.858141362667083740e-01
2.083000000000000000e+03 6.629629135131835938e+00 3.158722305297851562e+01 2.116746455430984497e-02 -8.273814320564270020e-01 -2.418641895055770874e-01 8.352489024400711060e-02
2.084000000000000000e+03 6.470992565155029297e+00 -2.922105026245117188e+01 -2.256062775850296021e-01 -2.393186688423156738e-01 -1.394774913787841797e-01 4.321912825107574463e-01
2.085000000000000000e+03 4.989618778228759766e+00 2.901050758361816406e+01 1.008020527660846710e-02 -9.125360846519470215e-01 -2.707367539405822754e-01 6.571269035339355469e-02
2.086000000000000000e+03 4.815655231475830078e+00 -2.676915359497070312e+01 -1.623935103416442871e-01 -8.128495216369628906e-01 -2.925729155540466309e-01 5.921541452407836914e-01
2.087000000000000000e+03 4.968861103057861328e+00 -9.999078750610351562e+00 1.595498174428939819e-01 1.587446480989456177e-01 9.548833966255187988e-02 -1.674512386322021484e+00
2.088000000000000000e+03 5.891251754760742188e+01 -5.145400524139404297e+00 -2.211696863174438477e+00 9.560777992010116577e-02 -6.348267197608947754e-01 -3.888200223445892334e-01
2.089000000000000000e+03 5.621244049072265625e+01 -7.409215927124023438e+00 -2.350293636322021484e+00 6.718762964010238647e-02 -6.849318146705627441e-01 -4.559125304222106934e-01
2.090000000000000000e+03 5.853351593017578125e+00 -2.247855758666992188e+01 -1.060598269104957581e-01 1.179213821887969971e-01 3.558465978130698204e-03 6.470723152160644531e-01
2.091000000000000000e+03 5.638000965118408203e+00 2.528112220764160156e+01 2.719002403318881989e-02 -7.944914698600769043e-01 -2.301904261112213135e-01 9.870340675115585327e-02
2.092000000000000000e+03 5.646482944488525391e+00 2.391271018981933594e+01 3.827746212482452393e-02 -7.738084197044372559e-01 -2.206592857837677002e-01 1.101941615343093872e-01
2.093000000000000000e+03 3.785730838775634766e+00 -1.912033843994140625e+01 1.928717494010925293e-01 -1.504193067550659180e+00 -3.933964073657989502e-01 6.456136107444763184e-01
2.094000000000000000e+03 4.295302867889404297e+00 -1.630231094360351562e+01 7.218528985977172852e-01 -9.467436671257019043e-01 -6.746724247932434082e-02 2.158070653676986694e-01
2.095000000000000000e+03 7.422200202941894531e+00 1.740375137329101562e+01 1.726910471916198730e-01 -5.642151236534118652e-01 -1.174572333693504333e-01 2.825366556644439697e-01
2.096000000000000000e+03 1.093355560302734375e+01 1.545134830474853516e+01 3.743371963500976562e-01 -3.587573766708374023e-01 4.673940595239400864e-03 3.758979141712188721e-01
2.097000000000000000e+03 9.886953353881835938e+00 1.541058158874511719e+01 3.106212317943572998e-01 -4.212134778499603271e-01 -3.317767381668090820e-02 3.940259516239166260e-01
2.098000000000000000e+03 5.925118446350097656e+00 1.820526695251464844e+01 1.169608682394027710e-01 -6.579319238662719727e-01 -1.622913181781768799e-01 2.318038344383239746e-01
2.099000000000000000e+03 4.372122764587402344e+00 1.479735946655273438e+01 5.953313410282135010e-02 -6.103831529617309570e-01 -1.652549952268600464e-01 2.910000383853912354e-01
2.100000000000000000e+03 4.525300979614257812e+00 2.091297721862792969e+01 5.145929381251335144e-02 -8.031752109527587891e-01 -2.255147695541381836e-01 1.353028118610382080e-01
2.101000000000000000e+03 5.844534397125244141e+00 -1.919555664062500000e+01 3.638939559459686279e-01 7.102114558219909668e-01 3.222316205501556396e-01 6.006150841712951660e-01
2.102000000000000000e+03 6.109747886657714844e+00 -2.656360435485839844e+01 -2.249322831630706787e-01 -1.786686182022094727e-01 -1.210802718997001648e-01 5.427027344703674316e-01
2.103000000000000000e+03 5.471447467803955078e+00 2.663017272949218750e+01 2.189294993877410889e-02 -8.256693482398986816e-01 -2.411329150199890137e-01 8.734858036041259766e-02
2.104000000000000000e+03 4.243562698364257812e+00 2.638400459289550781e+01 1.518188975751399994e-02 -9.355385899543762207e-01 -2.761070132255554199e-01 6.812228262424468994e-02
2.105000000000000000e+03 7.342965602874755859e+00 -2.649867248535156250e+01 -2.217974662780761719e-01 3.151194155216217041e-01 2.799658663570880890e-02 3.734734058380126953e-01
2.106000000000000000e+03 6.934554576873779297e+00 -1.150668811798095703e+01 6.627345681190490723e-01 2.531149864196777344e+00 9.581653475761413574e-01 -1.576653480529785156e+00
2.107000000000000000e+03 5.406362533569335938e+00 1.288953495025634766e+01 4.474932327866554260e-02 -4.979503154754638672e-01 -1.359602957963943481e-01 3.697469830513000488e-01
2.108000000000000000e+03 5.895104885101318359e+00 2.110399055480957031e+01 7.645879685878753662e-02 -7.079209089279174805e-01 -1.894386261701583862e-01 1.542257666587829590e-01
2.109000000000000000e+03 5.796128749847412109e+00 -2.113897132873535156e+01 3.066842071712017059e-02 3.861092031002044678e-01 1.250332891941070557e-01 6.770283579826354980e-01
2.110000000000000000e+03 5.964365005493164062e+00 3.307789230346679688e+01 1.510083209723234177e-02 -9.013816118240356445e-01 -2.658842504024505615e-01 5.560583248734474182e-02
2.111000000000000000e+03 4.187256813049316406e+00 3.327255630493164062e+01 1.125078834593296051e-02 -1.034197211265563965e+00 -3.068839311599731445e-01 4.230830445885658264e-02
2.112000000000000000e+03 1.399758338928222656e+01 -2.765729141235351562e+01 2.491709440946578979e-01 1.441247940063476562e+00 5.071256756782531738e-01 -5.966060161590576172e-01
2.113000000000000000e+03 1.289758682250976562e+01 -3.150393104553222656e+01 -1.504922807216644287e-01 9.362327456474304199e-01 2.357221394777297974e-01 -1.249693036079406738e-01
2.114000000000000000e+03 7.855144977569580078e+00 -3.299243164062500000e+01 -2.238405048847198486e-01 -8.036652952432632446e-02 -9.126210957765579224e-02 2.823894619941711426e-01
2.115000000000000000e+03 6.186629295349121094e+00 -2.788916206359863281e+01 -2.184538245201110840e-01 -2.557516396045684814e-01 -1.422616392374038696e-01 4.878472685813903809e-01
2.116000000000000000e+03 5.212270259857177734e+00 9.659381866455078125e+00 -6.905206292867660522e-02 -3.171287477016448975e-01 -1.158542409539222717e-01 3.613537251949310303e-01
2.117000000000000000e+03 4.033662319183349609e+00 9.489959716796875000e+00 -4.477399587631225586e-02 -3.230386674404144287e-01 -1.103437989950180054e-01 2.882310450077056885e-01
2.118000000000000000e+03 5.483375072479248047e+00 -1.282773780822753906e+01 1.519688010215759277e+00 7.857979536056518555e-01 6.916458010673522949e-01 -1.320858597755432129e+00
2.119000000000000000e+03 4.091683864593505859e+00 -1.280093479156494141e+01 9.017167687416076660e-01 -9.537032842636108398e-01 -1.559596881270408630e-02 -1.089168190956115723e+00
2.120000000000000000e+03 5.232981204986572266e+00 8.603670120239257812e+00 -9.702007472515106201e-02 -2.703487575054168701e-01 -1.102106496691703796e-01 3.334729075431823730e-01
2.121000000000000000e+03 4.834329128265380859e+00 -8.740644454956054688e+00 -2.208775877952575684e-01 1.652652621269226074e-01 -1.668369770050048828e-02 -1.559644460678100586e+00
2.122000000000000000e+03 3.767596054077148438e+01 9.352066040039062500e+00 2.924981899559497833e-02 8.634113073348999023e-01 2.677983343601226807e-01 6.457749009132385254e-01
2.123000000000000000e+03 5.432535552978515625e+01 -7.207340717315673828e+00 -1.984404087066650391e+00 1.832896173000335693e-01 -5.403343439102172852e-01 -2.473995536565780640e-01
2.124000000000000000e+03 5.545895004272460938e+01 2.357878208160400391e+00 -1.307681202888488770e-01 9.104124307632446289e-01 2.338932901620864868e-01 1.666847765445709229e-01
2.125000000000000000e+03 4.904291152954101562e+00 -7.512876510620117188e+00 -3.755147159099578857e-01 9.596033394336700439e-02 -8.386632055044174194e-02 -1.441998839378356934e+00
2.126000000000000000e+03 4.732577800750732422e+00 -5.315832138061523438e+00 -5.487831234931945801e-01 3.260124940425157547e-03 -1.636569052934646606e-01 -1.103872060775756836e+00
2.127000000000000000e+03 1.286480140686035156e+01 -2.931732749938964844e+01 -2.890554256737232208e-02 1.178562521934509277e+00 3.448970615863800049e-01 -2.856740355491638184e-01
2.128000000000000000e+03 1.278706836700439453e+01 -2.742385292053222656e+01 1.038167551159858704e-01 1.398313760757446289e+00 4.506391584873199463e-01 -4.328388571739196777e-01
2.129000000000000000e+03 5.756766891479492188e+01 -3.347207260131835938e+01 3.614221513271331787e-01 1.319758296012878418e+00 5.043541193008422852e-01 3.909639716148376465e-01
2.130000000000000000e+03 5.840316772460937500e+01 -1.334193468093872070e+00 -8.239693045616149902e-01 7.003126144409179688e-01 -3.709701821208000183e-02 -2.271482795476913452e-01
2.131000000000000000e+03 5.961142730712890625e+01 -4.325082778930664062e+00 -1.873906493186950684e+00 2.467053681612014771e-01 -4.881603419780731201e-01 -2.914451062679290771e-01
2.132000000000000000e+03 5.907865524291992188e+01 -3.247060012817382812e+01 2.274115383625030518e-01 1.830350995063781738e+00 6.173287630081176758e-01 5.310654640197753906e-01
2.133000000000000000e+03 9.912172317504882812e+00 -2.221122360229492188e+01 2.512373328208923340e-01 2.265435934066772461e+00 7.550020217895507812e-01 -6.045687794685363770e-01
2.134000000000000000e+03 6.206691265106201172e+00 -1.216254043579101562e+01 1.192304968833923340e+00 1.297909379005432129e+00 7.470642924308776855e-01 -1.534632563591003418e+00
2.135000000000000000e+03 4.005311584472656250e+01 9.391260147094726562e+00 -1.030413527041673660e-02 1.068725228309631348e+00 3.175263404846191406e-01 5.154057145118713379e-01
2.136000000000000000e+03 3.996344375610351562e+01 8.134468078613281250e+00 -1.665393710136413574e-01 9.884040355682373047e-01 2.465594112873077393e-01 4.642471671104431152e-01
2.137000000000000000e+03 2.916977500915527344e+01 6.894892215728759766e+00 2.104249298572540283e-01 2.822151780128479004e-01 1.477920264005661011e-01 5.904338955879211426e-01
2.138000000000000000e+03 2.988536262512207031e+01 1.062721443176269531e+01 -3.047444857656955719e-02 2.967136800289154053e-01 7.987176626920700073e-02 7.239509224891662598e-01
2.139000000000000000e+03 2.871698379516601562e+01 1.377806568145751953e+01 -2.794303596019744873e-01 1.561334878206253052e-01 -3.698905929923057556e-02 4.897986054420471191e-01
2.140000000000000000e+03 6.770692443847656250e+01 -2.398126792907714844e+01 -6.507394313812255859e-01 7.317237854003906250e+00 1.999949455261230469e+00 8.395525813102722168e-01
2.141000000000000000e+03 8.903674125671386719e+00 -2.550615692138671875e+01 -1.560484468936920166e-01 1.107947945594787598e+00 2.855698764324188232e-01 6.231523677706718445e-02
2.142000000000000000e+03 1.395674705505371094e+01 1.880772781372070312e+01 2.810139358043670654e-01 2.516980469226837158e-02 9.185512363910675049e-02 2.331923544406890869e-01
2.143000000000000000e+03 1.429887390136718750e+01 1.751435661315917969e+01 4.480040669441223145e-01 1.390163004398345947e-01 1.761061102151870728e-01 2.445954233407974243e-01
2.144000000000000000e+03 3.839579391479492188e+01 1.466090774536132812e+01 4.086698889732360840e-01 1.017428636550903320e+00 4.278295636177062988e-01 4.374156296253204346e-01
2.145000000000000000e+03 4.648801422119140625e+01 2.800673007965087891e+00 -2.212197929620742798e-01 1.807415932416915894e-01 -1.214346196502447128e-02 2.250714898109436035e-01
2.146000000000000000e+03 5.008671569824218750e+01 1.816021323204040527e+00 -2.085595428943634033e-01 2.552245259284973145e-01 1.399949099868535995e-02 3.829413354396820068e-01
2.147000000000000000e+03 6.171596527099609375e+01 -2.697687149047851562e+01 -1.193733960390090942e-01 2.755698442459106445e+00 7.908975481986999512e-01 8.589507341384887695e-01
2.148000000000000000e+03 6.475498962402343750e+01 -2.710527038574218750e+01 -4.036558866500854492e-01 4.746047973632812500e+00 1.302717566490173340e+00 1.006194233894348145e+00
2.149000000000000000e+03 3.017280960083007812e+01 1.717780113220214844e+01 4.978444054722785950e-02 2.587853968143463135e-01 9.257095307111740112e-02 2.928813695907592773e-01
2.150000000000000000e+03 6.357770156860351562e+01 -2.748571395874023438e+01 -2.654910385608673096e-01 4.158015251159667969e+00 1.167757272720336914e+00 9.572854638099670410e-01
2.151000000000000000e+03 1.742650604248046875e+01 2.048020362854003906e+01 1.465932130813598633e-01 1.151331812143325806e-01 7.851792126893997192e-02 4.915015995502471924e-01
2.152000000000000000e+03 1.629512596130371094e+01 2.052339363098144531e+01 1.303855925798416138e-01 1.327475607395172119e-01 7.893994450569152832e-02 4.154416620731353760e-01
2.153000000000000000e+03 3.725326156616210938e+01 1.414887905120849609e+01 3.521514534950256348e-01 8.837485909461975098e-01 3.707700073719024658e-01 5.082760453224182129e-01
2.154000000000000000e+03 1.844993019104003906e+01 1.925560379028320312e+01 1.808763742446899414e-01 1.757255345582962036e-01 1.069805696606636047e-01 5.814303755760192871e-01
2.155000000000000000e+03 5.653168106079101562e+01 5.047339916229248047e+00 1.099582388997077942e-01 1.534845829010009766e+00 4.934412240982055664e-01 1.295397523790597916e-02
2.156000000000000000e+03 8.160759925842285156e+00 -2.175461959838867188e+01 7.969850301742553711e-02 1.732644677162170410e+00 5.437029600143432617e-01 4.654058441519737244e-02
2.157000000000000000e+03 7.124205017089843750e+01 -1.709148597717285156e+01 1.876953095197677612e-01 1.138253402709960938e+01 3.471068859100341797e+00 -4.676564633846282959e-01
2.158000000000000000e+03 7.038603973388671875e+01 -1.774822807312011719e+01 2.770754694938659668e-01 1.121172904968261719e+01 3.446641445159912109e+00 3.176511526107788086e-01
2.159000000000000000e+03 1.427119636535644531e+01 -2.924810600280761719e+01 8.132116496562957764e-02 1.278417944908142090e+00 4.079217314720153809e-01 -4.138612449169158936e-01
2.160000000000000000e+03 4.616033172607421875e+01 2.491718864440917969e+01 6.081841588020324707e-01 1.121253371238708496e+00 5.188312530517578125e-01 3.124410510063171387e-01
2.161000000000000000e+03 4.520752334594726562e+01 2.810327529907226562e+01 6.381111741065979004e-01 1.248099803924560547e+00 5.658632516860961914e-01 1.924859136343002319e-01
2.162000000000000000e+03 4.047676467895507812e+01 1.847254753112792969e+01 3.349957466125488281e-01 1.362404108047485352e+00 5.092199444770812988e-01 2.947869598865509033e-01
2.163000000000000000e+03 3.862258148193359375e+01 1.730146789550781250e+01 4.524641633033752441e-01 1.095353007316589355e+00 4.643451571464538574e-01 3.020515143871307373e-01
2.164000000000000000e+03 1.347498893737792969e+01 1.693517303466796875e+01 4.579697847366333008e-01 -5.574943497776985168e-02 1.206661015748977661e-01 2.705425620079040527e-01
2.165000000000000000e+03 7.260357379913330078e+00 1.853680801391601562e+01 1.584651917219161987e-01 -5.794665217399597168e-01 -1.263004094362258911e-01 2.461761087179183960e-01
2.166000000000000000e+03 6.904049682617187500e+01 -1.966971015930175781e+01 -3.215933144092559814e-01 9.962081909179687500e+00 2.892146587371826172e+00 8.438261151313781738e-01
2.167000000000000000e+03 4.007100677490234375e+01 2.043572616577148438e+01 2.729616165161132812e-01 1.204806327819824219e+00 4.433303773403167725e-01 2.913441658020019531e-01
2.168000000000000000e+03 3.924173355102539062e+01 1.937775611877441406e+01 3.569281101226806641e-01 1.149281263351440430e+00 4.518628120422363281e-01 2.871499359607696533e-01
2.169000000000000000e+03 4.663721847534179688e+01 -8.676385879516601562e+00 -1.280775547027587891e+00 2.231253981590270996e-01 -3.172950446605682373e-01 -6.191713735461235046e-02
2.170000000000000000e+03 3.960708236694335938e+01 -3.817528915405273438e+01 5.226308107376098633e-01 -6.683424860239028931e-02 1.367389708757400513e-01 -1.011886373162269592e-01
2.171000000000000000e+03 4.145563507080078125e+01 -4.098934936523437500e+01 6.282716989517211914e-01 -1.352516561746597290e-01 1.479060202836990356e-01 -3.169478103518486023e-02
2.172000000000000000e+03 5.258228302001953125e+01 -4.134626388549804688e+01 8.867891430854797363e-01 4.096330404281616211e-01 3.889266550540924072e-01 2.234190143644809723e-02
2.173000000000000000e+03 6.951204681396484375e+01 -2.175877380371093750e+01 -6.489504575729370117e-01 8.947528839111328125e+00 2.489573717117309570e+00 3.684672415256500244e-01
2.174000000000000000e+03 7.055502319335937500e+01 -1.931067276000976562e+01 -3.375645577907562256e-01 1.032950687408447266e+01 2.997582674026489258e+00 -2.820974402129650116e-02
2.175000000000000000e+03 7.227799987792968750e+01 -1.665271568298339844e+01 5.528630614280700684e-01 1.042208099365234375e+01 3.292483329772949219e+00 -8.376520872116088867e-01
2.176000000000000000e+03 6.022752380371093750e+01 1.346780204772949219e+01 6.520910263061523438e-01 3.449933767318725586e+00 1.230607390403747559e+00 -6.520427465438842773e-01
2.177000000000000000e+03 2.890794181823730469e+01 1.782998275756835938e+01 5.371887609362602234e-02 1.016542091965675354e-01 4.661192744970321655e-02 2.706871628761291504e-01
2.178000000000000000e+03 7.220155334472656250e+01 4.092887878417968750e+01 9.962604194879531860e-02 5.683466911315917969e+00 1.734927892684936523e+00 -2.557328902184963226e-02
2.179000000000000000e+03 2.604124069213867188e+01 1.849408912658691406e+01 9.467632323503494263e-02 -2.660409212112426758e-01 -5.140937492251396179e-02 2.929040193557739258e-01
2.180000000000000000e+03 2.396243667602539062e+01 1.945131301879882812e+01 2.251698076725006104e-01 -3.502800464630126953e-01 -3.753307461738586426e-02 4.318594634532928467e-01
2.181000000000000000e+03 7.361672210693359375e+01 -1.349246883392333984e+01 1.832540154457092285e+00 1.019025516510009766e+01 3.606838464736938477e+00 -5.302921533584594727e-01
2.182000000000000000e+03 2.885783767700195312e+01 -1.446778583526611328e+01 6.708445549011230469e-01 6.749597191810607910e-01 4.037413001060485840e-01 8.026509284973144531e-01
2.183000000000000000e+03 2.997612380981445312e+01 -1.478043746948242188e+01 2.609530687332153320e-01 -9.216003865003585815e-02 5.063791200518608093e-02 1.111868917942047119e-01
2.184000000000000000e+03 3.223322296142578125e+01 -1.498797988891601562e+01 -6.350052952766418457e-01 -1.540354043245315552e-01 -2.367122173309326172e-01 -1.727177649736404419e-01
2.185000000000000000e+03 2.744379425048828125e+01 -1.301499271392822266e+01 -2.339316308498382568e-01 1.904464960098266602e+00 5.011599659919738770e-01 5.141997933387756348e-01
2.186000000000000000e+03 2.842714118957519531e+01 -1.326481246948242188e+01 5.937870219349861145e-02 1.342098832130432129e+00 4.204432666301727295e-01 8.510890007019042969e-01
2.187000000000000000e+03 2.770213127136230469e+01 -1.268545246124267578e+01 -2.493513375520706177e-01 1.662654638290405273e+00 4.239909648895263672e-01 5.903347730636596680e-01
2.188000000000000000e+03 2.792359733581542969e+01 -1.228254604339599609e+01 -2.880020439624786377e-01 1.444430351257324219e+00 3.469284772872924805e-01 5.993409752845764160e-01
2.189000000000000000e+03 2.714372253417968750e+01 -1.062400627136230469e+01 -4.553597569465637207e-01 1.132359862327575684e+00 2.031000554561614990e-01 3.815758526325225830e-01
2.190000000000000000e+03 2.744379997253417969e+01 -1.115152740478515625e+01 -4.292427301406860352e-01 1.233991861343383789e+00 2.414247393608093262e-01 4.328967928886413574e-01
2.191000000000000000e+03 2.710331153869628906e+01 -7.709413528442382812e+00 -6.504350304603576660e-01 7.917265295982360840e-01 4.238744825124740601e-02 4.610925912857055664e-01
2.192000000000000000e+03 6.213093757629394531e+00 5.088708877563476562e+00 -2.076701521873474121e-01 -9.831761568784713745e-02 -9.179633110761642456e-02 2.235433906316757202e-01
2.193000000000000000e+03 5.813802242279052734e+00 6.923798084259033203e+00 -1.596533060073852539e-01 -1.868097633123397827e-01 -1.039389222860336304e-01 2.984496951103210449e-01
2.194000000000000000e+03 4.263190269470214844e+00 5.932178974151611328e+00 -1.108314990997314453e-01 -1.375638991594314575e-01 -7.451862096786499023e-02 1.886118352413177490e-01
2.195000000000000000e+03 6.475944995880126953e+00 -5.453694343566894531e+00 -8.147834539413452148e-01 6.237046122550964355e-01 -5.732363834977149963e-02 -9.532849788665771484e-01
2.196000000000000000e+03 9.837860107421875000e+00 -6.616946220397949219e+00 -8.739561438560485840e-01 1.330179333686828613e+00 1.368669569492340088e-01 2.451448142528533936e-02
2.197000000000000000e+03 6.792132854461669922e+00 4.627726078033447266e+00 -2.335690110921859741e-01 -9.289153665304183960e-02 -9.793816506862640381e-02 2.140858769416809082e-01
2.198000000000000000e+03 9.056401252746582031e+00 5.278495788574218750e+00 -3.683534562587738037e-01 -1.473094075918197632e-01 -1.546988636255264282e-01 3.262639343738555908e-01
2.199000000000000000e+03 1.222582530975341797e+01 -6.328491687774658203e+00 -7.961773276329040527e-01 7.950507402420043945e-01 -3.379706759005784988e-04 5.749914646148681641e-01
2.200000000000000000e+03 6.303257942199707031e+00 6.236114501953125000e+00 -1.994982957839965820e-01 -1.466374248266220093e-01 -1.038407161831855774e-01 2.915704548358917236e-01
2.201000000000000000e+03 5.591123580932617188e+00 5.707602500915527344e+00 -1.694843173027038574e-01 -1.306792050600051880e-01 -9.004905819892883301e-02 2.301964014768600464e-01
2.202000000000000000e+03 2.734544181823730469e+01 -9.812857627868652344e+00 -5.197467207908630371e-01 9.975172877311706543e-01 1.433311551809310913e-01 4.369951188564300537e-01
2.203000000000000000e+03 2.678428649902343750e+01 -7.039066314697265625e+00 -6.853997707366943359e-01 7.326713800430297852e-01 1.418148819357156754e-02 4.537263810634613037e-01
2.204000000000000000e+03 1.328514575958251953e+01 -8.545606613159179688e+00 1.032688096165657043e-02 5.547816157341003418e-01 1.695325523614883423e-01 8.468584418296813965e-01
2.205000000000000000e+03 2.549606895446777344e+01 -5.915562629699707031e+00 -7.229206562042236328e-01 5.768423676490783691e-01 -4.382349550724029541e-02 4.176885485649108887e-01
2.206000000000000000e+03 2.473185348510742188e+01 -4.513941287994384766e+00 -7.738580107688903809e-01 4.612517952919006348e-01 -9.378185868263244629e-02 4.136119782924652100e-01
2.207000000000000000e+03 2.371733665466308594e+01 -4.010196685791015625e+00 -7.883902788162231445e-01 3.085541129112243652e-01 -1.439508497714996338e-01 4.167543053627014160e-01
2.208000000000000000e+03 2.740790367126464844e+01 -8.364193916320800781e+00 -6.209902167320251465e-01 8.422455787658691406e-01 6.637660413980484009e-02 4.750880300998687744e-01
2.209000000000000000e+03 9.325390815734863281e+00 -6.053257465362548828e+00 -1.041908740997314453e+00 1.301554441452026367e+00 7.789371162652969360e-02 -1.998851597309112549e-01
2.210000000000000000e+03 9.167253494262695312e+00 -7.326341629028320312e+00 -8.757513165473937988e-01 1.834485650062561035e+00 2.876203060150146484e-01 -2.613187134265899658e-01
2.211000000000000000e+03 1.165965175628662109e+01 6.673582553863525391e+00 -5.162150263786315918e-01 -3.332037329673767090e-01 -2.548256516456604004e-01 4.527894258499145508e-01
2.212000000000000000e+03 2.644194984436035156e+01 -6.355341911315917969e+00 -7.126414179801940918e-01 6.825469732284545898e-01 -9.028341621160507202e-03 4.430280923843383789e-01
2.213000000000000000e+03 2.511723518371582031e+01 -5.222988605499267578e+00 -7.528680562973022461e-01 5.142677426338195801e-01 -7.158010452985763550e-02 4.203000664710998535e-01
2.214000000000000000e+03 2.363555145263671875e+01 -3.760657608509063721e-01 -6.228215098381042480e-01 3.743814527988433838e-01 -7.453200966119766235e-02 3.739737272262573242e-01
2.215000000000000000e+03 2.238966560363769531e+01 1.464795172214508057e-01 -5.861703157424926758e-01 2.157384306192398071e-01 -1.111295595765113831e-01 4.232422709465026855e-01
2.216000000000000000e+03 2.506877326965332031e+01 1.197658300399780273e+00 -4.283179342746734619e-01 5.383639335632324219e-01 3.301380947232246399e-02 3.192345798015594482e-01
2.217000000000000000e+03 2.396735763549804688e+01 -1.222935318946838379e+00 -6.820785999298095703e-01 3.908907473087310791e-01 -8.735635876655578613e-02 3.815487027168273926e-01
2.218000000000000000e+03 2.434099197387695312e+01 -3.779806613922119141e+00 -7.852731943130493164e-01 4.050380885601043701e-01 -1.140705198049545288e-01 4.129146635532379150e-01
2.219000000000000000e+03 3.269296264648437500e+01 -1.609093666076660156e+01 -1.162608385086059570e+00 -9.579534828662872314e-02 -3.775211274623870850e-01 -3.321240246295928955e-01
2.220000000000000000e+03 2.849995422363281250e+01 -1.408841705322265625e+01 5.062991976737976074e-01 1.173137187957763672e+00 5.038309097290039062e-01 9.617771506309509277e-01
2.221000000000000000e+03 7.052525329589843750e+01 -5.516700744628906250e+00 -1.527281284332275391e+00 1.213742065429687500e+01 3.183041810989379883e+00 6.896653771400451660e-01
2.222000000000000000e+03 3.341238021850585938e+01 -1.457359027862548828e+01 -7.442433238029479980e-01 -9.660580754280090332e-02 -2.522547245025634766e-01 -1.282159388065338135e-01
2.223000000000000000e+03 3.147307395935058594e+01 -1.453859138488769531e+01 -3.237423002719879150e-01 -1.199559494853019714e-01 -1.331094801425933838e-01 -3.977396339178085327e-02
2.224000000000000000e+03 6.903875732421875000e+01 -1.291564106941223145e+00 -1.751918196678161621e+00 7.638050079345703125e+00 1.765839457511901855e+00 -1.666811823844909668e+00
2.225000000000000000e+03 6.545676422119140625e+01 -2.236604690551757812e+00 -1.155297040939331055e+00 3.758159875869750977e+00 7.808588147163391113e-01 -2.663252830505371094e+00
2.226000000000000000e+03 9.702466011047363281e+00 7.968559741973876953e+00 -3.169220983982086182e-01 -2.463010698556900024e-01 -1.689669489860534668e-01 5.229992270469665527e-01
2.227000000000000000e+03 3.939292144775390625e+01 -1.287023925781250000e+01 -1.038939952850341797e+00 1.039413437247276306e-01 -2.804995775222778320e-01 -1.086819767951965332e-01
2.228000000000000000e+03 1.140475845336914062e+01 5.700108051300048828e+00 -5.165686011314392090e-01 -3.409759998321533203e-01 -2.572633624076843262e-01 3.919810354709625244e-01
2.229000000000000000e+03 1.184278011322021484e+01 7.687215805053710938e+00 -4.613574445247650146e-01 -3.817706108093261719e-01 -2.529384195804595947e-01 5.457937717437744141e-01
2.230000000000000000e+03 7.343865203857421875e+01 -8.339102745056152344e+00 1.086583495140075684e+00 1.008838081359863281e+01 3.352489471435546875e+00 1.780402660369873047e+00
2.231000000000000000e+03 7.310004425048828125e+01 -1.088491058349609375e+01 2.420838832855224609e+00 1.042696475982666016e+01 3.854341030120849609e+00 5.133090019226074219e-01
2.232000000000000000e+03 3.017406845092773438e+01 1.149160385131835938e+01 -7.343917340040206909e-02 3.578559160232543945e-01 8.532501757144927979e-02 6.950817704200744629e-01
2.233000000000000000e+03 2.951468658447265625e+01 1.552292537689208984e+01 -1.229022145271301270e-01 2.206209897994995117e-01 2.931562997400760651e-02 3.695122301578521729e-01
2.234000000000000000e+03 1.001421260833740234e+01 1.430221652984619141e+01 2.814698517322540283e-01 -4.237087368965148926e-01 -4.267166182398796082e-02 4.690720736980438232e-01
2.235000000000000000e+03 4.314610290527343750e+01 -1.269944000244140625e+01 -1.212057828903198242e+00 1.089036092162132263e-01 -3.309462666511535645e-01 -1.932679265737533569e-01
2.236000000000000000e+03 4.153512191772460938e+01 -1.209472274780273438e+01 -1.113470554351806641e+00 1.337540745735168457e-01 -2.939149439334869385e-01 -1.190877333283424377e-01
2.237000000000000000e+03 3.534218215942382812e+01 -1.383411979675292969e+01 -8.211045265197753906e-01 -4.907411057502031326e-03 -2.478035837411880493e-01 -8.702775835990905762e-02
2.238000000000000000e+03 6.941906738281250000e+01 -2.384850883483886719e+01 -7.527776360511779785e-01 8.093811035156250000e+00 2.202310085296630859e+00 3.581816554069519043e-01
2.239000000000000000e+03 2.186971282958984375e+01 9.234666228294372559e-01 -4.841858744621276855e-01 1.689990460872650146e-01 -9.455604851245880127e-02 4.582558274269104004e-01
2.240000000000000000e+03 3.025912094116210938e+01 7.373543739318847656e+00 1.225989162921905518e-01 3.532357513904571533e-01 1.427503973245620728e-01 6.515823602676391602e-01
2.241000000000000000e+03 1.215801620483398438e+01 -8.214850425720214844e+00 -3.028965592384338379e-01 1.098976135253906250e+00 2.388238757848739624e-01 6.954635381698608398e-01
2.242000000000000000e+03 1.643866348266601562e+01 -8.355685234069824219e+00 -3.637509942054748535e-01 -2.952879667282104492e-01 -1.977116912603378296e-01 8.002197742462158203e-01
2.243000000000000000e+03 1.082581138610839844e+01 -8.711386680603027344e+00 -3.871803879737854004e-01 1.968865156173706055e+00 4.745054244995117188e-01 5.878015756607055664e-01
2.244000000000000000e+03 1.380280113220214844e+01 2.023790740966796875e+01 1.828651130199432373e-01 -3.023671917617321014e-02 4.578851908445358276e-02 2.627505958080291748e-01
2.245000000000000000e+03 4.861439704895019531e+00 -6.337763786315917969e+00 -5.021910667419433594e-01 1.023266762495040894e-01 -1.199593096971511841e-01 -1.300452470779418945e+00
2.246000000000000000e+03 5.753371810913085938e+01 4.292103290557861328e+00 4.496657475829124451e-02 1.594121336936950684e+00 4.917263686656951904e-01 -2.032719552516937256e-01
2.247000000000000000e+03 3.758923721313476562e+01 -1.444118881225585938e+01 -1.060225009918212891e+00 4.638698697090148926e-02 -3.041513860225677490e-01 -1.603455543518066406e-01
2.248000000000000000e+03 5.352225112915039062e+01 -6.298789501190185547e+00 -1.759521484375000000e+00 2.713268995285034180e-01 -4.464583694934844971e-01 -6.188190728425979614e-02
2.249000000000000000e+03 5.042976379394531250e+01 -8.080288887023925781e+00 -1.574100136756896973e+00 2.211800515651702881e-01 -4.058760404586791992e-01 -1.359567642211914062e-01
2.250000000000000000e+03 4.046007919311523438e+01 -1.250046825408935547e+01 -1.073520183563232422e+00 1.209812909364700317e-01 -2.857616543769836426e-01 -1.116145700216293335e-01
2.251000000000000000e+03 3.674914169311523438e+01 1.249592399597167969e+01 2.389212548732757568e-01 8.105949759483337402e-01 3.148548603057861328e-01 5.948726534843444824e-01
2.252000000000000000e+03 4.662454605102539062e+01 -1.127093124389648438e+01 -1.374317884445190430e+00 1.327279061079025269e-01 -3.724769949913024902e-01 -2.459775507450103760e-01
2.253000000000000000e+03 2.519620323181152344e+01 3.356950044631958008e+00 -5.597545206546783447e-02 5.902332067489624023e-01 1.602773219347000122e-01 2.602563798427581787e-01
2.254000000000000000e+03 8.570549964904785156e+00 -5.216787338256835938e+00 -1.034509658813476562e+00 9.157409071922302246e-01 -3.563062474131584167e-02 -3.925919830799102783e-01
2.255000000000000000e+03 7.575849056243896484e+00 -5.475613594055175781e+00 -9.355989098548889160e-01 8.383747339248657227e-01 -2.916726283729076385e-02 -7.767745852470397949e-01
2.256000000000000000e+03 5.261742019653320312e+01 2.702111482620239258e+00 -1.212353706359863281e-01 5.459702610969543457e-01 1.274204701185226440e-01 3.868204951286315918e-01
2.257000000000000000e+03 1.480126667022705078e+01 -7.764104843139648438e+00 -3.402377068996429443e-01 8.109645545482635498e-02 -7.774238288402557373e-02 8.167643547058105469e-01
2.258000000000000000e+03 5.142644882202148438e+01 -7.448306083679199219e+00 -1.659589767456054688e+00 2.366512715816497803e-01 -4.268815517425537109e-01 -1.179314106702804565e-01
2.259000000000000000e+03 8.205148696899414062e+00 -1.030486392974853516e+01 2.055440694093704224e-01 2.902167558670043945e+00 9.323134422302246094e-01 -1.123664379119873047e+00
2.260000000000000000e+03 3.732858657836914062e+01 -1.348462772369384766e+01 -9.581939578056335449e-01 5.940876528620719910e-02 -2.696355581283569336e-01 -1.025035083293914795e-01
2.261000000000000000e+03 1.313464927673339844e+01 -2.584030151367187500e+01 3.255775570869445801e-01 1.678858399391174316e+00 6.013308167457580566e-01 -7.274369001388549805e-01
2.262000000000000000e+03 2.697396469116210938e+01 3.837756156921386719e+00 -1.612833701074123383e-02 5.279169678688049316e-01 1.535365879535675049e-01 2.908845245838165283e-01
2.263000000000000000e+03 7.038706207275390625e+01 -2.797994995117187500e+01 -5.810604095458984375e-01 7.460288524627685547e+00 2.063768386840820312e+00 1.223993375897407532e-01
2.264000000000000000e+03 6.899169921875000000e+01 -3.223537063598632812e+01 -2.697314023971557617e-01 6.279512405395507812e+00 1.802934288978576660e+00 3.318547606468200684e-01
2.265000000000000000e+03 4.940951919555664062e+01 -8.684168815612792969e+00 -1.514026284217834473e+00 2.082931846380233765e-01 -3.917199373245239258e-01 -1.527794897556304932e-01
2.266000000000000000e+03 7.203359985351562500e+01 -7.615777015686035156e+00 9.043466448783874512e-01 1.119801807403564453e+01 3.630709648132324219e+00 1.747852563858032227e+00
2.267000000000000000e+03 7.265699005126953125e+01 -4.889078617095947266e+00 -1.037468552589416504e+00 1.060870265960693359e+01 2.871370077133178711e+00 1.325335264205932617e+00
2.268000000000000000e+03 7.101625823974609375e+01 -3.328885650634765625e+01 -2.126804441213607788e-01 6.944175720214843750e+00 2.019448518753051758e+00 1.327161490917205811e-01
2.269000000000000000e+03 7.178401947021484375e+01 -2.252966117858886719e+01 -6.212801337242126465e-01 8.835344314575195312e+00 2.464219093322753906e+00 -4.123853147029876709e-01
2.270000000000000000e+03 7.814395904541015625e+00 2.928122520446777344e+01 2.597570419311523438e-02 -6.920810341835021973e-01 -1.998315900564193726e-01 1.102664023637771606e-01
2.271000000000000000e+03 9.599656105041503906e+00 3.232223892211914062e+01 3.810944780707359314e-02 -6.133624315261840820e-01 -1.725758910179138184e-01 1.144189611077308655e-01
2.272000000000000000e+03 7.070118713378906250e+01 1.726957893371582031e+01 1.973765492439270020e-01 5.886327743530273438e+00 1.825111389160156250e+00 -6.661509871482849121e-01
2.273000000000000000e+03 7.333766937255859375e+01 -1.947030782699584961e+00 -1.249950766563415527e+00 9.233007431030273438e+00 2.394917011260986328e+00 4.533245861530303955e-01
2.274000000000000000e+03 7.424870300292968750e+01 -2.551429367065429688e+01 -4.477809965610504150e-01 8.452296257019042969e+00 2.401354551315307617e+00 -5.735002756118774414e-01
2.275000000000000000e+03 7.266597747802734375e+01 8.952818870544433594e+00 -9.924295544624328613e-02 6.884790420532226562e+00 2.035664081573486328e+00 -7.984454631805419922e-01
2.276000000000000000e+03 7.490908813476562500e+01 -1.601367187500000000e+01 5.948143005371093750e-01 8.762755393981933594e+00 2.807271003723144531e+00 -1.021833300590515137e+00
2.277000000000000000e+03 7.225853729248046875e+01 -1.886343193054199219e+01 -3.301036059856414795e-01 9.899240493774414062e+00 2.870741128921508789e+00 -8.561936616897583008e-01
2.278000000000000000e+03 7.112812042236328125e+01 4.214172840118408203e+00 -6.320124268531799316e-01 7.042492866516113281e+00 1.923144221305847168e+00 -9.709882140159606934e-01
2.279000000000000000e+03 7.392485809326171875e+01 -9.434982299804687500e+00 1.511147499084472656e+00 9.585937500000000000e+00 3.329125404357910156e+00 1.109943151473999023e+00
2.280000000000000000e+03 7.466256713867187500e+01 -3.109792232513427734e+00 -7.751260399818420410e-01 9.147821426391601562e+00 2.511808633804321289e+00 1.093302845954895020e+00
2.281000000000000000e+03 7.305876159667968750e+01 -5.205051898956298828e-01 -1.239549756050109863e+00 8.876778602600097656e+00 2.291168451309204102e+00 1.089724972844123840e-01
2.282000000000000000e+03 7.403048706054687500e+01 5.783667564392089844e+00 -2.904346883296966553e-01 7.664432048797607422e+00 2.212199211120605469e+00 -5.854787230491638184e-01
2.283000000000000000e+03 7.177262115478515625e+01 5.216969013214111328e+00 -4.371305108070373535e-01 7.012941837310791016e+00 1.972743391990661621e+00 -8.788303732872009277e-01
2.284000000000000000e+03 7.179743194580078125e+01 9.813800811767578125e+00 -2.733386494219303131e-02 6.509274959564208984e+00 1.944582343101501465e+00 -8.669639229774475098e-01
2.285000000000000000e+03 9.845176696777343750e+00 1.880443191528320312e+01 2.318511605262756348e-01 -4.034224450588226318e-01 -5.147138983011245728e-02 2.469728887081146240e-01
2.286000000000000000e+03 8.093949317932128906e+00 2.573104858398437500e+01 4.209406673908233643e-02 -5.995316505432128906e-01 -1.672312617301940918e-01 1.389423459768295288e-01
2.287000000000000000e+03 7.283834838867187500e+01 1.776587867736816406e+01 1.222761198878288269e-01 6.367640495300292969e+00 1.946974992752075195e+00 -5.700552463531494141e-01
2.288000000000000000e+03 4.782186031341552734e+00 -1.197622299194335938e+01 8.306776881217956543e-01 -4.863499663770198822e-03 2.477442473173141479e-01 -1.432946324348449707e+00
2.289000000000000000e+03 5.484374046325683594e+00 -1.115271091461181641e+01 5.142275691032409668e-01 8.514053821563720703e-01 4.096899032592773438e-01 -1.592969059944152832e+00
2.290000000000000000e+03 6.984474182128906250e+01 2.788866615295410156e+01 1.628816127777099609e-01 5.441148281097412109e+00 1.681208968162536621e+00 -3.877125978469848633e-01
2.291000000000000000e+03 7.189205932617187500e+01 2.803966522216796875e+01 1.159166246652603149e-01 5.795664310455322266e+00 1.773474335670471191e+00 -3.403247296810150146e-01
2.292000000000000000e+03 6.695345306396484375e+01 -2.531097793579101562e+01 -5.496316552162170410e-01 6.362703800201416016e+00 1.743921637535095215e+00 9.182685017585754395e-01
2.293000000000000000e+03 5.217737674713134766e+00 2.787803268432617188e+01 1.366640068590641022e-02 -8.771489262580871582e-01 -2.590447664260864258e-01 8.094454556703567505e-02
2.294000000000000000e+03 5.810630416870117188e+01 -5.931616783142089844e+00 -2.306184053421020508e+00 7.155654579401016235e-02 -6.703882813453674316e-01 -3.212296664714813232e-01
2.295000000000000000e+03 5.710061264038085938e+01 -5.174601554870605469e+00 -1.996954560279846191e+00 2.312072813510894775e-01 -5.297241806983947754e-01 -1.705430597066879272e-01
2.296000000000000000e+03 5.765051841735839844e+00 -8.725081443786621094e+00 -2.469466030597686768e-01 7.372054457664489746e-01 1.470776498317718506e-01 -1.577667593955993652e+00
2.297000000000000000e+03 7.533265113830566406e+00 -2.511976432800292969e+01 -2.013120353221893311e-01 6.674779653549194336e-01 1.398497819900512695e-01 3.455120027065277100e-01
2.298000000000000000e+03 7.443170547485351562e+00 -2.363655471801757812e+01 -1.436498761177062988e-01 8.859681487083435059e-01 2.226954847574234009e-01 3.159819543361663818e-01
2.299000000000000000e+03 6.017052173614501953e+00 -2.385038185119628906e+01 -1.956718862056732178e-01 2.733873575925827026e-02 -5.049994215369224548e-02 6.004707813262939453e-01
2.300000000000000000e+03 4.771615028381347656e+00 -1.949931716918945312e+01 1.952465772628784180e-01 -5.437980890274047852e-01 -1.045654639601707458e-01 6.631634235382080078e-01
2.301000000000000000e+03 6.553709030151367188e+00 1.613456535339355469e+01 1.469410061836242676e-01 -5.678112506866455078e-01 -1.262610703706741333e-01 3.223085701465606689e-01
2.302000000000000000e+03 7.594409465789794922e+00 1.632198524475097656e+01 1.916312426328659058e-01 -5.392314791679382324e-01 -1.042800769209861755e-01 3.411222696304321289e-01
2.303000000000000000e+03 6.653273105621337891e+00 1.509822463989257812e+01 1.419721394777297974e-01 -5.456964969635009766e-01 -1.211173012852668762e-01 3.753566443920135498e-01
2.304000000000000000e+03 6.849602222442626953e+00 1.412926006317138672e+01 1.220759153366088867e-01 -5.143739581108093262e-01 -1.176894083619117737e-01 4.043165147304534912e-01
2.305000000000000000e+03 7.205715656280517578e+00 1.979186630249023438e+01 1.304483115673065186e-01 -6.037923097610473633e-01 -1.420031934976577759e-01 2.049734145402908325e-01
2.306000000000000000e+03 5.867366790771484375e+00 1.963813018798828125e+01 9.665350615978240967e-02 -6.832295060157775879e-01 -1.759728044271469116e-01 1.904615163803100586e-01
2.307000000000000000e+03 7.727139472961425781e+00 1.524126338958740234e+01 1.924512237310409546e-01 -5.147976875305175781e-01 -9.670393168926239014e-02 3.827193081378936768e-01
2.308000000000000000e+03 4.450198364257812500e+01 3.238504171371459961e+00 -2.716863751411437988e-01 3.099296092987060547e-01 1.147296652197837830e-02 1.712966710329055786e-01
2.309000000000000000e+03 4.834714126586914062e+01 1.610047459602355957e+00 -2.557499706745147705e-01 1.779682189226150513e-01 -2.333452738821506500e-02 3.213196694850921631e-01
2.310000000000000000e+03 7.050156116485595703e+00 -2.225014877319335938e+01 -7.846402376890182495e-02 1.092299461364746094e+00 3.041506111621856689e-01 3.278475105762481689e-01
2.311000000000000000e+03 8.529059410095214844e+00 -2.958391189575195312e+01 -2.359488904476165771e-01 3.398218452930450439e-01 3.116188384592533112e-02 2.697498500347137451e-01
2.312000000000000000e+03 7.867508411407470703e+00 -3.080018615722656250e+01 -2.358629405498504639e-01 4.576300457119941711e-02 -5.702998116612434387e-02 3.239856660366058350e-01
2.313000000000000000e+03 7.252079486846923828e+00 2.816396331787109375e+01 2.362042106688022614e-02 -7.114547491073608398e-01 -2.063502967357635498e-01 1.092812865972518921e-01
2.314000000000000000e+03 5.904799652099609375e+01 -2.789546251296997070e+00 -1.264616966247558594e+00 4.972453713417053223e-01 -2.302114665508270264e-01 -2.698573172092437744e-01
2.315000000000000000e+03 5.791409683227539062e+01 -2.210407018661499023e+00 -9.725214242935180664e-01 4.976284503936767578e-01 -1.424679011106491089e-01 -8.288601040840148926e-02
2.316000000000000000e+03 8.052613258361816406e+00 7.240683078765869141e+00 -2.664431929588317871e-01 -2.009380310773849487e-01 -1.402143687009811401e-01 4.068998396396636963e-01
2.317000000000000000e+03 6.221838474273681641e+00 7.958325386047363281e+00 -1.497539132833480835e-01 -2.330391258001327515e-01 -1.148379147052764893e-01 3.568891882896423340e-01
2.318000000000000000e+03 9.317526817321777344e+00 1.097791671752929688e+01 -2.353352867066860199e-02 -3.709031343460083008e-01 -1.183309927582740784e-01 5.773491263389587402e-01
2.319000000000000000e+03 5.703433227539062500e+01 6.084781646728515625e+00 1.733768284320831299e-01 1.902926325798034668e+00 6.228909492492675781e-01 -1.489519625902175903e-01
2.320000000000000000e+03 5.574171447753906250e+01 4.532083988189697266e+00 8.990403264760971069e-02 1.259170770645141602e+00 4.047224521636962891e-01 1.113428398966789246e-01
2.321000000000000000e+03 8.617632865905761719e+00 8.872306823730468750e+00 -2.056499570608139038e-01 -2.539110481739044189e-01 -1.378683000802993774e-01 5.180749893188476562e-01
2.322000000000000000e+03 6.334032535552978516e+00 9.568881034851074219e+00 -8.590294420719146729e-02 -3.180644214153289795e-01 -1.211902126669883728e-01 4.118943810462951660e-01
2.323000000000000000e+03 6.056597232818603516e+00 -7.653571605682373047e+00 -5.547513961791992188e-01 8.681287169456481934e-01 9.401319921016693115e-02 -1.352009415626525879e+00
2.324000000000000000e+03 3.493268203735351562e+01 1.296815013885498047e+01 1.657164394855499268e-01 6.781566143035888672e-01 2.531619071960449219e-01 5.877506732940673828e-01
2.325000000000000000e+03 1.115592575073242188e+01 1.882114791870117188e+01 2.627145946025848389e-01 -3.053784668445587158e-01 -1.279915496706962585e-02 2.317182570695877075e-01
2.326000000000000000e+03 5.896080017089843750e+01 6.346561908721923828e+00 2.350349277257919312e-01 2.324374914169311523e+00 7.678229808807373047e-01 -5.233498215675354004e-01
2.327000000000000000e+03 7.308217525482177734e+00 -6.580360889434814453e+00 -8.307604193687438965e-01 1.139443278312683105e+00 9.260486066341400146e-02 -9.971798658370971680e-01
2.328000000000000000e+03 4.437070465087890625e+01 -9.681694030761718750e+00 -1.175998926162719727e+00 1.989967375993728638e-01 -2.931006550788879395e-01 -6.619950383901596069e-02
2.329000000000000000e+03 3.964267349243164062e+01 6.905538558959960938e+00 -2.245069146156311035e-01 8.504925370216369629e-01 1.877956837415695190e-01 4.348162114620208740e-01
2.330000000000000000e+03 4.079357528686523438e+01 6.437008857727050781e+00 -2.707309126853942871e-01 7.962039113044738770e-01 1.576419025659561157e-01 3.332116901874542236e-01
2.331000000000000000e+03 5.104809570312500000e+01 9.654159545898437500e-01 -3.514013886451721191e-01 3.323807418346405029e-01 -5.706196650862693787e-03 3.874431550502777100e-01
2.332000000000000000e+03 4.263317489624023438e+01 -1.165908527374267578e+01 -1.150383472442626953e+00 1.459852308034896851e-01 -3.013194799423217773e-01 -1.244134232401847839e-01
2.333000000000000000e+03 5.165045928955078125e+01 2.628935050964355469e+01 7.125397920608520508e-01 1.738435745239257812e+00 7.352926731109619141e-01 -2.753321528434753418e-01
2.334000000000000000e+03 4.954604339599609375e+01 2.676897811889648438e+01 7.428510785102844238e-01 1.425271153450012207e+00 6.504366993904113770e-01 -9.623023122549057007e-02
2.335000000000000000e+03 5.975101852416992188e+01 1.035981178283691406e+01 5.227658748626708984e-01 3.071969509124755859e+00 1.078420639038085938e+00 -6.797310113906860352e-01
2.336000000000000000e+03 5.891363525390625000e+01 9.309364318847656250e+00 4.271689355373382568e-01 2.877840042114257812e+00 9.915027022361755371e-01 -5.658091902732849121e-01
2.337000000000000000e+03 3.731088638305664062e+01 1.716762924194335938e+01 3.530147075653076172e-01 9.220666289329528809e-01 3.825244009494781494e-01 3.164570033550262451e-01
2.338000000000000000e+03 6.106218338012695312e+01 9.399219512939453125e+00 4.265348613262176514e-01 3.261647224426269531e+00 1.106454610824584961e+00 -8.109121322631835938e-01
2.339000000000000000e+03 6.890225982666015625e+01 3.234289932250976562e+01 1.765421628952026367e-01 5.176958560943603516e+00 1.606050252914428711e+00 -2.913089990615844727e-01
2.340000000000000000e+03 5.635857772827148438e+01 -2.518940687179565430e+00 -1.064536571502685547e+00 4.346232712268829346e-01 -1.889740079641342163e-01 8.702979981899261475e-02
2.341000000000000000e+03 5.446406555175781250e+01 -5.699765205383300781e+00 -1.737905502319335938e+00 2.741703391075134277e-01 -4.391205310821533203e-01 -2.402888983488082886e-02
2.342000000000000000e+03 3.111361312866210938e+01 1.533952808380126953e+01 -2.977028302848339081e-02 3.829043507575988770e-01 1.059402227401733398e-01 4.222415685653686523e-01
2.343000000000000000e+03 4.337965393066406250e+01 3.248577117919921875e+00 -3.286386430263519287e-01 4.106656610965728760e-01 2.460810914635658264e-02 1.911611258983612061e-01
2.344000000000000000e+03 1.205716037750244141e+01 1.636516761779785156e+01 4.238867759704589844e-01 -2.541319131851196289e-01 5.092645436525344849e-02 3.152054548263549805e-01
2.345000000000000000e+03 4.723962020874023438e+01 -1.232403945922851562e+01 -1.413578271865844727e+00 6.266458332538604736e-02 -4.052740931510925293e-01 -3.451432585716247559e-01
2.346000000000000000e+03 4.777907180786132812e+01 -1.075819015502929688e+01 -1.439565181732177734e+00 1.287734359502792358e-01 -3.932375311851501465e-01 -2.640328705310821533e-01
2.347000000000000000e+03 5.681879425048828125e+01 -3.213873672485351562e+01 2.135442644357681274e-01 9.311792254447937012e-01 3.434170484542846680e-01 3.647081255912780762e-01
2.348000000000000000e+03 5.923376846313476562e+01 -3.097756576538085938e+01 1.121990233659744263e-01 1.795538783073425293e+00 5.723213553428649902e-01 5.568069815635681152e-01
2.349000000000000000e+03 1.042214584350585938e+01 -3.286210632324218750e+01 -2.420326620340347290e-01 4.470292925834655762e-01 6.149898841977119446e-02 1.058542281389236450e-01
2.350000000000000000e+03 1.476684188842773438e+01 -3.129813194274902344e+01 -3.492368385195732117e-02 1.095612764358520508e+00 3.182067275047302246e-01 -3.096961677074432373e-01
2.351000000000000000e+03 4.085405349731445312e+01 2.156410980224609375e+01 3.038519918918609619e-01 1.246420741081237793e+00 4.650818109512329102e-01 3.681442439556121826e-01
2.352000000000000000e+03 6.378767013549804688e+01 -2.790194988250732422e+00 -6.855482459068298340e-01 1.317402362823486328e+00 1.895562410354614258e-01 -2.075462102890014648e+00
2.353000000000000000e+03 5.956417083740234375e+01 -1.866755723953247070e+00 -8.110125064849853516e-01 6.453395485877990723e-01 -4.970188438892364502e-02 -3.682762682437896729e-01
2.354000000000000000e+03 4.347599029541015625e+01 2.459516716003417969e+01 4.713224768638610840e-01 1.158836722373962402e+00 4.890477657318115234e-01 3.666774332523345947e-01
2.355000000000000000e+03 7.103403472900390625e+01 -1.857682418823242188e+01 -2.639727294445037842e-01 1.056663703918457031e+01 3.090799331665039062e+00 -4.339381158351898193e-01
2.356000000000000000e+03 5.631778335571289062e+01 2.130488204956054688e+01 3.534736037254333496e-01 2.727475404739379883e+00 9.242846965789794922e-01 -6.514335274696350098e-01
2.357000000000000000e+03 5.557002258300781250e+01 2.539960098266601562e+01 5.333519577980041504e-01 2.504409313201904297e+00 9.113283753395080566e-01 -5.240073204040527344e-01
2.358000000000000000e+03 9.034478187561035156e+00 1.313594627380371094e+01 1.516640186309814453e-01 -4.352638721466064453e-01 -8.507995307445526123e-02 5.163747668266296387e-01
2.359000000000000000e+03 4.452722549438476562e+01 2.621959114074707031e+01 5.460219979286193848e-01 1.156462788581848145e+00 5.107454657554626465e-01 2.869244813919067383e-01
2.360000000000000000e+03 3.830705642700195312e+01 7.102355957031250000e+00 -1.723409593105316162e-01 8.176946640014648438e-01 1.936061233282089233e-01 5.473920702934265137e-01
2.361000000000000000e+03 3.863254547119140625e+01 8.234732627868652344e+00 -8.431819081306457520e-02 8.706349134445190430e-01 2.358950227499008179e-01 5.648686885833740234e-01
2.362000000000000000e+03 6.112963104248046875e+01 1.461471462249755859e+01 6.362361907958984375e-01 3.634918451309204102e+00 1.281346440315246582e+00 -6.852068901062011719e-01
2.363000000000000000e+03 6.677421569824218750e+00 -3.053874969482421875e+01 -2.065705358982086182e-01 -2.400118708610534668e-01 -1.339747160673141479e-01 3.935636878013610840e-01
2.364000000000000000e+03 7.211937713623046875e+01 2.063391113281250000e+01 1.329846084117889404e-01 6.107522010803222656e+00 1.872151970863342285e+00 -5.134177207946777344e-01
2.365000000000000000e+03 7.179901885986328125e+01 8.094030380249023438e+00 -1.430592983961105347e-01 6.809202194213867188e+00 1.999842882156372070e+00 -8.607690930366516113e-01
2.366000000000000000e+03 7.491020202636718750e+01 -6.927381992340087891e+00 2.099706530570983887e-01 9.172572135925292969e+00 2.814762830734252930e+00 1.695530176162719727e+00
2.367000000000000000e+03 7.080052947998046875e+01 2.890989112854003906e+01 1.397662013769149780e-01 5.568266391754150391e+00 1.712409853935241699e+00 -3.483732640743255615e-01
2.368000000000000000e+03 5.840200805664062500e+01 2.023484802246093750e+01 3.315438330173492432e-01 3.298335552215576172e+00 1.088963747024536133e+00 -5.555076003074645996e-01
2.369000000000000000e+03 7.361385345458984375e+01 -2.155920791625976562e+01 -4.983896017074584961e-01 8.966456413269042969e+00 2.540420055389404297e+00 -9.505323767662048340e-01
2.370000000000000000e+03 2.686889648437500000e+01 2.239714241027832031e+01 3.176173865795135498e-01 -3.950383141636848450e-02 8.343406766653060913e-02 2.949126064777374268e-01
2.371000000000000000e+03 2.222096824645996094e+01 1.940879249572753906e+01 2.447888851165771484e-01 -3.618761301040649414e-01 -3.512617200613021851e-02 5.428724288940429688e-01
2.372000000000000000e+03 1.025090312957763672e+01 -2.883003807067871094e+01 -1.885380148887634277e-01 8.942064642906188965e-01 2.117005437612533569e-01 1.570418104529380798e-02
2.373000000000000000e+03 8.466461181640625000e+00 -2.674617385864257812e+01 -2.335225790739059448e-01 6.504788398742675781e-01 1.250868737697601318e-01 2.525931894779205322e-01
2.374000000000000000e+03 3.356804656982421875e+01 -1.376373767852783203e+01 -5.910611152648925781e-01 -5.141641572117805481e-02 -1.927432715892791748e-01 -1.956856064498424530e-02
2.375000000000000000e+03 2.962618064880371094e+01 -1.437966918945312500e+01 3.733523190021514893e-01 1.575817167758941650e-01 1.592802107334136963e-01 4.767915606498718262e-01
2.376000000000000000e+03 2.748406982421875000e+01 -1.214826011657714844e+01 -3.420000970363616943e-01 1.538842678070068359e+00 3.590527474880218506e-01 4.560067653656005859e-01
2.377000000000000000e+03 2.761441993713378906e+01 -1.034449958801269531e+01 -4.918626248836517334e-01 1.069027423858642578e+00 1.731494367122650146e-01 4.652915596961975098e-01
2.378000000000000000e+03 2.591743087768554688e+01 -4.121598243713378906e+00 -7.665340304374694824e-01 5.858848690986633301e-01 -5.419475585222244263e-02 4.216759800910949707e-01
2.379000000000000000e+03 6.953166484832763672e+00 -5.947841167449951172e+00 -8.520212173461914062e-01 7.901229262351989746e-01 -1.856949552893638611e-02 -8.984227776527404785e-01
2.380000000000000000e+03 1.109042835235595703e+01 -6.449623584747314453e+00 -8.456985950469970703e-01 1.130026340484619141e+00 8.529832214117050171e-02 3.785027265548706055e-01
2.381000000000000000e+03 6.938733100891113281e+00 6.688596725463867188e+00 -2.159847319126129150e-01 -1.819738745689392090e-01 -1.193875744938850403e-01 3.371000885963439941e-01
2.382000000000000000e+03 7.806501388549804688e+00 -9.543804168701171875e+00 -1.482994705438613892e-01 2.341492891311645508e+00 6.579580307006835938e-01 -9.043408036231994629e-01
2.383000000000000000e+03 8.573084831237792969e+00 6.401627540588378906e+00 -3.300766646862030029e-01 -1.660581380128860474e-01 -1.488404422998428345e-01 3.809863328933715820e-01
2.384000000000000000e+03 9.520449638366699219e+00 9.923785209655761719e+00 -1.386892795562744141e-01 -3.004618287086486816e-01 -1.317453235387802124e-01 5.745794773101806641e-01
2.385000000000000000e+03 2.769629287719726562e+01 -9.005296707153320312e+00 -5.790725946426391602e-01 9.055077433586120605e-01 9.793055802583694458e-02 4.936684370040893555e-01
2.386000000000000000e+03 2.768439102172851562e+01 -7.444522380828857422e+00 -6.714536547660827637e-01 7.843502163887023926e-01 3.386896476149559021e-02 4.992386400699615479e-01
2.387000000000000000e+03 2.785600090026855469e+01 -9.594333648681640625e+00 -5.485365390777587891e-01 9.543283581733703613e-01 1.217375323176383972e-01 5.033383965492248535e-01
2.388000000000000000e+03 2.737026596069335938e+01 -6.774744987487792969e+00 -6.984499692916870117e-01 7.498017549514770508e-01 1.540553290396928787e-02 4.817729890346527100e-01
2.389000000000000000e+03 2.532771682739257812e+01 -4.311387062072753906e+00 -7.733333110809326172e-01 5.283475518226623535e-01 -7.349574565887451172e-02 4.191721677780151367e-01
2.390000000000000000e+03 2.429255294799804688e+01 -2.042733430862426758e+00 -7.380464673042297363e-01 4.192867279052734375e-01 -9.562792629003524780e-02 3.826442360877990723e-01
2.391000000000000000e+03 2.454047584533691406e+01 -1.658709347248077393e-01 -5.824913978576660156e-01 4.700712263584136963e-01 -3.372605890035629272e-02 3.519800305366516113e-01
2.392000000000000000e+03 2.415772247314453125e+01 8.082920908927917480e-01 -4.938758015632629395e-01 4.632917940616607666e-01 -9.175200015306472778e-03 3.394499421119689941e-01
2.393000000000000000e+03 2.593688011169433594e+01 1.576294541358947754e+00 -3.541356623172760010e-01 5.708608627319335938e-01 6.501756608486175537e-02 2.948642373085021973e-01
2.394000000000000000e+03 9.860147476196289062e+00 -5.503883838653564453e+00 -1.046994924545288086e+00 1.015415787696838379e+00 -9.473771788179874420e-03 1.475598197430372238e-02
2.395000000000000000e+03 2.496811866760253906e+01 -3.585320711135864258e+00 -7.778003811836242676e-01 4.889906942844390869e-01 -8.664289861917495728e-02 4.055781960487365723e-01
2.396000000000000000e+03 2.667345619201660156e+01 -5.406484127044677734e+00 -7.457234263420104980e-01 6.668108701705932617e-01 -2.367375604808330536e-02 4.507815241813659668e-01
2.397000000000000000e+03 6.836755752563476562e+00 1.326358985900878906e+01 8.586001396179199219e-02 -4.802960157394409180e-01 -1.183308064937591553e-01 4.361617863178253174e-01
2.398000000000000000e+03 6.871124744415283203e+00 1.044168472290039062e+01 -5.224025622010231018e-02 -3.528505861759185791e-01 -1.215272545814514160e-01 4.671000242233276367e-01
2.399000000000000000e+03 2.462448310852050781e+01 -2.829735279083251953e+00 -7.652797102928161621e-01 4.462469518184661865e-01 -9.570981562137603760e-02 3.979546427726745605e-01
2.400000000000000000e+03 2.503038597106933594e+01 -1.907261967658996582e+00 -7.136938571929931641e-01 4.918018877506256104e-01 -6.656758487224578857e-02 3.787102699279785156e-01
2.401000000000000000e+03 1.286082267761230469e+01 -7.715358257293701172e+00 -3.417167365550994873e-01 7.706521153450012207e-01 1.286806017160415649e-01 8.444413542747497559e-01
2.402000000000000000e+03 7.895169258117675781e+00 1.312704849243164062e+01 1.119899079203605652e-01 -4.448725879192352295e-01 -9.986480325460433960e-02 4.778414070606231689e-01
2.403000000000000000e+03 2.882565307617187500e+01 -1.365060329437255859e+01 2.669323682785034180e-01 9.765053987503051758e-01 3.730313479900360107e-01 8.818014264106750488e-01
2.404000000000000000e+03 1.037171840667724609e+01 5.942638397216796875e+00 -4.473194181919097900e-01 -2.220810651779174805e-01 -2.008201479911804199e-01 3.971026837825775146e-01
2.405000000000000000e+03 1.060078525543212891e+01 6.884568214416503906e+00 -4.301102459430694580e-01 -2.804065942764282227e-01 -2.131550461053848267e-01 4.719595313072204590e-01
2.406000000000000000e+03 2.782704162597656250e+01 1.996672391891479492e+00 -2.640442848205566406e-01 5.604802966117858887e-01 8.893081545829772949e-02 3.194815814495086670e-01
2.407000000000000000e+03 3.835242462158203125e+01 -1.320113372802734375e+01 -9.992139339447021484e-01 7.955745607614517212e-02 -2.758969366550445557e-01 -1.063226908445358276e-01
2.408000000000000000e+03 4.116359710693359375e+01 4.370373249053955078e+00 -3.361561000347137451e-01 6.271663308143615723e-01 8.730307966470718384e-02 2.902422547340393066e-01
2.409000000000000000e+03 7.319960784912109375e+01 -2.530131912231445312e+01 -5.226866006851196289e-01 8.403429985046386719e+00 2.364223003387451172e+00 -4.954377412796020508e-01
2.410000000000000000e+03 7.317886352539062500e+01 -2.268141746520996094e+01 -5.675585269927978516e-01 8.893889427185058594e+00 2.497899293899536133e+00 -7.464421987533569336e-01
2.411000000000000000e+03 3.892030334472656250e+01 4.610072135925292969e+00 -3.028418421745300293e-01 6.782230138778686523e-01 1.126143485307693481e-01 4.375946819782257080e-01
2.412000000000000000e+03 9.145193099975585938e+00 1.205086135864257812e+01 6.866851449012756348e-02 -3.816473484039306641e-01 -9.389364719390869141e-02 5.522573590278625488e-01
2.413000000000000000e+03 3.613808822631835938e+01 -1.279907131195068359e+01 -8.002929091453552246e-01 4.772882163524627686e-02 -2.257692217826843262e-01 -1.513771712779998779e-02
2.414000000000000000e+03 3.803419494628906250e+01 -1.225099468231201172e+01 -9.178223609924316406e-01 1.014526188373565674e-01 -2.449109256267547607e-01 -3.632197529077529907e-02
2.415000000000000000e+03 9.865231513977050781e+00 -7.881034374237060547e+00 -6.320314407348632812e-01 1.895696997642517090e+00 3.790996670722961426e-01 1.475587338209152222e-01
2.416000000000000000e+03 4.718755722045898438e+01 -9.720758438110351562e+00 -1.377844452857971191e+00 1.886635869741439819e-01 -3.567542731761932373e-01 -1.598148494958877563e-01
2.417000000000000000e+03 7.300182342529296875e+01 1.537834453582763672e+01 1.119056865572929382e-01 6.544415473937988281e+00 1.996896386146545410e+00 -6.296758651733398438e-01
2.418000000000000000e+03 8.688621520996093750e+00 -8.735544204711914062e+00 -5.275210738182067871e-01 2.514251947402954102e+00 5.960192084312438965e-01 -3.144444525241851807e-01
2.419000000000000000e+03 3.097932624816894531e+01 6.372647285461425781e+00 6.988622248172760010e-02 3.803733289241790771e-01 1.350778639316558838e-01 6.092068552970886230e-01
2.420000000000000000e+03 4.539027214050292969e+00 7.324811935424804688e+00 -1.008666157722473145e-01 -2.113807052373886108e-01 -9.367419779300689697e-02 2.580669522285461426e-01
2.421000000000000000e+03 7.991141319274902344e+00 -4.944941520690917969e+00 -1.071275353431701660e+00 8.803195357322692871e-01 -5.728674307465553284e-02 -5.756909847259521484e-01
2.422000000000000000e+03 4.831388092041015625e+01 -9.215678215026855469e+00 -1.436099290847778320e+00 1.857342272996902466e-01 -3.751094937324523926e-01 -1.648440510034561157e-01
2.423000000000000000e+03 4.324938201904296875e+01 -1.017142677307128906e+01 -1.130069255828857422e+00 1.886819005012512207e-01 -2.824161946773529053e-01 -5.961318686604499817e-02
2.424000000000000000e+03 5.822632598876953125e+01 5.333750247955322266e+00 1.672500818967819214e-01 1.980147123336791992e+00 6.442191600799560547e-01 -3.776629567146301270e-01
2.425000000000000000e+03 8.701222419738769531e+00 1.645643424987792969e+01 2.420631200075149536e-01 -4.877585172653198242e-01 -7.370861619710922241e-02 3.352335989475250244e-01
2.426000000000000000e+03 3.706982040405273438e+01 -1.255650329589843750e+01 -8.672484159469604492e-01 6.965948641300201416e-02 -2.392766773700714111e-01 -3.357573226094245911e-02
2.427000000000000000e+03 4.546746063232421875e+01 -1.176750278472900391e+01 -1.307343721389770508e+00 1.175253614783287048e-01 -3.569455146789550781e-01 -2.322520762681961060e-01
2.428000000000000000e+03 4.376536941528320312e+01 -1.119890499114990234e+01 -1.197602510452270508e+00 1.536992788314819336e-01 -3.131709992885589600e-01 -1.376361697912216187e-01
2.429000000000000000e+03 3.642678833007812500e+01 1.005702400207519531e+01 7.385408878326416016e-02 7.637733221054077148e-01 2.512882053852081299e-01 6.637516021728515625e-01
2.430000000000000000e+03 3.743052291870117188e+01 8.418225288391113281e+00 -5.472366139292716980e-02 8.154362440109252930e-01 2.282137721776962280e-01 6.251053214073181152e-01
2.431000000000000000e+03 3.753234481811523438e+01 1.035450267791748047e+01 1.144172623753547668e-01 8.520187139511108398e-01 2.899307906627655029e-01 6.255077123641967773e-01
2.432000000000000000e+03 1.076574039459228516e+01 8.868834495544433594e+00 -2.944835126399993896e-01 -2.884989380836486816e-01 -1.748947501182556152e-01 5.919216871261596680e-01
2.433000000000000000e+03 5.173569107055664062e+01 -5.809118747711181641e+00 -1.494222402572631836e+00 2.985145449638366699e-01 -3.587123751640319824e-01 5.622064694762229919e-02
2.434000000000000000e+03 4.881950378417968750e+01 -7.756102085113525391e+00 -1.398861765861511230e+00 2.305332273244857788e-01 -3.504985868930816650e-01 -5.996699631214141846e-02
2.435000000000000000e+03 7.163948822021484375e+01 -2.080492782592773438e+01 -5.894991159439086914e-01 9.452253341674804688e+00 2.658826351165771484e+00 -5.190458893775939941e-01
2.436000000000000000e+03 7.237418365478515625e+01 3.374011754989624023e+00 -6.679635643959045410e-01 7.555012702941894531e+00 2.066114664077758789e+00 -6.543555855751037598e-01
2.437000000000000000e+03 7.156894683837890625e+01 2.196760416030883789e+00 -9.623194932937622070e-01 7.624330997467041016e+00 1.998603463172912598e+00 -8.012278676033020020e-01
2.438000000000000000e+03 7.197772979736328125e+01 -8.737656474113464355e-01 -1.518931865692138672e+00 8.771630287170410156e+00 2.175809621810913086e+00 -3.935319483280181885e-01
2.439000000000000000e+03 7.131439208984375000e+01 -3.884788513183593750e+00 -1.932189106941223145e+00 1.061129760742187500e+01 2.603732585906982422e+00 2.982959449291229248e-01
2.440000000000000000e+03 2.477154922485351562e+01 -1.075950026512145996e+00 -6.662583947181701660e-01 4.805099070072174072e-01 -5.572454258799552917e-02 3.631372749805450439e-01
2.441000000000000000e+03 5.844762325286865234e+00 -9.638085365295410156e+00 -4.939359053969383240e-02 1.128256320953369141e+00 3.236588239669799805e-01 -1.631236076354980469e+00
2.442000000000000000e+03 6.307202339172363281e+00 -1.053804302215576172e+01 3.954747617244720459e-01 1.309266924858093262e+00 5.114225149154663086e-01 -1.508262515068054199e+00
2.443000000000000000e+03 8.785932540893554688e+00 2.476870155334472656e+01 5.674192309379577637e-02 -5.419296622276306152e-01 -1.455563157796859741e-01 1.501532346010208130e-01
2.444000000000000000e+03 7.003120422363281250e+01 -2.497400474548339844e+01 -7.415407896041870117e-01 7.891391754150390625e+00 2.144955396652221680e+00 6.094573438167572021e-02
2.445000000000000000e+03 7.243083190917968750e+01 2.268729591369628906e+01 1.205967515707015991e-01 6.051175117492675781e+00 1.851531624794006348e+00 -4.573991000652313232e-01
2.446000000000000000e+03 7.385145568847656250e+01 2.316052818298339844e+01 8.704201877117156982e-02 6.361034393310546875e+00 1.934422969818115234e+00 -3.784769773483276367e-01
2.447000000000000000e+03 2.797479629516601562e+01 4.173376083374023438e+00 3.571841120719909668e-02 4.608456492424011230e-01 1.489692181348800659e-01 3.470094203948974609e-01
2.448000000000000000e+03 7.279190826416015625e+01 5.700993061065673828e+00 -3.456889986991882324e-01 7.315352916717529297e+00 2.090899229049682617e+00 -6.996121406555175781e-01
2.449000000000000000e+03 7.038296508789062500e+01 3.259115695953369141e+00 -7.667673230171203613e-01 6.806211948394775391e+00 1.811833500862121582e+00 -1.159876704216003418e+00
2.450000000000000000e+03 7.286768341064453125e+01 1.398715972900390625e+01 1.030780076980590820e-01 6.560398101806640625e+00 1.999042749404907227e+00 -6.816352009773254395e-01
2.451000000000000000e+03 7.154180145263671875e+01 1.102314949035644531e+01 4.732688143849372864e-02 6.373537540435791016e+00 1.926259398460388184e+00 -8.699898123741149902e-01
2.452000000000000000e+03 7.354998779296875000e+01 -3.323436021804809570e+00 -1.132897853851318359e+00 9.692298889160156250e+00 2.567820310592651367e+00 1.053547501564025879e+00
2.453000000000000000e+03 7.246712493896484375e+01 1.913625526428222656e+01 1.365648806095123291e-01 6.245153903961181641e+00 1.914515614509582520e+00 -5.365219712257385254e-01
2.454000000000000000e+03 7.086746215820312500e+01 1.891031646728515625e+01 1.846179515123367310e-01 5.853775501251220703e+00 1.811518073081970215e+00 -6.116985082626342773e-01
2.455000000000000000e+03 2.843552589416503906e+01 3.203662395477294922e+00 -1.169602125883102417e-01 5.144757032394409180e-01 1.192546561360359192e-01 3.474500477313995361e-01
2.456000000000000000e+03 8.614937782287597656e+00 1.757590675354003906e+01 2.217100709676742554e-01 -4.928556680679321289e-01 -8.134368062019348145e-02 2.898365259170532227e-01
2.457000000000000000e+03 6.261606693267822266e+00 1.706772994995117188e+01 1.303841024637222290e-01 -6.096615791320800781e-01 -1.437832415103912354e-01 2.779930830001831055e-01
2.458000000000000000e+03 9.831723213195800781e+00 1.765389823913574219e+01 2.651414871215820312e-01 -4.152681529521942139e-01 -4.503799229860305786e-02 2.788078486919403076e-01
2.459000000000000000e+03 5.696994400024414062e+01 3.198003053665161133e+00 -3.350324183702468872e-02 1.287577986717224121e+00 3.762224018573760986e-01 -4.961881786584854126e-02
2.460000000000000000e+03 3.694731521606445312e+01 7.344104290008544922e+00 -9.789451211690902710e-02 7.315540313720703125e-01 1.900978535413742065e-01 6.145482063293457031e-01
2.461000000000000000e+03 7.159043884277343750e+01 1.232605171203613281e+01 1.081348210573196411e-01 6.287344455718994141e+00 1.918643832206726074e+00 -7.985001206398010254e-01
2.462000000000000000e+03 5.952382278442382812e+01 1.792008781433105469e+01 4.871008098125457764e-01 3.485273361206054688e+00 1.191712260246276855e+00 -4.953533113002777100e-01
2.463000000000000000e+03 6.194386959075927734e+00 8.671781539916992188e+00 -1.261151880025863647e-01 -2.623524069786071777e-01 -1.165402755141258240e-01 3.938096463680267334e-01
2.464000000000000000e+03 7.200300693511962891e+00 7.656892776489257812e+00 -1.974960267543792725e-01 -2.261595875024795532e-01 -1.270966827869415283e-01 3.959005177021026611e-01
2.465000000000000000e+03 7.056729793548583984e+00 -8.168942451477050781e+00 -4.858709275722503662e-01 1.452412605285644531e+00 2.899625003337860107e-01 -1.226798415184020996e+00
2.466000000000000000e+03 6.516479969024658203e+00 -9.093645095825195312e+00 -2.314089834690093994e-01 1.492452383041381836e+00 3.783130347728729248e-01 -1.324385166168212891e+00
2.467000000000000000e+03 7.852515697479248047e+00 1.201144599914550781e+01 4.392752051353454590e-02 -4.176479876041412354e-01 -1.121161431074142456e-01 5.052680969238281250e-01
2.468000000000000000e+03 1.254434394836425781e+01 1.875499725341796875e+01 3.063999414443969727e-01 -1.374294161796569824e-01 5.069115385413169861e-02 2.248301059007644653e-01
2.469000000000000000e+03 1.116419410705566406e+01 2.007258224487304688e+01 2.123233973979949951e-01 -2.844047546386718750e-01 -2.162441052496433258e-02 2.111987322568893433e-01
2.470000000000000000e+03 5.741484069824218750e+01 -3.021626949310302734e+00 -1.310271143913269043e+00 4.683226644992828369e-01 -2.525845468044281006e-01 -1.403732877224683762e-02
2.471000000000000000e+03 8.164153099060058594e+00 3.052189826965332031e+01 2.020637318491935730e-02 -6.814594864845275879e-01 -1.983759403228759766e-01 1.093945950269699097e-01
2.472000000000000000e+03 1.078110599517822266e+01 2.984091567993164062e+01 4.734875261783599854e-02 -5.041515827178955078e-01 -1.370408535003662109e-01 1.541886031627655029e-01
2.473000000000000000e+03 5.756645965576171875e+01 7.171920776367187500e+00 2.708504796028137207e-01 2.202003002166748047e+00 7.418560981750488281e-01 -2.900317609310150146e-01
2.474000000000000000e+03 5.268911743164062500e+01 1.124443411827087402e+00 -3.492287099361419678e-01 4.875813424587249756e-01 4.150578752160072327e-02 3.671926856040954590e-01
2.475000000000000000e+03 4.680559539794921875e+01 1.294828414916992188e+00 -3.258952498435974121e-01 2.023365944623947144e-01 -3.706760331988334656e-02 2.842237353324890137e-01
2.476000000000000000e+03 7.316018676757812500e+01 2.137536811828613281e+01 1.116153970360755920e-01 6.295676231384277344e+00 1.922187447547912598e+00 -4.686643779277801514e-01
2.477000000000000000e+03 7.087242889404296875e+01 2.046268844604492188e+01 1.790483444929122925e-01 5.811165809631347656e+00 1.797064185142517090e+00 -5.549693107604980469e-01
2.478000000000000000e+03 6.427597808837890625e+01 -1.615199685096740723e+00 -7.450112104415893555e-01 2.542938947677612305e+00 5.393783450126647949e-01 -2.359338760375976562e+00
2.479000000000000000e+03 6.253561019897460938e+01 -2.095764875411987305e+00 -7.692520618438720703e-01 9.954537749290466309e-01 6.786050647497177124e-02 -1.378028392791748047e+00
2.480000000000000000e+03 4.104377746582031250e+01 3.188656806945800781e+00 -3.792510032653808594e-01 5.577695965766906738e-01 5.355557799339294434e-02 3.059544861316680908e-01
2.481000000000000000e+03 7.153678894042968750e+01 -2.894876861572265625e+01 -4.670507907867431641e-01 7.514465332031250000e+00 2.114224433898925781e+00 -1.951988786458969116e-02
2.482000000000000000e+03 6.753381347656250000e+01 -3.039253997802734375e+01 -3.770270943641662598e-01 5.959539890289306641e+00 1.674753904342651367e+00 5.173548460006713867e-01
2.483000000000000000e+03 7.319840240478515625e+01 -1.930830383300781250e+01 -1.789948195219039917e-01 9.431884765625000000e+00 2.775866985321044922e+00 -8.973038792610168457e-01
2.484000000000000000e+03 5.249923706054687500e+01 -2.152833461761474609e+00 -9.113175272941589355e-01 3.843175470829010010e-01 -1.580999791622161865e-01 2.962514460086822510e-01
2.485000000000000000e+03 5.356874084472656250e+01 1.882793068885803223e+00 -2.110511958599090576e-01 6.201581954956054688e-01 1.227320954203605652e-01 3.241481482982635498e-01
2.486000000000000000e+03 4.600935745239257812e+01 1.665863275527954102e+00 -3.123521506786346436e-01 2.278502136468887329e-01 -2.535057626664638519e-02 2.463303804397583008e-01
2.487000000000000000e+03 4.930300140380859375e+01 7.502984404563903809e-01 -3.696627020835876465e-01 2.277451157569885254e-01 -4.257528111338615417e-02 3.601087033748626709e-01
2.488000000000000000e+03 3.123818969726562500e+01 1.391394901275634766e+01 -5.971786752343177795e-02 4.145947396755218506e-01 1.064630672335624695e-01 5.267878770828247070e-01
2.489000000000000000e+03 7.230862426757812500e+01 -2.751858901977539062e+01 -5.004523396492004395e-01 7.991838932037353516e+00 2.247416019439697266e+00 -2.203515321016311646e-01
2.490000000000000000e+03 6.841728973388671875e+01 2.922203063964843750e+01 1.890312880277633667e-01 5.166224002838134766e+00 1.606576561927795410e+00 -3.907948434352874756e-01
2.491000000000000000e+03 6.391081619262695312e+01 1.078268051147460938e+01 4.049886465072631836e-01 4.022558689117431641e+00 1.328264236450195312e+00 -9.942788481712341309e-01
2.492000000000000000e+03 7.291689300537109375e+01 -2.634591865539550781e+01 -5.423953533172607422e-01 8.193042755126953125e+00 2.295194149017333984e+00 -3.606973588466644287e-01
2.493000000000000000e+03 6.970915985107421875e+01 -1.194468885660171509e-02 -1.477898597717285156e+00 7.477340698242187500e+00 1.799832701683044434e+00 -1.342868685722351074e+00
2.494000000000000000e+03 5.431857299804687500e+01 2.745876550674438477e+00 -1.383401155471801758e-01 7.948101758956909180e-01 1.969410181045532227e-01 2.650786340236663818e-01
2.495000000000000000e+03 7.109040069580078125e+01 -2.483485221862792969e+00 -1.984290361404418945e+00 9.519845008850097656e+00 2.260666370391845703e+00 -5.736674070358276367e-01
2.496000000000000000e+03 5.624794769287109375e+01 -5.880862236022949219e+00 -2.010001897811889648e+00 1.979361623525619507e-01 -5.436196923255920410e-01 -1.546514034271240234e-01
2.497000000000000000e+03 5.784692382812500000e+01 -4.424402236938476562e+00 -1.751928925514221191e+00 2.829498648643493652e-01 -4.406937062740325928e-01 -8.865097910165786743e-02
2.498000000000000000e+03 8.307312011718750000e+00 -1.996732521057128906e+01 3.327804505825042725e-01 2.623665571212768555e+00 8.869338035583496094e-01 -1.471818983554840088e-01
2.499000000000000000e+03 7.624988079071044922e+00 -2.068443679809570312e+01 1.325784474611282349e-01 1.766719937324523926e+00 5.697895288467407227e-01 9.837410598993301392e-02
2.500000000000000000e+03 3.961856842041015625e+01 1.769404029846191406e+01 4.396053552627563477e-01 1.222835898399353027e+00 4.987323880195617676e-01 2.706179022789001465e-01
2.501000000000000000e+03 3.778294372558593750e+01 2.019447708129882812e+01 2.870328724384307861e-01 9.817118644714355469e-01 3.806234002113342285e-01 2.526255846023559570e-01
2.502000000000000000e+03 9.449657440185546875e+00 -2.722832107543945312e+01 -2.063283026218414307e-01 9.533748030662536621e-01 2.241139560937881470e-01 7.780325412750244141e-02
2.503000000000000000e+03 6.696224212646484375e+01 -1.650228619575500488e+00 -1.583607077598571777e+00 5.755204200744628906e+00 1.251479148864746094e+00 -2.516217708587646484e+00
2.504000000000000000e+03 7.179363250732421875e+01 -6.424195289611816406e+00 -3.460155427455902100e-01 1.178353023529052734e+01 3.431254625320434570e+00 1.525738835334777832e+00
2.505000000000000000e+03 7.285559844970703125e+01 -6.110770702362060547e+00 -1.258663386106491089e-01 1.037711524963378906e+01 3.075374603271484375e+00 1.620074391365051270e+00
2.506000000000000000e+03 7.106455993652343750e+01 6.364537239074707031e+00 -3.355052471160888672e-01 6.641820430755615234e+00 1.891894578933715820e+00 -9.689757823944091797e-01
2.507000000000000000e+03 6.599060058593750000e+01 -2.646994209289550781e+01 -5.006505846977233887e-01 5.720303535461425781e+00 1.565895915031433105e+00 9.531810879707336426e-01
2.508000000000000000e+03 5.282887268066406250e+01 -5.387640953063964844e+00 -1.503806114196777344e+00 2.867660224437713623e-01 -3.651120066642761230e-01 6.252495199441909790e-02
2.509000000000000000e+03 7.046640777587890625e+01 -2.300717926025390625e+01 -7.487503290176391602e-01 8.579903602600097656e+00 2.349345922470092773e+00 -1.023405864834785461e-01
2.510000000000000000e+03 7.100552368164062500e+01 -2.441468620300292969e+01 -6.879972219467163086e-01 8.292701721191406250e+00 2.281411409378051758e+00 -1.441553682088851929e-01
2.511000000000000000e+03 5.952863693237304688e+01 7.430092334747314453e+00 2.999626398086547852e-01 2.645282268524169922e+00 8.835734724998474121e-01 -6.555430293083190918e-01
2.512000000000000000e+03 6.186015701293945312e+01 1.055351924896240234e+01 4.851201176643371582e-01 3.512651681900024414e+00 1.199331521987915039e+00 -8.820333480834960938e-01
2.513000000000000000e+03 7.591465950012207031e+00 -2.872891616821289062e+01 -2.342669665813446045e-01 1.188893690705299377e-01 -3.461328148841857910e-02 3.610882461071014404e-01
2.514000000000000000e+03 8.890914916992187500e+00 2.878899192810058594e+01 3.108258731663227081e-02 -6.058892607688903809e-01 -1.724420040845870972e-01 1.329626291990280151e-01
2.515000000000000000e+03 8.187949180603027344e+00 2.753512954711914062e+01 2.769381180405616760e-02 -6.327573060989379883e-01 -1.815190613269805908e-01 1.252619028091430664e-01
2.516000000000000000e+03 7.849907398223876953e+00 1.418403530120849609e+01 1.607248336076736450e-01 -4.898419976234436035e-01 -9.873514622449874878e-02 4.388152360916137695e-01
2.517000000000000000e+03 3.881908035278320312e+01 2.139196968078613281e+01 3.201673328876495361e-01 1.064091682434082031e+00 4.152777194976806641e-01 2.856589853763580322e-01
2.518000000000000000e+03 3.070798683166503906e+01 1.848913192749023438e+01 1.066050827503204346e-01 2.942841053009033203e-01 1.202667579054832458e-01 2.596624493598937988e-01
2.519000000000000000e+03 7.299273681640625000e+01 -2.053335571289062500e+01 -3.909425735473632812e-01 9.164456367492675781e+00 2.632054090499877930e+00 -8.332837224006652832e-01
2.520000000000000000e+03 2.788867187500000000e+01 2.028180694580078125e+01 2.069103419780731201e-01 -4.276551306247711182e-03 6.079013645648956299e-02 2.551110088825225830e-01
2.521000000000000000e+03 2.974345779418945312e+01 1.908639907836914062e+01 1.474172919988632202e-01 1.934611648321151733e-01 1.022635325789451599e-01 2.552565932273864746e-01
2.522000000000000000e+03 5.534015274047851562e+01 -5.079061508178710938e+00 -1.760578989982604980e+00 2.917509377002716064e-01 -4.406484067440032959e-01 -2.509242855012416840e-02
2.523000000000000000e+03 9.124781608581542969e+00 -2.837454986572265625e+01 -2.215056121349334717e-01 6.373153328895568848e-01 1.247429251670837402e-01 2.031537890434265137e-01
2.524000000000000000e+03 6.003311157226562500e+01 -8.376443386077880859e-01 -6.066240668296813965e-01 9.406064152717590332e-01 1.001947075128555298e-01 -6.007530689239501953e-01
2.525000000000000000e+03 5.308094787597656250e+01 2.619200325012207031e+01 6.433227658271789551e-01 1.970294237136840820e+00 7.840850949287414551e-01 -3.640784621238708496e-01
2.526000000000000000e+03 5.165013885498046875e+01 2.476629066467285156e+01 7.052993774414062500e-01 1.566516280174255371e+00 6.815447211265563965e-01 -3.555589318275451660e-01
2.527000000000000000e+03 1.120328330993652344e+01 -3.098286819458007812e+01 -2.110224813222885132e-01 7.939599752426147461e-01 1.748812496662139893e-01 -8.409947156906127930e-03
2.528000000000000000e+03 4.222179031372070312e+01 3.212781667709350586e+00 -3.561227619647979736e-01 4.978439211845397949e-01 4.251634702086448669e-02 2.434652894735336304e-01
2.529000000000000000e+03 9.757687568664550781e+00 -2.440021133422851562e+01 -1.515923067927360535e-02 1.554774284362792969e+00 4.618845283985137939e-01 -2.117140144109725952e-01
2.530000000000000000e+03 4.107218933105468750e+01 -1.108938884735107422e+01 -1.043440461158752441e+00 1.597660481929779053e-01 -2.651022970676422119e-01 -5.072746053338050842e-02
2.531000000000000000e+03 4.003582763671875000e+01 -1.151120662689208984e+01 -1.005301713943481445e+00 1.435690671205520630e-01 -2.585197985172271729e-01 -4.804516956210136414e-02
2.532000000000000000e+03 9.005887031555175781e+00 -3.455702209472656250e+01 -2.393898963928222656e-01 1.045858189463615417e-01 -4.044122248888015747e-02 2.012631595134735107e-01
2.533000000000000000e+03 6.938092231750488281e+00 -3.574076080322265625e+01 -1.843963861465454102e-01 -3.124057352542877197e-01 -1.490406394004821777e-01 2.344295829534530640e-01
2.534000000000000000e+03 6.238580322265625000e+01 1.365095043182373047e+01 5.709695816040039062e-01 3.825615167617797852e+00 1.318975448608398438e+00 -7.618429660797119141e-01
2.535000000000000000e+03 6.195761108398437500e+01 1.806073570251464844e+01 4.731720387935638428e-01 3.895768642425537109e+00 1.310682177543640137e+00 -5.741583704948425293e-01
2.536000000000000000e+03 5.247739410400390625e+01 -6.861746788024902344e+00 -1.683650851249694824e+00 2.346737980842590332e-01 -4.346930980682373047e-01 -9.174289554357528687e-02
2.537000000000000000e+03 3.126442909240722656e+01 7.990839481353759766e+00 7.453385740518569946e-02 3.746099770069122314e-01 1.347431540489196777e-01 6.866610646247863770e-01
2.538000000000000000e+03 3.048748016357421875e+01 8.914919853210449219e+00 7.196619361639022827e-02 3.551365733146667480e-01 1.281308233737945557e-01 7.171899676322937012e-01
2.539000000000000000e+03 6.916793823242187500e+01 -2.913308334350585938e+01 -5.160355567932128906e-01 6.783731460571289062e+00 1.880308747291564941e+00 2.962721586227416992e-01
2.540000000000000000e+03 7.194235229492187500e+01 2.937603759765625000e+01 1.016939803957939148e-01 5.766311645507812500e+00 1.760401606559753418e+00 -2.988606393337249756e-01
2.541000000000000000e+03 7.629409313201904297e+00 2.229687881469726562e+01 8.621404320001602173e-02 -6.072441339492797852e-01 -1.563090234994888306e-01 1.580942571163177490e-01
2.542000000000000000e+03 5.425352096557617188e+01 9.858887791633605957e-01 -3.720018267631530762e-01 6.523268222808837891e-01 8.409748971462249756e-02 2.917231023311614990e-01
2.543000000000000000e+03 7.044009399414062500e+01 -3.046587181091308594e+01 -4.092055559158325195e-01 7.100804805755615234e+00 2.007479667663574219e+00 1.848482489585876465e-01
2.544000000000000000e+03 7.221848297119140625e+01 -2.224151134490966797e+00 -1.624690175056457520e+00 9.538514137268066406e+00 2.374147176742553711e+00 2.441602945327758789e-01
2.545000000000000000e+03 2.630933380126953125e+01 2.048619842529296875e+01 2.411764115095138550e-01 -1.515023261308670044e-01 2.690222673118114471e-02 3.002832233905792236e-01
2.546000000000000000e+03 2.351181793212890625e+01 2.164382362365722656e+01 2.944539189338684082e-01 -2.145624160766601562e-01 2.396744862198829651e-02 4.530805051326751709e-01
2.547000000000000000e+03 7.160491180419921875e+01 3.490535914897918701e-01 -1.328604817390441895e+00 8.208972930908203125e+00 2.064110279083251953e+00 -6.061391830444335938e-01
2.548000000000000000e+03 7.266654968261718750e+00 -2.769437026977539062e+01 -2.477752715349197388e-01 1.136048510670661926e-01 -4.025112837553024292e-02 4.016371667385101318e-01
2.549000000000000000e+03 6.987318420410156250e+01 3.035586166381835938e+01 1.435287892818450928e-01 5.373084068298339844e+00 1.654983878135681152e+00 -3.318518400192260742e-01
2.550000000000000000e+03 3.671417999267578125e+01 9.056927680969238281e+00 1.734964177012443542e-02 7.528896927833557129e-01 2.310717999935150146e-01 6.460655927658081055e-01
2.551000000000000000e+03 1.624272346496582031e+01 2.214341545104980469e+01 1.202492490410804749e-01 7.625379599630832672e-03 3.836238756775856018e-02 4.048704504966735840e-01
2.552000000000000000e+03 5.543127441406250000e+01 2.755273056030273438e+01 5.736452341079711914e-01 2.512534856796264648e+00 9.258540272712707520e-01 -4.173385500907897949e-01
2.553000000000000000e+03 5.364313888549804688e+01 2.823456192016601562e+01 6.472384333610534668e-01 2.214694261550903320e+00 8.585798144340515137e-01 -3.345342278480529785e-01
2.554000000000000000e+03 5.796797943115234375e+01 2.193074989318847656e+01 3.710188269615173340e-01 3.212060451507568359e+00 1.074923753738403320e+00 -6.148210167884826660e-01
2.555000000000000000e+03 2.167375755310058594e+01 2.257472610473632812e+01 2.574004828929901123e-01 -1.545327007770538330e-01 3.086033090949058533e-02 5.164384841918945312e-01
2.556000000000000000e+03 2.564547348022460938e+01 2.306429100036621094e+01 3.295384049415588379e-01 -8.415979146957397461e-02 7.361358404159545898e-02 3.508544862270355225e-01
2.557000000000000000e+03 7.113184356689453125e+01 3.287498855590820312e+01 1.156821548938751221e-01 5.550701141357421875e+00 1.699914932250976562e+00 -2.365249991416931152e-01
2.558000000000000000e+03 2.997423362731933594e+01 1.309684848785400391e+01 -1.478489488363265991e-01 3.309177160263061523e-01 5.492063611745834351e-02 5.788795948028564453e-01
2.559000000000000000e+03 3.080096244812011719e+01 1.221017074584960938e+01 -5.206990614533424377e-02 3.961661756038665771e-01 1.032288819551467896e-01 6.490150690078735352e-01
2.560000000000000000e+03 1.984279632568359375e+01 2.048871612548828125e+01 2.047425359487533569e-01 -3.423769026994705200e-02 5.115145444869995117e-02 6.218794584274291992e-01
2.561000000000000000e+03 1.491163253784179688e+01 2.185279464721679688e+01 1.115794107317924500e-01 -2.714895270764827728e-02 2.532913722097873688e-02 3.303701877593994141e-01
2.562000000000000000e+03 1.508654785156250000e+01 2.040090942382812500e+01 1.576463580131530762e-01 6.010097637772560120e-02 6.532419472932815552e-02 3.281354904174804688e-01
2.563000000000000000e+03 1.827501487731933594e+01 2.322091674804687500e+01 1.399637162685394287e-01 -2.598839439451694489e-02 3.419259563088417053e-02 4.697663187980651855e-01
2.564000000000000000e+03 3.653950500488281250e+01 1.538727855682373047e+01 3.166736960411071777e-01 8.254532814025878906e-01 3.426381051540374756e-01 4.226945042610168457e-01
2.565000000000000000e+03 3.608231735229492188e+01 1.104176998138427734e+01 1.351104080677032471e-01 7.303588986396789551e-01 2.596407830715179443e-01 6.502614021301269531e-01
2.566000000000000000e+03 1.149536609649658203e+01 -2.733370971679687500e+01 -7.605147082358598709e-03 1.308227777481079102e+00 3.901868164539337158e-01 -3.055536448955535889e-01
2.567000000000000000e+03 3.978738784790039062e+01 2.247452926635742188e+01 3.323113322257995605e-01 1.093707203865051270e+00 4.278055429458618164e-01 2.862469255924224854e-01
2.568000000000000000e+03 9.088644027709960938e+00 3.775978469848632812e+01 4.862419888377189636e-02 -7.252233624458312988e-01 -2.029797583818435669e-01 5.250114575028419495e-02
2.569000000000000000e+03 6.311318874359130859e+00 3.778691482543945312e+01 2.795615047216415405e-02 -8.932596445083618164e-01 -2.595910429954528809e-01 3.974040597677230835e-02
2.570000000000000000e+03 3.091262245178222656e+01 -1.403268814086914062e+01 -4.432910680770874023e-02 -2.852061204612255096e-02 -2.185491472482681274e-02 2.062571942806243896e-01
2.571000000000000000e+03 3.046067810058593750e+01 -1.445261573791503906e+01 3.427368402481079102e-02 -5.647142231464385986e-02 -6.659321486949920654e-03 1.660031676292419434e-01
2.572000000000000000e+03 3.087165641784667969e+01 -1.502786731719970703e+01 -2.169489711523056030e-01 -1.770407855510711670e-01 -1.181969270110130310e-01 -1.260302066802978516e-01
2.573000000000000000e+03 2.864545059204101562e+01 -1.208842754364013672e+01 -2.417620867490768433e-01 1.093739628791809082e+00 2.555932700634002686e-01 7.134801745414733887e-01
2.574000000000000000e+03 2.757158851623535156e+01 -1.167551231384277344e+01 -3.810882270336151123e-01 1.353119134902954102e+00 2.916092574596405029e-01 4.671632051467895508e-01
2.575000000000000000e+03 2.955533981323242188e+01 -1.279133701324462891e+01 -1.967115700244903564e-02 6.554116606712341309e-01 1.907221525907516479e-01 7.231395244598388672e-01
2.576000000000000000e+03 2.835642051696777344e+01 -1.253211975097656250e+01 -1.794859617948532104e-01 1.304262042045593262e+00 3.374328017234802246e-01 7.250369191169738770e-01
2.577000000000000000e+03 2.905124855041503906e+01 -5.336616039276123047e+00 -7.052131295204162598e-01 7.081439495086669922e-01 8.792499429546296597e-04 5.101755261421203613e-01
2.578000000000000000e+03 2.799133300781250000e+01 -8.093000411987304688e+00 -6.357640624046325684e-01 8.260241746902465820e-01 5.707803741097450256e-02 5.167511701583862305e-01
2.579000000000000000e+03 2.827895355224609375e+01 -7.175409317016601562e+00 -6.765771508216857910e-01 7.727520465850830078e-01 2.885248139500617981e-02 5.246501564979553223e-01
2.580000000000000000e+03 8.436391830444335938e+00 -7.948594093322753906e+00 -7.245880365371704102e-01 1.902451038360595703e+00 3.533588945865631104e-01 -6.020793914794921875e-01
2.581000000000000000e+03 3.074556922912597656e+01 -1.232538509368896484e+01 -1.679412871599197388e-01 3.436498641967773438e-01 5.271256715059280396e-02 5.424284934997558594e-01
2.582000000000000000e+03 3.003599929809570312e+01 -1.399497604370117188e+01 2.248521596193313599e-01 1.601383239030838013e-01 1.154971495270729065e-01 4.404455721378326416e-01
2.583000000000000000e+03 3.256741714477539062e+01 -1.428035926818847656e+01 -5.076851248741149902e-01 -9.731456637382507324e-02 -1.814998984336853027e-01 -5.523943528532981873e-02
2.584000000000000000e+03 3.525719070434570312e+01 -1.295674133300781250e+01 -7.414017319679260254e-01 2.040298655629158020e-02 -2.162996381521224976e-01 -1.360327936708927155e-03
2.585000000000000000e+03 2.872386550903320312e+01 -1.005253887176513672e+01 -4.955703616142272949e-01 9.000483155250549316e-01 1.213433891534805298e-01 5.951628088951110840e-01
2.586000000000000000e+03 2.569949531555175781e+01 -5.002013683319091797e+00 -7.585217356681823730e-01 5.801678895950317383e-01 -5.350615456700325012e-02 4.267620444297790527e-01
2.587000000000000000e+03 2.830539512634277344e+01 -8.722929954528808594e+00 -5.993797183036804199e-01 8.513873219490051270e-01 7.560228556394577026e-02 5.444249510765075684e-01
2.588000000000000000e+03 2.857660865783691406e+01 -7.809303283691406250e+00 -6.473233699798583984e-01 7.877821326255798340e-01 4.213762655854225159e-02 5.490918755531311035e-01
2.589000000000000000e+03 3.902082443237304688e+01 -1.189971637725830078e+01 -9.610192775726318359e-01 1.210851967334747314e-01 -2.519802153110504150e-01 -4.260000213980674744e-02
2.590000000000000000e+03 9.626410484313964844e+00 7.053306102752685547e+00 -3.703907728195190430e-01 -2.159777283668518066e-01 -1.759105473756790161e-01 4.440492093563079834e-01
2.591000000000000000e+03 7.920093059539794922e+00 7.911747932434082031e+00 -2.359814643859863281e-01 -2.118858247995376587e-01 -1.343601942062377930e-01 4.496587812900543213e-01
2.592000000000000000e+03 8.382231712341308594e+00 9.822576522827148438e+00 -1.219530776143074036e-01 -3.185227811336517334e-01 -1.321427524089813232e-01 5.218209028244018555e-01
2.593000000000000000e+03 3.986450576782226562e+01 3.240716934204101562e+00 -3.695517182350158691e-01 6.026892662048339844e-01 6.994126737117767334e-02 3.703644275665283203e-01
2.594000000000000000e+03 4.025576782226562500e+01 5.502684116363525391e+00 -2.919638454914093018e-01 7.377275824546813965e-01 1.337291300296783447e-01 3.742607533931732178e-01
2.595000000000000000e+03 2.797760581970214844e+01 -6.506855487823486328e+00 -7.069166898727416992e-01 7.444449663162231445e-01 1.125847827643156052e-02 5.064419507980346680e-01
2.596000000000000000e+03 2.560037994384765625e+01 -3.421576976776123047e+00 -7.655037641525268555e-01 5.466114282608032227e-01 -6.566769629716873169e-02 4.085172712802886963e-01
2.597000000000000000e+03 2.530809020996093750e+01 -2.684326648712158203e+00 -7.495363354682922363e-01 5.225590467453002930e-01 -6.809320300817489624e-02 3.919044733047485352e-01
2.598000000000000000e+03 4.061931610107421875e+01 -1.011134624481201172e+01 -9.771647453308105469e-01 1.872220486402511597e-01 -2.369828075170516968e-01 1.642775535583496094e-02
2.599000000000000000e+03 4.214161682128906250e+01 -1.064136219024658203e+01 -1.086371302604675293e+00 1.748144626617431641e-01 -2.734670341014862061e-01 -5.787277221679687500e-02
2.600000000000000000e+03 7.072294616699218750e+01 7.450180500745773315e-02 -1.477907180786132812e+00 7.946802139282226562e+00 1.940668582916259766e+00 -1.060645937919616699e+00
2.601000000000000000e+03 5.198381042480468750e+01 2.744454443454742432e-01 -4.403081834316253662e-01 3.969322144985198975e-01 -1.301279570907354355e-02 3.758899867534637451e-01
2.602000000000000000e+03 2.569849967956542969e+01 5.032748579978942871e-01 -4.996840655803680420e-01 5.462477207183837891e-01 1.396909635514020920e-02 3.175051212310791016e-01
2.603000000000000000e+03 1.073325824737548828e+01 7.858127117156982422e+00 -3.860985934734344482e-01 -2.918476760387420654e-01 -2.033838778734207153e-01 5.082337260246276855e-01
2.604000000000000000e+03 3.537764358520507812e+01 9.748799324035644531e+00 6.095969676971435547e-02 6.721683144569396973e-01 2.199383974075317383e-01 6.721562147140502930e-01
2.605000000000000000e+03 3.594947433471679688e+01 -1.193379688262939453e+01 -7.376235723495483398e-01 7.865982502698898315e-02 -1.976891160011291504e-01 6.470492482185363770e-02
2.606000000000000000e+03 4.731395721435546875e+01 -7.145854473114013672e+00 -1.223188996315002441e+00 2.627856135368347168e-01 -2.881209850311279297e-01 4.287952929735183716e-02
2.607000000000000000e+03 4.963094329833984375e+01 -7.119466304779052734e+00 -1.418843269348144531e+00 2.594341337680816650e-01 -3.478227257728576660e-01 -1.540377922356128693e-02
2.608000000000000000e+03 2.548675346374511719e+01 -1.999189406633377075e-01 -5.685635805130004883e-01 5.454598665237426758e-01 -6.931112613528966904e-03 3.381128907203674316e-01
2.609000000000000000e+03 9.660145759582519531e+00 8.917884826660156250e+00 -2.316447347402572632e-01 -2.968279421329498291e-01 -1.585418134927749634e-01 5.425508618354797363e-01
2.610000000000000000e+03 4.776035308837890625e+01 -8.194335937500000000e+00 -1.355722665786743164e+00 2.372686415910720825e-01 -3.355362117290496826e-01 -5.889904499053955078e-02
2.611000000000000000e+03 4.384793090820312500e+01 -8.660585403442382812e+00 -1.098920702934265137e+00 2.291343212127685547e-01 -2.609359323978424072e-01 1.362547092139720917e-02
2.612000000000000000e+03 3.034059715270996094e+01 4.835897922515869141e+00 7.050571031868457794e-03 4.148344397544860840e-01 1.265655010938644409e-01 4.878169894218444824e-01
2.613000000000000000e+03 5.435885429382324219e+00 7.705446720123291016e+00 -1.325143575668334961e-01 -2.133252024650573730e-01 -1.037518680095672607e-01 3.176243305206298828e-01
2.614000000000000000e+03 3.254930877685546875e+01 1.534928226470947266e+01 8.609651029109954834e-02 5.038686394691467285e-01 1.769895553588867188e-01 4.469228982925415039e-01
2.615000000000000000e+03 7.336202621459960938e+00 9.569355964660644531e+00 -1.235075816512107849e-01 -2.826074957847595215e-01 -1.218345239758491516e-01 4.777763783931732178e-01
2.616000000000000000e+03 6.591925811767578125e+01 -1.129968166351318359e+00 -1.032784938812255859e+00 4.373281002044677734e+00 1.002148866653442383e+00 -2.584672689437866211e+00
2.617000000000000000e+03 6.891694641113281250e+01 -2.310082674026489258e+00 -2.212582111358642578e+00 8.208398818969726562e+00 1.798744916915893555e+00 -2.042667627334594727e+00
2.618000000000000000e+03 7.229325866699218750e+01 -2.543970489501953125e+01 -5.873672366142272949e-01 8.264412879943847656e+00 2.303113460540771484e+00 -3.174164593219757080e-01
2.619000000000000000e+03 6.829400634765625000e+01 -2.748701095581054688e+01 -6.066701412200927734e-01 6.699227809906005859e+00 1.827767372131347656e+00 5.145429372787475586e-01
2.620000000000000000e+03 7.315914916992187500e+01 -2.406100654602050781e+01 -5.888004899024963379e-01 8.578706741333007812e+00 2.396971702575683594e+00 -5.799286365509033203e-01
2.621000000000000000e+03 3.495706558227539062e+01 3.516738653182983398e+00 -2.600718736648559570e-01 5.783371925354003906e-01 9.547960013151168823e-02 5.292801856994628906e-01
2.622000000000000000e+03 2.953590202331542969e+01 3.481370210647583008e+00 -9.826119244098663330e-02 4.723016619682312012e-01 1.122121363878250122e-01 4.007314443588256836e-01
2.623000000000000000e+03 4.604587936401367188e+01 -1.022301578521728516e+01 -1.305030345916748047e+00 1.730612367391586304e-01 -3.395907580852508545e-01 -1.553328931331634521e-01
2.624000000000000000e+03 2.330729675292968750e+01 2.587731552124023438e+01 3.107443451881408691e-01 -7.481777667999267578e-02 7.077797502279281616e-02 3.851115703582763672e-01
2.625000000000000000e+03 7.014620971679687500e+01 1.118185710906982422e+01 1.087449267506599426e-01 5.928764343261718750e+00 1.811252832412719727e+00 -9.238804578781127930e-01
2.626000000000000000e+03 6.928471374511718750e+01 1.905523490905761719e+01 2.371819615364074707e-01 5.470623970031738281e+00 1.712341785430908203e+00 -6.379569172859191895e-01
2.627000000000000000e+03 7.179326629638671875e+01 1.558666896820068359e+01 1.565196812152862549e-01 6.201339721679687500e+00 1.907357811927795410e+00 -6.735585331916809082e-01
2.628000000000000000e+03 5.054304504394531250e+01 -6.367537975311279297e+00 -1.419769763946533203e+00 2.739551067352294922e-01 -3.437443971633911133e-01 3.830623254179954529e-02
2.629000000000000000e+03 5.447467803955078125e+01 -4.210826873779296875e+00 -1.405160188674926758e+00 3.348152339458465576e-01 -3.211035132408142090e-01 1.390879005193710327e-01
2.630000000000000000e+03 4.831391143798828125e+01 -5.613050937652587891e+00 -1.152870893478393555e+00 2.814309000968933105e-01 -2.614319920539855957e-01 1.314007937908172607e-01
2.631000000000000000e+03 2.743524360656738281e+01 2.927333593368530273e+00 -1.374835371971130371e-01 5.226336717605590820e-01 1.155450418591499329e-01 3.179348409175872803e-01
2.632000000000000000e+03 2.686240196228027344e+01 1.806681036949157715e+00 -3.057298064231872559e-01 5.671233534812927246e-01 7.841805368661880493e-02 3.034123778343200684e-01
2.633000000000000000e+03 5.657669448852539062e+01 2.191011905670166016e+00 -1.873674094676971436e-01 1.046859622001647949e+00 2.578476667404174805e-01 -1.488762442022562027e-02
2.634000000000000000e+03 5.864070510864257812e+01 3.565201997756958008e+00 4.368399828672409058e-02 1.700892686843872070e+00 5.233730077743530273e-01 -4.193436801433563232e-01
2.635000000000000000e+03 9.147279739379882812e+00 2.678370094299316406e+01 4.047194495797157288e-02 -5.501789450645446777e-01 -1.529120951890945435e-01 1.475705951452255249e-01
2.636000000000000000e+03 7.109429168701171875e+01 1.322336578369140625e+01 1.449134051799774170e-01 6.113361358642578125e+00 1.877482533454895020e+00 -8.012455701828002930e-01
2.637000000000000000e+03 1.089377021789550781e+01 -2.571175003051757812e+01 1.834098622202873230e-02 1.531084656715393066e+00 4.648276865482330322e-01 -3.413605988025665283e-01
2.638000000000000000e+03 8.806418418884277344e+00 1.534039497375488281e+01 2.454115599393844604e-01 -4.804956614971160889e-01 -7.052522897720336914e-02 3.997713327407836914e-01
2.639000000000000000e+03 7.766329765319824219e+00 -7.293293952941894531e+00 -8.245911002159118652e-01 1.584379673004150391e+00 2.279365807771682739e-01 -8.177391886711120605e-01
2.640000000000000000e+03 3.354619979858398438e+01 1.838558769226074219e+01 2.186675518751144409e-01 5.710437297821044922e-01 2.369133830070495605e-01 2.898783981800079346e-01
2.641000000000000000e+03 3.536156463623046875e+01 1.474152851104736328e+01 2.549486756324768066e-01 7.307264804840087891e-01 2.957025468349456787e-01 4.806562960147857666e-01
2.642000000000000000e+03 4.432875061035156250e+01 2.159045696258544922e+00 -3.377823233604431152e-01 3.208759129047393799e-01 -5.071918480098247528e-03 2.220492810010910034e-01
2.643000000000000000e+03 4.517440795898437500e+01 1.954868316650390625e+00 -3.283783495426177979e-01 2.669487297534942627e-01 -1.842888444662094116e-02 2.316868752241134644e-01
2.644000000000000000e+03 7.264780044555664062e+00 2.112992095947265625e+01 1.030037105083465576e-01 -6.135445833206176758e-01 -1.531622707843780518e-01 1.743569970130920410e-01
2.645000000000000000e+03 9.833373069763183594e+00 1.652796745300292969e+01 2.991672754287719727e-01 -4.235297143459320068e-01 -3.730872645974159241e-02 3.321165442466735840e-01
2.646000000000000000e+03 1.107150363922119141e+01 1.763619232177734375e+01 3.216004967689514160e-01 -3.178262412548065186e-01 1.132280682213604450e-03 2.759744822978973389e-01
2.647000000000000000e+03 1.728058433532714844e+01 2.476317787170410156e+01 1.346373409032821655e-01 -8.235178142786026001e-02 1.568566821515560150e-02 4.068309068679809570e-01
2.648000000000000000e+03 5.698846435546875000e+01 4.606384336948394775e-01 -4.010440111160278320e-01 8.329026103019714355e-01 1.295575797557830811e-01 1.671550981700420380e-02
2.649000000000000000e+03 5.653402328491210938e+01 1.284199833869934082e+00 -3.114330470561981201e-01 9.020341038703918457e-01 1.771803200244903564e-01 3.120744228363037109e-02
2.650000000000000000e+03 8.069203376770019531e+00 -5.978984355926513672e+00 -1.002233862876892090e+00 1.200958609580993652e+00 5.961740761995315552e-02 -6.042823195457458496e-01
2.651000000000000000e+03 8.598338127136230469e+00 -6.605891227722167969e+00 -9.015040993690490723e-01 1.328233242034912109e+00 1.280187368392944336e-01 -4.882796108722686768e-01
2.652000000000000000e+03 5.263887405395507812e+01 -1.095035552978515625e+00 -6.852890253067016602e-01 4.071523249149322510e-01 -8.344100415706634521e-02 3.384281396865844727e-01
2.653000000000000000e+03 5.994026947021484375e+01 2.068814468383789062e+01 3.906988203525543213e-01 3.583628654479980469e+00 1.192298293113708496e+00 -5.766170620918273926e-01
2.654000000000000000e+03 3.716869735717773438e+01 1.872603607177734375e+01 3.470065295696258545e-01 9.209066629409790039e-01 3.803739547729492188e-01 2.704870104789733887e-01
2.655000000000000000e+03 4.756205368041992188e+01 5.693790912628173828e-01 -3.971018791198730469e-01 2.215042710304260254e-01 -5.267928540706634521e-02 3.076393604278564453e-01
2.656000000000000000e+03 6.994054412841796875e+01 -1.231255292892456055e+00 -1.853975415229797363e+00 8.265587806701660156e+00 1.923483610153198242e+00 -1.396202683448791504e+00
2.657000000000000000e+03 7.621275901794433594e+00 8.691799163818359375e+00 -1.690153032541275024e-01 -2.709821164608001709e-01 -1.319992244243621826e-01 4.583405852317810059e-01
2.658000000000000000e+03 7.782638072967529297e+00 2.382595634460449219e+01 6.153504177927970886e-02 -5.958371758460998535e-01 -1.602906435728073120e-01 1.479319930076599121e-01
2.659000000000000000e+03 6.018856811523437500e+01 8.403985023498535156e+00 3.812971413135528564e-01 2.936399459838867188e+00 9.953089356422424316e-01 -7.424868941307067871e-01
2.660000000000000000e+03 8.797217369079589844e+00 -2.308252906799316406e+01 -5.652673542499542236e-02 1.719225287437438965e+00 4.988095760345458984e-01 -9.157926589250564575e-02
2.661000000000000000e+03 6.304048156738281250e+01 -9.215840697288513184e-01 -4.045331180095672607e-01 1.838328599929809570e+00 4.301386475563049316e-01 -1.616144061088562012e+00
2.662000000000000000e+03 3.158918762207031250e+01 9.638247489929199219e+00 3.833481669425964355e-02 4.048766791820526123e-01 1.329634487628936768e-01 7.146467566490173340e-01
2.663000000000000000e+03 7.201873779296875000e+01 1.690950965881347656e+01 1.581324785947799683e-01 6.216912269592285156e+00 1.912513375282287598e+00 -6.239516735076904297e-01
2.664000000000000000e+03 7.053209686279296875e+01 1.580218887329101562e+01 2.023177891969680786e-01 5.876567363739013672e+00 1.823665499687194824e+00 -7.305531501770019531e-01
2.665000000000000000e+03 1.150658607482910156e+01 -2.912880325317382812e+01 -1.152081564068794250e-01 1.025072455406188965e+00 2.729592919349670410e-01 -1.172562390565872192e-01
2.666000000000000000e+03 8.923110961914062500e+00 1.423447990417480469e+01 2.184583395719528198e-01 -4.541426301002502441e-01 -7.070528715848922729e-02 4.563756585121154785e-01
2.667000000000000000e+03 3.767841339111328125e+01 2.245815658569335938e+01 3.185396194458007812e-01 9.571118950843811035e-01 3.826954662799835205e-01 2.435811907052993774e-01
2.668000000000000000e+03 3.657032012939453125e+01 2.143247032165527344e+01 3.073603510856628418e-01 8.392022848129272461e-01 3.439687788486480713e-01 2.390734851360321045e-01
2.669000000000000000e+03 9.388939857482910156e+00 3.033778762817382812e+01 3.339022397994995117e-02 -5.982683300971984863e-01 -1.694634258747100830e-01 1.241687759757041931e-01
2.670000000000000000e+03 6.237653732299804688e+01 -3.207627105712890625e+01 3.580491244792938232e-02 3.316010236740112305e+00 1.005544543266296387e+00 6.324070096015930176e-01
2.671000000000000000e+03 6.380576324462890625e+01 -2.879069519042968750e+01 -2.600649595260620117e-01 4.217125415802001953e+00 1.187118172645568848e+00 8.314621448516845703e-01
2.672000000000000000e+03 5.541712951660156250e+01 -3.775887489318847656e+00 -1.419087409973144531e+00 3.715090453624725342e-01 -3.142735362052917480e-01 8.439253270626068115e-02
2.673000000000000000e+03 7.129761505126953125e+01 2.178051567077636719e+01 1.583283096551895142e-01 5.878328800201416016e+00 1.810997128486633301e+00 -4.976762831211090088e-01
2.674000000000000000e+03 6.946949768066406250e+01 2.075726699829101562e+01 2.176126837730407715e-01 5.513638019561767578e+00 1.719375252723693848e+00 -5.850738883018493652e-01
2.675000000000000000e+03 7.052877807617187500e+01 2.580985832214355469e+01 1.499106585979461670e-01 5.625195503234863281e+00 1.732531785964965820e+00 -4.287796020507812500e-01
2.676000000000000000e+03 7.027172088623046875e+01 2.424140167236328125e+01 1.683747917413711548e-01 5.610179424285888672e+00 1.733566164970397949e+00 -4.671491086483001709e-01
2.677000000000000000e+03 3.487622451782226562e+01 2.086355400085449219e+01 2.904729545116424561e-01 6.910979151725769043e-01 2.944712638854980469e-01 2.314943522214889526e-01
2.678000000000000000e+03 3.432424163818359375e+01 9.544440269470214844e+00 3.114331513643264771e-02 5.981569290161132812e-01 1.887900680303573608e-01 6.935428380966186523e-01
2.679000000000000000e+03 3.188042640686035156e+01 1.273834323883056641e+01 -2.211781032383441925e-02 4.602118730545043945e-01 1.314282268285751343e-01 6.179433465003967285e-01
2.680000000000000000e+03 3.566374969482421875e+01 8.722272872924804688e+00 -8.310585981234908104e-04 6.865323185920715332e-01 2.057103812694549561e-01 6.759516596794128418e-01
2.681000000000000000e+03 1.038887596130371094e+01 -2.745660400390625000e+01 -1.368244439363479614e-01 1.128885149955749512e+00 2.976182401180267334e-01 -6.696090102195739746e-02
2.682000000000000000e+03 6.805968475341796875e+01 -2.590039443969726562e+01 -6.743973493576049805e-01 6.843665122985839844e+00 1.850780367851257324e+00 5.786542296409606934e-01
2.683000000000000000e+03 8.033729553222656250e+00 1.087452793121337891e+01 -3.774491697549819946e-02 -3.487173318862915039e-01 -1.159386709332466125e-01 5.153867006301879883e-01
2.684000000000000000e+03 6.210144424438476562e+01 1.578431606292724609e+01 5.690802931785583496e-01 3.851423740386962891e+00 1.326151251792907715e+00 -6.610550284385681152e-01
2.685000000000000000e+03 6.218268203735351562e+01 2.041454887390136719e+01 3.927592933177947998e-01 3.982342004776000977e+00 1.312530398368835449e+00 -5.804653763771057129e-01
2.686000000000000000e+03 5.617577743530273438e+01 -4.459684371948242188e+00 -1.607860207557678223e+00 3.106868267059326172e-01 -3.891520202159881592e-01 3.054167516529560089e-02
2.687000000000000000e+03 4.612782287597656250e+01 -7.628285884857177734e+00 -1.185225725173950195e+00 2.508858740329742432e-01 -2.803019583225250244e-01 2.896855771541595459e-02
2.688000000000000000e+03 3.560977172851562500e+01 7.584927082061767578e+00 -5.783931165933609009e-02 6.623119115829467773e-01 1.813417822122573853e-01 6.500833630561828613e-01
2.689000000000000000e+03 5.883372116088867188e+01 -3.705716729164123535e-01 -4.965334832668304443e-01 9.181739687919616699e-01 1.264921426773071289e-01 -2.922653257846832275e-01
2.690000000000000000e+03 6.487756347656250000e+01 -3.343652725219726562e+01 -3.209506720304489136e-02 4.619567394256591797e+00 1.376241683959960938e+00 5.410543680191040039e-01
2.691000000000000000e+03 7.076814270019531250e+01 8.980123519897460938e+00 -4.162443056702613831e-02 6.229398727416992188e+00 1.856332302093505859e+00 -9.766631722450256348e-01
2.692000000000000000e+03 2.060420036315917969e+01 2.158236885070800781e+01 2.305965572595596313e-01 -1.187030002474784851e-01 3.356806561350822449e-02 5.717380642890930176e-01
2.693000000000000000e+03 1.225762271881103516e+01 -3.394906234741210938e+01 -2.358415275812149048e-01 7.156032323837280273e-01 1.439285129308700562e-01 -2.024725452065467834e-02
2.694000000000000000e+03 9.026377677917480469e+00 -3.175679588317871094e+01 -2.488732933998107910e-01 2.979485094547271729e-01 1.472256332635879517e-02 2.258893549442291260e-01
2.695000000000000000e+03 6.334315490722656250e+01 1.476967048645019531e+01 5.407912731170654297e-01 4.058964729309082031e+00 1.379926681518554688e+00 -7.627217173576354980e-01
2.696000000000000000e+03 3.511913299560546875e+01 6.391595840454101562e+00 -1.039788350462913513e-01 6.065600514411926270e-01 1.507743597030639648e-01 6.238709688186645508e-01
2.697000000000000000e+03 3.797006607055664062e+01 5.957010269165039062e+00 -2.251089662313461304e-01 7.385182976722717285e-01 1.540227979421615601e-01 5.208386182785034180e-01
2.698000000000000000e+03 3.207528686523437500e+01 7.016422748565673828e+00 3.200112655758857727e-02 4.479553103446960449e-01 1.439869403839111328e-01 6.500822305679321289e-01
2.699000000000000000e+03 6.956770324707031250e+01 -2.682028579711914062e+01 -6.516311764717102051e-01 7.376916885375976562e+00 2.017585754394531250e+00 1.925572603940963745e-01
2.700000000000000000e+03 4.490540695190429688e+01 -1.071842098236083984e+01 -1.249690532684326172e+00 1.676240265369415283e-01 -3.246199488639831543e-01 -1.434510201215744019e-01
2.701000000000000000e+03 8.172839164733886719e+00 -2.786000823974609375e+01 -2.356049567461013794e-01 4.522808492183685303e-01 6.500276923179626465e-02 2.692444026470184326e-01
2.702000000000000000e+03 4.100543975830078125e+01 1.968327283859252930e+00 -4.194916784763336182e-01 5.033773779869079590e-01 2.516571991145610809e-02 3.171212375164031982e-01
2.703000000000000000e+03 1.452346324920654297e+01 -3.508429718017578125e+01 -2.034866809844970703e-01 7.944102287292480469e-01 1.772770583629608154e-01 -9.468563646078109741e-02
2.704000000000000000e+03 4.954522323608398438e+01 -1.297449588775634766e+00 -6.602612137794494629e-01 2.790079116821289062e-01 -1.143759936094284058e-01 3.406951725482940674e-01
2.705000000000000000e+03 1.765196800231933594e+01 -3.211377716064453125e+01 9.120500087738037109e-02 1.074107050895690918e+00 3.495936095714569092e-01 -4.521881043910980225e-01
2.706000000000000000e+03 9.445504188537597656e+00 2.370200538635253906e+01 7.653232663869857788e-02 -4.758947789669036865e-01 -1.198087409138679504e-01 1.693614572286605835e-01
2.707000000000000000e+03 1.079786586761474609e+01 2.435348701477050781e+01 6.991219520568847656e-02 -3.856721818447113037e-01 -9.472800046205520630e-02 1.923121660947799683e-01
2.708000000000000000e+03 1.248463535308837891e+01 2.013115310668945312e+01 1.943868398666381836e-01 -1.588224023580551147e-01 1.066933106631040573e-02 2.195016592741012573e-01
2.709000000000000000e+03 9.853720664978027344e+00 1.999737548828125000e+01 1.876424551010131836e-01 -4.083623886108398438e-01 -6.621597707271575928e-02 2.132969796657562256e-01
2.710000000000000000e+03 6.987095642089843750e+01 2.248044013977050781e+01 1.906186491250991821e-01 5.578630924224853516e+00 1.730774760246276855e+00 -5.189157724380493164e-01
2.711000000000000000e+03 7.117209625244140625e+01 2.694124031066894531e+01 1.346502006053924561e-01 5.719952106475830078e+00 1.756380677223205566e+00 -3.809175789356231689e-01
2.712000000000000000e+03 5.763090896606445312e+01 2.379381370544433594e+01 3.913072943687438965e-01 3.036907196044921875e+00 1.028464317321777344e+00 -5.895121097564697266e-01
2.713000000000000000e+03 2.931235694885253906e+01 2.035949134826660156e+01 2.053446322679519653e-01 1.298988163471221924e-01 1.005730330944061279e-01 2.416879087686538696e-01
2.714000000000000000e+03 4.855774307250976562e+01 2.526987648010253906e+01 7.332545518875122070e-01 1.190184116363525391e+00 5.770316123962402344e-01 5.863939598202705383e-02
2.715000000000000000e+03 3.827945327758789062e+01 2.674595451354980469e+01 4.161273241043090820e-01 9.252492785453796387e-01 4.024129807949066162e-01 2.389318495988845825e-01
2.716000000000000000e+03 4.704722595214843750e+01 2.673991584777832031e+01 6.817719936370849609e-01 1.218593358993530273e+00 5.701096057891845703e-01 1.509660631418228149e-01
2.717000000000000000e+03 7.049706268310546875e+01 -3.542779159545898438e+01 -8.645748347043991089e-02 6.610257148742675781e+00 1.957139968872070312e+00 1.322065144777297974e-01
2.718000000000000000e+03 1.063230133056640625e+01 -3.644807434082031250e+01 -2.653064131736755371e-01 2.764648497104644775e-01 3.347533987835049629e-03 8.879333734512329102e-02
2.719000000000000000e+03 9.450333595275878906e+00 3.482141494750976562e+01 5.466821789741516113e-02 -6.576986908912658691e-01 -1.809091269969940186e-01 8.555018156766891479e-02
2.720000000000000000e+03 6.813369750976562500e+01 3.491059112548828125e+01 1.970639675855636597e-01 5.037000656127929688e+00 1.570219397544860840e+00 -2.137083262205123901e-01
2.721000000000000000e+03 6.514785766601562500e+01 3.387922668457031250e+01 2.974001169204711914e-01 4.499097347259521484e+00 1.438949346542358398e+00 -2.792434096336364746e-01
2.722000000000000000e+03 6.754640197753906250e+01 4.099314498901367188e+01 2.264919131994247437e-01 4.880815029144287109e+00 1.532191991806030273e+00 -4.985640943050384521e-02
2.723000000000000000e+03 2.998203659057617188e+01 -1.317525863647460938e+01 6.031714379787445068e-02 4.130106270313262939e-01 1.419983357191085815e-01 6.159111857414245605e-01
2.724000000000000000e+03 2.795952224731445312e+01 -1.085405349731445312e+01 -4.446375668048858643e-01 1.132044792175292969e+00 2.062221765518188477e-01 5.311209559440612793e-01
2.725000000000000000e+03 2.914445304870605469e+01 -1.037835693359375000e+01 -4.489736855030059814e-01 8.450062274932861328e-01 1.188097521662712097e-01 6.329472064971923828e-01
2.726000000000000000e+03 2.812645721435546875e+01 -1.178854084014892578e+01 -3.429391682147979736e-01 1.260979771614074707e+00 2.754122018814086914e-01 6.024588942527770996e-01
2.727000000000000000e+03 2.695496940612792969e+01 -3.230969190597534180e+00 -7.311821579933166504e-01 6.355713605880737305e-01 -2.868323586881160736e-02 4.223003983497619629e-01
2.728000000000000000e+03 2.877763557434082031e+01 -1.286045360565185547e+01 -3.776584938168525696e-02 1.059885025024414062e+00 3.066357374191284180e-01 8.078193068504333496e-01
2.729000000000000000e+03 3.186126327514648438e+01 -1.392726039886474609e+01 -3.184500932693481445e-01 -8.054988831281661987e-02 -1.196999996900558472e-01 9.859929233789443970e-02
2.730000000000000000e+03 3.077866172790527344e+01 -1.314816570281982422e+01 -6.315968930721282959e-02 1.765290796756744385e-01 3.401081636548042297e-02 4.388293623924255371e-01
2.731000000000000000e+03 2.888245964050292969e+01 -8.401299476623535156e+00 -6.079211235046386719e-01 7.954905033111572266e-01 5.627080053091049194e-02 5.699952244758605957e-01
2.732000000000000000e+03 3.280601501464843750e+01 -1.357103729248046875e+01 -4.758988618850708008e-01 -5.355757847428321838e-02 -1.588369309902191162e-01 7.861888408660888672e-02
2.733000000000000000e+03 2.916928672790527344e+01 -7.542464733123779297e+00 -6.442040205001831055e-01 7.475847601890563965e-01 3.101422451436519623e-02 5.627737641334533691e-01
2.734000000000000000e+03 2.648456954956054688e+01 -3.942080497741699219e+00 -7.572572827339172363e-01 6.177259683609008789e-01 -4.185940325260162354e-02 4.275947511196136475e-01
2.735000000000000000e+03 2.628432273864746094e+01 -4.767529487609863281e+00 -7.595674991607666016e-01 6.242458224296569824e-01 -4.059650003910064697e-02 4.386779963970184326e-01
2.736000000000000000e+03 2.625886344909667969e+01 -3.293490409851074219e+00 -7.496682405471801758e-01 6.012310385704040527e-01 -4.453116655349731445e-02 4.109772741794586182e-01
2.737000000000000000e+03 8.760728836059570312e+00 8.000964164733886719e+00 -2.631582021713256836e-01 -2.420199960470199585e-01 -1.515534520149230957e-01 4.688759446144104004e-01
2.738000000000000000e+03 8.766736030578613281e+00 7.180488586425781250e+00 -3.063636422157287598e-01 -2.080945819616317749e-01 -1.543374657630920410e-01 4.456451535224914551e-01
2.739000000000000000e+03 3.772061538696289062e+01 -1.133770465850830078e+01 -8.463667631149291992e-01 1.229956150054931641e-01 -2.170113474130630493e-01 3.550055995583534241e-02
2.740000000000000000e+03 3.514510345458984375e+01 -1.212330245971679688e+01 -6.586682796478271484e-01 6.455140560865402222e-02 -1.782350689172744751e-01 9.696830064058303833e-02
2.741000000000000000e+03 3.438656234741210938e+01 -1.222904491424560547e+01 -6.042348742485046387e-01 5.692520365118980408e-02 -1.641929000616073608e-01 1.331031620502471924e-01
2.742000000000000000e+03 2.715431022644042969e+01 9.721176028251647949e-01 -4.113804697990417480e-01 5.880101919174194336e-01 5.298892408609390259e-02 3.160156905651092529e-01
2.743000000000000000e+03 3.739351272583007812e+01 -1.046486186981201172e+01 -7.880741953849792480e-01 1.612643450498580933e-01 -1.880429536104202271e-01 1.140120550990104675e-01
2.744000000000000000e+03 6.785834503173828125e+01 6.807591915130615234e+00 -1.396167427301406860e-01 5.364477634429931641e+00 1.567458391189575195e+00 -1.271877169609069824e+00
2.745000000000000000e+03 7.080616760253906250e+01 1.166593790054321289e+00 -1.176164984703063965e+00 7.536516189575195312e+00 1.908105373382568359e+00 -1.006142139434814453e+00
2.746000000000000000e+03 3.868905258178710938e+01 3.437745809555053711e+00 -3.573655486106872559e-01 6.232023239135742188e-01 7.975102961063385010e-02 4.282180368900299072e-01
2.747000000000000000e+03 2.578063583374023438e+01 -1.833572626113891602e+00 -6.956374645233154297e-01 5.583114624023437500e-01 -4.119780659675598145e-02 3.773199617862701416e-01
2.748000000000000000e+03 2.674337005615234375e+01 -2.511958360671997070e+00 -7.095662951469421387e-01 6.190090775489807129e-01 -2.716716006398200989e-02 3.990250527858734131e-01
2.749000000000000000e+03 4.688847732543945312e+01 -6.059309005737304688e+00 -1.107287764549255371e+00 2.721230089664459229e-01 -2.505494356155395508e-01 1.170805767178535461e-01
2.750000000000000000e+03 2.888724708557128906e+01 -6.917635917663574219e+00 -6.799598336219787598e-01 7.429662346839904785e-01 1.890191994607448578e-02 5.438593029975891113e-01
2.751000000000000000e+03 6.953836059570312500e+01 1.292007732391357422e+01 1.988343149423599243e-01 5.703314304351806641e+00 1.770644545555114746e+00 -8.892983794212341309e-01
2.752000000000000000e+03 6.943518066406250000e+01 9.848717689514160156e+00 4.372724518179893494e-02 5.822392463684082031e+00 1.759835958480834961e+00 -1.004866361618041992e+00
2.753000000000000000e+03 3.681066513061523438e+01 -1.166612434387207031e+01 -7.912529110908508301e-01 1.044196486473083496e-01 -2.060499787330627441e-01 5.275077000260353088e-02
2.754000000000000000e+03 4.166320419311523438e+01 -9.648890495300292969e+00 -1.016810894012451172e+00 2.023453712463378906e-01 -2.443396449089050293e-01 1.423999667167663574e-02
2.755000000000000000e+03 4.550106048583984375e+01 -9.178908348083496094e+00 -1.230726003646850586e+00 2.138189375400543213e-01 -3.050721287727355957e-01 -6.266562640666961670e-02
2.756000000000000000e+03 4.497345352172851562e+01 -8.143115043640136719e+00 -1.135738134384155273e+00 2.385746389627456665e-01 -2.691490352153778076e-01 1.602157019078731537e-02
2.757000000000000000e+03 3.962310409545898438e+01 -1.055177307128906250e+01 -9.354278445243835449e-01 1.674676090478897095e-01 -2.303880751132965088e-01 2.257398888468742371e-02
2.758000000000000000e+03 4.332992172241210938e+01 2.096959829330444336e+00 -3.643486201763153076e-01 3.810029625892639160e-01 4.996305331587791443e-03 2.343288809061050415e-01
2.759000000000000000e+03 6.996756744384765625e+01 -2.501300573348999023e+00 -2.125944852828979492e+00 9.001363754272460938e+00 2.062625646591186523e+00 -1.135869145393371582e+00
2.760000000000000000e+03 3.174774169921875000e+01 5.267558097839355469e+00 -2.904219552874565125e-02 4.588730931282043457e-01 1.289492696523666382e-01 5.630997419357299805e-01
2.761000000000000000e+03 3.082199668884277344e+01 1.035568618774414062e+01 5.301564931869506836e-03 4.041601717472076416e-01 1.228385269641876221e-01 7.154328227043151855e-01
2.762000000000000000e+03 3.377015304565429688e+01 8.364681243896484375e+00 9.644648060202598572e-03 5.461180210113525391e-01 1.667287945747375488e-01 6.844370961189270020e-01
2.763000000000000000e+03 3.507826614379882812e+01 1.065435886383056641e+01 8.684504032135009766e-02 6.747269034385681152e-01 2.284715771675109863e-01 6.678156852722167969e-01
2.764000000000000000e+03 5.935210418701171875e+01 1.905574798583984375e+00 -1.278312206268310547e-01 1.521613359451293945e+00 4.181346297264099121e-01 -4.903227984905242920e-01
2.765000000000000000e+03 5.337154769897460938e+01 4.651276469230651855e-01 -4.196953177452087402e-01 5.186499357223510742e-01 2.968637645244598389e-02 3.242669105529785156e-01
2.766000000000000000e+03 2.882733345031738281e+01 2.209904432296752930e+00 -2.382896989583969116e-01 5.311887264251708984e-01 8.786970376968383789e-02 3.568417727947235107e-01
2.767000000000000000e+03 6.794062042236328125e+01 -2.049135446548461914e+00 -1.691243648529052734e+00 6.717396736145019531e+00 1.507845878601074219e+00 -2.398696899414062500e+00
2.768000000000000000e+03 6.971611785888671875e+01 5.941033840179443359e+00 -3.393436968326568604e-01 6.190268993377685547e+00 1.755277633666992188e+00 -1.166736364364624023e+00
2.769000000000000000e+03 5.599119567871093750e+01 -3.244034767150878906e+00 -1.300640940666198730e+00 4.290664196014404297e-01 -2.614723443984985352e-01 1.103130131959915161e-01
2.770000000000000000e+03 6.741802978515625000e+01 -6.533564925193786621e-01 -1.310130953788757324e+00 5.879256725311279297e+00 1.370737671852111816e+00 -2.282615900039672852e+00
2.771000000000000000e+03 6.643727111816406250e+01 -1.226236000657081604e-01 -1.013668417930603027e+00 5.000954627990722656e+00 1.196185946464538574e+00 -2.151934623718261719e+00
2.772000000000000000e+03 6.788867950439453125e+01 2.104928779602050781e+01 2.630233168601989746e-01 5.170346260070800781e+00 1.630010843276977539e+00 -5.851296782493591309e-01
2.773000000000000000e+03 5.031574249267578125e+01 -9.136752784252166748e-02 -4.786950945854187012e-01 2.952271997928619385e-01 -5.504037439823150635e-02 3.728871643543243408e-01
2.774000000000000000e+03 4.978666305541992188e+01 -5.115318775177001953e+00 -1.223003745079040527e+00 2.962619066238403320e-01 -2.780225574970245361e-01 1.522687077522277832e-01
2.775000000000000000e+03 5.928961563110351562e+01 4.496055603027343750e+00 9.055746346712112427e-02 2.030889987945556641e+00 6.364342570304870605e-01 -5.605690479278564453e-01
2.776000000000000000e+03 5.811205673217773438e+01 2.535782337188720703e+00 -1.132713928818702698e-01 1.362629771232604980e+00 3.748075067996978760e-01 -2.879863381385803223e-01
2.777000000000000000e+03 7.051688385009765625e+01 1.461908054351806641e+01 1.883845478296279907e-01 5.872166156768798828e+00 1.818165183067321777e+00 -7.615051269531250000e-01
2.778000000000000000e+03 6.905200195312500000e+01 1.732235717773437500e+01 2.637519538402557373e-01 5.434611320495605469e+00 1.709509015083312988e+00 -7.113574147224426270e-01
2.779000000000000000e+03 7.054980468750000000e+01 7.725252628326416016e+00 -1.439379602670669556e-01 6.274843692779541016e+00 1.839271664619445801e+00 -1.017396569252014160e+00
2.780000000000000000e+03 8.557950019836425781e+00 1.871245765686035156e+01 1.939689517021179199e-01 -5.053862333297729492e-01 -9.342518448829650879e-02 2.442614734172821045e-01
2.781000000000000000e+03 5.788453578948974609e+00 2.254935646057128906e+01 5.704638361930847168e-02 -7.328712940216064453e-01 -2.027474641799926758e-01 1.309646219015121460e-01
2.782000000000000000e+03 4.220824813842773438e+01 2.028917312622070312e+00 -4.046768248081207275e-01 4.445185065269470215e-01 1.195250637829303741e-02 2.693710625171661377e-01
2.783000000000000000e+03 6.953791046142578125e+01 1.448923587799072266e+01 2.276054471731185913e-01 5.631265163421630859e+00 1.757661223411560059e+00 -8.298639655113220215e-01
2.784000000000000000e+03 7.161195373535156250e+01 1.426475715637207031e+01 1.467201113700866699e-01 6.214785575866699219e+00 1.908451676368713379e+00 -7.384936809539794922e-01
2.785000000000000000e+03 8.571564674377441406e+00 2.109895896911621094e+01 1.329520940780639648e-01 -5.126377344131469727e-01 -1.139056980609893799e-01 1.897713690996170044e-01
2.786000000000000000e+03 6.596305084228515625e+01 1.086939144134521484e+01 2.898587286472320557e-01 4.620775699615478516e+00 1.473190426826477051e+00 -1.052277207374572754e+00
2.787000000000000000e+03 6.270802688598632812e+01 1.164009761810302734e+01 5.049077272415161133e-01 3.798106193542480469e+00 1.290904164314270020e+00 -8.614223003387451172e-01
2.788000000000000000e+03 5.452316665649414062e+01 6.955293565988540649e-02 -5.148308277130126953e-01 5.734069943428039551e-01 1.757286302745342255e-02 2.288960963487625122e-01
2.789000000000000000e+03 9.764558792114257812e+00 2.248488616943359375e+01 1.032013967633247375e-01 -4.294914007186889648e-01 -9.788700193166732788e-02 1.842944324016571045e-01
2.790000000000000000e+03 6.732756805419921875e+01 2.754055404663085938e+01 2.234896570444107056e-01 5.003497600555419922e+00 1.568096160888671875e+00 -4.371934533119201660e-01
2.791000000000000000e+03 6.847291564941406250e+01 2.478381156921386719e+01 2.011303007602691650e-01 5.243501663208007812e+00 1.633389592170715332e+00 -4.941822290420532227e-01
2.792000000000000000e+03 1.140228748321533203e+01 3.191326904296875000e+01 5.122528597712516785e-02 -5.045107603073120117e-01 -1.359856426715850830e-01 1.404745429754257202e-01
2.793000000000000000e+03 1.005518436431884766e+01 2.813731002807617188e+01 3.509836271405220032e-02 -5.174481868743896484e-01 -1.447049528360366821e-01 1.546781957149505615e-01
2.794000000000000000e+03 6.478981781005859375e+01 -4.878661632537841797e-01 -6.561413407325744629e-01 3.401540994644165039e+00 8.236199021339416504e-01 -2.129315137863159180e+00
2.795000000000000000e+03 5.369735717773437500e+01 -2.410814166069030762e-01 -5.508391857147216797e-01 5.434948205947875977e-01 -2.203303156420588493e-03 3.215957581996917725e-01
2.796000000000000000e+03 5.119482803344726562e+01 -4.643036365509033203e+00 -1.231828212738037109e+00 3.104859590530395508e-01 -2.764026820659637451e-01 1.783533692359924316e-01
2.797000000000000000e+03 5.397179412841796875e+01 -3.204679250717163086e+00 -1.205699086189270020e+00 3.892477452754974365e-01 -2.449353933334350586e-01 1.918679624795913696e-01
2.798000000000000000e+03 2.631606674194335938e+01 8.595789670944213867e-01 -4.371680021286010742e-01 5.706925988197326660e-01 4.005736857652664185e-02 3.104849159717559814e-01
2.799000000000000000e+03 6.125662612915039062e+01 5.823183536529541016e+00 2.049773633480072021e-01 2.816897630691528320e+00 9.065625071525573730e-01 -9.297320842742919922e-01
2.800000000000000000e+03 6.255162429809570312e+01 6.022266864776611328e+00 1.630038619041442871e-01 3.230415582656860352e+00 1.018025875091552734e+00 -1.094173789024353027e+00
2.801000000000000000e+03 6.809288787841796875e+01 2.290386772155761719e+01 2.347552776336669922e-01 5.192895412445068359e+00 1.628295302391052246e+00 -5.373304486274719238e-01
2.802000000000000000e+03 3.557262802124023438e+01 1.200091838836669922e+01 1.466756910085678101e-01 7.224394679069519043e-01 2.607345581054687500e-01 6.177842617034912109e-01
2.803000000000000000e+03 3.241464996337890625e+01 1.155798912048339844e+01 3.333519399166107178e-02 4.820596873760223389e-01 1.546184569597244263e-01 6.702950000762939453e-01
2.804000000000000000e+03 3.609873962402343750e+01 1.359474182128906250e+01 2.489684522151947021e-01 7.811586856842041016e-01 3.090381324291229248e-01 5.294353365898132324e-01
2.805000000000000000e+03 3.373977279663085938e+01 1.223230934143066406e+01 7.921382784843444824e-02 5.830541253089904785e-01 1.986803859472274780e-01 6.332666873931884766e-01
2.806000000000000000e+03 1.230390453338623047e+01 2.453179740905761719e+01 7.979039847850799561e-02 -2.896555066108703613e-01 -6.295952945947647095e-02 2.348929941654205322e-01
2.807000000000000000e+03 1.132580661773681641e+01 2.718246078491210938e+01 5.342197790741920471e-02 -4.155915379524230957e-01 -1.086508706212043762e-01 1.902571320533752441e-01
2.808000000000000000e+03 3.655492782592773438e+01 6.101513862609863281e+00 -1.700701266527175903e-01 6.741995215415954590e-01 1.512388139963150024e-01 5.830586552619934082e-01
2.809000000000000000e+03 2.309615516662597656e+01 2.329539299011230469e+01 2.991718649864196777e-01 -1.636423170566558838e-01 4.065886884927749634e-02 4.434803128242492676e-01
2.810000000000000000e+03 6.909648895263671875e+01 -2.562902641296386719e+01 -7.323117256164550781e-01 7.442634582519531250e+00 2.013096809387207031e+00 3.788357675075531006e-01
2.811000000000000000e+03 5.539419174194335938e+01 1.204732537269592285e+00 -3.427040576934814453e-01 7.480685114860534668e-01 1.216093301773071289e-01 1.538079231977462769e-01
2.812000000000000000e+03 2.453254127502441406e+01 2.452342414855957031e+01 3.226829469203948975e-01 -1.071367189288139343e-01 6.466387212276458740e-02 3.697315156459808350e-01
2.813000000000000000e+03 6.679682922363281250e+01 -2.820722579956054688e+01 -5.194527506828308105e-01 5.788881301879882812e+00 1.580828547477722168e+00 7.050363421440124512e-01
2.814000000000000000e+03 4.845903778076171875e+01 -3.182462453842163086e-01 -4.920451939105987549e-01 2.380127757787704468e-01 -7.620972394943237305e-02 3.283669650554656982e-01
2.815000000000000000e+03 4.662315368652343750e+01 -2.630108296871185303e-01 -4.906658530235290527e-01 2.481126636266708374e-01 -7.276596128940582275e-02 2.909232974052429199e-01
2.816000000000000000e+03 9.792017936706542969e+00 -3.031484603881835938e+01 -2.241140753030776978e-01 5.551010966300964355e-01 9.929610788822174072e-02 1.450283974409103394e-01
2.817000000000000000e+03 4.331946563720703125e+01 -7.651277065277099609e+00 -1.011583685874938965e+00 2.522082626819610596e-01 -2.278126180171966553e-01 8.063886314630508423e-02
2.818000000000000000e+03 3.159309005737304688e+01 1.689624214172363281e+01 7.509209215641021729e-02 3.884024322032928467e-01 1.390483677387237549e-01 3.237849771976470947e-01
2.819000000000000000e+03 3.200071334838867188e+01 1.978846549987792969e+01 2.099837809801101685e-01 4.039613604545593262e-01 1.841835379600524902e-01 2.322439998388290405e-01
2.820000000000000000e+03 6.313923645019531250e+01 1.695562934875488281e+01 5.145882964134216309e-01 4.080794334411621094e+00 1.378614783287048340e+00 -6.608151793479919434e-01
2.821000000000000000e+03 3.309672927856445312e+01 1.328509902954101562e+01 5.306808650493621826e-02 5.344305634498596191e-01 1.762495934963226318e-01 5.757978558540344238e-01
2.822000000000000000e+03 1.014071559906005859e+01 2.576993560791015625e+01 5.153053626418113708e-02 -4.557080864906311035e-01 -1.212532669305801392e-01 1.763347536325454712e-01
2.823000000000000000e+03 5.386233139038085938e+01 -1.106656789779663086e+00 -7.538461685180664062e-01 4.750540554523468018e-01 -8.363763242959976196e-02 2.604368627071380615e-01
2.824000000000000000e+03 6.085652542114257812e+01 7.228070259094238281e+00 2.887454926967620850e-01 2.914315462112426758e+00 9.609182476997375488e-01 -8.200291991233825684e-01
2.825000000000000000e+03 6.903038787841796875e+01 2.650917625427246094e+01 1.888031065464019775e-01 5.330520153045654297e+00 1.655797004699707031e+00 -4.446533620357513428e-01
2.826000000000000000e+03 5.952742004394531250e+01 2.239841270446777344e+01 3.474127054214477539e-01 3.478448390960693359e+00 1.147758364677429199e+00 -5.682967305183410645e-01
2.827000000000000000e+03 6.545515441894531250e+01 -3.092181205749511719e+01 -2.569528818130493164e-01 4.979079723358154297e+00 1.416638016700744629e+00 6.474141478538513184e-01
2.828000000000000000e+03 6.525794219970703125e+01 -2.877060127258300781e+01 -3.716689944267272949e-01 5.043929100036621094e+00 1.401677966117858887e+00 8.464215993881225586e-01
2.829000000000000000e+03 6.958751678466796875e+01 1.284817218780517578e+00 -1.176441669464111328e+00 7.051908969879150391e+00 1.762640237808227539e+00 -1.362721920013427734e+00
2.830000000000000000e+03 7.094036102294921875e+01 -1.120226621627807617e+00 -1.718491554260253906e+00 8.556897163391113281e+00 2.051521539688110352e+00 -7.647013068199157715e-01
2.831000000000000000e+03 3.391833114624023438e+01 6.961221694946289062e+00 -3.972994536161422729e-02 5.498877763748168945e-01 1.530473530292510986e-01 6.505280137062072754e-01
2.832000000000000000e+03 3.487043762207031250e+01 2.602311325073242188e+01 3.798234462738037109e-01 6.613087058067321777e-01 3.123396337032318115e-01 2.191162258386611938e-01
2.833000000000000000e+03 1.589691448211669922e+01 -3.330781555175781250e+01 -8.123104274272918701e-02 1.014051318168640137e+00 2.798460721969604492e-01 -2.733785808086395264e-01
2.834000000000000000e+03 6.994031524658203125e+01 4.537547111511230469e+00 -5.134406685829162598e-01 6.395983219146728516e+00 1.764762759208679199e+00 -1.156684994697570801e+00
2.835000000000000000e+03 5.616189193725585938e+01 2.932212448120117188e+01 5.681145191192626953e-01 2.749497652053833008e+00 9.952836632728576660e-01 -3.634658455848693848e-01
2.836000000000000000e+03 5.931130599975585938e+01 2.423187637329101562e+01 3.751305937767028809e-01 3.451065540313720703e+00 1.147858858108520508e+00 -5.510793328285217285e-01
2.837000000000000000e+03 5.700241088867187500e+01 2.775026512145996094e+01 4.962530732154846191e-01 2.922987461090087891e+00 1.025772213935852051e+00 -4.643809795379638672e-01
2.838000000000000000e+03 4.819513702392578125e+01 2.861676788330078125e+01 7.282028794288635254e-01 1.456610321998596191e+00 6.554439663887023926e-01 1.827459968626499176e-02
2.839000000000000000e+03 7.356931304931640625e+01 -3.752824783325195312e+01 -5.946015939116477966e-02 7.693031311035156250e+00 2.290071487426757812e+00 2.531040925532579422e-03
2.840000000000000000e+03 7.065947723388671875e+01 -3.794344329833984375e+01 -2.425836166366934776e-03 6.690962314605712891e+00 2.006560802459716797e+00 6.069807335734367371e-02
2.841000000000000000e+03 6.773739624023437500e+01 -3.462054061889648438e+01 -8.154600113630294800e-02 5.658860206604003906e+00 1.673194289207458496e+00 3.706823885440826416e-01
2.842000000000000000e+03 6.746480560302734375e+01 1.761378097534179688e+01 3.276317119598388672e-01 5.061297893524169922e+00 1.616678833961486816e+00 -7.147555947303771973e-01
2.843000000000000000e+03 6.910843658447265625e+01 1.571613788604736328e+01 2.627052068710327148e-01 5.485547065734863281e+00 1.724475622177124023e+00 -7.655946612358093262e-01
2.844000000000000000e+03 3.081983566284179688e+01 1.963714981079101562e+01 2.022840082645416260e-01 3.127520084381103516e-01 1.545108109712600708e-01 2.508400976657867432e-01
2.845000000000000000e+03 1.203145599365234375e+01 3.436803436279296875e+01 7.673273980617523193e-02 -5.030726790428161621e-01 -1.279019862413406372e-01 1.225640699267387390e-01
2.846000000000000000e+03 3.579084777832031250e+01 1.682053947448730469e+01 3.030578196048736572e-01 7.712714672088623047e-01 3.222987949848175049e-01 3.581808507442474365e-01
2.847000000000000000e+03 1.367577171325683594e+01 2.410813713073730469e+01 7.852989435195922852e-02 -1.850749254226684570e-01 -3.196351230144500732e-02 2.803913354873657227e-01
2.848000000000000000e+03 1.364321422576904297e+01 2.162156105041503906e+01 1.225875094532966614e-01 -1.040477529168128967e-01 5.561925936490297318e-03 2.669122815132141113e-01
2.849000000000000000e+03 3.535380554199218750e+01 1.866348838806152344e+01 2.684379220008850098e-01 7.341225743293762207e-01 3.007681369781494141e-01 2.684177458286285400e-01
2.850000000000000000e+03 3.446529388427734375e+01 1.594761848449707031e+01 2.136142551898956299e-01 6.481470465660095215e-01 2.585283815860748291e-01 4.026969373226165771e-01
2.851000000000000000e+03 1.888314819335937500e+01 2.546315956115722656e+01 1.879154145717620850e-01 -9.507020562887191772e-02 2.785356529057025909e-02 4.259687960147857666e-01
2.852000000000000000e+03 1.446009826660156250e+01 2.534538459777832031e+01 9.240711480379104614e-02 -1.915164738893508911e-01 -2.973280660808086395e-02 3.001118004322052002e-01
2.853000000000000000e+03 3.042590522766113281e+01 -1.358487224578857422e+01 4.508623853325843811e-02 1.662358045578002930e-01 6.339661777019500732e-02 4.406423270702362061e-01
2.854000000000000000e+03 3.214266204833984375e+01 -1.330965900421142578e+01 -3.245655000209808350e-01 5.400070454925298691e-03 -9.574963152408599854e-02 1.776822060346603394e-01
2.855000000000000000e+03 3.296619415283203125e+01 -1.288253307342529297e+01 -4.328663945198059082e-01 1.843584887683391571e-02 -1.243291646242141724e-01 1.592800319194793701e-01
2.856000000000000000e+03 3.127929878234863281e+01 -1.354056644439697266e+01 -1.573451459407806396e-01 2.929226681590080261e-02 -3.841586410999298096e-02 2.648417353630065918e-01
2.857000000000000000e+03 2.837898063659667969e+01 -1.045774364471435547e+01 -4.711676537990570068e-01 9.921112656593322754e-01 1.562830805778503418e-01 5.791655182838439941e-01
2.858000000000000000e+03 2.911517906188964844e+01 -1.242734050750732422e+01 -1.153780817985534668e-01 8.972737193107604980e-01 2.345686852931976318e-01 7.497342228889465332e-01
2.859000000000000000e+03 2.919528007507324219e+01 -1.322377014160156250e+01 1.146045923233032227e-01 7.771335840225219727e-01 2.675214707851409912e-01 7.814178466796875000e-01
2.860000000000000000e+03 2.896279716491699219e+01 -1.162616348266601562e+01 -2.921851277351379395e-01 9.603766798973083496e-01 2.004574686288833618e-01 6.939172148704528809e-01
2.861000000000000000e+03 2.842680740356445312e+01 -1.128146171569824219e+01 -3.849178850650787354e-01 1.088571667671203613e+00 2.110961526632308960e-01 6.142150163650512695e-01
2.862000000000000000e+03 2.904269599914550781e+01 -9.675930023193359375e+00 -5.178665518760681152e-01 8.358039855957031250e-01 9.538122266530990601e-02 6.101012229919433594e-01
2.863000000000000000e+03 2.944443321228027344e+01 -8.122672080993652344e+00 -6.151368021965026855e-01 7.407683730125427246e-01 3.768947347998619080e-02 5.848698019981384277e-01
2.864000000000000000e+03 2.803284263610839844e+01 -4.792205810546875000e+00 -7.302646040916442871e-01 6.990754604339599609e-01 -9.356743656098842621e-03 4.763412177562713623e-01
2.865000000000000000e+03 3.442864990234375000e+01 -1.301938533782958984e+01 -6.307342052459716797e-01 3.820650279521942139e-03 -1.880740672349929810e-01 3.814513608813285828e-02
2.866000000000000000e+03 2.730723953247070312e+01 -5.073081493377685547e+00 -7.450479865074157715e-01 6.860979795455932617e-01 -1.768499985337257385e-02 4.659716784954071045e-01
2.867000000000000000e+03 2.766096115112304688e+01 -5.805482387542724609e+00 -7.258421778678894043e-01 7.207064628601074219e-01 -1.540728262625634670e-03 4.856980443000793457e-01
2.868000000000000000e+03 2.874922943115234375e+01 -2.064379930496215820e+00 -6.349858641624450684e-01 6.557899713516235352e-01 6.241227965801954269e-03 4.257250428199768066e-01
2.869000000000000000e+03 2.855637550354003906e+01 -1.068718194961547852e+00 -5.729882121086120605e-01 6.349102258682250977e-01 1.857660710811614990e-02 3.913148939609527588e-01
2.870000000000000000e+03 3.866062927246093750e+01 -1.096318244934082031e+01 -8.945135474205017090e-01 1.495284885168075562e-01 -2.234955281019210815e-01 2.858988568186759949e-02
2.871000000000000000e+03 3.654182815551757812e+01 -1.082062339782714844e+01 -7.404139041900634766e-01 1.389089971780776978e-01 -1.804514676332473755e-01 1.257295757532119751e-01
2.872000000000000000e+03 3.920738983154296875e+01 -9.621727943420410156e+00 -8.746893405914306641e-01 1.996278613805770874e-01 -2.025184333324432373e-01 9.192945063114166260e-02
2.873000000000000000e+03 2.709150505065917969e+01 -3.944805860519409180e+00 -7.443835139274597168e-01 6.593145132064819336e-01 -2.552070282399654388e-02 4.392124116420745850e-01
2.874000000000000000e+03 2.782358360290527344e+01 -3.988083362579345703e+00 -7.298976778984069824e-01 6.752170324325561523e-01 -1.640421152114868164e-02 4.556777775287628174e-01
2.875000000000000000e+03 5.790657806396484375e+01 8.410564661026000977e-01 -3.107637465000152588e-01 1.089726924896240234e+00 2.336889654397964478e-01 -1.834036856889724731e-01
2.876000000000000000e+03 2.708830833435058594e+01 -1.129366397857666016e+00 -6.128717660903930664e-01 6.083009243011474609e-01 -1.371252932585775852e-03 3.666220903396606445e-01
2.877000000000000000e+03 2.652625846862792969e+01 -1.798261165618896484e+00 -6.786404252052307129e-01 5.980300903320312500e-01 -2.418309077620506287e-02 3.821085691452026367e-01
2.878000000000000000e+03 2.638681602478027344e+01 -1.076485633850097656e+00 -6.231028437614440918e-01 5.921894907951354980e-01 -9.273990988731384277e-03 3.609627485275268555e-01
2.879000000000000000e+03 6.360284423828125000e+01 1.271111488342285156e+01 4.970911443233489990e-01 4.035424232482910156e+00 1.359754681587219238e+00 -8.789954185485839844e-01
2.880000000000000000e+03 6.831321716308593750e+01 8.745429992675781250e+00 1.621262729167938232e-02 5.466884613037109375e+00 1.644929051399230957e+00 -1.132177591323852539e+00
2.881000000000000000e+03 2.860959243774414062e+01 -6.251906871795654297e+00 -7.005977034568786621e-01 7.355581521987915039e-01 1.048812642693519592e-02 5.212364792823791504e-01
2.882000000000000000e+03 6.825065612792968750e+01 -1.105611562728881836e+00 -1.711852908134460449e+00 6.914360523223876953e+00 1.560752272605895996e+00 -2.069797039031982422e+00
2.883000000000000000e+03 4.842402267456054688e+01 -2.374595642089843750e+00 -7.706777453422546387e-01 2.775553464889526367e-01 -1.479367166757583618e-01 2.897807657718658447e-01
2.884000000000000000e+03 4.274626159667968750e+01 -9.165106773376464844e+00 -1.056764125823974609e+00 2.160707712173461914e-01 -2.522080242633819580e-01 9.294274263083934784e-03
2.885000000000000000e+03 4.016921997070312500e+01 -9.158852577209472656e+00 -9.118516445159912109e-01 2.147645205259323120e-01 -2.091261446475982666e-01 8.643352240324020386e-02
2.886000000000000000e+03 3.972147369384765625e+01 1.934913396835327148e+00 -4.283858835697174072e-01 5.422803163528442383e-01 3.416833281517028809e-02 3.698047399520874023e-01
2.887000000000000000e+03 3.842286682128906250e+01 2.201233625411987305e+00 -4.018046557903289795e-01 5.737128257751464844e-01 5.157244578003883362e-02 4.204847216606140137e-01
2.888000000000000000e+03 4.118220901489257812e+01 -8.677487373352050781e+00 -9.477334022521972656e-01 2.307988554239273071e-01 -2.150803655385971069e-01 8.012766391038894653e-02
2.889000000000000000e+03 3.828541183471679688e+01 -1.006123828887939453e+01 -8.335458636283874512e-01 1.781396120786666870e-01 -1.966218650341033936e-01 1.000889167189598083e-01
2.890000000000000000e+03 3.077125930786132812e+01 3.761312961578369141e+00 -1.014599278569221497e-01 4.802674651145935059e-01 1.136422604322433472e-01 4.664518535137176514e-01
2.891000000000000000e+03 2.643667411804199219e+01 2.520956993103027344e-01 -5.155666470527648926e-01 5.835480093955993652e-01 2.039441093802452087e-02 3.328366577625274658e-01
2.892000000000000000e+03 2.724200820922851562e+01 1.994002610445022583e-01 -4.929267764091491699e-01 5.911731719970703125e-01 2.947391197085380554e-02 3.360405564308166504e-01
2.893000000000000000e+03 6.917324829101562500e+01 7.401553153991699219e+00 -1.311306953430175781e-01 5.859621047973632812e+00 1.718547105789184570e+00 -1.110175490379333496e+00
2.894000000000000000e+03 5.745281600952148438e+01 1.705396294593811035e+00 -2.112839221954345703e-01 1.117279767990112305e+00 2.717987298965454102e-01 -1.238198280334472656e-01
2.895000000000000000e+03 6.043420791625976562e+01 3.074414432048797607e-01 -2.993493676185607910e-01 1.391138911247253418e+00 3.275368511676788330e-01 -7.361464500427246094e-01
2.896000000000000000e+03 6.454392242431640625e+01 2.053302001953125000e+01 3.560124337673187256e-01 4.451891422271728516e+00 1.442371129989624023e+00 -6.024567484855651855e-01
2.897000000000000000e+03 4.276090240478515625e+01 -6.642417430877685547e+00 -9.304855465888977051e-01 2.766469120979309082e-01 -1.961515992879867554e-01 1.456159502267837524e-01
2.898000000000000000e+03 4.449540328979492188e+01 1.226820349693298340e+00 -3.875951468944549561e-01 3.066302239894866943e-01 -2.428947575390338898e-02 2.513091564178466797e-01
2.899000000000000000e+03 3.647153091430664062e+01 4.976601123809814453e+00 -2.221274822950363159e-01 6.386535763740539551e-01 1.249578222632408142e-01 5.476840734481811523e-01
2.900000000000000000e+03 5.286160278320312500e+01 -1.954454481601715088e-01 -5.461206436157226562e-01 4.418130218982696533e-01 -3.129227459430694580e-02 3.434744477272033691e-01
2.901000000000000000e+03 5.143501281738281250e+01 -7.411900758743286133e-01 -6.089622378349304199e-01 3.487337529659271240e-01 -7.806853950023651123e-02 3.617764115333557129e-01
2.902000000000000000e+03 4.702641296386718750e+01 -3.153014659881591797e+00 -8.206412196159362793e-01 2.772851586341857910e-01 -1.630068272352218628e-01 2.567784488201141357e-01
2.903000000000000000e+03 4.246179962158203125e+01 -3.107244372367858887e-01 -5.258584618568420410e-01 3.756591677665710449e-01 -4.505978897213935852e-02 2.965768873691558838e-01
2.904000000000000000e+03 4.923482513427734375e+01 -3.699293613433837891e+00 -9.611615538597106934e-01 2.918969392776489258e-01 -2.007793784141540527e-01 2.525086998939514160e-01
2.905000000000000000e+03 2.813643836975097656e+01 1.003758668899536133e+00 -3.912298679351806641e-01 5.796823501586914062e-01 5.653574690222740173e-02 3.415996432304382324e-01
2.906000000000000000e+03 2.989174270629882812e+01 2.447532415390014648e+00 -2.221368700265884399e-01 5.303393006324768066e-01 9.246072173118591309e-02 4.009985625743865967e-01
2.907000000000000000e+03 5.251815032958984375e+01 -3.318096637725830078e+00 -1.089246034622192383e+00 3.538337945938110352e-01 -2.206236720085144043e-01 2.474279403686523438e-01
2.908000000000000000e+03 3.225388717651367188e+01 8.662345886230468750e+00 4.218386113643646240e-02 4.610653519630432129e-01 1.509747654199600220e-01 7.007675170898437500e-01
2.909000000000000000e+03 3.449714660644531250e+01 7.825294971466064453e+00 -1.843042299151420593e-02 5.793937444686889648e-01 1.682890057563781738e-01 6.728601455688476562e-01
2.910000000000000000e+03 3.459650802612304688e+01 8.652431488037109375e+00 1.165813114494085312e-02 5.919008851051330566e-01 1.810677051544189453e-01 6.813092231750488281e-01
2.911000000000000000e+03 6.521026611328125000e+01 8.214161872863769531e+00 1.669173389673233032e-01 4.367820262908935547e+00 1.360421180725097656e+00 -1.169435143470764160e+00
2.912000000000000000e+03 1.237995624542236328e+01 2.150100326538085938e+01 1.432131081819534302e-01 -1.931135207414627075e-01 -1.497012376785278320e-02 2.296618968248367310e-01
2.913000000000000000e+03 1.347443199157714844e+01 2.292049598693847656e+01 9.613469243049621582e-02 -1.602544635534286499e-01 -1.923593133687973022e-02 2.712584137916564941e-01
2.914000000000000000e+03 4.602116394042968750e+01 6.707516312599182129e-01 -4.080050289630889893e-01 2.559125721454620361e-01 -4.562773182988166809e-02 2.726848721504211426e-01
2.915000000000000000e+03 4.139445114135742188e+01 -3.574590682983398438e-01 -5.223484039306640625e-01 4.237678945064544678e-01 -2.957415021955966949e-02 3.146096169948577881e-01
2.916000000000000000e+03 3.283549118041992188e+01 1.032982826232910156e+01 3.928994014859199524e-02 5.061438679695129395e-01 1.636301428079605103e-01 6.970793008804321289e-01
2.917000000000000000e+03 5.539144897460937500e+01 1.366055458784103394e-01 -4.876922965049743652e-01 6.489259600639343262e-01 4.837008938193321228e-02 1.841667890548706055e-01
2.918000000000000000e+03 3.449782180786132812e+01 1.139164066314697266e+01 9.775824844837188721e-02 6.184366345405578613e-01 2.148584574460983276e-01 6.617555022239685059e-01
2.919000000000000000e+03 3.424878692626953125e+01 1.397371768951416016e+01 1.531853377819061279e-01 6.295128464698791504e-01 2.348094582557678223e-01 5.253803133964538574e-01
2.920000000000000000e+03 5.095490264892578125e+01 -1.956789612770080566e+00 -7.827796339988708496e-01 3.201186954975128174e-01 -1.387982815504074097e-01 3.262344300746917725e-01
2.921000000000000000e+03 3.430345916748046875e+01 5.196117877960205078e+00 -1.416797339916229248e-01 5.605772733688354492e-01 1.256692707538604736e-01 5.834741592407226562e-01
2.922000000000000000e+03 3.774149703979492188e+01 4.835080623626708984e+00 -2.743726372718811035e-01 6.743192672729492188e-01 1.199839785695075989e-01 4.976589977741241455e-01
2.923000000000000000e+03 3.450671005249023438e+01 2.332205963134765625e+01 3.183582723140716553e-01 6.339814662933349609e-01 2.857019007205963135e-01 2.179247289896011353e-01
2.924000000000000000e+03 6.536129760742187500e+01 5.341997146606445312e-01 -6.629616022109985352e-01 3.988486766815185547e+00 9.976575374603271484e-01 -2.114112377166748047e+00
2.925000000000000000e+03 6.309568405151367188e+01 9.763747215270996094e+00 3.947023749351501465e-01 3.777827501296997070e+00 1.251758933067321777e+00 -9.684317708015441895e-01
2.926000000000000000e+03 4.112114334106445312e+01 7.570096254348754883e-01 -4.765441119670867920e-01 4.549522995948791504e-01 -6.477545481175184250e-03 3.215990662574768066e-01
2.927000000000000000e+03 6.841892242431640625e+01 1.205842256546020508e+00 -1.036114096641540527e+00 6.227008342742919922e+00 1.557268261909484863e+00 -1.672593593597412109e+00
2.928000000000000000e+03 1.111767578125000000e+01 2.138468360900878906e+01 1.397877782583236694e-01 -2.979904115200042725e-01 -4.746078699827194214e-02 2.041928172111511230e-01
2.929000000000000000e+03 9.848416328430175781e+00 2.123129463195800781e+01 1.502977013587951660e-01 -4.040956199169158936e-01 -7.613937556743621826e-02 1.983182728290557861e-01
2.930000000000000000e+03 6.012043380737304688e+01 5.321952342987060547e+00 1.741182655096054077e-01 2.448920965194702148e+00 7.869117856025695801e-01 -7.241449356079101562e-01
2.931000000000000000e+03 3.115529060363769531e+01 1.128866195678710938e+01 -8.894426748156547546e-03 4.026180803775787354e-01 1.181170940399169922e-01 6.923453211784362793e-01
2.932000000000000000e+03 8.537525177001953125e+00 1.989809799194335938e+01 1.635126173496246338e-01 -5.033946633338928223e-01 -1.019646227359771729e-01 2.175123691558837891e-01
2.933000000000000000e+03 5.086151504516601562e+01 -3.325505256652832031e+00 -1.014618396759033203e+00 3.177061378955841064e-01 -2.090736776590347290e-01 2.634613811969757080e-01
2.934000000000000000e+03 3.752478027343750000e+01 3.738075971603393555e+00 -3.147379755973815918e-01 6.214733123779296875e-01 9.202060848474502563e-02 4.808329641819000244e-01
2.935000000000000000e+03 6.861306762695312500e+01 1.381230831146240234e+01 2.595010101795196533e-01 5.423840522766113281e+00 1.705002427101135254e+00 -8.740164041519165039e-01
2.936000000000000000e+03 3.324978256225585938e+01 2.024972915649414062e+01 2.563778162002563477e-01 5.275232791900634766e-01 2.351703196763992310e-01 2.345788478851318359e-01
2.937000000000000000e+03 3.315254592895507812e+01 1.669439125061035156e+01 1.439827680587768555e-01 5.488723516464233398e-01 2.078565359115600586e-01 3.621428012847900391e-01
2.938000000000000000e+03 2.705616950988769531e+01 2.425588035583496094e+01 3.499996960163116455e-01 4.307287558913230896e-02 1.179217770695686340e-01 2.916400730609893799e-01
2.939000000000000000e+03 6.546527099609375000e+01 5.662412643432617188e+00 -7.585238665342330933e-02 4.368712902069091797e+00 1.287858128547668457e+00 -1.396785616874694824e+00
2.940000000000000000e+03 6.319034576416015625e+01 1.928108787536621094e+01 3.948940038681030273e-01 4.145546913146972656e+00 1.362132310867309570e+00 -6.087311506271362305e-01
2.941000000000000000e+03 4.562271118164062500e+01 -6.577015399932861328e+00 -1.068461179733276367e+00 2.656275033950805664e-01 -2.408501058816909790e-01 1.003489345312118530e-01
2.942000000000000000e+03 6.454232025146484375e+01 1.379273319244384766e+01 4.630244672298431396e-01 4.318730354309082031e+00 1.434526443481445312e+00 -8.376834988594055176e-01
2.943000000000000000e+03 6.434859466552734375e+01 1.590832233428955078e+01 4.710239470005035400e-01 4.340123176574707031e+00 1.443344116210937500e+00 -7.266227006912231445e-01
2.944000000000000000e+03 2.617625045776367188e+01 2.642592048645019531e+01 3.550951778888702393e-01 4.317579045891761780e-02 1.194812878966331482e-01 2.984361946582794189e-01
2.945000000000000000e+03 1.830023956298828125e+01 2.730280685424804688e+01 1.702891886234283447e-01 -1.175866872072219849e-01 1.581075042486190796e-02 3.620429039001464844e-01
2.946000000000000000e+03 4.166260528564453125e+01 2.642312622070312500e+01 4.625752568244934082e-01 1.121121764183044434e+00 4.751091003417968750e-01 3.042151629924774170e-01
2.947000000000000000e+03 8.627612113952636719e+00 2.219988441467285156e+01 1.017959341406822205e-01 -5.164835453033447266e-01 -1.244062781333923340e-01 1.737260073423385620e-01
2.948000000000000000e+03 2.040944671630859375e+01 2.596369934082031250e+01 2.331051975488662720e-01 -8.885145187377929688e-02 4.327612370252609253e-02 4.162077903747558594e-01
2.949000000000000000e+03 2.091439437866210938e+01 2.417125892639160156e+01 2.401429265737533569e-01 -1.040367037057876587e-01 4.083186760544776917e-02 4.777424931526184082e-01
2.950000000000000000e+03 5.510390472412109375e+01 -3.044084787368774414e+00 -1.152251005172729492e+00 3.882354497909545898e-01 -2.292046546936035156e-01 1.682655960321426392e-01
2.951000000000000000e+03 6.086125564575195312e+01 -3.391584396362304688e+01 2.784093022346496582e-01 2.585996627807617188e+00 8.593217730522155762e-01 5.233582854270935059e-01
2.952000000000000000e+03 3.302493667602539062e+01 6.008634090423583984e+00 -4.793771728873252869e-02 4.923456907272338867e-01 1.333223879337310791e-01 6.161483526229858398e-01
2.953000000000000000e+03 3.633615112304687500e+01 2.314774322509765625e+01 3.201749324798583984e-01 8.135944604873657227e-01 3.401308059692382812e-01 2.344960123300552368e-01
2.954000000000000000e+03 1.228091335296630859e+01 2.293025016784667969e+01 9.183317422866821289e-02 -2.379050403833389282e-01 -4.382155835628509521e-02 2.306748777627944946e-01
2.955000000000000000e+03 1.454731750488281250e+01 2.320520210266113281e+01 9.273996204137802124e-02 -1.039647683501243591e-01 -3.367443103343248367e-03 3.125536143779754639e-01
2.956000000000000000e+03 6.096070480346679688e+01 2.448365592956542969e+01 3.463667631149291992e-01 3.760623693466186523e+00 1.232097148895263672e+00 -5.511037707328796387e-01
2.957000000000000000e+03 6.130217361450195312e+01 2.147427177429199219e+01 3.577957451343536377e-01 3.861464262008666992e+00 1.265777945518493652e+00 -5.683908462524414062e-01
2.958000000000000000e+03 1.320452976226806641e+01 3.094628524780273438e+01 7.979747653007507324e-02 -3.948696851730346680e-01 -9.452165663242340088e-02 1.861291676759719849e-01
2.959000000000000000e+03 5.771058654785156250e+01 3.071984100341796875e+01 5.026386976242065430e-01 3.105932712554931641e+00 1.082571387290954590e+00 -3.643179237842559814e-01
2.960000000000000000e+03 5.975438308715820312e+01 3.191836166381835938e+01 4.523360133171081543e-01 3.504026889801025391e+00 1.186908841133117676e+00 -3.567195534706115723e-01
2.961000000000000000e+03 1.350376319885253906e+01 -3.786449813842773438e+01 -2.758043408393859863e-01 5.859153866767883301e-01 9.303330630064010620e-02 -1.058989204466342926e-02
2.962000000000000000e+03 6.775586700439453125e+01 1.500512123107910156e+01 3.244978785514831543e-01 5.134787559509277344e+00 1.637785673141479492e+00 -8.288081884384155273e-01
2.963000000000000000e+03 5.910375595092773438e+01 2.625876617431640625e+01 4.108496606349945068e-01 3.367998838424682617e+00 1.133654475212097168e+00 -5.206294655799865723e-01
2.964000000000000000e+03 4.329070281982421875e+01 2.801994132995605469e+01 5.786443948745727539e-01 1.187451004981994629e+00 5.298286080360412598e-01 2.490374594926834106e-01
2.965000000000000000e+03 4.181392669677734375e+01 3.062785339355468750e+01 5.774289369583129883e-01 1.120631814002990723e+00 5.094182491302490234e-01 1.796037256717681885e-01
2.966000000000000000e+03 2.961404609680175781e+01 -1.359718036651611328e+01 2.007361799478530884e-01 4.546482861042022705e-01 1.966153383255004883e-01 6.684867143630981445e-01
2.967000000000000000e+03 2.930867958068847656e+01 -1.115597724914550781e+01 -3.472023606300354004e-01 8.363122344017028809e-01 1.467329561710357666e-01 6.726298928260803223e-01
2.968000000000000000e+03 3.035944938659667969e+01 -1.187246799468994141e+01 -2.215253114700317383e-01 4.961211979389190674e-01 8.237875998020172119e-02 6.261240243911743164e-01
2.969000000000000000e+03 2.946433067321777344e+01 -1.197359752655029297e+01 -2.068734616041183472e-01 7.682496309280395508e-01 1.684128493070602417e-01 7.068009972572326660e-01
2.970000000000000000e+03 2.868293571472167969e+01 -9.262250900268554688e+00 -5.543684959411621094e-01 8.641415834426879883e-01 9.293192625045776367e-02 5.752418637275695801e-01
2.971000000000000000e+03 3.109382438659667969e+01 -8.135508537292480469e+00 -5.770342946052551270e-01 5.853386521339416504e-01 2.491318853572010994e-03 5.736068487167358398e-01
2.972000000000000000e+03 3.368130874633789062e+01 -1.225565433502197266e+01 -5.014835596084594727e-01 6.141719967126846313e-02 -1.320199072360992432e-01 1.815645694732666016e-01
2.973000000000000000e+03 3.574465179443359375e+01 -1.111635780334472656e+01 -6.813125014305114746e-01 1.259588748216629028e-01 -1.666060984134674072e-01 1.528335064649581909e-01
2.974000000000000000e+03 3.500512313842773438e+01 -1.134103107452392578e+01 -6.344709992408752441e-01 1.137250959873199463e-01 -1.562237739562988281e-01 1.752175241708755493e-01
2.975000000000000000e+03 3.005860137939453125e+01 -7.905625343322753906e+00 -6.044461727142333984e-01 6.827716231346130371e-01 2.349762618541717529e-02 5.817261338233947754e-01
2.976000000000000000e+03 2.976834297180175781e+01 -7.303070068359375000e+00 -6.478626132011413574e-01 7.022708058357238770e-01 1.632245443761348724e-02 5.679216980934143066e-01
2.977000000000000000e+03 2.981130790710449219e+01 -5.180029392242431641e+00 -6.891838908195495605e-01 6.823896765708923340e-01 -2.038269303739070892e-03 5.186279416084289551e-01
2.978000000000000000e+03 3.418431091308593750e+01 -1.081283950805664062e+01 -5.643723607063293457e-01 1.718808859586715698e-01 -1.177474409341812134e-01 2.832255363464355469e-01
2.979000000000000000e+03 3.157316970825195312e+01 -1.300915813446044922e+01 -2.137085497379302979e-01 7.685893028974533081e-02 -4.105488583445549011e-02 3.286909461021423340e-01
2.980000000000000000e+03 2.748602867126464844e+01 -2.419927835464477539e+00 -6.874350309371948242e-01 6.413070559501647949e-01 -1.383838709443807602e-02 4.100886583328247070e-01
2.981000000000000000e+03 3.363940811157226562e+01 -1.156396102905273438e+01 -5.150162577629089355e-01 1.253740191459655762e-01 -1.168926730751991272e-01 2.683256268501281738e-01
2.982000000000000000e+03 3.304021072387695312e+01 -1.221956253051757812e+01 -4.481366872787475586e-01 8.115315437316894531e-02 -1.100950613617897034e-01 2.558935284614562988e-01
2.983000000000000000e+03 2.999509048461914062e+01 -1.507187128067016602e+00 -5.740588903427124023e-01 6.350030303001403809e-01 1.828323304653167725e-02 4.314141571521759033e-01
2.984000000000000000e+03 2.768136405944824219e+01 -3.191525459289550781e+00 -7.105587124824523926e-01 6.608281135559082031e-01 -1.491918787360191345e-02 4.309985339641571045e-01
2.985000000000000000e+03 3.704176330566406250e+01 -9.635773658752441406e+00 -7.435977458953857422e-01 1.992572993040084839e-01 -1.633021384477615356e-01 1.826333403587341309e-01
2.986000000000000000e+03 5.909416580200195312e+01 7.402335405349731445e-01 -3.030758798122406006e-01 1.177275061607360840e+00 2.622597515583038330e-01 -4.258136153221130371e-01
2.987000000000000000e+03 2.823125839233398438e+01 -1.689695715904235840e+00 -6.249492764472961426e-01 6.385232210159301758e-01 4.072169307619333267e-03 4.013851881027221680e-01
2.988000000000000000e+03 2.950000000000000000e+01 -6.684488773345947266e+00 -6.694355607032775879e-01 7.140693068504333496e-01 1.339013595134019852e-02 5.505434274673461914e-01
2.989000000000000000e+03 2.844020080566406250e+01 -3.110082626342773438e+00 -6.907945871353149414e-01 6.674299836158752441e-01 -7.009377703070640564e-03 4.432193338871002197e-01
2.990000000000000000e+03 4.494386291503906250e+01 2.192103266716003418e-01 -4.616186618804931641e-01 2.848375737667083740e-01 -5.303432419896125793e-02 2.736681699752807617e-01
2.991000000000000000e+03 4.344572067260742188e+01 9.599125981330871582e-01 -4.343467056751251221e-01 3.568618893623352051e-01 -2.324544452130794525e-02 2.685144841670989990e-01
2.992000000000000000e+03 2.717055702209472656e+01 -4.970619976520538330e-01 -5.610706210136413574e-01 6.083837151527404785e-01 1.419392228126525879e-02 3.609099090099334717e-01
2.993000000000000000e+03 2.861703681945800781e+01 -3.881681919097900391e+00 -7.052299976348876953e-01 6.868134737014770508e-01 -5.524949170649051666e-03 4.679149091243743896e-01
2.994000000000000000e+03 3.876771163940429688e+01 -8.716847419738769531e+00 -8.185663223266601562e-01 2.318965941667556763e-01 -1.760009229183197021e-01 1.600822955369949341e-01
2.995000000000000000e+03 3.624914932250976562e+01 -1.002514743804931641e+01 -6.970665454864501953e-01 1.853513121604919434e-01 -1.535145640373229980e-01 2.038940042257308960e-01
2.996000000000000000e+03 1.101322746276855469e+01 2.278840446472167969e+01 1.079280376434326172e-01 -3.251948654651641846e-01 -6.518004834651947021e-02 2.075134515762329102e-01
2.997000000000000000e+03 3.969235992431640625e+01 -8.223135948181152344e+00 -8.505412936210632324e-01 2.480245828628540039e-01 -1.807550191879272461e-01 1.516303122043609619e-01
2.998000000000000000e+03 4.444338607788085938e+01 -7.114141941070556641e+00 -1.045940876007080078e+00 2.614782452583312988e-01 -2.353388071060180664e-01 9.035768359899520874e-02
2.999000000000000000e+03 4.067311477661132812e+01 -7.716976165771484375e+00 -8.812724351882934570e-01 2.595234513282775879e-01 -1.865247040987014771e-01 1.468503922224044800e-01
3.000000000000000000e+03 3.788487625122070312e+01 -9.194723129272460938e+00 -7.823389172554016113e-01 2.172318100929260254e-01 -1.695321351289749146e-01 1.707732975482940674e-01
3.001000000000000000e+03 4.622178649902343750e+01 -2.013927698135375977e+00 -6.776804327964782715e-01 2.784873247146606445e-01 -1.197579279541969299e-01 2.807494401931762695e-01
3.002000000000000000e+03 6.357233810424804688e+01 2.593575417995452881e-01 -4.021488130092620850e-01 2.626196861267089844e+00 6.672144532203674316e-01 -1.791839599609375000e+00
3.003000000000000000e+03 6.752003479003906250e+01 1.558812499046325684e+00 -9.199602603912353516e-01 5.671411037445068359e+00 1.425435185432434082e+00 -1.778116106986999512e+00
3.004000000000000000e+03 6.342731475830078125e+01 7.297305583953857422e+00 2.151875197887420654e-01 3.677526950836181641e+00 1.167814373970031738e+00 -1.121531844139099121e+00
3.005000000000000000e+03 3.019770240783691406e+01 1.389069795608520508e+00 -3.350190520286560059e-01 5.584760904312133789e-01 6.703710556030273438e-02 4.065601825714111328e-01
3.006000000000000000e+03 3.219416046142578125e+01 4.032742500305175781e+00 -1.367224454879760742e-01 4.921504855155944824e-01 1.066284179687500000e-01 5.194307565689086914e-01
3.007000000000000000e+03 6.186733245849609375e+01 4.455188274383544922e+00 8.915232867002487183e-02 2.720680713653564453e+00 8.429498672485351562e-01 -1.098031044006347656e+00
3.008000000000000000e+03 6.220972824096679688e+01 7.364760875701904297e+00 2.705466449260711670e-01 3.307613372802734375e+00 1.073447942733764648e+00 -1.020464897155761719e+00
3.009000000000000000e+03 5.777894592285156250e+01 -3.408704325556755066e-02 -5.314909815788269043e-01 8.785774111747741699e-01 1.041259244084358215e-01 -1.589905321598052979e-01
3.010000000000000000e+03 3.721881484985351562e+01 2.689005851745605469e+00 -3.630705177783966064e-01 5.911283493041992188e-01 6.841734796762466431e-02 4.657790362834930420e-01
3.011000000000000000e+03 3.327368927001953125e+01 9.236507415771484375e+00 3.814720362424850464e-02 5.059657692909240723e-01 1.632338911294937134e-01 6.979043483734130859e-01
3.012000000000000000e+03 5.393540954589843750e+01 -2.119473695755004883e+00 -9.044349193572998047e-01 4.293020665645599365e-01 -1.425398588180541992e-01 2.669922709465026855e-01
3.013000000000000000e+03 3.546880722045898438e+01 4.521430969238281250e+00 -2.190172970294952393e-01 6.020331382751464844e-01 1.149047538638114929e-01 5.559465885162353516e-01
3.014000000000000000e+03 6.772334289550781250e+01 1.286090946197509766e+01 2.883976101875305176e-01 5.136030197143554688e+00 1.627328395843505859e+00 -9.270725250244140625e-01
3.015000000000000000e+03 6.885749816894531250e+01 1.191329669952392578e+01 1.737204343080520630e-01 5.538785934448242188e+00 1.713751912117004395e+00 -9.641909003257751465e-01
3.016000000000000000e+03 3.407970046997070312e+01 1.052941226959228516e+01 6.688866019248962402e-02 5.824497938156127930e-01 1.948015391826629639e-01 6.768351793289184570e-01
3.017000000000000000e+03 4.169792175292968750e+01 -7.190727710723876953e+00 -9.050827622413635254e-01 2.703008651733398438e-01 -1.904345750808715820e-01 1.425692141056060791e-01
3.018000000000000000e+03 4.442166900634765625e+01 -4.423565864562988281e+00 -8.497500419616699219e-01 2.951919436454772949e-01 -1.663674116134643555e-01 2.139092981815338135e-01
3.019000000000000000e+03 6.240906143188476562e+01 8.653712272644042969e+00 3.465561866760253906e-01 3.448760747909545898e+00 1.138595104217529297e+00 -9.859939813613891602e-01
3.020000000000000000e+03 6.873181915283203125e+01 4.454955577850341797e+00 -5.040538311004638672e-01 5.963520050048828125e+00 1.637839794158935547e+00 -1.330319166183471680e+00
3.021000000000000000e+03 6.569664001464843750e+01 1.283191108703613281e+01 3.913745582103729248e-01 4.565545082092285156e+00 1.487075924873352051e+00 -9.339141845703125000e-01
3.022000000000000000e+03 4.111921310424804688e+01 -6.206408023834228516e+00 -8.342736959457397461e-01 2.987842559814453125e-01 -1.606468260288238525e-01 2.027912735939025879e-01
3.023000000000000000e+03 3.788574218750000000e+01 1.137363314628601074e+00 -4.419197440147399902e-01 5.457660555839538574e-01 3.115389682352542877e-02 4.220601916313171387e-01
3.024000000000000000e+03 4.634923553466796875e+01 -4.939758300781250000e+00 -9.747964143753051758e-01 2.792649865150451660e-01 -2.086594402790069580e-01 1.798865050077438354e-01
3.025000000000000000e+03 5.522971725463867188e+01 -2.172060489654541016e+00 -1.026937961578369141e+00 4.763934016227722168e-01 -1.651633828878402710e-01 1.668443530797958374e-01
3.026000000000000000e+03 6.924965667724609375e+01 2.603497505187988281e+00 -8.267453312873840332e-01 6.496677875518798828e+00 1.700979828834533691e+00 -1.324078917503356934e+00
3.027000000000000000e+03 6.507012176513671875e+01 9.928878784179687500e+00 3.007949292659759521e-01 4.353021144866943359e+00 1.396144747734069824e+00 -1.065127134323120117e+00
3.028000000000000000e+03 6.641318511962890625e+01 1.948731040954589844e+01 3.363437354564666748e-01 4.837600231170654297e+00 1.552183270454406738e+00 -6.510695219039916992e-01
3.029000000000000000e+03 6.608512878417968750e+01 4.653939723968505859e+00 -2.315104901790618896e-01 4.648629665374755859e+00 1.325135827064514160e+00 -1.456399798393249512e+00
3.030000000000000000e+03 6.677413940429687500e+01 3.709729671478271484e+00 -4.107530713081359863e-01 5.000895500183105469e+00 1.377042770385742188e+00 -1.580397725105285645e+00
3.031000000000000000e+03 6.800468444824218750e+01 2.633441090583801270e-01 -1.250603199005126953e+00 6.341361999511718750e+00 1.527227640151977539e+00 -1.810380339622497559e+00
3.032000000000000000e+03 6.878910064697265625e+01 -3.812049627304077148e-01 -1.500687956809997559e+00 7.029056072235107422e+00 1.658510446548461914e+00 -1.809068441390991211e+00
3.033000000000000000e+03 6.554724884033203125e+01 1.491114521026611328e+01 4.309511184692382812e-01 4.574983596801757812e+00 1.501780390739440918e+00 -8.232271075248718262e-01
3.034000000000000000e+03 3.126844787597656250e+01 1.554290533065795898e+00 -3.238196671009063721e-01 5.586045980453491211e-01 7.043547928333282471e-02 4.376914203166961670e-01
3.035000000000000000e+03 6.534539031982421875e+01 1.705705261230468750e+01 4.212473332881927490e-01 4.574356079101562500e+00 1.498681068420410156e+00 -7.135507464408874512e-01
3.036000000000000000e+03 1.224580478668212891e+01 2.899194908142089844e+01 5.662331730127334595e-02 -4.044916033744812012e-01 -1.043604835867881775e-01 1.948103755712509155e-01
3.037000000000000000e+03 6.430601501464843750e+01 2.380208396911621094e+01 3.131898641586303711e-01 4.418016910552978516e+00 1.419362068176269531e+00 -5.516567230224609375e-01
3.038000000000000000e+03 2.418183708190917969e+01 2.795382118225097656e+01 3.344826698303222656e-01 -8.131553418934345245e-03 9.790533035993576050e-02 3.188998401165008545e-01
3.039000000000000000e+03 6.290982437133789062e+01 2.343288660049438477e+00 -1.386193186044692993e-01 2.739674091339111328e+00 7.803164124488830566e-01 -1.403217077255249023e+00
3.040000000000000000e+03 6.223023605346679688e+01 1.049181103706359863e+00 -1.744629740715026855e-01 2.135277032852172852e+00 5.882441997528076172e-01 -1.262201309204101562e+00
3.041000000000000000e+03 6.664411926269531250e+01 1.612546920776367188e+01 3.639381229877471924e-01 4.889155387878417969e+00 1.575928092002868652e+00 -7.692336440086364746e-01
3.042000000000000000e+03 1.751672363281250000e+01 2.924703788757324219e+01 1.527927666902542114e-01 -1.715417057275772095e-01 -5.624683108180761337e-03 2.967734336853027344e-01
3.043000000000000000e+03 1.281587409973144531e+01 2.623473167419433594e+01 6.361715495586395264e-02 -3.119579255580902100e-01 -7.450222969055175781e-02 2.334211170673370361e-01
3.044000000000000000e+03 3.353251647949218750e+01 1.489406871795654297e+01 1.273970901966094971e-01 5.701124668121337891e-01 2.092528641223907471e-01 4.731616675853729248e-01
3.045000000000000000e+03 6.699345397949218750e+01 7.746706604957580566e-01 -9.274527430534362793e-01 5.268089771270751953e+00 1.302191019058227539e+00 -2.040436744689941406e+00
3.046000000000000000e+03 6.345462417602539062e+01 2.184106063842773438e+01 3.388800621032714844e-01 4.265566349029541016e+00 1.381333947181701660e+00 -5.828443765640258789e-01
3.047000000000000000e+03 2.990421295166015625e+01 2.569932174682617188e+01 3.751752674579620361e-01 2.546016871929168701e-01 1.889330893754959106e-01 2.367075830698013306e-01
3.048000000000000000e+03 6.421124267578125000e+01 1.810322570800781250e+01 4.186853170394897461e-01 4.351864337921142578e+00 1.431164860725402832e+00 -6.284272670745849609e-01
3.049000000000000000e+03 6.338820648193359375e+01 -3.606999206542968750e+01 2.497902810573577881e-01 3.827963590621948242e+00 1.223326206207275391e+00 3.695245683193206787e-01
3.050000000000000000e+03 6.093553543090820312e+01 2.660242462158203125e+01 3.763708770275115967e-01 3.765879631042480469e+00 1.242675185203552246e+00 -4.992333948612213135e-01
3.051000000000000000e+03 6.064976882934570312e+01 2.911106681823730469e+01 4.004931151866912842e-01 3.672374963760375977e+00 1.221860408782958984e+00 -4.365912377834320068e-01
3.052000000000000000e+03 3.617189025878906250e+01 2.839338874816894531e+01 4.366557598114013672e-01 7.510095238685607910e-01 3.562995791435241699e-01 2.060638368129730225e-01
3.053000000000000000e+03 6.671270751953125000e+01 3.108174896240234375e+01 2.301809936761856079e-01 4.799450397491455078e+00 1.508889436721801758e+00 -3.570697903633117676e-01
3.054000000000000000e+03 6.282849121093750000e+01 2.662248992919921875e+01 3.271992206573486328e-01 4.131002902984619141e+00 1.337460517883300781e+00 -5.124463438987731934e-01
3.055000000000000000e+03 4.008437347412109375e+01 2.497192764282226562e+01 3.830525875091552734e-01 1.055551290512084961e+00 4.315811991691589355e-01 2.892768383026123047e-01
3.056000000000000000e+03 3.242054367065429688e+01 -1.161508560180664062e+01 -3.952117562294006348e-01 1.899053007364273071e-01 -6.159193813800811768e-02 3.898620009422302246e-01
3.057000000000000000e+03 3.034641647338867188e+01 -1.274386024475097656e+01 -7.438900321722030640e-02 3.795479238033294678e-01 9.154767543077468872e-02 5.879302620887756348e-01
3.058000000000000000e+03 3.108996582031250000e+01 -1.271352481842041016e+01 -1.583322286605834961e-01 1.991840749979019165e-01 1.225555408746004105e-02 4.478400349617004395e-01
3.059000000000000000e+03 3.430126190185546875e+01 -1.149115276336669922e+01 -5.568927526473999023e-01 1.139120981097221375e-01 -1.328941881656646729e-01 2.150900214910507202e-01
3.060000000000000000e+03 3.233824539184570312e+01 -1.270430374145507812e+01 -3.522650599479675293e-01 5.258677154779434204e-02 -8.990348875522613525e-02 2.689157426357269287e-01
3.061000000000000000e+03 3.124316406250000000e+01 -1.222098541259765625e+01 -2.237253636121749878e-01 2.457104027271270752e-01 6.595514249056577682e-03 4.906744956970214844e-01
3.062000000000000000e+03 2.923155593872070312e+01 -8.948966026306152344e+00 -5.693328976631164551e-01 7.775229811668395996e-01 6.245702877640724182e-02 5.974614620208740234e-01
3.063000000000000000e+03 3.066546630859375000e+01 -7.625408649444580078e+00 -6.142079234123229980e-01 6.361492872238159180e-01 6.582411006093025208e-03 5.738208293914794922e-01
3.064000000000000000e+03 3.199053955078125000e+01 -1.191188716888427734e+01 -3.299076557159423828e-01 1.847834289073944092e-01 -4.353726655244827271e-02 4.024620652198791504e-01
3.065000000000000000e+03 3.033373641967773438e+01 -7.064079284667968750e+00 -6.378394961357116699e-01 6.667264699935913086e-01 8.666091598570346832e-03 5.652225017547607422e-01
3.066000000000000000e+03 3.063935089111328125e+01 -6.351474761962890625e+00 -6.535512208938598633e-01 6.537593007087707520e-01 6.242722156457602978e-05 5.481903553009033203e-01
3.067000000000000000e+03 3.302457809448242188e+01 -1.158289051055908203e+01 -4.333361387252807617e-01 1.537670940160751343e-01 -8.387071639299392700e-02 3.171155154705047607e-01
3.068000000000000000e+03 2.881091499328613281e+01 -1.082388591766357422e+01 -4.133354425430297852e-01 9.422363638877868652e-01 1.586702615022659302e-01 6.305132508277893066e-01
3.069000000000000000e+03 2.983134651184082031e+01 -1.149283695220947266e+01 -2.742936015129089355e-01 6.818126440048217773e-01 1.222557052969932556e-01 6.737877726554870605e-01
3.070000000000000000e+03 3.461836242675781250e+01 -9.961661338806152344e+00 -5.955327749252319336e-01 2.205541580915451050e-01 -1.124935820698738098e-01 3.057612180709838867e-01
3.071000000000000000e+03 3.551540756225585938e+01 -1.035518360137939453e+01 -6.565988063812255859e-01 1.725879311561584473e-01 -1.452032625675201416e-01 2.183130234479904175e-01
3.072000000000000000e+03 2.967187118530273438e+01 -4.418504714965820312e+00 -6.861716508865356445e-01 6.828314661979675293e-01 -1.002045231871306896e-03 4.958322048187255859e-01
3.073000000000000000e+03 2.910722160339355469e+01 -1.529757499694824219e+00 -5.872251391410827637e-01 6.404736042022705078e-01 1.597454026341438293e-02 4.151953458786010742e-01
3.074000000000000000e+03 3.299227905273437500e+01 7.735397815704345703e+00 1.583688147366046906e-02 4.812303781509399414e-01 1.491201817989349365e-01 6.756963133811950684e-01
3.075000000000000000e+03 2.939804840087890625e+01 -3.715901613235473633e+00 -6.829006671905517578e-01 6.747757792472839355e-01 -2.437469316646456718e-03 4.768741130828857422e-01
3.076000000000000000e+03 3.665353393554687500e+01 -8.853161811828613281e+00 -7.052308917045593262e-01 2.431154549121856689e-01 -1.386346369981765747e-01 2.515031695365905762e-01
3.077000000000000000e+03 6.839925384521484375e+01 3.524500131607055664e+00 -5.903546810150146484e-01 5.897599697113037109e+00 1.592173457145690918e+00 -1.416646718978881836e+00
3.078000000000000000e+03 6.770712280273437500e+01 4.259411334991455078e+00 -4.307914078235626221e-01 5.442441463470458984e+00 1.503494977951049805e+00 -1.425789237022399902e+00
3.079000000000000000e+03 4.548944854736328125e+01 -9.100795388221740723e-01 -5.532491207122802734e-01 2.805140614509582520e-01 -8.182052522897720337e-02 2.852972447872161865e-01
3.080000000000000000e+03 4.494091033935546875e+01 -2.666689395904541016e+00 -7.181243300437927246e-01 2.970520555973052979e-01 -1.263216733932495117e-01 2.641659975051879883e-01
3.081000000000000000e+03 4.368661117553710938e+01 -2.483448833227157593e-01 -5.100932717323303223e-01 3.393997848033905029e-01 -5.120803788304328918e-02 2.789891958236694336e-01
3.082000000000000000e+03 3.857043838500976562e+01 -6.326086997985839844e+00 -7.372803092002868652e-01 3.235794901847839355e-01 -1.241102516651153564e-01 2.768653333187103271e-01
3.083000000000000000e+03 3.986933517456054688e+01 5.655305981636047363e-01 -4.776809513568878174e-01 4.967159926891326904e-01 5.710511468350887299e-03 3.607635498046875000e-01
3.084000000000000000e+03 5.967667770385742188e+01 2.927359104156494141e+00 -1.492745801806449890e-02 1.758255362510681152e+00 5.229983925819396973e-01 -6.063251495361328125e-01
3.085000000000000000e+03 6.077888870239257812e+01 1.557841658592224121e+00 -1.455932408571243286e-01 1.759728193283081055e+00 4.842405021190643311e-01 -8.991013169288635254e-01
3.086000000000000000e+03 3.828035354614257812e+01 -7.829367160797119141e+00 -7.683514356613159180e-01 2.714023888111114502e-01 -1.490847170352935791e-01 2.243270725011825562e-01
3.087000000000000000e+03 3.105292701721191406e+01 2.659595489501953125e+00 -2.213939130306243896e-01 5.167499780654907227e-01 8.860682696104049683e-02 4.472424983978271484e-01
3.088000000000000000e+03 3.245745468139648438e+01 5.014502406120300293e-01 -4.134403169155120850e-01 5.749432444572448730e-01 4.845087975263595581e-02 4.551471769809722900e-01
3.089000000000000000e+03 4.049572372436523438e+01 -5.228230476379394531e+00 -7.647975683212280273e-01 3.330607116222381592e-01 -1.295210570096969604e-01 2.530301213264465332e-01
3.090000000000000000e+03 4.506493759155273438e+01 -5.510904312133789062e+00 -9.652170538902282715e-01 2.820001542568206787e-01 -2.049650549888610840e-01 1.627461761236190796e-01
3.091000000000000000e+03 2.917033576965332031e+01 1.142907738685607910e+00 -3.631013929843902588e-01 5.801190137863159180e-01 6.510528922080993652e-02 3.719273507595062256e-01
3.092000000000000000e+03 2.790243911743164062e+01 -7.076384425163269043e-01 -5.672062635421752930e-01 6.193597912788391113e-01 1.564605906605720520e-02 3.733131587505340576e-01
3.093000000000000000e+03 3.591689300537109375e+01 -9.275211334228515625e+00 -6.725845336914062500e-01 2.311594188213348389e-01 -1.324275285005569458e-01 2.631754279136657715e-01
3.094000000000000000e+03 3.641028213500976562e+01 4.022167682647705078e+00 -2.856541872024536133e-01 6.159634590148925781e-01 9.909278899431228638e-02 5.137742757797241211e-01
3.095000000000000000e+03 3.608147048950195312e+01 3.096501827239990234e+00 -3.111559152603149414e-01 5.949671864509582520e-01 8.514337986707687378e-02 5.024484395980834961e-01
3.096000000000000000e+03 4.568657684326171875e+01 -3.808678627014160156e+00 -8.465641736984252930e-01 2.889020442962646484e-01 -1.672986447811126709e-01 2.307836860418319702e-01
3.097000000000000000e+03 4.369533920288085938e+01 -3.310457229614257812e+00 -7.454261183738708496e-01 3.154383599758148193e-01 -1.289963275194168091e-01 2.544673085212707520e-01
3.098000000000000000e+03 6.390095520019531250e+01 3.328624725341796875e+00 -1.222726106643676758e-01 3.432029962539672852e+00 9.929271936416625977e-01 -1.435094714164733887e+00
3.099000000000000000e+03 6.615536499023437500e+01 8.993722915649414062e+00 1.623880714178085327e-01 4.687837123870849609e+00 1.455067634582519531e+00 -1.164367675781250000e+00
3.100000000000000000e+03 6.840534973144531250e+01 5.633735179901123047e+00 -2.998416125774383545e-01 5.692384719848632812e+00 1.617763042449951172e+00 -1.255361795425415039e+00
3.101000000000000000e+03 6.721255493164062500e+01 5.207733631134033203e+00 -2.797123193740844727e-01 5.159585952758789062e+00 1.463962078094482422e+00 -1.425238370895385742e+00
3.102000000000000000e+03 6.526496124267578125e+01 1.909582710266113281e+01 3.682900965213775635e-01 4.592480659484863281e+00 1.488231301307678223e+00 -6.471009254455566406e-01
3.103000000000000000e+03 6.807467651367187500e+01 1.084909152984619141e+01 1.727615445852279663e-01 5.265045166015625000e+00 1.631342053413391113e+00 -1.034759998321533203e+00
3.104000000000000000e+03 3.916729736328125000e+01 -7.287417888641357422e+00 -7.945243120193481445e-01 2.828372418880462646e-01 -1.535061150789260864e-01 2.162102013826370239e-01
3.105000000000000000e+03 6.478726959228515625e+01 1.179950714111328125e+01 4.047264456748962402e-01 4.322927951812744141e+00 1.418296337127685547e+00 -9.472137093544006348e-01
3.106000000000000000e+03 6.424021911621093750e+01 9.039079666137695312e+00 2.799260914325714111e-01 4.023554325103759766e+00 1.291044116020202637e+00 -1.110214948654174805e+00
3.107000000000000000e+03 5.570302200317382812e+01 -1.238803386688232422e+00 -7.495168447494506836e-01 5.165572166442871094e-01 -6.988788396120071411e-02 1.632343679666519165e-01
3.108000000000000000e+03 5.487081527709960938e+01 -6.794837117195129395e-01 -6.960750222206115723e-01 5.711219310760498047e-01 -3.748591989278793335e-02 2.283540517091751099e-01
3.109000000000000000e+03 6.420144653320312500e+01 1.345923781394958496e+00 -3.447435200214385986e-01 3.316458463668823242e+00 8.915145397186279297e-01 -1.725608229637145996e+00
3.110000000000000000e+03 4.231181716918945312e+01 8.564075827598571777e-01 -4.540038704872131348e-01 4.069318175315856934e-01 -1.412161998450756073e-02 2.871643900871276855e-01
3.111000000000000000e+03 6.666011810302734375e+01 1.389615154266357422e+01 3.564397692680358887e-01 4.851606369018554688e+00 1.562413811683654785e+00 -8.726473450660705566e-01
3.112000000000000000e+03 3.367905807495117188e+01 3.954310417175292969e+00 -1.854031533002853394e-01 5.375292897224426270e-01 1.056378483772277832e-01 5.419953465461730957e-01
3.113000000000000000e+03 1.520493316650390625e+01 2.686208915710449219e+01 9.627664089202880859e-02 -2.110969722270965576e-01 -3.444610163569450378e-02 3.006429672241210938e-01
3.114000000000000000e+03 3.256113815307617188e+01 1.428612899780273438e+01 4.490208253264427185e-02 5.046985745429992676e-01 1.648802012205123901e-01 5.073511600494384766e-01
3.115000000000000000e+03 6.615962982177734375e+01 1.819764137268066406e+01 3.536013662815093994e-01 4.772242546081542969e+00 1.537753224372863770e+00 -6.814736127853393555e-01
3.116000000000000000e+03 6.616399383544921875e+01 2.117169761657714844e+01 3.014057874679565430e-01 4.783139228820800781e+00 1.525363564491271973e+00 -5.987447500228881836e-01
3.117000000000000000e+03 4.324177551269531250e+01 -5.029633045196533203e+00 -8.538872599601745605e-01 3.017476499080657959e-01 -1.656418740749359131e-01 2.049220055341720581e-01
3.118000000000000000e+03 4.387698364257812500e+01 -6.079150676727294922e+00 -9.440494775772094727e-01 2.791400849819183350e-01 -1.994728147983551025e-01 1.508020162582397461e-01
3.119000000000000000e+03 3.198695945739746094e+01 1.836936950683593750e+01 1.555653959512710571e-01 3.986995816230773926e-01 1.662794947624206543e-01 2.746936976909637451e-01
3.120000000000000000e+03 6.474708557128906250e+01 2.617894554138183594e+01 2.868966758251190186e-01 4.480110168457031250e+00 1.430102109909057617e+00 -5.046383738517761230e-01
3.121000000000000000e+03 6.599488830566406250e+01 1.431653618812561035e+00 -6.549921631813049316e-01 4.583992004394531250e+00 1.178699970245361328e+00 -1.868046522140502930e+00
3.122000000000000000e+03 3.207497024536132812e+01 2.128946685791015625e+01 2.784961462020874023e-01 4.304216206073760986e-01 2.126753330230712891e-01 2.184671610593795776e-01
3.123000000000000000e+03 1.371677303314208984e+01 2.793805122375488281e+01 7.638372480869293213e-02 -3.065593838691711426e-01 -6.905269622802734375e-02 2.402718663215637207e-01
3.124000000000000000e+03 2.057172203063964844e+01 3.373746871948242188e+01 2.530276775360107422e-01 -1.014011278748512268e-01 4.548796638846397400e-02 2.061966061592102051e-01
3.125000000000000000e+03 3.057904624938964844e+01 2.096201133728027344e+01 2.515100538730621338e-01 3.090222179889678955e-01 1.681596785783767700e-01 2.423794716596603394e-01
3.126000000000000000e+03 6.217441558837890625e+01 2.261487388610839844e+01 3.528094589710235596e-01 4.013413429260253906e+00 1.309866905212402344e+00 -5.609982609748840332e-01
3.127000000000000000e+03 6.228737640380859375e+01 3.282089614868164062e+01 3.709310591220855713e-01 3.994657278060913086e+00 1.309676527976989746e+00 -3.282074928283691406e-01
3.128000000000000000e+03 2.963786888122558594e+01 -1.066328716278076172e+01 -3.954460322856903076e-01 7.487511634826660156e-01 1.059915423393249512e-01 6.537358760833740234e-01
3.129000000000000000e+03 3.236041641235351562e+01 -1.038999271392822266e+01 -4.597849547863006592e-01 3.249190151691436768e-01 -4.045978188514709473e-02 4.754171073436737061e-01
3.130000000000000000e+03 3.048191261291503906e+01 -1.037455177307128906e+01 -4.076379239559173584e-01 5.827670097351074219e-01 5.253872647881507874e-02 6.228056550025939941e-01
3.131000000000000000e+03 3.178284454345703125e+01 -1.245723915100097656e+01 -2.797755300998687744e-01 1.631591171026229858e-01 -3.498492017388343811e-02 3.694421947002410889e-01
3.132000000000000000e+03 2.992799758911132812e+01 -1.234437370300292969e+01 -1.105934455990791321e-01 5.728219747543334961e-01 1.386685520410537720e-01 6.707641482353210449e-01
3.133000000000000000e+03 2.941043281555175781e+01 -9.936912536621093750e+00 -4.840427935123443604e-01 7.807402014732360840e-01 8.900922536849975586e-02 6.248017549514770508e-01
3.134000000000000000e+03 3.019455146789550781e+01 -8.445453643798828125e+00 -5.883559584617614746e-01 6.648814678192138672e-01 2.295763976871967316e-02 5.871461629867553711e-01
3.135000000000000000e+03 2.972016334533691406e+01 -8.647526741027832031e+00 -5.721578001976013184e-01 7.206445932388305664e-01 4.454603791236877441e-02 5.973122715950012207e-01
3.136000000000000000e+03 3.061600685119628906e+01 -5.789080142974853516e+00 -6.652722954750061035e-01 6.516112089157104492e-01 -4.098329693078994751e-03 5.363348126411437988e-01
3.137000000000000000e+03 3.017592620849609375e+01 -8.915726661682128906e+00 -5.400350689888000488e-01 6.682005524635314941e-01 3.844964876770973206e-02 5.990743637084960938e-01
3.138000000000000000e+03 3.483280563354492188e+01 -1.062060928344726562e+01 -6.022950410842895508e-01 1.682139188051223755e-01 -1.302243322134017944e-01 2.510683834552764893e-01
3.139000000000000000e+03 3.404915618896484375e+01 -1.021283340454101562e+01 -5.524734854698181152e-01 2.225704938173294067e-01 -9.897089749574661255e-02 3.366560041904449463e-01
3.140000000000000000e+03 3.524511718750000000e+01 -9.645221710205078125e+00 -6.302163600921630859e-01 2.249380350112915039e-01 -1.215834915637969971e-01 2.891931831836700439e-01
3.141000000000000000e+03 3.055105400085449219e+01 -4.351788043975830078e+00 -6.671981215476989746e-01 6.532409787178039551e-01 -4.187134094536304474e-03 5.028320550918579102e-01
3.142000000000000000e+03 2.993716812133789062e+01 -5.862642765045166016e+00 -6.780122518539428711e-01 6.881669163703918457e-01 3.046403173357248306e-03 5.354136228561401367e-01
3.143000000000000000e+03 3.145827102661132812e+01 4.843206703662872314e-01 -4.159155488014221191e-01 5.767199397087097168e-01 4.824132099747657776e-02 4.368295371532440186e-01
3.144000000000000000e+03 2.961235618591308594e+01 1.091010496020317078e-01 -4.577704370021820068e-01 6.004626154899597168e-01 4.280765354633331299e-02 3.949134945869445801e-01
3.145000000000000000e+03 3.434097290039062500e+01 -9.377881050109863281e+00 -5.817162394523620605e-01 2.771020233631134033e-01 -9.138426929712295532e-02 3.706156015396118164e-01
3.146000000000000000e+03 4.035109329223632812e+01 -7.249004244804382324e-01 -5.418592691421508789e-01 4.363485872745513916e-01 -3.165319934487342834e-02 3.407690525054931641e-01
3.147000000000000000e+03 4.174702072143554688e+01 -2.903877258300781250e+00 -6.777259707450866699e-01 3.598734736442565918e-01 -9.535575658082962036e-02 2.882830798625946045e-01
3.148000000000000000e+03 3.050395202636718750e+01 3.480422496795654297e-01 -4.248210191726684570e-01 5.934721827507019043e-01 5.059535428881645203e-02 4.146519005298614502e-01
3.149000000000000000e+03 2.919178009033203125e+01 -3.070826768875122070e+00 -6.673697829246520996e-01 6.738750338554382324e-01 1.951581332832574844e-03 4.502721428871154785e-01
3.150000000000000000e+03 3.059638023376464844e+01 -5.123628139495849609e+00 -6.679637432098388672e-01 6.588531732559204102e-01 -2.733163768425583839e-03 5.192836523056030273e-01
3.151000000000000000e+03 3.066661262512207031e+01 -3.494863986968994141e+00 -6.418395638465881348e-01 6.487874388694763184e-01 2.084359992295503616e-03 4.829634130001068115e-01
3.152000000000000000e+03 6.710787200927734375e+01 7.944506645202636719e+00 2.050623670220375061e-02 5.066164493560791016e+00 1.526001214981079102e+00 -1.194203376770019531e+00
3.153000000000000000e+03 6.714597320556640625e+01 9.866640090942382812e+00 1.751374155282974243e-01 5.037698745727539062e+00 1.563850879669189453e+00 -1.077499270439147949e+00
3.154000000000000000e+03 2.989684104919433594e+01 -3.216544389724731445e+00 -6.513386368751525879e-01 6.582498550415039062e-01 2.073355950415134430e-03 4.680595695972442627e-01
3.155000000000000000e+03 3.695960235595703125e+01 -7.614627838134765625e+00 -7.017073035240173340e-01 2.982430160045623779e-01 -1.210392862558364868e-01 2.942991256713867188e-01
3.156000000000000000e+03 4.252609634399414062e+01 -3.962810039520263672e+00 -7.562190890312194824e-01 3.283053338527679443e-01 -1.283741295337677002e-01 2.509824037551879883e-01
3.157000000000000000e+03 3.744718933105468750e+01 -8.369287490844726562e+00 -7.405837774276733398e-01 2.590984404087066650e-01 -1.444455981254577637e-01 2.348495274782180786e-01
3.158000000000000000e+03 3.621094512939453125e+01 -8.110929489135742188e+00 -6.807988286018371582e-01 2.891795337200164795e-01 -1.174857765436172485e-01 3.042432665824890137e-01
3.159000000000000000e+03 6.172544860839843750e+01 3.297190904617309570e+00 2.334238402545452118e-02 2.495876312255859375e+00 7.557656168937683105e-01 -1.057104229927062988e+00
3.160000000000000000e+03 6.670752716064453125e+01 2.220199108123779297e+00 -6.585827469825744629e-01 5.013284683227539062e+00 1.306410551071166992e+00 -1.787823319435119629e+00
3.161000000000000000e+03 3.870949172973632812e+01 1.133489832282066345e-01 -4.915524125099182129e-01 5.044436454772949219e-01 3.867368446663022041e-03 3.910923004150390625e-01
3.162000000000000000e+03 6.685176086425781250e+01 1.184848117828369141e+01 2.858650982379913330e-01 4.915918827056884766e+00 1.560535192489624023e+00 -9.736499190330505371e-01
3.163000000000000000e+03 4.214614868164062500e+01 -5.626483917236328125e+00 -8.432963490486145020e-01 3.027561604976654053e-01 -1.621620506048202515e-01 2.016697227954864502e-01
3.164000000000000000e+03 3.716677093505859375e+01 4.211734533309936523e-01 -4.662719666957855225e-01 5.314761996269226074e-01 1.956126466393470764e-02 4.323509633541107178e-01
3.165000000000000000e+03 3.555590438842773438e+01 1.154593348503112793e+00 -4.008406102657318115e-01 5.624519586563110352e-01 4.848340153694152832e-02 4.712429046630859375e-01
3.166000000000000000e+03 3.237706375122070312e+01 1.607618570327758789e+00 -3.338877558708190918e-01 5.495566725730895996e-01 6.470067799091339111e-02 4.626277387142181396e-01
3.167000000000000000e+03 3.229170989990234375e+01 2.778470039367675781e+00 -2.370776236057281494e-01 5.316666364669799805e-01 8.837670087814331055e-02 4.830088317394256592e-01
3.168000000000000000e+03 4.418469238281250000e+01 -1.492956042289733887e+00 -6.061757802963256836e-01 3.163632452487945557e-01 -8.694376051425933838e-02 2.812997996807098389e-01
3.169000000000000000e+03 4.202768325805664062e+01 -1.242427229881286621e+00 -5.810964703559875488e-01 3.795415163040161133e-01 -6.046648696064949036e-02 3.017251789569854736e-01
3.170000000000000000e+03 2.895256233215332031e+01 -3.909930884838104248e-01 -5.101891756057739258e-01 6.168038845062255859e-01 3.198441490530967712e-02 3.842298388481140137e-01
3.171000000000000000e+03 2.958822250366210938e+01 -1.964732170104980469e+00 -6.016332507133483887e-01 6.448623538017272949e-01 1.296873204410076141e-02 4.375103712081909180e-01
3.172000000000000000e+03 2.814029312133789062e+01 6.380438804626464844e-02 -4.850239455699920654e-01 6.107167005538940430e-01 3.770783543586730957e-02 3.629828393459320068e-01
3.173000000000000000e+03 6.583656311035156250e+01 3.042017698287963867e+00 -3.900328576564788818e-01 4.491958141326904297e+00 1.230577468872070312e+00 -1.630023717880249023e+00
3.174000000000000000e+03 6.358847808837890625e+01 8.197842597961425781e+00 2.601695060729980469e-01 3.829169034957885742e+00 1.226801514625549316e+00 -1.088496327400207520e+00
3.175000000000000000e+03 7.053364562988281250e+01 1.234718227386474609e+01 1.375471204519271851e-01 6.003603935241699219e+00 1.842345356941223145e+00 -8.808905482292175293e-01
3.176000000000000000e+03 7.018419647216796875e+01 1.374365520477294922e+01 2.037223875522613525e-01 5.851947784423828125e+00 1.816701054573059082e+00 -8.207662701606750488e-01
3.177000000000000000e+03 3.231868362426757812e+01 2.633412742614746094e+01 3.861770331859588623e-01 4.642755687236785889e-01 2.551357746124267578e-01 2.203983664512634277e-01
3.178000000000000000e+03 6.752994537353515625e+01 2.887813091278076172e+00 -6.320958137512207031e-01 5.562664985656738281e+00 1.479170799255371094e+00 -1.566564321517944336e+00
3.179000000000000000e+03 6.435570526123046875e+01 7.571452140808105469e+00 1.722901910543441772e-01 4.008224487304687500e+00 1.254154324531555176e+00 -1.215230345726013184e+00
3.180000000000000000e+03 6.618923950195312500e+01 2.326078987121582031e+01 2.823503017425537109e-01 4.778501987457275391e+00 1.518255591392517090e+00 -5.529137253761291504e-01
3.181000000000000000e+03 6.499491882324218750e+01 4.027595996856689453e+00 -1.833926290273666382e-01 4.063899993896484375e+00 1.164152264595031738e+00 -1.524684548377990723e+00
3.182000000000000000e+03 6.307918930053710938e+01 4.649651050567626953e+00 2.285913378000259399e-02 3.248820781707763672e+00 9.815039634704589844e-01 -1.265413880348205566e+00
3.183000000000000000e+03 1.998009300231933594e+01 2.791116714477539062e+01 2.220085859298706055e-01 -9.990319609642028809e-02 3.663161769509315491e-02 3.604311943054199219e-01
3.184000000000000000e+03 2.154791450500488281e+01 3.076827239990234375e+01 2.654049098491668701e-01 -6.583939492702484131e-02 5.986965075135231018e-02 2.846143841743469238e-01
3.185000000000000000e+03 5.062932968139648438e+01 2.543895912170410156e+01 7.522628307342529297e-01 1.421961426734924316e+00 6.522672772407531738e-01 -1.855658590793609619e-01
3.186000000000000000e+03 3.991610717773437500e+01 2.851065635681152344e+01 4.715099036693572998e-01 9.762208461761474609e-01 4.343192279338836670e-01 2.215864211320877075e-01
3.187000000000000000e+03 2.971594619750976562e+01 2.187770462036132812e+01 2.841183245182037354e-01 2.009417116641998291e-01 1.455180048942565918e-01 2.335890680551528931e-01
3.188000000000000000e+03 5.238706970214843750e+01 3.188656234741210938e+01 6.872190833091735840e-01 2.178614854812622070e+00 8.597501516342163086e-01 -2.049071490764617920e-01
3.189000000000000000e+03 4.988458251953125000e+01 2.972259140014648438e+01 7.087633013725280762e-01 1.688460826873779297e+00 7.191672325134277344e-01 -8.192995190620422363e-02
3.190000000000000000e+03 6.664025115966796875e+01 2.546852684020996094e+01 2.452625185251235962e-01 4.856707572937011719e+00 1.530591011047363281e+00 -4.793509542942047119e-01
3.191000000000000000e+03 2.190769767761230469e+01 2.823466300964355469e+01 2.730265557765960693e-01 -5.786706507205963135e-02 6.454785168170928955e-02 3.439829945564270020e-01
3.192000000000000000e+03 2.190575599670410156e+01 2.626999473571777344e+01 2.828563153743743896e-01 -7.853233814239501953e-02 6.129718944430351257e-02 4.018878042697906494e-01
3.193000000000000000e+03 2.991615867614746094e+01 -1.011889266967773438e+01 -4.486075341701507568e-01 7.034847736358642578e-01 7.646317034959793091e-02 6.337763071060180664e-01
3.194000000000000000e+03 3.017894744873046875e+01 -1.096497058868408203e+01 -3.463583886623382568e-01 6.278647184371948242e-01 8.445189893245697021e-02 6.477901935577392578e-01
3.195000000000000000e+03 3.246879577636718750e+01 -1.214584922790527344e+01 -3.675754070281982422e-01 1.191618442535400391e-01 -7.452406734228134155e-02 3.110708594322204590e-01
3.196000000000000000e+03 3.357190322875976562e+01 -1.090808868408203125e+01 -4.951983988285064697e-01 1.890786439180374146e-01 -9.183592349290847778e-02 3.257010877132415771e-01
3.197000000000000000e+03 3.352621841430664062e+01 -1.026229953765869141e+01 -5.289157032966613770e-01 2.462307512760162354e-01 -8.480548113584518433e-02 3.807630538940429688e-01
3.198000000000000000e+03 3.159490203857421875e+01 -7.636308193206787109e+00 -6.032423973083496094e-01 5.611592531204223633e-01 -1.262493897229433060e-02 5.488077998161315918e-01
3.199000000000000000e+03 3.081736373901367188e+01 -6.800805568695068359e+00 -6.398872137069702148e-01 6.343882083892822266e-01 -1.649694284424185753e-03 5.566973090171813965e-01
3.200000000000000000e+03 3.077030944824218750e+01 -9.724522590637207031e+00 -4.800627529621124268e-01 5.749948024749755859e-01 2.847962267696857452e-02 5.961868762969970703e-01
3.201000000000000000e+03 3.172939491271972656e+01 -9.470026969909667969e+00 -5.023996829986572266e-01 4.645101130008697510e-01 -1.136686466634273529e-02 5.408869981765747070e-01
3.202000000000000000e+03 3.113019561767578125e+01 -6.422287940979003906e+00 -6.408886909484863281e-01 6.134611964225769043e-01 -8.228257298469543457e-03 5.447319149971008301e-01
3.203000000000000000e+03 3.491105270385742188e+01 -8.984160423278808594e+00 -6.231976747512817383e-01 2.795155048370361328e-01 -1.031046509742736816e-01 3.397010862827301025e-01
3.204000000000000000e+03 3.378425979614257812e+01 -9.748329162597656250e+00 -5.467593669891357422e-01 2.728262543678283691e-01 -8.217993378639221191e-02 3.821820616722106934e-01
3.205000000000000000e+03 3.004633522033691406e+01 -8.022103905677795410e-01 -5.276293754577636719e-01 6.245207190513610840e-01 2.906740643084049225e-02 4.223747551441192627e-01
3.206000000000000000e+03 3.142148208618164062e+01 -1.160933113098144531e+01 -3.055600523948669434e-01 3.150974512100219727e-01 2.861215267330408096e-03 5.004033446311950684e-01
3.207000000000000000e+03 3.668157577514648438e+01 -8.518735766410827637e-01 -5.175031423568725586e-01 5.137501955032348633e-01 -1.125893089920282364e-03 4.305303096771240234e-01
3.208000000000000000e+03 3.251667022705078125e+01 -4.820269584655761719e+00 -6.305691599845886230e-01 5.706650614738464355e-01 -1.797123253345489502e-02 4.970726668834686279e-01
3.209000000000000000e+03 3.551745605468750000e+01 -8.552722930908203125e+00 -6.505636572837829590e-01 2.835831046104431152e-01 -1.100941747426986694e-01 3.276156485080718994e-01
3.210000000000000000e+03 3.903959274291992188e+01 -4.888419628143310547e+00 -7.084212899208068848e-01 3.584460914134979248e-01 -1.049925610423088074e-01 3.034585118293762207e-01
3.211000000000000000e+03 3.770597076416015625e+01 -6.961283683776855469e+00 -7.239113450050354004e-01 3.171186149120330811e-01 -1.220378205180168152e-01 2.854278087615966797e-01
3.212000000000000000e+03 6.599242401123046875e+01 7.251811504364013672e+00 2.996010705828666687e-02 4.618260383605957031e+00 1.394466161727905273e+00 -1.284046649932861328e+00
3.213000000000000000e+03 6.375851821899414062e+01 6.258757114410400391e+00 1.069390550255775452e-01 3.683791160583496094e+00 1.137219071388244629e+00 -1.244204521179199219e+00
3.214000000000000000e+03 4.098462295532226562e+01 -1.857692480087280273e+00 -6.081182956695556641e-01 3.947035372257232666e-01 -6.402442604303359985e-02 3.182155787944793701e-01
3.215000000000000000e+03 4.145503234863281250e+01 -4.598182678222656250e+00 -7.676761746406555176e-01 3.302524089813232422e-01 -1.312271356582641602e-01 2.515766918659210205e-01
3.216000000000000000e+03 3.049405097961425781e+01 -2.093205928802490234e+00 -5.935885906219482422e-01 6.350232362747192383e-01 1.243040524423122406e-02 4.541879892349243164e-01
3.217000000000000000e+03 2.991714286804199219e+01 -2.488688707351684570e+00 -6.295977830886840820e-01 6.557124853134155273e-01 7.834418676793575287e-03 4.546495079994201660e-01
3.218000000000000000e+03 3.205939102172851562e+01 -4.167500019073486328e+00 -6.314714550971984863e-01 5.958706140518188477e-01 -1.068026106804609299e-02 4.953725337982177734e-01
3.219000000000000000e+03 3.148357582092285156e+01 -3.714769363403320312e+00 -6.344621777534484863e-01 6.198108196258544922e-01 -4.395405761897563934e-03 4.898348748683929443e-01
3.220000000000000000e+03 3.884706878662109375e+01 -3.925173759460449219e+00 -6.688425540924072266e-01 3.939393460750579834e-01 -8.247096091508865356e-02 3.349317014217376709e-01
3.221000000000000000e+03 3.561097717285156250e+01 -1.053957223892211914e+00 -5.150321722030639648e-01 5.322008728981018066e-01 5.150614771991968155e-03 4.446709752082824707e-01
3.222000000000000000e+03 3.927883911132812500e+01 -1.155490636825561523e+00 -5.527940392494201660e-01 4.599331319332122803e-01 -2.785826846957206726e-02 3.655948340892791748e-01
3.223000000000000000e+03 3.578096008300781250e+01 2.142983675003051758e+00 -3.581768572330474854e-01 5.747492909431457520e-01 6.497173756361007690e-02 4.841976165771484375e-01
3.224000000000000000e+03 3.348392486572265625e+01 1.528378844261169434e+00 -3.489459156990051270e-01 5.585474967956542969e-01 6.288047879934310913e-02 4.775319695472717285e-01
3.225000000000000000e+03 3.574690628051757812e+01 -7.376809597015380859e+00 -6.583869457244873047e-01 3.450265824794769287e-01 -9.400811046361923218e-02 3.621932864189147949e-01
3.226000000000000000e+03 3.353186798095703125e+01 2.704306364059448242e+00 -2.715148627758026123e-01 5.408223867416381836e-01 8.079227060079574585e-02 4.995384216308593750e-01
3.227000000000000000e+03 3.978485870361328125e+01 -4.292181491851806641e+00 -7.021485567092895508e-01 3.702898621559143066e-01 -9.955760836601257324e-02 2.998797595500946045e-01
3.228000000000000000e+03 4.290400695800781250e+01 -2.177659273147583008e+00 -6.429738402366638184e-01 3.432300984859466553e-01 -8.992312848567962646e-02 2.832138240337371826e-01
3.229000000000000000e+03 6.489723968505859375e+01 6.666768074035644531e+00 6.386435776948928833e-02 4.200476646423339844e+00 1.279302358627319336e+00 -1.262560725212097168e+00
3.230000000000000000e+03 3.231965255737304688e+01 2.348031616210937500e+01 3.236379325389862061e-01 4.547387957572937012e-01 2.335130125284194946e-01 2.174206972122192383e-01
3.231000000000000000e+03 6.496389007568359375e+01 2.265040874481201172e+00 -3.957619965076446533e-01 3.869411706924438477e+00 1.042094945907592773e+00 -1.752053499221801758e+00
3.232000000000000000e+03 4.697558593750000000e+01 3.298453903198242188e+01 6.933411955833435059e-01 1.551744937896728516e+00 6.735258698463439941e-01 2.282334677875041962e-02
3.233000000000000000e+03 3.808943557739257812e+01 3.020569419860839844e+01 5.054559707641601562e-01 8.946446776390075684e-01 4.200302064418792725e-01 2.045691013336181641e-01
3.234000000000000000e+03 3.441551208496093750e+01 3.066154479980468750e+01 4.773160815238952637e-01 6.274700760841369629e-01 3.314358592033386230e-01 1.934712231159210205e-01
3.235000000000000000e+03 3.076186370849609375e+01 -1.131143474578857422e+01 -2.980631589889526367e-01 4.575630724430084229e-01 4.784997180104255676e-02 5.953630805015563965e-01
3.236000000000000000e+03 3.297482299804687500e+01 -1.095111465454101562e+01 -4.719587266445159912e-01 2.091864943504333496e-01 -7.883167266845703125e-02 3.777119219303131104e-01
3.237000000000000000e+03 3.010372734069824219e+01 -9.488593101501464844e+00 -5.063813924789428711e-01 6.706724762916564941e-01 4.928733780980110168e-02 6.211446523666381836e-01
3.238000000000000000e+03 3.066521263122558594e+01 -8.661177635192871094e+00 -5.581164360046386719e-01 6.258354187011718750e-01 2.031570486724376678e-02 5.958189368247985840e-01
3.239000000000000000e+03 3.167663383483886719e+01 -1.094105434417724609e+01 -3.797107934951782227e-01 3.406308591365814209e-01 -1.172398123890161514e-02 5.169200301170349121e-01
3.240000000000000000e+03 3.402579498291015625e+01 -8.864309310913085938e+00 -5.888100266456604004e-01 3.208513855934143066e-01 -8.038759231567382812e-02 4.009041190147399902e-01
3.241000000000000000e+03 3.117630386352539062e+01 -7.210877895355224609e+00 -6.167120933532714844e-01 5.995200276374816895e-01 -5.157613661140203476e-03 5.581092834472656250e-01
3.242000000000000000e+03 3.196690750122070312e+01 -6.121494293212890625e+00 -6.326459646224975586e-01 5.697823762893676758e-01 -1.885908655822277069e-02 5.241888165473937988e-01
3.243000000000000000e+03 3.110198211669921875e+01 -1.614640235900878906e+00 -5.574930310249328613e-01 6.210773587226867676e-01 1.907530613243579865e-02 4.528566300868988037e-01
3.244000000000000000e+03 3.134751510620117188e+01 -1.005260753631591797e+01 -4.415807425975799561e-01 4.565547108650207520e-01 4.492192529141902924e-03 5.670877695083618164e-01
3.245000000000000000e+03 3.185653686523437500e+01 -1.032842826843261719e+01 -4.423533678054809570e-01 3.950163722038269043e-01 -1.420109998434782028e-02 5.163783431053161621e-01
3.246000000000000000e+03 3.499942016601562500e+01 -7.829615592956542969e+00 -6.363481879234313965e-01 3.419804871082305908e-01 -8.831032365560531616e-02 3.808981180191040039e-01
3.247000000000000000e+03 3.321763992309570312e+01 -8.620147705078125000e+00 -5.726220011711120605e-01 3.943555653095245361e-01 -5.347992852330207825e-02 4.685121476650238037e-01
3.248000000000000000e+03 3.818711853027343750e+01 -1.582780361175537109e+00 -5.626722574234008789e-01 4.740915894508361816e-01 -2.657419443130493164e-02 3.889521360397338867e-01
3.249000000000000000e+03 3.140743827819824219e+01 -5.177601814270019531e+00 -6.512386202812194824e-01 6.153789162635803223e-01 -1.075791940093040466e-02 5.194485187530517578e-01
3.250000000000000000e+03 3.148492240905761719e+01 -2.332575559616088867e+00 -5.922468304634094238e-01 6.165740489959716797e-01 7.298171985894441605e-03 4.643544554710388184e-01
3.251000000000000000e+03 3.699315261840820312e+01 -6.389554977416992188e+00 -6.946296095848083496e-01 3.522274196147918701e-01 -1.027206555008888245e-01 3.321395218372344971e-01
3.252000000000000000e+03 3.078799247741699219e+01 -6.768053770065307617e-01 -5.089887976646423340e-01 6.090486049652099609e-01 3.001795522868633270e-02 4.298426508903503418e-01
3.253000000000000000e+03 3.645882415771484375e+01 9.255012869834899902e-01 -4.330684542655944824e-01 5.545153021812438965e-01 3.643405809998512268e-02 4.546394348144531250e-01
3.254000000000000000e+03 3.549773406982421875e+01 1.039331555366516113e-01 -4.633479416370391846e-01 5.467627644538879395e-01 2.502444013953208923e-02 4.568186104297637939e-01
3.255000000000000000e+03 3.354439163208007812e+01 -5.142888545989990234e+00 -6.245691776275634766e-01 5.227390527725219727e-01 -3.054903633892536163e-02 4.797743558883666992e-01
3.256000000000000000e+03 3.138701629638671875e+01 -4.428215980529785156e+00 -6.440388560295104980e-01 6.224206686019897461e-01 -6.485463120043277740e-03 5.016381740570068359e-01
3.257000000000000000e+03 3.177993774414062500e+01 -1.387094855308532715e+00 -5.375692844390869141e-01 6.047020554542541504e-01 2.013983391225337982e-02 4.504920840263366699e-01
3.258000000000000000e+03 3.386281204223632812e+01 -8.273505210876464844e+00 -5.945897698402404785e-01 3.726192414760589600e-01 -6.659116595983505249e-02 4.345747530460357666e-01
3.259000000000000000e+03 3.647058105468750000e+01 -6.981896877288818359e+00 -6.873618960380554199e-01 3.404192924499511719e-01 -1.040827780961990356e-01 3.325343132019042969e-01
3.260000000000000000e+03 3.955598068237304688e+01 -5.807604789733886719e+00 -7.579747438430786133e-01 3.314263224601745605e-01 -1.279645264148712158e-01 2.639394402503967285e-01
3.261000000000000000e+03 3.469279861450195312e+01 2.456449508666992188e+00 -3.086895048618316650e-01 5.670201778411865234e-01 7.749919593334197998e-02 5.035234093666076660e-01
3.262000000000000000e+03 3.451011276245117188e+01 2.231038212776184082e-01 -4.418203532695770264e-01 5.594241023063659668e-01 3.528113290667533875e-02 4.643036127090454102e-01
3.263000000000000000e+03 3.986598587036132812e+01 -2.403444766998291016e+00 -6.219386458396911621e-01 4.095191955566406250e-01 -6.372582912445068359e-02 3.349917232990264893e-01
3.264000000000000000e+03 3.640298080444335938e+01 1.047162711620330811e-01 -4.685439169406890869e-01 5.382599234580993652e-01 2.091480232775211334e-02 4.424728751182556152e-01
3.265000000000000000e+03 6.429077911376953125e+01 5.133252620697021484e+00 -1.740586757659912109e-02 3.833281040191650391e+00 1.144762516021728516e+00 -1.338368892669677734e+00
3.266000000000000000e+03 3.347834777832031250e+01 3.951747715473175049e-01 -4.296550154685974121e-01 5.622554421424865723e-01 3.978013992309570312e-02 4.657520353794097900e-01
3.267000000000000000e+03 3.450556564331054688e+01 -9.643542766571044922e-01 -5.102604031562805176e-01 5.487823486328125000e-01 1.155658438801765442e-02 4.569844007492065430e-01
3.268000000000000000e+03 3.563376617431640625e+01 -3.737061977386474609e+00 -6.142946481704711914e-01 4.809247553348541260e-01 -4.001097008585929871e-02 4.274050891399383545e-01
3.269000000000000000e+03 2.860698127746582031e+01 2.812368011474609375e+01 3.892872035503387451e-01 1.965890228748321533e-01 1.757628619670867920e-01 2.423694282770156860e-01
3.270000000000000000e+03 3.029513168334960938e+01 2.367300033569335938e+01 3.363767564296722412e-01 2.792562544345855713e-01 1.846898943185806274e-01 2.275920957326889038e-01
3.271000000000000000e+03 3.105951118469238281e+01 -1.067688274383544922e+01 -3.871776759624481201e-01 4.717958569526672363e-01 2.538545988500118256e-02 5.781007409095764160e-01
3.272000000000000000e+03 3.157423782348632812e+01 -8.556391716003417969e+00 -5.569119453430175781e-01 5.298196077346801758e-01 -8.127694949507713318e-03 5.570737719535827637e-01
3.273000000000000000e+03 3.345116043090820312e+01 -9.245433807373046875e+00 -5.501415133476257324e-01 3.271967470645904541e-01 -6.688342988491058350e-02 4.298761785030364990e-01
3.274000000000000000e+03 3.253664779663085938e+01 -7.550579547882080078e+00 -6.034461855888366699e-01 4.936704039573669434e-01 -3.293274343013763428e-02 5.077788233757019043e-01
3.275000000000000000e+03 3.294744491577148438e+01 -1.026864337921142578e+01 -4.743725359439849854e-01 2.776196599006652832e-01 -5.902586504817008972e-02 4.245124757289886475e-01
3.276000000000000000e+03 3.279480743408203125e+01 -9.575596809387207031e+00 -5.268638134002685547e-01 3.586857914924621582e-01 -5.045340210199356079e-02 4.691898822784423828e-01
3.277000000000000000e+03 3.114394569396972656e+01 -9.102317810058593750e+00 -5.176725387573242188e-01 5.449252128601074219e-01 8.175808005034923553e-03 5.808735489845275879e-01
3.278000000000000000e+03 3.162815666198730469e+01 -5.218191742897033691e-01 -4.866494834423065186e-01 6.001574993133544922e-01 3.405241295695304871e-02 4.448633491992950439e-01
3.279000000000000000e+03 3.100455665588378906e+01 -2.749131441116333008e+00 -6.166951656341552734e-01 6.334400177001953125e-01 5.023456644266843796e-03 4.688259959220886230e-01
3.280000000000000000e+03 3.206465911865234375e+01 -8.914881706237792969e+00 -5.355926156044006348e-01 4.575459957122802734e-01 -2.341398037970066071e-02 5.353060960769653320e-01
3.281000000000000000e+03 3.207547378540039062e+01 -7.117491722106933594e+00 -6.132573485374450684e-01 5.409217476844787598e-01 -2.170067466795444489e-02 5.314651131629943848e-01
3.282000000000000000e+03 3.217944717407226562e+01 -5.413450241088867188e+00 -6.381276845932006836e-01 5.785167217254638672e-01 -1.788327842950820923e-02 5.078423619270324707e-01
3.283000000000000000e+03 3.446671295166015625e+01 -8.393740653991699219e+00 -6.126666069030761719e-01 3.351323008537292480e-01 -8.326029777526855469e-02 3.974218368530273438e-01
3.284000000000000000e+03 3.202392959594726562e+01 -8.050719261169433594e+00 -5.752585530281066895e-01 5.047198534011840820e-01 -2.116160653531551361e-02 5.380459427833557129e-01
3.285000000000000000e+03 3.445904159545898438e+01 -6.956916809082031250e+00 -6.273834109306335449e-01 4.148967564105987549e-01 -6.374599784612655640e-02 4.351711869239807129e-01
3.286000000000000000e+03 3.362054824829101562e+01 -7.524194717407226562e+00 -6.084133982658386230e-01 4.266745746135711670e-01 -5.452164635062217712e-02 4.650758802890777588e-01
3.287000000000000000e+03 3.251158905029296875e+01 -5.313451290130615234e-01 -4.844436049461364746e-01 5.812495946884155273e-01 2.904179133474826813e-02 4.553326666355133057e-01
3.288000000000000000e+03 3.345077133178710938e+01 -6.942080259323120117e-01 -4.882606863975524902e-01 5.732451677322387695e-01 2.549534477293491364e-02 4.597646594047546387e-01
3.289000000000000000e+03 3.166174507141113281e+01 -3.000729084014892578e+00 -6.119312047958374023e-01 6.196441650390625000e-01 2.313883043825626373e-03 4.795401692390441895e-01
3.290000000000000000e+03 3.314846801757812500e+01 -6.257771968841552734e+00 -6.210014224052429199e-01 5.029927492141723633e-01 -3.540261089801788330e-02 4.902627766132354736e-01
3.291000000000000000e+03 4.063109207153320312e+01 -3.552191019058227539e+00 -6.884052157402038574e-01 3.684729039669036865e-01 -9.597969055175781250e-02 2.977948188781738281e-01
3.292000000000000000e+03 3.685226440429687500e+01 -4.408998489379882812e+00 -6.470071673393249512e-01 4.269165396690368652e-01 -6.602719426155090332e-02 3.853683173656463623e-01
3.293000000000000000e+03 3.268756866455078125e+01 -3.681977272033691406e+00 -6.153938770294189453e-01 5.790938138961791992e-01 -1.089002378284931183e-02 4.837356805801391602e-01
3.294000000000000000e+03 3.780159378051757812e+01 -4.148733615875244141e+00 -6.504805088043212891e-01 4.196901321411132812e-01 -6.923712044954299927e-02 3.635010123252868652e-01
3.295000000000000000e+03 3.808775711059570312e+01 -5.263519287109375000e+00 -6.996855735778808594e-01 3.680491447448730469e-01 -9.949092566967010498e-02 3.224411904811859131e-01
3.296000000000000000e+03 3.440356063842773438e+01 -3.438263893127441406e+00 -5.993505120277404785e-01 5.260687470436096191e-01 -2.198453061282634735e-02 4.574299752712249756e-01
3.297000000000000000e+03 3.865540695190429688e+01 -2.790577650070190430e+00 -6.169451475143432617e-01 4.319990277290344238e-01 -5.548382923007011414e-02 3.587585687637329102e-01
3.298000000000000000e+03 3.649271392822265625e+01 -3.358167648315429688e+00 -6.058480739593505859e-01 4.676702320575714111e-01 -4.145336151123046875e-02 4.102882146835327148e-01
3.299000000000000000e+03 3.159917259216308594e+01 2.928790855407714844e+01 4.236131906509399414e-01 4.266009926795959473e-01 2.550642490386962891e-01 2.085853517055511475e-01
3.300000000000000000e+03 3.261838912963867188e+01 -8.945553779602050781e+00 -5.345963239669799805e-01 4.142936170101165771e-01 -3.609081730246543884e-02 5.001078248023986816e-01
3.301000000000000000e+03 3.294378662109375000e+01 -8.037155151367187500e+00 -5.772076249122619629e-01 4.428322613239288330e-01 -4.031260311603546143e-02 4.997700750827789307e-01
3.302000000000000000e+03 3.160334587097167969e+01 -6.718783855438232422e+00 -6.286481618881225586e-01 5.849079489707946777e-01 -1.312206685543060303e-02 5.403393507003784180e-01
3.303000000000000000e+03 3.252577590942382812e+01 -6.565800666809082031e+00 -6.236829161643981934e-01 5.362831950187683105e-01 -2.621992118656635284e-02 5.140915513038635254e-01
3.304000000000000000e+03 3.397732543945312500e+01 -5.990347862243652344e+00 -6.299490928649902344e-01 4.735959470272064209e-01 -4.690594226121902466e-02 4.639111161231994629e-01
3.305000000000000000e+03 3.209309768676757812e+01 -2.060161352157592773e+00 -5.682128071784973145e-01 6.047320365905761719e-01 1.095577888190746307e-02 4.663324058055877686e-01
3.306000000000000000e+03 3.306483459472656250e+01 -6.981388092041015625e+00 -6.185301542282104492e-01 4.811758399009704590e-01 -4.120629653334617615e-02 4.937092363834381104e-01
3.307000000000000000e+03 3.621474075317382812e+01 -6.342945575714111328e+00 -6.654047966003417969e-01 3.838510215282440186e-01 -8.446613699197769165e-02 3.717601895332336426e-01
3.308000000000000000e+03 3.464006042480468750e+01 -5.418575763702392578e+00 -6.301335692405700684e-01 4.621454775333404541e-01 -5.039643123745918274e-02 4.438924193382263184e-01
3.309000000000000000e+03 3.240182876586914062e+01 -2.824034690856933594e+00 -5.979896187782287598e-01 5.938163399696350098e-01 -1.251986366696655750e-03 4.736968278884887695e-01
3.310000000000000000e+03 3.708644104003906250e+01 -5.463305950164794922e+00 -6.739946603775024414e-01 3.862771391868591309e-01 -8.631525188684463501e-02 3.522698581218719482e-01
3.311000000000000000e+03 3.315520095825195312e+01 -2.617699623107910156e+00 -5.787897706031799316e-01 5.756723284721374512e-01 -9.352165507152676582e-04 4.685876071453094482e-01
3.312000000000000000e+03 3.707405090332031250e+01 -1.933083295822143555e+00 -5.616927742958068848e-01 4.888917207717895508e-01 -2.184032462537288666e-02 4.114846289157867432e-01
3.313000000000000000e+03 3.537466812133789062e+01 -6.556886672973632812e+00 -6.531485319137573242e-01 3.958042562007904053e-01 -7.720327377319335938e-02 3.986343443393707275e-01
3.314000000000000000e+03 3.219553756713867188e+01 -9.870827674865722656e+00 -4.743482172489166260e-01 3.840420246124267578e-01 -2.709185518324375153e-02 5.070923566818237305e-01
3.315000000000000000e+03 3.530578613281250000e+01 -5.706977844238281250e+00 -6.360557675361633301e-01 4.326035082340240479e-01 -6.103568151593208313e-02 4.193104207515716553e-01
3.316000000000000000e+03 3.312757873535156250e+01 -4.411597728729248047e+00 -6.251642704010009766e-01 5.528755784034729004e-01 -2.168659865856170654e-02 4.837501049041748047e-01
3.317000000000000000e+03 3.615707015991210938e+01 -5.555332183837890625e+00 -6.545325517654418945e-01 4.037198424339294434e-01 -7.524381577968597412e-02 3.863431215286254883e-01
3.318000000000000000e+03 3.329505538940429688e+01 -1.716801166534423828e+00 -5.440369248390197754e-01 5.743317008018493652e-01 9.088420309126377106e-03 4.626204669475555420e-01
3.319000000000000000e+03 3.247074890136718750e+01 -1.463643670082092285e+00 -5.338256359100341797e-01 5.940111279487609863e-01 1.805565506219863892e-02 4.593051373958587646e-01
3.320000000000000000e+03 3.748604583740234375e+01 -3.049101352691650391e+00 -6.116378903388977051e-01 4.521848261356353760e-01 -4.783592373132705688e-02 3.882990777492523193e-01
3.321000000000000000e+03 3.598775863647460938e+01 -2.248808622360229492e+00 -5.686436295509338379e-01 5.050609707832336426e-01 -1.907480135560035706e-02 4.317807257175445557e-01
3.322000000000000000e+03 2.886700820922851562e+01 -3.814403915405273438e+01 3.386374711990356445e-01 3.850806355476379395e-01 2.171154469251632690e-01 -1.684905290603637695e-01
3.323000000000000000e+03 3.248643112182617188e+01 -4.130849075317382812e+01 4.164847135543823242e-01 2.122438251972198486e-01 1.886185556650161743e-01 -1.788233593106269836e-02
3.324000000000000000e+03 3.375910949707031250e+01 -3.978011131286621094e+00 -6.114675998687744141e-01 5.372247695922851562e-01 -2.227284945547580719e-02 4.703947603702545166e-01
3.325000000000000000e+03 3.522664642333984375e+01 -4.946972370147705078e+00 -6.352843046188354492e-01 4.630085825920104980e-01 -5.168271437287330627e-02 4.275199770927429199e-01
3.326000000000000000e+03 3.418809890747070312e+01 -4.690703868865966797e+00 -6.224447488784790039e-01 5.049608349800109863e-01 -3.524518758058547974e-02 4.647959768772125244e-01
3.327000000000000000e+03 3.333917617797851562e+01 -3.334360837936401367e+00 -6.064034104347229004e-01 5.619415044784545898e-01 -1.333856955170631409e-02 4.711070060729980469e-01
3.328000000000000000e+03 3.487041854858398438e+01 -4.194259643554687500e+00 -6.142433285713195801e-01 4.918376207351684570e-01 -3.672170266509056091e-02 4.427468478679656982e-01
3.329000000000000000e+03 3.509102630615234375e+01 -2.770903110504150391e+00 -5.752909779548645020e-01 5.150907635688781738e-01 -1.806006021797657013e-02 4.442009925842285156e-01
3.330000000000000000e+03 3.383441925048828125e+01 -2.842161417007446289e+00 -5.826331973075866699e-01 5.470431447029113770e-01 -1.067700050771236420e-02 4.629118740558624268e-01
3.331000000000000000e+03 3.598675918579101562e+01 -4.666967868804931641e+00 -6.341932415962219238e-01 4.451284706592559814e-01 -5.671943724155426025e-02 4.092612564563751221e-01
3.332000000000000000e+03 8.205039024353027344e+00 4.090361785888671875e+01 3.138801082968711853e-02 -8.003887534141540527e-01 -2.307002097368240356e-01 1.741376705467700958e-02
3.333000000000000000e+03 1.930873489379882812e+01 3.015355873107910156e+01 2.038207054138183594e-01 -1.250270158052444458e-01 2.363810688257217407e-02 2.908016145229339600e-01
3.334000000000000000e+03 2.745722007751464844e+01 3.130323219299316406e+01 3.865754604339599609e-01 1.759676188230514526e-01 1.687629222869873047e-01 2.200602740049362183e-01
3.335000000000000000e+03 3.047552871704101562e+01 3.224196243286132812e+01 4.413727223873138428e-01 3.572025299072265625e-01 2.395725697278976440e-01 1.763279139995574951e-01
3.336000000000000000e+03 4.318014526367187500e+01 3.627827453613281250e+01 6.633830070495605469e-01 1.255219221115112305e+00 5.755806565284729004e-01 7.345731556415557861e-02
3.337000000000000000e+03 3.942417144775390625e+01 3.239937591552734375e+01 5.794982314109802246e-01 9.850442409515380859e-01 4.693627655506134033e-01 1.581096649169921875e-01
3.338000000000000000e+03 4.982450103759765625e+01 3.258507537841796875e+01 6.974299550056457520e-01 1.821153044700622559e+00 7.555749416351318359e-01 -7.686337828636169434e-02
3.339000000000000000e+03 2.202163696289062500e+01 -3.563941574096679688e+01 1.078829541802406311e-01 7.859863638877868652e-01 2.681607902050018311e-01 -3.466367423534393311e-01
3.340000000000000000e+03 6.396751403808593750e+01 3.732962417602539062e+01 3.288239836692810059e-01 4.230555057525634766e+00 1.367813706398010254e+00 -1.691167205572128296e-01
3.341000000000000000e+03 1.900957107543945312e+01 3.707438659667968750e+01 2.177652865648269653e-01 -1.836032867431640625e-01 1.024859864264726639e-02 1.196161285042762756e-01
3.342000000000000000e+03 1.607020568847656250e+01 3.540055465698242188e+01 1.501432955265045166e-01 -3.044295310974121094e-01 -4.628587141633033752e-02 1.446324586868286133e-01
3.343000000000000000e+03 2.542232322692871094e+01 -3.683264923095703125e+01 2.469560205936431885e-01 5.818415284156799316e-01 2.486392557621002197e-01 -2.610608935356140137e-01
3.344000000000000000e+03 6.054840469360351562e+01 -3.797385787963867188e+01 4.892909228801727295e-01 2.702175855636596680e+00 9.574400186538696289e-01 2.766678929328918457e-01
3.345000000000000000e+03 1.714722061157226562e+01 -3.539878082275390625e+01 -1.200028210878372192e-01 8.927018046379089355e-01 2.318097054958343506e-01 -2.535961568355560303e-01
3.346000000000000000e+03 3.204505920410156250e+01 3.614992523193359375e+01 4.711598753929138184e-01 4.648085236549377441e-01 2.807905375957489014e-01 1.143768653273582458e-01
3.347000000000000000e+03 1.742851257324218750e+01 -3.817306518554687500e+01 -1.734258383512496948e-01 8.108862638473510742e-01 1.912381201982498169e-01 -1.562280505895614624e-01
3.348000000000000000e+03 2.175733184814453125e+01 -4.112347030639648438e+01 -4.234651848673820496e-02 7.708613872528076172e-01 2.185544520616531372e-01 -5.272100120782852173e-02
3.349000000000000000e+03 3.942039108276367188e+01 3.583948898315429688e+01 6.035439372062683105e-01 9.807218313217163086e-01 4.752797186374664307e-01 1.091361269354820251e-01
3.350000000000000000e+03 6.068389892578125000e+01 3.637422561645507812e+01 4.444728195667266846e-01 3.688228368759155273e+00 1.239810347557067871e+00 -2.048347592353820801e-01
3.351000000000000000e+03 5.544270706176757812e+01 3.826355361938476562e+01 6.052214503288269043e-01 2.805843114852905273e+00 1.023319363594055176e+00 -1.091564595699310303e-01
3.352000000000000000e+03 2.295467948913574219e+01 3.768591308593750000e+01 3.108776807785034180e-01 3.409002674743533134e-03 9.428600966930389404e-02 1.069477349519729614e-01
3.353000000000000000e+03 4.417757415771484375e+01 3.252415084838867188e+01 6.574983000755310059e-01 1.290956497192382812e+00 5.845364332199096680e-01 1.271269470453262329e-01
3.354000000000000000e+03 5.355033111572265625e+01 3.489551544189453125e+01 6.404345035552978516e-01 2.405277967453002930e+00 9.137137532234191895e-01 -1.555900722742080688e-01
3.355000000000000000e+03 2.970224380493164062e+01 3.498410797119140625e+01 4.292420744895935059e-01 3.303644955158233643e-01 2.278819680213928223e-01 1.370727568864822388e-01
3.356000000000000000e+03 5.053915786743164062e+01 3.615250015258789062e+01 6.977525353431701660e-01 2.057421684265136719e+00 8.265522718429565430e-01 -7.794086635112762451e-02
3.357000000000000000e+03 5.862492370605468750e+01 -3.538945388793945312e+01 4.813816547393798828e-01 1.854312062263488770e+00 7.007081508636474609e-01 3.909629285335540771e-01
3.358000000000000000e+03 2.719579124450683594e+01 4.096223068237304688e+01 4.050158262252807617e-01 2.155201137065887451e-01 1.861607730388641357e-01 2.737147361040115356e-02
3.359000000000000000e+03 2.307807540893554688e+01 -1.467507076263427734e+01 -6.976170539855957031e-01 -1.386219620704650879e+00 -6.251509785652160645e-01 1.087187170982360840e+00
3.360000000000000000e+03 2.366079521179199219e+01 -1.476497650146484375e+01 -6.527300477027893066e-01 -1.772099137306213379e+00 -7.274487614631652832e-01 1.174137592315673828e+00
3.361000000000000000e+03 2.408423233032226562e+01 -1.538887405395507812e+01 -5.056448578834533691e-01 -2.015540599822998047e+00 -7.563556432723999023e-01 1.411319851875305176e+00
3.362000000000000000e+03 2.446917915344238281e+01 -1.626670265197753906e+01 -1.264109611511230469e+00 -1.962041974067687988e+00 -9.678454995155334473e-01 2.091487646102905273e+00
3.363000000000000000e+03 2.481711769104003906e+01 -1.672121810913085938e+01 -1.966942429542541504e+00 -2.316381931304931641e+00 -1.284997344017028809e+00 2.168206691741943359e+00
3.364000000000000000e+03 2.517997932434082031e+01 -1.681797409057617188e+01 -1.378023982048034668e+00 -9.549356102943420410e-01 -6.998878717422485352e-01 3.619071006774902344e+00
3.365000000000000000e+03 2.502788543701171875e+01 -1.730726814270019531e+01 -6.457228183746337891e+00 -1.042633295059204102e+00 -2.249958276748657227e+00 2.819444656372070312e+00
3.366000000000000000e+03 2.337285614013671875e+01 -1.643953323364257812e+01 -1.470978379249572754e+00 -5.556690692901611328e-01 -6.079942584037780762e-01 1.024690628051757812e+00
3.367000000000000000e+03 2.807801246643066406e+01 -1.803021049499511719e+01 -7.271694183349609375e+00 -3.065176010131835938e-01 -2.273463487625122070e+00 1.137316226959228516e+00
3.368000000000000000e+03 2.640007400512695312e+01 -1.277052402496337891e+01 -2.267051786184310913e-01 1.801852941513061523e+00 4.725443422794342041e-01 -7.216700166463851929e-02
3.369000000000000000e+03 2.697008323669433594e+01 -1.300892448425292969e+01 -2.657858729362487793e-01 2.012066602706909180e+00 5.238841772079467773e-01 2.200744748115539551e-01
3.370000000000000000e+03 2.711631393432617188e+01 -1.321782398223876953e+01 -2.249197065830230713e-01 2.156592607498168945e+00 5.795018672943115234e-01 3.426773548126220703e-01
3.371000000000000000e+03 2.769827461242675781e+01 -1.419814682006835938e+01 3.407477140426635742e-01 2.262024164199829102e+00 7.808315753936767578e-01 1.037206053733825684e+00
3.372000000000000000e+03 2.756112098693847656e+01 -1.451861286163330078e+01 6.368106007575988770e-01 2.641721963882446289e+00 9.835597872734069824e-01 1.185408830642700195e+00
3.373000000000000000e+03 2.782024574279785156e+01 -1.482864665985107422e+01 1.229320526123046875e+00 2.182140350341796875e+00 1.023438215255737305e+00 1.487791180610656738e+00
3.374000000000000000e+03 2.790648651123046875e+01 -1.460241222381591797e+01 9.747534394264221191e-01 1.995512366294860840e+00 8.910797238349914551e-01 1.351871132850646973e+00
3.375000000000000000e+03 2.732015228271484375e+01 9.774790763854980469e+00 8.567416667938232422e-02 1.585052460432052612e-01 7.325382530689239502e-02 7.286722660064697266e-01
3.376000000000000000e+03 2.356787300109863281e+01 4.237894535064697266e+00 2.196129858493804932e-01 5.466050505638122559e-01 2.298654168844223022e-01 3.759653568267822266e-01
3.377000000000000000e+03 4.341638946533203125e+01 7.799417972564697266e+00 -2.271016091108322144e-01 7.697021365165710449e-01 1.627801656723022461e-01 4.097780957818031311e-02
3.378000000000000000e+03 4.368716812133789062e+01 1.924911499023437500e+01 2.946807146072387695e-01 1.492288351058959961e+00 5.360907316207885742e-01 5.957881808280944824e-01
3.379000000000000000e+03 2.489980125427246094e+01 -1.694764328002929688e+01 -3.224308967590332031e+00 -1.615988850593566895e+00 -1.452089309692382812e+00 3.427994251251220703e+00
3.380000000000000000e+03 2.455816841125488281e+01 -1.670334625244140625e+01 -1.347386360168457031e+00 -1.747670531272888184e+00 -9.285170435905456543e-01 2.118829250335693359e+00
3.381000000000000000e+03 2.286063194274902344e+01 -1.560760879516601562e+01 -7.481549978256225586e-01 -9.069347977638244629e-01 -4.965269565582275391e-01 9.755416512489318848e-01
3.382000000000000000e+03 2.907541084289550781e+01 -1.525715255737304688e+01 7.446838021278381348e-01 4.122056998312473297e-03 2.246417701244354248e-01 1.077271550893783569e-01
3.383000000000000000e+03 2.386903190612792969e+01 -1.688094520568847656e+01 -2.412756443023681641e+00 -6.115523576736450195e-01 -9.072926044464111328e-01 1.220336675643920898e+00
3.384000000000000000e+03 2.396341323852539062e+01 -1.646498298645019531e+01 -1.880315661430358887e+00 -1.464687585830688477e+00 -1.003500938415527344e+00 1.928068041801452637e+00
3.385000000000000000e+03 4.471510314941406250e+01 4.419633865356445312e+00 -2.342593222856521606e-01 2.950374186038970947e-01 1.823342405259609222e-02 9.692737460136413574e-02
3.386000000000000000e+03 2.725056838989257812e+01 1.511446380615234375e+01 -3.293725848197937012e-01 -1.120631918311119080e-01 -1.324307322502136230e-01 3.708634078502655029e-01
3.387000000000000000e+03 1.286674976348876953e+01 -9.959163665771484375e+00 8.135011196136474609e-01 4.629590511322021484e-01 3.829380571842193604e-01 8.019804954528808594e-01
3.388000000000000000e+03 9.554261207580566406e+00 -8.882324218750000000e+00 -5.099496841430664062e-01 2.443490982055664062e+00 5.800623893737792969e-01 -1.777223683893680573e-02
3.389000000000000000e+03 6.502853393554687500e+01 -3.425786018371582031e+00 -1.176704883575439453e+00 2.630473375320434570e+00 4.361305832862854004e-01 -3.284132003784179688e+00
3.390000000000000000e+03 4.492672729492187500e+01 -3.402739715576171875e+01 2.938770949840545654e-01 -1.404792517423629761e-01 4.601935297250747681e-02 -1.811179220676422119e-01
3.391000000000000000e+03 3.201734161376953125e+01 -1.704677200317382812e+01 -1.657671332359313965e+00 -4.881116747856140137e-02 -5.119447708129882812e-01 -3.762584030628204346e-01
3.392000000000000000e+03 2.748957252502441406e+01 -1.356195545196533203e+01 -8.564880490303039551e-02 2.199220895767211914e+00 6.340716481208801270e-01 6.456321477890014648e-01
3.393000000000000000e+03 1.441000270843505859e+01 3.306853866577148438e+01 9.765470027923583984e-02 -3.705850541591644287e-01 -8.187910169363021851e-02 1.732068359851837158e-01
3.394000000000000000e+03 3.311335563659667969e+00 3.707997894287109375e+01 1.840277761220932007e-02 -1.176778674125671387e+00 -3.475127816200256348e-01 -2.871474483981728554e-03
3.395000000000000000e+03 2.811573219299316406e+01 -1.389398479461669922e+01 2.997366189956665039e-01 1.654341697692871094e+00 5.862234830856323242e-01 9.990912675857543945e-01
3.396000000000000000e+03 7.628778839111328125e+01 3.851866149902343750e+01 -5.946111399680376053e-03 6.264066696166992188e+00 1.877436161041259766e+00 -5.111043155193328857e-02
3.397000000000000000e+03 1.886298179626464844e+01 -9.649888038635253906e+00 -4.850622415542602539e-01 -7.447204589843750000e-01 -3.689348101615905762e-01 8.018081188201904297e-01
3.398000000000000000e+03 2.610501480102539062e+01 1.691983604431152344e+01 -8.764044195413589478e-02 -2.678337693214416504e-01 -1.066422611474990845e-01 2.419112920761108398e-01
3.399000000000000000e+03 2.923222351074218750e+01 -1.478257083892822266e+01 8.001821041107177734e-01 1.586350798606872559e-01 2.876451611518859863e-01 5.110011100769042969e-01
3.400000000000000000e+03 9.511299133300781250e+00 -4.539154529571533203e+00 -1.152250409126281738e+00 7.800065875053405762e-01 -1.116731613874435425e-01 -1.090657189488410950e-01
3.401000000000000000e+03 7.031202697753906250e+01 -4.330688476562500000e+00 -2.264130353927612305e+00 1.078383827209472656e+01 2.555912494659423828e+00 -5.555128455162048340e-01
3.402000000000000000e+03 4.554251480102539062e+01 3.093087196350097656e+00 -2.225497066974639893e-01 2.211420238018035889e-01 -4.223019641358405352e-04 1.883819848299026489e-01
3.403000000000000000e+03 1.884364700317382812e+01 2.128879928588867188e+01 1.715461313724517822e-01 1.269425451755523682e-02 5.527211725711822510e-02 5.561643838882446289e-01
3.404000000000000000e+03 1.154108238220214844e+01 -8.542876243591308594e+00 -1.423151046037673950e-01 1.406926512718200684e+00 3.793834447860717773e-01 7.319328784942626953e-01
3.405000000000000000e+03 2.707922172546386719e+01 -1.211550235748291016e+01 -3.468420803546905518e-01 1.564563751220703125e+00 3.653165102005004883e-01 2.887091338634490967e-01
3.406000000000000000e+03 3.117984008789062500e+01 -1.629911994934082031e+01 -1.017434835433959961e+00 -1.930207461118698120e-01 -3.631366789340972900e-01 -4.799901843070983887e-01
3.407000000000000000e+03 3.057883834838867188e+01 -1.606191825866699219e+01 -7.509698271751403809e-01 -2.136385142803192139e-01 -2.893824875354766846e-01 -3.850134909152984619e-01
3.408000000000000000e+03 2.833929061889648438e+01 -3.440506362915039062e+01 4.404074847698211670e-01 3.464856743812561035e-01 2.360679507255554199e-01 -2.758328914642333984e-01
3.409000000000000000e+03 2.806379127502441406e+01 -1.353746986389160156e+01 8.557926118373870850e-02 1.652546048164367676e+00 5.214375853538513184e-01 8.937083482742309570e-01
3.410000000000000000e+03 2.757166862487792969e+01 -1.399027156829833984e+01 1.089591532945632935e-01 2.344455480575561523e+00 7.360243797302246094e-01 8.600958585739135742e-01
3.411000000000000000e+03 5.478620147705078125e+01 4.466598033905029297e+00 5.759862810373306274e-02 1.041676163673400879e+00 3.297824561595916748e-01 2.239031791687011719e-01
3.412000000000000000e+03 5.868153762817382812e+01 2.846349906921386719e+01 4.609714746475219727e-01 3.277279376983642578e+00 1.121475338935852051e+00 -4.538019001483917236e-01
3.413000000000000000e+03 2.779065513610839844e+01 -1.375601100921630859e+01 1.051154285669326782e-01 2.081893444061279297e+00 6.561026573181152344e-01 8.982225060462951660e-01
3.414000000000000000e+03 5.453065872192382812e+01 -3.415312957763671875e+01 4.516347944736480713e-01 5.616732239723205566e-01 3.039924204349517822e-01 1.366735249757766724e-01
3.415000000000000000e+03 3.129646301269531250e+00 3.534319686889648438e+01 2.018524892628192902e-02 -1.170786499977111816e+00 -3.451803624629974365e-01 2.436521649360656738e-02
3.416000000000000000e+03 1.781407928466796875e+01 1.175063967704772949e+00 -4.521736800670623779e-01 -6.056311130523681641e-01 -3.173414170742034912e-01 6.209193468093872070e-01
3.417000000000000000e+03 4.125672531127929688e+01 5.513657569885253906e+00 -3.124499022960662842e-01 7.133237123489379883e-01 1.202621534466743469e-01 2.771672308444976807e-01
3.418000000000000000e+03 3.861177682876586914e+00 -5.347693920135498047e+00 -4.084113836288452148e-01 -3.014747798442840576e-01 -2.129658460617065430e-01 -1.113449573516845703e+00
3.419000000000000000e+03 2.992629814147949219e+01 9.780876159667968750e+00 4.570266231894493103e-02 3.014902770519256592e-01 1.041578799486160278e-01 7.267423868179321289e-01
3.420000000000000000e+03 3.787575960159301758e+00 3.602917861938476562e+01 3.220391646027565002e-02 -1.113598942756652832e+00 -3.244184851646423340e-01 2.815752290189266205e-02
3.421000000000000000e+03 4.070177078247070312e+00 3.512904739379882812e+01 1.928144507110118866e-02 -1.059014797210693359e+00 -3.119199872016906738e-01 3.699296712875366211e-02
3.422000000000000000e+03 1.949701690673828125e+01 2.379152297973632812e+01 1.880593448877334595e-01 -7.434324175119400024e-02 3.411483019590377808e-02 4.875888526439666748e-01
3.423000000000000000e+03 3.863989257812500000e+01 1.834919929504394531e+01 3.424720764160156250e-01 1.120457649230957031e+00 4.388789236545562744e-01 2.700506150722503662e-01
3.424000000000000000e+03 6.338273239135742188e+01 -3.034097862243652344e+01 -1.323674321174621582e-01 3.918297052383422852e+00 1.135778903961181641e+00 7.709373235702514648e-01
3.425000000000000000e+03 5.732963562011718750e+01 2.578767776489257812e+01 4.629876911640167236e-01 2.984126091003417969e+00 1.034134149551391602e+00 -5.179567933082580566e-01
3.426000000000000000e+03 5.719884109497070312e+01 -6.686998367309570312e+00 -2.481692552566528320e+00 9.265305101871490479e-02 -7.167118191719055176e-01 -4.049785733222961426e-01
3.427000000000000000e+03 7.879247665405273438e+00 -8.638570785522460938e+00 -6.124562025070190430e-01 2.329691171646118164e+00 5.151704549789428711e-01 -1.031708121299743652e+00
3.428000000000000000e+03 1.843291091918945312e+01 2.024975395202636719e+01 1.567060500383377075e-01 9.853588789701461792e-02 7.657258212566375732e-02 5.591192841529846191e-01
3.429000000000000000e+03 1.188152599334716797e+01 1.543574619293212891e+01 4.093624353408813477e-01 -2.553148865699768066e-01 4.621426388621330261e-02 3.774926662445068359e-01
3.430000000000000000e+03 1.096205806732177734e+01 1.652021980285644531e+01 3.484272062778472900e-01 -3.296072483062744141e-01 5.645989440381526947e-03 3.226729035377502441e-01
3.431000000000000000e+03 2.756371498107910156e+01 1.840591239929199219e+01 7.742655277252197266e-02 -4.444298520684242249e-02 9.895071387290954590e-03 2.448700666427612305e-01
3.432000000000000000e+03 5.153736114501953125e+00 3.513739776611328125e+01 2.721845172345638275e-02 -9.650918841361999512e-01 -2.813620269298553467e-01 4.477672651410102844e-02
3.433000000000000000e+03 7.443347930908203125e+01 3.702755355834960938e+01 4.051026329398155212e-02 6.054630756378173828e+00 1.828542232513427734e+00 -7.408697903156280518e-02
3.434000000000000000e+03 7.625270843505859375e+01 3.612200546264648438e+01 1.663702726364135742e-02 6.315446376800537109e+00 1.899625062942504883e+00 -1.033100783824920654e-01
3.435000000000000000e+03 7.340521812438964844e+00 -1.968484687805175781e+01 3.839549422264099121e-01 2.019859552383422852e+00 7.211443781852722168e-01 1.623814702033996582e-01
3.436000000000000000e+03 1.413022804260253906e+01 -6.085280418395996094e+00 -7.597388625144958496e-01 2.241217195987701416e-01 -1.606851518154144287e-01 7.990202307701110840e-01
3.437000000000000000e+03 1.228647994995117188e+01 -5.320344448089599609e+00 -1.000707149505615234e+00 5.638083219528198242e-01 -1.310696452856063843e-01 5.325042605400085449e-01
3.438000000000000000e+03 5.686613082885742188e+01 -3.777873992919921875e+00 -1.471645355224609375e+00 3.323207795619964600e-01 -3.417973518371582031e-01 -3.052278608083724976e-02
3.439000000000000000e+03 7.148004913330078125e+01 -1.944477462768554688e+01 -1.909368336200714111e-01 9.761911392211914062e+00 2.871292352676391602e+00 -4.862892329692840576e-01
3.440000000000000000e+03 1.575284671783447266e+01 2.392625427246093750e+01 9.641847759485244751e-02 -8.192635327577590942e-02 4.347636364400386810e-03 3.614753186702728271e-01
3.441000000000000000e+03 7.475756835937500000e+01 -1.812661933898925781e+01 5.978361889719963074e-02 8.956429481506347656e+00 2.704863786697387695e+00 -1.247791409492492676e+00
3.442000000000000000e+03 7.556208801269531250e+01 -1.743805122375488281e+01 1.749472171068191528e-01 8.253510475158691406e+00 2.528537511825561523e+00 -1.135692596435546875e+00
3.443000000000000000e+03 1.479656791687011719e+01 2.962414932250976562e+01 9.844657778739929199e-02 -2.940487861633300781e-01 -5.868066102266311646e-02 2.430434376001358032e-01
3.444000000000000000e+03 9.235475540161132812e+00 -5.350597381591796875e+00 -1.096806168556213379e+00 1.044831991195678711e+00 -1.559225283563137054e-02 -2.831861972808837891e-01
3.445000000000000000e+03 3.702390670776367188e+01 2.498511314392089844e+01 3.594255745410919189e-01 8.602587580680847168e-01 3.659052848815917969e-01 2.323662042617797852e-01
3.446000000000000000e+03 3.920524215698242188e+01 5.751270294189453125e+00 -2.746633589267730713e-01 7.434813976287841797e-01 1.406453996896743774e-01 4.413420557975769043e-01
3.447000000000000000e+03 7.092972278594970703e+00 3.017235565185546875e+01 1.701143756508827209e-02 -7.595353126525878906e-01 -2.227571755647659302e-01 9.547011554241180420e-02
3.448000000000000000e+03 1.607535552978515625e+01 2.822197723388671875e+01 1.236201301217079163e-01 -2.149119079113006592e-01 -2.738753147423267365e-02 2.954195439815521240e-01
3.449000000000000000e+03 7.555274963378906250e+01 -1.215164947509765625e+01 1.144136548042297363e+00 8.237098693847656250e+00 2.814370632171630859e+00 9.067320823669433594e-02
3.450000000000000000e+03 1.672556304931640625e+01 2.664014625549316406e+01 1.216666772961616516e-01 -1.409610956907272339e-01 -5.788324400782585144e-03 3.442740142345428467e-01
3.451000000000000000e+03 6.740994453430175781e+00 -2.108043098449707031e+01 9.359247982501983643e-02 1.202127575874328613e+00 3.887160420417785645e-01 3.657963573932647705e-01
3.452000000000000000e+03 2.803169441223144531e+01 -1.006372547149658203e+01 -5.076253414154052734e-01 1.013544917106628418e+00 1.517758518457412720e-01 5.305566191673278809e-01
3.453000000000000000e+03 6.017140579223632812e+01 3.662192106246948242e+00 7.875940948724746704e-02 2.191392183303833008e+00 6.810454726219177246e-01 -7.543972134590148926e-01
3.454000000000000000e+03 6.436125755310058594e+00 -6.641976356506347656e+00 -6.674906611442565918e-01 7.871869802474975586e-01 3.590890020132064819e-02 -1.165710926055908203e+00
3.455000000000000000e+03 5.255602264404296875e+01 -4.429106235504150391e+00 -1.329800248146057129e+00 3.429952263832092285e-01 -2.960415184497833252e-01 1.757051944732666016e-01
3.456000000000000000e+03 5.363190460205078125e+01 -4.826100826263427734e+00 -1.486688256263732910e+00 3.250317573547363281e-01 -3.484969437122344971e-01 8.526206016540527344e-02
3.457000000000000000e+03 7.373388671875000000e+01 -4.633354663848876953e+00 -6.914620399475097656e-01 9.689802169799804688e+00 2.699501991271972656e+00 1.393093228340148926e+00
3.458000000000000000e+03 7.389036560058593750e+01 -5.853147029876708984e+00 -2.836595475673675537e-01 9.985054969787597656e+00 2.910418510437011719e+00 1.688288927078247070e+00
3.459000000000000000e+03 7.402808380126953125e+01 -6.944636821746826172e+00 4.073117971420288086e-01 9.621461868286132812e+00 3.008632183074951172e+00 1.796810746192932129e+00
3.460000000000000000e+03 2.558958625793457031e+01 -1.038526058197021484e+00 -6.443525552749633789e-01 5.381340980529785156e-01 -3.186553716659545898e-02 3.586392402648925781e-01
3.461000000000000000e+03 6.075555038452148438e+01 2.735986471176147461e+00 -3.382956981658935547e-02 2.109158992767333984e+00 6.225988268852233887e-01 -8.966255187988281250e-01
3.462000000000000000e+03 9.951643943786621094e+00 -2.636188888549804688e+01 -1.085847988724708557e-01 1.200779795646667480e+00 3.276585042476654053e-01 -8.040223270654678345e-02
3.463000000000000000e+03 7.123918914794921875e+01 -2.687488937377929688e+01 -5.681182146072387695e-01 7.783481121063232422e+00 2.164608955383300781e+00 -9.843057394027709961e-02
3.464000000000000000e+03 7.051499938964843750e+01 -2.608992958068847656e+01 -6.907790303230285645e-01 7.820240497589111328e+00 2.138838529586791992e+00 5.438236147165298462e-02
3.465000000000000000e+03 6.855598449707031250e+01 -2.473622512817382812e+01 -6.751019954681396484e-01 7.300393104553222656e+00 1.987587213516235352e+00 5.653169155120849609e-01
3.466000000000000000e+03 3.455361557006835938e+01 1.354982852935791016e+00 -3.800906538963317871e-01 5.587528944015502930e-01 5.359867215156555176e-02 4.792467355728149414e-01
3.467000000000000000e+03 7.242449188232421875e+01 6.914624214172363281e+00 -2.296081930398941040e-01 7.056653976440429688e+00 2.048113822937011719e+00 -8.051717877388000488e-01
3.468000000000000000e+03 6.531562805175781250e+00 7.305550575256347656e+00 -1.838131844997406006e-01 -1.923197507858276367e-01 -1.128398776054382324e-01 3.506947159767150879e-01
3.469000000000000000e+03 2.637115097045898438e+01 -3.743872046470642090e-01 -5.607585310935974121e-01 5.767182707786560059e-01 4.787909798324108124e-03 3.419460952281951904e-01
3.470000000000000000e+03 6.271311759948730469e+00 2.826089859008789062e+01 1.728453300893306732e-02 -7.916973829269409180e-01 -2.323238551616668701e-01 9.031408280134201050e-02
3.471000000000000000e+03 5.680630874633789062e+01 -1.704115629196166992e+00 -9.462769031524658203e-01 5.896545648574829102e-01 -1.069867089390754700e-01 3.541243821382522583e-02
3.472000000000000000e+03 7.484428405761718750e+00 7.075698375701904297e+00 -2.413955181837081909e-01 -1.776072829961776733e-01 -1.257008463144302368e-01 3.854360878467559814e-01
3.473000000000000000e+03 5.982768535614013672e+00 1.379573535919189453e+01 7.809416204690933228e-02 -5.161190032958984375e-01 -1.314074546098709106e-01 3.875200450420379639e-01
3.474000000000000000e+03 5.088083267211914062e+00 1.074450016021728516e+01 -3.314933553338050842e-02 -3.797027766704559326e-01 -1.238556355237960815e-01 3.739639818668365479e-01
3.475000000000000000e+03 6.664411163330078125e+01 6.229819297790527344e+00 -1.114146634936332703e-01 4.907900810241699219e+00 1.438945770263671875e+00 -1.317722201347351074e+00
3.476000000000000000e+03 6.777942657470703125e+01 1.930296897888183594e+01 2.791711390018463135e-01 5.144258975982666016e+00 1.627029061317443848e+00 -6.407688260078430176e-01
3.477000000000000000e+03 2.832694625854492188e+01 -9.688213348388671875e+00 -5.351196527481079102e-01 9.249629974365234375e-01 1.169530004262924194e-01 5.631838440895080566e-01
3.478000000000000000e+03 2.601499366760253906e+01 -2.581371307373046875e+00 -7.307769060134887695e-01 5.738257765769958496e-01 -4.708532989025115967e-02 3.948512077331542969e-01
3.479000000000000000e+03 5.731536483764648438e+01 -8.562139272689819336e-01 -6.433082818984985352e-01 6.960571408271789551e-01 1.582465320825576782e-02 -1.006833091378211975e-02
3.480000000000000000e+03 6.567279815673828125e+00 2.718203735351562500e+01 2.159342542290687561e-02 -7.448362112045288086e-01 -2.169728279113769531e-01 1.034243702888488770e-01
3.481000000000000000e+03 5.079729557037353516e+00 1.176992034912109375e+01 1.302907057106494904e-02 -4.448216557502746582e-01 -1.295377761125564575e-01 3.715367019176483154e-01
3.482000000000000000e+03 6.855799198150634766e+00 8.308341979980468750e+00 -1.649245768785476685e-01 -2.361663877964019775e-01 -1.203272864222526550e-01 4.067268371582031250e-01
3.483000000000000000e+03 3.683383560180664062e+01 1.748719096183776855e+00 -3.908528983592987061e-01 5.717726945877075195e-01 5.427594482898712158e-02 4.600721299648284912e-01
3.484000000000000000e+03 3.366187286376953125e+01 -1.299067783355712891e+01 -5.606303215026855469e-01 8.016586652956902981e-04 -1.679486036300659180e-01 9.634503722190856934e-02
3.485000000000000000e+03 5.557960033416748047e+00 1.487904548645019531e+01 8.873248100280761719e-02 -5.734302997589111328e-01 -1.454093456268310547e-01 3.326245546340942383e-01
3.486000000000000000e+03 5.590337276458740234e+00 1.619768714904785156e+01 1.092140376567840576e-01 -6.266717314720153809e-01 -1.552373021841049194e-01 2.945570051670074463e-01
3.487000000000000000e+03 7.293750000000000000e+01 1.001377677917480469e+01 -1.378827169537544250e-02 6.917437076568603516e+00 2.071094512939453125e+00 -7.622478604316711426e-01
3.488000000000000000e+03 2.766558265686035156e+01 -1.367308974266052246e+00 -6.171526312828063965e-01 6.323323845863342285e-01 4.553932230919599533e-03 3.858882188796997070e-01
3.489000000000000000e+03 3.770021438598632812e+01 -4.744423925876617432e-01 -5.062674283981323242e-01 5.109620094299316406e-01 1.408361829817295074e-03 4.119868278503417969e-01
3.490000000000000000e+03 5.632290267944335938e+01 -3.011609911918640137e-01 -5.905905961990356445e-01 7.001022100448608398e-01 3.285348787903785706e-02 7.512451708316802979e-02
3.491000000000000000e+03 2.721791458129882812e+01 -1.731572151184082031e+00 -6.504000425338745117e-01 6.257386207580566406e-01 -7.398429792374372482e-03 3.867697715759277344e-01
3.492000000000000000e+03 6.851359844207763672e+00 2.411428070068359375e+01 4.668596014380455017e-02 -6.814710497856140137e-01 -1.904355287551879883e-01 1.262569576501846313e-01
3.493000000000000000e+03 6.923447132110595703e+00 2.534063720703125000e+01 3.826525434851646423e-02 -6.921747922897338867e-01 -1.961728483438491821e-01 1.165325418114662170e-01
3.494000000000000000e+03 2.950205612182617188e+01 -1.043836474418640137e+00 -5.452347993850708008e-01 6.296765208244323730e-01 2.533253096044063568e-02 4.145735502243041992e-01
3.495000000000000000e+03 2.947392082214355469e+01 -9.465293884277343750e+00 -5.190678834915161133e-01 7.692869305610656738e-01 7.506570965051651001e-02 6.111013889312744141e-01
3.496000000000000000e+03 2.822120475769042969e+01 -2.347734689712524414e+00 -6.591598987579345703e-01 6.554839611053466797e-01 -1.102779526263475418e-03 4.167246818542480469e-01
3.497000000000000000e+03 2.928413772583007812e+01 -2.440021991729736328e+00 -6.413840055465698242e-01 6.569338440895080566e-01 4.664950072765350342e-03 4.417052268981933594e-01
3.498000000000000000e+03 6.820996093750000000e+01 2.112918138504028320e+00 -8.917970657348632812e-01 6.017730236053466797e+00 1.537779927253723145e+00 -1.628497719764709473e+00
3.499000000000000000e+03 2.685349845886230469e+01 -4.471486091613769531e+00 -7.521660923957824707e-01 6.540642380714416504e-01 -2.943055145442485809e-02 4.456786215305328369e-01
3.500000000000000000e+03 2.832979202270507812e+01 -5.547052860260009766e+00 -7.225012183189392090e-01 7.161776423454284668e-01 -1.897067064419388771e-03 5.012767910957336426e-01
3.501000000000000000e+03 3.426483154296875000e+01 -2.043542146682739258e+00 -5.531666874885559082e-01 5.481726527214050293e-01 -1.498221885412931442e-03 4.569710493087768555e-01
3.502000000000000000e+03 3.233737945556640625e+01 -1.101347732543945312e+01 -4.054605066776275635e-01 2.645725905895233154e-01 -4.226637631654739380e-02 4.331798255443572998e-01
3.503000000000000000e+03 2.926685714721679688e+01 -6.030184745788574219e+00 -6.946045756340026855e-01 7.103953361511230469e-01 4.737231880426406860e-03 5.321846604347229004e-01
3.504000000000000000e+03 3.009289741516113281e+01 -6.486592292785644531e+00 -6.658729314804077148e-01 6.786802411079406738e-01 3.842196194455027580e-03 5.507076382637023926e-01
3.505000000000000000e+03 2.883251762390136719e+01 -4.614694595336914062e+00 -7.130690813064575195e-01 6.949564218521118164e-01 -5.433783866465091705e-03 4.901440739631652832e-01
3.506000000000000000e+03 3.241057968139648438e+01 -8.450454711914062500e+00 -5.708045363426208496e-01 4.667612016201019287e-01 -3.121300227940082550e-02 5.129001140594482422e-01
3.507000000000000000e+03 3.129286575317382812e+01 -5.868381023406982422e+00 -6.484293341636657715e-01 6.195209622383117676e-01 -8.672513067722320557e-03 5.313506722450256348e-01
3.508000000000000000e+03 1.109471797943115234e+01 -1.421144604682922363e+00 -1.570455193519592285e+00 7.505990564823150635e-02 -4.486185908317565918e-01 2.585088908672332764e-01
3.509000000000000000e+03 1.178201866149902344e+01 -7.772919535636901855e-01 -1.793820500373840332e+00 -9.134107828140258789e-02 -5.655484795570373535e-01 4.157553613185882568e-01
3.510000000000000000e+03 1.027668380737304688e+01 -1.233754158020019531e+00 -1.590436100959777832e+00 1.681475937366485596e-01 -4.266865551471710205e-01 1.663377732038497925e-01
3.511000000000000000e+03 1.217507266998291016e+01 -1.835481405258178711e+00 -1.546172738075256348e+00 4.702641069889068604e-02 -4.497438967227935791e-01 4.357205331325531006e-01
3.512000000000000000e+03 1.247813129425048828e+01 -9.059029817581176758e-01 -1.705720424652099609e+00 -7.936475425958633423e-02 -5.355255603790283203e-01 4.870285391807556152e-01
3.513000000000000000e+03 1.107212448120117188e+01 -6.525825858116149902e-01 -1.718174099922180176e+00 -4.333856701850891113e-02 -5.284538269042968750e-01 3.623067140579223633e-01
3.514000000000000000e+03 1.033004570007324219e+01 -4.842335283756256104e-01 -1.537089228630065918e+00 3.066815435886383057e-02 -4.519263505935668945e-01 2.353422641754150391e-01
3.515000000000000000e+03 1.178715801239013672e+01 -1.412433624267578125e+00 -1.612885713577270508e+00 2.370868623256683350e-02 -4.767531156539916992e-01 4.001814723014831543e-01
3.516000000000000000e+03 1.237739849090576172e+01 -1.387354135513305664e+00 -1.676051616668701172e+00 -6.378793716430664062e-02 -5.219518542289733887e-01 5.067168474197387695e-01
3.517000000000000000e+03 8.700727462768554688e+00 -1.117709517478942871e+00 -1.449010848999023438e+00 1.125418394804000854e-01 -4.009407162666320801e-01 -1.295194588601589203e-02
3.518000000000000000e+03 8.733464241027832031e+00 -3.777095377445220947e-01 -1.644890427589416504e+00 1.885176077485084534e-02 -4.878115952014923096e-01 -1.332510262727737427e-02
3.519000000000000000e+03 9.545720100402832031e+00 -3.852295279502868652e-01 -1.528417229652404785e+00 6.297932565212249756e-02 -4.396313726902008057e-01 8.494465798139572144e-02
3.520000000000000000e+03 7.920477867126464844e+00 -3.782893717288970947e-01 -1.600255846977233887e+00 1.346961874514818192e-02 -4.760358631610870361e-01 -4.961669445037841797e-02
3.521000000000000000e+03 6.325181007385253906e+00 -4.120943248271942139e-01 -1.271075248718261719e+00 -4.119028337299823761e-03 -3.825582861900329590e-01 -1.028797477483749390e-01
3.522000000000000000e+03 5.626715183258056641e+00 -6.589151620864868164e-01 -1.038245201110839844e+00 -4.124135011807084084e-04 -3.115972876548767090e-01 -1.745725572109222412e-01
3.523000000000000000e+03 5.109978199005126953e+00 -1.194857835769653320e+00 -8.083248138427734375e-01 2.291714336024597287e-04 -2.424286901950836182e-01 -3.481728136539459229e-01
3.524000000000000000e+03 4.560545921325683594e+00 -3.007295429706573486e-01 -7.157821655273437500e-01 1.304608769714832306e-02 -2.108208239078521729e-01 -7.898366451263427734e-02
3.525000000000000000e+03 3.814361572265625000e+00 -3.559346497058868408e-01 -4.960095286369323730e-01 1.163226435892283916e-03 -1.484538912773132324e-01 -9.937021136283874512e-02
3.526000000000000000e+03 3.024296522140502930e+00 -3.709946572780609131e-01 -2.781288027763366699e-01 -6.988930515944957733e-03 -8.553531765937805176e-02 -8.961619436740875244e-02
3.527000000000000000e+03 2.217694997787475586e+00 -3.767684400081634521e-01 -1.099947094917297363e-01 -1.525753736495971680e-02 -3.757567331194877625e-02 -6.406876444816589355e-02
3.528000000000000000e+03 1.421629071235656738e+00 -3.827523589134216309e-01 -2.885043807327747345e-02 -1.867674104869365692e-02 -1.425815373659133911e-02 -2.155992388725280762e-02
3.529000000000000000e+03 3.660075068473815918e-01 -9.624075293540954590e-01 -1.840673945844173431e-02 -2.054651454091072083e-02 -1.168597675859928131e-02 -5.834355950355529785e-03
3.530000000000000000e+03 1.049754977226257324e+00 -1.145848751068115234e+00 -5.790014192461967468e-02 -6.236670538783073425e-02 -3.608005493879318237e-02 -5.404247343540191650e-02
3.531000000000000000e+03 9.473914146423339844e+00 -1.125229477882385254e+00 -1.541672587394714355e+00 1.547290831804275513e-01 -4.160830676555633545e-01 8.845313638448715210e-02
3.532000000000000000e+03 7.926810741424560547e+00 -1.118289351463317871e+00 -1.389646410942077637e+00 7.473492622375488281e-02 -3.944734334945678711e-01 -1.455706804990768433e-01
3.533000000000000000e+03 7.156938076019287109e+00 -1.128846406936645508e+00 -1.275869965553283691e+00 5.492363125085830688e-02 -3.662838935852050781e-01 -2.122252732515335083e-01
3.534000000000000000e+03 6.409653186798095703e+00 -1.152094364166259766e+00 -1.122568249702453613e+00 3.682281076908111572e-02 -3.257236480712890625e-01 -3.015627562999725342e-01
3.535000000000000000e+03 5.709451675415039062e+00 -1.214052677154541016e+00 -1.003279924392700195e+00 1.941111870110034943e-02 -2.951606512069702148e-01 -3.387835621833801270e-01
3.536000000000000000e+03 4.692424297332763672e+00 -8.555920124053955078e-01 -7.445808053016662598e-01 1.393741089850664139e-02 -2.191930115222930908e-01 -3.044556379318237305e-01
3.537000000000000000e+03 4.016042709350585938e+00 -1.095934629440307617e+00 -5.690305829048156738e-01 -1.923051103949546814e-02 -1.764783263206481934e-01 -3.171124160289764404e-01
3.538000000000000000e+03 3.265047311782836914e+00 -1.110994696617126465e+00 -3.948773443698883057e-01 -4.527684673666954041e-02 -1.320462524890899658e-01 -2.815397083759307861e-01
3.539000000000000000e+03 2.497515201568603516e+00 -1.116768479347229004e+00 -2.475111037492752075e-01 -6.513066589832305908e-02 -9.379252791404724121e-02 -2.092401385307312012e-01
3.540000000000000000e+03 1.740518808364868164e+00 -1.122752308845520020e+00 -1.179567202925682068e-01 -8.478573709726333618e-02 -6.082273647189140320e-02 -1.347966790199279785e-01
3.541000000000000000e+03 5.208349704742431641e+00 -3.231946229934692383e-01 -9.985162019729614258e-01 -1.466094888746738434e-02 -3.039531409740447998e-01 -9.221802651882171631e-02
3.542000000000000000e+03 6.917955279350280762e-01 -4.058488011360168457e-01 7.658834569156169891e-03 8.900476968847215176e-04 2.564664697274565697e-03 -1.449576858431100845e-02
3.543000000000000000e+03 7.111535072326660156e+00 -3.888463973999023438e-01 -1.463933706283569336e+00 1.873793825507164001e-02 -4.335587322711944580e-01 -8.993335068225860596e-02
3.544000000000000000e+03 2.647183418273925781e+01 -1.582157325744628906e+01 4.005387783050537109e+00 -1.772023588418960571e-01 1.148455619812011719e+00 -1.177418112754821777e+00
3.545000000000000000e+03 2.645876121520996094e+01 -1.583600044250488281e+01 7.874374389648437500e+00 -1.649482607841491699e+00 1.867467522621154785e+00 -3.804627060890197754e-01
3.546000000000000000e+03 2.644874763488769531e+01 -1.585269546508789062e+01 1.020086288452148438e+01 -1.216942787170410156e+00 2.695175886154174805e+00 7.794575095176696777e-01
3.547000000000000000e+03 2.644217681884765625e+01 -1.587102222442626953e+01 1.224210071563720703e+01 -3.204033076763153076e-01 3.576509237289428711e+00 2.446144104003906250e+00
3.548000000000000000e+03 2.643929862976074219e+01 -1.589027690887451172e+01 1.334271812438964844e+01 8.021508455276489258e-01 4.243460655212402344e+00 4.019179344177246094e+00
3.549000000000000000e+03 2.644022369384765625e+01 -1.590972328186035156e+01 1.405740165710449219e+01 3.164199829101562500e+00 5.166480541229248047e+00 5.849110126495361328e+00
3.550000000000000000e+03 2.644491767883300781e+01 -1.592861747741699219e+01 1.358168220520019531e+01 5.005429267883300781e+00 5.576133728027343750e+00 7.392068862915039062e+00
3.551000000000000000e+03 2.645319938659667969e+01 -1.594623661041259766e+01 1.291898250579833984e+01 8.058069229125976562e+00 6.293115139007568359e+00 8.275132179260253906e+00
3.552000000000000000e+03 2.646475410461425781e+01 -1.596190547943115234e+01 1.130073738098144531e+01 1.088965225219726562e+01 6.657116889953613281e+00 8.680722236633300781e+00
3.553000000000000000e+03 2.647913742065429688e+01 -1.597502613067626953e+01 9.809968948364257812e+00 1.334996223449707031e+01 6.947979450225830078e+00 8.282400131225585938e+00
3.554000000000000000e+03 2.649580192565917969e+01 -1.598509407043457031e+01 8.532314300537109375e+00 1.581097602844238281e+01 7.302987098693847656e+00 7.009312629699707031e+00
3.555000000000000000e+03 2.651410484313964844e+01 -1.599172592163085938e+01 7.295058250427246094e+00 1.702739334106445312e+01 7.296735286712646484e+00 5.520838737487792969e+00
3.556000000000000000e+03 2.653334999084472656e+01 -1.599466800689697266e+01 7.295404911041259766e+00 1.789658164978027344e+01 7.557595729827880859e+00 3.503382682800292969e+00
3.557000000000000000e+03 2.655279922485351562e+01 -1.599380588531494141e+01 7.174375534057617188e+00 1.760982894897460938e+01 7.435261249542236328e+00 1.764133810997009277e+00
3.558000000000000000e+03 2.657170867919921875e+01 -1.598917484283447266e+01 8.305833816528320312e+00 1.693358039855957031e+01 7.571824073791503906e+00 2.464210540056228638e-01
3.559000000000000000e+03 2.658935546875000000e+01 -1.598095035552978516e+01 9.347407341003417969e+00 1.567776584625244141e+01 7.507551670074462891e+00 -7.649129629135131836e-01
3.560000000000000000e+03 2.660506248474121094e+01 -1.596944808959960938e+01 1.081093883514404297e+01 1.426185703277587891e+01 7.521838665008544922e+00 -1.204059958457946777e+00
3.561000000000000000e+03 2.661823081970214844e+01 -1.595510768890380859e+01 1.234480476379394531e+01 1.309307575225830078e+01 7.631364345550537109e+00 -1.009814023971557617e+00
3.562000000000000000e+03 2.662835311889648438e+01 -1.593847846984863281e+01 1.352957630157470703e+01 1.171840763092041016e+01 7.574395179748535156e+00 -3.848014473915100098e-01
3.563000000000000000e+03 2.663504600524902344e+01 -1.592019557952880859e+01 1.464693832397460938e+01 1.142442512512207031e+01 7.821409225463867188e+00 7.124814391136169434e-01
3.564000000000000000e+03 2.663805198669433594e+01 -1.590096092224121094e+01 1.513062477111816406e+01 1.101088142395019531e+01 7.842452049255371094e+00 2.177136898040771484e+00
3.565000000000000000e+03 2.663725280761718750e+01 -1.588150882720947266e+01 1.523497772216796875e+01 1.167122650146484375e+01 8.071861267089843750e+00 3.635121107101440430e+00
3.566000000000000000e+03 2.663268470764160156e+01 -1.586258411407470703e+01 1.456915760040283203e+01 1.271594619750976562e+01 8.185531616210937500e+00 5.126466274261474609e+00
3.567000000000000000e+03 2.662451934814453125e+01 -1.584491062164306641e+01 1.338041782379150391e+01 1.451561927795410156e+01 8.368811607360839844e+00 6.232478618621826172e+00
3.568000000000000000e+03 2.661306762695312500e+01 -1.582916545867919922e+01 1.153179931640625000e+01 1.656522369384765625e+01 8.429106712341308594e+00 6.818840980529785156e+00
3.569000000000000000e+03 2.659877014160156250e+01 -1.581595134735107422e+01 9.399362564086914062e+00 1.887241554260253906e+01 8.481533050537109375e+00 6.608475208282470703e+00
3.570000000000000000e+03 2.658217430114746094e+01 -1.580577278137207031e+01 7.170567512512207031e+00 2.089730072021484375e+01 8.420360565185546875e+00 5.575451374053955078e+00
3.571000000000000000e+03 2.656391525268554688e+01 -1.579901981353759766e+01 5.062016010284423828e+00 2.234842491149902344e+01 8.223132133483886719e+00 3.710323095321655273e+00
3.572000000000000000e+03 2.654468917846679688e+01 -1.579595184326171875e+01 3.602397441864013672e+00 2.286880302429199219e+01 7.941359996795654297e+00 1.325649023056030273e+00
3.573000000000000000e+03 2.652523612976074219e+01 -1.579668426513671875e+01 2.745784759521484375e+00 2.221444702148437500e+01 7.488069534301757812e+00 -1.571300029754638672e+00
3.574000000000000000e+03 2.650629615783691406e+01 -1.580119132995605469e+01 2.723355770111083984e+00 2.036209678649902344e+01 6.925635337829589844e+00 -4.264123916625976562e+00
3.575000000000000000e+03 2.648859596252441406e+01 -1.580929946899414062e+01 4.426816463470458984e+00 1.631151199340820312e+01 6.221498489379882812e+00 -7.416164398193359375e+00
