# el_label, x, y, sXX, sYY, sZZ, sXY
1.000000000000000000e+00 1.792077064514160156e+01 -3.372842788696289062e+00 3.130656957626342773e+00 2.091038465499877930e+00 1.566508650779724121e+00 -4.522643566131591797e+00
2.000000000000000000e+00 1.774524879455566406e+01 -3.278985977172851562e+00 6.654104709625244141e+00 1.974991559982299805e+00 2.588728904724121094e+00 -2.902117252349853516e+00
3.000000000000000000e+00 1.756972694396972656e+01 -3.185129165649414062e+00 4.354327201843261719e+00 1.305684328079223633e+00 1.698003411293029785e+00 -2.706812143325805664e+00
4.000000000000000000e+00 1.739420509338378906e+01 -3.091272354125976562e+00 3.955811977386474609e+00 1.246609926223754883e+00 1.560726642608642578e+00 -2.081005096435546875e+00
5.000000000000000000e+00 1.789840126037597656e+01 -3.426795721054077148e+00 1.341245555877685547e+01 1.667143225669860840e+00 4.523879528045654297e+00 -7.377933025360107422e+00
6.000000000000000000e+00 1.770796394348144531e+01 -3.368907690048217773e+00 8.752378463745117188e+00 1.613131523132324219e+00 3.109652996063232422e+00 -3.580670356750488281e+00
7.000000000000000000e+00 1.751752662658691406e+01 -3.311019420623779297e+00 8.442989349365234375e+00 1.144334673881530762e+00 2.876197338104248047e+00 -2.829585313796997070e+00
8.000000000000000000e+00 1.732708930969238281e+01 -3.253130912780761719e+00 6.572305679321289062e+00 7.687684297561645508e-01 2.202322244644165039e+00 -2.490966081619262695e+00
9.000000000000000000e+00 1.788696098327636719e+01 -3.484071969985961914e+00 2.117889213562011719e+01 6.226863339543342590e-02 6.372348308563232422e+00 -4.777437686920166016e+00
1.000000000000000000e+01 1.768889808654785156e+01 -3.464367628097534180e+00 1.405744171142578125e+01 8.215758204460144043e-01 4.463705062866210938e+00 -3.527516126632690430e+00
1.100000000000000000e+01 1.749083518981933594e+01 -3.444663524627685547e+00 1.115017795562744141e+01 5.541512966156005859e-01 3.511298656463623047e+00 -2.267425298690795898e+00
1.200000000000000000e+01 1.729277038574218750e+01 -3.424959182739257812e+00 1.005687141418457031e+01 4.178736209869384766e-01 3.142423629760742188e+00 -1.811198115348815918e+00
1.300000000000000000e+01 1.788689231872558594e+01 -3.542479038238525391e+00 2.647652053833007812e+01 3.859874010086059570e-01 8.058752059936523438e+00 -9.958722591400146484e-01
1.400000000000000000e+01 1.768878364562988281e+01 -3.561712980270385742e+00 1.800530433654785156e+01 1.807989925146102905e-01 5.455831050872802734e+00 -1.097049474716186523e+00
1.500000000000000000e+01 1.749067306518554688e+01 -3.580946922302246094e+00 1.464677238464355469e+01 3.799472153186798096e-01 4.508016109466552734e+00 -9.141189455986022949e-01
1.600000000000000000e+01 1.729256439208984375e+01 -3.600180864334106445e+00 1.233531093597412109e+01 -5.258497968316078186e-02 3.684817790985107422e+00 -4.624350070953369141e-01
1.700000000000000000e+01 1.789819526672363281e+01 -3.599782228469848633e+00 2.874206733703613281e+01 1.890352606773376465e+00 9.189725875854492188e+00 3.753278017044067383e+00
1.800000000000000000e+01 1.770762252807617188e+01 -3.657218217849731445e+00 2.083305931091308594e+01 1.181468486785888672e+00 6.604358196258544922e+00 1.800593495368957520e+00
1.900000000000000000e+01 1.751704788208007812e+01 -3.714654207229614258e+00 1.666439056396484375e+01 6.169824600219726562e-01 5.184411525726318359e+00 1.594617009162902832e+00
2.000000000000000000e+01 1.732647323608398438e+01 -3.772090196609497070e+00 1.441350364685058594e+01 4.791504442691802979e-01 4.467796325683593750e+00 1.421515345573425293e+00
2.100000000000000000e+01 1.792043876647949219e+01 -3.653788089752197266e+00 2.914677429199218750e+01 5.455195426940917969e+00 1.038059139251708984e+01 7.739933967590332031e+00
2.200000000000000000e+01 1.774469375610351562e+01 -3.747228145599365234e+00 2.147905921936035156e+01 3.070687055587768555e+00 7.364923477172851562e+00 5.066178798675537109e+00
2.300000000000000000e+01 1.756894874572753906e+01 -3.840667963027954102e+00 1.787802124023437500e+01 2.227360725402832031e+00 6.031614303588867188e+00 3.999218940734863281e+00
2.400000000000000000e+01 1.739320373535156250e+01 -3.934108018875122070e+00 1.519776916503906250e+01 1.515121579170227051e+00 5.013866901397705078e+00 3.795302629470825195e+00
2.500000000000000000e+01 1.795277023315429688e+01 -3.702430009841918945e+00 2.727054405212402344e+01 9.751831054687500000e+00 1.110671234130859375e+01 1.079357147216796875e+01
2.600000000000000000e+01 1.779858016967773438e+01 -3.828297853469848633e+00 2.124388504028320312e+01 6.364378452301025391e+00 8.282479286193847656e+00 7.486808776855468750e+00
2.700000000000000000e+01 1.764439010620117188e+01 -3.954165697097778320e+00 1.732251548767089844e+01 4.552947998046875000e+00 6.562639236450195312e+00 6.288269519805908203e+00
2.800000000000000000e+01 1.749020004272460938e+01 -4.080033302307128906e+00 1.533476352691650391e+01 3.562276601791381836e+00 5.669112205505371094e+00 5.454946994781494141e+00
2.900000000000000000e+01 1.799395370483398438e+01 -3.743846416473388672e+00 2.511542701721191406e+01 1.490596580505371094e+01 1.200641822814941406e+01 1.198567962646484375e+01
3.000000000000000000e+01 1.786721992492675781e+01 -3.897325038909912109e+00 1.940487098693847656e+01 9.875267982482910156e+00 8.784041404724121094e+00 9.157784461975097656e+00
3.100000000000000000e+01 1.774048614501953125e+01 -4.050803661346435547e+00 1.647376251220703125e+01 7.882187366485595703e+00 7.306785106658935547e+00 7.571454524993896484e+00
3.200000000000000000e+01 1.761375045776367188e+01 -4.204282283782958984e+00 1.383045768737792969e+01 6.229393959045410156e+00 6.017955303192138672e+00 6.678152561187744141e+00
3.300000000000000000e+01 1.804241371154785156e+01 -3.776452064514160156e+00 2.208251762390136719e+01 1.946467208862304688e+01 1.246415710449218750e+01 1.174951648712158203e+01
3.400000000000000000e+01 1.794798469543457031e+01 -3.951668024063110352e+00 1.788103103637695312e+01 1.370664119720458984e+01 9.476302146911621094e+00 9.394311904907226562e+00
3.500000000000000000e+01 1.785355758666992188e+01 -4.126883506774902344e+00 1.450192356109619141e+01 1.105952548980712891e+01 7.668434619903564453e+00 8.134600639343261719e+00
3.600000000000000000e+01 1.775912857055664062e+01 -4.302099704742431641e+00 1.273649692535400391e+01 9.648299217224121094e+00 6.715438842773437500e+00 7.164476394653320312e+00
3.700000000000000000e+01 1.809629440307617188e+01 -3.798999309539794922e+00 2.024721145629882812e+01 2.319702339172363281e+01 1.303327083587646484e+01 1.019096565246582031e+01
3.800000000000000000e+01 1.803778457641601562e+01 -3.989246606826782227e+00 1.584788799285888672e+01 1.700904464721679688e+01 9.857079505920410156e+00 8.535678863525390625e+00
3.900000000000000000e+01 1.797927665710449219e+01 -4.179493904113769531e+00 1.326567077636718750e+01 1.390248584747314453e+01 8.150446891784667969e+00 7.618140697479248047e+00
4.000000000000000000e+01 1.792076873779296875e+01 -4.369741439819335938e+00 1.130431652069091797e+01 1.224530887603759766e+01 7.064887523651123047e+00 6.993185997009277344e+00
4.100000000000000000e+01 1.815353202819824219e+01 -3.810625314712524414e+00 1.896013832092285156e+01 2.561713790893554688e+01 1.337318325042724609e+01 7.706810474395751953e+00
4.200000000000000000e+01 1.813318252563476562e+01 -4.008623123168945312e+00 1.476710510253906250e+01 1.941938400268554688e+01 1.025594615936279297e+01 6.947750091552734375e+00
4.300000000000000000e+01 1.811283302307128906e+01 -4.206621170043945312e+00 1.217877388000488281e+01 1.608835029602050781e+01 8.480137825012207031e+00 6.157364845275878906e+00
4.400000000000000000e+01 1.809248352050781250e+01 -4.404619216918945312e+00 1.051648330688476562e+01 1.361963748931884766e+01 7.240836143493652344e+00 5.768123149871826172e+00
4.500000000000000000e+01 1.821193885803222656e+01 -3.810884714126586914e+00 1.892944717407226562e+01 2.669729423522949219e+01 1.368802261352539062e+01 5.200692653656005859e+00
4.600000000000000000e+01 1.823052787780761719e+01 -4.009056091308593750e+00 1.435383605957031250e+01 2.067839813232421875e+01 1.050967025756835938e+01 4.699533939361572266e+00
4.700000000000000000e+01 1.824911499023437500e+01 -4.207226753234863281e+00 1.196866512298583984e+01 1.718325424194335938e+01 8.745575904846191406e+00 4.401516914367675781e+00
4.800000000000000000e+01 1.826770401000976562e+01 -4.405397891998291016e+00 1.001924896240234375e+01 1.488227939605712891e+01 7.470458507537841797e+00 3.829148292541503906e+00
4.900000000000000000e+01 1.826927757263183594e+01 -3.799768209457397461e+00 1.963088417053222656e+01 2.639312934875488281e+01 1.380720424652099609e+01 2.796527147293090820e+00
5.000000000000000000e+01 1.832609367370605469e+01 -3.990528106689453125e+00 1.502085781097412109e+01 2.091525650024414062e+01 1.078083419799804688e+01 2.681733131408691406e+00
5.100000000000000000e+01 1.838290786743164062e+01 -4.181288242340087891e+00 1.233266735076904297e+01 1.723303413391113281e+01 8.869709968566894531e+00 2.268903970718383789e+00
5.200000000000000000e+01 1.843972206115722656e+01 -4.372047901153564453e+00 1.061063861846923828e+01 1.511303710937500000e+01 7.717102527618408203e+00 2.468779325485229492e+00
5.300000000000000000e+01 1.832335662841796875e+01 -3.777700901031494141e+00 2.136342811584472656e+01 2.543829727172851562e+01 1.404051780700683594e+01 1.227675199508666992e+00
5.400000000000000000e+01 1.841622352600097656e+01 -3.953749179840087891e+00 1.612614822387695312e+01 1.984050369262695312e+01 1.078999519348144531e+01 8.710488080978393555e-01
5.500000000000000000e+01 1.850909042358398438e+01 -4.129797458648681641e+00 1.356784439086914062e+01 1.679489326477050781e+01 9.108821868896484375e+00 8.504623770713806152e-01
5.600000000000000000e+01 1.860195732116699219e+01 -4.305845737457275391e+00 1.185572052001953125e+01 1.393090438842773438e+01 7.735987186431884766e+00 7.074668407440185547e-01
5.700000000000000000e+01 1.837210273742675781e+01 -3.745527267456054688e+00 2.301827430725097656e+01 2.342965316772460938e+01 1.393437862396240234e+01 2.583863139152526855e-01
5.800000000000000000e+01 1.849746894836425781e+01 -3.900126457214355469e+00 1.806802368164062500e+01 1.853066444396972656e+01 1.097960662841796875e+01 8.212284743785858154e-02
5.900000000000000000e+01 1.862283325195312500e+01 -4.054725646972656250e+00 1.492325878143310547e+01 1.515920066833496094e+01 9.024738311767578125e+00 -6.194755807518959045e-02
6.000000000000000000e+01 1.874819755554199219e+01 -4.209324836730957031e+00 1.324374198913574219e+01 1.331909370422363281e+01 7.968850612640380859e+00 -3.556869924068450928e-01
6.100000000000000000e+01 1.841365242004394531e+01 -3.704478740692138672e+00 2.501058387756347656e+01 2.171018791198730469e+01 1.401623153686523438e+01 4.259345233440399170e-01
6.200000000000000000e+01 1.856671905517578125e+01 -3.831712245941162109e+00 1.973459434509277344e+01 1.642286109924316406e+01 1.084723663330078125e+01 9.342185221612453461e-03
6.300000000000000000e+01 1.871978378295898438e+01 -3.958945751190185547e+00 1.672854614257812500e+01 1.372823047637939453e+01 9.137032508850097656e+00 2.100032381713390350e-02
6.400000000000000000e+01 1.887284851074218750e+01 -4.086179256439208984e+00 1.414294147491455078e+01 1.183105659484863281e+01 7.792199611663818359e+00 -1.172112375497817993e-01
6.500000000000000000e+01 1.844641685485839844e+01 -3.656126022338867188e+00 2.657030105590820312e+01 1.962217903137207031e+01 1.385774421691894531e+01 1.408800959587097168e+00
6.600000000000000000e+01 1.862132453918457031e+01 -3.751124382019042969e+00 2.114474105834960938e+01 1.488641738891601562e+01 1.080934715270996094e+01 9.681147336959838867e-01
6.700000000000000000e+01 1.879623222351074219e+01 -3.846122741699218750e+00 1.800263977050781250e+01 1.202310276031494141e+01 9.007722854614257812e+00 7.940317988395690918e-01
6.800000000000000000e+01 1.897113990783691406e+01 -3.941121101379394531e+00 1.569909095764160156e+01 1.024263286590576172e+01 7.782517433166503906e+00 1.009333610534667969e+00
6.900000000000000000e+01 1.846913909912109375e+01 -3.602319478988647461e+00 2.751384162902832031e+01 1.813241195678710938e+01 1.369387626647949219e+01 3.144118070602416992e+00
7.000000000000000000e+01 1.865919494628906250e+01 -3.661447048187255859e+00 2.177378845214843750e+01 1.368179798126220703e+01 1.063667583465576172e+01 2.780159235000610352e+00
7.100000000000000000e+01 1.884925270080566406e+01 -3.720574617385864258e+00 1.844330787658691406e+01 1.102684593200683594e+01 8.841046333312988281e+00 2.134753227233886719e+00
7.200000000000000000e+01 1.903930854797363281e+01 -3.779702186584472656e+00 1.688700866699218750e+01 8.942165374755859375e+00 7.748752117156982422e+00 2.020851373672485352e+00
7.300000000000000000e+01 1.848095130920410156e+01 -3.545118808746337891e+00 2.728200531005859375e+01 1.722369194030761719e+01 1.335170936584472656e+01 5.389774322509765625e+00
7.400000000000000000e+01 1.867888259887695312e+01 -3.566112518310546875e+00 2.165348625183105469e+01 1.329953002929687500e+01 1.048590469360351562e+01 4.955968856811523438e+00
7.500000000000000000e+01 1.887681388854980469e+01 -3.587106227874755859e+00 1.787635231018066406e+01 1.083203220367431641e+01 8.612515449523925781e+00 4.072427272796630859e+00
7.600000000000000000e+01 1.907474517822265625e+01 -3.608100175857543945e+00 1.587430572509765625e+01 8.746690750122070312e+00 7.386299133300781250e+00 3.060282230377197266e+00
7.700000000000000000e+01 1.848140144348144531e+01 -3.486712932586669922e+00 2.616833877563476562e+01 1.787541770935058594e+01 1.321312713623046875e+01 8.079216003417968750e+00
7.800000000000000000e+01 1.867963218688964844e+01 -3.468769550323486328e+00 2.002268218994140625e+01 1.324268150329589844e+01 9.979609489440917969e+00 6.872219562530517578e+00
7.900000000000000000e+01 1.887786293029785156e+01 -3.450825929641723633e+00 1.692063331604003906e+01 1.171891498565673828e+01 8.591864585876464844e+00 6.158149719238281250e+00
8.000000000000000000e+01 1.907609367370605469e+01 -3.432882547378540039e+00 1.371834945678710938e+01 9.475665092468261719e+00 6.958204269409179688e+00 5.030269145965576172e+00
8.100000000000000000e+01 1.847047233581542969e+01 -3.429337263107299805e+00 2.335870552062988281e+01 1.841935157775878906e+01 1.253341770172119141e+01 1.035273551940917969e+01
8.200000000000000000e+01 1.866141510009765625e+01 -3.373143196105957031e+00 1.763862800598144531e+01 1.515059661865234375e+01 9.836767196655273438e+00 8.460292816162109375e+00
8.300000000000000000e+01 1.885235977172851562e+01 -3.316949129104614258e+00 1.460993671417236328e+01 1.196751403808593750e+01 7.973235130310058594e+00 7.444675922393798828e+00
8.400000000000000000e+01 1.904330253601074219e+01 -3.260755062103271484e+00 1.337476158142089844e+01 1.141610336303710938e+01 7.437259197235107422e+00 6.908872604370117188e+00
8.500000000000000000e+01 1.844857978820800781e+01 -3.375187158584594727e+00 1.963735771179199219e+01 2.075933837890625000e+01 1.211900901794433594e+01 1.173890876770019531e+01
8.600000000000000000e+01 1.862492942810058594e+01 -3.282893180847167969e+00 1.428239822387695312e+01 1.656019020080566406e+01 9.252776145935058594e+00 9.220193862915039062e+00
8.700000000000000000e+01 1.880127906799316406e+01 -3.190599203109741211e+00 1.193009185791015625e+01 1.376319026947021484e+01 7.707984924316406250e+00 7.941804885864257812e+00
8.800000000000000000e+01 1.897762870788574219e+01 -3.098305225372314453e+00 1.103565216064453125e+01 1.193881797790527344e+01 6.892341136932373047e+00 6.660122871398925781e+00
8.900000000000000000e+01 1.841656494140625000e+01 -3.326335668563842773e+00 1.511370277404785156e+01 2.340245819091796875e+01 1.155484867095947266e+01 1.180845546722412109e+01
9.000000000000000000e+01 1.857157135009765625e+01 -3.201473951339721680e+00 1.048386192321777344e+01 1.824337387084960938e+01 8.618170738220214844e+00 8.964549064636230469e+00
9.100000000000000000e+01 1.872657585144042969e+01 -3.076612234115600586e+00 9.122035980224609375e+00 1.533972644805908203e+01 7.338529109954833984e+00 7.234895706176757812e+00
9.200000000000000000e+01 1.888158226013183594e+01 -2.951750516891479492e+00 6.657405376434326172e+00 1.334413909912109375e+01 6.000463485717773438e+00 6.295510292053222656e+00
9.300000000000000000e+01 1.837565231323242188e+01 -3.284651994705200195e+00 9.919567108154296875e+00 2.551419448852539062e+01 1.063012790679931641e+01 1.057714653015136719e+01
9.400000000000000000e+01 1.850338172912597656e+01 -3.132001161575317383e+00 7.384082794189453125e+00 1.976449394226074219e+01 8.144573211669921875e+00 7.281650066375732422e+00
9.500000000000000000e+01 1.863111114501953125e+01 -2.979350328445434570e+00 5.440332889556884766e+00 1.632248115539550781e+01 6.528843879699707031e+00 5.915473937988281250e+00
9.600000000000000000e+01 1.875884246826171875e+01 -2.826699495315551758e+00 4.936601638793945312e+00 1.438691329956054688e+01 5.797054767608642578e+00 5.642926692962646484e+00
9.700000000000000000e+01 1.832740592956542969e+01 -3.251731395721435547e+00 6.013349056243896484e+00 2.697918319702148438e+01 9.897759437561035156e+00 7.699589252471923828e+00
9.800000000000000000e+01 1.842297172546386719e+01 -3.077133655548095703e+00 4.088397502899169922e+00 2.011936759948730469e+01 7.262330055236816406e+00 4.877179145812988281e+00
9.900000000000000000e+01 1.851853752136230469e+01 -2.902535915374755859e+00 3.301020145416259766e+00 1.674711227416992188e+01 6.014439582824707031e+00 3.979563236236572266e+00
1.000000000000000000e+02 1.861410331726074219e+01 -2.727938175201416016e+00 3.102275609970092773e+00 1.391726398468017578e+01 5.105861663818359375e+00 3.377779722213745117e+00
1.010000000000000000e+02 1.827367210388183594e+01 -3.228834152221679688e+00 2.867001056671142578e+00 2.670345687866210938e+01 8.871137619018554688e+00 3.839190483093261719e+00
1.020000000000000000e+02 1.833341789245605469e+01 -3.038971424102783203e+00 2.077598810195922852e+00 1.943597221374511719e+01 6.454071521759033203e+00 2.054110527038574219e+00
1.030000000000000000e+02 1.839316177368164062e+01 -2.849108695983886719e+00 1.889355659484863281e+00 1.564241600036621094e+01 5.259531497955322266e+00 1.478655338287353516e+00
1.040000000000000000e+02 1.845290756225585938e+01 -2.659245967864990234e+00 1.439407229423522949e+00 1.350751686096191406e+01 4.484077453613281250e+00 1.046105027198791504e+00
1.050000000000000000e+02 1.821651077270507812e+01 -3.216835975646972656e+00 1.169444441795349121e+00 2.449978446960449219e+01 7.700768947601318359e+00 -2.494450956583023071e-01
1.060000000000000000e+02 1.823814773559570312e+01 -3.018974781036376953e+00 1.322177767753601074e+00 1.712386703491210938e+01 5.533813476562500000e+00 -7.345105409622192383e-01
1.070000000000000000e+02 1.825978469848632812e+01 -2.821113109588623047e+00 1.027924418449401855e+00 1.373328399658203125e+01 4.428362369537353516e+00 -9.270257949829101562e-01
1.080000000000000000e+02 1.828142166137695312e+01 -2.623251676559448242e+00 1.187512993812561035e+00 1.167289638519287109e+01 3.858122825622558594e+00 -6.806968450546264648e-01
1.090000000000000000e+02 1.815810775756835938e+01 -3.216196775436401367e+00 1.221421360969543457e+00 2.030849075317382812e+01 6.458973884582519531e+00 -3.543033838272094727e+00
1.100000000000000000e+02 1.814080619812011719e+01 -3.017908811569213867e+00 1.162664532661437988e+00 1.360151863098144531e+01 4.429255008697509766e+00 -3.072135925292968750e+00
1.110000000000000000e+02 1.812350845336914062e+01 -2.819621086120605469e+00 1.359097123146057129e+00 1.066321277618408203e+01 3.606693029403686523e+00 -2.422011375427246094e+00
1.120000000000000000e+02 1.810620880126953125e+01 -2.621333599090576172e+00 1.194451808929443359e+00 8.947484970092773438e+00 3.042581081390380859e+00 -2.200465917587280273e+00
1.130000000000000000e+02 1.810069656372070312e+01 -3.226940393447875977e+00 2.057386636734008789e+00 1.439522266387939453e+01 4.935782909393310547e+00 -5.724851131439208984e+00
1.140000000000000000e+02 1.804512214660644531e+01 -3.035815000534057617e+00 1.770395874977111816e+00 9.141776084899902344e+00 3.273651599884033203e+00 -3.899540424346923828e+00
1.150000000000000000e+02 1.798954963684082031e+01 -2.844689607620239258e+00 1.807430982589721680e+00 7.091703414916992188e+00 2.669740438461303711e+00 -3.205786228179931641e+00
1.160000000000000000e+02 1.793397521972656250e+01 -2.653564453125000000e+00 1.649169325828552246e+00 5.965821743011474609e+00 2.284497261047363281e+00 -2.588712453842163086e+00
1.170000000000000000e+02 1.804647636413574219e+01 -3.248655796051025391e+00 2.876544237136840820e+00 7.689375400543212891e+00 3.169775962829589844e+00 -5.520624160766601562e+00
1.180000000000000000e+02 1.795475578308105469e+01 -3.072007656097412109e+00 2.340696811676025391e+00 4.311255455017089844e+00 1.995585680007934570e+00 -3.572875738143920898e+00
1.190000000000000000e+02 1.786303329467773438e+01 -2.895359277725219727e+00 1.974103450775146484e+00 3.659680128097534180e+00 1.690135121345520020e+00 -2.362672567367553711e+00
1.200000000000000000e+02 1.777131271362304688e+01 -2.718710899353027344e+00 1.718051314353942871e+00 3.536202669143676758e+00 1.576276183128356934e+00 -2.296735048294067383e+00
1.210000000000000000e+02 1.799752044677734375e+01 -3.280512094497680664e+00 3.087567567825317383e+00 2.039401978254318237e-01 9.874523282051086426e-01 -3.367166280746459961e+00
1.220000000000000000e+02 1.787316322326660156e+01 -3.125101327896118164e+00 1.377209186553955078e+00 5.737798213958740234e-01 5.852966904640197754e-01 -9.527415037155151367e-01
1.230000000000000000e+02 1.774880409240722656e+01 -2.969690561294555664e+00 1.299791097640991211e+00 1.679915308952331543e+00 8.939118981361389160e-01 -1.345148801803588867e+00
1.240000000000000000e+02 1.762444686889648438e+01 -2.814279794692993164e+00 1.305639266967773438e+00 1.021412491798400879e+00 6.981155276298522949e-01 -1.148407816886901855e+00
1.250000000000000000e+02 1.795570373535156250e+01 -3.321290016174316406e+00 -2.320579290390014648e+00 -5.250081539154052734e+00 -2.271198272705078125e+00 2.851755142211914062e+00
1.260000000000000000e+02 1.780346870422363281e+01 -3.193064689636230469e+00 -5.055991411209106445e-01 2.681514322757720947e-01 -7.123430818319320679e-02 5.393211841583251953e-01
1.270000000000000000e+02 1.765123367309570312e+01 -3.064839124679565430e+00 -2.872624099254608154e-01 -5.799820423126220703e-01 -2.601733207702636719e-01 2.637269794940948486e-01
1.280000000000000000e+02 1.749899864196777344e+01 -2.936613798141479492e+00 -3.685098141431808472e-02 -9.528075158596038818e-02 -3.963952139019966125e-02 1.910790503025054932e-01
1.290000000000000000e+02 1.572525978088378906e+01 -2.000291109085083008e+00 6.312189102172851562e-01 1.066021919250488281e-01 2.213463336229324341e-01 -2.494529336690902710e-01
1.300000000000000000e+02 1.722357749938964844e+01 -2.994317531585693359e+00 3.320800065994262695e+00 8.868758082389831543e-01 1.262302756309509277e+00 -1.860392689704895020e+00
1.310000000000000000e+02 1.779176139831542969e+01 -4.785902023315429688e+00 8.782012939453125000e+00 8.733692169189453125e+00 5.254711627960205078e+00 6.103399276733398438e+00
1.320000000000000000e+02 1.838376235961914062e+01 -4.835347175598144531e+00 7.382143497467041016e+00 1.164727592468261719e+01 5.708825588226318359e+00 2.616298913955688477e+00
1.330000000000000000e+02 1.924456596374511719e+01 -4.198948383331298828e+00 1.191900825500488281e+01 8.377972602844238281e+00 6.089094161987304688e+00 6.704892516136169434e-01
1.340000000000000000e+02 1.936187934875488281e+01 -3.543605089187622070e+00 1.283215999603271484e+01 7.695872783660888672e+00 6.158409595489501953e+00 3.869302272796630859e+00
1.350000000000000000e+02 1.918190765380859375e+01 -2.621927499771118164e+00 5.162378311157226562e+00 1.055827903747558594e+01 4.716197013854980469e+00 5.349023342132568359e+00
1.360000000000000000e+02 1.885659790039062500e+01 -2.624855756759643555e+00 4.357308864593505859e+00 1.201254367828369141e+01 4.910955429077148438e+00 4.600220203399658203e+00
1.370000000000000000e+02 1.831509780883789062e+01 -4.671494483947753906e+00 8.543561935424804688e+00 1.310855484008789062e+01 6.495635032653808594e+00 3.290121078491210938e+00
1.380000000000000000e+02 1.513059329986572266e+01 -3.126796245574951172e+00 3.561244249343872070e+00 -4.637748897075653076e-01 9.292408227920532227e-01 3.208822309970855713e-01
1.390000000000000000e+02 1.549183464050292969e+01 -3.336599111557006836e+00 4.645393848419189453e+00 -6.266571879386901855e-01 1.205621004104614258e+00 2.325066924095153809e-01
1.400000000000000000e+02 1.743986701965332031e+01 -4.349200725555419922e+00 1.260316753387451172e+01 4.510791778564453125e+00 5.134187698364257812e+00 6.002570629119873047e+00
1.410000000000000000e+02 1.708625030517578125e+01 -3.385173797607421875e+00 8.250114440917968750e+00 1.660623773932456970e-02 2.480016231536865234e+00 -1.537021994590759277e+00
1.420000000000000000e+02 1.612516021728515625e+01 -3.812889575958251953e+00 7.409536361694335938e+00 -6.667248606681823730e-01 2.022843360900878906e+00 9.532437920570373535e-01
1.430000000000000000e+02 1.643807220458984375e+01 -6.440408825874328613e-01 7.304685115814208984e-01 1.223713397979736328e+00 5.862545967102050781e-01 -1.093572497367858887e+00
1.440000000000000000e+02 1.660243225097656250e+01 -7.510308027267456055e-01 7.909789085388183594e-01 1.254507422447204590e+00 6.136459112167358398e-01 -1.147582173347473145e+00
1.450000000000000000e+02 1.625411415100097656e+01 -1.037199378013610840e+00 8.135902881622314453e-01 7.004433274269104004e-01 4.542100727558135986e-01 -8.568211793899536133e-01
1.460000000000000000e+02 1.602300262451171875e+01 -1.874402284622192383e+00 4.036884605884552002e-01 1.760558485984802246e-01 1.739232987165451050e-01 -2.413972616195678711e-01
1.470000000000000000e+02 1.753281593322753906e+01 -2.351585626602172852e+00 1.540751695632934570e+00 2.438357114791870117e+00 1.193732619285583496e+00 -1.726305603981018066e+00
1.480000000000000000e+02 1.726705741882324219e+01 -1.532281875610351562e+00 1.171394467353820801e+00 2.136087656021118164e+00 9.922446608543395996e-01 -1.420575261116027832e+00
1.490000000000000000e+02 1.868391418457031250e+01 -2.513555049896240234e+00 2.206258535385131836e+00 1.219744586944580078e+01 4.321111202239990234e+00 2.455610752105712891e+00
1.500000000000000000e+02 1.584864044189453125e+01 -1.771248936653137207e+00 4.318459630012512207e-01 1.535388380289077759e-01 1.756154447793960571e-01 -2.757352590560913086e-01
1.510000000000000000e+02 1.604108047485351562e+01 -1.380550146102905273e+00 6.527820229530334473e-01 3.311766684055328369e-01 2.951876223087310791e-01 -5.109666585922241211e-01
1.520000000000000000e+02 1.707901763916015625e+01 -1.093906044960021973e+00 1.056015968322753906e+00 1.967960357666015625e+00 9.071928858757019043e-01 -1.338220000267028809e+00
1.530000000000000000e+02 1.686823272705078125e+01 -2.427955389022827148e+00 2.690690159797668457e-01 2.777458168566226959e-02 8.905307948589324951e-02 -1.357728242874145508e-01
1.540000000000000000e+02 1.724085044860839844e+01 -1.210411548614501953e+00 1.092442512512207031e+00 2.299705743789672852e+00 1.017644524574279785e+00 -1.401196360588073730e+00
1.550000000000000000e+02 1.718980407714843750e+01 -2.683008193969726562e+00 1.387839615345001221e-01 -1.653453521430492401e-02 3.667482733726501465e-02 -3.497120738029479980e-02
1.560000000000000000e+02 1.734591674804687500e+01 -2.809353590011596680e+00 6.626347452402114868e-02 -1.572795212268829346e-01 -2.730481512844562531e-02 1.739126630127429962e-02
1.570000000000000000e+02 1.902167320251464844e+01 -2.783892631530761719e+00 5.785588741302490234e+00 1.239215755462646484e+01 5.453323841094970703e+00 6.205238342285156250e+00
1.580000000000000000e+02 1.849415206909179688e+01 -2.424187660217285156e+00 1.343330383300781250e+00 1.139627933502197266e+01 3.821882963180541992e+00 8.454978466033935547e-01
1.590000000000000000e+02 1.828892707824707031e+01 -2.397437572479248047e+00 9.553676843643188477e-01 9.899700164794921875e+00 3.256520271301269531e+00 -8.288338184356689453e-01
1.600000000000000000e+02 1.787317085266113281e+01 -2.445417404174804688e+00 1.401791810989379883e+00 5.343729972839355469e+00 2.023656606674194336e+00 -2.310117006301879883e+00
1.610000000000000000e+02 1.749555969238281250e+01 -2.658721208572387695e+00 1.184553742408752441e+00 1.066042184829711914e+00 6.751787662506103516e-01 -1.066389083862304688e+00
1.620000000000000000e+02 1.687628364562988281e+01 -2.789891004562377930e+00 2.471218347549438477e+00 4.909888505935668945e-01 8.886620998382568359e-01 -1.342134952545166016e+00
1.630000000000000000e+02 1.707331275939941406e+01 -3.600991964340209961e+00 1.074625587463378906e+01 -1.021305024623870850e-01 3.193237781524658203e+00 -3.704207241535186768e-01
1.640000000000000000e+02 1.710711669921875000e+01 -3.815132856369018555e+00 1.234687805175781250e+01 -7.073964923620223999e-02 3.682841539382934570e+00 1.454540371894836426e+00
1.650000000000000000e+02 1.716501426696777344e+01 -4.021512508392333984e+00 1.315030574798583984e+01 9.416518211364746094e-01 4.227587223052978516e+00 3.179286479949951172e+00
1.660000000000000000e+02 1.884698486328125000e+01 -4.326961040496826172e+00 1.211025810241699219e+01 1.191740322113037109e+01 7.208298206329345703e+00 -5.078163146972656250e-01
1.670000000000000000e+02 1.867454147338867188e+01 -4.437244892120361328e+00 1.101507091522216797e+01 1.270303440093994141e+01 7.115431785583496094e+00 4.715502858161926270e-01
1.680000000000000000e+02 1.585067939758300781e+01 -3.370539426803588867e+00 5.349502086639404297e+00 -7.133880853652954102e-01 1.390834093093872070e+00 4.024018347263336182e-02
1.690000000000000000e+02 1.562734603881835938e+01 -2.192936658859252930e+00 1.163608670234680176e+00 -6.930120289325714111e-02 3.282922208309173584e-01 -4.481279551982879639e-01
1.700000000000000000e+02 1.788279724121093750e+01 -4.577045440673828125e+00 9.855133056640625000e+00 1.087108325958251953e+01 6.217864990234375000e+00 6.487109184265136719e+00
1.710000000000000000e+02 1.762053680419921875e+01 -4.473128795623779297e+00 1.092458915710449219e+01 7.300400257110595703e+00 5.467496871948242188e+00 6.365964889526367188e+00
1.720000000000000000e+02 1.849094772338867188e+01 -4.512762069702148438e+00 9.702706336975097656e+00 1.296828746795654297e+01 6.801298141479492188e+00 2.577159881591796875e+00
1.730000000000000000e+02 1.905700492858886719e+01 -4.537199974060058594e+00 1.016528129577636719e+01 1.007512092590332031e+01 6.072120666503906250e+00 -3.992293477058410645e-01
1.740000000000000000e+02 1.739399337768554688e+01 -4.627583503723144531e+00 1.034761524200439453e+01 4.888473987579345703e+00 4.570827007293701172e+00 5.893839836120605469e+00
1.750000000000000000e+02 1.688674354553222656e+01 -3.285848140716552734e+00 6.832390785217285156e+00 1.583285778760910034e-01 2.097215890884399414e+00 -1.405866026878356934e+00
1.760000000000000000e+02 1.685228347778320312e+01 -3.832733869552612305e+00 1.077251911163330078e+01 -1.799129992723464966e-01 3.177781820297241211e+00 1.127715468406677246e+00
1.770000000000000000e+02 1.581665897369384766e+01 -3.583888292312622070e+00 5.924565315246582031e+00 -6.757359504699707031e-01 1.574648737907409668e+00 4.213379621505737305e-01
1.780000000000000000e+02 1.597642230987548828e+01 -3.700306177139282227e+00 6.500174999237060547e+00 -7.696754336357116699e-01 1.719149827957153320e+00 4.803022146224975586e-01
1.790000000000000000e+02 1.727991104125976562e+01 -4.204495906829833984e+00 1.294141197204589844e+01 2.408450841903686523e+00 4.604959011077880859e+00 4.989585399627685547e+00
1.800000000000000000e+02 1.854670143127441406e+01 -4.609344005584716797e+00 8.577382087707519531e+00 1.227602767944335938e+01 6.256022930145263672e+00 2.301854848861694336e+00
1.810000000000000000e+02 1.908163642883300781e+01 -4.054435729980468750e+00 1.378647994995117188e+01 9.014869689941406250e+00 6.840404987335205078e+00 1.192208290100097656e+00
1.820000000000000000e+02 1.838648605346679688e+01 -2.008421182632446289e+00 9.179930090904235840e-01 8.449407577514648438e+00 2.810220241546630859e+00 -3.527796268463134766e-01
1.830000000000000000e+02 1.917806625366210938e+01 -3.927642107009887695e+00 1.534700107574462891e+01 8.368088722229003906e+00 7.114527225494384766e+00 1.629669189453125000e+00
1.840000000000000000e+02 1.772369575500488281e+01 -1.543329596519470215e+00 1.029150605201721191e+00 4.042352676391601562e+00 1.521450877189636230e+00 -1.543668866157531738e+00
1.850000000000000000e+02 1.806079483032226562e+01 -2.224476575851440430e+00 1.124233722686767578e+00 7.186349868774414062e+00 2.493175029754638672e+00 -1.752866387367248535e+00
1.860000000000000000e+02 1.937284088134765625e+01 -3.236418962478637695e+00 1.133632183074951172e+01 7.771350383758544922e+00 5.732301712036132812e+00 5.269422054290771484e+00
1.870000000000000000e+02 1.805752563476562500e+01 -1.765061140060424805e+00 9.498497247695922852e-01 5.865390300750732422e+00 2.044572114944458008e+00 -1.297936558723449707e+00
1.880000000000000000e+02 1.767107009887695312e+01 -2.526209115982055664e+00 1.652081489562988281e+00 2.889840364456176758e+00 1.362576484680175781e+00 -1.986236929893493652e+00
1.890000000000000000e+02 1.921297073364257812e+01 -2.939937114715576172e+00 7.547470569610595703e+00 9.741070747375488281e+00 5.186562538146972656e+00 5.293925285339355469e+00
1.900000000000000000e+02 1.926375007629394531e+01 -3.733076572418212891e+00 1.554572486877441406e+01 7.909451007843017578e+00 7.036552906036376953e+00 2.389871358871459961e+00
1.910000000000000000e+02 1.788983154296875000e+01 -1.655441641807556152e+00 9.812181591987609863e-01 4.885276794433593750e+00 1.759948492050170898e+00 -1.485284090042114258e+00
1.920000000000000000e+02 1.727474594116210938e+01 -1.998538136482238770e+00 1.321095585823059082e+00 1.693556308746337891e+00 9.043955802917480469e-01 -1.375367999076843262e+00
1.930000000000000000e+02 1.810697746276855469e+01 -2.054120540618896484e+00 1.031462669372558594e+00 6.829755783081054688e+00 2.358365535736083984e+00 -1.445147752761840820e+00
1.940000000000000000e+02 1.822404861450195312e+01 -1.874006032943725586e+00 8.250944018363952637e-01 6.929679393768310547e+00 2.326432228088378906e+00 -1.039678812026977539e+00
1.950000000000000000e+02 1.856077575683593750e+01 -2.139235496520996094e+00 1.137759685516357422e+00 9.674863815307617188e+00 3.243787050247192383e+00 5.347238183021545410e-01
1.960000000000000000e+02 1.543242549896240234e+01 -2.576232433319091797e+00 2.263769626617431641e+00 -2.619397044181823730e-01 6.005489826202392578e-01 -3.591073751449584961e-01
1.970000000000000000e+02 1.627972221374511719e+01 -2.642661094665527344e+00 2.233559131622314453e+00 1.880263239145278931e-01 7.264755964279174805e-01 -8.995890617370605469e-01
1.980000000000000000e+02 1.643546676635742188e+01 -2.725420236587524414e+00 2.572314262390136719e+00 3.739267289638519287e-01 8.838723301887512207e-01 -9.152160882949829102e-01
1.990000000000000000e+02 1.552980327606201172e+01 -2.385904788970947266e+00 1.697405815124511719e+00 1.168737858533859253e-01 5.442838668823242188e-01 -4.219582974910736084e-01
2.000000000000000000e+02 1.579641819000244141e+01 -2.311445951461791992e+00 1.407892704010009766e+00 1.394781023263931274e-01 4.642112255096435547e-01 -4.482855498790740967e-01
2.010000000000000000e+02 1.612178802490234375e+01 -2.535853862762451172e+00 2.019007444381713867e+00 2.721709907054901123e-01 6.873535513877868652e-01 -7.047164440155029297e-01
2.020000000000000000e+02 1.679857254028320312e+01 -2.996881723403930664e+00 4.153335571289062500e+00 5.637018084526062012e-01 1.415111184120178223e+00 -1.493803739547729492e+00
2.030000000000000000e+02 1.670219993591308594e+01 -2.308529376983642578e+00 3.160209059715270996e-01 8.063945919275283813e-02 1.189981102943420410e-01 -1.643013060092926025e-01
2.040000000000000000e+02 1.702986335754394531e+01 -2.555096387863159180e+00 2.214788794517517090e-01 1.485384255647659302e-02 7.089981436729431152e-02 -7.407835870981216431e-02
2.050000000000000000e+02 1.684157371520996094e+01 -4.260612010955810547e+00 1.105158615112304688e+01 6.387562155723571777e-01 3.507102727890014648e+00 3.625503301620483398e+00
2.060000000000000000e+02 1.667018699645996094e+01 -4.147556304931640625e+00 1.007472038269042969e+01 -5.512329936027526855e-02 3.005878925323486328e+00 2.448303937911987305e+00
2.070000000000000000e+02 1.714480018615722656e+01 -3.183500289916992188e+00 5.781900405883789062e+00 7.601788043975830078e-01 1.962623834609985352e+00 -2.040173530578613281e+00
2.080000000000000000e+02 1.703515625000000000e+01 -4.368744850158691406e+00 1.139377593994140625e+01 1.622263669967651367e+00 3.904811859130859375e+00 4.366032123565673828e+00
2.090000000000000000e+02 1.649856567382812500e+01 -4.014386653900146484e+00 9.091236114501953125e+00 -4.318664968013763428e-01 2.597810983657836914e+00 1.790721774101257324e+00
2.100000000000000000e+02 1.565720081329345703e+01 -3.463320016860961914e+00 5.188560962677001953e+00 -7.676491737365722656e-01 1.326273560523986816e+00 1.144865825772285461e-01
2.110000000000000000e+02 1.539630603790283203e+01 -3.044034004211425781e+00 3.645807743072509766e+00 -3.957820832729339600e-01 9.750077128410339355e-01 2.267110906541347504e-02
2.120000000000000000e+02 1.530390739440917969e+01 -3.236005544662475586e+00 3.991417646408081055e+00 -6.994059085845947266e-01 9.876035451889038086e-01 1.324746906757354736e-01
2.130000000000000000e+02 1.614431190490722656e+01 -1.217034101486206055e+00 7.741164565086364746e-01 5.305054783821105957e-01 3.913865685462951660e-01 -7.072796821594238281e-01
2.140000000000000000e+02 1.648739051818847656e+01 -1.851525425910949707e+00 7.560480237007141113e-01 3.351440429687500000e-01 3.273576200008392334e-01 -5.203823447227478027e-01
2.150000000000000000e+02 1.622558975219726562e+01 -1.403488636016845703e+00 7.899475097656250000e-01 4.787894189357757568e-01 3.806210756301879883e-01 -6.305096745491027832e-01
2.160000000000000000e+02 1.619038772583007812e+01 -1.982064008712768555e+00 3.684894144535064697e-01 1.463659405708312988e-01 1.544566005468368530e-01 -2.468740940093994141e-01
2.170000000000000000e+02 1.676037025451660156e+01 -8.629748821258544922e-01 8.925986886024475098e-01 1.483705163002014160e+00 7.128911614418029785e-01 -1.204969644546508789e+00
2.180000000000000000e+02 1.634206390380859375e+01 -8.324131965637207031e-01 7.195093035697937012e-01 9.588145017623901367e-01 5.034971237182617188e-01 -9.532010555267333984e-01
2.190000000000000000e+02 1.793240928649902344e+01 -1.976730108261108398e+00 1.101612210273742676e+00 5.476202964782714844e+00 1.973344564437866211e+00 -1.706040620803833008e+00
2.200000000000000000e+02 1.691693305969238281e+01 -9.783506989479064941e-01 9.384887218475341797e-01 1.696851372718811035e+00 7.906020283699035645e-01 -1.275589942932128906e+00
2.210000000000000000e+02 1.710460472106933594e+01 -1.424208521842956543e+00 1.159555315971374512e+00 1.872965216636657715e+00 9.097561836242675781e-01 -1.327302575111389160e+00
2.220000000000000000e+02 1.763355636596679688e+01 -2.010380268096923828e+00 1.448379278182983398e+00 3.754664897918701172e+00 1.560913205146789551e+00 -1.946555376052856445e+00
2.230000000000000000e+02 1.698851013183593750e+01 -1.787840843200683594e+00 1.185808181762695312e+00 1.149810552597045898e+00 7.006856203079223633e-01 -1.115154147148132324e+00
2.240000000000000000e+02 1.808241271972656250e+01 -2.419228076934814453e+00 1.129608511924743652e+00 7.829618453979492188e+00 2.687768220901489258e+00 -1.936920404434204102e+00
2.250000000000000000e+02 1.741597938537597656e+01 -1.637415409088134766e+00 1.274786353111267090e+00 2.653743028640747070e+00 1.178558826446533203e+00 -1.607532143592834473e+00
2.260000000000000000e+02 1.622285079956054688e+01 -2.335691452026367188e+00 1.147556662559509277e+00 2.505696415901184082e-01 4.194379150867462158e-01 -6.158131957054138184e-01
2.270000000000000000e+02 1.635850524902343750e+01 -2.090143680572509766e+00 3.583509624004364014e-01 1.426681131124496460e-01 1.503057181835174561e-01 -2.242280244827270508e-01
2.280000000000000000e+02 1.653064918518066406e+01 -2.196671962738037109e+00 3.370460271835327148e-01 9.271819144487380981e-02 1.289292722940444946e-01 -2.101082354784011841e-01
2.290000000000000000e+02 1.615434837341308594e+01 -1.646515130996704102e+00 6.632436513900756836e-01 2.874175608158111572e-01 2.851983606815338135e-01 -4.345522820949554443e-01
2.300000000000000000e+02 1.659588432312011719e+01 -3.289883852005004883e+00 6.176817417144775391e+00 -1.152375787496566772e-01 1.818474054336547852e+00 -1.034557938575744629e+00
2.310000000000000000e+02 1.558127212524414062e+01 -3.095337867736816406e+00 3.988003253936767578e+00 -6.305543780326843262e-01 1.007234692573547363e+00 -1.779035329818725586e-01
2.320000000000000000e+02 1.645044326782226562e+01 -3.113003015518188477e+00 4.842102527618408203e+00 2.132947929203510284e-02 1.459029555320739746e+00 -1.106269001960754395e+00
2.330000000000000000e+02 1.550580501556396484e+01 -2.892856836318969727e+00 3.336516141891479492e+00 -3.751454651355743408e-01 8.884112238883972168e-01 -3.641184568405151367e-01
2.340000000000000000e+02 1.605843353271484375e+01 -2.225103378295898438e+00 9.652095437049865723e-01 2.883208990097045898e-01 3.760591447353363037e-01 -4.596271812915802002e-01
2.350000000000000000e+02 1.785730171203613281e+01 -2.208826065063476562e+00 1.380768299102783203e+00 5.100869655609130859e+00 1.944491386413574219e+00 -2.055613517761230469e+00
2.360000000000000000e+02 1.683205413818359375e+01 -1.446485996246337891e+00 1.151724576950073242e+00 1.239822387695312500e+00 7.174640893936157227e-01 -1.146498322486877441e+00
2.370000000000000000e+02 1.757215309143066406e+01 -1.752947330474853516e+00 1.279520511627197266e+00 3.258169889450073242e+00 1.361307024955749512e+00 -1.705011487007141113e+00
2.380000000000000000e+02 1.667693710327148438e+01 -1.938133358955383301e+00 8.547295331954956055e-01 4.429273605346679688e-01 3.892970681190490723e-01 -6.090521812438964844e-01
2.390000000000000000e+02 1.650674629211425781e+01 -9.231055378913879395e-01 8.225360512733459473e-01 1.109021306037902832e+00 5.794671773910522461e-01 -1.033833503723144531e+00
2.400000000000000000e+02 1.695231437683105469e+01 -1.585069656372070312e+00 1.264157414436340332e+00 1.388783574104309082e+00 7.958822846412658691e-01 -1.247703909873962402e+00
2.410000000000000000e+02 1.617785263061523438e+01 -2.870404243469238281e+00 3.505964517593383789e+00 8.180607855319976807e-02 1.076331138610839844e+00 -8.185883164405822754e-01
2.420000000000000000e+02 1.582671737670898438e+01 -3.091777086257934570e+00 4.187776088714599609e+00 -2.674515545368194580e-01 1.176097393035888672e+00 -4.536209404468536377e-01
2.430000000000000000e+02 1.582982635498046875e+01 -2.817818641662597656e+00 3.091613054275512695e+00 -2.752563953399658203e-01 8.449069857597351074e-01 -5.568554401397705078e-01
2.440000000000000000e+02 1.687567329406738281e+01 -2.048167943954467773e+00 9.935245513916015625e-01 5.976213216781616211e-01 4.773437678813934326e-01 -7.489271759986877441e-01
2.450000000000000000e+02 1.720274925231933594e+01 -2.352428674697875977e+00 1.124585151672363281e+00 8.232447504997253418e-01 5.843489766120910645e-01 -9.203406572341918945e-01
2.460000000000000000e+02 1.685292243957519531e+01 -3.610307216644287109e+00 9.314781188964843750e+00 -4.444746375083923340e-01 2.661092042922973633e+00 -1.986425071954727173e-01
2.470000000000000000e+02 1.561879539489746094e+01 -2.724570035934448242e+00 2.783426523208618164e+00 -7.589467614889144897e-02 8.122595548629760742e-01 -4.758256077766418457e-01
2.480000000000000000e+02 1.533097171783447266e+01 -2.757012128829956055e+00 2.764259099960327148e+00 -2.636024355888366699e-01 7.501969933509826660e-01 -3.009936511516571045e-01
2.490000000000000000e+02 1.645571327209472656e+01 -1.368824124336242676e+00 9.463437199592590332e-01 6.946427226066589355e-01 4.922959506511688232e-01 -8.209303617477416992e-01
2.500000000000000000e+02 1.586970329284667969e+01 -2.610874652862548828e+00 2.320182800292968750e+00 3.394553810358047485e-02 7.062385082244873047e-01 -5.884076952934265137e-01
2.510000000000000000e+02 1.721665000915527344e+01 -1.766190648078918457e+00 1.330439329147338867e+00 1.813615679740905762e+00 9.432165026664733887e-01 -1.384953498840332031e+00
2.520000000000000000e+02 1.609198188781738281e+01 -3.370667934417724609e+00 5.784783840179443359e+00 -4.820512831211090088e-01 1.590819716453552246e+00 -2.945701777935028076e-01
2.530000000000000000e+02 1.775299263000488281e+01 -1.866295814514160156e+00 1.235661625862121582e+00 4.371905326843261719e+00 1.682270050048828125e+00 -1.769724130630493164e+00
2.540000000000000000e+02 1.678004455566406250e+01 -1.167138218879699707e+00 1.036890506744384766e+00 1.309669375419616699e+00 7.039679884910583496e-01 -1.146065592765808105e+00
2.550000000000000000e+02 1.663649177551269531e+01 -1.037702798843383789e+00 9.189975261688232422e-01 1.150163054466247559e+00 6.207481622695922852e-01 -1.088343620300292969e+00
2.560000000000000000e+02 1.595600223541259766e+01 -1.572669506072998047e+00 5.537456274032592773e-01 2.554745972156524658e-01 2.427660822868347168e-01 -3.793281316757202148e-01
2.570000000000000000e+02 1.645912933349609375e+01 -1.115432977676391602e+00 8.715363740921020508e-01 9.064917564392089844e-01 5.334084630012512207e-01 -9.284424781799316406e-01
2.580000000000000000e+02 1.589230537414550781e+01 -2.113745212554931641e+00 7.717140913009643555e-01 1.255168616771697998e-01 2.691692709922790527e-01 -4.108580648899078369e-01
2.590000000000000000e+02 1.638531875610351562e+01 -2.443400859832763672e+00 1.416514635086059570e+00 4.122558534145355225e-01 5.486311316490173340e-01 -6.892542839050292969e-01
2.600000000000000000e+02 1.654665184020996094e+01 -2.550709962844848633e+00 1.662256121635437012e+00 3.970990777015686035e-01 6.178065538406372070e-01 -9.048097133636474609e-01
2.610000000000000000e+02 1.670475006103515625e+01 -2.672884702682495117e+00 2.179115533828735352e+00 6.007115244865417480e-01 8.339480757713317871e-01 -9.751796126365661621e-01
2.620000000000000000e+02 1.570347309112548828e+01 -2.512621641159057617e+00 2.050074100494384766e+00 -1.223218664526939392e-01 5.783256888389587402e-01 -5.391411185264587402e-01
2.630000000000000000e+02 1.522981071472167969e+01 -2.937836170196533203e+00 3.222550392150878906e+00 -4.972173273563385010e-01 8.175999522209167480e-01 -1.203454434871673584e-01
2.640000000000000000e+02 1.630077171325683594e+01 -3.902793169021606445e+00 8.146282196044921875e+00 -7.304618358612060547e-01 2.224745988845825195e+00 1.185298562049865723e+00
2.650000000000000000e+02 1.614694595336914062e+01 -3.609644889831542969e+00 6.718558788299560547e+00 -7.583531141281127930e-01 1.788061738014221191e+00 3.489327728748321533e-01
2.660000000000000000e+02 1.660262489318847656e+01 -3.781601428985595703e+00 9.103612899780273438e+00 -5.831551551818847656e-01 2.556137323379516602e+00 7.345468401908874512e-01
2.670000000000000000e+02 1.663030052185058594e+01 -3.007138490676879883e+00 4.171984195709228516e+00 1.588666290044784546e-01 1.299255251884460449e+00 -1.268443942070007324e+00
2.680000000000000000e+02 1.688835525512695312e+01 -4.056498527526855469e+00 1.117803192138671875e+01 1.375352293252944946e-01 3.394670248031616211e+00 2.686513662338256836e+00
2.690000000000000000e+02 1.721028137207031250e+01 -4.501210212707519531e+00 1.093751907348632812e+01 3.302722215652465820e+00 4.272072315216064453e+00 5.639995574951171875e+00
2.700000000000000000e+02 1.812257194519042969e+01 -4.595077037811279297e+00 9.572731018066406250e+00 1.201975536346435547e+01 6.477746009826660156e+00 4.676890850067138672e+00
2.710000000000000000e+02 1.697070693969726562e+01 -3.091186285018920898e+00 4.828992366790771484e+00 3.822201788425445557e-01 1.563363790512084961e+00 -1.750048637390136719e+00
2.720000000000000000e+02 1.705541419982910156e+01 -2.891820192337036133e+00 2.902254819869995117e+00 9.077169895172119141e-01 1.142991542816162109e+00 -1.512817621231079102e+00
2.730000000000000000e+02 1.695147132873535156e+01 -1.283134341239929199e+00 1.092604875564575195e+00 1.578652501106262207e+00 8.013771772384643555e-01 -1.244082689285278320e+00
2.740000000000000000e+02 1.632427787780761719e+01 -1.752929329872131348e+00 7.012885212898254395e-01 3.121510744094848633e-01 3.040318787097930908e-01 -4.536560475826263428e-01
2.750000000000000000e+02 1.705258369445800781e+01 -2.183312892913818359e+00 1.074006557464599609e+00 7.290175557136535645e-01 5.409072041511535645e-01 -8.436995148658752441e-01
2.760000000000000000e+02 1.735411643981933594e+01 -2.507613182067871094e+00 1.182255148887634277e+00 8.519797921180725098e-01 6.102704405784606934e-01 -9.823992252349853516e-01
2.770000000000000000e+02 1.740234375000000000e+01 -1.320932269096374512e+00 1.126393198966979980e+00 2.674739599227905273e+00 1.140339851379394531e+00 -1.505117535591125488e+00
2.780000000000000000e+02 1.756264495849609375e+01 -1.431179642677307129e+00 1.061173796653747559e+00 3.277228593826293945e+00 1.301520705223083496e+00 -1.528199434280395508e+00
2.790000000000000000e+02 1.823650741577148438e+01 -2.181595325469970703e+00 9.978550672531127930e-01 8.487577438354492188e+00 2.845629692077636719e+00 -9.832569360733032227e-01
2.800000000000000000e+02 1.874287414550781250e+01 -2.245928764343261719e+00 1.764346480369567871e+00 1.067181205749511719e+01 3.730847597122192383e+00 2.029557466506958008e+00
2.810000000000000000e+02 1.891703796386718750e+01 -2.357850074768066406e+00 2.705901622772216797e+00 1.045095825195312500e+01 3.947057962417602539e+00 2.943895816802978516e+00
2.820000000000000000e+02 1.872570419311523438e+01 -4.536850452423095703e+00 1.042202377319335938e+01 1.133621406555175781e+01 6.527471542358398438e+00 5.176138281822204590e-01
2.830000000000000000e+02 1.893240356445312500e+01 -4.416284561157226562e+00 1.150830268859863281e+01 1.177639579772949219e+01 6.985409736633300781e+00 -6.134737133979797363e-01
2.840000000000000000e+02 1.676429367065429688e+01 -3.435378074645996094e+00 7.878742218017578125e+00 -2.179612964391708374e-01 2.298234224319458008e+00 -8.435182571411132812e-01
2.850000000000000000e+02 1.829858589172363281e+01 -4.556628227233886719e+00 8.849955558776855469e+00 1.461273765563964844e+01 7.038808345794677734e+00 3.798001527786254883e+00
2.860000000000000000e+02 1.945339775085449219e+01 -3.917898178100585938e+00 1.331908130645751953e+01 7.143220901489257812e+00 6.138690948486328125e+00 1.472067832946777344e+00
2.870000000000000000e+02 1.596254920959472656e+01 -2.422246217727661133e+00 1.669881463050842285e+00 8.106074482202529907e-02 5.252826809883117676e-01 -6.374534964561462402e-01
2.880000000000000000e+02 1.600699615478515625e+01 -2.734481573104858398e+00 2.878200292587280273e+00 -1.069063320755958557e-02 8.602529168128967285e-01 -7.668069601058959961e-01
2.890000000000000000e+02 1.738206481933593750e+01 -2.193055391311645508e+00 1.391238808631896973e+00 1.779254674911499023e+00 9.511480331420898438e-01 -1.458770275115966797e+00
2.900000000000000000e+02 1.748613548278808594e+01 -1.941462755203247070e+00 1.457163214683532715e+00 2.771573781967163086e+00 1.268621087074279785e+00 -1.728975176811218262e+00
2.910000000000000000e+02 1.871315574645996094e+01 -4.691556930541992188e+00 8.508494377136230469e+00 1.086435127258300781e+01 5.811853885650634766e+00 1.300333857536315918e+00
2.920000000000000000e+02 1.665896224975585938e+01 -3.577278614044189453e+00 8.358665466308593750e+00 -2.552697658538818359e-01 2.431018829345703125e+00 -8.423503488302230835e-02
2.930000000000000000e+02 1.637133598327636719e+01 -3.667939662933349609e+00 7.497020721435546875e+00 -4.977147579193115234e-01 2.099791765213012695e+00 3.924434185028076172e-01
2.940000000000000000e+02 1.765900230407714844e+01 -2.175235033035278320e+00 1.402472734451293945e+00 3.535404920578002930e+00 1.481363296508789062e+00 -1.873278975486755371e+00
2.950000000000000000e+02 1.655848503112792969e+01 -2.837537050247192383e+00 3.223407268524169922e+00 3.776833713054656982e-01 1.080327153205871582e+00 -1.232385516166687012e+00
2.960000000000000000e+02 1.645961570739746094e+01 -3.452827692031860352e+00 7.101789474487304688e+00 -5.252094864845275879e-01 1.972974061965942383e+00 -4.799265861511230469e-01
2.970000000000000000e+02 1.752546310424804688e+01 -2.088074922561645508e+00 1.343079090118408203e+00 2.610937595367431641e+00 1.186205029487609863e+00 -1.720555901527404785e+00
2.980000000000000000e+02 1.667834663391113281e+01 -1.365469098091125488e+00 1.025697827339172363e+00 1.004452228546142578e+00 6.090450286865234375e-01 -1.001051425933837891e+00
2.990000000000000000e+02 1.907206153869628906e+01 -4.220677852630615234e+00 1.234659576416015625e+01 1.030269622802734375e+01 6.794787406921386719e+00 1.316419690847396851e-01
3.000000000000000000e+02 1.898130798339843750e+01 -4.182875633239746094e+00 1.311901283264160156e+01 1.151029777526855469e+01 7.388793468475341797e+00 -3.428925275802612305e-01
3.010000000000000000e+02 1.638476181030273438e+01 -2.910113811492919922e+00 3.795021295547485352e+00 2.613853197544813156e-03 1.139290571212768555e+00 -1.010161638259887695e+00
3.020000000000000000e+02 1.609144783020019531e+01 -3.119449138641357422e+00 4.451516151428222656e+00 -3.730961084365844727e-01 1.223526000976562500e+00 -6.823576688766479492e-01
3.030000000000000000e+02 1.628404617309570312e+01 -3.264986276626586914e+00 5.482259750366210938e+00 -2.940487563610076904e-01 1.556463241577148438e+00 -5.541080832481384277e-01
3.040000000000000000e+02 1.672431373596191406e+01 -3.158077239990234375e+00 5.376432895660400391e+00 1.326866447925567627e-01 1.652735829353332520e+00 -1.355083465576171875e+00
3.050000000000000000e+02 1.649873352050781250e+01 -1.623340487480163574e+00 9.181106686592102051e-01 5.163542628288269043e-01 4.303394854068756104e-01 -6.868245601654052734e-01
3.060000000000000000e+02 1.669233322143554688e+01 -1.563469529151916504e+00 1.071799516677856445e+00 8.054687380790710449e-01 5.631804466247558594e-01 -8.885839581489562988e-01
3.070000000000000000e+02 1.680808067321777344e+01 -1.721273779869079590e+00 1.051684141159057617e+00 7.710979580879211426e-01 5.468345880508422852e-01 -8.802449107170104980e-01
3.080000000000000000e+02 1.568385887145996094e+01 -1.576735854148864746e+00 4.309549331665039062e-01 1.258966773748397827e-01 1.670554876327514648e-01 -2.522339522838592529e-01
3.090000000000000000e+02 1.534087753295898438e+01 -8.861004114151000977e-01 3.050195872783660889e-01 3.355090320110321045e-01 1.921585798263549805e-01 -4.641627967357635498e-01
3.100000000000000000e+02 1.511202335357666016e+01 -2.564600408077239990e-01 1.383957862854003906e-01 5.298346877098083496e-01 2.004691511392593384e-01 -6.675207614898681641e-01
3.110000000000000000e+02 1.440828323364257812e+01 2.847739309072494507e-02 -1.833813190460205078e-01 4.267250895500183105e-01 7.300312817096710205e-02 -5.301597714424133301e-01
3.120000000000000000e+02 1.578608417510986328e+01 -8.091477751731872559e-01 5.609678030014038086e-01 5.620263218879699707e-01 3.368982374668121338e-01 -7.293599843978881836e-01
3.130000000000000000e+02 1.605026817321777344e+01 -4.976761639118194580e-01 5.174676179885864258e-01 8.664254546165466309e-01 4.151679277420043945e-01 -9.768849611282348633e-01
3.140000000000000000e+02 1.366771697998046875e+01 3.206754326820373535e-01 -4.375882148742675781e-01 3.350522518157958984e-01 -3.076079115271568298e-02 -3.823533952236175537e-01
3.150000000000000000e+02 1.487662220001220703e+01 -7.174475193023681641e-01 9.636439383029937744e-02 2.705876529216766357e-01 1.100856065750122070e-01 -3.652629554271697998e-01
3.160000000000000000e+02 1.542523384094238281e+01 -1.192939877510070801e+00 3.051190674304962158e-01 2.626812160015106201e-01 1.703400909900665283e-01 -3.358832001686096191e-01
3.170000000000000000e+02 1.350505542755126953e+01 -1.458575278520584106e-01 -5.255056619644165039e-01 1.851844340562820435e-01 -1.020963713526725769e-01 -1.872782409191131592e-01
3.180000000000000000e+02 1.334450626373291016e+01 -6.146667599678039551e-01 -6.227964758872985840e-01 -1.172852423042058945e-02 -1.903575062751770020e-01 9.197027981281280518e-02
3.190000000000000000e+02 1.588435363769531250e+01 -1.297849774360656738e+00 5.832961201667785645e-01 3.333342969417572021e-01 2.749891281127929688e-01 -4.856557846069335938e-01
3.200000000000000000e+02 1.601332855224609375e+01 -9.397639036178588867e-01 6.807410120964050293e-01 5.735718011856079102e-01 3.762938380241394043e-01 -7.818861603736877441e-01
3.210000000000000000e+02 1.607303047180175781e+01 -7.477499246597290039e-01 6.307644844055175781e-01 7.045045495033264160e-01 4.005807042121887207e-01 -8.804052472114562988e-01
3.220000000000000000e+02 1.560370063781738281e+01 -1.008545041084289551e+00 4.757653772830963135e-01 4.290129840373992920e-01 2.714335024356842041e-01 -5.450335144996643066e-01
3.230000000000000000e+02 1.594434928894042969e+01 -1.126241087913513184e+00 6.618359684944152832e-01 4.515548348426818848e-01 3.340172469615936279e-01 -6.743280291557312012e-01
3.240000000000000000e+02 1.472906970977783203e+01 -1.184251427650451660e+00 2.143533900380134583e-02 4.815728962421417236e-02 2.087778784334659576e-02 -1.024825796484947205e-01
3.250000000000000000e+02 1.421717739105224609e+01 -4.330842792987823486e-01 -2.232050746679306030e-01 2.199282795190811157e-01 -9.830375202000141144e-04 -2.616810500621795654e-01
3.260000000000000000e+02 1.576125621795654297e+01 -1.176838159561157227e+00 5.114519596099853516e-01 3.938482999801635742e-01 2.715900838375091553e-01 -5.510042905807495117e-01
3.270000000000000000e+02 1.564976692199707031e+01 -1.345075488090515137e+00 3.949059545993804932e-01 2.400745749473571777e-01 1.904941499233245850e-01 -3.397158384323120117e-01
3.280000000000000000e+02 1.579180526733398438e+01 -1.456190228462219238e+00 5.053866505622863770e-01 2.712510228157043457e-01 2.329913079738616943e-01 -3.863304853439331055e-01
3.290000000000000000e+02 1.404471397399902344e+01 -8.972605466842651367e-01 -2.612753808498382568e-01 5.554728209972381592e-02 -6.171842664480209351e-02 -3.558659227564930916e-03
3.300000000000000000e+02 1.557553958892822266e+01 -5.501509904861450195e-01 3.660809099674224854e-01 5.999130606651306152e-01 2.897982001304626465e-01 -7.126458883285522461e-01
3.310000000000000000e+02 1.534286308288574219e+01 -1.472731113433837891e+00 2.822239100933074951e-01 1.325380951166152954e-01 1.244286000728607178e-01 -1.887082755565643311e-01
3.320000000000000000e+02 1.047505664825439453e+01 6.683910489082336426e-01 -1.199349761009216309e+00 -7.619066536426544189e-02 -3.826621174812316895e-01 1.102346107363700867e-01
3.330000000000000000e+02 1.040263843536376953e+01 1.755863428115844727e-01 -1.601308703422546387e+00 -9.469050914049148560e-02 -5.087997913360595703e-01 2.843753695487976074e-01
3.340000000000000000e+02 1.188277149200439453e+01 -1.925573348999023438e-01 -1.171496152877807617e+00 -3.639360144734382629e-02 -3.623669445514678955e-01 2.226187139749526978e-01
3.350000000000000000e+02 1.276221656799316406e+01 9.379556030035018921e-02 -7.658583521842956543e-01 1.004243195056915283e-01 -1.996302157640457153e-01 -6.015044078230857849e-02
3.360000000000000000e+02 1.262208366394042969e+01 -3.806734085083007812e-01 -9.557992815971374512e-01 -1.784781180322170258e-02 -2.920941114425659180e-01 1.617782413959503174e-01
3.370000000000000000e+02 1.290184593200683594e+01 5.656616687774658203e-01 -6.544989943504333496e-01 2.642617225646972656e-01 -1.170711889863014221e-01 -2.624735832214355469e-01
3.380000000000000000e+02 1.133245182037353516e+01 9.622381329536437988e-01 -9.182281494140625000e-01 9.486446529626846313e-02 -2.470090985298156738e-01 -2.998077310621738434e-02
3.390000000000000000e+02 1.054735755920410156e+01 1.157260775566101074e+00 -8.995274901390075684e-01 -3.743157722055912018e-03 -2.709811925888061523e-01 9.351733326911926270e-02
3.400000000000000000e+02 1.123795795440673828e+01 4.817123413085937500e-01 -1.151149868965148926e+00 3.189908713102340698e-02 -3.357752561569213867e-01 1.167692691087722778e-01
3.410000000000000000e+02 1.211728477478027344e+01 7.641302943229675293e-01 -8.218431472778320312e-01 1.769229173660278320e-01 -1.934760659933090210e-01 -9.444794803857803345e-02
3.420000000000000000e+02 1.114270305633544922e+01 -7.157493382692337036e-03 -1.345435261726379395e+00 -4.677805677056312561e-02 -4.176639914512634277e-01 2.871085107326507568e-01
3.430000000000000000e+02 1.200059986114501953e+01 2.892924845218658447e-01 -9.720279574394226074e-01 6.565993279218673706e-02 -2.719103991985321045e-01 4.546635970473289490e-02
3.440000000000000000e+02 9.692094802856445312e+00 8.465116024017333984e-01 -1.097481250762939453e+00 -6.799492239952087402e-02 -3.496428430080413818e-01 1.950288861989974976e-01
3.450000000000000000e+02 9.597756385803222656e+00 3.285874724388122559e-01 -1.540396451950073242e+00 -5.760857090353965759e-02 -4.794014990329742432e-01 1.649999022483825684e-01
3.460000000000000000e+02 7.147254943847656250e+00 3.961493074893951416e-01 -8.892902135848999023e-01 1.894986256957054138e-03 -2.662185728549957275e-01 8.060673624277114868e-02
3.470000000000000000e+02 5.261425971984863281e+00 1.137234568595886230e+00 -4.357238709926605225e-01 -1.634644530713558197e-02 -1.356211006641387939e-01 1.938634067773818970e-01
3.480000000000000000e+02 4.827496528625488281e+00 3.991442322731018066e-01 -4.261185526847839355e-01 -6.132670678198337555e-03 -1.296753734350204468e-01 6.830111891031265259e-02
3.490000000000000000e+02 2.921556234359741211e+00 1.139463305473327637e+00 -1.545095741748809814e-01 -2.880133874714374542e-02 -5.499327182769775391e-02 1.207660734653472900e-01
3.500000000000000000e+02 2.510025739669799805e+00 4.014092087745666504e-01 -9.418085962533950806e-02 -6.542211864143610001e-03 -3.021692112088203430e-02 3.315028548240661621e-02
3.510000000000000000e+02 2.142880916595458984e+00 1.141409158706665039e+00 -8.764812350273132324e-02 -3.644438460469245911e-02 -3.722775354981422424e-02 8.517598360776901245e-02
3.520000000000000000e+02 1.378073334693908691e+00 1.136731863021850586e+00 -4.090367630124092102e-02 -3.164997324347496033e-02 -2.176609449088573456e-02 4.411067068576812744e-02
3.530000000000000000e+02 1.752244353294372559e+00 3.967319130897521973e-01 -3.499847650527954102e-02 -8.449487388134002686e-03 -1.303438935428857803e-02 1.862156577408313751e-02
3.540000000000000000e+02 6.815608143806457520e-01 1.112031579017639160e+00 -1.353965792804956436e-02 -1.297003962099552155e-02 -7.952908985316753387e-03 1.368808746337890625e-02
3.550000000000000000e+02 3.728979229927062988e-01 5.564903616905212402e-01 1.767517678672447801e-04 3.412112127989530563e-04 1.553889014758169651e-04 -2.413439360680058599e-04
3.560000000000000000e+02 4.054538249969482422e+00 3.993419408798217773e-01 -2.949356734752655029e-01 -3.444822272285819054e-03 -8.951415121555328369e-02 5.801831558346748352e-02
3.570000000000000000e+02 3.281674861907958984e+00 3.994633555412292480e-01 -1.827534288167953491e-01 -8.097027428448200226e-03 -5.725513398647308350e-02 4.813508316874504089e-02
3.580000000000000000e+02 4.481430530548095703e+00 1.139144182205200195e+00 -3.302859663963317871e-01 -1.726651191711425781e-02 -1.042657494544982910e-01 1.750465184450149536e-01
3.590000000000000000e+02 6.373499870300292969e+00 3.967097401618957520e-01 -7.273561358451843262e-01 -5.302499514073133469e-03 -2.197975814342498779e-01 7.991687208414077759e-02
3.600000000000000000e+02 6.822267532348632812e+00 1.136149287223815918e+00 -6.667158603668212891e-01 -1.009755395352840424e-02 -2.030440270900726318e-01 2.172251790761947632e-01
3.610000000000000000e+02 7.928435325622558594e+00 3.924178183078765869e-01 -1.067227721214294434e+00 -8.954921737313270569e-03 -3.228547871112823486e-01 9.161006659269332886e-02
3.620000000000000000e+02 8.742504119873046875e+00 3.900450766086578369e-01 -1.261110663414001465e+00 1.031375490128993988e-03 -3.780237734317779541e-01 9.645276516675949097e-02
3.630000000000000000e+02 8.431569099426269531e+00 1.130045056343078613e+00 -8.996236920356750488e-01 -1.229520794004201889e-02 -2.735756635665893555e-01 2.263307571411132812e-01
3.640000000000000000e+02 9.150160789489746094e+00 1.216511607170104980e+00 -9.405782222747802734e-01 -6.226708367466926575e-02 -3.008536100387573242e-01 2.394164949655532837e-01
3.650000000000000000e+02 9.799925804138183594e+00 1.277924060821533203e+00 -8.676573634147644043e-01 -1.514553371816873550e-02 -2.648408710956573486e-01 1.788342446088790894e-01
3.660000000000000000e+02 7.610474586486816406e+00 1.132417798042297363e+00 -7.847446203231811523e-01 -8.596171624958515167e-03 -2.380022406578063965e-01 2.204628735780715942e-01
3.670000000000000000e+02 1.062758088111877441e+00 3.720315396785736084e-01 -5.432248115539550781e-03 -3.677632194012403488e-03 -2.732964232563972473e-03 4.422823432832956314e-03
3.680000000000000000e+02 6.041486263275146484e+00 1.136709809303283691e+00 -5.474167466163635254e-01 -8.620132692158222198e-03 -1.668110638856887817e-01 2.060442864894866943e-01
3.690000000000000000e+02 3.701446056365966797e+00 1.139341950416564941e+00 -2.352077811956405640e-01 -2.596116997301578522e-02 -7.835068553686141968e-02 1.519568264484405518e-01
3.700000000000000000e+02 5.600465774536132812e+00 3.972344994544982910e-01 -5.703622102737426758e-01 -3.747801238205283880e-04 -1.712211072444915771e-01 7.264698296785354614e-02
3.710000000000000000e+02 1.456234264373779297e+01 -2.053987741470336914e+00 8.891855478286743164e-01 -1.915505528450012207e-01 2.092904895544052124e-01 3.208254277706146240e-02
3.720000000000000000e+02 1.380339336395263672e+01 -2.406011581420898438e+00 1.424486637115478516e+00 -3.291341066360473633e-01 3.286057710647583008e-01 3.906715512275695801e-01
3.730000000000000000e+02 1.299670314788818359e+01 -1.991621136665344238e+00 5.798611044883728027e-01 -3.361450135707855225e-01 7.311481982469558716e-02 3.612686693668365479e-01
3.740000000000000000e+02 1.504099464416503906e+01 -1.867948770523071289e+00 6.335849761962890625e-01 -6.922150403261184692e-02 1.693090349435806274e-01 -2.143803685903549194e-01
3.750000000000000000e+02 1.493471908569335938e+01 -2.892809867858886719e+00 2.953213691711425781e+00 -4.603095948696136475e-01 7.478712797164916992e-01 2.397229662165045738e-03
3.760000000000000000e+02 1.500869560241699219e+01 -2.430050134658813477e+00 1.779818534851074219e+00 -2.606343030929565430e-01 4.557552635669708252e-01 -9.461281448602676392e-02
3.770000000000000000e+02 1.528500747680664062e+01 -2.255738735198974609e+00 1.417904734611511230e+00 -1.236418411135673523e-01 3.882788717746734619e-01 -3.277572393417358398e-01
3.780000000000000000e+02 1.537549400329589844e+01 -1.841148018836975098e+00 4.765356779098510742e-01 4.388117790222167969e-02 1.561250537633895874e-01 -1.658280342817306519e-01
3.790000000000000000e+02 1.393085765838623047e+01 -1.489027976989746094e+00 1.130549311637878418e-01 -2.367880940437316895e-01 -3.711995109915733337e-02 9.473411738872528076e-02
3.800000000000000000e+02 1.318552494049072266e+01 -1.270596623420715332e+00 -1.591787040233612061e-01 -7.560099661350250244e-02 -7.043391466140747070e-02 2.532291114330291748e-01
3.810000000000000000e+02 1.523061275482177734e+01 -2.455307722091674805e+00 1.853095531463623047e+00 -4.761201515793800354e-02 5.416450500488281250e-01 -2.844772338867187500e-01
3.820000000000000000e+02 1.536389446258544922e+01 -2.060872554779052734e+00 1.074686408042907715e+00 1.235902532935142517e-01 3.594830036163330078e-01 -2.609149515628814697e-01
3.830000000000000000e+02 1.458873653411865234e+01 -1.641677021980285645e+00 4.060150980949401855e-01 9.490090608596801758e-02 1.502747982740402222e-01 -8.353374898433685303e-02
3.840000000000000000e+02 1.496076393127441406e+01 -2.156050205230712891e+00 1.201859354972839355e+00 2.881056629121303558e-02 3.692009449005126953e-01 -1.620517224073410034e-01
3.850000000000000000e+02 1.410697174072265625e+01 -2.068757772445678711e+00 9.764169454574584961e-01 -2.274182587862014771e-01 2.246996164321899414e-01 1.488917022943496704e-01
3.860000000000000000e+02 1.515628814697265625e+01 -2.619652986526489258e+00 2.453293323516845703e+00 -3.016644716262817383e-01 6.454886794090270996e-01 -1.715109795331954956e-01
3.870000000000000000e+02 1.486175251007080078e+01 -2.585389137268066406e+00 2.102138519287109375e+00 -3.783989548683166504e-01 5.171219110488891602e-01 -3.835851326584815979e-02
3.880000000000000000e+02 1.505486106872558594e+01 -2.772608518600463867e+00 2.772682189941406250e+00 -3.885688483715057373e-01 7.152339816093444824e-01 -9.314762055873870850e-02
3.890000000000000000e+02 1.451932907104492188e+01 -2.783236026763916016e+00 2.550478935241699219e+00 -5.650164484977722168e-01 5.956387519836425781e-01 2.058089226484298706e-01
3.900000000000000000e+02 1.453001213073730469e+01 -2.414636135101318359e+00 1.777166485786437988e+00 -3.102990388870239258e-01 4.400602281093597412e-01 1.373239308595657349e-01
3.910000000000000000e+02 8.599940299987792969e+00 -1.933807730674743652e+00 -7.673270106315612793e-01 2.075560539960861206e-01 -1.679312884807586670e-01 2.667873203754425049e-01
3.920000000000000000e+02 3.688288688659667969e+00 -2.004384040832519531e+00 -5.308529734611511230e-01 -1.823983341455459595e-02 -1.647278517484664917e-01 -5.675030946731567383e-01
3.930000000000000000e+02 6.033442020416259766e-01 -1.063794326782226562e+01 -4.924889281392097473e-02 -5.086711406707763672e+00 -1.540788173675537109e+00 -3.581496179103851318e-01
3.940000000000000000e+02 9.703824996948242188e+00 -1.155910396575927734e+01 2.551980257034301758e+00 1.129845619201660156e+01 4.155130863189697266e+00 4.695683479309082031e+00
3.950000000000000000e+02 1.090351009368896484e+01 -1.167435646057128906e+01 3.418178081512451172e+00 5.039138317108154297e+00 2.537194967269897461e+00 5.091625690460205078e+00
3.960000000000000000e+02 1.224127101898193359e+01 -1.154835033416748047e+01 -4.035627365112304688e+00 -1.004745006561279297e+00 -1.512111663818359375e+00 2.808338880538940430e+00
3.970000000000000000e+02 1.367613029479980469e+01 -1.182506084442138672e+01 -7.992072105407714844e+00 -1.571778416633605957e+00 -2.869155168533325195e+00 3.908895015716552734e+00
3.980000000000000000e+02 1.646457672119140625e+01 -1.294830703735351562e+01 -9.065667152404785156e+00 -1.980512142181396484e+00 -3.313853979110717773e+00 4.386485576629638672e+00
3.990000000000000000e+02 1.772030448913574219e+01 -1.366288852691650391e+01 -8.785040855407714844e+00 -1.509816527366638184e+00 -3.088457107543945312e+00 3.960032224655151367e+00
4.000000000000000000e+02 1.897347831726074219e+01 -1.427830791473388672e+01 -8.903669357299804688e+00 -1.539447665214538574e+00 -3.132935047149658203e+00 3.632922887802124023e+00
4.010000000000000000e+02 2.270189285278320312e+01 -1.606588935852050781e+01 -5.905989646911621094e+00 -6.379200220108032227e-01 -1.963172912597656250e+00 2.183473348617553711e+00
4.020000000000000000e+02 2.484068679809570312e+01 -1.444409847259521484e+01 -4.776839256286621094e+00 4.559766054153442383e-01 -1.296258687973022461e+00 6.252614259719848633e-01
4.030000000000000000e+02 3.873994064331054688e+01 4.387999057769775391e+00 9.522109627723693848e-01 7.297438979148864746e-01 5.045864582061767578e-01 4.085180461406707764e-01
4.040000000000000000e+02 3.871081161499023438e+01 1.071282005310058594e+01 7.047801613807678223e-01 1.602531552314758301e+00 6.921935081481933594e-01 9.657855033874511719e-01
4.050000000000000000e+02 3.754277420043945312e+01 1.513609695434570312e+01 7.694076895713806152e-01 1.803806662559509277e+00 7.719643115997314453e-01 1.064231872558593750e+00
4.060000000000000000e+02 3.518627548217773438e+01 3.093679237365722656e+01 3.496702313423156738e-01 1.597486376762390137e+00 5.841469764709472656e-01 2.285586893558502197e-01
4.070000000000000000e+02 3.785413360595703125e+01 4.051491546630859375e+01 4.550933241844177246e-01 1.677021026611328125e+00 6.396343111991882324e-01 4.597266018390655518e-02
4.080000000000000000e+02 3.282866287231445312e+01 4.036403274536132812e+01 3.522189855575561523e-01 1.382243037223815918e+00 5.203385949134826660e-01 3.636023029685020447e-02
4.090000000000000000e+02 3.081105613708496094e+01 3.469083786010742188e+01 2.945594489574432373e-01 1.296089172363281250e+00 4.771945774555206299e-01 1.182530075311660767e-01
4.100000000000000000e+02 3.165187644958496094e+01 3.020661735534667969e+01 2.667223215103149414e-01 1.399969100952148438e+00 5.000073909759521484e-01 1.989317685365676880e-01
4.110000000000000000e+02 2.841919136047363281e+01 2.368142700195312500e+01 5.976607650518417358e-02 1.248374223709106445e+00 3.924421072006225586e-01 2.080075293779373169e-01
4.120000000000000000e+02 2.712572479248046875e+01 1.656007194519042969e+01 -4.484677016735076904e-01 1.771088600158691406e+00 3.967862725257873535e-01 3.480132222175598145e-01
4.130000000000000000e+02 2.735424232482910156e+01 1.089337539672851562e+01 4.355429112911224365e-01 3.252866029739379883e+00 1.106522679328918457e+00 1.210918545722961426e+00
4.140000000000000000e+02 2.575656127929687500e+01 5.760776042938232422e+00 1.588695526123046875e+00 4.078730106353759766e+00 1.700227737426757812e+00 1.523110866546630859e+00
4.150000000000000000e+02 2.407902717590332031e+01 4.635828971862792969e+00 9.739493727684020996e-01 3.658497810363769531e+00 1.389734148979187012e+00 2.533949613571166992e+00
4.160000000000000000e+02 1.900478935241699219e+01 4.076090812683105469e+00 -2.752542495727539062e+00 -2.988350018858909607e-02 -8.347277641296386719e-01 1.710222214460372925e-01
4.170000000000000000e+02 1.644351387023925781e+01 2.202758789062500000e+00 -5.605950355529785156e-01 1.585401892662048340e+00 3.074420690536499023e-01 -1.347892999649047852e+00
4.180000000000000000e+02 2.027267837524414062e+01 4.132160186767578125e+00 -2.542933225631713867e+00 1.719360500574111938e-01 -7.112991213798522949e-01 2.576102912425994873e-01
4.190000000000000000e+02 1.686197090148925781e+01 -6.141589879989624023e-01 7.679019570350646973e-01 1.759422779083251953e+00 7.581974267959594727e-01 -1.281788587570190430e+00
4.200000000000000000e+02 2.023216629028320312e+01 -2.492283582687377930e+00 6.006144523620605469e+00 5.791219711303710938e+00 3.539209127426147461e+00 4.397337436676025391e+00
4.210000000000000000e+02 2.008588600158691406e+01 -4.110105037689208984e+00 1.039552211761474609e+01 5.062032699584960938e+00 4.637266159057617188e+00 1.115061044692993164e+00
4.220000000000000000e+02 2.009239196777343750e+01 -4.988437652587890625e+00 7.892523288726806641e+00 5.471342563629150391e+00 4.009159564971923828e+00 -2.737532854080200195e-01
4.230000000000000000e+02 1.863488006591796875e+01 -5.388188838958740234e+00 5.699492931365966797e+00 9.198663711547851562e+00 4.469446659088134766e+00 1.885338306427001953e+00
4.240000000000000000e+02 1.831221580505371094e+01 -6.481010437011718750e+00 2.884614229202270508e+00 6.020005702972412109e+00 2.671386003494262695e+00 2.528748989105224609e+00
4.250000000000000000e+02 1.682600021362304688e+01 -4.642574787139892578e+00 9.509490966796875000e+00 1.479266047477722168e+00 3.296627044677734375e+00 4.615318775177001953e+00
4.260000000000000000e+02 1.359501075744628906e+01 -2.938652276992797852e+00 1.965097784996032715e+00 -6.025080084800720215e-01 4.087769389152526855e-01 7.020177245140075684e-01
4.270000000000000000e+02 1.108905887603759766e+01 -2.207852363586425781e+00 3.955674543976783752e-02 4.481009393930435181e-02 2.531005255877971649e-02 6.981698870658874512e-01
4.280000000000000000e+02 9.408630371093750000e+00 -1.943682670593261719e+00 -6.363708972930908203e-01 2.900647222995758057e-01 -1.038918495178222656e-01 4.563454687595367432e-01
4.290000000000000000e+02 1.212018108367919922e+01 -1.038027191162109375e+01 -4.690695405006408691e-01 6.419738531112670898e-01 5.187130346894264221e-02 6.383711814880371094e+00
4.300000000000000000e+02 1.828355312347412109e+00 -1.054038429260253906e+01 1.818632930517196655e-01 -2.928953409194946289e+00 -8.241270184516906738e-01 -1.018523335456848145e+00
4.310000000000000000e+02 6.057904958724975586e-01 -1.766484260559082031e+01 -1.045063952915370464e-03 -4.592032432556152344e+00 -1.377923130989074707e+00 4.443416297435760498e-01
4.320000000000000000e+02 1.172328853607177734e+01 -1.839815711975097656e+01 2.107723712921142578e+00 4.204090595245361328e+00 1.893544316291809082e+00 -3.065871238708496094e+00
4.330000000000000000e+02 9.972938537597656250e+00 -1.616614913940429688e+01 2.622531175613403320e+00 1.112096309661865234e+01 4.123048305511474609e+00 -5.048677444458007812e+00
4.340000000000000000e+02 9.334056854248046875e+00 -1.494711303710937500e+01 2.755329847335815430e+00 1.911085510253906250e+01 6.559855461120605469e+00 -2.684910535812377930e+00
4.350000000000000000e+02 9.326778411865234375e+00 -1.282926273345947266e+01 5.225601673126220703e+00 1.865295982360839844e+01 7.163568019866943359e+00 4.443418025970458984e+00
4.360000000000000000e+02 1.819852113723754883e+00 -1.746212768554687500e+01 1.426384449005126953e-01 -2.515775203704833984e+00 -7.119410037994384766e-01 1.211521744728088379e+00
4.370000000000000000e+02 6.716842055320739746e-01 -2.332962417602539062e+01 -9.668168425559997559e-02 -4.549159109592437744e-01 -1.654792726039886475e-01 3.933281898498535156e-01
4.380000000000000000e+02 7.104912757873535156e+00 -3.181033325195312500e+01 -3.739230930805206299e-01 2.252458572387695312e+00 5.635606646537780762e-01 4.031071364879608154e-01
4.390000000000000000e+02 1.769422912597656250e+01 -4.128503036499023438e+01 -2.213564813137054443e-01 9.900034070014953613e-01 2.305940836668014526e-01 -4.732026718556880951e-03
4.400000000000000000e+02 2.716920280456542969e+01 -4.128197097778320312e+01 -1.450286060571670532e-01 7.319536060094833374e-02 -2.154997363686561584e-02 1.569725573062896729e-02
4.410000000000000000e+02 2.661018562316894531e+01 -3.878234100341796875e+01 -1.626629978418350220e-01 9.661149978637695312e-02 -1.981545053422451019e-02 4.156192881055176258e-04
4.420000000000000000e+02 3.167688560485839844e+01 -3.569302749633789062e+01 -3.233158290386199951e-01 -1.053478494286537170e-01 -1.285991072654724121e-01 1.040272489190101624e-01
4.430000000000000000e+02 3.275355529785156250e+01 -3.215087127685546875e+01 -5.211615562438964844e-01 -4.530631005764007568e-02 -1.699403673410415649e-01 1.089988350868225098e-01
4.440000000000000000e+02 2.953515052795410156e+01 -3.297423934936523438e+01 -4.411478638648986816e-01 -8.920132368803024292e-02 -1.591047644615173340e-01 1.555966585874557495e-01
4.450000000000000000e+02 2.859255981445312500e+01 -3.113397026062011719e+01 -6.146351695060729980e-01 -1.040821075439453125e-01 -2.156151831150054932e-01 2.267550826072692871e-01
4.460000000000000000e+02 2.517653656005859375e+01 -3.125097084045410156e+01 -3.861557245254516602e-01 -1.227269321680068970e-02 -1.195285245776176453e-01 1.219765618443489075e-01
4.470000000000000000e+02 2.725093269348144531e+01 -3.058161926269531250e+01 -5.715203881263732910e-01 -1.357821673154830933e-01 -2.121907770633697510e-01 2.431630641222000122e-01
4.480000000000000000e+02 1.758351325988769531e+01 -2.686513900756835938e+01 -1.140375137329101562e-01 9.005783200263977051e-01 2.359622418880462646e-01 -3.755856454372406006e-01
4.490000000000000000e+02 1.865589904785156250e+01 -2.557511901855468750e+01 1.135714501142501831e-01 4.823208749294281006e-01 1.787676960229873657e-01 -2.669124305248260498e-01
4.500000000000000000e+02 1.564172172546386719e+01 -2.247561454772949219e+01 6.335657835006713867e-01 1.164104461669921875e+00 5.393010377883911133e-01 -9.335196614265441895e-01
4.510000000000000000e+02 1.465619087219238281e+01 -2.146334838867187500e+01 9.534577131271362305e-01 1.633124947547912598e+00 7.759748101234436035e-01 -1.184484958648681641e+00
4.520000000000000000e+02 1.079079532623291016e+01 -1.918687629699707031e+01 6.941848993301391602e-01 5.774511814117431641e+00 1.940609097480773926e+00 -2.006394624710083008e+00
4.530000000000000000e+02 1.446763134002685547e+01 -2.540950775146484375e+01 -1.738543063402175903e-01 1.978656888008117676e+00 5.414407849311828613e-01 -5.840270519256591797e-01
4.540000000000000000e+02 1.166088676452636719e+01 -2.404777336120605469e+01 -4.645850956439971924e-01 3.119450330734252930e+00 7.964595556259155273e-01 -5.664506554603576660e-01
4.550000000000000000e+02 6.747463941574096680e-01 -2.475069046020507812e+01 2.064289338886737823e-02 2.929780185222625732e-01 9.408627450466156006e-02 3.286049664020538330e-01
4.560000000000000000e+02 7.388519048690795898e-01 -3.041035461425781250e+01 1.250125188380479813e-02 2.053424835205078125e+00 6.197777986526489258e-01 1.353977471590042114e-01
4.570000000000000000e+02 8.108337402343750000e+00 -3.818291854858398438e+01 -1.944902092218399048e-01 2.021746158599853516e+00 5.481767654418945312e-01 1.087926849722862244e-01
4.580000000000000000e+02 1.817976760864257812e+01 -3.878517150878906250e+01 -2.213440239429473877e-01 9.677737355232238770e-01 2.239289134740829468e-01 -5.763645470142364502e-02
4.590000000000000000e+02 7.848819494247436523e-01 -3.182667922973632812e+01 -3.696363419294357300e-02 2.275949478149414062e+00 6.716957092285156250e-01 1.071500480175018311e-01
4.600000000000000000e+02 9.077745079994201660e-01 -3.742745590209960938e+01 -3.496206179261207581e-02 2.682982206344604492e+00 7.944059967994689941e-01 1.789515092968940735e-02
4.610000000000000000e+02 8.103845596313476562e+00 -4.099693679809570312e+01 -1.615981310606002808e-01 2.013101100921630859e+00 5.554509162902832031e-01 4.598111286759376526e-02
4.620000000000000000e+02 2.857076644897460938e+00 -3.834665298461914062e+01 -7.903288304805755615e-02 2.552175045013427734e+00 7.419426441192626953e-01 4.443589225411415100e-02
4.630000000000000000e+02 3.997697448730468750e+01 -3.537292098999023438e+01 -4.023584127426147461e-01 -1.637371331453323364e-01 -1.698286533355712891e-01 -1.336643546819686890e-01
4.640000000000000000e+02 3.674065017700195312e+01 -3.715168380737304688e+01 -3.184610009193420410e-01 -1.660178899765014648e-01 -1.453436613082885742e-01 -6.083571817725896835e-03
4.650000000000000000e+02 3.842848968505859375e+01 -3.284155654907226562e+01 -5.118068456649780273e-01 -4.565306752920150757e-02 -1.672379672527313232e-01 -4.477655515074729919e-02
4.660000000000000000e+02 3.703585433959960938e+01 -3.261411666870117188e+01 -4.716509878635406494e-01 -5.744748748838901520e-03 -1.432187259197235107e-01 1.421763212420046329e-03
4.670000000000000000e+02 4.723606491088867188e+01 -3.110497093200683594e+01 -1.185256600379943848e+00 -1.689190864562988281e-01 -4.062527120113372803e-01 -4.651139676570892334e-01
4.680000000000000000e+02 4.304076385498046875e+01 -3.225091934204101562e+01 -7.132821083068847656e-01 -1.228371411561965942e-01 -2.508357763290405273e-01 -2.164611816406250000e-01
4.690000000000000000e+02 4.207730102539062500e+01 -3.489853668212890625e+01 -4.386997520923614502e-01 -2.097136527299880981e-01 -1.945240199565887451e-01 -2.269025892019271851e-01
4.700000000000000000e+02 4.822886276245117188e+01 -3.884467315673828125e+01 1.412363350391387939e-01 -4.573656916618347168e-01 -9.483880549669265747e-02 -2.441637217998504639e-01
4.710000000000000000e+02 5.233422470092773438e+01 -3.896239089965820312e+01 3.913564085960388184e-01 -8.885218948125839233e-02 9.075126051902770996e-02 -1.164427846670150757e-01
4.720000000000000000e+02 4.995121383666992188e+01 -3.027507209777832031e+01 -1.589307427406311035e+00 -3.860166668891906738e-01 -5.925972461700439453e-01 -7.259331941604614258e-01
4.730000000000000000e+02 4.858847427368164062e+01 -3.071535873413085938e+01 -1.465825319290161133e+00 -2.941866219043731689e-01 -5.280035734176635742e-01 -5.844630002975463867e-01
4.740000000000000000e+02 5.655365753173828125e+01 -3.866155242919921875e+01 4.776149690151214600e-01 7.825220227241516113e-01 3.780411183834075928e-01 -2.996035665273666382e-02
4.750000000000000000e+02 5.723741912841796875e+01 -4.123869705200195312e+01 5.454552769660949707e-01 1.010099530220031738e+00 4.666664302349090576e-01 1.358906179666519165e-02
4.760000000000000000e+02 6.135397720336914062e+01 -2.901141166687011719e+01 -5.903918743133544922e-01 1.987018704414367676e+00 4.189880490303039551e-01 3.052515983581542969e-01
4.770000000000000000e+02 6.174958419799804688e+01 -2.257876968383789062e+01 -2.773822844028472900e-01 6.518113613128662109e-01 1.123287156224250793e-01 8.471461385488510132e-02
4.780000000000000000e+02 6.075603103637695312e+01 -2.361806106567382812e+01 -7.302646040916442871e-01 9.222417324781417847e-02 -1.914121359586715698e-01 -2.745045423507690430e-01
4.790000000000000000e+02 5.855274200439453125e+01 -2.540869522094726562e+01 -1.501302242279052734e+00 -5.522273182868957520e-01 -6.160588860511779785e-01 -9.090545177459716797e-01
4.800000000000000000e+02 5.619842910766601562e+01 -2.696233177185058594e+01 -1.809055805206298828e+00 -6.252749562263488770e-01 -7.302992343902587891e-01 -1.038395047187805176e+00
4.810000000000000000e+02 5.693130493164062500e+01 -2.811253547668457031e+01 -1.257233977317810059e+00 -2.707614004611968994e-01 -4.583986103534698486e-01 -5.938267111778259277e-01
4.820000000000000000e+02 6.210932922363281250e+01 -4.089183807373046875e+01 4.165886938571929932e-01 3.004009008407592773e+00 1.026179313659667969e+00 5.061774700880050659e-02
4.830000000000000000e+02 6.072890472412109375e+01 -3.788284301757812500e+01 3.387243747711181641e-01 2.409611225128173828e+00 8.245006799697875977e-01 1.640875339508056641e-01
4.840000000000000000e+02 7.185408020019531250e+01 -3.057525062561035156e+01 -4.858545362949371338e-01 7.961836814880371094e+00 2.242794513702392578e+00 -2.212506905198097229e-02
4.850000000000000000e+02 6.696796417236328125e+01 -2.201994132995605469e+01 -9.159900546073913574e-01 6.820326328277587891e+00 1.771300911903381348e+00 8.564757108688354492e-01
4.860000000000000000e+02 7.934661865234375000e+01 -2.223198699951171875e+01 1.998646929860115051e-02 9.586810111999511719e+00 2.882038831710815430e+00 -3.177313506603240967e-01
4.870000000000000000e+02 7.801412963867187500e+01 -1.650194168090820312e+01 3.562807291746139526e-02 7.313233852386474609e+00 2.204658508300781250e+00 -1.102632999420166016e+00
4.880000000000000000e+02 7.930151367187500000e+01 -1.243659782409667969e+01 1.143940538167953491e-01 4.362360477447509766e+00 1.343026280403137207e+00 -1.799104809761047363e-01
4.890000000000000000e+02 7.801010131835937500e+01 -9.416336059570312500e+00 2.182219922542572021e-01 5.872283935546875000e+00 1.827151775360107422e+00 3.103209137916564941e-01
4.900000000000000000e+02 7.937942504882812500e+01 -5.467983245849609375e+00 -8.145751804113388062e-02 5.710328578948974609e+00 1.688661336898803711e+00 3.537673354148864746e-01
4.910000000000000000e+02 6.816360473632812500e+01 -7.260565280914306641e+00 2.776609182357788086e+00 1.554509639739990234e+01 5.496511936187744141e+00 -4.467338085174560547e+00
4.920000000000000000e+02 6.346201324462890625e+01 -6.939062595367431641e+00 -5.100543022155761719e+00 -1.333819746971130371e+00 -1.930308818817138672e+00 -2.413261175155639648e+00
4.930000000000000000e+02 5.530108642578125000e+01 -6.271482467651367188e+00 -1.813595414161682129e+00 -1.425864249467849731e-01 -5.868545770645141602e-01 -6.200399398803710938e-01
4.940000000000000000e+02 4.453779983520507812e+01 -7.275906085968017578e+00 -1.046449542045593262e+00 1.380602121353149414e-01 -2.725167870521545410e-01 -4.491536617279052734e-01
4.950000000000000000e+02 3.776261901855468750e+01 1.555678486824035645e+00 9.216149449348449707e-01 5.716313719749450684e-01 4.479738771915435791e-01 3.143823146820068359e-01
4.960000000000000000e+02 2.796718788146972656e+01 -1.667774558067321777e+00 2.025542736053466797e+00 1.193862915039062500e+00 9.658216834068298340e-01 1.321782946586608887e+00
4.970000000000000000e+02 3.092274475097656250e+01 -1.342257785797119141e+01 -2.674703598022460938e+00 5.025591254234313965e-01 -6.516433954238891602e-01 -4.524338245391845703e-01
4.980000000000000000e+02 3.081954765319824219e+01 -1.461189746856689453e+01 -3.104345798492431641e+00 4.398464560508728027e-01 -7.993498444557189941e-01 -2.401758730411529541e-01
4.990000000000000000e+02 3.058569335937500000e+01 -1.824232101440429688e+01 -3.868738889694213867e+00 1.049326173961162567e-02 -1.157473683357238770e+00 4.847876727581024170e-01
5.000000000000000000e+02 3.322077941894531250e+01 -1.602777099609375000e+01 -3.056833744049072266e+00 2.981930673122406006e-01 -8.275921940803527832e-01 -1.885309070348739624e-01
5.010000000000000000e+02 3.330797576904296875e+01 -1.856348228454589844e+01 -3.321710348129272461e+00 7.973205298185348511e-02 -9.725934267044067383e-01 1.930214911699295044e-01
5.020000000000000000e+02 3.854164505004882812e+01 -1.723277473449707031e+01 -2.674544095993041992e+00 9.975036233663558960e-02 -7.724381685256958008e-01 -4.340933561325073242e-01
5.030000000000000000e+02 3.438656234741210938e+01 -1.107805156707763672e+01 -1.585608482360839844e+00 3.883567154407501221e-01 -3.591755032539367676e-01 -6.385918259620666504e-01
5.040000000000000000e+02 3.700344085693359375e+01 -2.418406963348388672e+00 5.106855630874633789e-01 3.785607814788818359e-01 2.667739093303680420e-01 6.967130582779645920e-03
5.050000000000000000e+02 6.708183288574218750e+01 -4.077170562744140625e+01 2.085468173027038574e-01 5.224629402160644531e+00 1.629952907562255859e+00 9.715400636196136475e-02
5.060000000000000000e+02 7.176300048828125000e+01 -4.084388351440429688e+01 7.864244282245635986e-02 7.751846313476562500e+00 2.349146604537963867e+00 1.899571390822529793e-03
5.070000000000000000e+02 7.925605773925781250e+01 -3.343752670288085938e+01 -5.581397563219070435e-02 1.153794002532958984e+01 3.444637775421142578e+00 -5.876683630049228668e-03
5.080000000000000000e+02 7.787935638427734375e+01 -3.064488983154296875e+01 -5.122384428977966309e-02 1.071555233001708984e+01 3.199298381805419922e+00 -1.530259698629379272e-01
5.090000000000000000e+02 7.930434417724609375e+01 -2.643853759765625000e+01 -4.643816500902175903e-02 1.091145324707031250e+01 3.259504556655883789e+00 -1.751421988010406494e-01
5.100000000000000000e+02 7.802430725097656250e+01 -2.350897598266601562e+01 -8.455757051706314087e-02 9.778191566467285156e+00 2.908090353012084961e+00 -6.668471693992614746e-01
5.110000000000000000e+02 7.799781036376953125e+01 -4.158899307250976562e+01 1.970701515674591064e-01 1.084448051452636719e+01 3.312465429306030273e+00 5.532876402139663696e-02
5.120000000000000000e+02 7.813228607177734375e+01 -2.485357046127319336e+00 -7.084787636995315552e-02 7.505558967590332031e+00 2.230413436889648438e+00 6.802664995193481445e-01
5.130000000000000000e+02 7.936753845214843750e+01 2.874593734741210938e+00 -3.074818104505538940e-02 8.476667404174804688e+00 2.533775568008422852e+00 5.822103098034858704e-02
5.140000000000000000e+02 7.268714141845703125e+01 9.573072433471679688e+00 -7.820829004049301147e-02 6.508699417114257812e+00 1.929147243499755859e+00 -8.018178343772888184e-01
5.150000000000000000e+02 6.083312225341796875e+01 1.938871383666992188e+01 5.546258091926574707e-01 3.658363342285156250e+00 1.263896703720092773e+00 -7.107213139533996582e-01
5.160000000000000000e+02 5.440714263916015625e+01 1.910395240783691406e+01 6.862645149230957031e-01 2.448858022689819336e+00 9.405367970466613770e-01 -1.060670852661132812e+00
5.170000000000000000e+02 5.351967620849609375e+01 1.757180786132812500e+01 1.092559814453125000e+00 1.447960376739501953e+00 7.621560692787170410e-01 -1.173710584640502930e+00
5.180000000000000000e+02 7.809567260742187500e+01 4.421441078186035156e+00 -7.595618069171905518e-02 8.177145957946777344e+00 2.430356740951538086e+00 -1.751190423965454102e-02
5.190000000000000000e+02 7.934793090820312500e+01 8.439580917358398438e+00 4.502674564719200134e-03 8.208806037902832031e+00 2.463992595672607422e+00 -6.880430132150650024e-02
5.200000000000000000e+02 7.254186248779296875e+01 1.782202339172363281e+01 1.320203542709350586e-01 5.808701992034912109e+00 1.782216787338256836e+00 -6.293425559997558594e-01
5.210000000000000000e+02 6.094362258911132812e+01 2.325666236877441406e+01 4.964393973350524902e-01 3.672555685043334961e+00 1.250698447227478027e+00 -6.297065019607543945e-01
5.220000000000000000e+02 5.310949707031250000e+01 2.848522186279296875e+01 7.631028890609741211e-01 2.421732425689697266e+00 9.554505944252014160e-01 -2.347597628831863403e-01
5.230000000000000000e+02 4.943586730957031250e+01 3.679312515258789062e+01 6.281971335411071777e-01 2.373807191848754883e+00 9.006013274192810059e-01 1.286911964416503906e-02
5.240000000000000000e+02 4.292507934570312500e+01 4.036645889282226562e+01 5.565965175628662109e-01 1.973334312438964844e+00 7.589792013168334961e-01 3.409109264612197876e-02
5.250000000000000000e+02 4.260759735107421875e+01 3.240569305419921875e+01 5.576429367065429688e-01 1.886320829391479492e+00 7.331891059875488281e-01 2.251600027084350586e-01
5.260000000000000000e+02 5.393888473510742188e+01 2.441127014160156250e+01 8.085154891014099121e-01 2.292014837265014648e+00 9.301590919494628906e-01 -4.860326349735260010e-01
5.270000000000000000e+02 7.799147796630859375e+01 1.138206195831298828e+01 -1.225257292389869690e-02 7.512432575225830078e+00 2.250054121017456055e+00 -2.573757171630859375e-01
5.280000000000000000e+02 7.933776855468750000e+01 1.681658363342285156e+01 1.413081772625446320e-02 7.107806205749511719e+00 2.136581182479858398e+00 -7.625062018632888794e-02
5.290000000000000000e+02 7.245680236816406250e+01 2.405571746826171875e+01 1.318062394857406616e-01 5.531546592712402344e+00 1.699005842208862305e+00 -4.319633543491363525e-01
5.300000000000000000e+02 6.493228149414062500e+01 2.928665924072265625e+01 3.144636154174804688e-01 4.324086666107177734e+00 1.391565084457397461e+00 -4.189528822898864746e-01
5.310000000000000000e+02 5.372595214843750000e+01 3.674330520629882812e+01 6.002207994461059570e-01 2.811014652252197266e+00 1.023370623588562012e+00 -8.966791629791259766e-02
5.320000000000000000e+02 4.802615737915039062e+01 4.042810440063476562e+01 6.115790605545043945e-01 2.313193559646606445e+00 8.774318099021911621e-01 1.059316657483577728e-02
5.330000000000000000e+02 7.799238586425781250e+01 1.980542373657226562e+01 5.554454401135444641e-03 6.596275806427001953e+00 1.980549097061157227e+00 -1.889696568250656128e-01
5.340000000000000000e+02 7.932763671875000000e+01 2.377973747253417969e+01 -6.487969774752855301e-03 6.427084922790527344e+00 1.926179051399230957e+00 -4.600271210074424744e-02
5.350000000000000000e+02 7.324823760986328125e+01 3.100983047485351562e+01 7.833562046289443970e-02 5.389925956726074219e+00 1.640478372573852539e+00 -2.287371754646301270e-01
5.360000000000000000e+02 6.263909149169921875e+01 4.075390625000000000e+01 3.689490854740142822e-01 3.926223516464233398e+00 1.288551807403564453e+00 -5.757475644350051880e-02
5.370000000000000000e+02 5.779033279418945312e+01 4.060111236572265625e+01 5.036287307739257812e-01 3.334469795227050781e+00 1.151429533958435059e+00 -4.415210336446762085e-02
5.380000000000000000e+02 7.659253692626953125e+01 2.278264427185058594e+01 3.953914344310760498e-02 6.175233364105224609e+00 1.864431738853454590e+00 -2.543665468692779541e-01
5.390000000000000000e+02 7.927595520019531250e+01 2.934354782104492188e+01 -4.595098551362752914e-03 6.084638118743896484e+00 1.824012875556945801e+00 -3.345774859189987183e-02
5.400000000000000000e+02 6.743373107910156250e+01 3.775933074951171875e+01 2.248163968324661255e-01 4.597546577453613281e+00 1.446708917617797852e+00 -1.286074072122573853e-01
5.410000000000000000e+02 7.919783782958984375e+01 3.218720245361328125e+01 6.565782678080722690e-05 5.961362361907958984e+00 1.788428425788879395e+00 -2.731442451477050781e-02
5.420000000000000000e+02 7.919146728515625000e+01 3.747116470336914062e+01 1.923124678432941437e-02 5.793034553527832031e+00 1.743679642677307129e+00 -1.530605461448431015e-02
5.430000000000000000e+02 7.138499450683593750e+01 3.769666290283203125e+01 1.120181977748870850e-01 5.087540626525878906e+00 1.559867620468139648e+00 -1.062423810362815857e-01
5.440000000000000000e+02 7.638381958007812500e+01 3.809538650512695312e+01 2.300522988662123680e-03 5.568743705749511719e+00 1.671313285827636719e+00 -5.610935017466545105e-02
5.450000000000000000e+02 1.765850830078125000e+01 4.089928817749023438e+01 1.296245604753494263e-01 5.449565052986145020e-01 2.023743093013763428e-01 2.127015218138694763e-02
5.460000000000000000e+02 2.254635620117187500e+01 4.075954437255859375e+01 1.995785236358642578e-01 7.991691231727600098e-01 2.996242940425872803e-01 2.498820610344409943e-02
5.470000000000000000e+02 2.207084655761718750e+01 3.087815666198730469e+01 1.598809510469436646e-01 7.547865509986877441e-01 2.744002640247344971e-01 1.708196997642517090e-01
5.480000000000000000e+02 1.936722373962402344e+01 1.681755638122558594e+01 -9.086621403694152832e-01 -7.652038335800170898e-02 -2.955547571182250977e-01 3.502082228660583496e-01
5.490000000000000000e+02 2.139748001098632812e+01 1.836652946472167969e+01 -3.090364634990692139e-01 -3.602871671319007874e-02 -1.035195514559745789e-01 3.279173672199249268e-01
5.500000000000000000e+02 2.260792732238769531e+01 1.593746185302734375e+01 -1.057470083236694336e+00 -1.481779813766479492e-01 -3.616944253444671631e-01 4.308330416679382324e-01
5.510000000000000000e+02 2.480217170715332031e+01 1.635207748413085938e+01 -6.580126881599426270e-01 9.060561656951904297e-01 7.441305369138717651e-02 -2.186924591660499573e-02
5.520000000000000000e+02 2.370764160156250000e+01 1.515369987487792969e+01 -7.708356380462646484e-01 1.968104392290115356e-02 -2.253463715314865112e-01 2.947056293487548828e-01
5.530000000000000000e+02 2.542204475402832031e+01 1.311584091186523438e+01 -7.851364463567733765e-02 2.046644449234008789e+00 5.904392600059509277e-01 -2.506970241665840149e-02
5.540000000000000000e+02 2.590213966369628906e+01 1.106363582611083984e+01 2.250783145427703857e-01 3.667818546295166016e+00 1.167869091033935547e+00 3.922961354255676270e-01
5.550000000000000000e+02 2.581319618225097656e+01 9.794812202453613281e+00 6.973288208246231079e-02 4.671801090240478516e+00 1.422460079193115234e+00 6.740956902503967285e-01
5.560000000000000000e+02 2.577443122863769531e+01 8.560367584228515625e+00 1.262871026992797852e+00 6.046108245849609375e+00 2.192693710327148438e+00 1.696246743202209473e+00
5.570000000000000000e+02 2.611199951171875000e+01 7.360172748565673828e+00 2.151545524597167969e+00 5.091206073760986328e+00 2.172825574874877930e+00 1.965818285942077637e+00
5.580000000000000000e+02 2.495883941650390625e+01 6.780938625335693359e+00 2.604384422302246094e+00 5.476270675659179688e+00 2.424196481704711914e+00 3.000930786132812500e+00
5.590000000000000000e+02 2.405926895141601562e+01 5.964733600616455078e+00 2.929623126983642578e+00 3.442814350128173828e+00 1.911731243133544922e+00 2.969805955886840820e+00
5.600000000000000000e+02 1.511857318878173828e+01 3.327717590332031250e+01 5.384976044297218323e-02 4.427102506160736084e-01 1.489679962396621704e-01 1.320267915725708008e-01
5.610000000000000000e+02 1.672528839111328125e+01 2.196169853210449219e+01 -1.444717198610305786e-01 6.724320054054260254e-01 1.583880931138992310e-01 4.946607053279876709e-01
5.620000000000000000e+02 1.814830970764160156e+01 1.659822082519531250e+01 -2.879805564880371094e-01 2.114369422197341919e-01 -2.296308428049087524e-02 3.302890360355377197e-01
5.630000000000000000e+02 1.769667625427246094e+01 1.797453689575195312e+01 -2.857628762722015381e-01 6.187174320220947266e-01 9.988636523485183716e-02 8.072566390037536621e-01
5.640000000000000000e+02 1.693979263305664062e+01 1.616535377502441406e+01 3.394060730934143066e-01 8.727520108222961426e-01 3.636474311351776123e-01 6.229053139686584473e-01
5.650000000000000000e+02 1.290208053588867188e+01 4.100592041015625000e+01 7.260265201330184937e-02 3.050680160522460938e-01 1.133011952042579651e-01 1.478218287229537964e-02
5.660000000000000000e+02 9.743384361267089844e+00 3.816627883911132812e+01 2.893883176147937775e-02 1.347858607769012451e-01 4.911740496754646301e-02 3.409504890441894531e-02
5.670000000000000000e+02 7.992741584777832031e+00 3.045294952392578125e+01 -3.789322450757026672e-02 1.161296367645263672e-01 2.347092516720294952e-02 4.254430532455444336e-02
5.680000000000000000e+02 8.478841781616210938e+00 2.317534828186035156e+01 -1.426757723093032837e-01 3.660812675952911377e-01 6.702164560556411743e-02 -3.134308010339736938e-02
5.690000000000000000e+02 1.249261760711669922e+01 1.497112083435058594e+01 2.324414104223251343e-01 1.513834238052368164e+00 5.238826870918273926e-01 -1.334462780505418777e-02
5.700000000000000000e+02 1.312688446044921875e+01 9.833698272705078125e+00 5.306628346443176270e-01 2.424993276596069336e+00 8.866968154907226562e-01 -2.682697176933288574e-01
5.710000000000000000e+02 6.667464256286621094e+00 1.898058533668518066e+00 -4.832417368888854980e-01 -1.037957333028316498e-02 -1.480863988399505615e-01 3.094319999217987061e-01
5.720000000000000000e+02 1.065219783782958984e+01 1.752373933792114258e+00 -6.810337901115417480e-01 1.282216012477874756e-01 -1.658436506986618042e-01 4.085639119148254395e-02
5.730000000000000000e+02 1.227321720123291016e+01 1.380958437919616699e+00 -6.639913916587829590e-01 3.505101501941680908e-01 -9.404437243938446045e-02 -2.672435343265533447e-01
5.740000000000000000e+02 1.411802577972412109e+01 1.634544134140014648e+00 -4.210605919361114502e-01 8.481915593147277832e-01 1.281392872333526611e-01 -7.885269522666931152e-01
5.750000000000000000e+02 1.489093399047851562e+01 1.288971781730651855e+00 -2.964245080947875977e-01 9.777299165725708008e-01 2.043916285037994385e-01 -9.984489679336547852e-01
5.760000000000000000e+02 1.463304901123046875e+01 8.179174423217773438e+00 7.278327345848083496e-01 3.565367937088012695e+00 1.287960171699523926e+00 -9.723888039588928223e-01
5.770000000000000000e+02 1.444461536407470703e+01 1.095233345031738281e+01 5.966512113809585571e-02 3.286329507827758789e+00 1.003798365592956543e+00 1.517270654439926147e-01
5.780000000000000000e+02 1.458461380004882812e+01 1.228458213806152344e+01 3.556009829044342041e-01 3.370903253555297852e+00 1.117951273918151855e+00 5.365220904350280762e-01
5.790000000000000000e+02 1.490405464172363281e+01 1.355185413360595703e+01 5.647807717323303223e-01 2.802845478057861328e+00 1.010287880897521973e+00 9.502102136611938477e-01
5.800000000000000000e+02 1.550680160522460938e+01 1.597691726684570312e+01 2.790989577770233154e-01 1.452664017677307129e+00 5.195289254188537598e-01 5.926597714424133301e-01
5.810000000000000000e+02 1.539150047302246094e+01 1.469054508209228516e+01 6.042425036430358887e-01 1.874807715415954590e+00 7.437150478363037109e-01 9.011999368667602539e-01
5.820000000000000000e+02 1.392072296142578125e+01 1.608089256286621094e+01 1.346481125801801682e-02 1.643957734107971191e+00 4.972267746925354004e-01 2.423843592405319214e-01
5.830000000000000000e+02 2.064058065414428711e+00 4.162192153930664062e+01 -2.025046944618225098e-02 -3.312428891658782959e-01 -1.054480075836181641e-01 -5.779448430985212326e-03
5.840000000000000000e+02 5.092327594757080078e+00 3.712772750854492188e+01 1.262092869728803635e-02 -1.455810815095901489e-01 -3.988804668188095093e-02 3.311921656131744385e-02
5.850000000000000000e+02 2.150154829025268555e+00 3.572697448730468750e+01 6.273859180510044098e-03 -3.080492019653320312e-01 -9.053260087966918945e-02 -3.925600554794073105e-03
5.860000000000000000e+02 2.119333505630493164e+00 2.899634170532226562e+01 -7.212266791611909866e-03 -2.977882027626037598e-01 -9.150014072656631470e-02 -1.115108840167522430e-02
5.870000000000000000e+02 1.952108621597290039e+00 2.341064453125000000e+01 -1.329099293798208237e-02 -3.792288899421691895e-01 -1.177559643983840942e-01 -6.519926339387893677e-02
5.880000000000000000e+02 1.886470079421997070e+00 1.775940704345703125e+01 4.558773245662450790e-03 -5.871223211288452148e-01 -1.747690588235855103e-01 -9.999553114175796509e-02
5.890000000000000000e+02 6.077341437339782715e-01 6.375246524810791016e+00 1.433669007383286953e-03 -5.905383229255676270e-01 -1.767314076423645020e-01 7.531674206256866455e-02
5.900000000000000000e+02 1.853716373443603516e+00 9.343586921691894531e+00 4.483481496572494507e-02 -6.455591917037963867e-01 -1.802173107862472534e-01 1.175919026136398315e-01
5.910000000000000000e+02 2.896771192550659180e+00 3.829782009124755859e+00 -5.960766226053237915e-02 -1.794878691434860229e-01 -7.172866165637969971e-02 2.809758782386779785e-01
5.920000000000000000e+02 1.386498546600341797e+01 9.064745306968688965e-01 -4.114759862422943115e-01 5.687301754951477051e-01 4.717625305056571960e-02 -6.133046150207519531e-01
5.930000000000000000e+02 1.536040973663330078e+01 2.613131105899810791e-01 9.308831393718719482e-02 7.925549149513244629e-01 2.656929492950439453e-01 -9.307543039321899414e-01
5.940000000000000000e+02 6.689929199218750000e+01 -7.007404804229736328e+00 3.482194423675537109e+00 8.434351921081542969e+00 3.574964046478271484e+00 -5.544229030609130859e+00
5.950000000000000000e+02 6.857165527343750000e+01 -9.977101325988769531e+00 1.368505358695983887e+00 2.502599906921386719e+01 7.918351173400878906e+00 -2.349127531051635742e+00
5.960000000000000000e+02 6.938039398193359375e+01 -1.272100257873535156e+01 2.677966356277465820e+00 1.913772010803222656e+01 6.544705867767333984e+00 9.550989866256713867e-01
5.970000000000000000e+02 7.050570678710937500e+01 -1.411294746398925781e+01 1.566025733947753906e+00 1.333397960662841797e+01 4.470001697540283203e+00 -6.658387184143066406e-01
5.980000000000000000e+02 6.702056121826171875e+01 -1.798324203491210938e+01 5.337727069854736328e-01 8.741634368896484375e+00 2.782622098922729492e+00 2.201584100723266602e+00
5.990000000000000000e+02 6.620919036865234375e+01 -1.706850433349609375e+01 1.950047135353088379e+00 7.551054000854492188e+00 2.850330352783203125e+00 3.738705396652221680e+00
6.000000000000000000e+02 6.266330337524414062e+01 -2.368016624450683594e+01 -6.186833977699279785e-01 2.009546279907226562e+00 4.172588586807250977e-01 4.497622847557067871e-01
6.010000000000000000e+02 6.866252899169921875e+01 -2.197826004028320312e+01 -1.138530611991882324e+00 8.283910751342773438e+00 2.143614053726196289e+00 2.649639546871185303e-01
6.020000000000000000e+02 2.385973358154296875e+01 -3.193770790100097656e+01 -3.099936544895172119e-01 1.272954642772674561e-01 -5.480945482850074768e-02 3.183488175272941589e-02
6.030000000000000000e+02 2.101082229614257812e+01 -2.729763221740722656e+01 -2.296101301908493042e-01 1.106628254055976868e-01 -3.568419069051742554e-02 2.355802617967128754e-02
6.040000000000000000e+02 1.977812004089355469e+01 -2.651617813110351562e+01 -7.017032802104949951e-02 2.561672925949096680e-01 5.579908937215805054e-02 -1.349318474531173706e-01
6.050000000000000000e+02 2.658249473571777344e+01 -1.737822341918945312e+01 -4.850609302520751953e+00 -2.122349590063095093e-01 -1.518853306770324707e+00 1.162598729133605957e+00
6.060000000000000000e+02 3.881155014038085938e+01 -1.850739288330078125e+01 -2.783855676651000977e+00 2.730187959969043732e-02 -8.269661664962768555e-01 -2.586435675621032715e-01
6.070000000000000000e+02 4.320265197753906250e+01 -1.508289051055908203e+01 -2.281895637512207031e+00 1.046904711984097958e-03 -6.842545866966247559e-01 -6.852869987487792969e-01
6.080000000000000000e+02 4.507887268066406250e+01 -1.316874694824218750e+01 -2.077624559402465820e+00 -1.044041570276021957e-02 -6.264194846153259277e-01 -7.638736963272094727e-01
6.090000000000000000e+02 4.701690292358398438e+01 -4.782942771911621094e+00 -6.811596155166625977e-01 1.012454330921173096e-01 -1.739742606878280640e-01 -2.814887464046478271e-01
6.100000000000000000e+02 4.416504287719726562e+01 -1.741204833984375000e+01 -2.620001792907714844e+00 -2.233684659004211426e-01 -8.530110716819763184e-01 -7.961820363998413086e-01
6.110000000000000000e+02 5.059263992309570312e+01 -1.496125125885009766e+01 -2.276394128799438477e+00 -4.875777661800384521e-01 -8.291916251182556152e-01 -1.134773492813110352e+00
6.120000000000000000e+02 5.034132385253906250e+01 -1.219843387603759766e+01 -2.236014127731323242e+00 -2.522272765636444092e-01 -7.464724183082580566e-01 -9.910126924514770508e-01
6.130000000000000000e+02 5.423777770996093750e+01 -1.294913482666015625e+01 -2.543626070022583008e+00 -7.553110122680664062e-01 -9.896811246871948242e-01 -1.440474271774291992e+00
6.140000000000000000e+02 5.893014907836914062e+01 -9.950742721557617188e+00 -3.505655050277709961e+00 -1.264563083648681641e+00 -1.431065440177917480e+00 -2.086242914199829102e+00
6.150000000000000000e+02 5.887314224243164062e+01 -3.451466083526611328e+00 -8.399021625518798828e-01 -5.890266969799995422e-02 -2.696414589881896973e-01 -8.592599630355834961e-01
6.160000000000000000e+02 5.806103897094726562e+01 -9.081206321716308594e+00 -3.174447536468505859e+00 -8.101105093955993652e-01 -1.195367455482482910e+00 -1.573231458663940430e+00
6.170000000000000000e+02 6.279613876342773438e+01 -5.019871234893798828e+00 -1.275588393211364746e+00 -5.205785632133483887e-01 -5.388500690460205078e-01 -1.850030183792114258e+00
6.180000000000000000e+02 4.716903305053710938e+01 1.886405563354492188e+01 1.080723285675048828e+00 4.616384506225585938e-01 4.627085328102111816e-01 6.581792235374450684e-01
6.190000000000000000e+02 4.484822463989257812e+01 1.741909408569335938e+01 1.693815350532531738e+00 1.605255961418151855e+00 9.897213578224182129e-01 1.468989610671997070e+00
6.200000000000000000e+02 4.094775009155273438e+01 1.546579074859619141e+01 9.858583807945251465e-01 2.043761968612670898e+00 9.088861346244812012e-01 9.277837276458740234e-01
6.210000000000000000e+02 4.249120712280273438e+01 1.588779544830322266e+01 1.205367207527160645e+00 2.752963781356811523e+00 1.187499284744262695e+00 1.161881446838378906e+00
6.220000000000000000e+02 4.286510848999023438e+01 1.455951976776123047e+01 7.548222541809082031e-01 3.244166374206542969e+00 1.199696540832519531e+00 1.105427503585815430e+00
6.230000000000000000e+02 4.282520294189453125e+01 1.186813640594482422e+01 1.547676622867584229e-01 2.042282342910766602e+00 6.591150164604187012e-01 1.289898008108139038e-01
6.240000000000000000e+02 4.151207733154296875e+01 1.185882949829101562e+01 3.400900065898895264e-01 1.896519184112548828e+00 6.709827184677124023e-01 6.392679810523986816e-01
6.250000000000000000e+02 4.514367675781250000e+01 8.060099601745605469e+00 3.845772147178649902e-01 2.531411647796630859e-01 1.913155168294906616e-01 -3.163680136203765869e-01
6.260000000000000000e+02 4.423159027099609375e+01 8.904363632202148438e+00 3.075423240661621094e-01 4.251376390457153320e-01 2.198039889335632324e-01 -2.614321410655975342e-01
6.270000000000000000e+02 5.759568023681640625e+01 1.519141960144042969e+01 8.844431042671203613e-01 3.291903257369995117e+00 1.252903938293457031e+00 -7.590187191963195801e-01
6.280000000000000000e+02 5.694194030761718750e+01 1.970059776306152344e+01 6.254003643989562988e-01 3.047738790512084961e+00 1.101941704750061035e+00 -7.799719572067260742e-01
6.290000000000000000e+02 5.543073654174804688e+01 1.332134437561035156e+01 4.801633208990097046e-02 3.908552408218383789e+00 1.186970591545104980e+00 -3.048748373985290527e-01
6.300000000000000000e+02 5.627254104614257812e+01 1.116742324829101562e+01 2.735839486122131348e-01 3.057620763778686523e+00 9.993613958358764648e-01 -1.979557275772094727e-01
6.310000000000000000e+02 5.358248901367187500e+01 7.773026466369628906e+00 7.112658619880676270e-01 6.355544328689575195e-01 4.040460884571075439e-01 4.678449332714080811e-01
6.320000000000000000e+02 5.467036056518554688e+01 8.817956924438476562e+00 4.723541736602783203e-01 1.316887617111206055e+00 5.367725491523742676e-01 4.654421508312225342e-01
6.330000000000000000e+02 5.228329086303710938e+01 7.028264999389648438e+00 1.141906738281250000e+00 2.790893912315368652e-01 4.262988269329071045e-01 4.149980843067169189e-01
6.340000000000000000e+02 4.980802536010742188e+01 3.823814630508422852e+00 1.006964683532714844e+00 2.455795556306838989e-01 3.757632970809936523e-01 -2.369175851345062256e-02
6.350000000000000000e+02 5.100014114379882812e+01 6.450258731842041016e+00 1.568890213966369629e+00 1.605082154273986816e-01 5.188195109367370605e-01 3.191984593868255615e-01
6.360000000000000000e+02 5.325065612792968750e+01 3.266898870468139648e+00 7.879322171211242676e-01 3.823645114898681641e-01 3.510890007019042969e-01 -9.778816252946853638e-02
6.370000000000000000e+02 5.454448699951171875e+01 5.276348590850830078e+00 8.583263754844665527e-01 7.476896047592163086e-01 4.818047881126403809e-01 -2.050325460731983185e-02
6.380000000000000000e+02 6.085904693603515625e+01 5.200801372528076172e+00 4.055094122886657715e-01 2.465049743652343750e+00 8.611677885055541992e-01 -1.266426563262939453e+00
6.390000000000000000e+02 7.282511138916015625e+01 5.060756683349609375e+00 -4.499792158603668213e-01 7.132203102111816406e+00 2.004667282104492188e+00 -6.897851228713989258e-01
6.400000000000000000e+02 4.976374053955078125e+01 6.043281078338623047e+00 1.770966768264770508e+00 1.553264111280441284e-01 5.778879523277282715e-01 7.519295811653137207e-02
6.410000000000000000e+02 4.269827270507812500e+01 7.152120113372802734e+00 7.724708318710327148e-01 5.933668613433837891e-01 4.097512960433959961e-01 -8.307750523090362549e-02
6.420000000000000000e+02 4.503902435302734375e+01 1.932342910766601562e+01 8.919703960418701172e-01 1.604409813880920410e+00 7.489140629768371582e-01 1.079283714294433594e+00
6.430000000000000000e+02 2.124094772338867188e+01 -3.566501379013061523e+00 7.750720977783203125e+00 2.931046724319458008e+00 3.204530239105224609e+00 2.279539823532104492e+00
6.440000000000000000e+02 1.984442520141601562e+01 -2.987194299697875977e+00 9.047220230102539062e+00 6.286253452301025391e+00 4.600041866302490234e+00 4.758495807647705078e+00
6.450000000000000000e+02 1.955967712402343750e+01 -6.067948818206787109e+00 3.907651424407958984e+00 5.930305004119873047e+00 2.951386928558349609e+00 1.328510344028472900e-01
6.460000000000000000e+02 6.712601470947265625e+01 -5.588076591491699219e+00 -2.519681215286254883e+00 9.549468994140625000e+00 2.108936309814453125e+00 -4.798528671264648438e+00
6.470000000000000000e+02 6.844323730468750000e+01 -4.524600028991699219e+00 -2.092324018478393555e+00 1.057825946807861328e+01 2.545780420303344727e+00 -3.136589765548706055e+00
6.480000000000000000e+02 2.201731872558593750e+01 -1.449989509582519531e+01 -6.348123073577880859e+00 -4.023844003677368164e-02 -1.916508436203002930e+00 1.708969950675964355e+00
6.490000000000000000e+02 3.789937210083007812e+01 -1.345256710052490234e+01 -2.136786699295043945e+00 2.782689630985260010e-01 -5.575553178787231445e-01 -5.842793583869934082e-01
6.500000000000000000e+02 4.392398834228515625e+01 -1.356520652770996094e+01 -2.092066049575805664e+00 2.782455459237098694e-02 -6.192724704742431641e-01 -7.142088413238525391e-01
6.510000000000000000e+02 1.824538421630859375e+01 -2.940782356262207031e+01 -2.596682608127593994e-01 8.248383402824401855e-01 1.695510149002075195e-01 -2.586584687232971191e-01
6.520000000000000000e+02 6.410102844238281250e+00 -3.394712448120117188e+01 -2.466556429862976074e-01 2.198485374450683594e+00 5.855489373207092285e-01 3.026058077812194824e-01
6.530000000000000000e+02 6.287223434448242188e+01 -2.919102859497070312e+01 -5.574193596839904785e-01 3.003929376602172852e+00 7.339529991149902344e-01 4.550022780895233154e-01
6.540000000000000000e+02 7.297323608398437500e+01 -3.296698379516601562e+01 -2.828899323940277100e-01 8.335577011108398438e+00 2.415806055068969727e+00 -3.813396021723747253e-02
6.550000000000000000e+02 6.696858215332031250e+01 -1.589053440093994141e+01 2.131548881530761719e+00 1.068933010101318359e+01 3.846263647079467773e+00 4.112458705902099609e+00
6.560000000000000000e+02 4.592880630493164062e+01 7.146068572998046875e+00 9.871512651443481445e-01 2.994675636291503906e-01 3.859856426715850830e-01 -4.076642990112304688e-01
6.570000000000000000e+02 2.641865730285644531e+01 4.778135776519775391e+00 1.345319867134094238e+00 3.455076217651367188e+00 1.440118789672851562e+00 1.677396297454833984e+00
6.580000000000000000e+02 2.856726264953613281e+01 5.571388244628906250e+00 1.671548247337341309e+00 2.594940662384033203e+00 1.279946684837341309e+00 1.268257737159729004e+00
6.590000000000000000e+02 2.146939277648925781e+01 4.479603290557861328e+00 -4.488528668880462646e-01 7.430220246315002441e-01 8.825074136257171631e-02 8.072226643562316895e-01
6.600000000000000000e+02 6.195424652099609375e+01 -3.483652472496032715e-01 1.034564450383186340e-01 1.525086045265197754e+00 4.885627329349517822e-01 -1.890573143959045410e+00
6.610000000000000000e+02 6.146241378784179688e+01 1.255154609680175781e+01 5.955063104629516602e-01 3.534334659576416016e+00 1.238952279090881348e+00 -1.051340699195861816e+00
6.620000000000000000e+02 5.731829452514648438e+01 1.216897869110107422e+01 5.129622817039489746e-01 3.145071983337402344e+00 1.097410321235656738e+00 -7.046983838081359863e-01
6.630000000000000000e+02 7.248403167724609375e+01 1.178591156005859375e+01 1.877923868596553802e-02 6.263279914855957031e+00 1.884617686271667480e+00 -8.011148571968078613e-01
6.640000000000000000e+02 6.056870651245117188e+01 1.147191810607910156e+01 5.613736510276794434e-01 3.323048353195190430e+00 1.165326595306396484e+00 -9.894167184829711914e-01
6.650000000000000000e+02 7.241567230224609375e+01 1.916464042663574219e+01 1.480559706687927246e-01 5.736775398254394531e+00 1.765449285507202148e+00 -5.854911208152770996e-01
6.660000000000000000e+02 6.089837646484375000e+01 1.690385246276855469e+01 7.329661846160888672e-01 3.605182886123657227e+00 1.301444768905639648e+00 -7.940602302551269531e-01
6.670000000000000000e+02 4.954809951782226562e+01 1.937263870239257812e+01 8.694387078285217285e-01 3.485748767852783203e-01 3.654040694236755371e-01 6.108026951551437378e-02
6.680000000000000000e+02 5.093234634399414062e+01 1.895211219787597656e+01 7.607712745666503906e-01 2.936601638793945312e-01 3.163294196128845215e-01 -3.405150771141052246e-01
6.690000000000000000e+02 4.659316253662109375e+01 2.147177124023437500e+01 9.905825257301330566e-01 1.293156266212463379e+00 6.851216554641723633e-01 7.624778747558593750e-01
6.700000000000000000e+02 4.193747711181640625e+01 2.227667045593261719e+01 5.657107234001159668e-01 1.913065791130065918e+00 7.436329722404479980e-01 6.440961360931396484e-01
6.710000000000000000e+02 4.031456375122070312e+01 1.661111450195312500e+01 1.015509247779846191e+00 2.038443088531494141e+00 9.161857366561889648e-01 8.750392794609069824e-01
6.720000000000000000e+02 2.672444534301757812e+01 1.768881416320800781e+01 -3.826333284378051758e-01 1.463490724563598633e+00 3.242571949958801270e-01 2.520195245742797852e-01
6.730000000000000000e+02 2.803920173645019531e+01 2.178621864318847656e+01 -4.496206715703010559e-02 1.290877223014831543e+00 3.737745285034179688e-01 1.990327835083007812e-01
6.740000000000000000e+02 3.474733352661132812e+01 2.282552337646484375e+01 2.571905255317687988e-01 1.754781484603881836e+00 6.035916209220886230e-01 4.721012711524963379e-01
6.750000000000000000e+02 1.188522720336914062e+01 1.027847385406494141e+01 6.230295896530151367e-01 1.606290936470031738e+00 6.687961816787719727e-01 -4.470496997237205505e-02
6.760000000000000000e+02 3.869205474853515625e+01 1.195539760589599609e+01 7.457231879234313965e-01 1.624611735343933105e+00 7.111004590988159180e-01 1.029577016830444336e+00
6.770000000000000000e+02 2.790394592285156250e+01 1.213769531250000000e+01 2.867464423179626465e-01 2.743214845657348633e+00 9.089884161949157715e-01 1.191500306129455566e+00
6.780000000000000000e+02 1.862348437309265137e+00 1.636221313476562500e+01 1.101612765341997147e-02 -6.426973938941955566e-01 -1.895043700933456421e-01 -8.865823596715927124e-02
6.790000000000000000e+02 7.368666839599609375e+01 2.451113510131835938e+01 9.183223545551300049e-02 5.668971538543701172e+00 1.728241086006164551e+00 -3.686291277408599854e-01
6.800000000000000000e+02 6.287712478637695312e+01 2.488335037231445312e+01 4.265095293521881104e-01 3.966660261154174805e+00 1.317950963973999023e+00 -5.577446818351745605e-01
6.810000000000000000e+02 5.346901321411132812e+01 3.333990097045898438e+01 6.627629995346069336e-01 2.698423147201538086e+00 1.008355855941772461e+00 -1.334292441606521606e-01
6.820000000000000000e+02 4.976888656616210938e+01 3.089807319641113281e+01 7.513327598571777344e-01 2.251603364944458008e+00 9.008808135986328125e-01 3.964169882237911224e-04
6.830000000000000000e+02 2.907038688659667969e+01 3.192298698425292969e+01 2.390493452548980713e-01 1.183285355567932129e+00 4.267004132270812988e-01 1.411967277526855469e-01
6.840000000000000000e+02 2.097549057006835938e+01 2.375740432739257812e+01 8.224528282880783081e-02 5.269807577133178711e-01 1.827678233385086060e-01 3.174860477447509766e-01
6.850000000000000000e+02 1.782843589782714844e+01 2.238403892517089844e+01 -7.066737115383148193e-02 5.750492215156555176e-01 1.513145565986633301e-01 4.994098544120788574e-01
6.860000000000000000e+02 7.955464839935302734e+00 2.441317749023437500e+01 -1.284074485301971436e-01 2.608007192611694336e-01 3.971797972917556763e-02 -2.366701140999794006e-02
6.870000000000000000e+02 7.159725189208984375e+01 3.070172309875488281e+01 1.178877875208854675e-01 5.176541328430175781e+00 1.588328838348388672e+00 -2.882715761661529541e-01
6.880000000000000000e+02 5.906921768188476562e+01 3.243414688110351562e+01 5.118825435638427734e-01 3.430563449859619141e+00 1.182733774185180664e+00 -3.024677336215972900e-01
6.890000000000000000e+02 2.221262741088867188e+01 3.401340484619140625e+01 1.865026354789733887e-01 7.807563543319702148e-01 2.901777029037475586e-01 1.258759200572967529e-01
6.900000000000000000e+02 1.263376808166503906e+01 3.294598770141601562e+01 8.023374713957309723e-03 3.418710231781005859e-01 1.049683168530464172e-01 1.065297797322273254e-01
6.910000000000000000e+02 6.543716907501220703e+00 3.190237236022949219e+01 -1.524701900780200958e-02 2.961888210847973824e-03 -3.685539355501532555e-03 3.359875082969665527e-02
6.920000000000000000e+02 2.119976520538330078e+00 3.178181266784667969e+01 -1.464015222154557705e-03 -2.987911999225616455e-01 -9.007655829191207886e-02 7.985918782651424408e-04
6.930000000000000000e+02 6.969727993011474609e+00 -1.945115447044372559e+00 -9.223484396934509277e-01 2.181401699781417847e-01 -2.112624794244766235e-01 -1.181642040610313416e-01
6.940000000000000000e+02 6.150961399078369141e+00 -1.958254218101501465e+00 -8.500796556472778320e-01 2.349579781293869019e-01 -1.845365017652511597e-01 -2.374981939792633057e-01
6.950000000000000000e+02 5.330292224884033203e+00 -1.970849156379699707e+00 -7.934501171112060547e-01 1.255249828100204468e-01 -2.003775537014007568e-01 -4.269821941852569580e-01
6.960000000000000000e+02 4.508977413177490234e+00 -1.983745336532592773e+00 -6.459159255027770996e-01 7.888580113649368286e-02 -1.701090335845947266e-01 -4.749412834644317627e-01
6.970000000000000000e+02 2.865305662155151367e+00 -2.037746191024780273e+00 -3.679772615432739258e-01 -1.160593330860137939e-01 -1.452109813690185547e-01 -4.953547418117523193e-01
6.980000000000000000e+02 2.902824878692626953e+00 -3.091159343719482422e+00 -3.306183815002441406e-01 -1.909495294094085693e-01 -1.564703732728958130e-01 -7.274113297462463379e-01
6.990000000000000000e+02 2.041821479797363281e+00 -2.085672140121459961e+00 -2.289696186780929565e-01 -2.164802849292755127e-01 -1.336349695920944214e-01 -4.272616207599639893e-01
7.000000000000000000e+02 1.222484350204467773e+00 -2.139376401901245117e+00 -7.840084284543991089e-02 -2.812628746032714844e-01 -1.078991144895553589e-01 -2.537326216697692871e-01
7.010000000000000000e+02 4.068976044654846191e-01 -2.186039447784423828e+00 -3.238566219806671143e-02 -2.337966412305831909e-01 -7.985468953847885132e-02 -9.162558615207672119e-02
7.020000000000000000e+02 2.017081975936889648e+00 -4.168898010253906250e+01 2.133909240365028381e-02 2.667554140090942383e+00 8.066679835319519043e-01 -6.018668878823518753e-03
7.030000000000000000e+02 5.270781993865966797e+00 -3.880432891845703125e+01 -1.332390904426574707e-01 2.290801286697387695e+00 6.472686529159545898e-01 1.596478819847106934e-01
7.040000000000000000e+02 1.028754353523254395e+00 -3.879014587402343750e+01 3.511689428705722094e-04 2.689550161361694336e+00 8.069704174995422363e-01 -2.780380425974726677e-03
7.050000000000000000e+02 8.723213672637939453e-01 -3.465558624267578125e+01 -3.084203414618968964e-02 2.555355310440063477e+00 7.573540210723876953e-01 6.058578193187713623e-02
7.060000000000000000e+02 8.342573046684265137e-01 -3.324330902099609375e+01 6.104425992816686630e-03 2.438222885131835938e+00 7.332981824874877930e-01 8.432984352111816406e-02
7.070000000000000000e+02 7.049925327301025391e-01 -2.899492263793945312e+01 -5.064152181148529053e-02 1.763287663459777832e+00 5.137938261032104492e-01 1.658394932746887207e-01
7.080000000000000000e+02 6.857962608337402344e-01 -2.758116340637207031e+01 1.554166711866855621e-02 1.384103775024414062e+00 4.198936522006988525e-01 2.100875824689865112e-01
7.090000000000000000e+02 6.776039004325866699e-01 -2.616753959655761719e+01 -7.413560897111892700e-02 9.028835892677307129e-01 2.486243844032287598e-01 2.605194151401519775e-01
7.100000000000000000e+02 6.650087237358093262e-01 -2.190644454956054688e+01 4.221834242343902588e-02 -1.358667731285095215e+00 -3.949348330497741699e-01 4.712680280208587646e-01
7.110000000000000000e+02 6.521394252777099609e-01 -2.048568725585937500e+01 -7.579068094491958618e-02 -2.379618406295776367e+00 -7.366227507591247559e-01 4.874796271324157715e-01
7.120000000000000000e+02 1.954668164253234863e+00 -2.028117179870605469e+01 -1.487149391323328018e-02 -1.010694503784179688e+00 -3.076698184013366699e-01 1.333566665649414062e+00
7.130000000000000000e+02 5.821719765663146973e-01 -1.626206016540527344e+01 6.576839834451675415e-02 -5.557213306427001953e+00 -1.647433519363403320e+00 3.783255815505981445e-01
7.140000000000000000e+02 5.706209540367126465e-01 -1.485746097564697266e+01 1.017527282238006592e-01 -6.221542835235595703e+00 -1.835937023162841797e+00 1.721504032611846924e-01
7.150000000000000000e+02 5.787674188613891602e-01 -1.345204448699951172e+01 7.650455087423324585e-02 -6.336254596710205078e+00 -1.877924919128417969e+00 -4.935219511389732361e-02
7.160000000000000000e+02 1.725997567176818848e+00 -1.334852695465087891e+01 4.901270866394042969e-01 -3.665774583816528320e+00 -9.526942372322082520e-01 -2.342955917119979858e-01
7.170000000000000000e+02 5.851396322250366211e-01 -9.218052864074707031e+00 8.516190946102142334e-02 -4.140079498291015625e+00 -1.216475248336791992e+00 -3.825868070125579834e-01
7.180000000000000000e+02 5.593787431716918945e-01 -7.794208526611328125e+00 -7.868710160255432129e-02 -3.103121280670166016e+00 -9.545425176620483398e-01 -3.999242484569549561e-01
7.190000000000000000e+02 3.722293853759765625e+00 -3.009527921676635742e+00 -4.438771605491638184e-01 2.406157739460468292e-02 -1.259446740150451660e-01 -6.656025052070617676e-01
7.200000000000000000e+02 3.765631675720214844e+00 -4.022309780120849609e+00 -4.225435554981231689e-01 3.154629468917846680e-02 -1.172991767525672913e-01 -8.661580681800842285e-01
7.210000000000000000e+02 6.711534118652343750e+01 -3.743603134155273438e+01 1.110432147979736328e-01 5.294626712799072266e+00 1.621701002120971680e+00 2.120691686868667603e-01
7.220000000000000000e+02 4.883901596069335938e+01 -3.660218048095703125e+01 -1.555268745869398117e-02 -4.343543648719787598e-01 -1.349721103906631470e-01 -3.590655624866485596e-01
7.230000000000000000e+02 3.020031356811523438e+01 -3.850166320800781250e+01 -2.154901772737503052e-01 -8.758744597434997559e-02 -9.092328697443008423e-02 6.396672129631042480e-02
7.240000000000000000e+02 1.411039352416992188e+01 -3.819432830810546875e+01 -2.846972048282623291e-01 1.474102973937988281e+00 3.568217158317565918e-01 -1.185499597340822220e-03
7.250000000000000000e+02 7.586841583251953125e+01 4.038861846923828125e+01 3.028906323015689850e-02 5.578997135162353516e+00 1.682785868644714355e+00 1.301434473134577274e-03
7.260000000000000000e+02 7.806388092041015625e+01 4.174197006225585938e+01 7.347861677408218384e-02 5.680625915527343750e+00 1.726231336593627930e+00 -2.049706131219863892e-02
7.270000000000000000e+02 7.881089782714843750e+01 3.880421447753906250e+01 -2.127416990697383881e-02 5.760525703430175781e+00 1.721775531768798828e+00 -2.670953236520290375e-02
7.280000000000000000e+02 7.787536621093750000e+01 3.669595718383789062e+01 1.330156624317169189e-02 5.712409019470214844e+00 1.717713117599487305e+00 -4.094108194112777710e-02
7.290000000000000000e+02 7.921627807617187500e+01 3.496549606323242188e+01 1.132988487370312214e-03 5.876319408416748047e+00 1.763235688209533691e+00 -1.666979491710662842e-02
7.300000000000000000e+02 7.759283447265625000e+01 3.390690994262695312e+01 1.373751740902662277e-02 5.764543533325195312e+00 1.733484387397766113e+00 -7.622231543064117432e-02
7.310000000000000000e+02 7.920171356201171875e+01 3.359072494506835938e+01 5.610203836113214493e-03 5.915467262268066406e+00 1.776323199272155762e+00 -2.338784933090209961e-02
7.320000000000000000e+02 7.923690032958984375e+01 3.075874519348144531e+01 5.853077396750450134e-03 6.018746376037597656e+00 1.807379841804504395e+00 -3.331039473414421082e-02
7.330000000000000000e+02 7.650584411621093750e+01 2.817936134338378906e+01 2.907950989902019501e-02 5.866075515747070312e+00 1.768546581268310547e+00 -1.693710535764694214e-01
7.340000000000000000e+02 7.931789398193359375e+01 2.655405044555664062e+01 -5.777629092335700989e-03 6.238414287567138672e+00 1.869791030883789062e+00 -3.750542551279067993e-02
7.350000000000000000e+02 7.657614898681640625e+01 2.549576950073242188e+01 3.530758619308471680e-02 6.006300449371337891e+00 1.812482357025146484e+00 -2.102962136268615723e-01
7.360000000000000000e+02 7.932534790039062500e+01 2.516699218750000000e+01 1.031239796429872513e-02 6.328196048736572266e+00 1.901552557945251465e+00 -4.391330853104591370e-02
7.370000000000000000e+02 7.933229827880859375e+01 2.099972534179687500e+01 -6.895747967064380646e-03 6.660080909729003906e+00 1.995955467224121094e+00 -5.642422288656234741e-02
7.380000000000000000e+02 7.933499908447265625e+01 1.960668373107910156e+01 1.284835953265428543e-02 6.796776294708251953e+00 2.042887449264526367e+00 -6.527391821146011353e-02
7.390000000000000000e+02 7.933747100830078125e+01 1.821224784851074219e+01 -8.430473506450653076e-03 6.944996833801269531e+00 2.080969810485839844e+00 -6.730079650878906250e-02
7.400000000000000000e+02 7.933648681640625000e+01 1.402235603332519531e+01 1.425616163760423660e-02 7.463003158569335938e+00 2.243177652359008789e+00 -8.365793526172637939e-02
7.410000000000000000e+02 7.933368682861328125e+01 1.262503528594970703e+01 -1.221390999853610992e-02 7.651448249816894531e+00 2.291770458221435547e+00 -8.316968381404876709e-02
7.420000000000000000e+02 7.933480834960937500e+01 1.122865390777587891e+01 1.151313446462154388e-02 7.843606948852539062e+00 2.356536149978637695e+00 -8.485753089189529419e-02
7.430000000000000000e+02 7.935540771484375000e+01 7.046028614044189453e+00 -1.875025965273380280e-02 8.358977317810058594e+00 2.502068042755126953e+00 -5.163858830928802490e-02
7.440000000000000000e+02 7.936119079589843750e+01 5.653606891632080078e+00 -6.357457023113965988e-03 8.466523170471191406e+00 2.538049697875976562e+00 -2.497206255793571472e-02
7.450000000000000000e+02 7.936519622802734375e+01 4.263815879821777344e+00 -1.766313426196575165e-02 8.516714096069335938e+00 2.549715280532836914e+00 1.810439047403633595e-03
7.460000000000000000e+02 7.936983489990234375e+01 9.598773717880249023e-02 -6.120304763317108154e-02 8.056564331054687500e+00 2.398608207702636719e+00 1.794192790985107422e-01
7.470000000000000000e+02 7.937290191650390625e+01 -1.293867111206054688e+00 1.819352805614471436e-02 7.646441936492919922e+00 2.299390792846679688e+00 2.146819978952407837e-01
7.480000000000000000e+02 7.815113067626953125e+01 -3.869750261306762695e+00 -1.084137186408042908e-01 7.111004352569580078e+00 2.100777149200439453e+00 8.405161499977111816e-01
7.490000000000000000e+02 7.938082122802734375e+01 -4.073075294494628906e+00 6.012507155537605286e-02 6.432723522186279297e+00 1.947854638099670410e+00 3.031205832958221436e-01
7.500000000000000000e+02 7.935717773437500000e+01 -8.256235122680664062e+00 -5.966701358556747437e-02 4.490592002868652344e+00 1.329277396202087402e+00 2.366252839565277100e-01
7.510000000000000000e+02 7.794415283203125000e+01 -1.080961036682128906e+01 4.087661802768707275e-01 5.853353500366210938e+00 1.878635883331298828e+00 -2.969695255160331726e-02
7.520000000000000000e+02 7.931816864013671875e+01 -1.104191017150878906e+01 3.089056117460131645e-03 4.124744415283203125e+00 1.238350033760070801e+00 -4.618530720472335815e-02
7.530000000000000000e+02 7.931352996826171875e+01 -1.524046611785888672e+01 2.414306811988353729e-02 5.572916984558105469e+00 1.679118037223815918e+00 -3.880982100963592529e-01
7.540000000000000000e+02 7.808515167236328125e+01 -1.789836692810058594e+01 -1.378199178725481033e-02 7.828445911407470703e+00 2.344399213790893555e+00 -1.113799452781677246e+00
7.550000000000000000e+02 7.935281372070312500e+01 -1.803489494323730469e+01 -4.913767799735069275e-02 7.298755645751953125e+00 2.174885511398315430e+00 -4.231589436531066895e-01
7.560000000000000000e+02 7.933262634277343750e+01 -2.363133621215820312e+01 -5.939940363168716431e-02 1.013705158233642578e+01 3.023295640945434570e+00 -2.659333944320678711e-01
7.570000000000000000e+02 7.797901916503906250e+01 -2.492360496520996094e+01 -1.318181008100509644e-01 1.009228420257568359e+01 2.988139867782592773e+00 -5.467123985290527344e-01
7.580000000000000000e+02 7.931870269775390625e+01 -2.503261947631835938e+01 8.952089585363864899e-03 1.057205867767333984e+01 3.174303293228149414e+00 -2.186789661645889282e-01
7.590000000000000000e+02 7.928847503662109375e+01 -2.924990272521972656e+01 -2.061739750206470490e-02 1.132034397125244141e+01 3.389918088912963867e+00 -9.687770158052444458e-02
7.600000000000000000e+02 7.789261627197265625e+01 -3.201796340942382812e+01 -3.744226694107055664e-02 1.073942852020263672e+01 3.210596084594726562e+00 -8.213020116090774536e-02
7.610000000000000000e+02 7.928597259521484375e+01 -3.203810882568359375e+01 4.122687038034200668e-03 1.151314830780029297e+01 3.455181360244750977e+00 -5.612322315573692322e-02
7.620000000000000000e+02 7.924172973632812500e+01 -3.624793624877929688e+01 3.695670887827873230e-02 1.141574192047119141e+01 3.435809612274169922e+00 4.350837320089340210e-03
7.630000000000000000e+02 7.935779571533203125e+01 -3.757907867431640625e+01 -8.645750582218170166e-02 1.134894847869873047e+01 3.378747463226318359e+00 4.954073950648307800e-02
7.640000000000000000e+02 7.925609588623046875e+01 -3.876812744140625000e+01 4.856940731406211853e-02 1.117185306549072266e+01 3.366126775741577148e+00 6.973148137331008911e-02
7.650000000000000000e+02 7.878484344482421875e+01 -4.000107955932617188e+01 -1.102324873208999634e-01 1.092708110809326172e+01 3.245054721832275391e+00 1.833490580320358276e-01
7.660000000000000000e+02 5.258491992950439453e+00 4.021090316772460938e+01 -1.287224440602585673e-04 -1.422573775053024292e-01 -4.271582886576652527e-02 2.439165487885475159e-02
7.670000000000000000e+02 2.763752555847167969e+01 4.042926788330078125e+01 2.780151665210723877e-01 1.103758931159973145e+00 4.145322144031524658e-01 3.257170692086219788e-02
7.680000000000000000e+02 3.897186815738677979e-01 2.179148674011230469e+00 -6.132107228040695190e-03 -6.037312746047973633e-02 -1.995157077908515930e-02 2.546030096709728241e-02
7.690000000000000000e+02 2.770016670227050781e+00 2.946714162826538086e+00 -9.326622635126113892e-02 -1.324049085378646851e-01 -6.770133972167968750e-02 2.459032535552978516e-01
7.700000000000000000e+02 6.053932189941406250e+00 4.338599205017089844e+00 -6.542367488145828247e-02 -4.204301536083221436e-02 -3.224000707268714905e-02 4.070631861686706543e-01
7.710000000000000000e+02 6.264276504516601562e-01 9.283237457275390625e+00 1.280649099498987198e-02 -8.784042596817016602e-01 -2.596793472766876221e-01 4.890182241797447205e-02
7.720000000000000000e+02 6.057657003402709961e-01 1.211896610260009766e+01 7.661835756152868271e-03 -1.002016663551330566e+00 -2.983064651489257812e-01 5.063630174845457077e-03
7.730000000000000000e+02 1.813165426254272461e+00 1.216304302215576172e+01 3.689716011285781860e-02 -7.290468215942382812e-01 -2.076448947191238403e-01 1.095307990908622742e-02
7.740000000000000000e+02 6.202577352523803711e-01 1.634831237792968750e+01 4.821245558559894562e-03 -8.874779343605041504e-01 -2.647970020771026611e-01 -3.432400897145271301e-02
7.750000000000000000e+02 6.280300617218017578e-01 1.775767135620117188e+01 -1.130782300606369972e-03 -8.065137863159179688e-01 -2.422933727502822876e-01 -3.833875432610511780e-02
7.760000000000000000e+02 6.461743712425231934e-01 2.199853324890136719e+01 -2.125603146851062775e-03 -5.685137510299682617e-01 -1.711917966604232788e-01 -3.051693923771381378e-02
7.770000000000000000e+02 6.519855260848999023e-01 2.341354942321777344e+01 -2.923935186117887497e-03 -5.087869167327880859e-01 -1.535132527351379395e-01 -2.483825758099555969e-02
7.780000000000000000e+02 6.614566445350646973e-01 2.482611274719238281e+01 -2.667364431545138359e-03 -4.617588818073272705e-01 -1.393278688192367554e-01 -1.901632361114025116e-02
7.790000000000000000e+02 7.008669972419738770e-01 2.904528236389160156e+01 -3.123015165328979492e-03 -3.941349685192108154e-01 -1.191773936152458191e-01 -3.939971793442964554e-03
7.800000000000000000e+02 7.052897810935974121e-01 3.045042037963867188e+01 9.258576319552958012e-04 -3.882606923580169678e-01 -1.162004470825195312e-01 -2.067156368866562843e-03
7.810000000000000000e+02 2.132847309112548828e+00 3.039259529113769531e+01 -5.489496979862451553e-03 -2.952440083026885986e-01 -9.022004902362823486e-02 -2.806316129863262177e-03
7.820000000000000000e+02 7.009756565093994141e-01 3.185295867919921875e+01 -2.206680364906787872e-03 -3.861145079135894775e-01 -1.164963617920875549e-01 -4.603811830747872591e-04
7.830000000000000000e+02 7.239730358123779297e-01 3.600629806518554688e+01 -2.254623221233487129e-03 -3.810832500457763672e-01 -1.150013655424118042e-01 -2.453592605888843536e-03
7.840000000000000000e+02 2.712116479873657227e+00 3.793085861206054688e+01 1.289943046867847443e-02 -2.779597938060760498e-01 -7.951810956001281738e-02 -8.617366664111614227e-03
7.850000000000000000e+02 1.005726456642150879e+00 3.868752670288085938e+01 -6.919563165865838528e-04 -3.570877611637115479e-01 -1.073339134454727173e-01 -9.493598714470863342e-03
7.860000000000000000e+02 1.389036178588867188e+00 4.004320526123046875e+01 8.487021550536155701e-03 -3.390607237815856934e-01 -9.917210787534713745e-02 -1.676430180668830872e-02
7.870000000000000000e+02 9.840696334838867188e+00 1.853326320648193359e+00 -6.864407062530517578e-01 3.890341520309448242e-02 -1.942611783742904663e-01 1.658341139554977417e-01
7.880000000000000000e+02 9.041541099548339844e+00 1.876147389411926270e+00 -6.549543142318725586e-01 -1.145103294402360916e-02 -1.999216079711914062e-01 2.437604963779449463e-01
7.890000000000000000e+02 8.249503135681152344e+00 1.885946989059448242e+00 -6.076787114143371582e-01 2.821497851982712746e-03 -1.814571619033813477e-01 2.950113415718078613e-01
7.900000000000000000e+02 7.458709239959716797e+00 1.891651749610900879e+00 -5.546557903289794922e-01 -1.250016875565052032e-02 -1.701467931270599365e-01 3.086820840835571289e-01
7.910000000000000000e+02 5.090404510498046875e+00 1.914011001586914062e+00 -3.284364640712738037e-01 -3.087433241307735443e-02 -1.077932417392730713e-01 2.807776033878326416e-01
7.920000000000000000e+02 4.307118892669677734e+00 1.927292823791503906e+00 -2.551851868629455566e-01 -4.762718826532363892e-02 -9.084371477365493774e-02 2.549183964729309082e-01
7.930000000000000000e+02 3.522762775421142578e+00 1.949889779090881348e+00 -1.880939602851867676e-01 -5.590524524450302124e-02 -7.319976389408111572e-02 2.241968512535095215e-01
7.940000000000000000e+02 1.950857639312744141e+00 2.048074722290039062e+00 -7.341699302196502686e-02 -8.816482126712799072e-02 -4.847454279661178589e-02 1.349489390850067139e-01
7.950000000000000000e+02 1.169917941093444824e+00 2.116884708404541016e+00 -2.977915853261947632e-02 -9.507523477077484131e-02 -3.745631873607635498e-02 8.079777657985687256e-02
7.960000000000000000e+02 1.146576213836669922e+01 1.574544310569763184e+00 -7.032372951507568359e-01 2.239573299884796143e-01 -1.437839865684509277e-01 -9.577716886997222900e-02
7.970000000000000000e+02 1.307798480987548828e+01 1.169116020202636719e+00 -5.610095262527465820e-01 4.585022926330566406e-01 -3.075216338038444519e-02 -4.164275228977203369e-01
7.980000000000000000e+02 1.462451457977294922e+01 5.926614403724670410e-01 -1.778610944747924805e-01 6.561750173568725586e-01 1.434941738843917847e-01 -7.633249163627624512e-01
7.990000000000000000e+02 1.605837059020996094e+01 -7.016392797231674194e-02 4.122148752212524414e-01 1.058686614036560059e+00 4.412704408168792725e-01 -1.083944559097290039e+00
8.000000000000000000e+02 1.721517944335937500e+01 -8.056471347808837891e-01 8.574885129928588867e-01 2.273031711578369141e+00 9.391560554504394531e-01 -1.333366632461547852e+00
8.010000000000000000e+02 1.754658317565917969e+01 -5.515734553337097168e-01 6.648279428482055664e-01 2.970650911331176758e+00 1.090643644332885742e+00 -1.229997396469116211e+00
8.020000000000000000e+02 1.856187248229980469e+01 -1.747915148735046387e+00 8.252730369567871094e-01 7.913848400115966797e+00 2.621736526489257812e+00 2.593626976013183594e-01
8.030000000000000000e+02 1.838277626037597656e+01 -1.651923298835754395e+00 7.871342301368713379e-01 6.963435173034667969e+00 2.325170755386352539e+00 -4.697935581207275391e-01
8.040000000000000000e+02 1.890387725830078125e+01 -1.975724816322326660e+00 1.646971583366394043e+00 9.067917823791503906e+00 3.214466810226440430e+00 1.988031148910522461e+00
8.050000000000000000e+02 1.572566604614257812e+01 -4.481056690216064453e+00 6.953859329223632812e+00 -6.201596260070800781e-01 1.900109887123107910e+00 2.684546232223510742e+00
8.060000000000000000e+02 1.610515403747558594e+01 -4.404550075531005859e+00 8.176877975463867188e+00 -4.715135991573333740e-01 2.311609268188476562e+00 2.762659549713134766e+00
8.070000000000000000e+02 1.529362583160400391e+01 -4.084156990051269531e+00 5.803834915161132812e+00 -1.054800868034362793e+00 1.424710273742675781e+00 1.588232040405273438e+00
8.080000000000000000e+02 1.512342357635498047e+01 -3.492236852645874023e+00 4.641317367553710938e+00 -8.537424206733703613e-01 1.136272549629211426e+00 6.370512247085571289e-01
8.090000000000000000e+02 1.490207004547119141e+01 -3.410231590270996094e+00 4.074424266815185547e+00 -8.626050949096679688e-01 9.635457992553710938e-01 5.974507927894592285e-01
8.100000000000000000e+02 1.194159317016601562e+01 -2.403273820877075195e+00 5.648888945579528809e-01 -2.369735538959503174e-01 9.837459772825241089e-02 6.960913538932800293e-01
8.110000000000000000e+02 1.277812290191650391e+01 -2.647175550460815430e+00 1.188801884651184082e+00 -3.197157382965087891e-01 2.607258558273315430e-01 7.963109016418457031e-01
8.120000000000000000e+02 7.827862739562988281e+00 -2.812263727188110352e+00 -6.527251601219177246e-01 4.660413265228271484e-01 -5.600515380501747131e-02 1.730008274316787720e-01
8.130000000000000000e+02 2.140938186645507812e+01 1.641794586181640625e+01 -1.199751853942871094e+00 -2.060717791318893433e-01 -4.217470884323120117e-01 4.124307632446289062e-01
8.140000000000000000e+02 1.361119270324707031e+01 7.779061317443847656e+00 6.928536891937255859e-01 2.279914379119873047e+00 8.918303847312927246e-01 -3.193962275981903076e-01
8.150000000000000000e+02 6.785601043701171875e+01 -1.688521766662597656e+01 6.274325847625732422e-01 1.051826381683349609e+01 3.343708992004394531e+00 2.370307683944702148e+00
8.160000000000000000e+02 6.538088989257812500e+01 -1.821345138549804688e+01 1.660730004310607910e+00 5.213459968566894531e+00 2.062257051467895508e+00 2.753581285476684570e+00
8.170000000000000000e+02 6.449212646484375000e+01 -1.931787872314453125e+01 1.035739541053771973e+00 3.174404859542846680e+00 1.263043284416198730e+00 1.920405387878417969e+00
8.180000000000000000e+02 6.267297363281250000e+01 -2.149146842956542969e+01 7.545439898967742920e-02 1.221588134765625000e+00 3.891127407550811768e-01 5.668899416923522949e-01
8.190000000000000000e+02 5.968255615234375000e+01 -2.455579376220703125e+01 -1.126664996147155762e+00 -2.367047369480133057e-01 -4.090109169483184814e-01 -6.560191512107849121e-01
8.200000000000000000e+02 5.738686370849609375e+01 -2.620678901672363281e+01 -1.729788899421691895e+00 -6.282157301902770996e-01 -7.074013948440551758e-01 -1.033139944076538086e+00
8.210000000000000000e+02 5.499132919311523438e+01 -2.768708992004394531e+01 -1.895759820938110352e+00 -5.965209007263183594e-01 -7.476842403411865234e-01 -1.022745013236999512e+00
8.220000000000000000e+02 5.250778961181640625e+01 -2.905493164062500000e+01 -1.748963236808776855e+00 -5.016615390777587891e-01 -6.751874089241027832e-01 -9.555279016494750977e-01
8.230000000000000000e+02 4.588988876342773438e+01 -3.151804542541503906e+01 -9.807084202766418457e-01 -1.610712110996246338e-01 -3.425338864326477051e-01 -3.536841273307800293e-01
8.240000000000000000e+02 3.999111938476562500e+01 -3.288454437255859375e+01 -5.636559724807739258e-01 -5.395067855715751648e-02 -1.852820068597793579e-01 -9.928046166896820068e-02
8.250000000000000000e+02 3.567574691772460938e+01 -3.263814926147460938e+01 -4.667391180992126465e-01 -4.493284225463867188e-02 -1.535015851259231567e-01 4.345931857824325562e-02
8.260000000000000000e+02 3.138565826416015625e+01 -3.181511878967285156e+01 -5.675684809684753418e-01 -3.591492772102355957e-02 -1.810450255870819092e-01 1.482155621051788330e-01
8.270000000000000000e+02 2.999063491821289062e+01 -3.152809143066406250e+01 -6.178509593009948730e-01 -8.461697399616241455e-02 -2.107403725385665894e-01 1.781384497880935669e-01
8.280000000000000000e+02 2.476449394226074219e+01 -2.926727104187011719e+01 -4.968189895153045654e-01 -9.417656809091567993e-02 -1.772986650466918945e-01 2.085394710302352905e-01
8.290000000000000000e+02 2.226527214050292969e+01 -2.799144554138183594e+01 -3.443350195884704590e-01 -1.344608422368764877e-02 -1.073343306779861450e-01 1.097292676568031311e-01
8.300000000000000000e+02 2.350486564636230469e+01 -2.865130043029785156e+01 -4.307671189308166504e-01 -4.788108542561531067e-02 -1.435944586992263794e-01 1.802477836608886719e-01
8.310000000000000000e+02 1.366862583160400391e+01 -2.045428657531738281e+01 1.222557783126831055e+00 2.110284328460693359e+00 9.998526573181152344e-01 -1.689591050148010254e+00
8.320000000000000000e+02 1.269041824340820312e+01 -1.943290710449218750e+01 1.698716640472412109e+00 3.040661334991455078e+00 1.421813368797302246e+00 -2.113646268844604492e+00
8.330000000000000000e+02 1.079609107971191406e+01 -1.732298660278320312e+01 2.833147048950195312e+00 7.170540332794189453e+00 3.001106262207031250e+00 -3.851126670837402344e+00
8.340000000000000000e+02 1.926398468017578125e+01 -7.745601177215576172e+00 6.776895523071289062e-01 3.928539752960205078e+00 1.381868839263916016e+00 1.015352845191955566e+00
8.350000000000000000e+02 2.022021865844726562e+01 -1.488667392730712891e+01 -7.995302200317382812e+00 -1.434619426727294922e+00 -2.828976392745971680e+00 3.358159065246582031e+00
8.360000000000000000e+02 2.145505142211914062e+01 -1.549991321563720703e+01 -6.699859619140625000e+00 -1.033208608627319336e+00 -2.319920539855957031e+00 2.784886837005615234e+00
8.370000000000000000e+02 2.397612762451171875e+01 -1.655689620971679688e+01 -5.578299045562744141e+00 -4.532519578933715820e-01 -1.809465408325195312e+00 1.755394816398620605e+00
8.380000000000000000e+02 2.923874664306640625e+01 -1.801819801330566406e+01 -4.049299716949462891e+00 -2.823930792510509491e-02 -1.223261594772338867e+00 7.053253054618835449e-01
8.390000000000000000e+02 3.194615554809570312e+01 -1.841630744934082031e+01 -3.688995599746704102e+00 -6.429795175790786743e-03 -1.108627557754516602e+00 3.542584478855133057e-01
8.400000000000000000e+02 3.743625259399414062e+01 -1.857648468017578125e+01 -3.032833814620971680e+00 1.296031102538108826e-02 -9.059620499610900879e-01 -1.905565857887268066e-01
8.410000000000000000e+02 3.456840133666992188e+01 -1.734513664245605469e+01 -3.118116378784179688e+00 2.089855372905731201e-01 -8.727392554283142090e-01 -9.208356589078903198e-02
8.420000000000000000e+02 4.017391204833984375e+01 -1.838257598876953125e+01 -2.501604557037353516e+00 3.444904088973999023e-02 -7.401466369628906250e-01 -3.869154751300811768e-01
8.430000000000000000e+02 4.548356628417968750e+01 -1.700475883483886719e+01 -2.633459568023681641e+00 -2.512925863265991211e-01 -8.654256463050842285e-01 -7.991037964820861816e-01
8.440000000000000000e+02 4.366878509521484375e+01 -1.625835800170898438e+01 -2.424366712570190430e+00 -1.014324948191642761e-01 -7.577397227287292480e-01 -6.731244325637817383e-01
8.450000000000000000e+02 4.679558563232421875e+01 -1.659577751159667969e+01 -2.375962257385253906e+00 -2.064310610294342041e-01 -7.747180461883544922e-01 -8.312240242958068848e-01
8.460000000000000000e+02 4.807978439331054688e+01 -1.610438156127929688e+01 -2.314099311828613281e+00 -3.157291114330291748e-01 -7.889485359191894531e-01 -9.396677613258361816e-01
8.470000000000000000e+02 5.224961090087890625e+01 -1.261160087585449219e+01 -2.375994443893432617e+00 -5.036682486534118652e-01 -8.638988137245178223e-01 -1.171164035797119141e+00
8.480000000000000000e+02 5.302520370483398438e+01 -1.362636184692382812e+01 -2.567107915878295898e+00 -7.407151460647583008e-01 -9.923468828201293945e-01 -1.371850609779357910e+00
8.490000000000000000e+02 5.542599487304687500e+01 -1.223225307464599609e+01 -2.616603374481201172e+00 -8.959069848060607910e-01 -1.053753137588500977e+00 -1.580432415008544922e+00
8.500000000000000000e+02 5.776377868652343750e+01 -1.071362686157226562e+01 -3.174067497253417969e+00 -1.182113766670227051e+00 -1.306854367256164551e+00 -1.924991607666015625e+00
8.510000000000000000e+02 6.124980545043945312e+01 -8.431226730346679688e+00 -4.251845359802246094e+00 -1.371549725532531738e+00 -1.687018513679504395e+00 -2.388668775558471680e+00
8.520000000000000000e+02 6.421117401123046875e+01 -5.959218978881835938e+00 -3.047511577606201172e+00 -6.298539042472839355e-01 -1.103209614753723145e+00 -2.333528518676757812e+00
8.530000000000000000e+02 5.466904830932617188e+01 1.669705390930175781e+01 1.228187084197998047e+00 2.995246410369873047e+00 1.267030000686645508e+00 -1.448346376419067383e+00
8.540000000000000000e+02 4.613280487060546875e+01 5.854022502899169922e+00 1.317427754402160645e+00 2.356154322624206543e-01 4.659129679203033447e-01 -2.076766192913055420e-01
8.550000000000000000e+02 4.293939208984375000e+01 9.322082519531250000e+00 3.015241324901580811e-01 8.928921222686767578e-01 3.583248853683471680e-01 -1.004250943660736084e-01
8.560000000000000000e+02 1.946944427490234375e+01 -2.434035062789916992e+00 5.023842811584472656e+00 8.674530982971191406e+00 4.109512329101562500e+00 4.664446353912353516e+00
8.570000000000000000e+02 1.805500984191894531e+01 -1.435613036155700684e+00 8.483976125717163086e-01 5.200438022613525391e+00 1.814650774002075195e+00 -1.151377201080322266e+00
8.580000000000000000e+02 1.775082015991210938e+01 -1.175451636314392090e+00 8.803796768188476562e-01 3.886978864669799805e+00 1.430207610130310059e+00 -1.381673693656921387e+00
8.590000000000000000e+02 1.789998245239257812e+01 -1.315204977989196777e+00 8.560347557067871094e-01 4.597521305084228516e+00 1.636066913604736328e+00 -1.314325451850891113e+00
8.600000000000000000e+02 2.013577079772949219e+01 2.501341581344604492e+00 -1.851820498704910278e-01 1.397684216499328613e+00 3.637506365776062012e-01 1.189517498016357422e+00
8.610000000000000000e+02 1.651020050048828125e+01 -3.256364464759826660e-01 5.955165028572082520e-01 1.323483467102050781e+00 5.756999850273132324e-01 -1.207640647888183594e+00
8.620000000000000000e+02 1.437996101379394531e+01 -3.241861581802368164e+00 3.114423990249633789e+00 -6.557092666625976562e-01 7.376144528388977051e-01 6.991968154907226562e-01
8.630000000000000000e+02 1.552637100219726562e+01 -4.160429477691650391e+00 6.342729568481445312e+00 -8.928225636482238770e-01 1.634972095489501953e+00 1.785454392433166504e+00
8.640000000000000000e+02 1.529532051086425781e+01 -3.619834899902343750e+00 5.038873195648193359e+00 -9.258492588996887207e-01 1.233907222747802734e+00 6.023425459861755371e-01
8.650000000000000000e+02 1.805625724792480469e+01 -5.697335720062255859e+00 4.966617107391357422e+00 7.650941848754882812e+00 3.785267829895019531e+00 3.884804487228393555e+00
8.660000000000000000e+02 1.700689888000488281e+01 -4.915028095245361328e+00 8.514366149902343750e+00 3.473942995071411133e+00 3.596492767333984375e+00 5.330715656280517578e+00
8.670000000000000000e+02 1.635989761352539062e+01 -4.696480274200439453e+00 8.635867118835449219e+00 2.833071649074554443e-01 2.675752401351928711e+00 3.989729642868041992e+00
8.680000000000000000e+02 1.620051002502441406e+01 -4.137471675872802734e+00 8.272442817687988281e+00 -5.233387351036071777e-01 2.324731349945068359e+00 1.983025670051574707e+00
8.690000000000000000e+02 1.591213035583496094e+01 -4.303573608398437500e+00 7.473864555358886719e+00 -6.221132278442382812e-01 2.055525541305541992e+00 2.428603887557983398e+00
8.700000000000000000e+02 1.602722167968750000e+01 -4.034985542297363281e+00 7.624447822570800781e+00 -7.758095860481262207e-01 2.054591417312622070e+00 1.464625477790832520e+00
8.710000000000000000e+02 1.505236434936523438e+01 -3.956217288970947266e+00 5.049660205841064453e+00 -9.223808050155639648e-01 1.238183736801147461e+00 1.483727455139160156e+00
8.720000000000000000e+02 2.028772544860839844e+01 -5.964039325714111328e+00 4.502249717712402344e+00 4.853818893432617188e+00 2.806820631027221680e+00 -6.146996617317199707e-01
8.730000000000000000e+02 1.929453086853027344e+01 -5.116996765136718750e+00 7.506766319274902344e+00 8.024995803833007812e+00 4.659528732299804688e+00 -2.013085335493087769e-01
8.740000000000000000e+02 1.759397315979003906e+01 -5.154646873474121094e+00 7.359265327453613281e+00 6.842374801635742188e+00 4.260491847991943359e+00 5.250995635986328125e+00
8.750000000000000000e+02 2.072543907165527344e+01 -2.697484016418457031e+00 6.365619659423828125e+00 4.445237636566162109e+00 3.243257045745849609e+00 4.033734798431396484e+00
8.760000000000000000e+02 1.912213706970214844e+01 -2.095460891723632812e+00 2.219635248184204102e+00 9.745300292968750000e+00 3.589480638504028320e+00 3.039839506149291992e+00
8.770000000000000000e+02 1.663562583923339844e+01 -4.511476039886474609e+00 9.563372611999511719e+00 6.905893087387084961e-01 3.076188564300537109e+00 3.900967597961425781e+00
8.780000000000000000e+02 1.657087707519531250e+01 -1.090952587127685547e+01 -4.702939033508300781e+00 -7.721143960952758789e-01 -1.642516016960144043e+00 2.968635320663452148e+00
8.790000000000000000e+02 9.196015357971191406e+00 3.400274276733398438e+00 -2.382242977619171143e-01 1.519001722335815430e-01 -2.589723467826843262e-02 2.529313862323760986e-01
8.800000000000000000e+02 8.303753852844238281e+00 2.654929399490356445e+00 -4.043742120265960693e-01 2.556253597140312195e-02 -1.136435046792030334e-01 3.209018409252166748e-01
8.810000000000000000e+02 5.891263484954833984e+00 2.716431140899658203e+00 -2.840881347656250000e-01 -3.461228311061859131e-02 -9.561012685298919678e-02 3.618412017822265625e-01
8.820000000000000000e+02 5.876949310302734375e+00 1.905332922935485840e+00 -4.057234227657318115e-01 -2.837883494794368744e-02 -1.302306801080703735e-01 2.985369265079498291e-01
8.830000000000000000e+02 1.948705196380615234e+00 7.814937591552734375e+00 4.039390385150909424e-02 -5.369483828544616699e-01 -1.489663422107696533e-01 1.853503286838531494e-01
8.840000000000000000e+02 4.367403030395507812e+00 3.653265953063964844e+00 -1.131266877055168152e-01 -1.146770715713500977e-01 -6.834112852811813354e-02 3.620688617229461670e-01
8.850000000000000000e+02 1.227371573448181152e+00 3.363900899887084961e+00 -2.334177494049072266e-02 -1.960149705410003662e-01 -6.580702215433120728e-02 1.322716623544692993e-01
8.860000000000000000e+02 2.735573053359985352e+00 1.989068865776062012e+00 -1.247597560286521912e-01 -7.741469889879226685e-02 -6.065233424305915833e-02 1.829200983047485352e-01
8.870000000000000000e+02 2.003740310668945312e+00 3.136714220046997070e+00 -4.816999658942222595e-02 -1.754014045000076294e-01 -6.707142293453216553e-02 1.919930875301361084e-01
8.880000000000000000e+02 9.113837242126464844e+00 2.631846427917480469e+00 -4.253221452236175537e-01 7.347558438777923584e-02 -1.055539697408676147e-01 2.626426219940185547e-01
8.890000000000000000e+02 7.499355316162109375e+00 2.668073415756225586e+00 -3.730166256427764893e-01 1.137717254459857941e-02 -1.084918305277824402e-01 3.558126389980316162e-01
8.900000000000000000e+02 6.694036006927490234e+00 2.687668800354003906e+00 -3.311149775981903076e-01 -2.224630117416381836e-02 -1.060083881020545959e-01 3.664966821670532227e-01
8.910000000000000000e+02 5.101010322570800781e+00 2.747959852218627930e+00 -2.346546798944473267e-01 -6.265416741371154785e-02 -8.919265866279602051e-02 3.445268869400024414e-01
8.920000000000000000e+02 1.783470726013183594e+01 3.990656375885009766e+00 -1.669669628143310547e+00 7.764708995819091797e-01 -2.679595947265625000e-01 -5.087133049964904785e-01
8.930000000000000000e+02 1.622505187988281250e+01 5.857062339782714844e+00 4.837340414524078369e-01 1.397339224815368652e+00 5.643219947814941406e-01 -8.582398891448974609e-01
8.940000000000000000e+02 1.622414588928222656e+01 4.841962456703186035e-01 1.812312155961990356e-01 1.329016923904418945e+00 4.530744254589080811e-01 -1.231727600097656250e+00
8.950000000000000000e+02 1.560167026519775391e+01 8.948910236358642578e-01 -5.933823436498641968e-02 1.108682870864868164e+00 3.148033618927001953e-01 -1.152560472488403320e+00
8.960000000000000000e+02 1.721168136596679688e+01 4.985211849212646484e+00 -6.973499059677124023e-01 7.104491591453552246e-01 3.929761238396167755e-03 -3.035057187080383301e-01
8.970000000000000000e+02 4.541910171508789062e+00 -2.959547758102416992e+00 -5.787641406059265137e-01 1.546507924795150757e-01 -1.272340118885040283e-01 -6.622679233551025391e-01
8.980000000000000000e+02 7.786278247833251953e+00 -1.935506463050842285e+00 -8.765913844108581543e-01 2.971318662166595459e-01 -1.738378554582595825e-01 1.106743812561035156e-01
8.990000000000000000e+02 1.749752879142761230e+00 -9.097032546997070312e+00 1.109335944056510925e-02 -2.366262435913085938e+00 -7.065507173538208008e-01 -1.124268412590026855e+00
9.000000000000000000e+02 5.294241905212402344e-01 -6.369158744812011719e+00 8.332422003149986267e-03 -2.143172025680541992e+00 -6.404518485069274902e-01 -2.901949286460876465e-01
9.010000000000000000e+02 2.990599870681762695e+00 -4.069183349609375000e+00 -2.883236110210418701e-01 -1.751242429018020630e-01 -1.390343606472015381e-01 -8.209740519523620605e-01
9.020000000000000000e+02 4.220699965953826904e-01 -3.563519716262817383e+00 -1.356407185085117817e-03 -6.853857636451721191e-01 -2.060226649045944214e-01 -1.527407616376876831e-01
9.030000000000000000e+02 1.170094108581542969e+01 -3.840697288513183594e+00 1.299978256225585938e+00 -1.686602681875228882e-01 3.393953740596771240e-01 1.602078914642333984e+00
9.040000000000000000e+02 7.896189212799072266e+00 -3.699319124221801758e+00 -5.373171567916870117e-01 9.018689393997192383e-01 1.093655377626419067e-01 4.092981815338134766e-01
9.050000000000000000e+02 6.195435523986816406e+00 -2.886147737503051758e+00 -7.329064607620239258e-01 4.056384563446044922e-01 -9.818040579557418823e-02 -3.345472514629364014e-01
9.060000000000000000e+02 5.368597507476806641e+00 -2.922717571258544922e+00 -6.440541148185729980e-01 3.331965208053588867e-01 -9.325727820396423340e-02 -4.662371575832366943e-01
9.070000000000000000e+02 8.628810882568359375e+00 -2.796036720275878906e+00 -5.324351191520690918e-01 5.350931882858276367e-01 7.974180043675005436e-04 4.841333031654357910e-01
9.080000000000000000e+02 1.023622703552246094e+01 -2.033000230789184570e+00 -3.447177112102508545e-01 7.958828657865524292e-02 -7.953882217407226562e-02 5.206557512283325195e-01
9.090000000000000000e+02 1.330379199981689453e+01 1.920268535614013672e+00 -5.155055522918701172e-01 7.332637906074523926e-01 6.532747298479080200e-02 -5.932025909423828125e-01
9.100000000000000000e+02 1.163427543640136719e+01 2.331234216690063477e+00 -5.094983577728271484e-01 4.270451664924621582e-01 -2.473595552146434784e-02 -1.718818992376327515e-01
9.110000000000000000e+02 1.021017265319824219e+01 -2.857700109481811523e+00 -8.404576219618320465e-04 3.081828653812408447e-01 9.220272302627563477e-02 8.980079293251037598e-01
9.120000000000000000e+02 1.181278705596923828e+01 -3.115867614746093750e+00 9.772470593452453613e-01 -1.313511729240417480e-01 2.537687718868255615e-01 1.165223717689514160e+00
9.130000000000000000e+02 1.259321784973144531e+01 -3.301682949066162109e+00 1.627081155776977539e+00 -4.620761573314666748e-01 3.495015203952789307e-01 1.180863380432128906e+00
9.140000000000000000e+02 1.333904933929443359e+01 -3.521800756454467773e+00 2.449619770050048828e+00 -6.251973509788513184e-01 5.473266839981079102e-01 1.291372656822204590e+00
9.150000000000000000e+02 2.716901779174804688e+01 8.668469429016113281e+00 1.613892197608947754e+00 3.245177507400512695e+00 1.457720875740051270e+00 1.761886358261108398e+00
9.160000000000000000e+02 1.368680667877197266e+01 1.371670532226562500e+01 5.028672814369201660e-01 2.056998014450073242e+00 7.679595947265625000e-01 2.170852869749069214e-01
9.170000000000000000e+02 1.614721870422363281e+01 1.908262825012207031e+01 -2.806105911731719971e-01 9.078583121299743652e-01 1.881743222475051880e-01 5.925478935241699219e-01
9.180000000000000000e+02 1.981840133666992188e+01 1.874138832092285156e+01 -1.582607775926589966e-01 4.666339978575706482e-02 -3.347921371459960938e-02 5.072463154792785645e-01
9.190000000000000000e+02 1.530676269531250000e+01 6.904327869415283203e+00 7.958018183708190918e-01 2.376806259155273438e+00 9.517824649810791016e-01 -1.227011680603027344e+00
9.200000000000000000e+02 1.354972934722900391e+01 2.706006050109863281e+00 -5.060514211654663086e-01 1.018506526947021484e+00 1.537365317344665527e-01 -6.343158483505249023e-01
9.210000000000000000e+02 2.462176895141601562e+01 1.409986019134521484e+01 -3.760610818862915039e-01 5.493197441101074219e-01 5.197760090231895447e-02 4.965728521347045898e-02
9.220000000000000000e+02 2.223469924926757812e+01 1.922514343261718750e+01 -1.410068124532699585e-01 2.217672616243362427e-01 2.422813512384891510e-02 1.706146597862243652e-01
9.230000000000000000e+02 1.565942668914794922e+01 2.794883489608764648e+00 -7.139062285423278809e-01 1.569668531417846680e+00 2.567287087440490723e-01 -1.187404870986938477e+00
9.240000000000000000e+02 2.175640296936035156e+01 3.461849451065063477e+00 -4.694448113441467285e-01 1.894106507301330566e+00 4.273985028266906738e-01 2.238510847091674805e+00
9.250000000000000000e+02 2.312761497497558594e+01 5.251774787902832031e+00 1.824518322944641113e+00 1.975988149642944336e+00 1.140151977539062500e+00 1.980982542037963867e+00
9.260000000000000000e+02 2.483942222595214844e+01 5.195670127868652344e+00 1.184477210044860840e+00 4.253736495971679688e+00 1.631464123725891113e+00 2.148689985275268555e+00
9.270000000000000000e+02 1.521279048919677734e+01 1.745170211791992188e+01 -2.289954274892807007e-01 1.261238694190979004e+00 3.096729815006256104e-01 4.023278653621673584e-01
9.280000000000000000e+02 1.386339664459228516e+01 1.489570522308349609e+01 2.173340320587158203e-01 1.861595630645751953e+00 6.236789226531982422e-01 1.748683452606201172e-01
9.290000000000000000e+02 1.331988525390625000e+01 1.114899063110351562e+01 3.939727544784545898e-01 2.649370431900024414e+00 9.130029678344726562e-01 6.084126234054565430e-02
9.300000000000000000e+02 2.264719009399414062e+01 4.441789150238037109e+00 6.480333209037780762e-01 1.881513237953186035e+00 7.588639855384826660e-01 1.863247513771057129e+00
9.310000000000000000e+02 2.372988128662109375e+01 3.994331836700439453e+00 8.010745048522949219e-01 3.300093173980712891e+00 1.230350255966186523e+00 2.602234125137329102e+00
9.320000000000000000e+02 2.555369377136230469e+01 1.522432327270507812e+01 -7.733341455459594727e-01 1.570754647254943848e+00 2.392261475324630737e-01 1.043261140584945679e-01
9.330000000000000000e+02 2.214939498901367188e+01 1.762528991699218750e+01 -4.191757738590240479e-01 -1.016084700822830200e-01 -1.562352776527404785e-01 2.049520611763000488e-01
9.340000000000000000e+02 2.046686744689941406e+01 1.738567352294921875e+01 -7.664617300033569336e-01 -1.390891075134277344e-01 -2.716652452945709229e-01 4.012904465198516846e-01
9.350000000000000000e+02 2.746770477294921875e+01 7.632260322570800781e+00 1.871732354164123535e+00 3.160045862197875977e+00 1.509533405303955078e+00 1.450083017349243164e+00
9.360000000000000000e+02 1.247164630889892578e+01 2.148283243179321289e+00 -5.363273024559020996e-01 5.845817327499389648e-01 1.447632163763046265e-02 -3.557504713535308838e-01
9.370000000000000000e+02 1.654835700988769531e+01 1.026098489761352539e+00 -3.355478495359420776e-02 1.570521712303161621e+00 4.610900580883026123e-01 -1.347532272338867188e+00
9.380000000000000000e+02 2.294217109680175781e+01 2.893570423126220703e+00 2.407877892255783081e-01 2.793777465820312500e+00 9.103695750236511230e-01 2.779659509658813477e+00
9.390000000000000000e+02 1.437236881256103516e+01 9.572247505187988281e+00 2.991322278976440430e-01 3.537647247314453125e+00 1.151033759117126465e+00 -2.860226631164550781e-01
9.400000000000000000e+02 8.172900199890136719e+00 -1.204141044616699219e+01 2.533010482788085938e+00 8.531636238098144531e+00 3.319394111633300781e+00 -1.300136804580688477e+00
9.410000000000000000e+02 7.563685417175292969e+00 -1.289850711822509766e+01 4.808073520660400391e+00 7.548905372619628906e+00 3.707093477249145508e+00 6.210271269083023071e-02
9.420000000000000000e+02 6.831334686279296875e+01 -8.662605285644531250e+00 4.752527236938476562e+00 2.266153717041015625e+01 8.224219322204589844e+00 -5.712532997131347656e+00
9.430000000000000000e+02 6.870436096191406250e+01 -1.131768989562988281e+01 1.635608434677124023e+00 2.331194305419921875e+01 7.484265327453613281e+00 7.225825786590576172e-01
9.440000000000000000e+02 5.553405761718750000e+01 1.453341197967529297e+01 7.161805033683776855e-01 4.391273498535156250e+00 1.532236218452453613e+00 -1.023767352104187012e+00
9.450000000000000000e+02 5.547714233398437500e+01 1.219203281402587891e+01 1.161533817648887634e-01 3.271632194519042969e+00 1.016335606575012207e+00 -1.506302691996097565e-02
9.460000000000000000e+02 9.871864318847656250e+00 -1.026994132995605469e+01 -1.626857042312622070e+00 7.152524948120117188e+00 1.657700419425964355e+00 3.619591236114501953e+00
9.470000000000000000e+02 6.463595581054687500e+01 -4.679971694946289062e+00 -1.487293094396591187e-01 9.885598421096801758e-01 2.519491612911224365e-01 -3.440239667892456055e+00
9.480000000000000000e+02 6.564879608154296875e+01 -6.588601112365722656e+00 -2.001750469207763672e+00 4.216934144496917725e-01 -4.740171134471893311e-01 -2.820589780807495117e+00
9.490000000000000000e+02 4.256472778320312500e+01 8.143329620361328125e+00 5.219476222991943359e-01 7.936158180236816406e-01 3.946690261363983154e-01 -4.479757696390151978e-02
9.500000000000000000e+02 4.302610015869140625e+01 1.056800270080566406e+01 1.160827428102493286e-01 1.231250047683715820e+00 4.041998088359832764e-01 -1.074413731694221497e-01
9.510000000000000000e+02 4.379441452026367188e+01 1.656142234802246094e+01 1.541253805160522461e+00 2.768485307693481445e+00 1.292921781539916992e+00 1.597250103950500488e+00
9.520000000000000000e+02 4.601979064941406250e+01 1.817469596862792969e+01 1.437066435813903809e+00 8.713978528976440430e-01 6.925392746925354004e-01 9.794399738311767578e-01
9.530000000000000000e+02 7.921935272216796875e+01 -3.484494018554687500e+01 4.968633409589529037e-03 1.148000144958496094e+01 3.445491075515747070e+00 4.155717790126800537e-02
9.540000000000000000e+02 7.929292297363281250e+01 -2.784640693664550781e+01 -6.051774602383375168e-03 1.115184783935546875e+01 3.343739032745361328e+00 -1.246691271662712097e-01
9.550000000000000000e+02 7.754670715332031250e+01 3.246151351928710938e+01 1.407491695135831833e-02 5.813866615295410156e+00 1.748382568359375000e+00 -8.884433656930923462e-02
9.560000000000000000e+02 7.929608154296875000e+01 3.626361083984375000e+01 -1.294098049402236938e-02 5.839744567871093750e+00 1.748041152954101562e+00 -2.482323907315731049e-02
9.570000000000000000e+02 7.935926818847656250e+01 -2.083258819580078125e+01 -6.242472678422927856e-02 8.926489830017089844e+00 2.659219503402709961e+00 -3.561795353889465332e-01
9.580000000000000000e+02 7.789215087890625000e+01 -2.780028533935546875e+01 -1.152889579534530640e-01 1.050302028656005859e+01 3.116319417953491211e+00 -3.213127255439758301e-01
9.590000000000000000e+02 7.793373107910156250e+01 -2.635589027404785156e+01 -8.223294466733932495e-02 1.031388950347900391e+01 3.069496870040893555e+00 -4.165493547916412354e-01
9.600000000000000000e+02 7.929054260253906250e+01 -3.064558601379394531e+01 -1.237480901181697845e-02 1.143285465240478516e+01 3.426144123077392578e+00 -6.504837423563003540e-02
9.610000000000000000e+02 7.763140106201171875e+01 -3.485369110107421875e+01 -6.410577148199081421e-02 1.077087402343750000e+01 3.212030410766601562e+00 1.129187061451375484e-03
9.620000000000000000e+02 7.779801177978515625e+01 -3.339748382568359375e+01 -9.687643498182296753e-02 1.071443653106689453e+01 3.185268163681030273e+00 -4.743673652410507202e-02
9.630000000000000000e+02 7.069061279296875000e+01 -3.500188064575195312e+01 -1.471834480762481689e-01 7.172162055969238281e+00 2.107493638992309570e+00 1.023874431848526001e-01
9.640000000000000000e+02 7.815975952148437500e+01 -3.784971237182617188e+01 -4.799263924360275269e-02 1.082227230072021484e+01 3.232284069061279297e+00 1.183994337916374207e-01
9.650000000000000000e+02 7.686976623535156250e+01 -3.867547225952148438e+01 -9.297391772270202637e-02 1.054825115203857422e+01 3.136583089828491211e+00 1.204957440495491028e-01
9.660000000000000000e+02 7.799430847167968750e+01 1.419922637939453125e+01 -2.652502153068780899e-03 7.182774543762207031e+00 2.154036521911621094e+00 -2.476121932268142700e-01
9.670000000000000000e+02 7.933769989013671875e+01 1.541969585418701172e+01 -1.072653010487556458e-02 7.279909133911132812e+00 2.180754899978637695e+00 -7.697000354528427124e-02
9.680000000000000000e+02 7.798273468017578125e+01 2.119849205017089844e+01 2.202678471803665161e-02 6.476932525634765625e+00 1.949687719345092773e+00 -1.751082837581634521e-01
9.690000000000000000e+02 7.932964324951171875e+01 2.239079856872558594e+01 1.169698592275381088e-02 6.538053989410400391e+00 1.964925289154052734e+00 -5.370067805051803589e-02
9.700000000000000000e+02 7.772664642333984375e+01 3.091642379760742188e+01 5.407284479588270187e-03 5.883509635925292969e+00 1.766675114631652832e+00 -9.028889983892440796e-02
9.710000000000000000e+02 7.790699005126953125e+01 2.807713890075683594e+01 3.978019580245018005e-03 6.019202709197998047e+00 1.806954145431518555e+00 -1.035960242152214050e-01
9.720000000000000000e+02 7.930226898193359375e+01 2.794442558288574219e+01 7.263084407895803452e-03 6.158465862274169922e+00 1.849718689918518066e+00 -3.717913106083869934e-02
9.730000000000000000e+02 7.796403503417968750e+01 2.533383750915527344e+01 4.542970098555088043e-03 6.176459789276123047e+00 1.854300856590270996e+00 -1.274025142192840576e-01
9.740000000000000000e+02 7.797046661376953125e+01 2.396259880065917969e+01 1.950366981327533722e-02 6.266778469085693359e+00 1.885884642601013184e+00 -1.444640606641769409e-01
9.750000000000000000e+02 7.800231933593750000e+01 1.840853500366210938e+01 2.198368124663829803e-02 6.730135917663574219e+00 2.025635957717895508e+00 -2.086068689823150635e-01
9.760000000000000000e+02 7.800479125976562500e+01 1.700924682617187500e+01 2.668475965037941933e-03 6.871289730072021484e+00 2.062187433242797852e+00 -2.210073918104171753e-01
9.770000000000000000e+02 7.798490905761718750e+01 1.279051971435546875e+01 1.331491488963365555e-02 7.345301628112792969e+00 2.207585096359252930e+00 -2.561057806015014648e-01
9.780000000000000000e+02 7.661916351318359375e+01 1.151089286804199219e+01 2.959233708679676056e-03 7.187367916107177734e+00 2.157098054885864258e+00 -4.082591831684112549e-01
9.790000000000000000e+02 7.804280853271484375e+01 8.583740234375000000e+00 -3.451557084918022156e-02 7.844225883483886719e+00 2.342913150787353516e+00 -2.203627377748489380e-01
9.800000000000000000e+02 7.934024047851562500e+01 9.833539962768554688e+00 -1.530801877379417419e-02 8.032121658325195312e+00 2.405044078826904297e+00 -7.854638248682022095e-02
9.810000000000000000e+02 7.936239624023437500e+01 -1.943305969238281250e+01 2.796866744756698608e-02 8.150908470153808594e+00 2.453663110733032227e+00 -4.082872867584228516e-01
9.820000000000000000e+02 7.930020141601562500e+01 -1.383645629882812500e+01 4.308309406042098999e-02 4.871374130249023438e+00 1.474337100982666016e+00 -3.262835741043090820e-01
9.830000000000000000e+02 7.937136077880859375e+01 -6.862716674804687500e+00 1.220042109489440918e-01 5.032596111297607422e+00 1.546380162239074707e+00 2.747859954833984375e-01
9.840000000000000000e+02 7.810485076904296875e+01 2.808439433574676514e-01 -1.126640811562538147e-01 8.032999992370605469e+00 2.376100778579711914e+00 3.614492118358612061e-01
9.850000000000000000e+02 7.936864471435546875e+01 1.485519766807556152e+00 -6.159386131912469864e-03 8.334842681884765625e+00 2.498605012893676758e+00 9.478326141834259033e-02
9.860000000000000000e+02 7.679554748535156250e+01 7.299981594085693359e+00 -9.858202189207077026e-02 7.681163787841796875e+00 2.274774551391601562e+00 -3.091343641281127930e-01
9.870000000000000000e+02 7.783700561523437500e+01 2.947510147094726562e+01 1.164434384554624557e-02 5.951731681823730469e+00 1.789012789726257324e+00 -9.792657941579818726e-02
9.880000000000000000e+02 7.862418365478515625e+01 4.026239013671875000e+01 -2.820817381143569946e-02 5.716673374176025391e+00 1.706539511680603027e+00 -5.291702225804328918e-02
9.890000000000000000e+02 7.441795349121093750e+01 3.656016921997070312e+01 4.604904353618621826e-02 5.428218841552734375e+00 1.642280340194702148e+00 -9.386546909809112549e-02
9.900000000000000000e+02 7.801432037353515625e+01 9.980212211608886719e+00 -4.935322329401969910e-03 7.681915283203125000e+00 2.303093910217285156e+00 -2.433769851922988892e-01
9.910000000000000000e+02 7.683190155029296875e+01 4.521246850490570068e-01 -3.323910236358642578e-01 8.102975845336914062e+00 2.331175565719604492e+00 4.785891473293304443e-01
9.920000000000000000e+02 7.810066986083984375e+01 3.043756008148193359e+00 -9.665121138095855713e-02 8.210953712463378906e+00 2.434290647506713867e+00 6.476461887359619141e-02
9.930000000000000000e+02 7.811319732666015625e+01 -1.104748845100402832e+00 -1.657768636941909790e-01 7.808187961578369141e+00 2.292723417282104492e+00 5.795204043388366699e-01
9.940000000000000000e+02 7.937756347656250000e+01 -2.682303905487060547e+00 -8.112835884094238281e-02 7.089537620544433594e+00 2.102522850036621094e+00 3.035103976726531982e-01
9.950000000000000000e+02 7.807297515869140625e+01 -8.030367851257324219e+00 2.584368288516998291e-01 5.966472148895263672e+00 1.867472648620605469e+00 5.885264873504638672e-01
9.960000000000000000e+02 7.815075683593750000e+01 -5.261102676391601562e+00 6.207073107361793518e-02 6.686540126800537109e+00 2.024583339691162109e+00 8.181600570678710938e-01
9.970000000000000000e+02 7.933880615234375000e+01 -9.649102210998535156e+00 1.576039493083953857e-01 4.155033111572265625e+00 1.293791055679321289e+00 9.758003801107406616e-02
9.980000000000000000e+02 7.788935852050781250e+01 -1.221871662139892578e+01 2.910571396350860596e-01 6.083115100860595703e+00 1.912251710891723633e+00 -4.795633256435394287e-01
9.990000000000000000e+02 7.933362579345703125e+01 -1.663949203491210938e+01 3.648337349295616150e-02 6.412410259246826172e+00 1.934668064117431641e+00 -4.515831172466278076e-01
1.000000000000000000e+03 7.811818695068359375e+01 -1.929530334472656250e+01 -8.732324093580245972e-02 8.398421287536621094e+00 2.493329286575317383e+00 -1.010003685951232910e+00
1.001000000000000000e+03 4.578300857543945312e+01 4.304392814636230469e+00 1.090915083885192871e+00 1.669183969497680664e-01 3.773500323295593262e-01 7.111259549856185913e-02
1.002000000000000000e+03 4.462453079223632812e+01 5.547153472900390625e+00 9.863121509552001953e-01 1.591555923223495483e-01 3.436403274536132812e-01 -8.892102539539337158e-02
1.003000000000000000e+03 5.538973236083984375e+01 1.007316017150878906e+01 2.817192673683166504e-01 2.388881206512451172e+00 8.011801242828369141e-01 3.086959719657897949e-01
1.004000000000000000e+03 6.962851715087890625e+01 -8.454028129577636719e+00 3.246987342834472656e+00 1.540996646881103516e+01 5.597085952758789062e+00 -4.057389199733734131e-01
1.005000000000000000e+03 6.828476715087890625e+01 -5.817934036254882812e+00 -1.630088925361633301e+00 1.176380634307861328e+01 3.040115118026733398e+00 -2.426604509353637695e+00
1.006000000000000000e+03 4.873716354370117188e+01 5.070484161376953125e+00 1.476609826087951660e+00 2.073680162429809570e-01 5.051933526992797852e-01 -5.312483757734298706e-02
1.007000000000000000e+03 5.172843551635742188e+01 5.328172683715820312e+00 1.258214712142944336e+00 2.165709882974624634e-01 4.424357116222381592e-01 4.114999249577522278e-02
1.008000000000000000e+03 1.314687728881835938e+01 -9.980271339416503906e+00 -7.995884418487548828e-01 -1.447448253631591797e+00 -6.741110086441040039e-01 5.332880496978759766e+00
1.009000000000000000e+03 4.754713439941406250e+01 5.900189876556396484e+00 1.659824013710021973e+00 2.638454735279083252e-01 5.771008729934692383e-01 -1.969887167215347290e-01
1.010000000000000000e+03 6.834260559082031250e+01 -1.356714439392089844e+01 2.194118738174438477e+00 1.892445564270019531e+01 6.335572242736816406e+00 3.729966640472412109e+00
1.011000000000000000e+03 6.767626953125000000e+01 -1.470779514312744141e+01 1.830123901367187500e+00 1.332402133941650391e+01 4.546243667602539062e+00 4.726577281951904297e+00
1.012000000000000000e+03 5.024648666381835938e+01 2.150717544555664062e+01 1.150318622589111328e+00 9.698098897933959961e-01 6.360385417938232422e-01 -9.851767867803573608e-02
1.013000000000000000e+03 4.809321212768554688e+01 2.025063896179199219e+01 1.025541305541992188e+00 6.520617008209228516e-01 5.032808780670166016e-01 4.200236797332763672e-01
1.014000000000000000e+03 5.178417968750000000e+01 2.082322311401367188e+01 1.030236959457397461e+00 1.237735867500305176e+00 6.803918480873107910e-01 -5.909085869789123535e-01
1.015000000000000000e+03 5.226889801025390625e+01 1.833462905883789062e+01 9.132446050643920898e-01 8.048653602600097656e-01 5.154330134391784668e-01 -6.551774740219116211e-01
1.016000000000000000e+03 6.211457443237304688e+01 -5.922954082489013672e+00 -2.257708311080932617e+00 -5.964016914367675781e-01 -8.562330007553100586e-01 -1.216003775596618652e+00
1.017000000000000000e+03 4.151804351806640625e+01 -1.814118957519531250e+01 -2.447550058364868164e+00 -4.400908201932907104e-02 -7.474677562713623047e-01 -5.535724163055419922e-01
1.018000000000000000e+03 3.983984756469726562e+01 -1.709548187255859375e+01 -2.611144542694091797e+00 1.233686357736587524e-01 -7.463327646255493164e-01 -5.085462331771850586e-01
1.019000000000000000e+03 3.467755889892578125e+01 -1.863017463684082031e+01 -3.170471429824829102e+00 7.600752264261245728e-02 -9.283391833305358887e-01 7.019155193120241165e-03
1.020000000000000000e+03 3.325579452514648438e+01 -1.728541564941406250e+01 -3.313647031784057617e+00 2.068217396736145020e-01 -9.320476055145263672e-01 -2.978196926414966583e-02
1.021000000000000000e+03 2.026384735107421875e+01 -2.866174697875976562e+01 -2.441675961017608643e-01 3.940332233905792236e-01 4.495968669652938843e-02 -1.477983593940734863e-01
1.022000000000000000e+03 4.279835128784179688e+01 1.323993587493896484e+01 1.779352128505706787e-01 2.752452611923217773e+00 8.791163563728332520e-01 4.871158003807067871e-01
1.023000000000000000e+03 4.150404357910156250e+01 1.312766075134277344e+01 6.070978641510009766e-01 2.254838705062866211e+00 8.585810065269470215e-01 9.693703055381774902e-01
1.024000000000000000e+03 4.136681365966796875e+01 1.432094764709472656e+01 9.324001073837280273e-01 2.074865341186523438e+00 9.021795988082885742e-01 1.049471259117126465e+00
1.025000000000000000e+03 5.313730621337890625e+01 1.990278625488281250e+01 8.593988418579101562e-01 1.531077265739440918e+00 7.171428203582763672e-01 -9.188051819801330566e-01
1.026000000000000000e+03 3.419101333618164062e+01 -3.258252716064453125e+01 -4.903355240821838379e-01 -2.364569716155529022e-02 -1.541943699121475220e-01 8.176217973232269287e-02
1.027000000000000000e+03 4.018142318725585938e+01 1.404074668884277344e+01 8.299860954284667969e-01 1.941974997520446777e+00 8.315883278846740723e-01 9.855180978775024414e-01
1.028000000000000000e+03 2.083076667785644531e+01 -1.393060874938964844e+01 -6.841257095336914062e+00 -2.814520299434661865e-01 -2.136812686920166016e+00 1.903989195823669434e+00
1.029000000000000000e+03 1.693762969970703125e+01 -5.414190292358398438e+00 6.851826667785644531e+00 3.603310346603393555e+00 3.136541128158569336e+00 5.415751934051513672e+00
1.030000000000000000e+03 3.065452194213867188e+01 -1.702653121948242188e+01 -3.691982507705688477e+00 1.783562153577804565e-01 -1.054087877273559570e+00 2.835549116134643555e-01
1.031000000000000000e+03 3.448368835449218750e+01 -1.607833862304687500e+01 -2.927671670913696289e+00 2.716624140739440918e-01 -7.968027591705322266e-01 -2.671511471271514893e-01
1.032000000000000000e+03 6.251045703887939453e+00 -1.727900505065917969e+01 8.284628987312316895e-01 5.077013015747070312e+00 1.771642804145812988e+00 1.905389666557312012e+00
1.033000000000000000e+03 9.863405227661132812e+00 -1.807709121704101562e+01 7.383002042770385742e-01 7.545094490051269531e+00 2.485018491744995117e+00 -2.086069345474243164e+00
1.034000000000000000e+03 7.016993713378906250e+01 -1.093781757354736328e+01 3.269141197204589844e+00 1.670031166076660156e+01 5.990836143493652344e+00 -6.570465564727783203e-01
1.035000000000000000e+03 1.510865879058837891e+01 -1.231974601745605469e+01 -9.530000686645507812e+00 -2.253797769546508789e+00 -3.535139560699462891e+00 4.388343334197998047e+00
1.036000000000000000e+03 1.535573959350585938e+01 -1.115327739715576172e+01 -5.242700576782226562e+00 -1.765852212905883789e+00 -2.102565765380859375e+00 3.649871110916137695e+00
1.037000000000000000e+03 1.174705505371093750e+01 -2.025774955749511719e+01 6.345676779747009277e-01 3.924958705902099609e+00 1.367857813835144043e+00 -1.871121525764465332e+00
1.038000000000000000e+03 4.592736053466796875e+01 2.020674324035644531e+01 9.612182974815368652e-01 1.363465070724487305e+00 6.974050402641296387e-01 9.264925122261047363e-01
1.039000000000000000e+03 5.923069763183593750e+01 -2.652744293212890625e+01 -1.079020142555236816e+00 2.996895015239715576e-01 -2.337992042303085327e-01 -3.268600106239318848e-01
1.040000000000000000e+03 3.589379501342773438e+01 -1.735372734069824219e+01 -2.942698240280151367e+00 1.369499266147613525e-01 -8.417245149612426758e-01 -1.928284317255020142e-01
1.041000000000000000e+03 5.072159194946289062e+01 -3.189945793151855469e+01 -9.024845957756042480e-01 -5.027994513511657715e-01 -4.215852022171020508e-01 -6.046580672264099121e-01
1.042000000000000000e+03 5.125897598266601562e+01 -2.971613311767578125e+01 -1.687475800514221191e+00 -4.983170926570892334e-01 -6.557378768920898438e-01 -8.506035804748535156e-01
1.043000000000000000e+03 4.240356826782226562e+01 -1.660202598571777344e+01 -2.472794055938720703e+00 4.008796997368335724e-03 -7.406355738639831543e-01 -6.244443058967590332e-01
1.044000000000000000e+03 4.284767150878906250e+01 -1.780801391601562500e+01 -2.491432428359985352e+00 -1.366075724363327026e-01 -7.884120345115661621e-01 -6.944565176963806152e-01
1.045000000000000000e+03 4.448550033569335938e+01 -3.189100074768066406e+01 -8.470550179481506348e-01 -9.778813272714614868e-02 -2.834529578685760498e-01 -3.132257759571075439e-01
1.046000000000000000e+03 4.797671890258789062e+01 -3.255046081542968750e+01 -7.821483016014099121e-01 -3.728567659854888916e-01 -3.465015292167663574e-01 -5.388265848159790039e-01
1.047000000000000000e+03 4.668592453002929688e+01 -3.323137664794921875e+01 -6.786807179450988770e-01 -2.970914244651794434e-01 -2.927316427230834961e-01 -4.872260689735412598e-01
1.048000000000000000e+03 4.285264968872070312e+01 1.784253120422363281e+01 9.198296070098876953e-01 2.212259292602539062e+00 9.396266937255859375e-01 8.067840337753295898e-01
1.049000000000000000e+03 2.600209426879882812e+01 -2.991574287414550781e+01 -5.195844769477844238e-01 -9.268394857645034790e-02 -1.836805194616317749e-01 2.503542304039001465e-01
1.050000000000000000e+03 2.639757919311523438e+01 -3.209294509887695312e+01 -3.979872167110443115e-01 -3.436519950628280640e-02 -1.297057271003723145e-01 1.263550966978073120e-01
1.051000000000000000e+03 4.984951400756835938e+01 -1.385727882385253906e+01 -2.320661783218383789e+00 -3.233368694782257080e-01 -7.931995987892150879e-01 -1.067771196365356445e+00
1.052000000000000000e+03 5.181150436401367188e+01 -1.430589962005615234e+01 -2.392265796661376953e+00 -6.385091543197631836e-01 -9.092324376106262207e-01 -1.276570320129394531e+00
1.053000000000000000e+03 3.095738220214843750e+01 -3.309901809692382812e+01 -4.648773670196533203e-01 -7.830086350440979004e-02 -1.629534661769866943e-01 1.515389084815979004e-01
1.054000000000000000e+03 6.783220672607421875e+01 -1.895888137817382812e+01 -3.549067974090576172e-01 8.832427024841308594e+00 2.543256044387817383e+00 1.235285043716430664e+00
1.055000000000000000e+03 5.375147628784179688e+01 -2.837111282348632812e+01 -1.846514105796813965e+00 -5.224778056144714355e-01 -7.106975913047790527e-01 -9.834036231040954590e-01
1.056000000000000000e+03 5.779359817504882812e+01 -2.929681777954101562e+01 -8.048245906829833984e-01 1.597679853439331055e-01 -1.935169845819473267e-01 -2.130470126867294312e-01
1.057000000000000000e+03 6.986492156982421875e+01 -9.715558052062988281e+00 4.125479698181152344e+00 1.731396865844726562e+01 6.431834697723388672e+00 -1.303360819816589355e+00
1.058000000000000000e+03 3.195263099670410156e+01 -1.717699050903320312e+01 -3.432012557983398438e+00 1.775669306516647339e-01 -9.763336777687072754e-01 9.115678071975708008e-02
1.059000000000000000e+03 4.618037033081054688e+01 -1.543413734436035156e+01 -2.360479354858398438e+00 -1.890628784894943237e-01 -7.648626565933227539e-01 -8.917864561080932617e-01
1.060000000000000000e+03 3.211054992675781250e+01 -3.350005340576171875e+01 -4.445224702358245850e-01 -6.698826700448989868e-02 -1.534532308578491211e-01 1.350076943635940552e-01
1.061000000000000000e+03 2.951778411865234375e+01 -1.564671230316162109e+01 -3.656445503234863281e+00 3.415847718715667725e-01 -9.944582581520080566e-01 9.675721079111099243e-02
1.062000000000000000e+03 5.693674850463867188e+01 1.400436305999755859e+01 8.467658162117004395e-01 3.230393648147583008e+00 1.223147869110107422e+00 -9.131622314453125000e-01
1.063000000000000000e+03 6.869586181640625000e+01 -1.584114170074462891e+01 3.894209265708923340e-01 1.386455249786376953e+01 4.276192188262939453e+00 1.723514556884765625e+00
1.064000000000000000e+03 6.125335311889648438e+01 -6.745982646942138672e+00 -3.479761838912963867e+00 -6.488876342773437500e-01 -1.238594770431518555e+00 -1.374454736709594727e+00
1.065000000000000000e+03 6.237955474853515625e+01 -7.663121700286865234e+00 -4.835721015930175781e+00 -1.451116323471069336e+00 -1.886051177978515625e+00 -2.562541007995605469e+00
1.066000000000000000e+03 5.460680389404296875e+01 -1.127295684814453125e+01 -2.624458551406860352e+00 -5.852212309837341309e-01 -9.629039168357849121e-01 -1.368811607360839844e+00
1.067000000000000000e+03 6.617102050781250000e+01 -1.910034751892089844e+01 3.069987297058105469e-01 6.466013908386230469e+00 2.031903743743896484e+00 2.064001083374023438e+00
1.068000000000000000e+03 5.074785232543945312e+01 2.783627510070800781e+00 7.887068390846252441e-01 2.056550979614257812e-01 2.983085811138153076e-01 -7.722350955009460449e-02
1.069000000000000000e+03 2.320711517333984375e+01 -1.502412128448486328e+01 -5.765034675598144531e+00 2.868119254708290100e-02 -1.720906019210815430e+00 1.516741394996643066e+00
1.070000000000000000e+03 4.422096633911132812e+01 7.337311267852783203e+00 8.599238991737365723e-01 3.581759929656982422e-01 3.654299676418304443e-01 -3.728503882884979248e-01
1.071000000000000000e+03 4.155769729614257812e+01 -3.265023803710937500e+01 -6.251015663146972656e-01 -5.790571123361587524e-02 -2.049021720886230469e-01 -1.470019519329071045e-01
1.072000000000000000e+03 4.363959884643554688e+01 -3.395498657226562500e+01 -5.441370010375976562e-01 -1.970619857311248779e-01 -2.223597019910812378e-01 -2.922403812408447266e-01
1.073000000000000000e+03 1.735933494567871094e+01 -1.185568904876708984e+01 -6.548135280609130859e+00 -5.358273983001708984e-01 -2.125188827514648438e+00 2.882247209548950195e+00
1.074000000000000000e+03 5.214082717895507812e+01 -3.124655723571777344e+01 -9.602171182632446289e-01 -4.590469002723693848e-01 -4.257791936397552490e-01 -6.470457911491394043e-01
1.075000000000000000e+03 1.992284965515136719e+01 -9.432086944580078125e+00 -1.725431799888610840e+00 2.186612367630004883e+00 1.383541524410247803e-01 4.839654862880706787e-01
1.076000000000000000e+03 6.369829940795898438e+01 -2.473782157897949219e+01 -8.066051006317138672e-01 3.372120857238769531e+00 7.696546912193298340e-01 6.074288487434387207e-01
1.077000000000000000e+03 6.356408309936523438e+01 -2.249895477294921875e+01 -3.449302613735198975e-01 2.804208755493164062e+00 7.377835512161254883e-01 7.493438124656677246e-01
1.078000000000000000e+03 2.790728759765625000e+01 -1.771727371215820312e+01 -4.500689983367919922e+00 -1.520998626947402954e-01 -1.395836949348449707e+00 9.478679299354553223e-01
1.079000000000000000e+03 2.598700714111328125e+01 -1.483444118499755859e+01 -4.434816360473632812e+00 3.954709172248840332e-01 -1.211803674697875977e+00 4.847905635833740234e-01
1.080000000000000000e+03 4.741089248657226562e+01 -1.495244598388671875e+01 -2.311619758605957031e+00 -1.731573045253753662e-01 -7.454330921173095703e-01 -9.096673727035522461e-01
1.081000000000000000e+03 4.493272399902343750e+01 -1.586563587188720703e+01 -2.335067510604858398e+00 -1.831805855035781860e-01 -7.554744482040405273e-01 -7.886730432510375977e-01
1.082000000000000000e+03 6.009382247924804688e+01 -9.190155982971191406e+00 -3.887073516845703125e+00 -1.331032514572143555e+00 -1.565431833267211914e+00 -2.235242605209350586e+00
1.083000000000000000e+03 5.806946945190429688e+01 -2.729851341247558594e+01 -1.162436842918395996e+00 -1.540574282407760620e-01 -3.949483036994934082e-01 -4.960437417030334473e-01
1.084000000000000000e+03 2.279804039001464844e+01 -3.008514595031738281e+01 -3.333787322044372559e-01 1.015567183494567871e-01 -6.954661011695861816e-02 2.441651746630668640e-02
1.085000000000000000e+03 3.722313690185546875e+01 -1.731543731689453125e+01 -2.798548460006713867e+00 9.618803858757019043e-02 -8.107081055641174316e-01 -3.128997981548309326e-01
1.086000000000000000e+03 3.605587005615234375e+01 -1.862215423583984375e+01 -3.138633012771606445e+00 4.105354845523834229e-02 -9.292738437652587891e-01 -1.215009093284606934e-01
1.087000000000000000e+03 6.357723617553710938e+01 -2.040120697021484375e+01 5.179596543312072754e-01 2.057643651962280273e+00 7.726809978485107422e-01 1.092504978179931641e+00
1.088000000000000000e+03 2.527091789245605469e+01 -1.699353599548339844e+01 -5.203378200531005859e+00 -3.101170957088470459e-01 -1.654048562049865723e+00 1.433686375617980957e+00
1.089000000000000000e+03 2.562765884399414062e+01 -1.591372680664062500e+01 -4.887981891632080078e+00 7.603041827678680420e-02 -1.443585395812988281e+00 9.528353810310363770e-01
1.090000000000000000e+03 5.060037994384765625e+01 -7.962875843048095703e+00 -1.681860327720642090e+00 -2.290773391723632812e-02 -5.114304423332214355e-01 -6.147702336311340332e-01
1.091000000000000000e+03 5.495954895019531250e+01 -9.631258964538574219e+00 -2.563679456710815430e+00 -4.173662066459655762e-01 -8.943136930465698242e-01 -1.155769467353820801e+00
1.092000000000000000e+03 2.152995109558105469e+01 -2.942022895812988281e+01 -2.935783565044403076e-01 2.503654658794403076e-01 -1.296386402100324631e-02 -2.991878800094127655e-02
1.093000000000000000e+03 6.530049896240234375e+01 -2.022078895568847656e+01 7.312333583831787109e-02 5.036474704742431641e+00 1.532879471778869629e+00 1.613301277160644531e+00
1.094000000000000000e+03 2.409929656982421875e+01 -3.055714225769042969e+01 -3.589756786823272705e-01 4.918104410171508789e-02 -9.293839335441589355e-02 1.026771292090415955e-01
1.095000000000000000e+03 3.624344253540039062e+01 -3.408311080932617188e+01 -4.442728161811828613e-01 -6.338664144277572632e-02 -1.522978395223617554e-01 2.630940265953540802e-02
1.096000000000000000e+03 4.934655761718750000e+01 -1.555279064178466797e+01 -2.327730178833007812e+00 -4.135525524616241455e-01 -8.223848342895507812e-01 -1.036004543304443359e+00
1.097000000000000000e+03 3.330361938476562500e+01 -3.437310791015625000e+01 -4.065506458282470703e-01 -8.012031763792037964e-02 -1.460012942552566528e-01 9.381075203418731689e-02
1.098000000000000000e+03 6.955213928222656250e+01 -1.491047954559326172e+01 5.461075305938720703e-01 1.395851421356201172e+01 4.351386547088623047e+00 -2.427060604095458984e-01
1.099000000000000000e+03 5.659594726562500000e+01 -1.147677707672119141e+01 -2.876832246780395508e+00 -1.072391629219055176e+00 -1.184767127037048340e+00 -1.762785792350769043e+00
1.100000000000000000e+03 5.576965332031250000e+01 -1.056126976013183594e+01 -2.766660451889038086e+00 -6.688414216041564941e-01 -1.030650496482849121e+00 -1.421921014785766602e+00
1.101000000000000000e+03 5.332791900634765625e+01 -3.039958953857421875e+01 -1.093247532844543457e+00 -3.632564246654510498e-01 -4.369511902332305908e-01 -6.879275441169738770e-01
1.102000000000000000e+03 1.762567138671875000e+01 -2.453925323486328125e+01 2.506859600543975830e-01 6.422775387763977051e-01 2.678890526294708252e-01 -4.646050930023193359e-01
1.103000000000000000e+03 1.886670112609863281e+01 -2.789223670959472656e+01 -1.899460405111312866e-01 6.965675950050354004e-01 1.519864648580551147e-01 -2.544935643672943115e-01
1.104000000000000000e+03 5.451491546630859375e+01 -2.960909843444824219e+01 -1.191895127296447754e+00 -3.700914382934570312e-01 -4.685959517955780029e-01 -6.875959634780883789e-01
1.105000000000000000e+03 6.442375946044921875e+01 -2.134950256347656250e+01 -1.502006202936172485e-01 3.618220567703247070e+00 1.040405988693237305e+00 1.233678579330444336e+00
1.106000000000000000e+03 4.920858383178710938e+01 -3.217245864868164062e+01 -8.253499269485473633e-01 -3.811793327331542969e-01 -3.619587719440460205e-01 -6.114749312400817871e-01
1.107000000000000000e+03 2.937662887573242188e+01 -1.683022117614746094e+01 -3.999894857406616211e+00 1.986488252878189087e-01 -1.140373826026916504e+00 3.933044970035552979e-01
1.108000000000000000e+03 5.917490386962890625e+01 -8.321412086486816406e+00 -3.372646331787109375e+00 -8.241230845451354980e-01 -1.259030818939208984e+00 -1.606098055839538574e+00
1.109000000000000000e+03 5.104836273193359375e+01 -1.324834728240966797e+01 -2.366567134857177734e+00 -3.837424218654632568e-01 -8.250928521156311035e-01 -1.095803260803222656e+00
1.110000000000000000e+03 2.686520195007324219e+01 -1.627390098571777344e+01 -4.552793979644775391e+00 9.549067169427871704e-02 -1.337191104888916016e+00 7.548668980598449707e-01
1.111000000000000000e+03 1.366760635375976562e+01 -2.236069869995117188e+01 3.558092713356018066e-01 2.293415784835815430e+00 7.947674989700317383e-01 -1.198114871978759766e+00
1.112000000000000000e+03 1.461545562744140625e+01 -2.341576576232910156e+01 2.510667741298675537e-01 1.893261313438415527e+00 6.432984471321105957e-01 -8.731248378753662109e-01
1.113000000000000000e+03 1.662807655334472656e+01 -2.349978065490722656e+01 4.539392590522766113e-01 9.261720180511474609e-01 4.140333831310272217e-01 -6.314372420310974121e-01
1.114000000000000000e+03 1.653718185424804688e+01 -2.564423370361328125e+01 1.419217791408300400e-02 1.207357406616210938e+00 3.664648830890655518e-01 -4.882453978061676025e-01
1.115000000000000000e+03 1.556521701812744141e+01 -2.450209999084472656e+01 1.087678298354148865e-01 1.440196514129638672e+00 4.646893143653869629e-01 -7.134683728218078613e-01
1.116000000000000000e+03 1.333399534225463867e+00 -4.017278289794921875e+01 -1.421923004090785980e-02 2.677024126052856445e+00 7.988414764404296875e-01 -1.423759572207927704e-02
1.117000000000000000e+03 8.053295612335205078e-01 3.735763168334960938e+01 5.490392446517944336e-03 -3.714311420917510986e-01 -1.097822263836860657e-01 -7.018080912530422211e-03
1.118000000000000000e+03 6.931537985801696777e-01 3.463814544677734375e+01 3.058507572859525681e-03 -3.859449028968811035e-01 -1.148659214377403259e-01 -2.250362187623977661e-03
1.119000000000000000e+03 6.921586990356445312e-01 3.324964141845703125e+01 2.047669113380834460e-04 -3.870351612567901611e-01 -1.160491183400154114e-01 1.240853569470345974e-03
1.120000000000000000e+03 6.893925666809082031e-01 2.764100646972656250e+01 -1.282882643863558769e-03 -4.064237475395202637e-01 -1.223119944334030151e-01 -8.635842241346836090e-03
1.121000000000000000e+03 6.749086976051330566e-01 2.623535728454589844e+01 -2.985887462273240089e-03 -4.284838438034057617e-01 -1.294409185647964478e-01 -1.284859422594308853e-02
1.122000000000000000e+03 8.883951902389526367e-01 -3.605091094970703125e+01 7.205326110124588013e-03 2.636162042617797852e+00 7.930102348327636719e-01 4.513909667730331421e-02
1.123000000000000000e+03 2.513932704925537109e+00 -3.307998657226562500e+01 -9.407187998294830322e-02 2.291651010513305664e+00 6.592737436294555664e-01 2.406444251537322998e-01
1.124000000000000000e+03 3.412218809127807617e+00 2.616871643066406250e+01 -3.177303820848464966e-02 -2.017918527126312256e-01 -7.006946951150894165e-02 -4.305531084537506104e-02
1.125000000000000000e+03 3.307117938995361328e+00 2.479019737243652344e+01 -3.157444670796394348e-02 -2.156981676816940308e-01 -7.418178021907806396e-02 -6.716782599687576294e-02
1.126000000000000000e+03 2.071707248687744141e+00 3.447378921508789062e+01 3.635979024693369865e-03 -3.059558570384979248e-01 -9.069596230983734131e-02 3.821897320449352264e-03
1.127000000000000000e+03 2.086930274963378906e+00 3.314605712890625000e+01 -1.461915788240730762e-03 -3.005791902542114258e-01 -9.061232954263687134e-02 1.661647402215749025e-04
1.128000000000000000e+03 3.691365480422973633e+00 3.891762542724609375e+01 7.497696205973625183e-03 -2.598884999752044678e-01 -7.571724057197570801e-02 7.879021577537059784e-03
1.129000000000000000e+03 2.202961444854736328e+00 -3.024200057983398438e+01 -1.087236180901527405e-01 2.011149406433105469e+00 5.707277655601501465e-01 3.710204958915710449e-01
1.130000000000000000e+03 2.052929401397705078e+00 -2.743180274963378906e+01 -1.475912779569625854e-01 1.522463321685791016e+00 4.124616086483001709e-01 5.723013877868652344e-01
1.131000000000000000e+03 1.989655375480651855e+00 -2.172260093688964844e+01 -1.717286705970764160e-01 -2.909071147441864014e-01 -1.387907266616821289e-01 1.204139828681945801e+00
1.132000000000000000e+03 2.635149717330932617e+00 -3.721416854858398438e+01 -5.387074127793312073e-02 2.511093854904174805e+00 7.371669411659240723e-01 8.956146985292434692e-02
1.133000000000000000e+03 6.414043307304382324e-01 2.058401107788085938e+01 -2.872723387554287910e-03 -6.407746076583862305e-01 -1.930941939353942871e-01 -3.577256575226783752e-02
1.134000000000000000e+03 6.355460286140441895e-01 1.917007064819335938e+01 8.037830120883882046e-04 -7.217648625373840332e-01 -2.162883132696151733e-01 -3.823933377861976624e-02
1.135000000000000000e+03 6.136763691902160645e-01 1.493991279602050781e+01 3.134479047730565071e-03 -9.538928866386413574e-01 -2.852275371551513672e-01 -2.494494058191776276e-02
1.136000000000000000e+03 6.084665060043334961e-01 1.352946567535400391e+01 7.455120794475078583e-03 -9.953703284263610840e-01 -2.963745594024658203e-01 -1.281544007360935211e-02
1.137000000000000000e+03 6.469483375549316406e-01 7.837050914764404297e+00 4.928004462271928787e-03 -7.464908361434936523e-01 -2.224688529968261719e-01 6.819143146276473999e-02
1.138000000000000000e+03 3.474849700927734375e+00 -3.951123428344726562e+01 -2.605008892714977264e-02 2.577512979507446289e+00 7.654389142990112305e-01 5.230019986629486084e-02
1.139000000000000000e+03 4.230895042419433594e+00 -3.751774597167968750e+01 -1.284167617559432983e-01 2.349580287933349609e+00 6.663490533828735352e-01 1.597727239131927490e-01
1.140000000000000000e+03 2.666114568710327148e+00 -3.452335357666015625e+01 -4.817409440875053406e-02 2.379045724868774414e+00 6.992614865303039551e-01 1.847000122070312500e-01
1.141000000000000000e+03 2.344739913940429688e+00 -3.165370941162109375e+01 -5.181230232119560242e-02 2.168996334075927734e+00 6.351552009582519531e-01 3.007468879222869873e-01
1.142000000000000000e+03 3.411991357803344727e+00 -2.729043006896972656e+01 -2.366494536399841309e-01 1.793876647949218750e+00 4.671681523323059082e-01 7.900300621986389160e-01
1.143000000000000000e+03 2.009469509124755859e+00 -2.316678047180175781e+01 -1.112792938947677612e-01 2.730436623096466064e-01 4.852931201457977295e-02 1.042257189750671387e+00
1.144000000000000000e+03 2.031328678131103516e+00 -2.602479743957519531e+01 -9.399003535509109497e-02 1.178182244300842285e+00 3.252576589584350586e-01 7.019674777984619141e-01
1.145000000000000000e+03 6.314154863357543945e-01 -1.907159042358398438e+01 6.143959984183311462e-02 -3.482806921005249023e+00 -1.026410222053527832e+00 5.269458889961242676e-01
1.146000000000000000e+03 1.898790836334228516e+00 -1.885673904418945312e+01 5.942010320723056793e-04 -1.750334739685058594e+00 -5.249221324920654297e-01 1.262797117233276367e+00
1.147000000000000000e+03 1.736404895782470703e+00 -1.609251976013183594e+01 2.784292101860046387e-01 -3.246839046478271484e+00 -8.905229568481445312e-01 8.336583971977233887e-01
1.148000000000000000e+03 5.919387340545654297e+00 -1.441259479522705078e+01 3.194287538528442383e+00 4.133987426757812500e+00 2.198482513427734375e+00 8.074830770492553711e-01
1.149000000000000000e+03 5.981447100639343262e-01 -1.204826354980468750e+01 1.149994656443595886e-01 -5.895697593688964844e+00 -1.734209537506103516e+00 -2.746259272098541260e-01
1.150000000000000000e+03 1.810920476913452148e+00 -1.196237945556640625e+01 2.506195604801177979e-01 -3.313577890396118164e+00 -9.188875555992126465e-01 -6.786229014396667480e-01
1.151000000000000000e+03 1.596354484558105469e+00 -6.185598850250244141e+00 -1.261893063783645630e-01 -1.389195561408996582e+00 -4.546154439449310303e-01 -8.590033650398254395e-01
1.152000000000000000e+03 1.260686755180358887e+00 -3.424862384796142578e+00 -9.204560518264770508e-02 -5.925943255424499512e-01 -2.053919732570648193e-01 -4.424122273921966553e-01
1.153000000000000000e+03 4.755960404872894287e-01 -4.955693244934082031e+00 -4.554595053195953369e-02 -1.357583642005920410e+00 -4.209388792514801025e-01 -2.400714755058288574e-01
1.154000000000000000e+03 5.006893873214721680e-01 4.938438892364501953e+00 -5.601053591817617416e-03 -4.034057855606079102e-01 -1.227020546793937683e-01 7.077890634536743164e-02
1.155000000000000000e+03 4.395412445068359375e+00 4.556344032287597656e+00 -3.656861186027526855e-02 -1.381909251213073730e-01 -5.242786183953285217e-02 3.733047544956207275e-01
1.156000000000000000e+03 1.816331624984741211e+00 1.076784038543701172e+01 3.974932432174682617e-02 -7.058844566345214844e-01 -1.998405456542968750e-01 6.405222415924072266e-02
1.157000000000000000e+03 6.097915768623352051e-01 1.070736503601074219e+01 8.694373071193695068e-03 -9.651014804840087891e-01 -2.869221270084381104e-01 2.390558831393718719e-02
1.158000000000000000e+03 1.823900938034057617e+00 1.356156635284423828e+01 2.883083373308181763e-02 -7.216234803199768066e-01 -2.078378051519393921e-01 -2.990369871258735657e-02
1.159000000000000000e+03 1.922940731048583984e+00 2.058227157592773438e+01 -8.142654784023761749e-03 -4.716241061687469482e-01 -1.439300328493118286e-01 -9.335769712924957275e-02
1.160000000000000000e+03 1.907615184783935547e+00 1.916795921325683594e+01 -4.769363906234502792e-03 -5.279143452644348145e-01 -1.598051190376281738e-01 -1.013133376836776733e-01
1.161000000000000000e+03 1.985302090644836426e+00 2.481749725341796875e+01 -1.376159768551588058e-02 -3.477710187435150146e-01 -1.084597855806350708e-01 -4.845622926950454712e-02
1.162000000000000000e+03 2.221709060668945312e+01 -1.111631011962890625e+01 -3.328277111053466797e+00 1.252906441688537598e+00 -6.226112246513366699e-01 -1.464985758066177368e-01
1.163000000000000000e+03 5.423256301879882812e+01 6.532319545745849609e+00 8.461426496505737305e-01 7.754020094871520996e-01 4.864633977413177490e-01 2.408739030361175537e-01
1.164000000000000000e+03 5.568947219848632812e+01 6.589381694793701172e+00 6.532111167907714844e-01 1.275872707366943359e+00 5.787251591682434082e-01 3.223858773708343506e-02
1.165000000000000000e+03 1.873585700988769531e+01 -1.854918122291564941e+00 1.106131076812744141e+00 8.347229003906250000e+00 2.836008071899414062e+00 9.273529052734375000e-01
1.166000000000000000e+03 1.827921867370605469e+01 -1.320602059364318848e+00 7.566030025482177734e-01 5.861843585968017578e+00 1.985533952713012695e+00 -7.000749707221984863e-01
1.167000000000000000e+03 1.740040397644042969e+01 -9.157022237777709961e-01 9.024083018302917480e-01 2.763391971588134766e+00 1.099740147590637207e+00 -1.328342437744140625e+00
1.168000000000000000e+03 1.780108070373535156e+01 -5.939945578575134277e-01 6.323965191841125488e-01 3.634022712707519531e+00 1.279925704002380371e+00 -1.074746131896972656e+00
1.169000000000000000e+03 1.821601676940917969e+01 -1.547073125839233398e+00 7.693343162536621094e-01 6.135031223297119141e+00 2.071309566497802734e+00 -8.639139533042907715e-01
1.170000000000000000e+03 1.670195198059082031e+01 -5.024104714393615723e-01 6.982221603393554688e-01 1.514366388320922852e+00 6.637765765190124512e-01 -1.216158151626586914e+00
1.171000000000000000e+03 1.703509330749511719e+01 -6.941245198249816895e-01 8.353009223937988281e-01 1.966471076011657715e+00 8.405315876007080078e-01 -1.323184013366699219e+00
1.172000000000000000e+03 1.566762828826904297e+01 -3.833874940872192383e+00 6.150317668914794922e+00 -9.264277815818786621e-01 1.567166924476623535e+00 9.476941227912902832e-01
1.173000000000000000e+03 1.482785511016845703e+01 -3.737165927886962891e+00 4.406174182891845703e+00 -8.949354290962219238e-01 1.053371667861938477e+00 9.928218722343444824e-01
1.174000000000000000e+03 2.040001487731933594e+01 -3.392764091491699219e+00 9.267903327941894531e+00 4.453620433807373047e+00 4.116456985473632812e+00 3.172013521194458008e+00
1.175000000000000000e+03 1.983247566223144531e+01 -2.088475704193115234e+00 4.494900703430175781e+00 6.898222923278808594e+00 3.417937040328979492e+00 4.097267627716064453e+00
1.176000000000000000e+03 1.728910827636718750e+01 -5.696745395660400391e+00 5.267453193664550781e+00 4.732150077819824219e+00 2.999881029129028320e+00 4.799930095672607422e+00
1.177000000000000000e+03 9.418447494506835938e+00 -2.804959774017333984e+00 -2.842862606048583984e-01 3.316872715950012207e-01 1.422030106186866760e-02 6.445814371109008789e-01
1.178000000000000000e+03 1.092106151580810547e+01 -9.361740112304687500e+00 -7.083392143249511719e-01 3.290199995040893555e+00 7.745582461357116699e-01 5.132989406585693359e+00
1.179000000000000000e+03 3.546714067459106445e+00 2.840417385101318359e+00 -1.391782611608505249e-01 -1.025479733943939209e-01 -7.251787185668945312e-02 2.833452820777893066e-01
1.180000000000000000e+03 4.322448730468750000e+00 2.784126043319702148e+00 -1.868184804916381836e-01 -7.767595350742340088e-02 -7.934833317995071411e-02 3.174764811992645264e-01
1.181000000000000000e+03 5.143313407897949219e+00 3.608327388763427734e+00 -1.432651132345199585e-01 -7.724646478891372681e-02 -6.615347415208816528e-02 3.796961903572082520e-01
1.182000000000000000e+03 5.938744544982910156e+00 3.529408931732177734e+00 -1.669984310865402222e-01 -5.557738244533538818e-02 -6.677274405956268311e-02 3.940509557723999023e-01
1.183000000000000000e+03 1.477810144424438477e+00 4.672763347625732422e+00 -1.123126130551099777e-02 -3.136921525001525879e-01 -9.747702628374099731e-02 1.879207640886306763e-01
1.184000000000000000e+03 4.144849479198455811e-01 3.546133995056152344e+00 -7.225529290735721588e-03 -2.036947309970855713e-01 -6.327607482671737671e-02 5.057829245924949646e-02
1.185000000000000000e+03 6.746000766754150391e+00 3.457478284835815430e+00 -1.972993463277816772e-01 -5.689181387424468994e-03 -6.089655682444572449e-02 3.959069550037384033e-01
1.186000000000000000e+03 8.368337631225585938e+00 3.421543598175048828e+00 -2.312549203634262085e-01 8.665589988231658936e-02 -4.337970539927482605e-02 3.326412141323089600e-01
1.187000000000000000e+03 7.621831417083740234e+00 4.812914848327636719e+00 1.458675973117351532e-02 8.259000629186630249e-02 2.915303036570549011e-02 3.740111291408538818e-01
1.188000000000000000e+03 9.941509246826171875e+00 2.579348564147949219e+00 -4.453898668289184570e-01 1.439541280269622803e-01 -9.043071419000625610e-02 1.469186544418334961e-01
1.189000000000000000e+03 1.078819179534912109e+01 2.478217363357543945e+00 -4.980292320251464844e-01 2.806101441383361816e-01 -6.522572785615921021e-02 1.485403627157211304e-02
1.190000000000000000e+03 1.004877185821533203e+01 3.337990760803222656e+00 -2.743396759033203125e-01 2.781622409820556641e-01 1.146762864664196968e-03 1.582087427377700806e-01
1.191000000000000000e+03 1.101316738128662109e+01 -2.965726375579833984e+00 4.492655098438262939e-01 -7.296045776456594467e-03 1.325908452272415161e-01 9.831511378288269043e-01
1.192000000000000000e+03 1.316905879974365234e+01 6.419129371643066406e+00 2.645103335380554199e-01 1.671215891838073730e+00 5.807178616523742676e-01 -1.436730772256851196e-01
1.193000000000000000e+03 4.588016033172607422e+00 -3.964650630950927734e+00 -5.060998797416687012e-01 3.294488489627838135e-01 -5.299530178308486938e-02 -7.211670875549316406e-01
1.194000000000000000e+03 2.083977222442626953e+00 -3.242904186248779297e+00 -1.655530184507369995e-01 -4.220402538776397705e-01 -1.762779802083969116e-01 -5.910649299621582031e-01
1.195000000000000000e+03 3.986903190612792969e+00 -8.723142623901367188e+00 -2.380180805921554565e-01 5.116680860519409180e-01 8.209501206874847412e-02 -1.498092293739318848e+00
1.196000000000000000e+03 1.435560584068298340e+00 -4.752635955810546875e+00 -5.579932406544685364e-02 -9.517388939857482910e-01 -3.022614717483520508e-01 -6.114696860313415527e-01
1.197000000000000000e+03 7.016216754913330078e+00 -2.846487998962402344e+00 -7.079123258590698242e-01 5.277441143989562988e-01 -5.405045300722122192e-02 -2.810332737863063812e-02
1.198000000000000000e+03 8.678425788879394531e+00 -3.647716283798217773e+00 -3.417303264141082764e-01 7.176426053047180176e-01 1.127736717462539673e-01 6.537830829620361328e-01
1.199000000000000000e+03 5.426541805267333984e+00 -3.904165029525756836e+00 -6.309654116630554199e-01 5.523127913475036621e-01 -2.359578572213649750e-02 -6.069649457931518555e-01
1.200000000000000000e+03 7.091183185577392578e+00 -3.767399072647094727e+00 -6.341122388839721680e-01 8.061651587486267090e-01 5.161586776375770569e-02 -1.067125517874956131e-02
1.201000000000000000e+03 1.267344760894775391e+01 2.936537027359008789e+00 -4.416614472866058350e-01 8.374520540237426758e-01 1.187371835112571716e-01 -4.179715514183044434e-01
1.202000000000000000e+03 1.547401237487792969e+01 5.032322406768798828e+00 -4.797424077987670898e-01 1.853193640708923340e+00 4.120353758335113525e-01 -7.285763025283813477e-01
1.203000000000000000e+03 1.179691505432128906e+01 3.107905149459838867e+00 -3.980385065078735352e-01 6.517668962478637695e-01 7.611850649118423462e-02 -1.776980459690093994e-01
1.204000000000000000e+03 1.699211311340332031e+01 1.514730691909790039e+00 -2.824537456035614014e-01 1.708167195320129395e+00 4.277140498161315918e-01 -1.321687459945678711e+00
1.205000000000000000e+03 1.095325183868408203e+01 -3.723652839660644531e+00 7.145088315010070801e-01 2.210555672645568848e-01 2.806693315505981445e-01 1.488358378410339355e+00
1.206000000000000000e+03 9.442553520202636719e+00 -3.623422145843505859e+00 -1.152850389480590820e-01 7.005331516265869141e-01 1.755744367837905884e-01 1.023537635803222656e+00
1.207000000000000000e+03 1.523054599761962891e+01 2.018583297729492188e+00 -4.326340258121490479e-01 1.269219636917114258e+00 2.509756982326507568e-01 -1.134151935577392578e+00
1.208000000000000000e+03 1.473090553283691406e+01 3.212550878524780273e+00 -6.019201874732971191e-01 1.450560092926025391e+00 2.545919716358184814e-01 -8.931634426116943359e-01
1.209000000000000000e+03 1.311161136627197266e+01 -4.144262313842773438e+00 2.695715188980102539e+00 -7.047958374023437500e-01 5.972758531570434570e-01 1.932467818260192871e+00
1.210000000000000000e+03 1.092153739929199219e+01 3.238672256469726562e+00 -3.127300739288330078e-01 4.449509084224700928e-01 3.966624289751052856e-02 -7.160560344345867634e-04
1.211000000000000000e+03 1.891024780273437500e+01 -6.256466388702392578e+00 3.434743165969848633e+00 6.215121746063232422e+00 2.894959449768066406e+00 1.297084569931030273e+00
1.212000000000000000e+03 2.104307556152343750e+01 -5.082099437713623047e+00 6.618662357330322266e+00 3.202211856842041016e+00 2.946262359619140625e+00 -3.224660828709602356e-02
1.213000000000000000e+03 2.199893188476562500e+01 -4.408901214599609375e+00 6.166500091552734375e+00 2.158511638641357422e+00 2.497503519058227539e+00 8.730443716049194336e-01
1.214000000000000000e+03 2.197529029846191406e+01 -5.159661293029785156e+00 5.449691295623779297e+00 2.187789678573608398e+00 2.291244268417358398e+00 1.307222247123718262e-01
1.215000000000000000e+03 1.120231914520263672e+01 1.614461898803710938e+01 7.700314372777938843e-02 1.120936155319213867e+00 3.593817651271820068e-01 -1.113623976707458496e-01
1.216000000000000000e+03 3.953813934326171875e+01 -1.583383178710937500e+01 -2.466995000839233398e+00 1.632979214191436768e-01 -6.911091208457946777e-01 -5.494073033332824707e-01
1.217000000000000000e+03 4.112708663940429688e+01 -1.688428306579589844e+01 -2.506639242172241211e+00 9.175218641757965088e-02 -7.244660854339599609e-01 -5.524162054061889648e-01
1.218000000000000000e+03 3.073003959655761719e+01 -1.581398391723632812e+01 -3.451216220855712891e+00 3.425044119358062744e-01 -9.326134920120239258e-01 -2.254496514797210693e-02
1.219000000000000000e+03 1.271089076995849609e+01 -2.131280517578125000e+01 5.236417651176452637e-01 3.115269422531127930e+00 1.091673374176025391e+00 -1.406456828117370605e+00
1.220000000000000000e+03 2.979657173156738281e+01 5.983222484588623047e+00 1.704073190689086914e+00 2.219995260238647461e+00 1.177220582962036133e+00 1.273058295249938965e+00
1.221000000000000000e+03 2.681022644042968750e+01 6.228303909301757812e+00 1.916303396224975586e+00 3.469725608825683594e+00 1.615808725357055664e+00 1.478323459625244141e+00
1.222000000000000000e+03 5.070628738403320312e+01 4.669506549835205078e+00 1.127755999565124512e+00 2.361286580562591553e-01 4.091653823852539062e-01 -3.900042548775672913e-02
1.223000000000000000e+03 5.158580398559570312e+01 3.586259365081787109e+00 9.256822466850280762e-01 2.475227117538452148e-01 3.519614934921264648e-01 -5.169020220637321472e-02
1.224000000000000000e+03 2.904344940185546875e+01 1.169245910644531250e+01 5.036507248878479004e-01 2.620859384536743164e+00 9.373530745506286621e-01 1.407586455345153809e+00
1.225000000000000000e+03 2.851910781860351562e+01 1.064559841156005859e+01 8.827134966850280762e-01 2.842176675796508789e+00 1.117467045783996582e+00 1.644735932350158691e+00
1.226000000000000000e+03 4.679283905029296875e+01 -1.382668399810791016e+01 -2.196080684661865234e+00 -1.272853463888168335e-01 -6.970098018646240234e-01 -8.834465146064758301e-01
1.227000000000000000e+03 4.077304458618164062e+01 -1.564383506774902344e+01 -2.427633047103881836e+00 1.435226798057556152e-01 -6.852331161499023438e-01 -5.977396965026855469e-01
1.228000000000000000e+03 4.916564559936523438e+01 -1.277364158630371094e+01 -2.207732200622558594e+00 -1.928634196519851685e-01 -7.201786637306213379e-01 -9.365688562393188477e-01
1.229000000000000000e+03 3.686898803710937500e+01 -1.478775691986083984e+01 -2.452070236206054688e+00 2.732436656951904297e-01 -6.536479592323303223e-01 -4.931909739971160889e-01
1.230000000000000000e+03 2.641562461853027344e+01 1.444054985046386719e+01 -6.231625080108642578e-01 2.084943532943725586e+00 4.385342895984649658e-01 5.825722813606262207e-01
1.231000000000000000e+03 2.651753616333007812e+01 1.247867965698242188e+01 1.140923723578453064e-01 2.848254442214965820e+00 8.887040615081787109e-01 5.747528076171875000e-01
1.232000000000000000e+03 1.420584297180175781e+01 6.571523666381835938e+00 3.033746778964996338e-01 2.276067256927490234e+00 7.738325595855712891e-01 -4.670027792453765869e-01
1.233000000000000000e+03 5.148963928222656250e+01 -3.389305877685546875e+01 -2.641409933567047119e-01 -3.630714714527130127e-01 -1.881637424230575562e-01 -4.365926682949066162e-01
1.234000000000000000e+03 5.083626556396484375e+01 -1.058297729492187500e+01 -2.123027563095092773e+00 -1.723631322383880615e-01 -6.886171698570251465e-01 -8.853201866149902344e-01
1.235000000000000000e+03 1.717678260803222656e+01 2.698806285858154297e+00 -9.340543150901794434e-01 1.521978139877319336e+00 1.763771325349807739e-01 -1.225933790206909180e+00
1.236000000000000000e+03 2.081416320800781250e+01 3.119210481643676758e+00 -4.434630572795867920e-01 1.228625178337097168e+00 2.355486303567886353e-01 1.776220560073852539e+00
1.237000000000000000e+03 4.624005126953125000e+01 -1.271994972229003906e+01 -2.055382490158081055e+00 -3.304464370012283325e-02 -6.265281438827514648e-01 -7.945743799209594727e-01
1.238000000000000000e+03 2.440840339660644531e+01 -1.549649810791015625e+01 -5.227727413177490234e+00 5.838935449719429016e-02 -1.550801396369934082e+00 1.217224478721618652e+00
1.239000000000000000e+03 2.370569229125976562e+01 -1.399035263061523438e+01 -5.100852012634277344e+00 5.262013077735900879e-01 -1.372395157814025879e+00 7.300814986228942871e-01
1.240000000000000000e+03 2.811683654785156250e+01 -1.657946395874023438e+01 -4.218890666961669922e+00 1.424070298671722412e-01 -1.222945094108581543e+00 5.350284576416015625e-01
1.241000000000000000e+03 6.451549530029296875e+01 -2.339769744873046875e+01 -7.060916423797607422e-01 3.977318286895751953e+00 9.813680052757263184e-01 8.399078845977783203e-01
1.242000000000000000e+03 6.528537750244140625e+01 -2.221189498901367188e+01 -6.016833782196044922e-01 4.997560501098632812e+00 1.318763136863708496e+00 1.036769151687622070e+00
1.243000000000000000e+03 3.807841110229492188e+01 -1.470552730560302734e+01 -2.360911130905151367e+00 2.342651784420013428e-01 -6.379938125610351562e-01 -5.438168644905090332e-01
1.244000000000000000e+03 2.392837333679199219e+01 -3.360739135742187500e+01 -2.622258663177490234e-01 2.170510739088058472e-01 -1.355243753641843796e-02 3.642262425273656845e-03
1.245000000000000000e+03 5.529306411743164062e+01 -3.076433944702148438e+01 -7.300786972045898438e-01 -1.494493633508682251e-01 -2.638584077358245850e-01 -4.067715704441070557e-01
1.246000000000000000e+03 4.350512695312500000e+01 6.550570487976074219e+00 7.948918342590332031e-01 4.443792402744293213e-01 3.717813193798065186e-01 -7.147826999425888062e-02
1.247000000000000000e+03 8.817482948303222656e+00 -9.942756652832031250e+00 -8.443308472633361816e-01 7.968581676483154297e+00 2.137275218963623047e+00 2.067944049835205078e+00
1.248000000000000000e+03 8.554753303527832031e+00 -1.382903289794921875e+01 5.014032840728759766e+00 1.655463600158691406e+01 6.470600605010986328e+00 1.227288722991943359e+00
1.249000000000000000e+03 7.573853492736816406e+00 -1.466160964965820312e+01 4.068394184112548828e+00 8.556235313415527344e+00 3.787388801574707031e+00 8.211860060691833496e-01
1.250000000000000000e+03 2.715103149414062500e+01 -1.516358947753906250e+01 -4.156701087951660156e+00 3.674635291099548340e-01 -1.136771202087402344e+00 3.191735148429870605e-01
1.251000000000000000e+03 7.516527557373046875e+01 -1.018531227111816406e+01 1.348697662353515625e+00 8.487617492675781250e+00 2.950894355773925781e+00 2.268224656581878662e-01
1.252000000000000000e+03 7.142822265625000000e+01 -1.056067276000976562e+01 3.518118858337402344e+00 1.315480327606201172e+01 5.001876831054687500e+00 -7.936534881591796875e-01
1.253000000000000000e+03 1.061005878448486328e+01 -6.028342723846435547e+00 5.011163949966430664e-01 1.232094287872314453e+00 5.199632048606872559e-01 2.825786828994750977e+00
1.254000000000000000e+03 1.349245929718017578e+01 1.244988059997558594e+01 4.995266199111938477e-01 2.335480213165283203e+00 8.505020141601562500e-01 2.795072495937347412e-01
1.255000000000000000e+03 1.212680339813232422e+01 1.141071796417236328e+01 5.904409885406494141e-01 1.733061194419860840e+00 6.970506310462951660e-01 -7.224378734827041626e-02
1.256000000000000000e+03 5.815335464477539062e+01 1.324505233764648438e+01 6.760265231132507324e-01 3.302079677581787109e+00 1.193431854248046875e+00 -8.125123381614685059e-01
1.257000000000000000e+03 5.343708801269531250e+01 -1.195566368103027344e+01 -2.484997749328613281e+00 -5.786346197128295898e-01 -9.190896749496459961e-01 -1.301377654075622559e+00
1.258000000000000000e+03 7.768235015869140625e+01 -3.639470672607421875e+01 -4.424069076776504517e-02 1.078658199310302734e+01 3.222702503204345703e+00 1.500459313392639160e-01
1.259000000000000000e+03 7.568711090087890625e+01 -2.179446792602539062e+01 -4.220945537090301514e-01 9.411271095275878906e+00 2.696752786636352539e+00 -1.265069961547851562e+00
1.260000000000000000e+03 7.786848449707031250e+01 -2.923707199096679688e+01 -6.104874983429908752e-02 1.062788867950439453e+01 3.170051813125610352e+00 -2.019539773464202881e-01
1.261000000000000000e+03 7.523688507080078125e+01 2.020592689514160156e+01 5.728935822844505310e-02 6.148594379425048828e+00 1.861765146255493164e+00 -3.970637619495391846e-01
1.262000000000000000e+03 7.800144958496093750e+01 1.560556411743164062e+01 1.947635225951671600e-02 7.024001598358154297e+00 2.113043308258056641e+00 -2.380366474390029907e-01
1.263000000000000000e+03 7.756091308593750000e+01 3.530701065063476562e+01 6.756447721272706985e-03 5.712068080902099609e+00 1.715647339820861816e+00 -6.535873562097549438e-02
1.264000000000000000e+03 7.607853698730468750e+01 3.242337417602539062e+01 2.440333552658557892e-02 5.687131881713867188e+00 1.713460564613342285e+00 -1.151825860142707825e-01
1.265000000000000000e+03 7.806971740722656250e+01 -2.210124015808105469e+01 -1.330419629812240601e-01 9.403684616088867188e+00 2.781192779541015625e+00 -7.949557304382324219e-01
1.266000000000000000e+03 7.676739501953125000e+01 -2.336842536926269531e+01 -2.743156552314758301e-01 9.594932556152343750e+00 2.796185016632080078e+00 -9.320468902587890625e-01
1.267000000000000000e+03 7.646198272705078125e+01 -3.072255706787109375e+01 -9.751258790493011475e-02 1.007904338836669922e+01 2.994459390640258789e+00 -1.769286543130874634e-01
1.268000000000000000e+03 7.645497131347656250e+01 -2.924641799926757812e+01 -1.992078274488449097e-01 1.000307464599609375e+01 2.941160202026367188e+00 -3.162575960159301758e-01
1.269000000000000000e+03 7.661656951904296875e+01 -2.625220489501953125e+01 -2.537321448326110840e-01 9.881778717041015625e+00 2.888413906097412109e+00 -5.913188457489013672e-01
1.270000000000000000e+03 7.652944183349609375e+01 -2.774353218078613281e+01 -1.959194839000701904e-01 9.932159423828125000e+00 2.920871973037719727e+00 -4.228757917881011963e-01
1.271000000000000000e+03 7.669121551513671875e+01 -2.479260444641113281e+01 -2.328264117240905762e-01 9.741435050964355469e+00 2.852582693099975586e+00 -7.507688999176025391e-01
1.272000000000000000e+03 7.659306335449218750e+01 -3.203730392456054688e+01 -1.366103440523147583e-01 1.015187263488769531e+01 3.004578828811645508e+00 -1.101038232445716858e-01
1.273000000000000000e+03 7.591053009033203125e+01 -3.471768569946289062e+01 -1.225323602557182312e-01 9.777132034301757812e+00 2.896379947662353516e+00 -5.089737102389335632e-02
1.274000000000000000e+03 7.373654937744140625e+01 -2.913019371032714844e+01 -4.374392628669738770e-01 8.911396026611328125e+00 2.542187213897705078e+00 -2.944054305553436279e-01
1.275000000000000000e+03 7.504264831542968750e+01 -3.998414611816406250e+01 7.713183015584945679e-02 9.547705650329589844e+00 2.887451410293579102e+00 -1.071591898798942566e-01
1.276000000000000000e+03 7.797536468505859375e+01 2.258444213867187500e+01 4.834624938666820526e-03 6.365802288055419922e+00 1.911190986633300781e+00 -1.568437069654464722e-01
1.277000000000000000e+03 7.662535858154296875e+01 2.000743865966796875e+01 4.282508417963981628e-02 6.381047248840332031e+00 1.927161693572998047e+00 -3.026875257492065430e-01
1.278000000000000000e+03 7.517596435546875000e+01 2.298783111572265625e+01 5.410135164856910706e-02 5.965324401855468750e+00 1.805827617645263672e+00 -3.382421731948852539e-01
1.279000000000000000e+03 7.660340881347656250e+01 2.140388870239257812e+01 2.738332189619541168e-02 6.271358489990234375e+00 1.889622569084167480e+00 -2.760628461837768555e-01
1.280000000000000000e+03 7.660198974609375000e+01 1.295062255859375000e+01 3.065068507567048073e-03 7.034774303436279297e+00 2.111351728439331055e+00 -4.105207324028015137e-01
1.281000000000000000e+03 7.547108459472656250e+01 8.740421295166015625e+00 -9.657123684883117676e-02 7.213973522186279297e+00 2.135220766067504883e+00 -5.082453489303588867e-01
1.282000000000000000e+03 7.661787414550781250e+01 1.438187217712402344e+01 2.666095644235610962e-02 6.889482498168945312e+00 2.074842929840087891e+00 -3.965935111045837402e-01
1.283000000000000000e+03 7.658580017089843750e+01 2.414657211303710938e+01 2.451979927718639374e-02 6.086349964141845703e+00 1.833260893821716309e+00 -2.283859550952911377e-01
1.284000000000000000e+03 7.794587707519531250e+01 2.670197868347167969e+01 1.617655158042907715e-02 6.095089912414550781e+00 1.833379864692687988e+00 -1.179602295160293579e-01
1.285000000000000000e+03 7.810865783691406250e+01 -2.069614982604980469e+01 -6.753494590520858765e-02 8.922471046447753906e+00 2.656480789184570312e+00 -9.201734066009521484e-01
1.286000000000000000e+03 7.685142517089843750e+01 -2.195889854431152344e+01 -2.370688468217849731e-01 9.345711708068847656e+00 2.732592821121215820e+00 -1.115691184997558594e+00
1.287000000000000000e+03 7.655402374267578125e+01 2.683499526977539062e+01 2.435913123190402985e-02 5.932356357574462891e+00 1.787014603614807129e+00 -1.844426691532135010e-01
1.288000000000000000e+03 7.534393310546875000e+01 -1.483931732177734375e+01 4.463926255702972412e-01 8.940278053283691406e+00 2.816001176834106445e+00 -1.671287417411804199e+00
1.289000000000000000e+03 7.794486236572265625e+01 -1.508586978912353516e+01 1.594562977552413940e-01 6.813189029693603516e+00 2.091793537139892578e+00 -1.080836415290832520e+00
1.290000000000000000e+03 7.563456726074218750e+01 -2.233277559280395508e+00 -4.758358597755432129e-01 8.392024040222167969e+00 2.374856472015380859e+00 8.701193332672119141e-01
1.291000000000000000e+03 7.679551696777343750e+01 -7.763462543487548828e+00 3.897046744823455811e-01 7.272466659545898438e+00 2.298651456832885742e+00 8.873327970504760742e-01
1.292000000000000000e+03 7.808623504638671875e+01 5.800607204437255859e+00 -6.100709363818168640e-02 8.110906600952148438e+00 2.414969682693481445e+00 -1.201233193278312683e-01
1.293000000000000000e+03 7.554866027832031250e+01 4.691099166870117188e+00 -2.804796695709228516e-01 7.704242706298828125e+00 2.227128982543945312e+00 -2.224271893501281738e-01
1.294000000000000000e+03 7.617296600341796875e+01 3.486723709106445312e+01 1.865007728338241577e-02 5.640699386596679688e+00 1.697804808616638184e+00 -9.933071583509445190e-02
1.295000000000000000e+03 7.806873321533203125e+01 7.189234256744384766e+00 -3.431542217731475830e-02 7.989242553710937500e+00 2.386478185653686523e+00 -1.711755543947219849e-01
1.296000000000000000e+03 7.682034301757812500e+01 5.921708583831787109e+00 -1.239184439182281494e-01 7.809136867523193359e+00 2.305565357208251953e+00 -2.095897048711776733e-01
1.297000000000000000e+03 7.688572692871093750e+01 -2.322362184524536133e+00 -3.104933500289916992e-01 7.960322856903076172e+00 2.294948816299438477e+00 9.312870502471923828e-01
1.298000000000000000e+03 7.667427825927734375e+01 -9.131953239440917969e+00 6.730294227600097656e-01 7.139951229095458984e+00 2.343894243240356445e+00 5.184037685394287109e-01
1.299000000000000000e+03 7.671646118164062500e+01 -1.643902206420898438e+01 5.242880061268806458e-02 8.146092414855957031e+00 2.459556341171264648e+00 -1.565312981605529785e+00
1.300000000000000000e+03 7.520098876953125000e+01 3.367272567749023438e+01 3.283351659774780273e-02 5.561370372772216797e+00 1.678261160850524902e+00 -1.209040507674217224e-01
1.301000000000000000e+03 7.338443756103515625e+01 3.457264709472656250e+01 6.917487084865570068e-02 5.320149421691894531e+00 1.616797208786010742e+00 -1.452973037958145142e-01
1.302000000000000000e+03 7.627429199218750000e+01 3.096663475036621094e+01 2.514641545712947845e-02 5.743013381958007812e+00 1.730447888374328613e+00 -1.339648067951202393e-01
1.303000000000000000e+03 7.664775085449218750e+01 1.860793304443359375e+01 2.720275521278381348e-02 6.495430469512939453e+00 1.956789970397949219e+00 -3.253188729286193848e-01
1.304000000000000000e+03 7.665354156494140625e+01 1.721084976196289062e+01 3.836955875158309937e-02 6.621033668518066406e+00 1.997820854187011719e+00 -3.529784381389617920e-01
1.305000000000000000e+03 7.667476654052734375e+01 1.009076690673828125e+01 -3.432726114988327026e-02 7.349188804626464844e+00 2.194458484649658203e+00 -3.995410501956939697e-01
1.306000000000000000e+03 7.789327239990234375e+01 -1.364813709259033203e+01 3.171580731868743896e-01 6.370173931121826172e+00 2.006199598312377930e+00 -7.652425765991210938e-01
1.307000000000000000e+03 7.658847045898437500e+01 -1.499494457244873047e+01 3.887814879417419434e-01 7.955821514129638672e+00 2.503381013870239258e+00 -1.407832980155944824e+00
1.308000000000000000e+03 7.812296295166015625e+01 -6.647062301635742188e+00 4.442642256617546082e-02 6.294641017913818359e+00 1.901720285415649414e+00 8.062371015548706055e-01
1.309000000000000000e+03 7.810292053222656250e+01 1.664063692092895508e+00 -1.346533298492431641e-01 8.154517173767089844e+00 2.405959129333496094e+00 2.451084554195404053e-01
1.310000000000000000e+03 7.683805847167968750e+01 -9.382247328758239746e-01 -3.001393675804138184e-01 8.063963890075683594e+00 2.329147338867187500e+00 6.479485034942626953e-01
1.311000000000000000e+03 7.682704162597656250e+01 4.560158252716064453e+00 -1.773011982440948486e-01 7.941813945770263672e+00 2.329353809356689453e+00 -1.273062676191329956e-01
1.312000000000000000e+03 7.682901000976562500e+01 3.201143026351928711e+00 -2.282225191593170166e-01 8.012890815734863281e+00 2.335400342941284180e+00 5.274658650159835815e-02
1.313000000000000000e+03 7.694873046875000000e+01 -3.702095270156860352e+00 -1.347758769989013672e-01 7.768910884857177734e+00 2.290240526199340820e+00 1.045887470245361328e+00
1.314000000000000000e+03 7.695215606689453125e+01 -5.067165374755859375e+00 -3.102117590606212616e-02 7.539561748504638672e+00 2.252562046051025391e+00 1.173357248306274414e+00
1.315000000000000000e+03 7.646386718750000000e+01 -1.350208759307861328e+01 6.931184530258178711e-01 7.746942996978759766e+00 2.532018423080444336e+00 -1.135414242744445801e+00
1.316000000000000000e+03 7.655931854248046875e+01 -1.052629184722900391e+01 7.787359356880187988e-01 7.327099800109863281e+00 2.431750774383544922e+00 -2.980253286659717560e-02
1.317000000000000000e+03 7.414263153076171875e+01 -8.300323486328125000e+00 1.460395336151123047e+00 9.300587654113769531e+00 3.228294849395751953e+00 8.519080281257629395e-01
1.318000000000000000e+03 7.692248535156250000e+01 -2.056106948852539062e+01 -2.180790305137634277e-01 9.076805114746093750e+00 2.657617807388305664e+00 -1.270803451538085938e+00
1.319000000000000000e+03 7.689029693603515625e+01 -1.782585906982421875e+01 -3.547320887446403503e-02 8.426399230957031250e+00 2.517277717590332031e+00 -1.462579250335693359e+00
1.320000000000000000e+03 3.829428863525390625e+01 -1.596657943725585938e+01 -2.557343006134033203e+00 1.837667971849441528e-01 -7.120728492736816406e-01 -4.883917272090911865e-01
1.321000000000000000e+03 6.091425704956054688e+01 -5.065262317657470703e+00 -1.694673418998718262e+00 -4.446524381637573242e-01 -6.417977213859558105e-01 -1.284600138664245605e+00
1.322000000000000000e+03 5.607689285278320312e+01 7.931012153625488281e+00 4.345881342887878418e-01 1.785049080848693848e+00 6.658911705017089844e-01 1.384727191179990768e-03
1.323000000000000000e+03 1.639874839782714844e+01 4.370833396911621094e+00 -9.159809947013854980e-01 1.669833302497863770e+00 2.261557132005691528e-01 -9.859823584556579590e-01
1.324000000000000000e+03 5.692359161376953125e+01 -9.827664375305175781e+00 -2.962208032608032227e+00 -7.646743655204772949e-01 -1.118064761161804199e+00 -1.505909323692321777e+00
1.325000000000000000e+03 5.382425689697265625e+01 -1.031775569915771484e+01 -2.440992593765258789e+00 -4.009245336055755615e-01 -8.525751233100891113e-01 -1.132371306419372559e+00
1.326000000000000000e+03 8.297348976135253906e+00 -1.573542499542236328e+01 2.468900680541992188e+00 1.055932712554931641e+01 3.908468484878540039e+00 1.242247700691223145e+00
1.327000000000000000e+03 1.536023139953613281e+01 -2.660677909851074219e+01 -2.258009463548660278e-01 1.588824748992919922e+00 4.089071452617645264e-01 -4.869794845581054688e-01
1.328000000000000000e+03 5.981516647338867188e+01 -2.771457672119140625e+01 -8.243450522422790527e-01 8.622229695320129395e-01 1.136337406933307648e-02 -4.325336311012506485e-03
1.329000000000000000e+03 6.025086212158203125e+01 -7.546532154083251953e+00 -3.542853593826293945e+00 -7.797557711601257324e-01 -1.296782732009887695e+00 -1.611767530441284180e+00
1.330000000000000000e+03 5.574424362182617188e+01 -2.888157653808593750e+01 -1.241607308387756348e+00 -3.582718670368194580e-01 -4.799637496471405029e-01 -6.278408169746398926e-01
1.331000000000000000e+03 5.880097579956054688e+01 -2.836148643493652344e+01 -8.705852627754211426e-01 4.541445374488830566e-01 -1.249322146177291870e-01 -1.687489300966262817e-01
1.332000000000000000e+03 1.956624603271484375e+01 -3.003836059570312500e+01 -2.631776034832000732e-01 6.665358543395996094e-01 1.210074722766876221e-01 -2.271513789892196655e-01
1.333000000000000000e+03 2.205669021606445312e+01 -3.174831008911132812e+01 -2.727098166942596436e-01 3.550088107585906982e-01 2.468970045447349548e-02 -7.053153961896896362e-02
1.334000000000000000e+03 1.267256355285644531e+01 -2.321793365478515625e+01 -1.205080524086952209e-01 2.958653688430786133e+00 8.514437079429626465e-01 -8.683255910873413086e-01
1.335000000000000000e+03 1.357339477539062500e+01 -2.429489326477050781e+01 -1.388810276985168457e-01 2.302972078323364258e+00 6.492273211479187012e-01 -7.764950990676879883e-01
1.336000000000000000e+03 1.441145896911621094e+01 2.402342557907104492e+00 -5.350031852722167969e-01 1.176169514656066895e+00 1.923498958349227905e-01 -9.239513874053955078e-01
1.337000000000000000e+03 2.312001037597656250e+01 1.736171150207519531e+01 -4.877749681472778320e-01 1.700447350740432739e-01 -9.531906992197036743e-02 2.332679182291030884e-02
1.338000000000000000e+03 3.613324165344238281e+00 3.671857452392578125e+01 1.152183767408132553e-02 -2.350531220436096191e-01 -6.705939024686813354e-02 3.463281551375985146e-03
1.339000000000000000e+03 2.082792520523071289e+00 2.760581779479980469e+01 -1.164674852043390274e-02 -3.069163262844085693e-01 -9.556891769170761108e-02 -1.993305236101150513e-02
1.340000000000000000e+03 3.596125602722167969e+00 3.035321044921875000e+01 -1.245331112295389175e-02 -1.918350011110305786e-01 -6.128649413585662842e-02 -5.790681461803615093e-04
1.341000000000000000e+03 2.033434391021728516e+00 2.621469688415527344e+01 -1.205804012715816498e-02 -3.224889636039733887e-01 -1.003641039133071899e-01 -3.494023159146308899e-02
1.342000000000000000e+03 3.511898040771484375e+00 2.755194473266601562e+01 -2.545221708714962006e-02 -1.920027136802673340e-01 -6.523647904396057129e-02 -2.653484977781772614e-02
1.343000000000000000e+03 3.574065685272216797e+00 3.175856781005859375e+01 -6.372076459228992462e-03 -1.989697515964508057e-01 -6.160255149006843567e-02 7.060429546982049942e-03
1.344000000000000000e+03 3.576232671737670898e+00 2.894408798217773438e+01 -1.995928771793842316e-02 -1.888717561960220337e-01 -6.264930963516235352e-02 -1.036934182047843933e-02
1.345000000000000000e+03 2.276974439620971680e+00 3.691415023803710938e+01 2.676013391464948654e-04 -3.049486279487609863e-01 -9.140431135892868042e-02 -1.944071496836841106e-03
1.346000000000000000e+03 3.388253450393676758e+00 3.436705017089843750e+01 2.769281156361103058e-03 -2.279415130615234375e-01 -6.755166500806808472e-02 5.535115487873554230e-03
1.347000000000000000e+03 3.505107641220092773e+00 3.311858367919921875e+01 -2.526991556806024164e-05 -2.176783829927444458e-01 -6.531109660863876343e-02 1.018952950835227966e-02
1.348000000000000000e+03 4.759526252746582031e+00 -3.606678009033203125e+01 -1.217326000332832336e-01 2.287264823913574219e+00 6.496596336364746094e-01 1.970724463462829590e-01
1.349000000000000000e+03 4.536750793457031250e+00 -3.436880493164062500e+01 -1.802043616771697998e-01 2.262434720993041992e+00 6.246690750122070312e-01 2.726066708564758301e-01
1.350000000000000000e+03 3.627280235290527344e+00 -3.003141212463378906e+01 -1.733259111642837524e-01 2.071523189544677734e+00 5.694591999053955078e-01 5.278546810150146484e-01
1.351000000000000000e+03 2.105812311172485352e+00 -2.883588027954101562e+01 -6.641968339681625366e-02 1.792521595954895020e+00 5.178306102752685547e-01 4.540245234966278076e-01
1.352000000000000000e+03 1.934801578521728516e+00 2.199614906311035156e+01 -1.284814905375242233e-02 -4.222533702850341797e-01 -1.305304616689682007e-01 -8.144277334213256836e-02
1.353000000000000000e+03 3.238548755645751953e+00 2.340088272094726562e+01 -3.259121254086494446e-02 -2.397731691598892212e-01 -8.170931041240692139e-02 -8.875873684883117676e-02
1.354000000000000000e+03 2.815985202789306641e+00 -1.333741760253906250e+01 1.002865076065063477e+00 -1.613800764083862305e+00 -1.832806915044784546e-01 -2.248022109270095825e-01
1.355000000000000000e+03 1.662629604339599609e+00 -7.656167030334472656e+00 -6.172088161110877991e-02 -1.879408240318298340e+00 -5.823387503623962402e-01 -9.898530840873718262e-01
1.356000000000000000e+03 3.180220603942871094e+00 -1.861759376525878906e+01 1.299726963043212891e-01 2.566928602755069733e-02 4.669259488582611084e-02 1.843505501747131348e+00
1.357000000000000000e+03 3.216882944107055664e+00 2.199752616882324219e+01 -2.975843101739883423e-02 -2.613683342933654785e-01 -8.733803033828735352e-02 -1.120404601097106934e-01
1.358000000000000000e+03 3.024122714996337891e+00 1.223246574401855469e+01 8.303469419479370117e-02 -4.949703216552734375e-01 -1.235806867480278015e-01 1.581038534641265869e-02
1.359000000000000000e+03 4.442838191986083984e+00 1.778236389160156250e+01 1.453317143023014069e-02 -1.578356325626373291e-01 -4.299074038863182068e-02 -1.698559224605560303e-01
1.360000000000000000e+03 3.207131862640380859e+00 2.058932685852050781e+01 -2.243070118129253387e-02 -2.936783730983734131e-01 -9.483272582292556763e-02 -1.330940127372741699e-01
1.361000000000000000e+03 3.251888990402221680e+00 -2.007744789123535156e+01 -1.513455063104629517e-01 5.972824692726135254e-01 1.337810903787612915e-01 1.764236688613891602e+00
1.362000000000000000e+03 1.692869186401367188e+00 -1.472252941131591797e+01 3.851376473903656006e-01 -3.652008056640625000e+00 -9.800611734390258789e-01 4.270300269126892090e-01
1.363000000000000000e+03 3.746187448501586914e+00 -5.058537960052490234e+00 -3.645242154598236084e-01 6.691008061170578003e-02 -8.928424119949340820e-02 -9.813767671585083008e-01
1.364000000000000000e+03 3.225052595138549805e+00 8.105153083801269531e+00 9.426731616258621216e-02 -3.913485705852508545e-01 -8.912437409162521362e-02 2.342358827590942383e-01
1.365000000000000000e+03 1.839309930801391602e+00 6.180676937103271484e+00 1.295986771583557129e-02 -4.268308579921722412e-01 -1.241613030433654785e-01 2.145315706729888916e-01
1.366000000000000000e+03 1.840646743774414062e+00 1.496551513671875000e+01 2.336655743420124054e-02 -6.909191012382507324e-01 -2.002657651901245117e-01 -6.706263124942779541e-02
1.367000000000000000e+03 3.111125707626342773e+00 1.638541412353515625e+01 2.804102748632431030e-02 -4.128280580043792725e-01 -1.154361069202423096e-01 -1.270397752523422241e-01
1.368000000000000000e+03 3.058520317077636719e+00 9.525366783142089844e+00 9.708178043365478516e-02 -4.613810777664184570e-01 -1.092897951602935791e-01 1.539142131805419922e-01
1.369000000000000000e+03 2.740796804428100586e+00 -7.535899639129638672e+00 -2.339334338903427124e-01 -7.944054603576660156e-01 -3.085016608238220215e-01 -1.294005632400512695e+00
1.370000000000000000e+03 2.270178318023681641e+00 -4.359012126922607422e+00 -1.722130179405212402e-01 -5.892551541328430176e-01 -2.284404486417770386e-01 -8.436810374259948730e-01
1.371000000000000000e+03 3.480346679687500000e+00 -2.866391944885253906e+01 -2.489049881696701050e-01 1.945950984954833984e+00 5.091137886047363281e-01 6.557006835937500000e-01
1.372000000000000000e+03 3.304473400115966797e+00 -2.154943275451660156e+01 -2.639897465705871582e-01 8.899794816970825195e-01 1.877969205379486084e-01 1.632018923759460449e+00
1.373000000000000000e+03 3.121905565261840820e+00 -1.045798778533935547e+01 3.246480524539947510e-01 -5.923703908920288086e-01 -8.031670004129409790e-02 -1.363383769989013672e+00
1.374000000000000000e+03 2.894852876663208008e+00 -8.949276924133300781e+00 4.826744552701711655e-03 -8.124465942382812500e-01 -2.422859519720077515e-01 -1.427207946777343750e+00
1.375000000000000000e+03 2.867222309112548828e+00 -1.589871597290039062e+01 6.404058933258056641e-01 -1.120643615722656250e+00 -1.440713405609130859e-01 1.187244176864624023e+00
1.376000000000000000e+03 3.340650558471679688e+00 -2.301549911499023438e+01 -3.706320524215698242e-01 1.207146167755126953e+00 2.509542405605316162e-01 1.416248440742492676e+00
1.377000000000000000e+03 2.719976186752319336e+00 -3.593544387817382812e+01 -7.210162281990051270e-02 2.451812744140625000e+00 7.139133214950561523e-01 1.353433877229690552e-01
1.378000000000000000e+03 4.180527210235595703e+00 -3.283156585693359375e+01 -1.466944515705108643e-01 2.224560022354125977e+00 6.233596801757812500e-01 3.494597971439361572e-01
1.379000000000000000e+03 5.752899646759033203e+00 -3.242127609252929688e+01 -2.940364778041839600e-01 2.235070466995239258e+00 5.823101997375488281e-01 3.909336328506469727e-01
1.380000000000000000e+03 2.020934581756591797e+00 -2.460263061523437500e+01 -1.912804692983627319e-01 7.764462828636169434e-01 1.755497455596923828e-01 8.729903697967529297e-01
1.381000000000000000e+03 3.383413791656494141e+00 -2.589836502075195312e+01 -3.368744850158691406e-01 1.636945247650146484e+00 3.900212347507476807e-01 9.898096919059753418e-01
1.382000000000000000e+03 4.739586830139160156e+00 -2.580450248718261719e+01 -4.751591086387634277e-01 2.117971181869506836e+00 4.928436279296875000e-01 1.051196813583374023e+00
1.383000000000000000e+03 4.495432853698730469e+00 -1.836647415161132812e+01 2.075018733739852905e-01 2.137808084487915039e+00 7.035929560661315918e-01 1.904235243797302246e+00
1.384000000000000000e+03 2.752260208129882812e+00 -1.461517620086669922e+01 9.301896095275878906e-01 -1.652935028076171875e+00 -2.168236076831817627e-01 4.763254225254058838e-01
1.385000000000000000e+03 3.021414518356323242e+00 1.088052845001220703e+01 9.438489377498626709e-02 -4.892120361328125000e-01 -1.184481456875801086e-01 7.820218056440353394e-02
1.386000000000000000e+03 4.266980648040771484e+00 1.232797718048095703e+01 1.523008793592453003e-01 -2.799424231052398682e-01 -3.829246386885643005e-02 -1.047069556079804897e-03
1.387000000000000000e+03 3.038135528564453125e+00 1.361054706573486328e+01 7.388104498386383057e-02 -4.831872284412384033e-01 -1.227918565273284912e-01 -4.936459288001060486e-02
1.388000000000000000e+03 3.186277151107788086e+00 1.917427253723144531e+01 -6.701436825096607208e-03 -3.317716419696807861e-01 -1.015419214963912964e-01 -1.420290470123291016e-01
1.389000000000000000e+03 6.613178253173828125e+01 -2.110726547241210938e+01 -5.450217127799987793e-01 5.956449508666992188e+00 1.623428344726562500e+00 1.295503616333007812e+00
1.390000000000000000e+03 5.716706848144531250e+01 -8.180912971496582031e+00 -2.751050233840942383e+00 -4.938161969184875488e-01 -9.734598994255065918e-01 -1.151477217674255371e+00
1.391000000000000000e+03 5.607791900634765625e+01 -8.915671348571777344e+00 -2.660562276840209961e+00 -4.596478343009948730e-01 -9.360630512237548828e-01 -1.155963540077209473e+00
1.392000000000000000e+03 1.626317596435546875e+01 -2.794437789916992188e+01 -2.742073833942413330e-01 1.349023461341857910e+00 3.224448263645172119e-01 -3.451403975486755371e-01
1.393000000000000000e+03 3.099309539794921875e+01 -3.433162307739257812e+01 -3.697606027126312256e-01 -8.512981981039047241e-02 -1.364671289920806885e-01 1.316034495830535889e-01
1.394000000000000000e+03 3.288928222656250000e+01 -3.741413879394531250e+01 -2.646222710609436035e-01 -1.279296875000000000e-01 -1.177655905485153198e-01 5.566466599702835083e-02
1.395000000000000000e+03 1.229642772674560547e+01 1.260856628417968750e+01 4.992409050464630127e-01 1.759495973587036133e+00 6.776210665702819824e-01 -1.945775002241134644e-02
1.396000000000000000e+03 4.289819335937500000e+01 -3.853871154785156250e+01 -1.482588350772857666e-01 -3.540243506431579590e-01 -1.506849527359008789e-01 -1.717356592416763306e-01
1.397000000000000000e+03 4.510128784179687500e+01 -3.356934356689453125e+01 -5.904248356819152832e-01 -2.615059018135070801e-01 -2.555792331695556641e-01 -3.782340288162231445e-01
1.398000000000000000e+03 5.340364456176757812e+01 -3.289442825317382812e+01 -3.547998964786529541e-01 -1.996904313564300537e-01 -1.663471013307571411e-01 -4.227456450462341309e-01
1.399000000000000000e+03 4.660550689697265625e+01 -3.604690170288085938e+01 -1.945818662643432617e-01 -3.982839286327362061e-01 -1.778597384691238403e-01 -3.668983280658721924e-01
1.400000000000000000e+03 5.655774307250976562e+01 -3.013040351867675781e+01 -7.541127204895019531e-01 1.132354233413934708e-02 -2.228367477655410767e-01 -3.315444290637969971e-01
1.401000000000000000e+03 6.161894607543945312e+01 -2.482673072814941406e+01 -8.310205936431884766e-01 1.385839462280273438e+00 1.664456874132156372e-01 1.884754896163940430e-01
1.402000000000000000e+03 3.480326843261718750e+01 -3.568907928466796875e+01 -3.730154633522033691e-01 -1.031824424862861633e-01 -1.428593695163726807e-01 5.306633561849594116e-02
1.403000000000000000e+03 5.432393646240234375e+01 -3.157581329345703125e+01 -6.052951812744140625e-01 -1.651277691125869751e-01 -2.311268895864486694e-01 -4.425976276397705078e-01
1.404000000000000000e+03 5.268125534057617188e+01 -1.097301959991455078e+01 -2.348061800003051758e+00 -3.559904396533966064e-01 -8.112156391143798828e-01 -1.073377609252929688e+00
1.405000000000000000e+03 4.485995864868164062e+01 -3.507662963867187500e+01 -3.855593800544738770e-01 -3.114100098609924316e-01 -2.090908139944076538e-01 -3.490129411220550537e-01
1.406000000000000000e+03 2.462561988830566406e+01 3.935738563537597656e+00 7.626886367797851562e-01 3.722289323806762695e+00 1.345493435859680176e+00 2.362527608871459961e+00
1.407000000000000000e+03 6.955979156494140625e+01 -1.698322105407714844e+01 -1.126331016421318054e-01 1.145584487915039062e+01 3.402963638305664062e+00 -1.421390920877456665e-01
1.408000000000000000e+03 7.049167633056640625e+01 -1.613894844055175781e+01 4.692626297473907471e-01 1.212979698181152344e+01 3.779717683792114258e+00 -3.328588008880615234e-01
1.409000000000000000e+03 2.168649673461914062e+01 -3.382583999633789062e+01 -2.381107062101364136e-01 4.383204281330108643e-01 6.006291881203651428e-02 -9.465522319078445435e-02
1.410000000000000000e+03 4.925336074829101562e+01 -3.368148040771484375e+01 -4.230901598930358887e-01 -4.227625131607055664e-01 -2.537558078765869141e-01 -5.250148773193359375e-01
1.411000000000000000e+03 3.786009597778320312e+01 -3.494988250732421875e+01 -4.132196605205535889e-01 -1.086814850568771362e-01 -1.565703451633453369e-01 -4.735777527093887329e-02
1.412000000000000000e+03 2.151165008544921875e+01 2.255046129226684570e+00 3.005650639533996582e-01 2.509529590606689453e+00 8.430283665657043457e-01 2.453845739364624023e+00
1.413000000000000000e+03 1.081070327758789062e+01 -2.107115173339843750e+01 -1.727192252874374390e-01 4.716834068298339844e+00 1.363234400749206543e+00 -1.094760775566101074e+00
1.414000000000000000e+03 1.848247528076171875e+01 -1.264366626739501953e+01 -7.232604026794433594e+00 -5.548255443572998047e-01 -2.336228847503662109e+00 2.807528734207153320e+00
1.415000000000000000e+03 8.862784385681152344e+00 -1.891806221008300781e+01 -2.458304762840270996e-01 7.285105705261230469e+00 2.111782550811767578e+00 -3.245305120944976807e-01
1.416000000000000000e+03 6.698686218261718750e+01 -2.002565002441406250e+01 -4.774353802204132080e-01 7.574763298034667969e+00 2.129198312759399414e+00 1.308616161346435547e+00
1.417000000000000000e+03 1.407179069519042969e+01 -1.075962543487548828e+01 -3.777811527252197266e+00 -2.122383594512939453e+00 -1.770058512687683105e+00 4.239085197448730469e+00
1.418000000000000000e+03 4.692945480346679688e+01 4.099597454071044922e+00 9.172317385673522949e-01 2.411712706089019775e-01 3.475209176540374756e-01 6.906141340732574463e-02
1.419000000000000000e+03 4.462391662597656250e+01 6.589792728424072266e+00 1.045654416084289551e+00 1.401768922805786133e-01 3.557493984699249268e-01 -2.189526855945587158e-01
1.420000000000000000e+03 2.741648864746093750e+01 -3.440372467041015625e+01 -3.011126518249511719e-01 -3.046976216137409210e-02 -9.947472810745239258e-02 7.353208959102630615e-02
1.421000000000000000e+03 2.796947479248046875e+01 -3.265777969360351562e+01 -4.161028563976287842e-01 -1.026175022125244141e-01 -1.556161046028137207e-01 1.348129808902740479e-01
1.422000000000000000e+03 2.950184822082519531e+01 -3.641070938110351562e+01 -2.465388327836990356e-01 -5.626820027828216553e-02 -9.084210544824600220e-02 7.858119159936904907e-02
1.423000000000000000e+03 2.799888992309570312e+01 6.605090618133544922e+00 1.932120203971862793e+00 3.097734689712524414e+00 1.508956432342529297e+00 1.382563114166259766e+00
1.424000000000000000e+03 2.862144470214843750e+01 7.934970378875732422e+00 1.625402450561523438e+00 2.767701148986816406e+00 1.317931056022644043e+00 1.564981579780578613e+00
1.425000000000000000e+03 4.801793289184570312e+01 -3.482483291625976562e+01 -2.969761490821838379e-01 -4.160634875297546387e-01 -2.139118909835815430e-01 -4.496439993381500244e-01
1.426000000000000000e+03 2.257382011413574219e+01 -1.349030113220214844e+01 -5.446624755859375000e+00 4.994022250175476074e-01 -1.484166741371154785e+00 8.443370461463928223e-01
1.427000000000000000e+03 2.287486267089843750e+01 1.844840621948242188e+01 -2.625767290592193604e-01 3.157119452953338623e-01 1.594056747853755951e-02 9.513815492391586304e-02
1.428000000000000000e+03 9.023430824279785156e+00 -1.690324020385742188e+01 7.813655734062194824e-01 1.101644897460937500e+01 3.539344310760498047e+00 -1.117773771286010742e+00
1.429000000000000000e+03 9.857539176940917969e+00 -2.000269508361816406e+01 -1.591513007879257202e-01 5.608114242553710938e+00 1.634688854217529297e+00 -9.744842052459716797e-01
1.430000000000000000e+03 4.413404083251953125e+01 2.028505897521972656e+01 7.640596628189086914e-01 1.897561550140380859e+00 7.984863519668579102e-01 9.281040430068969727e-01
1.431000000000000000e+03 4.166142654418945312e+01 1.719058418273925781e+01 1.084164500236511230e+00 2.098105430603027344e+00 9.546809792518615723e-01 8.411533236503601074e-01
1.432000000000000000e+03 5.586977767944335938e+01 4.285091400146484375e+00 6.989939808845520020e-01 9.137148857116699219e-01 4.838126599788665771e-01 -2.710012793540954590e-01
1.433000000000000000e+03 5.290811920166015625e+01 5.962675094604492188e+00 1.127084851264953613e+00 3.153862357139587402e-01 4.327413439750671387e-01 2.139306068420410156e-01
1.434000000000000000e+03 2.439092445373535156e+01 1.788880157470703125e+01 -4.172373116016387939e-01 6.797493696212768555e-01 7.875362783670425415e-02 1.706089591607451439e-03
1.435000000000000000e+03 3.863932418823242188e+01 1.426173973083496094e+01 8.278797268867492676e-01 1.749576687812805176e+00 7.732369303703308105e-01 1.060039281845092773e+00
1.436000000000000000e+03 4.150098037719726562e+01 1.060136604309082031e+01 3.262543380260467529e-01 1.656936526298522949e+00 5.949572324752807617e-01 4.784828722476959229e-01
1.437000000000000000e+03 1.479929542541503906e+01 -2.872511291503906250e+01 -4.004541337490081787e-01 1.720946431159973145e+00 3.961476683616638184e-01 -2.985447049140930176e-01
1.438000000000000000e+03 5.575454711914062500e+01 1.832955551147460938e+01 5.485395789146423340e-01 2.973480701446533203e+00 1.056606054306030273e+00 -7.798372507095336914e-01
1.439000000000000000e+03 5.240850448608398438e+01 2.274443054199218750e+01 9.404064416885375977e-01 1.728055834770202637e+00 8.005387187004089355e-01 -4.686440229415893555e-01
1.440000000000000000e+03 1.175507545471191406e+01 -2.214444160461425781e+01 -1.062698215246200562e-01 3.499494075775146484e+00 1.017967224121093750e+00 -1.086496949195861816e+00
1.441000000000000000e+03 1.493379783630371094e+01 1.888532257080078125e+01 -3.065874874591827393e-01 1.121124267578125000e+00 2.443610429763793945e-01 4.421734511852264404e-01
1.442000000000000000e+03 1.650115966796875000e+01 1.765880966186523438e+01 -3.508017957210540771e-01 1.093624114990234375e+00 2.228467017412185669e-01 6.161594390869140625e-01
1.443000000000000000e+03 5.267969131469726562e+01 2.450732803344726562e+01 8.868613243103027344e-01 2.072672605514526367e+00 8.878602385520935059e-01 -3.905767500400543213e-01
1.444000000000000000e+03 4.871622085571289062e+01 2.230153083801269531e+01 1.064335227012634277e+00 1.133281588554382324e+00 6.592850685119628906e-01 2.655227482318878174e-01
1.445000000000000000e+03 1.964528465270996094e+01 -1.331795215606689453e+01 -6.970344066619873047e+00 -5.538867712020874023e-01 -2.257269382476806641e+00 2.341186046600341797e+00
1.446000000000000000e+03 4.024159240722656250e+01 1.307605266571044922e+01 7.491973638534545898e-01 1.794767618179321289e+00 7.631894946098327637e-01 9.736110568046569824e-01
1.447000000000000000e+03 1.251249122619628906e+01 1.613190460205078125e+01 5.050314590334892273e-02 1.384783029556274414e+00 4.305858612060546875e-01 -7.853174582123756409e-03
1.448000000000000000e+03 1.385420513153076172e+01 -9.332377433776855469e+00 -3.865600824356079102e-01 -1.311833977699279785e+00 -5.095182061195373535e-01 5.220586776733398438e+00
1.449000000000000000e+03 5.708350753784179688e+01 1.736168289184570312e+01 7.919785976409912109e-01 3.174493074417114258e+00 1.189941525459289551e+00 -6.541732549667358398e-01
1.450000000000000000e+03 1.926574325561523438e+01 -1.172785758972167969e+01 -5.309704303741455078e+00 4.321549534797668457e-01 -1.463264822959899902e+00 1.517460584640502930e+00
1.451000000000000000e+03 1.937596321105957031e+01 1.999089241027832031e+01 -7.522550970315933228e-02 2.758425176143646240e-01 6.018509715795516968e-02 5.829458236694335938e-01
1.452000000000000000e+03 1.881258964538574219e+01 1.831373023986816406e+01 -1.451826244592666626e-01 1.782250851392745972e-01 9.912739507853984833e-03 6.883074641227722168e-01
1.453000000000000000e+03 5.678400802612304688e+01 9.147294998168945312e+00 3.482957482337951660e-01 2.368246078491210938e+00 8.149625062942504883e-01 -3.073564469814300537e-01
1.454000000000000000e+03 5.757416915893554688e+01 1.024421119689941406e+01 4.464041888713836670e-01 2.670381307601928711e+00 9.350356459617614746e-01 -5.375990271568298340e-01
1.455000000000000000e+03 4.140237045288085938e+01 9.357484817504882812e+00 3.679298758506774902e-01 1.362112760543823242e+00 5.190128087997436523e-01 2.838596999645233154e-01
1.456000000000000000e+03 4.200209808349609375e+01 1.906591796875000000e+01 7.924289107322692871e-01 2.071232318878173828e+00 8.590983748435974121e-01 8.087569475173950195e-01
1.457000000000000000e+03 7.155152893066406250e+01 -1.337866401672363281e+01 2.288700103759765625e+00 1.335301017761230469e+01 4.692512989044189453e+00 -1.134606122970581055e+00
1.458000000000000000e+03 7.071328735351562500e+01 -1.215785980224609375e+01 2.636726856231689453e+00 1.485586643218994141e+01 5.247777938842773438e+00 -8.035398721694946289e-01
1.459000000000000000e+03 4.010617828369140625e+01 1.192925262451171875e+01 6.077014207839965820e-01 1.838089823722839355e+00 7.337374091148376465e-01 9.525161981582641602e-01
1.460000000000000000e+03 4.008221054077148438e+01 1.066978073120117188e+01 5.230445861816406250e-01 1.597241759300231934e+00 6.360859274864196777e-01 7.314684391021728516e-01
1.461000000000000000e+03 4.863896560668945312e+01 -1.442463970184326172e+01 -2.262102603912353516e+00 -2.636696994304656982e-01 -7.577316761016845703e-01 -9.768288135528564453e-01
1.462000000000000000e+03 6.948563385009765625e+01 -7.165358066558837891e+00 1.125490665435791016e+00 1.558604812622070312e+01 5.013461589813232422e+00 -3.168487846851348877e-01
1.463000000000000000e+03 1.241836833953857422e+01 1.380908489227294922e+01 3.770100772380828857e-01 1.623089432716369629e+00 6.000298261642456055e-01 -1.055346988141536713e-02
1.464000000000000000e+03 6.592315673828125000e+01 -5.220634937286376953e+00 -2.814228832721710205e-01 4.234368324279785156e+00 1.185883641242980957e+00 -5.683724403381347656e+00
1.465000000000000000e+03 6.334807968139648438e+01 -3.964289903640747070e+00 -7.495047450065612793e-01 2.846527099609375000e-01 -1.394556164741516113e-01 -2.430320024490356445e+00
1.466000000000000000e+03 5.848597335815429688e+01 1.650807762145996094e+01 9.131216406822204590e-01 3.367893457412719727e+00 1.284304499626159668e+00 -7.644181847572326660e-01
1.467000000000000000e+03 7.284429931640625000e+01 -4.132704734802246094e+00 -6.889582276344299316e-01 1.003103160858154297e+01 2.802621841430664062e+00 8.056827187538146973e-01
1.468000000000000000e+03 6.947782135009765625e+01 -4.694300651550292969e+00 -1.987856984138488770e+00 1.157107925415039062e+01 2.874966621398925781e+00 -1.361387610435485840e+00
1.469000000000000000e+03 4.784344196319580078e+00 -4.064158630371093750e+01 -4.910906031727790833e-02 2.418148994445800781e+00 7.107120156288146973e-01 8.428686857223510742e-02
1.470000000000000000e+03 2.144007110595703125e+01 -1.296901512145996094e+01 -5.600468158721923828e+00 4.620813131332397461e-01 -1.541516065597534180e+00 1.015160918235778809e+00
1.471000000000000000e+03 2.031973648071289062e+01 -1.239553737640380859e+01 -5.714994430541992188e+00 4.605739712715148926e-01 -1.576326012611389160e+00 1.320688009262084961e+00
1.472000000000000000e+03 6.622353363037109375e+01 -3.906245946884155273e+00 -1.363017559051513672e+00 5.649319648742675781e+00 1.285890579223632812e+00 -3.980976581573486328e+00
1.473000000000000000e+03 1.699913215637207031e+01 5.177549123764038086e-01 2.389914095401763916e-01 1.904869318008422852e+00 6.431581974029541016e-01 -1.284646391868591309e+00
1.474000000000000000e+03 1.898337745666503906e+01 -1.366590499877929688e+00 1.138779759407043457e+00 7.166740417480468750e+00 2.491656064987182617e+00 1.324986577033996582e+00
1.475000000000000000e+03 1.862812614440917969e+01 -1.503398418426513672e+00 8.599257469177246094e-01 7.311514377593994141e+00 2.451431989669799805e+00 3.073621690273284912e-01
1.476000000000000000e+03 1.905033493041992188e+01 -1.673453330993652344e+00 1.411488175392150879e+00 8.073781013488769531e+00 2.845580577850341797e+00 1.829195618629455566e+00
1.477000000000000000e+03 1.634809875488281250e+01 -5.121751308441162109e+00 7.334395408630371094e+00 1.035643219947814941e+00 2.511011600494384766e+00 4.567933559417724609e+00
1.478000000000000000e+03 1.667824935913085938e+01 9.778522700071334839e-02 4.352744817733764648e-01 1.614660143852233887e+00 6.149803996086120605e-01 -1.303077459335327148e+00
1.479000000000000000e+03 1.712993621826171875e+01 -2.851658761501312256e-01 6.132087707519531250e-01 2.114829063415527344e+00 8.184113502502441406e-01 -1.291919112205505371e+00
1.480000000000000000e+03 1.447861003875732422e+01 -4.074939727783203125e+00 4.295952320098876953e+00 -9.707764983177185059e-01 9.975528120994567871e-01 1.732175827026367188e+00
1.481000000000000000e+03 1.599258804321289062e+01 -5.030248641967773438e+00 7.015074729919433594e+00 1.450780481100082397e-01 2.148045778274536133e+00 3.975396156311035156e+00
1.482000000000000000e+03 1.456610965728759766e+01 -9.909549713134765625e+00 -1.083059787750244141e+00 -1.491255640983581543e+00 -7.722946405410766602e-01 4.603172779083251953e+00
1.483000000000000000e+03 1.513938522338867188e+01 -4.490986824035644531e+00 5.749654293060302734e+00 -9.097741842269897461e-01 1.451964020729064941e+00 2.430104494094848633e+00
1.484000000000000000e+03 1.417525863647460938e+01 -4.574822902679443359e+00 4.202785491943359375e+00 -1.024822354316711426e+00 9.533889889717102051e-01 2.441420316696166992e+00
1.485000000000000000e+03 2.063187217712402344e+01 -2.118634700775146484e+00 4.944900989532470703e+00 4.888441085815429688e+00 2.950002431869506836e+00 4.054749488830566406e+00
1.486000000000000000e+03 1.943154144287109375e+01 -1.753332495689392090e+00 2.241112232208251953e+00 7.941021919250488281e+00 3.054640293121337891e+00 3.143784046173095703e+00
1.487000000000000000e+03 2.210976982116699219e+01 -3.679249763488769531e+00 6.127562522888183594e+00 2.096388578414916992e+00 2.467185258865356445e+00 1.831233739852905273e+00
1.488000000000000000e+03 2.143764305114746094e+01 -2.801322937011718750e+00 6.374353885650634766e+00 3.239770174026489258e+00 2.884237051010131836e+00 3.438430786132812500e+00
1.489000000000000000e+03 1.400667285919189453e+01 -3.773088693618774414e+00 3.422570228576660156e+00 -8.956788778305053711e-01 7.580674290657043457e-01 1.399888515472412109e+00
1.490000000000000000e+03 1.089378547668457031e+01 -4.475826740264892578e+00 8.937986493110656738e-01 2.992343008518218994e-01 3.579098880290985107e-01 1.911758422851562500e+00
1.491000000000000000e+03 9.273978233337402344e+00 4.197008609771728516e+00 -8.919846266508102417e-02 2.484826743602752686e-01 4.778526350855827332e-02 2.622577846050262451e-01
1.492000000000000000e+03 5.390378952026367188e+00 6.829537391662597656e+00 1.488718241453170776e-01 -1.149685829877853394e-01 1.017097011208534241e-02 3.471882343292236328e-01
1.493000000000000000e+03 7.555465221405029297e+00 3.426094532012939453e+00 -2.180282920598983765e-01 2.718788385391235352e-02 -5.725212395191192627e-02 3.736453950405120850e-01
1.494000000000000000e+03 8.421257972717285156e+00 4.197609901428222656e+00 -7.832585275173187256e-02 1.369126886129379272e-01 1.757605001330375671e-02 3.231516778469085693e-01
1.495000000000000000e+03 3.668700933456420898e+00 4.561809062957763672e+00 -3.591481596231460571e-02 -2.036299705505371094e-01 -7.186343520879745483e-02 3.431668281555175781e-01
1.496000000000000000e+03 3.612549066543579102e+00 3.715675354003906250e+00 -8.206430077552795410e-02 -1.527252942323684692e-01 -7.043687999248504639e-02 3.216240704059600830e-01
1.497000000000000000e+03 2.254171848297119141e+00 4.197501182556152344e+00 -3.193049877882003784e-02 -2.420621961355209351e-01 -8.219780772924423218e-02 2.481815367937088013e-01
1.498000000000000000e+03 8.012181282043457031e+00 -4.593289852142333984e+00 -4.805073142051696777e-01 1.233347058296203613e+00 2.258519083261489868e-01 5.692875385284423828e-01
1.499000000000000000e+03 1.160001945495605469e+01 -4.576378345489501953e+00 1.387970328330993652e+00 1.076052486896514893e-01 4.486726820468902588e-01 2.221287250518798828e+00
1.500000000000000000e+03 1.595382595062255859e+01 1.547027826309204102e+00 -3.146201074123382568e-01 1.406157374382019043e+00 3.274611830711364746e-01 -1.277489542961120605e+00
1.501000000000000000e+03 1.242951583862304688e+01 -3.982292413711547852e+00 1.935236573219299316e+00 -3.552773892879486084e-01 4.739877581596374512e-01 1.795314192771911621e+00
1.502000000000000000e+03 7.210084438323974609e+00 -4.705153942108154297e+00 -6.267232298851013184e-01 1.375054001808166504e+00 2.244992256164550781e-01 2.328360080718994141e-01
1.503000000000000000e+03 6.265199184417724609e+00 -3.839628219604492188e+00 -6.385688185691833496e-01 7.783756852149963379e-01 4.194204881787300110e-02 -2.518807947635650635e-01
1.504000000000000000e+03 8.772237777709960938e+00 -4.486917972564697266e+00 -3.060133457183837891e-01 1.228629469871520996e+00 2.767848372459411621e-01 1.045788049697875977e+00
1.505000000000000000e+03 5.505942344665527344e+00 -4.920004844665527344e+00 -6.044337153434753418e-01 9.553837180137634277e-01 1.052850112318992615e-01 -5.764274597167968750e-01
1.506000000000000000e+03 6.370380878448486328e+00 -4.817691802978515625e+00 -6.773374080657958984e-01 1.170700907707214355e+00 1.480090469121932983e-01 -3.049906790256500244e-01
1.507000000000000000e+03 3.720705509185791016e+00 -6.180047035217285156e+00 -3.914798796176910400e-01 1.764010488986968994e-01 -6.452365219593048096e-02 -1.246075272560119629e+00
1.508000000000000000e+03 2.676681041717529297e+00 -6.138744354248046875e+00 -1.627345532178878784e-01 -6.501079797744750977e-01 -2.438527643680572510e-01 -1.098894596099853516e+00
1.509000000000000000e+03 1.406464195251464844e+01 4.431834697723388672e+00 -4.840414524078369141e-01 1.615839123725891113e+00 3.395393192768096924e-01 -5.733672976493835449e-01
1.510000000000000000e+03 1.751750946044921875e+01 -1.010596561431884766e+01 -3.085454940795898438e+00 5.614058375358581543e-01 -7.572147250175476074e-01 2.503544092178344727e+00
1.511000000000000000e+03 1.762859535217285156e+01 -6.090436935424804688e+00 4.360908031463623047e+00 5.061209201812744141e+00 2.826635122299194336e+00 4.265862464904785156e+00
1.512000000000000000e+03 2.108032226562500000e+01 -4.297739028930664062e+00 7.432734012603759766e+00 2.913009405136108398e+00 3.103723049163818359e+00 9.783138036727905273e-01
1.513000000000000000e+03 1.972993469238281250e+01 -6.903184413909912109e+00 2.286501646041870117e+00 4.614943027496337891e+00 2.070433378219604492e+00 2.030976116657257080e-01
1.514000000000000000e+03 2.043896675109863281e+01 -6.851844787597656250e+00 2.556703567504882812e+00 4.100201606750488281e+00 1.997071623802185059e+00 -3.868758380413055420e-01
1.515000000000000000e+03 1.694659042358398438e+01 -6.231235027313232422e+00 4.290065288543701172e+00 3.125428438186645508e+00 2.224648237228393555e+00 4.758557319641113281e+00
1.516000000000000000e+03 1.908385086059570312e+01 -7.049632549285888672e+00 1.745575189590454102e+00 4.849490642547607422e+00 1.978519797325134277e+00 1.051906585693359375e+00
1.517000000000000000e+03 1.505897331237792969e+01 4.085874557495117188e+00 -6.429402232170104980e-01 1.709403634071350098e+00 3.199390172958374023e-01 -8.955732583999633789e-01
1.518000000000000000e+03 1.287177562713623047e+01 3.758738040924072266e+00 -3.976792097091674805e-01 1.117025256156921387e+00 2.158038020133972168e-01 -3.758382201194763184e-01
1.519000000000000000e+03 1.019879150390625000e+01 -3.645960330963134766e+00 2.801252603530883789e-01 3.644641339778900146e-01 1.933768093585968018e-01 1.205734133720397949e+00
1.520000000000000000e+03 9.492963790893554688e+00 -4.403995513916015625e+00 2.905190549790859222e-02 8.802927136421203613e-01 2.728033661842346191e-01 1.311540722846984863e+00
1.521000000000000000e+03 1.732452011108398438e+01 1.005499735474586487e-01 4.473304450511932373e-01 2.374573469161987305e+00 8.465711474418640137e-01 -1.231273293495178223e+00
1.522000000000000000e+03 1.912093544006347656e+01 2.953759670257568359e+00 -7.664986848831176758e-01 8.582858443260192871e-01 2.753614820539951324e-02 -1.350753158330917358e-01
1.523000000000000000e+03 1.809412956237792969e+01 2.948522329330444336e+00 -1.232547760009765625e+00 1.041309595108032227e+00 -5.737142637372016907e-02 -1.002010703086853027e+00
1.524000000000000000e+03 8.131572723388671875e+00 6.913876056671142578e+00 2.858611643314361572e-01 2.541167140007019043e-01 1.619933545589447021e-01 2.985016107559204102e-01
1.525000000000000000e+03 1.195122909545898438e+01 3.910487651824951172e+00 -2.440804690122604370e-01 8.588153719902038574e-01 1.844204813241958618e-01 -1.601063460111618042e-01
1.526000000000000000e+03 1.094191265106201172e+01 -1.042356777191162109e+01 -1.772280693054199219e+00 5.324426651000976562e+00 1.065643787384033203e+00 6.173319339752197266e+00
1.527000000000000000e+03 3.927143478393554688e+01 -1.458046436309814453e+01 -2.309857606887817383e+00 2.157650887966156006e-01 -6.282277703285217285e-01 -5.834211707115173340e-01
1.528000000000000000e+03 3.883189773559570312e+01 1.607770919799804688e+01 8.370729684829711914e-01 1.830239176750183105e+00 8.001936674118041992e-01 9.511760473251342773e-01
1.529000000000000000e+03 3.963213348388671875e+01 1.498285579681396484e+01 8.972342610359191895e-01 1.899924278259277344e+00 8.391475677490234375e-01 1.042909502983093262e+00
1.530000000000000000e+03 1.091790866851806641e+01 1.164815902709960938e+01 5.628724694252014160e-01 1.203260540962219238e+00 5.298398733139038086e-01 -6.417432427406311035e-02
1.531000000000000000e+03 7.472280979156494141e+00 -1.053284931182861328e+01 7.971701622009277344e-01 5.973670959472656250e+00 2.031252384185791016e+00 -6.446809768676757812e-01
1.532000000000000000e+03 4.258197307586669922e+00 -1.245873928070068359e+01 1.485376119613647461e+00 7.604076862335205078e-01 6.737351417541503906e-01 -8.616677522659301758e-01
1.533000000000000000e+03 8.564710617065429688e+00 -1.103729629516601562e+01 -1.953695528209209442e-02 1.076283168792724609e+01 3.222988605499267578e+00 2.342340052127838135e-01
1.534000000000000000e+03 5.812393188476562500e+01 8.340804100036621094e+00 4.600129127502441406e-01 2.339315176010131836e+00 8.397983908653259277e-01 -5.711003541946411133e-01
1.535000000000000000e+03 4.440472030639648438e+01 -1.471559715270996094e+01 -2.256211519241333008e+00 -5.469495430588722229e-02 -6.932719349861145020e-01 -7.445698380470275879e-01
1.536000000000000000e+03 4.045650863647460938e+01 -1.440771389007568359e+01 -2.240525245666503906e+00 1.735767424106597900e-01 -6.200845241546630859e-01 -6.063703298568725586e-01
1.537000000000000000e+03 3.200244522094726562e+01 -1.471444511413574219e+01 -2.934518098831176758e+00 4.073601961135864258e-01 -7.581474184989929199e-01 -3.104293644428253174e-01
1.538000000000000000e+03 2.832943916320800781e+01 -1.543413066864013672e+01 -3.924187660217285156e+00 3.658846616744995117e-01 -1.067490935325622559e+00 2.115831822156906128e-01
1.539000000000000000e+03 5.922075271606445312e+01 -6.668111324310302734e+00 -2.689436435699462891e+00 -4.692541956901550293e-01 -9.476072192192077637e-01 -1.026689410209655762e+00
1.540000000000000000e+03 6.013201522827148438e+01 -5.885562896728515625e+00 -2.134803771972656250e+00 -5.102525949478149414e-01 -7.935168743133544922e-01 -9.883806109428405762e-01
1.541000000000000000e+03 5.152029037475585938e+01 -1.159836864471435547e+01 -2.295460462570190430e+00 -3.027962148189544678e-01 -7.794770598411560059e-01 -1.034758925437927246e+00
1.542000000000000000e+03 4.854188919067382812e+01 -1.170042800903320312e+01 -2.072906732559204102e+00 -8.872485905885696411e-02 -6.484894752502441406e-01 -8.502935767173767090e-01
1.543000000000000000e+03 3.442031860351562500e+01 -1.482178211212158203e+01 -2.656068325042724609e+00 3.377735018730163574e-01 -6.954884529113769531e-01 -3.983539640903472900e-01
1.544000000000000000e+03 3.575749588012695312e+01 -1.608796882629394531e+01 -2.776736974716186523e+00 2.429150491952896118e-01 -7.601465582847595215e-01 -3.264091610908508301e-01
1.545000000000000000e+03 2.167845916748046875e+01 -2.068248033523559570e+00 4.755949974060058594e+00 3.418873310089111328e+00 2.452447175979614258e+00 3.691692352294921875e+00
1.546000000000000000e+03 2.265144348144531250e+01 3.581775188446044922e+00 -2.639799006283283234e-02 2.479769229888916016e+00 7.360113859176635742e-01 2.303401947021484375e+00
1.547000000000000000e+03 2.199034690856933594e+01 -1.200242900848388672e+01 -4.414311885833740234e+00 9.754396080970764160e-01 -1.031661748886108398e+00 2.829718291759490967e-01
1.548000000000000000e+03 4.739881515502929688e+01 -1.222618484497070312e+01 -2.055152654647827148e+00 -7.123360037803649902e-02 -6.379158496856689453e-01 -8.305650353431701660e-01
1.549000000000000000e+03 4.798633956909179688e+01 -1.331745147705078125e+01 -2.211001396179199219e+00 -1.291736066341400146e-01 -7.020525336265563965e-01 -9.133486151695251465e-01
1.550000000000000000e+03 1.120673179626464844e+01 1.500636959075927734e+01 2.205924689769744873e-01 1.178996920585632324e+00 4.198768138885498047e-01 -1.278965771198272705e-01
1.551000000000000000e+03 1.431782913208007812e+01 5.434309959411621094e+00 -1.319686621427536011e-01 1.915306329727172852e+00 5.350012779235839844e-01 -5.233082175254821777e-01
1.552000000000000000e+03 1.105196857452392578e+01 4.021283626556396484e+00 -1.708569973707199097e-01 6.220489740371704102e-01 1.353575885295867920e-01 2.421935088932514191e-02
1.553000000000000000e+03 6.599210262298583984e+00 -1.544782352447509766e+01 2.530099391937255859e+00 6.469792366027832031e+00 2.699967622756958008e+00 1.659304618835449219e+00
1.554000000000000000e+03 4.560214996337890625e+01 -1.429450607299804688e+01 -2.194775104522705078e+00 -9.604563564062118530e-02 -6.872462034225463867e-01 -8.062644004821777344e-01
1.555000000000000000e+03 4.162818527221679688e+01 -1.418056011199951172e+01 -2.195923805236816406e+00 1.326392292976379395e-01 -6.189853549003601074e-01 -6.477216482162475586e-01
1.556000000000000000e+03 1.027654838562011719e+01 4.906621932983398438e+00 3.097098134458065033e-02 5.442300438880920410e-01 1.725603044033050537e-01 1.606652885675430298e-01
1.557000000000000000e+03 1.266766262054443359e+01 8.713220596313476562e+00 7.189121842384338379e-01 1.907530546188354492e+00 7.879328131675720215e-01 -2.308811247348785400e-01
1.558000000000000000e+03 5.017956161499023438e+01 -9.547130584716796875e+00 -1.920095324516296387e+00 -7.725784182548522949e-02 -5.992059707641601562e-01 -7.503914237022399902e-01
1.559000000000000000e+03 4.461748504638671875e+01 -1.205863666534423828e+01 -1.902990698814392090e+00 5.673359706997871399e-02 -5.538771152496337891e-01 -7.043923735618591309e-01
1.560000000000000000e+03 5.415641403198242188e+01 -8.690118789672851562e+00 -2.266076803207397461e+00 -2.541735172271728516e-01 -7.560751438140869141e-01 -9.072151184082031250e-01
1.561000000000000000e+03 3.196966743469238281e+01 -1.594070053100585938e+01 -3.259844541549682617e+00 3.233642578125000000e-01 -8.809440732002258301e-01 -9.401226788759231567e-02
1.562000000000000000e+03 1.614983940124511719e+01 -1.008336639404296875e+01 -2.652473926544189453e+00 -5.268309712409973145e-01 -9.537914991378784180e-01 3.460484504699707031e+00
1.563000000000000000e+03 1.539093589782714844e+01 -1.023727703094482422e+01 -2.427460908889770508e+00 -1.142927885055541992e+00 -1.071116566658020020e+00 3.752879142761230469e+00
1.564000000000000000e+03 3.703211212158203125e+01 -1.605074691772460938e+01 -2.643407344818115234e+00 1.965988129377365112e-01 -7.340425252914428711e-01 -4.136251211166381836e-01
1.565000000000000000e+03 2.669275474548339844e+01 -1.272172832489013672e+01 -3.209195852279663086e+00 7.401714324951171875e-01 -7.407073378562927246e-01 -3.403978943824768066e-01
1.566000000000000000e+03 2.854326438903808594e+01 -1.429410266876220703e+01 -3.463724136352539062e+00 5.069935917854309082e-01 -8.870191574096679688e-01 -1.209698617458343506e-01
1.567000000000000000e+03 1.686935043334960938e+01 3.596643447875976562e+00 -9.374991655349731445e-01 1.493540644645690918e+00 1.668124645948410034e-01 -1.155706644058227539e+00
1.568000000000000000e+03 1.598662948608398438e+01 3.635142087936401367e+00 -8.001798987388610840e-01 1.701329708099365234e+00 2.703449428081512451e-01 -1.075750231742858887e+00
1.569000000000000000e+03 6.612261199951171875e+01 -2.297429656982421875e+01 -9.236091971397399902e-01 5.703381538391113281e+00 1.433931708335876465e+00 8.879765868186950684e-01
1.570000000000000000e+03 6.044156646728515625e+01 -2.577003669738769531e+01 -9.785199165344238281e-01 7.715910673141479492e-01 -6.207864731550216675e-02 -5.112333595752716064e-02
1.571000000000000000e+03 3.320302200317382812e+01 -1.478308963775634766e+01 -2.801196336746215820e+00 3.740998506546020508e-01 -7.281289696693420410e-01 -3.499854505062103271e-01
1.572000000000000000e+03 2.459680175781250000e+01 -3.537636566162109375e+01 -2.193961143493652344e-01 1.887267678976058960e-01 -9.200805798172950745e-03 6.636018399149179459e-03
1.573000000000000000e+03 5.248255538940429688e+01 4.271757125854492188e+00 9.581270217895507812e-01 3.030034601688385010e-01 3.783391416072845459e-01 -2.085030823945999146e-02
1.574000000000000000e+03 7.518020629882812500e+01 1.310433197021484375e+01 2.771485783159732819e-02 6.709773540496826172e+00 2.021246671676635742e+00 -5.497451424598693848e-01
1.575000000000000000e+03 7.552944946289062500e+01 -8.028856515884399414e-01 -5.779752731323242188e-01 8.361884117126464844e+00 2.335172653198242188e+00 6.899186372756958008e-01
1.576000000000000000e+03 7.288179779052734375e+01 -1.122006130218505859e+01 2.632307529449462891e+00 1.092204666137695312e+01 4.066306114196777344e+00 -7.174997329711914062e-01
1.577000000000000000e+03 7.492081451416015625e+01 -1.580527496337890625e+01 3.633733391761779785e-01 9.111383438110351562e+00 2.842427015304565430e+00 -1.773802876472473145e+00
1.578000000000000000e+03 7.689179229736328125e+01 -6.412149429321289062e+00 2.273147255182266235e-01 7.323479175567626953e+00 2.265238285064697266e+00 1.058271408081054688e+00
1.579000000000000000e+03 7.566072082519531250e+01 -6.135192871093750000e+00 2.149600386619567871e-01 8.322968482971191406e+00 2.561378479003906250e+00 1.292747974395751953e+00
1.580000000000000000e+03 7.580994415283203125e+01 -3.601734399795532227e+00 -3.518891334533691406e-01 8.394927024841308594e+00 2.412911176681518555e+00 1.201067090034484863e+00
1.581000000000000000e+03 7.501931762695312500e+01 -1.158208560943603516e+01 1.503089666366577148e+00 8.875979423522949219e+00 3.113720893859863281e+00 -6.565627455711364746e-01
1.582000000000000000e+03 7.642581176757812500e+01 -1.198844623565673828e+01 8.744032382965087891e-01 7.520910739898681641e+00 2.518594264984130859e+00 -5.549697875976562500e-01
1.583000000000000000e+03 7.342975616455078125e+01 -1.199001407623291016e+01 2.174573183059692383e+00 1.063994884490966797e+01 3.844356536865234375e+00 -9.777284264564514160e-01
1.584000000000000000e+03 7.520244598388671875e+01 -1.367716884613037109e+01 1.095291137695312500e+00 8.925030708312988281e+00 3.006096601486206055e+00 -1.338907837867736816e+00
1.585000000000000000e+03 7.553150939941406250e+01 -7.440621852874755859e+00 6.669911742210388184e-01 8.225478172302246094e+00 2.667740821838378906e+00 1.059376120567321777e+00
1.586000000000000000e+03 7.578587341308593750e+01 -4.875452041625976562e+00 -1.202898006886243820e-02 8.310429573059082031e+00 2.489520072937011719e+00 1.260248661041259766e+00
1.587000000000000000e+03 7.683148956298828125e+01 1.833582639694213867e+00 -2.836977839469909668e-01 8.099079132080078125e+00 2.344614267349243164e+00 1.875135302543640137e-01
1.588000000000000000e+03 7.555586242675781250e+01 1.995507717132568359e+00 -4.708193242549896240e-01 8.022286415100097656e+00 2.265439987182617188e+00 1.125206947326660156e-01
1.589000000000000000e+03 7.556993103027343750e+01 6.021444320678710938e+00 -2.235239148139953613e-01 7.581981182098388672e+00 2.207537174224853516e+00 -3.693420290946960449e-01
1.590000000000000000e+03 7.366986846923828125e+01 -1.778163337707519531e+01 -2.431326806545257568e-01 1.000431346893310547e+01 2.928354263305664062e+00 -1.771706461906433105e+00
1.591000000000000000e+03 7.307896423339843750e+01 3.271536254882812500e+01 8.025740087032318115e-02 5.324224948883056641e+00 1.621344685554504395e+00 -1.981246769428253174e-01
1.592000000000000000e+03 7.481927490234375000e+01 3.100598144531250000e+01 5.342899262905120850e-02 5.558918476104736328e+00 1.683704257011413574e+00 -1.729319989681243896e-01
1.593000000000000000e+03 7.420939636230468750e+01 3.499619245529174805e+00 -5.121559500694274902e-01 7.695334434509277344e+00 2.154953479766845703e+00 -2.763729393482208252e-01
1.594000000000000000e+03 7.556378173828125000e+01 6.146566271781921387e-01 -5.645362734794616699e-01 8.234581947326660156e+00 2.301013469696044922e+00 2.972129583358764648e-01
1.595000000000000000e+03 7.554052734375000000e+01 3.353505373001098633e+00 -3.736409246921539307e-01 7.882839202880859375e+00 2.252759456634521484e+00 -1.258848458528518677e-01
1.596000000000000000e+03 7.694444274902343750e+01 -1.918498039245605469e+01 -1.429902017116546631e-01 8.704604148864746094e+00 2.568484067916870117e+00 -1.434934616088867188e+00
1.597000000000000000e+03 7.379235076904296875e+01 -2.005975341796875000e+01 -6.467866301536560059e-01 9.662082672119140625e+00 2.704588890075683594e+00 -1.564196109771728516e+00
1.598000000000000000e+03 7.674378204345703125e+01 8.691235542297363281e+00 -5.177740380167961121e-02 7.516937732696533203e+00 2.239548206329345703e+00 -3.584294915199279785e-01
1.599000000000000000e+03 7.555796051025390625e+01 7.370750427246093750e+00 -1.413378417491912842e-01 7.391062736511230469e+00 2.174917459487915039e+00 -4.380584359169006348e-01
1.600000000000000000e+03 7.663995361328125000e+01 1.580145359039306641e+01 2.012629620730876923e-02 6.752188682556152344e+00 2.031694412231445312e+00 -3.756147623062133789e-01
1.601000000000000000e+03 7.526473999023437500e+01 1.602005004882812500e+01 5.678156390786170959e-02 6.467813014984130859e+00 1.957378387451171875e+00 -4.954355955123901367e-01
1.602000000000000000e+03 7.532533264160156250e+01 1.013827228546142578e+01 -3.363426774740219116e-02 7.033889293670654297e+00 2.100076436996459961e+00 -5.349761843681335449e-01
1.603000000000000000e+03 7.427272033691406250e+01 8.692217826843261719e+00 -1.138101965188980103e-01 6.951623439788818359e+00 2.051343917846679688e+00 -6.340535879135131836e-01
1.604000000000000000e+03 7.391211700439453125e+01 1.627661514282226562e+01 8.522561192512512207e-02 6.176192283630371094e+00 1.878425359725952148e+00 -5.899432897567749023e-01
1.605000000000000000e+03 7.520416259765625000e+01 1.458158874511718750e+01 3.820186480879783630e-02 6.583172321319580078e+00 1.986412286758422852e+00 -5.286878347396850586e-01
1.606000000000000000e+03 7.529362487792968750e+01 1.742681694030761719e+01 5.451519414782524109e-02 6.358710765838623047e+00 1.923967838287353516e+00 -4.622658789157867432e-01
1.607000000000000000e+03 7.507176971435546875e+01 -2.925097084045410156e+01 -2.781191766262054443e-01 9.381009101867675781e+00 2.730866909027099609e+00 -3.217349350452423096e-01
1.608000000000000000e+03 7.429246520996093750e+01 -2.300034904479980469e+01 -6.453316807746887207e-01 9.421588897705078125e+00 2.632877111434936523e+00 -1.068196296691894531e+00
1.609000000000000000e+03 7.518513488769531250e+01 2.161817359924316406e+01 6.970575451850891113e-02 6.052784919738769531e+00 1.836747169494628906e+00 -3.699992895126342773e-01
1.610000000000000000e+03 7.544633483886718750e+01 -2.464350891113281250e+01 -4.434556066989898682e-01 9.532015800476074219e+00 2.726567983627319336e+00 -8.684375286102294922e-01
1.611000000000000000e+03 7.537237548828125000e+01 -2.612937545776367188e+01 -3.792463541030883789e-01 9.501648902893066406e+00 2.736720800399780273e+00 -6.428415179252624512e-01
1.612000000000000000e+03 7.554112243652343750e+01 -2.320280075073242188e+01 -4.216715097427368164e-01 9.447146415710449219e+00 2.707642555236816406e+00 -1.078585863113403320e+00
1.613000000000000000e+03 7.363773345947265625e+01 2.709221839904785156e+01 8.614906668663024902e-02 5.548606872558593750e+00 1.690426826477050781e+00 -3.023269176483154297e-01
1.614000000000000000e+03 7.371253967285156250e+01 2.320635223388671875e+01 1.025835350155830383e-01 5.737715244293212891e+00 1.752089619636535645e+00 -4.165706932544708252e-01
1.615000000000000000e+03 7.512906646728515625e+01 2.696179389953613281e+01 5.741938576102256775e-02 5.755604267120361328e+00 1.743907094001770020e+00 -2.533331513404846191e-01
1.616000000000000000e+03 7.641314697265625000e+01 2.955285072326660156e+01 2.155559323728084564e-02 5.798224449157714844e+00 1.745934009552001953e+00 -1.479701995849609375e-01
1.617000000000000000e+03 7.498927307128906250e+01 2.959817504882812500e+01 5.010504648089408875e-02 5.628796100616455078e+00 1.703670263290405273e+00 -2.038612365722656250e-01
1.618000000000000000e+03 7.297830200195312500e+01 -3.493045425415039062e+01 -9.597487747669219971e-02 8.367581367492675781e+00 2.481482028961181641e+00 3.260850906372070312e-02
1.619000000000000000e+03 7.589374542236328125e+01 -3.668544006347656250e+01 -1.052237004041671753e-01 9.988711357116699219e+00 2.965046167373657227e+00 -4.918596893548965454e-02
1.620000000000000000e+03 7.644638061523437500e+01 -3.322584533691406250e+01 -8.229323476552963257e-02 1.005762958526611328e+01 2.992600917816162109e+00 -5.290731415152549744e-02
1.621000000000000000e+03 7.499642181396484375e+01 -3.096954154968261719e+01 -2.405008077621459961e-01 9.368733406066894531e+00 2.738469600677490234e+00 -2.134874463081359863e-01
1.622000000000000000e+03 1.410218143463134766e+01 -2.741697692871093750e+01 -4.238245785236358643e-01 2.007812261581420898e+00 4.751963317394256592e-01 -3.445732593536376953e-01
1.623000000000000000e+03 1.687440299987792969e+01 -2.944215202331542969e+01 -3.231452405452728271e-01 1.217597007751464844e+00 2.683355510234832764e-01 -3.059782385826110840e-01
1.624000000000000000e+03 3.045884370803833008e+00 -1.721811103820800781e+01 3.976080119609832764e-01 -5.683652758598327637e-01 -5.122718960046768188e-02 1.496041178703308105e+00
1.625000000000000000e+03 4.991442680358886719e+00 -1.511896133422851562e+01 1.954563856124877930e+00 2.765896558761596680e+00 1.416138052940368652e+00 1.245396018028259277e+00
1.626000000000000000e+03 4.503615856170654297e+00 2.201786994934082031e+01 -5.277292057871818542e-02 -1.024044603109359741e-01 -4.655321314930915833e-02 -1.284107416868209839e-01
1.627000000000000000e+03 4.314225196838378906e+00 -1.689282608032226562e+01 7.805180549621582031e-01 1.656684398651123047e+00 7.311607003211975098e-01 1.905243992805480957e+00
1.628000000000000000e+03 4.373296260833740234e+00 1.640664863586425781e+01 4.684249311685562134e-02 -1.930299699306488037e-01 -4.385624080896377563e-02 -1.520539671182632446e-01
1.629000000000000000e+03 4.479035854339599609e+00 1.919008827209472656e+01 -1.524097938090562820e-02 -1.246360167860984802e-01 -4.196310043334960938e-02 -1.671627163887023926e-01
1.630000000000000000e+03 3.154140472412109375e+00 1.776929855346679688e+01 7.681958843022584915e-03 -3.708094954490661621e-01 -1.089382618665695190e-01 -1.397731304168701172e-01
1.631000000000000000e+03 4.616015434265136719e+00 -2.139069557189941406e+01 -4.794012606143951416e-01 2.190332889556884766e+00 5.132794976234436035e-01 1.746639609336853027e+00
1.632000000000000000e+03 6.868945598602294922e+00 -1.830465698242187500e+01 1.580197811126708984e-01 5.880049705505371094e+00 1.811420917510986328e+00 1.411098718643188477e+00
1.633000000000000000e+03 3.067317485809326172e+00 1.500348472595214844e+01 5.000840872526168823e-02 -4.514659047126770020e-01 -1.204372495412826538e-01 -9.643843024969100952e-02
1.634000000000000000e+03 4.613741397857666016e+00 2.472048568725585938e+01 -5.895761027932167053e-02 -8.014658838510513306e-02 -4.173126071691513062e-02 -6.632992625236511230e-02
1.635000000000000000e+03 5.083135604858398438e+00 2.889339828491210938e+01 -3.491078317165374756e-02 -6.849452853202819824e-02 -3.102159313857555389e-02 -3.768289228901267052e-03
1.636000000000000000e+03 4.814026355743408203e+00 -2.850841522216796875e+01 -3.571720421314239502e-01 2.169391155242919922e+00 5.436657071113586426e-01 7.280511856079101562e-01
1.637000000000000000e+03 3.362629890441894531e+00 -2.446856498718261719e+01 -3.081052899360656738e-01 1.420531868934631348e+00 3.337279558181762695e-01 1.187226176261901855e+00
1.638000000000000000e+03 4.674606800079345703e+00 -2.287711334228515625e+01 -5.369199514389038086e-01 2.161095380783081055e+00 4.872525930404663086e-01 1.533255696296691895e+00
1.639000000000000000e+03 4.251672267913818359e+00 1.367584133148193359e+01 1.212671175599098206e-01 -2.552718222141265869e-01 -4.020140692591667175e-02 -6.865033507347106934e-02
1.640000000000000000e+03 5.838801860809326172e+00 2.211107063293457031e+01 -7.804747670888900757e-02 7.587036490440368652e-02 -6.531323888339102268e-04 -1.229710876941680908e-01
1.641000000000000000e+03 4.818644523620605469e+00 2.606907653808593750e+01 -5.240837112069129944e-02 -7.009418308734893799e-02 -3.675076737999916077e-02 -4.333724826574325562e-02
1.642000000000000000e+03 4.495429992675781250e+00 2.338541221618652344e+01 -5.609058961272239685e-02 -8.656685054302215576e-02 -4.279723018407821655e-02 -1.012287512421607971e-01
1.643000000000000000e+03 5.980113983154296875e+00 -2.427914810180664062e+01 -7.043085098266601562e-01 2.740018606185913086e+00 6.107130050659179688e-01 1.158351898193359375e+00
1.644000000000000000e+03 4.695105075836181641e+00 -2.435544395446777344e+01 -5.782001614570617676e-01 2.176362276077270508e+00 4.794486761093139648e-01 1.285514593124389648e+00
1.645000000000000000e+03 4.406875610351562500e+00 -1.012943458557128906e+01 4.507915079593658447e-01 1.138183474540710449e+00 4.766924679279327393e-01 -1.427540540695190430e+00
1.646000000000000000e+03 3.079519033432006836e+00 -1.197332954406738281e+01 7.511030435562133789e-01 -9.825900793075561523e-01 -6.944610923528671265e-02 -1.045441150665283203e+00
1.647000000000000000e+03 6.777174949645996094e+00 -1.366508102416992188e+01 4.400663375854492188e+00 7.128369808197021484e+00 3.458709955215454102e+00 4.419902265071868896e-01
1.648000000000000000e+03 7.649591922760009766e+00 1.300517940521240234e+01 3.242843747138977051e-01 3.636752068996429443e-01 2.063878774642944336e-01 -9.303794801235198975e-02
1.649000000000000000e+03 3.862478971481323242e+00 -3.140707206726074219e+01 -2.004788815975189209e-01 2.169564485549926758e+00 5.907256603240966797e-01 4.297647476196289062e-01
1.650000000000000000e+03 4.989799022674560547e+00 -2.978797912597656250e+01 -3.453671634197235107e-01 2.193962574005126953e+00 5.545786023139953613e-01 6.014048457145690918e-01
1.651000000000000000e+03 5.045675277709960938e+00 3.180744552612304688e+01 -1.234903372824192047e-02 -9.708449989557266235e-02 -3.283005952835083008e-02 1.810823008418083191e-02
1.652000000000000000e+03 5.937034606933593750e+00 3.522191238403320312e+01 6.109985988587141037e-03 -6.161842122673988342e-02 -1.665253005921840668e-02 3.070229478180408478e-02
1.653000000000000000e+03 3.566359281539916992e+00 3.546816253662109375e+01 1.104754395782947540e-02 -2.281651645898818970e-01 -6.513528525829315186e-02 1.182875130325555801e-02
1.654000000000000000e+03 4.470466613769531250e+00 -1.413270187377929688e+01 2.061394691467285156e+00 1.218071699142456055e+00 9.838399291038513184e-01 4.916835427284240723e-01
1.655000000000000000e+03 4.274785995483398438e+00 1.102933406829833984e+01 1.625494807958602905e-01 -2.882261276245117188e-01 -3.770299628376960754e-02 8.205208927392959595e-02
1.656000000000000000e+03 4.697237491607666016e+00 -6.107529640197753906e+00 -4.965770840644836426e-01 8.663405776023864746e-01 1.109290421009063721e-01 -9.757112860679626465e-01
1.657000000000000000e+03 6.642075061798095703e+00 -3.065964698791503906e+01 -4.302424788475036621e-01 2.303836822509765625e+00 5.620782971382141113e-01 5.065172910690307617e-01
1.658000000000000000e+03 5.294986724853515625e+00 -3.107040977478027344e+01 -2.796197533607482910e-01 2.218274354934692383e+00 5.815963745117187500e-01 4.996206164360046387e-01
1.659000000000000000e+03 4.919332504272460938e+00 3.325817871093750000e+01 -3.508118446916341782e-03 -1.135788559913635254e-01 -3.512609377503395081e-02 2.365369163453578949e-02
1.660000000000000000e+03 4.551834583282470703e+00 3.466853713989257812e+01 5.672359839081764221e-03 -1.567248851060867310e-01 -4.531576111912727356e-02 2.624941430985927582e-02
1.661000000000000000e+03 5.083245277404785156e+00 3.034367370605468750e+01 -2.277925424277782440e-02 -7.961087673902511597e-02 -3.071703948080539703e-02 1.054008491337299347e-02
1.662000000000000000e+03 4.390641212463378906e+00 8.603219032287597656e+00 1.728843152523040771e-01 -2.407229393720626831e-01 -2.035159058868885040e-02 2.429433614015579224e-01
1.663000000000000000e+03 1.332615566253662109e+01 -2.623388481140136719e+01 -4.130726158618927002e-01 2.245669364929199219e+00 5.497790575027465820e-01 -4.466316699981689453e-01
1.664000000000000000e+03 3.989035367965698242e+00 5.311488628387451172e+00 2.068641409277915955e-02 -1.923331320285797119e-01 -5.149401724338531494e-02 3.634593784809112549e-01
1.665000000000000000e+03 5.211885929107666016e+00 4.547287940979003906e+00 -3.850527852773666382e-02 -1.065454110503196716e-01 -4.351520538330078125e-02 3.953298926353454590e-01
1.666000000000000000e+03 2.856488943099975586e+00 -4.984197139739990234e+00 -3.006994724273681641e-01 -3.710716664791107178e-01 -2.015313506126403809e-01 -9.843071103096008301e-01
1.667000000000000000e+03 6.556356048583984375e+01 -2.406805992126464844e+01 -8.627813458442687988e-01 5.135551929473876953e+00 1.281831264495849609e+00 7.142239809036254883e-01
1.668000000000000000e+03 5.522084045410156250e+01 -7.979000568389892578e+00 -2.304604530334472656e+00 -2.650818228721618652e-01 -7.709059119224548340e-01 -8.832175135612487793e-01
1.669000000000000000e+03 5.821980285644531250e+01 -7.430146694183349609e+00 -2.772213935852050781e+00 -4.953692257404327393e-01 -9.802749752998352051e-01 -1.128156661987304688e+00
1.670000000000000000e+03 5.568981933593750000e+01 -3.201096343994140625e+01 -3.953059017658233643e-01 6.861545145511627197e-02 -9.800713509321212769e-02 -2.374325692653656006e-01
1.671000000000000000e+03 5.306540298461914062e+01 -9.360849380493164062e+00 -2.220713615417480469e+00 -2.318719327449798584e-01 -7.357757091522216797e-01 -9.080052375793457031e-01
1.672000000000000000e+03 5.555367279052734375e+01 -3.372312927246093750e+01 -7.942044734954833984e-02 2.204736471176147461e-01 4.231595993041992188e-02 -1.586276441812515259e-01
1.673000000000000000e+03 7.287318706512451172e+00 -1.651006507873535156e+01 1.664497375488281250e+00 7.303158283233642578e+00 2.690296649932861328e+00 1.201820373535156250e+00
1.674000000000000000e+03 6.214895629882812500e+01 -3.211014986038208008e+00 -3.812030851840972900e-01 4.042514562606811523e-01 6.914509460330009460e-03 -1.764611005783081055e+00
1.675000000000000000e+03 4.899932098388671875e+01 2.726773262023925781e+00 8.238704800605773926e-01 2.199392169713973999e-01 3.131428956985473633e-01 -4.047730937600135803e-02
1.676000000000000000e+03 4.797403717041015625e+01 3.560367345809936523e+00 9.204121232032775879e-01 2.818292081356048584e-01 3.606723845005035400e-01 -4.350428283214569092e-02
1.677000000000000000e+03 8.959020614624023438e+00 -2.088074302673339844e+01 -7.316428422927856445e-01 5.557985782623291016e+00 1.447902917861938477e+00 -6.821337342262268066e-02
1.678000000000000000e+03 1.305115985870361328e+01 4.627656936645507812e+00 -2.257835417985916138e-01 1.385027527809143066e+00 3.477732241153717041e-01 -3.064799606800079346e-01
1.679000000000000000e+03 5.347149276733398438e+01 4.877138614654541016e+00 9.665710330009460449e-01 4.630721211433410645e-01 4.288929402828216553e-01 2.910063229501247406e-02
1.680000000000000000e+03 5.603577041625976562e+01 3.013536930084228516e+00 5.762549638748168945e-01 7.414601445198059082e-01 3.953145444393157959e-01 -3.946956396102905273e-01
1.681000000000000000e+03 2.065976905822753906e+01 -3.092543411254882812e+01 -2.649154961109161377e-01 4.933128356933593750e-01 6.851920485496520996e-02 -1.366405189037322998e-01
1.682000000000000000e+03 1.770799446105957031e+01 -7.416928768157958984e+00 1.474954128265380859e+00 3.602791786193847656e+00 1.523323774337768555e+00 3.247383356094360352e+00
1.683000000000000000e+03 1.832663536071777344e+01 -1.096712779998779297e+01 -4.282439231872558594e+00 5.419023633003234863e-01 -1.122161030769348145e+00 2.021388292312622070e+00
1.684000000000000000e+03 4.136492919921875000e+01 6.632908344268798828e+00 7.830555438995361328e-01 7.229003310203552246e-01 4.517867565155029297e-01 1.568634957075119019e-01
1.685000000000000000e+03 4.166721343994140625e+01 3.932167053222656250e+00 8.944433331489562988e-01 4.122683703899383545e-01 3.920135200023651123e-01 1.255859583616256714e-01
1.686000000000000000e+03 1.107201576232910156e+01 1.274878215789794922e+01 4.851111769676208496e-01 1.229834914207458496e+00 5.144838094711303711e-01 -1.191498711705207825e-01
1.687000000000000000e+03 1.070423126220703125e+01 1.061513328552246094e+01 5.906881093978881836e-01 1.123491525650024414e+00 5.142539143562316895e-01 -5.321133509278297424e-02
1.688000000000000000e+03 5.846543121337890625e+01 1.130633640289306641e+01 5.071532130241394043e-01 3.097463130950927734e+00 1.081384897232055664e+00 -7.476574778556823730e-01
1.689000000000000000e+03 4.122087097167968750e+01 8.012953758239746094e+00 5.882641673088073730e-01 1.002769589424133301e+00 4.773101210594177246e-01 1.760305315256118774e-01
1.690000000000000000e+03 6.258336257934570312e+01 -2.618317985534667969e+01 -8.153516054153442383e-01 2.494057178497314453e+00 5.036116242408752441e-01 4.552802443504333496e-01
1.691000000000000000e+03 5.890253829956054688e+01 -3.049778366088867188e+01 -4.673554599285125732e-01 9.463075995445251465e-01 1.436856389045715332e-01 8.677457273006439209e-02
1.692000000000000000e+03 4.544338226318359375e+01 -3.781926727294921875e+01 -8.034072071313858032e-02 -4.216222167015075684e-01 -1.505888849496841431e-01 -2.349743843078613281e-01
1.693000000000000000e+03 4.477111434936523438e+01 2.105354881286621094e+01 8.063712120056152344e-01 1.680196404457092285e+00 7.459703087806701660e-01 8.959679007530212402e-01
1.694000000000000000e+03 2.091872024536132812e+01 -1.153360080718994141e+01 -4.323740959167480469e+00 1.096547365188598633e+00 -9.681581258773803711e-01 4.801142811775207520e-01
1.695000000000000000e+03 3.824693679809570312e+01 -4.098244476318359375e+01 -1.943149119615554810e-01 -2.643671035766601562e-01 -1.376046091318130493e-01 -6.014020182192325592e-03
1.696000000000000000e+03 2.813714599609375000e+01 1.542486572265625000e+01 -3.740445971488952637e-01 2.107630491256713867e+00 5.200757980346679688e-01 6.621004939079284668e-01
1.697000000000000000e+03 2.748528861999511719e+01 1.395152091979980469e+01 -3.057784736156463623e-01 2.167586565017700195e+00 5.585424304008483887e-01 8.588981032371520996e-01
1.698000000000000000e+03 5.576712799072265625e+01 -3.604301834106445312e+01 2.616596817970275879e-01 4.994620978832244873e-01 2.283365279436111450e-01 -9.092105180025100708e-02
1.699000000000000000e+03 7.111849975585937500e+01 -9.446344375610351562e+00 3.287714958190917969e+00 1.313553237915039062e+01 4.926974296569824219e+00 3.422728180885314941e-01
1.700000000000000000e+03 7.088355255126953125e+01 -8.269431114196777344e+00 2.334681749343872070e+00 1.400240993499755859e+01 4.901127338409423828e+00 3.657080829143524170e-01
1.701000000000000000e+03 5.207010650634765625e+01 -3.636296463012695312e+01 1.389470845460891724e-01 -2.315352857112884521e-01 -2.777645736932754517e-02 -2.829895019531250000e-01
1.702000000000000000e+03 7.268630218505859375e+01 -1.793429946899414062e+01 -3.547471761703491211e-01 1.049314212799072266e+01 3.041518449783325195e+00 -1.502251505851745605e+00
1.703000000000000000e+03 7.154490661621093750e+01 -1.538671398162841797e+01 5.583980083465576172e-01 1.227979755401611328e+01 3.851458787918090820e+00 -1.244893670082092285e+00
1.704000000000000000e+03 6.945816802978515625e+01 -5.875204563140869141e+00 -6.549056172370910645e-01 1.332754993438720703e+01 3.801793098449707031e+00 -1.246768712997436523e+00
1.705000000000000000e+03 6.763908386230468750e+01 -3.013917446136474609e+00 -1.819806218147277832e+00 7.890994071960449219e+00 1.821356415748596191e+00 -3.232089757919311523e+00
1.706000000000000000e+03 4.316285705566406250e+01 5.445970535278320312e+00 9.349480867385864258e-01 3.763456642627716064e-01 3.933881223201751709e-01 -3.146127611398696899e-02
1.707000000000000000e+03 6.115671634674072266e+00 -2.575095558166503906e+01 -6.966907978057861328e-01 2.616271972656250000e+00 5.758743286132812500e-01 9.979340434074401855e-01
1.708000000000000000e+03 1.080983638763427734e+01 -2.294725418090820312e+01 -5.699774622917175293e-01 3.907685995101928711e+00 1.001312494277954102e+00 -5.249196887016296387e-01
1.709000000000000000e+03 5.895074462890625000e+01 1.437654399871826172e+01 8.048046231269836426e-01 3.315597534179687500e+00 1.236120581626892090e+00 -9.042907357215881348e-01
1.710000000000000000e+03 6.868211364746093750e+01 -1.793425750732421875e+01 -3.850830793380737305e-01 1.093639087677001953e+01 3.165392398834228516e+00 9.050787091255187988e-01
1.711000000000000000e+03 7.348576354980468750e+01 -1.652816200256347656e+01 2.447510808706283569e-01 1.044881057739257812e+01 3.208068609237670898e+00 -1.720310091972351074e+00
1.712000000000000000e+03 6.157443237304687500e+01 -4.186855792999267578e+00 -1.140404820442199707e+00 -1.212304225191473961e-03 -3.424851298332214355e-01 -1.412240624427795410e+00
1.713000000000000000e+03 6.048264694213867188e+01 -3.421649694442749023e+00 -6.834239959716796875e-01 -3.346245037391781807e-03 -2.060310840606689453e-01 -1.188872933387756348e+00
1.714000000000000000e+03 6.864562225341796875e+01 -1.994931221008300781e+01 -9.000283479690551758e-01 9.297130584716796875e+00 2.519130706787109375e+00 4.943078160285949707e-01
1.715000000000000000e+03 1.777878952026367188e+01 -6.650532245635986328e+00 3.041964530944824219e+00 5.113690853118896484e+00 2.446696758270263672e+00 3.950986623764038086e+00
1.716000000000000000e+03 6.946469879150390625e+01 -1.896310615539550781e+01 -7.104941606521606445e-01 9.985699653625488281e+00 2.782561779022216797e+00 -9.347949177026748657e-02
1.717000000000000000e+03 5.080303192138671875e+01 2.342990875244140625e+01 1.038906455039978027e+00 1.504836678504943848e+00 7.631229162216186523e-01 -1.991256028413772583e-01
1.718000000000000000e+03 4.508663940429687500e+01 2.225947761535644531e+01 7.686340808868408203e-01 1.635103344917297363e+00 7.211212515830993652e-01 7.229499220848083496e-01
1.719000000000000000e+03 2.828402519226074219e+01 8.752420425415039062e+00 1.417102932929992676e+00 3.090907812118530273e+00 1.352403163909912109e+00 1.489677071571350098e+00
1.720000000000000000e+03 7.992097854614257812e+00 -1.770806884765625000e+01 4.767602384090423584e-01 7.394270420074462891e+00 2.361309289932250977e+00 9.938551187515258789e-01
1.721000000000000000e+03 6.976958274841308594e+00 -1.957536125183105469e+01 -3.060818016529083252e-01 5.036217212677001953e+00 1.419040679931640625e+00 1.355196475982666016e+00
1.722000000000000000e+03 2.635120582580566406e+01 1.608174133300781250e+01 -6.086293458938598633e-01 1.580044269561767578e+00 2.914244532585144043e-01 3.390570282936096191e-01
1.723000000000000000e+03 2.743339920043945312e+01 -1.405974960327148438e+01 -3.673521757125854492e+00 5.588316321372985840e-01 -9.344070553779602051e-01 -3.456743806600570679e-02
1.724000000000000000e+03 2.526958274841308594e+01 -1.340931224822998047e+01 -4.078294277191162109e+00 7.105888128280639648e-01 -1.010311603546142578e+00 7.834517955780029297e-02
1.725000000000000000e+03 2.549214744567871094e+01 4.340400218963623047e+00 1.027736902236938477e+00 3.679753303527832031e+00 1.412247061729431152e+00 1.875695586204528809e+00
1.726000000000000000e+03 2.420539093017578125e+01 2.636979341506958008e+00 6.960386037826538086e-01 3.320436000823974609e+00 1.204942464828491211e+00 2.785033464431762695e+00
1.727000000000000000e+03 5.934785842895507812e+01 1.238289642333984375e+01 6.342356204986572266e-01 3.224094152450561523e+00 1.157498955726623535e+00 -9.334836006164550781e-01
1.728000000000000000e+03 2.299932479858398438e+01 2.009106063842773438e+01 -9.221500158309936523e-02 4.829864501953125000e-01 1.172314360737800598e-01 1.475756913423538208e-01
1.729000000000000000e+03 2.159519004821777344e+01 2.004552650451660156e+01 -4.471432790160179138e-02 2.279503345489501953e-01 5.497080087661743164e-02 2.729693353176116943e-01
1.730000000000000000e+03 7.187373352050781250e+01 -1.164089870452880859e+01 2.777453422546386719e+00 1.294667053222656250e+01 4.717236995697021484e+00 -7.778448462486267090e-01
1.731000000000000000e+03 7.385469055175781250e+01 -1.116958618164062500e+01 1.974849224090576172e+00 9.856589317321777344e+00 3.549431562423706055e+00 -2.744372487068176270e-01
1.732000000000000000e+03 2.311760520935058594e+01 -1.245835208892822266e+01 -4.305344104766845703e+00 8.970319628715515137e-01 -1.022493600845336914e+00 1.414816975593566895e-01
1.733000000000000000e+03 2.459427642822265625e+01 2.089208602905273438e+01 -7.988495379686355591e-02 7.482203841209411621e-01 2.005006372928619385e-01 8.843232691287994385e-02
1.734000000000000000e+03 1.623251724243164062e+01 -3.174761772155761719e+01 -3.667489588260650635e-01 1.286359190940856934e+00 2.758830785751342773e-01 -2.023993581533432007e-01
1.735000000000000000e+03 7.134667396545410156e+00 1.795315361022949219e+01 5.630271974951028824e-03 2.972766160964965820e-01 9.087207168340682983e-02 -1.857596635818481445e-01
1.736000000000000000e+03 7.255628967285156250e+01 -1.452008056640625000e+01 1.094288349151611328e+00 1.117844581604003906e+01 3.681820154190063477e+00 -1.612266659736633301e+00
1.737000000000000000e+03 5.577943801879882812e+01 2.323127555847167969e+01 6.619414687156677246e-01 2.731467723846435547e+00 1.018022775650024414e+00 -6.616202592849731445e-01
1.738000000000000000e+03 5.410799026489257812e+01 2.265162467956542969e+01 8.085681796073913574e-01 2.222642421722412109e+00 9.093632102012634277e-01 -6.614797115325927734e-01
1.739000000000000000e+03 4.919807815551757812e+01 2.425024223327636719e+01 1.004939675331115723e+00 1.495106697082519531e+00 7.500138878822326660e-01 9.002786874771118164e-02
1.740000000000000000e+03 3.845464706420898438e+01 1.320051860809326172e+01 7.721671462059020996e-01 1.781559348106384277e+00 7.661179304122924805e-01 1.072766780853271484e+00
1.741000000000000000e+03 7.261079406738281250e+01 -1.025979042053222656e+01 2.687633037567138672e+00 1.132121467590332031e+01 4.202654361724853516e+00 1.780616194009780884e-01
1.742000000000000000e+03 3.023647308349609375e+01 8.443869590759277344e+00 1.414379596710205078e+00 2.262957572937011719e+00 1.103201150894165039e+00 1.449443221092224121e+00
1.743000000000000000e+03 2.831569862365722656e+01 9.660359382629394531e+00 1.270174980163574219e+00 2.623524427413940430e+00 1.168109774589538574e+00 1.542540311813354492e+00
1.744000000000000000e+03 2.075740623474121094e+01 1.933013916015625000e+01 -1.528650969266891479e-01 3.977336362004280090e-02 -3.392751887440681458e-02 3.861542046070098877e-01
1.745000000000000000e+03 1.729911804199218750e+01 1.936161231994628906e+01 -2.303019016981124878e-01 6.918495297431945801e-01 1.384642720222473145e-01 6.414566636085510254e-01
1.746000000000000000e+03 1.837916755676269531e+01 1.967935943603515625e+01 -1.668636947870254517e-01 4.624486267566680908e-01 8.867548406124114990e-02 6.602417230606079102e-01
1.747000000000000000e+03 1.458770084381103516e+01 -4.822918891906738281e+00 4.776561260223388672e+00 -9.364170432090759277e-01 1.152043223381042480e+00 2.901127815246582031e+00
1.748000000000000000e+03 1.825298309326171875e+01 2.101030826568603516e+00 -2.692853510379791260e-01 1.594423055648803711e+00 3.975413143634796143e-01 -6.382147073745727539e-01
1.749000000000000000e+03 1.580460453033447266e+01 -4.785514831542968750e+00 7.023787021636962891e+00 -4.480780959129333496e-01 1.972712635993957520e+00 3.440775394439697266e+00
1.750000000000000000e+03 1.799549865722656250e+01 -1.047140359878540039e+00 7.302567362785339355e-01 4.501974582672119141e+00 1.569669365882873535e+00 -1.078250765800476074e+00
1.751000000000000000e+03 1.825812721252441406e+01 -1.073405385017395020e+00 5.993735194206237793e-01 5.298472881317138672e+00 1.769353866577148438e+00 -5.999068617820739746e-01
1.752000000000000000e+03 2.020235252380371094e+01 -1.660253047943115234e+00 3.350505828857421875e+00 5.801712036132812500e+00 2.745665311813354492e+00 3.761738061904907227e+00
1.753000000000000000e+03 2.364470672607421875e+01 3.128117918968200684e-01 1.908617615699768066e+00 2.779520511627197266e+00 1.406441450119018555e+00 3.201775789260864258e+00
1.754000000000000000e+03 9.581492424011230469e+00 -7.007408142089843750e+00 -3.764573931694030762e-01 2.548047780990600586e+00 6.514770984649658203e-01 2.773018121719360352e+00
1.755000000000000000e+03 1.370409488677978516e+01 -4.335765838623046875e+00 3.410769462585449219e+00 -8.141573071479797363e-01 7.789835929870605469e-01 2.181296110153198242e+00
1.756000000000000000e+03 2.301511573791503906e+01 -3.788631200790405273e+00 5.183339595794677734e+00 1.549865841865539551e+00 2.019961595535278320e+00 1.548871278762817383e+00
1.757000000000000000e+03 6.835575580596923828e+00 4.188390254974365234e+00 -8.211588859558105469e-02 -6.138593424111604691e-03 -2.647634409368038177e-02 3.996494412422180176e-01
1.758000000000000000e+03 5.518995761871337891e+00 5.472799777984619141e+00 4.939534515142440796e-02 -8.836452662944793701e-02 -1.169075444340705872e-02 3.959370851516723633e-01
1.759000000000000000e+03 3.022720575332641602e+00 5.831145763397216797e+00 3.066977672278881073e-02 -3.059229850769042969e-01 -8.257596194744110107e-02 3.021284937858581543e-01
1.760000000000000000e+03 1.788362884521484375e+01 1.189529180526733398e+00 1.570248603820800781e-02 2.254945516586303711e+00 6.811943650245666504e-01 -7.721235752105712891e-01
1.761000000000000000e+03 3.792797088623046875e+00 6.918613433837890625e+00 8.141445368528366089e-02 -2.845947444438934326e-01 -6.095408275723457336e-02 3.042408227920532227e-01
1.762000000000000000e+03 2.878799438476562500e+00 4.693881988525390625e+00 -3.256106749176979065e-02 -2.520738840103149414e-01 -8.539048582315444946e-02 2.925099432468414307e-01
1.763000000000000000e+03 1.015765953063964844e+01 4.119839191436767578e+00 -1.057198271155357361e-01 4.018903672695159912e-01 8.885116130113601685e-02 1.491452455520629883e-01
1.764000000000000000e+03 1.566393375396728516e+01 -9.596323013305664062e+00 -8.416864871978759766e-01 -5.673180818557739258e-01 -4.227013885974884033e-01 4.218985080718994141e+00
1.765000000000000000e+03 2.111651992797851562e+01 -5.950149059295654297e+00 4.809715747833251953e+00 3.483437538146972656e+00 2.487946033477783203e+00 -7.636209726333618164e-01
1.766000000000000000e+03 7.611879348754882812e+00 4.152911186218261719e+00 -9.061623364686965942e-02 7.373770326375961304e-02 -5.063557997345924377e-03 3.813139796257019043e-01
1.767000000000000000e+03 8.407553672790527344e+00 5.014612197875976562e+00 4.250895977020263672e-02 2.078294605016708374e-01 7.510152459144592285e-02 3.226198256015777588e-01
1.768000000000000000e+03 6.759429454803466797e+00 -6.746786594390869141e+00 -8.193454146385192871e-01 2.582315444946289062e+00 5.288910269737243652e-01 -6.784271448850631714e-02
1.769000000000000000e+03 8.200677871704101562e+00 -5.487781047821044922e+00 -5.239349007606506348e-01 1.897886395454406738e+00 4.121854603290557861e-01 1.020597577095031738e+00
1.770000000000000000e+03 4.630546569824218750e+00 -5.009497642517089844e+00 -5.463190078735351562e-01 5.383465290069580078e-01 -2.391734626144170761e-03 -9.340839385986328125e-01
1.771000000000000000e+03 2.221882820129394531e+01 2.611439228057861328e+00 2.693687081336975098e-01 2.444490909576416016e+00 8.141579031944274902e-01 2.701251983642578125e+00
1.772000000000000000e+03 2.234169197082519531e+01 -5.765051245689392090e-01 2.562520503997802734e+00 3.149300575256347656e+00 1.713546276092529297e+00 3.414360523223876953e+00
1.773000000000000000e+03 5.628451824188232422e+00 -5.966009140014648438e+00 -6.799762248992919922e-01 1.399863004684448242e+00 2.159660309553146362e-01 -7.696553468704223633e-01
1.774000000000000000e+03 1.230055046081542969e+01 -4.681793689727783203e+00 2.085993528366088867e+00 -3.264279365539550781e-01 5.278697013854980469e-01 2.432880640029907227e+00
1.775000000000000000e+03 1.661718177795410156e+01 -6.726107597351074219e+00 3.342973947525024414e+00 2.001204490661621094e+00 1.603253483772277832e+00 4.682750225067138672e+00
1.776000000000000000e+03 1.380562210083007812e+01 3.535171031951904297e+00 -4.915996491909027100e-01 1.311210751533508301e+00 2.458833158016204834e-01 -6.735223531723022461e-01
1.777000000000000000e+03 1.019332599639892578e+01 -4.399588584899902344e+00 3.800806999206542969e-01 7.382962703704833984e-01 3.355131149291992188e-01 1.713691115379333496e+00
1.778000000000000000e+03 2.210813331604003906e+01 1.533572196960449219e+00 8.136802911758422852e-01 2.819692850112915039e+00 1.090011954307556152e+00 2.922381401062011719e+00
1.779000000000000000e+03 2.227663421630859375e+01 -2.948786020278930664e+00 5.728507518768310547e+00 2.213225364685058594e+00 2.382519960403442383e+00 2.649520874023437500e+00
1.780000000000000000e+03 1.613997650146484375e+01 -6.978676795959472656e+00 3.024443626403808594e+00 1.253766894340515137e+00 1.283463120460510254e+00 4.768361568450927734e+00
1.781000000000000000e+03 1.208005523681640625e+01 4.748097419738769531e+00 -9.293469786643981934e-02 1.049855470657348633e+00 2.870762348175048828e-01 -8.723381906747817993e-02
1.782000000000000000e+03 1.116974067687988281e+01 4.817101478576660156e+00 -5.981556605547666550e-04 7.564409971237182617e-01 2.267528623342514038e-01 2.655878849327564240e-02
1.783000000000000000e+03 7.029618740081787109e+00 -7.594379425048828125e+00 -9.848309755325317383e-01 3.624885797500610352e+00 7.920163869857788086e-01 6.249785795807838440e-02
1.784000000000000000e+03 5.533426284790039062e+00 -1.627226638793945312e+01 1.604731202125549316e+00 3.631035327911376953e+00 1.570729970932006836e+00 1.644829034805297852e+00
1.785000000000000000e+03 8.075364112854003906e+00 5.765524387359619141e+00 1.542930155992507935e-01 1.984998136758804321e-01 1.058378443121910095e-01 3.346931636333465576e-01
1.786000000000000000e+03 4.162094497680664062e+01 5.277079582214355469e+00 8.614114522933959961e-01 5.267363190650939941e-01 4.164443314075469971e-01 1.194918379187583923e-01
1.787000000000000000e+03 4.307191085815429688e+01 4.161604404449462891e+00 8.979954123497009277e-01 2.906919419765472412e-01 3.566061854362487793e-01 4.958835244178771973e-02
1.788000000000000000e+03 1.915384864807128906e+01 -1.017911148071289062e+01 -3.162196636199951172e+00 1.452450037002563477e+00 -5.129240155220031738e-01 1.259137630462646484e+00
1.789000000000000000e+03 5.655908584594726562e+00 1.115176010131835938e+01 2.597809731960296631e-01 -4.988664388656616211e-02 6.296829879283905029e-02 5.647758394479751587e-02
1.790000000000000000e+03 4.734895706176757812e+01 2.275700330734252930e+00 7.051485776901245117e-01 1.658798158168792725e-01 2.613085210323333740e-01 4.270628839731216431e-02
1.791000000000000000e+03 2.506499481201171875e+01 3.063138246536254883e+00 8.276675343513488770e-01 3.388759851455688477e+00 1.264928221702575684e+00 2.334271669387817383e+00
1.792000000000000000e+03 6.151983261108398438e+01 -1.460473895072937012e+00 -1.327575766481459141e-03 9.723320603370666504e-01 2.913013398647308350e-01 -1.665277004241943359e+00
1.793000000000000000e+03 6.104047775268554688e+01 -2.492141246795654297e+00 -3.990868628025054932e-01 4.574020504951477051e-01 1.749455742537975311e-02 -1.469921469688415527e+00
1.794000000000000000e+03 1.871802902221679688e+01 1.004492402076721191e+00 6.386803090572357178e-02 2.973810434341430664e+00 9.113035798072814941e-01 -3.798675164580345154e-02
1.795000000000000000e+03 2.093326568603515625e+01 1.782036542892456055e+00 3.709478974342346191e-01 2.513555765151977539e+00 8.653510808944702148e-01 2.321942090988159180e+00
1.796000000000000000e+03 1.152861881256103516e+01 9.271460533142089844e+00 6.079143285751342773e-01 1.432051777839660645e+00 6.119898557662963867e-01 -6.530634313821792603e-02
1.797000000000000000e+03 4.969016647338867188e+01 -1.115191936492919922e+01 -2.090912818908691406e+00 -1.343391835689544678e-01 -6.675755977630615234e-01 -8.628507852554321289e-01
1.798000000000000000e+03 4.796549224853515625e+01 -1.062835311889648438e+01 -1.887382388114929199e+00 -2.615158818662166595e-02 -5.740602016448974609e-01 -7.465231418609619141e-01
1.799000000000000000e+03 3.849110031127929688e+01 8.345470428466796875e+00 8.121271133422851562e-01 1.277250885963439941e+00 6.268134117126464844e-01 7.440651655197143555e-01
1.800000000000000000e+03 5.985307312011718750e+01 1.560102462768554688e+01 7.795739769935607910e-01 3.401034116744995117e+00 1.254182457923889160e+00 -8.176671266555786133e-01
1.801000000000000000e+03 3.320352554321289062e+01 -1.354437923431396484e+01 -2.443604707717895508e+00 4.156934320926666260e-01 -6.083734035491943359e-01 -4.966990649700164795e-01
1.802000000000000000e+03 2.609010887145996094e+01 -1.144660758972167969e+01 -2.499523878097534180e+00 8.742884993553161621e-01 -4.875706434249877930e-01 -6.408002376556396484e-01
1.803000000000000000e+03 5.813220214843750000e+01 1.879589271545410156e+01 6.152122616767883301e-01 3.340825319290161133e+00 1.186811327934265137e+00 -7.289746403694152832e-01
1.804000000000000000e+03 1.263790607452392578e+01 -9.055946350097656250e+00 3.709918260574340820e-01 4.900591373443603516e-01 2.583152949810028076e-01 6.311381816864013672e+00
1.805000000000000000e+03 7.186468601226806641e+00 -1.140874862670898438e+01 1.218413710594177246e+00 7.355861663818359375e+00 2.572282552719116211e+00 -4.194162189960479736e-01
1.806000000000000000e+03 5.160376739501953125e+01 1.893104791641235352e+00 5.723666548728942871e-01 2.198106646537780762e-01 2.376531958580017090e-01 -1.044337600469589233e-01
1.807000000000000000e+03 5.403040313720703125e+01 3.884151458740234375e+00 7.707460522651672363e-01 4.988226592540740967e-01 3.808706104755401611e-01 -1.179037764668464661e-01
1.808000000000000000e+03 1.317439746856689453e+01 5.526857852935791016e+00 2.472552703693509102e-03 1.654350399971008301e+00 4.970468878746032715e-01 -1.953942030668258667e-01
1.809000000000000000e+03 5.232575607299804688e+01 -8.397155761718750000e+00 -1.956741213798522949e+00 -1.262086182832717896e-01 -6.248849630355834961e-01 -7.395335435867309570e-01
1.810000000000000000e+03 9.604886054992675781e+00 5.926719188690185547e+00 1.850816905498504639e-01 4.839484393596649170e-01 2.007090449333190918e-01 2.329662591218948364e-01
1.811000000000000000e+03 4.351581192016601562e+01 2.252932167053222656e+01 6.703352332115173340e-01 1.853435158729553223e+00 7.571310997009277344e-01 7.317898869514465332e-01
1.812000000000000000e+03 1.278990745544433594e+01 7.205660820007324219e+00 4.673689603805541992e-01 1.614460349082946777e+00 6.245487928390502930e-01 -1.218470707535743713e-01
1.813000000000000000e+03 1.332375717163085938e+01 -8.638901710510253906e+00 8.697499632835388184e-01 -8.340656161308288574e-01 1.070529595017433167e-02 5.515614986419677734e+00
1.814000000000000000e+03 2.238458251953125000e+01 -8.553837776184082031e+00 -4.367605724837630987e-04 1.949981451034545898e+00 5.848634243011474609e-01 -8.561432957649230957e-01
1.815000000000000000e+03 2.420046234130859375e+01 -1.297530174255371094e+01 -4.258940219879150391e+00 8.068044185638427734e-01 -1.035640716552734375e+00 1.210417449474334717e-01
1.816000000000000000e+03 2.275171470642089844e+01 1.871887207031250000e+00 7.646677494049072266e-01 2.882186412811279297e+00 1.094056248664855957e+00 2.970014095306396484e+00
1.817000000000000000e+03 2.349423599243164062e+01 3.318041086196899414e+00 4.692627787590026855e-01 2.982857465744018555e+00 1.035636067390441895e+00 2.626036405563354492e+00
1.818000000000000000e+03 7.073422241210937500e+01 -7.040514945983886719e+00 1.268718719482421875e+00 1.271978950500488281e+01 4.196552276611328125e+00 4.510123431682586670e-01
1.819000000000000000e+03 7.390315246582031250e+01 -3.846630334854125977e+00 -6.237057447433471680e-01 9.560745239257812500e+00 2.681111812591552734e+00 1.085510134696960449e+00
1.820000000000000000e+03 4.018558502197265625e+01 -1.317048072814941406e+01 -2.043287992477416992e+00 2.116537392139434814e-01 -5.494902729988098145e-01 -6.278908252716064453e-01
1.821000000000000000e+03 3.775983428955078125e+01 -1.222051525115966797e+01 -1.860324263572692871e+00 2.881385684013366699e-01 -4.716557264328002930e-01 -6.093846559524536133e-01
1.822000000000000000e+03 7.179700469970703125e+01 -2.677491188049316406e+01 -7.473068833351135254e-01 8.397325515747070312e+00 2.295005798339843750e+00 -3.331266343593597412e-01
1.823000000000000000e+03 6.953474426269531250e+01 -2.298684120178222656e+01 -1.143846511840820312e+00 8.287897109985351562e+00 2.143215179443359375e+00 -1.358640640974044800e-01
1.824000000000000000e+03 2.355569267272949219e+01 -1.016883373260498047e+01 -1.788483738899230957e+00 1.320360541343688965e+00 -1.404369622468948364e-01 -7.837275862693786621e-01
1.825000000000000000e+03 5.335248184204101562e+01 -7.747130870819091797e+00 -1.955421686172485352e+00 -1.362540274858474731e-01 -6.275026798248291016e-01 -7.032965421676635742e-01
1.826000000000000000e+03 4.240602111816406250e+01 -1.271671295166015625e+01 -1.961501479148864746e+00 1.296321153640747070e-01 -5.495608448982238770e-01 -6.631982326507568359e-01
1.827000000000000000e+03 5.195996856689453125e+01 -9.988905906677246094e+00 -2.170417308807373047e+00 -2.089986801147460938e-01 -7.138248085975646973e-01 -9.094349145889282227e-01
1.828000000000000000e+03 6.781984710693359375e+01 -2.098591995239257812e+01 -8.986956477165222168e-01 7.821527957916259766e+00 2.076849699020385742e+00 6.990184783935546875e-01
1.829000000000000000e+03 6.871221160888671875e+01 -3.337171792984008789e+00 -1.695522785186767578e+00 9.016401290893554688e+00 2.196263551712036133e+00 -2.388343095779418945e+00
1.830000000000000000e+03 6.735548400878906250e+01 -4.267206192016601562e+00 -1.201588392257690430e+00 7.714864730834960938e+00 1.953982949256896973e+00 -3.918937921524047852e+00
1.831000000000000000e+03 4.277587890625000000e+01 -1.390166568756103516e+01 -2.149552106857299805e+00 8.190989494323730469e-02 -6.202926635742187500e-01 -6.673532724380493164e-01
1.832000000000000000e+03 7.473915863037109375e+01 3.242782592773437500e+01 4.620638117194175720e-02 5.519550323486328125e+00 1.669727087020874023e+00 -1.519635766744613647e-01
1.833000000000000000e+03 7.365840911865234375e+01 2.581298637390136719e+01 9.475304931402206421e-02 5.617589950561523438e+00 1.713702797889709473e+00 -3.483186662197113037e-01
1.834000000000000000e+03 2.908756637573242188e+01 4.533910751342773438e+00 1.556893944740295410e+00 2.394005537033081055e+00 1.185269832611083984e+00 1.283994555473327637e+00
1.835000000000000000e+03 2.743785285949707031e+01 5.185157299041748047e+00 1.527128815650939941e+00 3.209709167480468750e+00 1.421051383018493652e+00 1.400365591049194336e+00
1.836000000000000000e+03 7.343137359619140625e+01 -3.099494934082031250e+01 -3.016529083251953125e-01 8.638864517211914062e+00 2.501163482666015625e+00 -1.323277354240417480e-01
1.837000000000000000e+03 7.523657226562500000e+01 -2.765903282165527344e+01 -3.545058071613311768e-01 9.483146667480468750e+00 2.738592147827148438e+00 -4.807540178298950195e-01
1.838000000000000000e+03 7.368965148925781250e+01 2.183566856384277344e+01 9.679488092660903931e-02 5.800067901611328125e+00 1.769058823585510254e+00 -4.492184817790985107e-01
1.839000000000000000e+03 7.516629791259765625e+01 2.433296012878417969e+01 6.545635312795639038e-02 5.884128093719482422e+00 1.784875392913818359e+00 -3.102344274520874023e-01
1.840000000000000000e+03 7.024145507812500000e+01 -1.994781875610351562e+01 -9.317768216133117676e-01 9.947658538818359375e+00 2.704764604568481445e+00 -3.206704854965209961e-01
1.841000000000000000e+03 7.580327606201171875e+01 -2.041869544982910156e+01 -3.613864779472351074e-01 9.247990608215332031e+00 2.665981292724609375e+00 -1.504735589027404785e+00
1.842000000000000000e+03 7.457669830322265625e+01 -2.158040618896484375e+01 -5.993590354919433594e-01 9.441931724548339844e+00 2.652771711349487305e+00 -1.371850967407226562e+00
1.843000000000000000e+03 7.527999114990234375e+01 1.880539512634277344e+01 7.151150703430175781e-02 6.254856109619140625e+00 1.897910237312316895e+00 -4.290874302387237549e-01
1.844000000000000000e+03 7.521803283691406250e+01 1.159769821166992188e+01 -9.828506968915462494e-03 6.867038726806640625e+00 2.057163000106811523e+00 -5.577149391174316406e-01
1.845000000000000000e+03 7.393540191650390625e+01 1.765318107604980469e+01 9.716638922691345215e-02 6.101630210876464844e+00 1.859638929367065430e+00 -5.435043573379516602e-01
1.846000000000000000e+03 7.374353027343750000e+01 1.482246208190917969e+01 8.132920414209365845e-02 6.255675792694091797e+00 1.901101589202880859e+00 -6.412955522537231445e-01
1.847000000000000000e+03 7.439037322998046875e+01 7.409748077392578125e+00 -2.019269615411758423e-01 7.153797149658203125e+00 2.085561037063598633e+00 -5.929351449012756348e-01
1.848000000000000000e+03 7.422988128662109375e+01 4.842601776123046875e+00 -4.147970676422119141e-01 7.526111125946044922e+00 2.133394241333007812e+00 -4.629034698009490967e-01
1.849000000000000000e+03 7.372077178955078125e+01 -1.532722568511962891e+01 5.283198356628417969e-01 1.043354415893554688e+01 3.288559198379516602e+00 -1.761715650558471680e+00
1.850000000000000000e+03 7.422148895263671875e+01 -5.368608236312866211e-01 -9.070163965225219727e-01 8.686141014099121094e+00 2.333737373352050781e+00 3.289235830307006836e-01
1.851000000000000000e+03 7.427939605712890625e+01 2.132887363433837891e+00 -6.401425600051879883e-01 7.958745002746582031e+00 2.195580720901489258e+00 -1.624055206775665283e-01
1.852000000000000000e+03 7.515208435058593750e+01 2.565680122375488281e+01 5.351164564490318298e-02 5.817308425903320312e+00 1.761245965957641602e+00 -2.747079432010650635e-01
1.853000000000000000e+03 7.314324951171875000e+01 -8.025515556335449219e+00 1.454636693000793457e+00 1.078767776489257812e+01 3.672694206237792969e+00 9.612240195274353027e-01
1.854000000000000000e+03 7.395310211181640625e+01 1.006694221496582031e+01 -5.582256242632865906e-02 6.716778755187988281e+00 1.998286843299865723e+00 -6.890152096748352051e-01
1.855000000000000000e+03 7.430768585205078125e+01 -7.095692157745361328e+00 6.962371468544006348e-01 9.471745491027832031e+00 3.050394773483276367e+00 1.251766204833984375e+00
1.856000000000000000e+03 7.532078552246093750e+01 -8.789216041564941406e+00 1.003645300865173340e+00 8.559638023376464844e+00 2.868984937667846680e+00 6.462641358375549316e-01
1.857000000000000000e+03 7.256425476074218750e+01 -1.266504001617431641e+01 2.047071456909179688e+00 1.143938350677490234e+01 4.045936584472656250e+00 -1.112471103668212891e+00
1.858000000000000000e+03 6.979144287109375000e+01 -3.689337491989135742e+00 -1.922145605087280273e+00 1.060664463043212891e+01 2.605349779129028320e+00 -1.518174767494201660e+00
1.859000000000000000e+03 7.181301116943359375e+01 -5.635174751281738281e+00 -5.665066093206405640e-02 1.131641960144042969e+01 3.377930641174316406e+00 7.777745127677917480e-01
1.860000000000000000e+03 7.434780120849609375e+01 -1.435111618041992188e+01 1.059282302856445312e+00 9.722907066345214844e+00 3.234656810760498047e+00 -1.650996565818786621e+00
1.861000000000000000e+03 7.438134765625000000e+01 -5.773745536804199219e+00 2.186069637537002563e-01 9.237190246582031250e+00 2.836739063262939453e+00 1.270214438438415527e+00
1.862000000000000000e+03 7.472158813476562500e+01 -1.780899238586425781e+01 -8.940955251455307007e-02 9.670559883117675781e+00 2.874345302581787109e+00 -1.787777185440063477e+00
1.863000000000000000e+03 7.578692626953125000e+01 -1.782772064208984375e+01 -9.534392505884170532e-02 8.874132156372070312e+00 2.633636474609375000e+00 -1.795008420944213867e+00
1.864000000000000000e+03 7.352651214599609375e+01 -2.124005508422851562e+01 -6.870395541191101074e-01 9.596001625061035156e+00 2.672688484191894531e+00 -1.248008012771606445e+00
1.865000000000000000e+03 7.584104156494140625e+01 -1.909374618530273438e+01 -2.114452719688415527e-01 9.150427818298339844e+00 2.681694746017456055e+00 -1.611593604087829590e+00
1.866000000000000000e+03 7.508408355712890625e+01 2.826451110839843750e+01 4.980161413550376892e-02 5.692595958709716797e+00 1.722719192504882812e+00 -2.233484238386154175e-01
1.867000000000000000e+03 7.439432525634765625e+01 -1.269999599456787109e+01 1.435468435287475586e+00 9.389974594116210938e+00 3.247632980346679688e+00 -1.030237197875976562e+00
1.868000000000000000e+03 7.420646667480468750e+01 -2.451035308837890625e+01 -6.034732460975646973e-01 9.273210525512695312e+00 2.600921154022216797e+00 -8.636808991432189941e-01
1.869000000000000000e+03 7.456989288330078125e+01 -2.444029331207275391e+00 -6.930578351020812988e-01 8.916969299316406250e+00 2.467173337936401367e+00 9.495106339454650879e-01
1.870000000000000000e+03 7.365898895263671875e+01 -2.687347888946533203e+00 -8.783521652221679688e-01 9.325443267822265625e+00 2.534127235412597656e+00 6.979945302009582520e-01
1.871000000000000000e+03 7.422437286376953125e+01 -2.601307678222656250e+01 -5.663240551948547363e-01 9.229713439941406250e+00 2.599016904830932617e+00 -6.376379728317260742e-01
1.872000000000000000e+03 7.433177185058593750e+01 6.135766983032226562e+00 -2.792735099792480469e-01 7.291116237640380859e+00 2.103552818298339844e+00 -5.195568203926086426e-01
1.873000000000000000e+03 7.090663146972656250e+01 3.503812789916992188e+01 1.253306120634078979e-01 5.039911270141601562e+00 1.549572467803955078e+00 -1.883708685636520386e-01
1.874000000000000000e+03 7.540497589111328125e+01 -3.247967910766601562e+01 -1.580573469400405884e-01 9.562444686889648438e+00 2.821316242218017578e+00 -9.493319690227508545e-02
1.875000000000000000e+03 7.372543334960937500e+01 1.324831581115722656e+01 4.737291857600212097e-02 6.362767219543457031e+00 1.923041939735412598e+00 -6.785206198692321777e-01
1.876000000000000000e+03 7.378785705566406250e+01 1.160861682891845703e+01 5.197718273848295212e-03 6.535947322845458984e+00 1.962343454360961914e+00 -6.951013207435607910e-01
1.877000000000000000e+03 7.441458892822265625e+01 -3.382007217407226562e+01 -1.352928429841995239e-01 9.099302291870117188e+00 2.689203023910522461e+00 -5.063116550445556641e-02
1.878000000000000000e+03 7.385923004150390625e+01 2.036467552185058594e+01 1.044114530086517334e-01 5.914814472198486328e+00 1.805767774581909180e+00 -4.885719716548919678e-01
1.879000000000000000e+03 7.389672851562500000e+01 1.899004745483398438e+01 9.163565188646316528e-02 6.020620346069335938e+00 1.833676815032958984e+00 -5.197010636329650879e-01
1.880000000000000000e+03 7.403309631347656250e+01 -2.751190757751464844e+01 -4.346405863761901855e-01 9.064893722534179688e+00 2.589075803756713867e+00 -4.601005017757415771e-01
1.881000000000000000e+03 6.568400382995605469e+00 3.038124275207519531e+01 -3.015294298529624939e-02 2.796622365713119507e-02 -6.560158217325806618e-04 3.050883300602436066e-02
1.882000000000000000e+03 6.303513050079345703e+00 -2.951186752319335938e+01 -4.392765164375305176e-01 2.323076725006103516e+00 5.651400685310363770e-01 5.947196483612060547e-01
1.883000000000000000e+03 4.996890544891357422e+00 2.746951675415039062e+01 -4.651300236582756042e-02 -6.541982293128967285e-02 -3.357984870672225952e-02 -2.022616751492023468e-02
1.884000000000000000e+03 6.677738189697265625e+00 2.886406326293945312e+01 -5.413219332695007324e-02 6.194709613919258118e-02 2.344470703974366188e-03 1.872871071100234985e-02
1.885000000000000000e+03 4.772235870361328125e+00 -2.718683052062988281e+01 -4.531627595424652100e-01 2.137444734573364258e+00 5.052846074104309082e-01 9.055594205856323242e-01
1.886000000000000000e+03 6.200562953948974609e+00 -1.114882469177246094e+01 1.405400872230529785e+00 3.696161031723022461e+00 1.530468583106994629e+00 -1.323494553565979004e+00
1.887000000000000000e+03 5.675926208496093750e+00 2.339271926879882812e+01 -8.503837138414382935e-02 3.962824121117591858e-02 -1.362303830683231354e-02 -9.330766648054122925e-02
1.888000000000000000e+03 5.906880569458007812e+01 -5.023210525512695312e+00 -1.663731455802917480e+00 -2.755610644817352295e-01 -5.817877054214477539e-01 -8.866065144538879395e-01
1.889000000000000000e+03 5.624810409545898438e+01 -7.244225978851318359e+00 -2.269213438034057617e+00 -2.846178412437438965e-01 -7.661493420600891113e-01 -8.399311304092407227e-01
1.890000000000000000e+03 4.527723789215087891e+00 -1.990006065368652344e+01 -1.891667842864990234e-01 2.045631170272827148e+00 5.569393634796142578e-01 1.949993729591369629e+00
1.891000000000000000e+03 3.965795516967773438e+00 -1.561747455596923828e+01 1.337494969367980957e+00 6.006835103034973145e-01 5.814535617828369141e-01 1.199264049530029297e+00
1.892000000000000000e+03 1.114703273773193359e+01 1.732331466674804688e+01 -4.645482823252677917e-02 1.038734436035156250e+00 2.976838946342468262e-01 -8.026573807001113892e-02
1.893000000000000000e+03 9.961658477783203125e+00 1.612178039550781250e+01 1.017653644084930420e-01 8.584063649177551270e-01 2.880515158176422119e-01 -1.642049849033355713e-01
1.894000000000000000e+03 8.787530899047851562e+00 1.606346702575683594e+01 1.148583665490150452e-01 6.141135692596435547e-01 2.186915874481201172e-01 -1.871016174554824829e-01
1.895000000000000000e+03 5.777467727661132812e+00 1.778862380981445312e+01 1.734109222888946533e-02 6.980530917644500732e-02 2.614391967654228210e-02 -1.864276826381683350e-01
1.896000000000000000e+03 4.288227081298828125e+00 1.504257965087890625e+01 8.463555574417114258e-02 -2.279064059257507324e-01 -4.298125952482223511e-02 -1.201842501759529114e-01
1.897000000000000000e+03 4.510392189025878906e+00 2.061626815795898438e+01 -3.958758711814880371e-02 -1.087537109851837158e-01 -4.450238868594169617e-02 -1.500194966793060303e-01
1.898000000000000000e+03 5.884300708770751953e+00 2.453617477416992188e+01 -8.426641672849655151e-02 5.573204532265663147e-02 -8.560311049222946167e-03 -6.542916595935821533e-02
1.899000000000000000e+03 7.147684574127197266e+00 -2.427598190307617188e+01 -8.613727688789367676e-01 3.181902170181274414e+00 6.961588263511657715e-01 9.745476245880126953e-01
1.900000000000000000e+03 3.772776603698730469e+00 -1.352565002441406250e+01 1.637425184249877930e+00 -3.707410302013158798e-03 4.901153147220611572e-01 -1.421198844909667969e-01
1.901000000000000000e+03 6.699930191040039062e+00 -1.207431602478027344e+01 1.763355851173400879e+00 6.108375072479248047e+00 2.361519336700439453e+00 -1.156894207000732422e+00
1.902000000000000000e+03 5.658763885498046875e+00 1.638998985290527344e+01 6.920389086008071899e-02 3.473007306456565857e-02 3.118018992245197296e-02 -1.772555559873580933e-01
1.903000000000000000e+03 5.439636707305908203e+00 1.376479244232177734e+01 1.686372905969619751e-01 -5.517479032278060913e-02 3.403874859213829041e-02 -9.061038494110107422e-02
1.904000000000000000e+03 5.858821868896484375e+00 2.066647529602050781e+01 -6.559707224369049072e-02 8.756446838378906250e-02 6.590218283236026764e-03 -1.496664136648178101e-01
1.905000000000000000e+03 5.955224514007568359e+00 -2.122486495971679688e+01 -6.204056739807128906e-01 3.417983531951904297e+00 8.392733931541442871e-01 1.572734236717224121e+00
1.906000000000000000e+03 1.282044792175292969e+01 -2.813289642333984375e+01 -5.367514491081237793e-01 2.215223073959350586e+00 5.035415291786193848e-01 -1.997133195400238037e-01
1.907000000000000000e+03 1.180361175537109375e+01 -3.099032783508300781e+01 -5.426928400993347168e-01 2.083040952682495117e+00 4.621044397354125977e-01 8.472200483083724976e-02
1.908000000000000000e+03 8.089191436767578125e+00 -3.304960632324218750e+01 -3.755322992801666260e-01 2.212921142578125000e+00 5.512166023254394531e-01 2.995328903198242188e-01
1.909000000000000000e+03 6.571022510528564453e+00 2.734107017517089844e+01 -6.867565959692001343e-02 7.912454009056091309e-02 3.134664148092269897e-03 -1.000300049781799316e-03
1.910000000000000000e+03 6.066448688507080078e+00 -2.842015838623046875e+01 -5.177439451217651367e-01 2.364609956741333008e+00 5.540598034858703613e-01 7.233712077140808105e-01
1.911000000000000000e+03 6.177053928375244141e+00 -2.717300987243652344e+01 -5.768901109695434570e-01 2.490097522735595703e+00 5.739622116088867188e-01 8.171543478965759277e-01
1.912000000000000000e+03 5.492996692657470703e+00 9.937579154968261719e+00 2.645251750946044922e-01 -8.922363817691802979e-02 5.259045958518981934e-02 1.504860073328018188e-01
1.913000000000000000e+03 4.270349502563476562e+00 9.782458305358886719e+00 1.719418019056320190e-01 -2.764598727226257324e-01 -3.135542571544647217e-02 1.569871157407760620e-01
1.914000000000000000e+03 7.077510356903076172e+00 1.114678668975830078e+01 3.679612576961517334e-01 1.896914541721343994e-01 1.672958135604858398e-01 3.907610103487968445e-02
1.915000000000000000e+03 5.178462505340576172e+00 -1.340172576904296875e+01 2.747435092926025391e+00 3.005483865737915039e+00 1.725875735282897949e+00 -1.715448945760726929e-01
1.916000000000000000e+03 3.695831537246704102e+00 -1.451537227630615234e+01 1.331409335136413574e+00 8.613698184490203857e-02 4.252638816833496094e-01 6.293309926986694336e-01
1.917000000000000000e+03 5.396734714508056641e+00 8.912003517150878906e+00 2.362515330314636230e-01 -1.221557706594467163e-01 3.422873094677925110e-02 2.159072458744049072e-01
1.918000000000000000e+03 3.738720703125000000e+01 1.070746612548828125e+01 8.124051094055175781e-01 1.526291728019714355e+00 7.016090750694274902e-01 1.058115363121032715e+00
1.919000000000000000e+03 3.799649715423583984e+00 -7.420117378234863281e+00 -2.374822497367858887e-01 2.170722484588623047e-01 -6.122999824583530426e-03 -1.322448253631591797e+00
1.920000000000000000e+03 5.434527206420898438e+01 -7.032300949096679688e+00 -1.900725960731506348e+00 -1.387296020984649658e-01 -6.118366718292236328e-01 -6.610370278358459473e-01
1.921000000000000000e+03 5.496187210083007812e+01 1.121592164039611816e+00 3.673158586025238037e-01 3.787985146045684814e-01 2.238343209028244019e-01 -3.212069869041442871e-01
1.922000000000000000e+03 4.855777740478515625e+00 -7.288595199584960938e+00 -4.979667067527770996e-01 1.341329813003540039e+00 2.530089318752288818e-01 -1.305614471435546875e+00
1.923000000000000000e+03 4.985695362091064453e+00 -8.459723472595214844e+00 -1.999640315771102905e-01 1.654128313064575195e+00 4.362492859363555908e-01 -1.305188059806823730e+00
1.924000000000000000e+03 1.204191684722900391e+01 -2.924040412902832031e+01 -6.013162136077880859e-01 2.313192844390869141e+00 5.135629773139953613e-01 -7.792629301548004150e-02
1.925000000000000000e+03 1.214388847351074219e+01 -2.700663375854492188e+01 -5.991889834403991699e-01 2.529179096221923828e+00 5.789970159530639648e-01 -1.825379133224487305e-01
1.926000000000000000e+03 5.808309173583984375e+01 -3.322757339477539062e+01 -7.070568948984146118e-02 9.636552929878234863e-01 2.678848803043365479e-01 8.127106726169586182e-02
1.927000000000000000e+03 5.910962677001953125e+01 -1.386519193649291992e+00 -1.828542947769165039e-01 4.275203347206115723e-01 7.339981198310852051e-02 -9.787308573722839355e-01
1.928000000000000000e+03 5.983016586303710938e+01 -4.254005432128906250e+00 -1.207602500915527344e+00 -1.211256235837936401e-01 -3.986184597015380859e-01 -8.939015269279479980e-01
1.929000000000000000e+03 6.014148330688476562e+01 -3.200662612915039062e+01 -2.073499411344528198e-01 1.666497588157653809e+00 4.377442896366119385e-01 2.554394602775573730e-01
1.930000000000000000e+03 9.898248672485351562e+00 -2.188187980651855469e+01 -6.135966777801513672e-01 4.476408004760742188e+00 1.158843398094177246e+00 -3.747137486934661865e-01
1.931000000000000000e+03 5.946734905242919922e+00 -1.266831398010253906e+01 2.978452682495117188e+00 3.761727809906005859e+00 2.022054195404052734e+00 -9.335805773735046387e-01
1.932000000000000000e+03 6.495528411865234375e+01 -2.561482048034667969e+01 -9.422078132629394531e-01 4.516980171203613281e+00 1.072431683540344238e+00 6.910006403923034668e-01
1.933000000000000000e+03 6.776052093505859375e+01 -2.302176856994628906e+01 -1.098337769508361816e+00 7.105898380279541016e+00 1.802268147468566895e+00 4.336510002613067627e-01
1.934000000000000000e+03 3.999203491210937500e+01 9.418666839599609375e+00 5.813731551170349121e-01 1.398955106735229492e+00 5.940985083580017090e-01 6.054117679595947266e-01
1.935000000000000000e+03 3.980047988891601562e+01 8.112240791320800781e+00 6.899620294570922852e-01 1.157799363136291504e+00 5.543284416198730469e-01 4.847904741764068604e-01
1.936000000000000000e+03 2.924096298217773438e+01 7.028196334838867188e+00 1.726779580116271973e+00 2.317193746566772461e+00 1.213191986083984375e+00 1.383027791976928711e+00
1.937000000000000000e+03 2.922781944274902344e+01 8.590979576110839844e+00 1.533767104148864746e+00 2.272451400756835938e+00 1.141865491867065430e+00 1.562524795532226562e+00
1.938000000000000000e+03 2.934707450866699219e+01 9.512491226196289062e+00 1.179587602615356445e+00 2.618607521057128906e+00 1.139458537101745605e+00 1.585649847984313965e+00
1.939000000000000000e+03 2.881518554687500000e+01 1.354051971435546875e+01 4.981746524572372437e-02 2.409715890884399414e+00 7.378600239753723145e-01 1.129491806030273438e+00
1.940000000000000000e+03 9.043178558349609375e+00 -2.422745513916015625e+01 -9.176449179649353027e-01 3.763144254684448242e+00 8.536497950553894043e-01 2.684145271778106689e-01
1.941000000000000000e+03 1.365412998199462891e+01 1.876384544372558594e+01 -2.848235368728637695e-01 1.153602957725524902e+00 2.606338262557983398e-01 2.474464029073715210e-01
1.942000000000000000e+03 1.382822132110595703e+01 1.738053512573242188e+01 -1.284237802028656006e-01 1.374875187873840332e+00 3.739354312419891357e-01 2.338439226150512695e-01
1.943000000000000000e+03 6.116655731201171875e+01 -2.722340583801269531e+01 -7.926449179649353027e-01 1.671229958534240723e+00 2.635754942893981934e-01 2.487128227949142456e-01
1.944000000000000000e+03 6.507995605468750000e+01 -2.841938591003417969e+01 -6.998376846313476562e-01 4.600094318389892578e+00 1.170076966285705566e+00 5.277323126792907715e-01
1.945000000000000000e+03 4.641190338134765625e+01 2.722918987274169922e+00 8.551585674285888672e-01 1.716280877590179443e-01 3.080359995365142822e-01 9.055882692337036133e-03
1.946000000000000000e+03 4.995770263671875000e+01 1.812807321548461914e+00 5.847265124320983887e-01 2.050185352563858032e-01 2.369235157966613770e-01 -7.175118476152420044e-02
1.947000000000000000e+03 2.470824432373046875e+01 -1.200272560119628906e+01 -3.327367782592773438e+00 9.711435437202453613e-01 -7.068672776222229004e-01 -3.696408867835998535e-01
1.948000000000000000e+03 2.967030143737792969e+01 -1.447499942779541016e+01 -3.287044286727905273e+00 4.799515008926391602e-01 -8.421278595924377441e-01 -1.877901256084442139e-01
1.949000000000000000e+03 2.374808311462402344e+01 -1.149287319183349609e+01 -3.229992151260375977e+00 1.130930662155151367e+00 -6.297184228897094727e-01 -3.671349883079528809e-01
1.950000000000000000e+03 3.011665153503417969e+01 1.693553733825683594e+01 -9.900938719511032104e-02 1.943026065826416016e+00 5.532050132751464844e-01 7.216284275054931641e-01
1.951000000000000000e+03 5.984636688232421875e+01 -2.909437942504882812e+01 -6.130855083465576172e-01 1.137169837951660156e+00 1.572252810001373291e-01 1.719284653663635254e-01
1.952000000000000000e+03 6.383680725097656250e+01 -2.739135742187500000e+01 -7.846196293830871582e-01 3.688665628433227539e+00 8.712137937545776367e-01 4.979481995105743408e-01
1.953000000000000000e+03 3.205121994018554688e+01 -1.349603652954101562e+01 -2.560311079025268555e+00 4.549024999141693115e-01 -6.316225528717041016e-01 -4.643284976482391357e-01
1.954000000000000000e+03 1.699286270141601562e+01 2.070279693603515625e+01 -1.856615543365478516e-01 6.791341304779052734e-01 1.480417698621749878e-01 5.804595947265625000e-01
1.955000000000000000e+03 3.726833724975585938e+01 1.305451869964599609e+01 7.840099930763244629e-01 1.677395343780517578e+00 7.384216189384460449e-01 1.149508714675903320e+00
1.956000000000000000e+03 3.937969589233398438e+01 1.352918052673339844e+01 7.981677055358886719e-01 1.808439612388610840e+00 7.819821834564208984e-01 1.106978893280029297e+00
1.957000000000000000e+03 1.916444396972656250e+01 2.123698806762695312e+01 -3.757798671722412109e-02 4.160444140434265137e-01 1.135399341583251953e-01 5.192124247550964355e-01
1.958000000000000000e+03 5.664456558227539062e+01 4.909048557281494141e+00 6.407299041748046875e-01 1.190855145454406738e+00 5.494754910469055176e-01 -3.207006454467773438e-01
1.959000000000000000e+03 8.016296386718750000e+00 -2.181676101684570312e+01 -8.584195971488952637e-01 4.435396671295166016e+00 1.073093175888061523e+00 8.076911568641662598e-01
1.960000000000000000e+03 2.071893501281738281e+01 -1.012044906616210938e+01 -2.541013002395629883e+00 1.809649586677551270e+00 -2.194090336561203003e-01 1.728576868772506714e-01
1.961000000000000000e+03 7.122480010986328125e+01 -1.730483245849609375e+01 -3.758225142955780029e-01 1.137752151489257812e+01 3.300509691238403320e+00 -1.175603032112121582e+00
1.962000000000000000e+03 7.031092071533203125e+01 -1.807023239135742188e+01 -4.284833371639251709e-01 1.099438095092773438e+01 3.169769287109375000e+00 -2.690682709217071533e-01
1.963000000000000000e+03 1.340261268615722656e+01 -2.931843185424804688e+01 -5.038341283798217773e-01 1.989986419677734375e+00 4.458456635475158691e-01 -1.402669996023178101e-01
1.964000000000000000e+03 1.539825916290283203e+01 -3.020215797424316406e+01 -4.047484695911407471e-01 1.505743026733398438e+00 3.302983641624450684e-01 -2.260652929544448853e-01
1.965000000000000000e+03 4.707172393798828125e+01 2.320288848876953125e+01 9.373830556869506836e-01 1.362045049667358398e+00 6.898283958435058594e-01 5.072292089462280273e-01
1.966000000000000000e+03 4.317330169677734375e+01 2.627051544189453125e+01 6.209540963172912598e-01 1.838352084159851074e+00 7.377918362617492676e-01 4.904984533786773682e-01
1.967000000000000000e+03 4.085939407348632812e+01 1.838879203796386719e+01 7.817500829696655273e-01 2.067752599716186523e+00 8.548507690429687500e-01 7.493183612823486328e-01
1.968000000000000000e+03 7.030922412872314453e+00 1.924423599243164062e+01 -5.184786021709442139e-02 2.584680616855621338e-01 6.198606267571449280e-02 -1.656487733125686646e-01
1.969000000000000000e+03 4.573477935791015625e+01 -1.163256359100341797e+01 -1.893862962722778320e+00 2.461993508040904999e-02 -5.607728958129882812e-01 -7.313334345817565918e-01
1.970000000000000000e+03 4.120320129394531250e+01 2.031061363220214844e+01 6.014648079872131348e-01 2.004091501235961914e+00 7.816669344902038574e-01 6.852993965148925781e-01
1.971000000000000000e+03 4.000189590454101562e+01 1.953297805786132812e+01 6.599835157394409180e-01 1.973390579223632812e+00 7.900122404098510742e-01 7.096170783042907715e-01
1.972000000000000000e+03 4.013572311401367188e+01 4.848259449005126953e+00 8.925344347953796387e-01 6.537353396415710449e-01 4.638809263706207275e-01 2.690001130104064941e-01
1.973000000000000000e+03 4.354522323608398438e+01 -3.651672744750976562e+01 -3.061072528362274170e-01 -3.059408664703369141e-01 -1.836144328117370605e-01 -2.564663290977478027e-01
1.974000000000000000e+03 4.276400756835937500e+01 -4.115171813964843750e+01 -6.130229681730270386e-02 -4.053721129894256592e-01 -1.400023251771926880e-01 -7.627370208501815796e-02
1.975000000000000000e+03 5.244756317138671875e+01 -4.135343551635742188e+01 4.706895947456359863e-01 -6.437824666500091553e-02 1.218933984637260437e-01 -5.252384766936302185e-02
1.976000000000000000e+03 6.947527313232421875e+01 -2.093127059936523438e+01 -1.058704018592834473e+00 8.991459846496582031e+00 2.379826784133911133e+00 -1.366185396909713745e-01
1.977000000000000000e+03 7.227686309814453125e+01 -1.669701004028320312e+01 1.247046664357185364e-01 1.076298522949218750e+01 3.266307115554809570e+00 -1.572135567665100098e+00
1.978000000000000000e+03 6.022138595581054688e+01 1.348466205596923828e+01 6.923278570175170898e-01 3.393135786056518555e+00 1.225639104843139648e+00 -9.247741103172302246e-01
1.979000000000000000e+03 2.780930137634277344e+01 1.817949485778808594e+01 -3.015381395816802979e-01 1.604371905326843262e+00 3.908501267433166504e-01 3.086588978767395020e-01
1.980000000000000000e+03 2.578103256225585938e+01 1.835461425781250000e+01 -3.673199117183685303e-01 1.145332813262939453e+00 2.334038615226745605e-01 6.028226017951965332e-02
1.981000000000000000e+03 7.215051269531250000e+01 4.080733108520507812e+01 9.646744281053543091e-02 5.155338764190673828e+00 1.575541853904724121e+00 -3.046668507158756256e-02
1.982000000000000000e+03 2.385574340820312500e+01 1.931080055236816406e+01 -1.846463829278945923e-01 5.500199794769287109e-01 1.096120849251747131e-01 6.735880672931671143e-02
1.983000000000000000e+03 1.874891853332519531e+01 -9.827039241790771484e-01 5.834915637969970703e-01 5.918665885925292969e+00 1.950647354125976562e+00 2.725281417369842529e-01
1.984000000000000000e+03 1.830747795104980469e+01 -8.183940052986145020e-01 5.538718700408935547e-01 5.047825813293457031e+00 1.680509328842163086e+00 -4.889100492000579834e-01
1.985000000000000000e+03 1.821749877929687500e+01 1.104702800512313843e-02 3.967612087726593018e-01 3.738947868347167969e+00 1.240712761878967285e+00 -4.967307746410369873e-01
1.986000000000000000e+03 1.974217605590820312e+01 -1.253985881805419922e+00 1.983728170394897461e+00 6.378424644470214844e+00 2.508645772933959961e+00 2.771845817565917969e+00
1.987000000000000000e+03 2.107324981689453125e+01 -1.697497129440307617e+00 4.091001987457275391e+00 4.284883022308349609e+00 2.512765407562255859e+00 3.791570425033569336e+00
1.988000000000000000e+03 1.295877647399902344e+01 -4.787996292114257812e+00 2.714396953582763672e+00 -5.182438492774963379e-01 6.588459610939025879e-01 2.632481575012207031e+00
1.989000000000000000e+03 1.482534503936767578e+01 -5.586018562316894531e+00 4.740478038787841797e+00 -6.452851295471191406e-01 1.228557944297790527e+00 3.901461124420166016e+00
1.990000000000000000e+03 1.570089149475097656e+01 -5.391413688659667969e+00 5.988674640655517578e+00 -1.156072877347469330e-02 1.793134093284606934e+00 4.219486713409423828e+00
1.991000000000000000e+03 8.951981544494628906e+00 -5.313581466674804688e+00 -2.258134633302688599e-01 1.504329085350036621e+00 3.835546970367431641e-01 1.347420096397399902e+00
1.992000000000000000e+03 8.463440895080566406e+00 -6.370448589324951172e+00 -6.568313241004943848e-01 2.517922401428222656e+00 5.583273172378540039e-01 1.351928472518920898e+00
1.993000000000000000e+03 2.346779060363769531e+01 2.208752393722534180e+00 7.213667035102844238e-01 2.885525703430175781e+00 1.082067728042602539e+00 2.957957029342651367e+00
1.994000000000000000e+03 1.392188453674316406e+01 -5.053833961486816406e+00 3.867552995681762695e+00 -8.699986338615417480e-01 8.992663025856018066e-01 3.126581668853759766e+00
1.995000000000000000e+03 1.978706932067871094e+01 1.759320616722106934e+00 -1.531513966619968414e-02 2.324401617050170898e+00 6.927258968353271484e-01 8.918979763984680176e-01
1.996000000000000000e+03 1.732871437072753906e+01 -6.550283908843994141e+00 3.389834880828857422e+00 3.937952041625976562e+00 2.198336124420166016e+00 4.214333534240722656e+00
1.997000000000000000e+03 1.656641578674316406e+01 -5.910490512847900391e+00 5.192986488342285156e+00 2.106429338455200195e+00 2.189824819564819336e+00 5.112021923065185547e+00
1.998000000000000000e+03 1.444328212738037109e+01 -8.745877265930175781e+00 7.099868655204772949e-01 -8.472598791122436523e-01 -4.118189960718154907e-02 4.901518821716308594e+00
1.999000000000000000e+03 6.325161933898925781e+00 5.106921195983886719e+00 2.338251285254955292e-02 -3.076322004199028015e-02 -2.214212669059634209e-03 3.974439799785614014e-01
2.000000000000000000e+03 6.087858200073242188e+00 7.421095371246337891e+00 2.205202728509902954e-01 -4.049571231007575989e-02 5.400737002491950989e-02 3.046628236770629883e-01
2.001000000000000000e+03 1.703906059265136719e+01 -7.192361354827880859e+00 2.366504907608032227e+00 2.679798364639282227e+00 1.513890981674194336e+00 4.248654842376708984e+00
2.002000000000000000e+03 2.429541206359863281e+01 -4.755905628204345703e+00 3.759876966476440430e+00 1.032562613487243652e+00 1.437731862068176270e+00 5.639176368713378906e-01
2.003000000000000000e+03 2.371072959899902344e+01 -4.183807849884033203e+00 4.422188758850097656e+00 1.212028503417968750e+00 1.690265178680419922e+00 1.019462227821350098e+00
2.004000000000000000e+03 4.653443813323974609e+00 6.074359416961669922e+00 7.458599656820297241e-02 -1.737426668405532837e-01 -2.974699810147285461e-02 3.618666827678680420e-01
2.005000000000000000e+03 6.987653255462646484e+00 4.838641166687011719e+00 1.569591462612152100e-03 2.902632020413875580e-02 9.178773500025272369e-03 3.966704010963439941e-01
2.006000000000000000e+03 6.812222003936767578e+00 5.781318187713623047e+00 1.148515269160270691e-01 3.317380324006080627e-02 4.440759867429733276e-02 3.835581243038177490e-01
2.007000000000000000e+03 6.110674381256103516e+00 6.246073246002197266e+00 1.414654999971389771e-01 -4.238525032997131348e-02 2.972407639026641846e-02 3.688955008983612061e-01
2.008000000000000000e+03 9.340931892395019531e+00 5.054219245910644531e+00 6.758822500705718994e-02 3.304323256015777588e-01 1.194061711430549622e-01 2.438508570194244385e-01
2.009000000000000000e+03 1.756618499755859375e+01 1.888758897781372070e+00 -3.969833254814147949e-01 1.628389954566955566e+00 3.694219887256622314e-01 -1.197594046592712402e+00
2.010000000000000000e+03 1.739570045471191406e+01 9.073132872581481934e-01 8.157198131084442139e-02 2.090698480606079102e+00 6.516811251640319824e-01 -1.169354796409606934e+00
2.011000000000000000e+03 7.390072822570800781e+00 -5.645308494567871094e+00 -6.878620982170104980e-01 1.906386852264404297e+00 3.655574619770050049e-01 3.777461349964141846e-01
2.012000000000000000e+03 1.080134105682373047e+01 -5.235254287719726562e+00 8.356848955154418945e-01 7.118474245071411133e-01 4.642597138881683350e-01 2.468926191329956055e+00
2.013000000000000000e+03 6.528980731964111328e+00 -5.801275730133056641e+00 -7.498355507850646973e-01 1.906655788421630859e+00 3.470460772514343262e-01 -1.230709180235862732e-01
2.014000000000000000e+03 1.999526405334472656e+01 -1.089450359344482422e+01 -3.803956508636474609e+00 1.202157258987426758e+00 -7.805397510528564453e-01 8.836363554000854492e-01
2.015000000000000000e+03 1.982294082641601562e+01 -7.636309146881103516e+00 9.430584311485290527e-01 3.835460424423217773e+00 1.433555722236633301e+00 3.141853809356689453e-01
2.016000000000000000e+03 2.080801963806152344e+01 9.904740750789642334e-02 1.395520687103271484e+00 3.803249120712280273e+00 1.559630990028381348e+00 2.745783805847167969e+00
2.017000000000000000e+03 1.016691875457763672e+01 -5.102622985839843750e+00 4.399080872535705566e-01 8.979879617691040039e-01 4.013688266277313232e-01 2.097821712493896484e+00
2.018000000000000000e+03 1.183034133911132812e+01 -9.315992355346679688e+00 -8.257761001586914062e-01 2.280919075012207031e+00 4.365428984165191650e-01 5.866539478302001953e+00
2.019000000000000000e+03 1.207130813598632812e+01 -7.592607498168945312e+00 1.031154990196228027e+00 8.051075339317321777e-01 5.508787631988525391e-01 4.970607757568359375e+00
2.020000000000000000e+03 1.916254806518554688e+01 3.403419256210327148e-02 4.294563233852386475e-01 4.371487617492675781e+00 1.440283179283142090e+00 7.285811305046081543e-01
2.021000000000000000e+03 1.901776695251464844e+01 2.082223653793334961e+00 -2.626189589500427246e-01 1.913107752799987793e+00 4.951466321945190430e-01 1.578396260738372803e-01
2.022000000000000000e+03 2.294340133666992188e+01 -5.212935447692871094e+00 4.592978477478027344e+00 1.520409226417541504e+00 1.834016323089599609e+00 1.870476007461547852e-01
2.023000000000000000e+03 2.199594306945800781e+01 -5.968426704406738281e+00 4.320829391479492188e+00 2.263398170471191406e+00 1.975268244743347168e+00 -4.724364280700683594e-01
2.024000000000000000e+03 1.503890991210937500e+01 -9.220177650451660156e+00 -4.816772341728210449e-01 -6.184632778167724609e-01 -3.300421535968780518e-01 4.562907218933105469e+00
2.025000000000000000e+03 7.063349914550781250e+01 -5.778778553009033203e+00 -3.158360421657562256e-01 1.261623382568359375e+01 3.690119266510009766e+00 5.519163012504577637e-01
2.026000000000000000e+03 2.047093391418457031e+01 1.204617738723754883e+00 5.738022923469543457e-01 2.846147537231445312e+00 1.025984883308410645e+00 1.959481835365295410e+00
2.027000000000000000e+03 6.925970458984375000e+01 -1.105450153350830078e+00 -1.485920071601867676e+00 8.085264205932617188e+00 1.979803085327148438e+00 -1.839187979698181152e+00
2.028000000000000000e+03 6.544686126708984375e+01 -2.157126665115356445e+00 -6.855490207672119141e-01 4.244932174682617188e+00 1.067814946174621582e+00 -3.299978017807006836e+00
2.029000000000000000e+03 1.042965316772460938e+01 9.662752151489257812e+00 6.109058856964111328e-01 9.724320173263549805e-01 4.750013649463653564e-01 1.817072927951812744e-02
2.030000000000000000e+03 1.214158916473388672e+01 5.645088672637939453e+00 1.328859180212020874e-01 1.144042491912841797e+00 3.830785155296325684e-01 -5.898301675915718079e-02
2.031000000000000000e+03 1.229218482971191406e+01 6.524993896484375000e+00 2.746573984622955322e-01 1.352091431617736816e+00 4.880246520042419434e-01 -5.435651168227195740e-02
2.032000000000000000e+03 2.988534164428710938e+01 1.112373447418212891e+01 8.459922075271606445e-01 2.280382394790649414e+00 9.379123449325561523e-01 1.532996773719787598e+00
2.033000000000000000e+03 2.956262779235839844e+01 1.521573638916015625e+01 -1.088790968060493469e-01 2.102091550827026367e+00 5.979636907577514648e-01 9.438765645027160645e-01
2.034000000000000000e+03 7.345589447021484375e+01 -8.997927665710449219e+00 1.811669588088989258e+00 1.011321163177490234e+01 3.577464342117309570e+00 7.807017564773559570e-01
2.035000000000000000e+03 9.017249107360839844e+00 -8.851364135742187500e+00 -1.522399306297302246e+00 5.581691741943359375e+00 1.217787742614746094e+00 2.409737110137939453e+00
2.036000000000000000e+03 4.350497055053710938e+01 -1.241886329650878906e+01 -1.937217473983764648e+00 9.206308424472808838e-02 -5.535463094711303711e-01 -6.824378967285156250e-01
2.037000000000000000e+03 4.104030227661132812e+01 -1.174430084228515625e+01 -1.777424335479736328e+00 1.983639597892761230e-01 -4.737181365489959717e-01 -6.314212083816528320e-01
2.038000000000000000e+03 4.685384368896484375e+01 -1.114824390411376953e+01 -1.886326789855957031e+00 6.363900378346443176e-03 -5.639888644218444824e-01 -7.391858696937561035e-01
2.039000000000000000e+03 4.907474517822265625e+01 -1.009158897399902344e+01 -1.905593395233154297e+00 -4.517200961709022522e-02 -5.852296352386474609e-01 -7.489005327224731445e-01
2.040000000000000000e+03 9.951219558715820312e+00 1.393063259124755859e+01 3.395495116710662842e-01 8.816477060317993164e-01 3.663591742515563965e-01 -1.654003858566284180e-01
2.041000000000000000e+03 1.116678142547607422e+01 1.387819099426269531e+01 3.589627444744110107e-01 1.245506525039672852e+00 4.813407659530639648e-01 -1.224711835384368896e-01
2.042000000000000000e+03 9.993555068969726562e+00 -9.197259902954101562e+00 -1.101845622062683105e+00 5.229965686798095703e+00 1.238435983657836914e+00 4.471935749053955078e+00
2.043000000000000000e+03 1.865250396728515625e+01 -8.064195632934570312e+00 1.625630706548690796e-01 3.483012437820434570e+00 1.093672633171081543e+00 1.657970309257507324e+00
2.044000000000000000e+03 1.914302253723144531e+01 -8.799884796142578125e+00 -8.554160594940185547e-01 2.828588008880615234e+00 5.919515490531921387e-01 1.179447174072265625e+00
2.045000000000000000e+03 1.613347434997558594e+01 -8.992636680603027344e+00 -3.446061015129089355e-01 2.024127393960952759e-01 -4.265800863504409790e-02 4.146810054779052734e+00
2.046000000000000000e+03 2.221652984619140625e+01 -7.691637992858886719e+00 1.261793851852416992e+00 2.188748359680175781e+00 1.035162687301635742e+00 -8.801583051681518555e-01
2.047000000000000000e+03 7.145243072509765625e+01 -2.481288719177246094e+01 -9.752816557884216309e-01 8.562799453735351562e+00 2.276255369186401367e+00 -4.699153602123260498e-01
2.048000000000000000e+03 9.741348266601562500e+00 7.924956321716308594e+00 4.918178915977478027e-01 6.692039370536804199e-01 3.483065366744995117e-01 1.460733264684677124e-01
2.049000000000000000e+03 2.654409217834472656e+01 -9.649031639099121094e+00 -8.948487043380737305e-01 8.259500861167907715e-01 -2.066958323121070862e-02 -9.113705158233642578e-01
2.050000000000000000e+03 3.322510910034179688e+01 -1.230108737945556641e+01 -2.042726755142211914e+00 4.219418764114379883e-01 -4.862354695796966553e-01 -5.883280038833618164e-01
2.051000000000000000e+03 2.476003646850585938e+01 1.774033308029174805e+00 1.129724144935607910e+00 2.983284950256347656e+00 1.233902692794799805e+00 2.703051090240478516e+00
2.052000000000000000e+03 1.587849140167236328e+01 2.045676994323730469e+01 -2.495795637369155884e-01 8.470876216888427734e-01 1.792524158954620361e-01 5.093682408332824707e-01
2.053000000000000000e+03 1.471191310882568359e+01 2.032129287719726562e+01 -2.852831780910491943e-01 9.269731640815734863e-01 1.925069987773895264e-01 4.031827747821807861e-01
2.054000000000000000e+03 1.836447525024414062e+01 -9.367738723754882812e+00 -1.767053127288818359e+00 1.757322430610656738e+00 -2.919192193076014519e-03 1.889145851135253906e+00
2.055000000000000000e+03 2.128694343566894531e+01 -2.737281322479248047e-01 1.970296263694763184e+00 3.728208303451538086e+00 1.709551334381103516e+00 3.228494644165039062e+00
2.056000000000000000e+03 2.450477981567382812e+01 -3.678229570388793945e+00 3.841724634170532227e+00 1.097814321517944336e+00 1.481861710548400879e+00 1.338189482688903809e+00
2.057000000000000000e+03 3.564829254150390625e+01 -1.482643795013427734e+01 -2.547946214675903320e+00 2.981261610984802246e-01 -6.749460101127624512e-01 -4.530207812786102295e-01
2.058000000000000000e+03 5.775319290161132812e+01 4.213322639465332031e+00 5.405318737030029297e-01 1.346484422683715820e+00 5.661048889160156250e-01 -6.185270547866821289e-01
2.059000000000000000e+03 5.346545028686523438e+01 -6.126701354980468750e+00 -1.560876488685607910e+00 -6.165202334523200989e-02 -4.867585301399230957e-01 -5.163253545761108398e-01
2.060000000000000000e+03 4.953934097290039062e+01 -8.456526756286621094e+00 -1.683604240417480469e+00 -1.157466787844896317e-03 -5.054284930229187012e-01 -6.153010129928588867e-01
2.061000000000000000e+03 3.737433242797851562e+01 1.187761020660400391e+01 7.781772017478942871e-01 1.684881687164306641e+00 7.389176487922668457e-01 1.125195384025573730e+00
2.062000000000000000e+03 2.292540550231933594e+01 -4.477059364318847656e+00 5.054924488067626953e+00 1.471249818801879883e+00 1.957852363586425781e+00 8.041887879371643066e-01
2.063000000000000000e+03 2.602802276611328125e+01 3.426979303359985352e+00 1.093425273895263672e+00 3.284573078155517578e+00 1.313399434089660645e+00 2.018313169479370117e+00
2.064000000000000000e+03 1.558368396759033203e+01 -7.923819065093994141e+00 1.455587744712829590e+00 1.827552914619445801e-01 4.915029108524322510e-01 4.644287109375000000e+00
2.065000000000000000e+03 4.509976959228515625e+01 1.772430896759033203e+00 6.899408698081970215e-01 1.641076654195785522e-01 2.562145590782165527e-01 3.322468325495719910e-02
2.066000000000000000e+03 3.996744155883789062e+01 -1.193497180938720703e+01 -1.795461058616638184e+00 2.258043736219406128e-01 -4.708969891071319580e-01 -6.163936853408813477e-01
2.067000000000000000e+03 2.492108154296875000e+01 -7.087721347808837891e+00 1.663615584373474121e+00 9.328312277793884277e-01 7.789340615272521973e-01 -6.297882199287414551e-01
2.068000000000000000e+03 5.240876388549804688e+01 2.628091812133789062e+00 7.082720994949340820e-01 2.721434235572814941e-01 2.941246628761291504e-01 -1.107506006956100464e-01
2.069000000000000000e+03 5.126518630981445312e+01 -8.990736007690429688e+00 -1.942188143730163574e+00 -9.613567590713500977e-02 -6.114971637725830078e-01 -7.436541914939880371e-01
2.070000000000000000e+03 6.336323261260986328e+00 -1.011713027954101562e+01 9.402101486921310425e-02 4.621520042419433594e+00 1.414662361145019531e+00 -9.743577241897583008e-01
2.071000000000000000e+03 7.451780796051025391e+00 6.394409656524658203e+00 2.098152339458465576e-01 1.387853473424911499e-01 1.045801714062690735e-01 3.309235572814941406e-01
2.072000000000000000e+03 2.207898712158203125e+01 -6.821853637695312500e+00 2.796332359313964844e+00 2.392205715179443359e+00 1.556561350822448730e+00 -8.728467822074890137e-01
2.073000000000000000e+03 1.059803676605224609e+01 -2.487657356262207031e+01 -7.504410147666931152e-01 3.353185415267944336e+00 7.808232903480529785e-01 -1.338641345500946045e-01
2.074000000000000000e+03 1.250834655761718750e+01 -2.512818527221679688e+01 -4.535911679267883301e-01 2.766664743423461914e+00 6.939220428466796875e-01 -4.798588454723358154e-01
2.075000000000000000e+03 6.614901733398437500e+01 -2.763195037841796875e+01 -8.985450863838195801e-01 5.278508186340332031e+00 1.313988924026489258e+00 6.026495099067687988e-01
2.076000000000000000e+03 2.698272514343261719e+01 3.800824403762817383e+00 1.238274693489074707e+00 3.109096288681030273e+00 1.304211258888244629e+00 1.660872340202331543e+00
2.077000000000000000e+03 7.121170043945312500e+01 -2.821873092651367188e+01 -6.893021464347839355e-01 8.013597488403320312e+00 2.197288513183593750e+00 -1.267464607954025269e-01
2.078000000000000000e+03 6.923590087890625000e+01 -3.183789253234863281e+01 -4.077072739601135254e-01 6.656964778900146484e+00 1.874777197837829590e+00 2.381503880023956299e-01
2.079000000000000000e+03 7.206610870361328125e+01 -8.117669105529785156e+00 2.053253173828125000e+00 1.132920837402343750e+01 4.014738559722900391e+00 9.152430295944213867e-01
2.080000000000000000e+03 7.306747436523437500e+01 -5.572053432464599609e+00 -4.614454135298728943e-02 1.043523502349853516e+01 3.116727113723754883e+00 1.288334608078002930e+00
2.081000000000000000e+03 2.312660026550292969e+01 -7.592195510864257812e+00 1.413046121597290039e+00 1.662191748619079590e+00 9.225713610649108887e-01 -9.622075557708740234e-01
2.082000000000000000e+03 2.137134552001953125e+01 -8.689294815063476562e+00 -4.145669937133789062e-01 2.399616003036499023e+00 5.955147147178649902e-01 -4.924743175506591797e-01
2.083000000000000000e+03 7.114838409423828125e+01 -3.263010406494140625e+01 -2.875489294528961182e-01 7.483726501464843750e+00 2.158853292465209961e+00 9.508918225765228271e-02
2.084000000000000000e+03 7.129390716552734375e+01 -2.280943298339843750e+01 -1.054547786712646484e+00 8.994772911071777344e+00 2.382067441940307617e+00 -6.848648786544799805e-01
2.085000000000000000e+03 3.130241584777832031e+01 1.067981815338134766e+01 9.943053126335144043e-01 1.989251613616943359e+00 8.950670957565307617e-01 1.484641551971435547e+00
2.086000000000000000e+03 2.946015357971191406e+01 1.037918472290039062e+01 1.023186206817626953e+00 2.354466915130615234e+00 1.013295888900756836e+00 1.478027939796447754e+00
2.087000000000000000e+03 9.086436271667480469e+00 2.804808425903320312e+01 -8.731465786695480347e-02 2.429447472095489502e-01 4.668902233242988586e-02 5.349747091531753540e-02
2.088000000000000000e+03 8.153761863708496094e+00 3.192339515686035156e+01 -2.038903348147869110e-02 1.100861504673957825e-01 2.690913528203964233e-02 5.167438834905624390e-02
2.089000000000000000e+03 7.101127624511718750e+01 1.613453483581542969e+01 1.833068132400512695e-01 5.564944267272949219e+00 1.724475383758544922e+00 -7.600946426391601562e-01
2.090000000000000000e+03 7.263101196289062500e+01 1.660302352905273438e+01 1.292159408330917358e-01 5.939780712127685547e+00 1.820699095726013184e+00 -6.681674122810363770e-01
2.091000000000000000e+03 7.138056945800781250e+01 2.304891204833984375e+01 1.610974520444869995e-01 5.394384384155273438e+00 1.666644454002380371e+00 -5.039232373237609863e-01
2.092000000000000000e+03 7.078753662109375000e+01 9.576040267944335938e+00 -6.178646534681320190e-02 6.031712055206298828e+00 1.790977716445922852e+00 -1.009551048278808594e+00
2.093000000000000000e+03 7.323113250732421875e+01 8.469823837280273438e+00 -1.460005491971969604e-01 6.743123054504394531e+00 1.979136705398559570e+00 -7.485693097114562988e-01
2.094000000000000000e+03 7.463784790039062500e+01 -1.671073722839355469e+01 1.556485742330551147e-01 9.491933822631835938e+00 2.894274950027465820e+00 -1.917157769203186035e+00
2.095000000000000000e+03 7.231588745117187500e+01 -1.927126693725585938e+01 -7.481960058212280273e-01 1.015291118621826172e+01 2.821414709091186523e+00 -1.387207627296447754e+00
2.096000000000000000e+03 7.479488372802734375e+01 -1.900048255920410156e+01 -3.798411190509796143e-01 9.471454620361328125e+00 2.727483987808227539e+00 -1.758388876914978027e+00
2.097000000000000000e+03 7.075019073486328125e+01 4.571190357208251953e+00 -5.634828209877014160e-01 6.718825817108154297e+00 1.846602916717529297e+00 -1.117773652076721191e+00
2.098000000000000000e+03 7.303302001953125000e+01 2.163555383682250977e+00 -8.281785845756530762e-01 7.878988265991210938e+00 2.115242958068847656e+00 -3.802906572818756104e-01
2.099000000000000000e+03 7.382958984375000000e+01 -1.006986236572265625e+01 2.002630472183227539e+00 9.890738487243652344e+00 3.568010807037353516e+00 -6.129144504666328430e-02
2.100000000000000000e+03 7.479675292968750000e+01 -3.588146448135375977e+00 -4.455415904521942139e-01 8.750469207763671875e+00 2.491478204727172852e+00 1.046779513359069824e+00
2.101000000000000000e+03 7.345097351074218750e+01 -1.357240200042724609e+01 1.719294428825378418e+00 1.067521190643310547e+01 3.718352079391479492e+00 -1.546690821647644043e+00
2.102000000000000000e+03 7.261537170410156250e+01 -2.699909210205078125e+00 -1.207461714744567871e+00 9.731638908386230469e+00 2.557253122329711914e+00 4.538573622703552246e-01
2.103000000000000000e+03 7.385311126708984375e+01 -1.658569812774658203e+00 -9.120393991470336914e-01 8.898847579956054688e+00 2.396042346954345703e+00 5.893738865852355957e-01
2.104000000000000000e+03 7.475545501708984375e+01 -2.025744056701660156e+01 -4.564268887042999268e-01 9.520077705383300781e+00 2.719095468521118164e+00 -1.498131036758422852e+00
2.105000000000000000e+03 8.289786338806152344e+00 1.937978363037109375e+01 -8.535593003034591675e-02 4.798682630062103271e-01 1.183537021279335022e-01 -1.418967843055725098e-01
2.106000000000000000e+03 6.740258216857910156e+00 2.379640388488769531e+01 -1.020992621779441833e-01 1.514983922243118286e-01 1.481973659247159958e-02 -6.579729169607162476e-02
2.107000000000000000e+03 7.124152374267578125e+01 2.554433822631835938e+01 1.525104790925979614e-01 5.282931804656982422e+00 1.630632638931274414e+00 -4.396923482418060303e-01
2.108000000000000000e+03 7.237347412109375000e+01 2.661845970153808594e+01 1.241054162383079529e-01 5.423662185668945312e+00 1.664330363273620605e+00 -3.703255653381347656e-01
2.109000000000000000e+03 6.412314414978027344e+00 3.349468994140625000e+01 -4.415293224155902863e-03 -2.302308380603790283e-02 -8.231513202190399170e-03 3.151211887598037720e-02
2.110000000000000000e+03 6.670071411132812500e+01 -2.392854881286621094e+01 -1.019732117652893066e+00 6.195524692535400391e+00 1.552737712860107422e+00 6.938355565071105957e-01
2.111000000000000000e+03 6.734967041015625000e+01 -2.762201499938964844e+01 -9.213815927505493164e-01 6.100075244903564453e+00 1.553608059883117676e+00 4.049642384052276611e-01
2.112000000000000000e+03 6.262137413024902344e+00 2.583869171142578125e+01 -8.524818718433380127e-02 7.450470328330993652e-02 -3.223043866455554962e-03 -3.276409208774566650e-02
2.113000000000000000e+03 5.118107795715332031e+00 -1.151620960235595703e+01 1.049229264259338379e+00 2.736130714416503906e+00 1.135608077049255371e+00 -1.362748503684997559e+00
2.114000000000000000e+03 7.332277774810791016e+00 -2.296555137634277344e+01 -8.282977938652038574e-01 3.669719219207763672e+00 8.524264097213745117e-01 9.364212751388549805e-01
2.115000000000000000e+03 5.819664764404296875e+01 -5.763530254364013672e+00 -1.906222462654113770e+00 -3.208803534507751465e-01 -6.681308150291442871e-01 -7.756701111793518066e-01
2.116000000000000000e+03 5.810274124145507812e+01 -4.134731292724609375e+00 -1.129303336143493652e+00 -1.036122813820838928e-01 -3.698746860027313232e-01 -6.507614254951477051e-01
2.117000000000000000e+03 5.724806785583496094e+00 -1.836534690856933594e+01 3.044298589229583740e-01 3.587345838546752930e+00 1.167532682418823242e+00 2.039215564727783203e+00
2.118000000000000000e+03 5.763988494873046875e+00 -1.976263618469238281e+01 -3.475198745727539062e-01 3.732708215713500977e+00 1.015556454658508301e+00 1.838573694229125977e+00
2.119000000000000000e+03 6.583455085754394531e+00 1.501194572448730469e+01 1.560551524162292480e-01 1.654226630926132202e-01 9.644334018230438232e-02 -1.550621837377548218e-01
2.120000000000000000e+03 5.471689701080322266e+00 1.505426120758056641e+01 1.212135404348373413e-01 -2.522314153611660004e-02 2.879711985588073730e-02 -1.398482173681259155e-01
2.121000000000000000e+03 8.812124252319335938e+00 1.500277805328369141e+01 2.185615152120590210e-01 6.252833008766174316e-01 2.531534433364868164e-01 -1.832903772592544556e-01
2.122000000000000000e+03 5.859393119812011719e+00 -8.649884223937988281e+00 -5.345919728279113770e-01 3.316406250000000000e+00 8.345443010330200195e-01 -1.060170412063598633e+00
2.123000000000000000e+03 5.374192714691162109e+00 -9.476614952087402344e+00 8.025907725095748901e-02 2.585329055786132812e+00 7.996764779090881348e-01 -1.609354615211486816e+00
2.124000000000000000e+03 6.557018756866455078e+00 1.388268947601318359e+01 2.124253511428833008e-01 1.472103148698806763e-01 1.078907027840614319e-01 -1.139657273888587952e-01
2.125000000000000000e+03 5.571926116943359375e+00 1.246353435516357422e+01 2.240426540374755859e-01 -4.170222952961921692e-02 5.470212548971176147e-02 -1.796540804207324982e-02
2.126000000000000000e+03 5.769421577453613281e+00 1.920751762390136719e+01 -3.016610816121101379e-02 7.890665531158447266e-02 1.462216489017009735e-02 -1.781965047121047974e-01
2.127000000000000000e+03 7.184220790863037109e+00 -2.080652427673339844e+01 -7.400588393211364746e-01 4.508873462677001953e+00 1.130644321441650391e+00 1.098248839378356934e+00
2.128000000000000000e+03 8.492380142211914062e+00 -2.951513099670410156e+01 -5.962273478507995605e-01 2.451961278915405273e+00 5.567201375961303711e-01 4.410819113254547119e-01
2.129000000000000000e+03 7.934345722198486328e+00 -3.083032035827636719e+01 -4.844292402267456055e-01 2.361873149871826172e+00 5.632331371307373047e-01 4.123478829860687256e-01
2.130000000000000000e+03 4.428018188476562500e+01 3.026332378387451172e+00 8.393971323966979980e-01 2.085945010185241699e-01 3.143974840641021729e-01 7.731879502534866333e-02
2.131000000000000000e+03 4.827547073364257812e+01 1.579236984252929688e+00 5.469561815261840820e-01 2.108938395977020264e-01 2.273550033569335938e-01 -2.391643077135086060e-02
2.132000000000000000e+03 3.673759460449218750e+01 -1.353378868103027344e+01 -2.192162990570068359e+00 3.039780259132385254e-01 -5.664554834365844727e-01 -5.662580132484436035e-01
2.133000000000000000e+03 7.979077816009521484e+00 2.694977951049804688e+01 -9.320677816867828369e-02 1.895193755626678467e-01 2.889377996325492859e-02 2.079760655760765076e-02
2.134000000000000000e+03 7.642947673797607422e+00 2.570351409912109375e+01 -1.042198240756988525e-01 1.916831880807876587e-01 2.623901143670082092e-02 -1.169812958687543869e-02
2.135000000000000000e+03 5.952233123779296875e+01 -2.716442584991455078e+00 -5.827183723449707031e-01 2.038493603467941284e-01 -1.136607080698013306e-01 -9.617575407028198242e-01
2.136000000000000000e+03 5.873666763305664062e+01 -2.079190731048583984e+00 -3.279246687889099121e-01 1.979385763406753540e-01 -3.899583220481872559e-02 -8.699254393577575684e-01
2.137000000000000000e+03 7.901322841644287109e+00 7.559190750122070312e+00 3.254635632038116455e-01 2.415142357349395752e-01 1.700933426618576050e-01 2.609474062919616699e-01
2.138000000000000000e+03 6.826544284820556641e+00 8.783186912536621094e+00 3.379288613796234131e-01 1.211943626403808594e-01 1.377369612455368042e-01 2.114866673946380615e-01
2.139000000000000000e+03 5.706526184082031250e+01 6.059987068176269531e+00 5.375206470489501953e-01 1.626393795013427734e+00 6.491743326187133789e-01 -3.886062800884246826e-01
2.140000000000000000e+03 8.094978332519531250e+00 9.242461204528808594e+00 4.365034401416778564e-01 3.311965763568878174e-01 2.303099930286407471e-01 1.436664313077926636e-01
2.141000000000000000e+03 6.436735630035400391e+00 9.744740486145019531e+00 3.160491883754730225e-01 5.011009424924850464e-02 1.098477840423583984e-01 1.529560536146163940e-01
2.142000000000000000e+03 5.848461151123046875e+00 -7.032361030578613281e+00 -7.133625745773315430e-01 2.291819095611572266e+00 4.735369980335235596e-01 -7.035447359085083008e-01
2.143000000000000000e+03 1.103002357482910156e+01 1.855508804321289062e+01 -1.428935080766677856e-01 9.318865537643432617e-01 2.366979271173477173e-01 -4.035015031695365906e-02
2.144000000000000000e+03 1.246235179901123047e+01 1.736010932922363281e+01 -1.120870038866996765e-01 1.249737381935119629e+00 3.412950932979583740e-01 3.829789534211158752e-02
2.145000000000000000e+03 5.885687637329101562e+01 6.510850429534912109e+00 4.882733821868896484e-01 2.150935173034667969e+00 7.917625904083251953e-01 -7.740579247474670410e-01
2.146000000000000000e+03 3.488700485229492188e+01 1.313825988769531250e+01 7.035754323005676270e-01 1.757268428802490234e+00 7.382531762123107910e-01 1.247197031974792480e+00
2.147000000000000000e+03 6.731901550292968750e+01 -2.506868934631347656e+01 -1.088191628456115723e+00 6.312892913818359375e+00 1.567410349845886230e+00 4.257898032665252686e-01
2.148000000000000000e+03 6.887957763671875000e+01 -2.664408111572265625e+01 -9.785518646240234375e-01 7.123232364654541016e+00 1.843404173851013184e+00 1.248140931129455566e-01
2.149000000000000000e+03 5.087100601196289062e+01 9.747735261917114258e-01 4.205327928066253662e-01 1.677551120519638062e-01 1.764863729476928711e-01 -1.057191118597984314e-01
2.150000000000000000e+03 7.231442260742187500e+01 -9.223078727722167969e+00 2.500047206878662109e+00 1.174753570556640625e+01 4.274274826049804688e+00 1.531746834516525269e-01
2.151000000000000000e+03 3.924888610839843750e+01 6.994976043701171875e+00 8.062564730644226074e-01 1.011213302612304688e+00 5.452409386634826660e-01 4.746023118495941162e-01
2.152000000000000000e+03 3.986785888671875000e+01 6.076249599456787109e+00 8.443801403045654297e-01 8.315567374229431152e-01 5.027810335159301758e-01 3.438814878463745117e-01
2.153000000000000000e+03 4.368819046020507812e+01 -8.934104919433593750e+00 -1.323377013206481934e+00 1.442231684923171997e-01 -3.537461757659912109e-01 -5.437937974929809570e-01
2.154000000000000000e+03 4.210392761230468750e+01 -1.152513885498046875e+01 -1.751828074455261230e+00 1.605247259140014648e-01 -4.773910045623779297e-01 -6.338937878608703613e-01
2.155000000000000000e+03 5.188968276977539062e+01 2.717345237731933594e+01 8.304772377014160156e-01 2.194672822952270508e+00 9.075450301170349121e-01 -1.876005381345748901e-01
2.156000000000000000e+03 4.815547943115234375e+01 2.726531791687011719e+01 8.366674780845642090e-01 1.864338994026184082e+00 8.103019595146179199e-01 1.575618088245391846e-01
2.157000000000000000e+03 3.734783935546875000e+01 9.541578292846679688e+00 8.595770597457885742e-01 1.473756670951843262e+00 7.000001072883605957e-01 1.009069800376892090e+00
2.158000000000000000e+03 3.864640045166015625e+01 9.505653381347656250e+00 7.264219522476196289e-01 1.409558057785034180e+00 6.407940387725830078e-01 8.153989911079406738e-01
2.159000000000000000e+03 2.558344459533691406e+01 -1.032953834533691406e+01 -1.650350213050842285e+00 9.656239151954650879e-01 -2.054179012775421143e-01 -8.524193763732910156e-01
2.160000000000000000e+03 2.895451736450195312e+01 -1.206120681762695312e+01 -2.353066921234130859e+00 6.331385970115661621e-01 -5.159785151481628418e-01 -6.013839840888977051e-01
2.161000000000000000e+03 3.110233116149902344e+01 -1.106849956512451172e+01 -1.646423697471618652e+00 5.155479907989501953e-01 -3.392627239227294922e-01 -6.790925860404968262e-01
2.162000000000000000e+03 5.970075225830078125e+01 1.041689682006835938e+01 5.060837268829345703e-01 3.036447286605834961e+00 1.062759280204772949e+00 -9.308015108108520508e-01
2.163000000000000000e+03 5.885401916503906250e+01 9.393537521362304688e+00 4.435615241527557373e-01 2.805744171142578125e+00 9.747917056083679199e-01 -7.731162309646606445e-01
2.164000000000000000e+03 3.681374359130859375e+01 1.782335472106933594e+01 5.976730585098266602e-01 1.839549899101257324e+00 7.311668992042541504e-01 8.486984968185424805e-01
2.165000000000000000e+03 3.904932785034179688e+01 -1.333158779144287109e+01 -2.077758550643920898e+00 2.380333691835403442e-01 -5.519175529479980469e-01 -6.029649972915649414e-01
2.166000000000000000e+03 3.447938919067382812e+01 -9.844392776489257812e+00 -1.185017466545104980e+00 3.705552518367767334e-01 -2.443386614322662354e-01 -6.121345162391662598e-01
2.167000000000000000e+03 6.096639251708984375e+01 9.452548980712890625e+00 4.572178125381469727e-01 3.202898263931274414e+00 1.098034858703613281e+00 -1.058698773384094238e+00
2.168000000000000000e+03 5.724343109130859375e+01 -6.501658916473388672e+00 -2.186739444732666016e+00 -2.909506559371948242e-01 -7.433070540428161621e-01 -7.885243892669677734e-01
2.169000000000000000e+03 2.305543899536132812e+01 -1.086645317077636719e+01 -2.915781497955322266e+00 1.293217658996582031e+00 -4.867691099643707275e-01 -4.411553144454956055e-01
2.170000000000000000e+03 6.879237365722656250e+01 3.217028045654296875e+01 1.879127621650695801e-01 4.782967090606689453e+00 1.491263985633850098e+00 -2.981320917606353760e-01
2.171000000000000000e+03 6.180571365356445312e+01 -3.068728065490722656e+01 -3.770343661308288574e-01 2.410132884979248047e+00 6.099295020103454590e-01 3.605497777462005615e-01
2.172000000000000000e+03 5.659672927856445312e+01 -2.197073459625244141e+00 -4.402041733264923096e-01 1.436088979244232178e-01 -8.897858113050460815e-02 -4.862686693668365479e-01
2.173000000000000000e+03 3.119536590576171875e+01 1.510678291320800781e+01 1.605459749698638916e-01 2.067686796188354492e+00 6.684698462486267090e-01 1.076791763305664062e+00
2.174000000000000000e+03 4.303385925292968750e+01 2.884650468826293945e+00 8.546690940856933594e-01 2.556495368480682373e-01 3.330955803394317627e-01 7.193179428577423096e-02
2.175000000000000000e+03 4.541429138183593750e+01 2.967461109161376953e+00 7.966179251670837402e-01 2.100981771945953369e-01 3.020148277282714844e-01 2.599103748798370361e-02
2.176000000000000000e+03 5.734006881713867188e+01 -3.152968025207519531e+01 -3.621383607387542725e-01 4.418739378452301025e-01 2.392067946493625641e-02 -8.492131531238555908e-02
2.177000000000000000e+03 1.103565216064453125e+01 -3.292383956909179688e+01 -4.614916145801544189e-01 2.076980590820312500e+00 4.846466779708862305e-01 1.180957853794097900e-01
2.178000000000000000e+03 1.458386039733886719e+01 -3.263705825805664062e+01 -4.278540313243865967e-01 1.642157196998596191e+00 3.642909526824951172e-01 -1.010106056928634644e-01
2.179000000000000000e+03 4.043929672241210938e+01 2.163356208801269531e+01 5.635068416595458984e-01 1.951734423637390137e+00 7.545723915100097656e-01 6.526455879211425781e-01
2.180000000000000000e+03 4.244607162475585938e+01 2.091022682189941406e+01 6.698506474494934082e-01 1.964604258537292480e+00 7.903364896774291992e-01 7.762552499771118164e-01
2.181000000000000000e+03 6.383689880371093750e+01 -2.804514646530151367e+00 -4.456198215484619141e-02 1.601805567741394043e+00 4.671730697154998779e-01 -2.925073862075805664e+00
2.182000000000000000e+03 6.002328491210937500e+01 -1.856455564498901367e+00 -1.811474263668060303e-01 4.506238698959350586e-01 8.084293454885482788e-02 -1.139178872108459473e+00
2.183000000000000000e+03 4.312248229980468750e+01 1.969802856445312500e+01 6.960574984550476074e-01 1.986993908882141113e+00 8.049154281616210938e-01 7.965672016143798828e-01
2.184000000000000000e+03 7.100286102294921875e+01 -1.908004760742187500e+01 -8.249810338020324707e-01 1.033172893524169922e+01 2.852024316787719727e+00 -9.828751683235168457e-01
2.185000000000000000e+03 5.624208831787109375e+01 2.132932472229003906e+01 6.019899249076843262e-01 2.794984579086303711e+00 1.019092321395874023e+00 -7.192654609680175781e-01
2.186000000000000000e+03 5.524842834472656250e+01 2.503403854370117188e+01 7.145515084266662598e-01 2.589622259140014648e+00 9.912521243095397949e-01 -5.145679116249084473e-01
2.187000000000000000e+03 2.875234985351562500e+01 -1.316923332214355469e+01 -2.949381828308105469e+00 6.055171489715576172e-01 -7.031593918800354004e-01 -3.863137960433959961e-01
2.188000000000000000e+03 3.211252975463867188e+01 -1.227616977691650391e+01 -2.107953548431396484e+00 4.751045107841491699e-01 -4.898547530174255371e-01 -6.010445356369018555e-01
2.189000000000000000e+03 7.294939422607421875e+01 -1.980281257629394531e+01 -6.208242774009704590e-01 9.909928321838378906e+00 2.786731243133544922e+00 -1.308156609535217285e+00
2.190000000000000000e+03 4.759868621826171875e+01 -4.126154327392578125e+01 2.045595347881317139e-01 -4.520086050033569336e-01 -7.423471659421920776e-02 -6.692410260438919067e-02
2.191000000000000000e+03 8.707442283630371094e+00 1.294241333007812500e+01 3.691242933273315430e-01 5.695571899414062500e-01 2.816044390201568604e-01 -1.217542514204978943e-01
2.192000000000000000e+03 4.529732131958007812e+01 2.391568374633789062e+01 7.811809778213500977e-01 1.683012485504150391e+00 7.392580509185791016e-01 6.175495982170104980e-01
2.193000000000000000e+03 3.825331878662109375e+01 7.316026210784912109e+00 8.581777811050415039e-01 1.151807188987731934e+00 6.029955148696899414e-01 6.631290912628173828e-01
2.194000000000000000e+03 6.116109085083007812e+01 1.464404296875000000e+01 7.025698423385620117e-01 3.573372840881347656e+00 1.282782793045043945e+00 -9.379959702491760254e-01
2.195000000000000000e+03 7.195135116577148438e+00 -2.877864074707031250e+01 -5.703609585762023926e-01 2.496647357940673828e+00 5.778859257698059082e-01 5.907208323478698730e-01
2.196000000000000000e+03 3.948555374145507812e+01 -3.806774139404296875e+01 -2.637737393379211426e-01 -2.477094680070877075e-01 -1.534449607133865356e-01 -9.758569300174713135e-02
2.197000000000000000e+03 7.432633972167968750e+01 7.860735654830932617e-01 -7.713112831115722656e-01 8.218232154846191406e+00 2.234076261520385742e+00 1.073229685425758362e-01
2.198000000000000000e+03 7.258587646484375000e+01 2.046579742431640625e+01 1.275750547647476196e-01 5.711322307586669922e+00 1.751669287681579590e+00 -5.389361381530761719e-01
2.199000000000000000e+03 7.248551940917968750e+01 7.858359813690185547e+00 -2.042071074247360229e-01 6.659992218017578125e+00 1.936735510826110840e+00 -8.266592025756835938e-01
2.200000000000000000e+03 7.178332519531250000e+01 1.060983085632324219e+01 -1.227358821779489517e-02 6.159513950347900391e+00 1.844172120094299316e+00 -8.839967846870422363e-01
2.201000000000000000e+03 7.118400573730468750e+01 2.817296600341796875e+01 1.401385515928268433e-01 5.197758674621582031e+00 1.601369261741638184e+00 -3.703304231166839600e-01
2.202000000000000000e+03 7.241020202636718750e+01 2.909856224060058594e+01 1.142918840050697327e-01 5.339254856109619141e+00 1.636064052581787109e+00 -3.091383576393127441e-01
2.203000000000000000e+03 5.839347839355468750e+01 2.035823822021484375e+01 5.384279489517211914e-01 3.289903879165649414e+00 1.148499608039855957e+00 -6.542658209800720215e-01
2.204000000000000000e+03 7.199589538574218750e+01 -2.173711204528808594e+01 -9.444924592971801758e-01 9.482936859130859375e+00 2.561533451080322266e+00 -8.735394477844238281e-01
2.205000000000000000e+03 2.659186744689941406e+01 2.201756095886230469e+01 -2.741141244769096375e-02 1.106628060340881348e+00 3.237650096416473389e-01 1.523327082395553589e-01
2.206000000000000000e+03 1.057124710083007812e+01 -2.867166328430175781e+01 -6.608276367187500000e-01 2.478505373001098633e+00 5.453032851219177246e-01 1.830832213163375854e-01
2.207000000000000000e+03 8.278505325317382812e+00 -2.538307952880859375e+01 -8.991546630859375000e-01 3.252002239227294922e+00 7.058542966842651367e-01 6.476603746414184570e-01
2.208000000000000000e+03 1.351138782501220703e+01 -4.872043609619140625e+00 3.335889577865600586e+00 -8.200939893722534180e-01 7.547386884689331055e-01 2.786373615264892578e+00
2.209000000000000000e+03 1.432281589508056641e+01 -5.346290111541748047e+00 4.447486400604248047e+00 -9.149524569511413574e-01 1.059760212898254395e+00 3.436574220657348633e+00
2.210000000000000000e+03 1.834848213195800781e+01 -4.061512649059295654e-01 4.218170940876007080e-01 4.392951965332031250e+00 1.444430708885192871e+00 -4.451566934585571289e-01
2.211000000000000000e+03 1.502750396728515625e+01 -5.004887104034423828e+00 5.542318820953369141e+00 -8.584476113319396973e-01 1.405161380767822266e+00 3.272755384445190430e+00
2.212000000000000000e+03 1.150641536712646484e+01 -5.325319290161132812e+00 1.368440747261047363e+00 2.945041656494140625e-01 4.988834559917449951e-01 2.738771677017211914e+00
2.213000000000000000e+03 1.221720314025878906e+01 -5.380065441131591797e+00 1.868834853172302246e+00 6.309779733419418335e-02 5.795797705650329590e-01 3.137502431869506836e+00
2.214000000000000000e+03 1.581927585601806641e+01 -6.201195716857910156e+00 4.520078659057617188e+00 8.535842299461364746e-01 1.612098813056945801e+00 4.960060596466064453e+00
2.215000000000000000e+03 1.481217575073242188e+01 -4.344381332397460938e+00 5.229896545410156250e+00 -1.074908256530761719e+00 1.246496438980102539e+00 2.090347051620483398e+00
2.216000000000000000e+03 2.243447494506835938e+01 -2.241491317749023438e+00 4.799347877502441406e+00 2.502029418945312500e+00 2.190413236618041992e+00 3.227560997009277344e+00
2.217000000000000000e+03 5.616600036621093750e+00 8.080151557922363281e+00 2.252154201269149780e-01 -9.133613854646682739e-02 4.016378149390220642e-02 2.784456908702850342e-01
2.218000000000000000e+03 1.954323196411132812e+01 3.027676939964294434e-01 5.109772086143493652e-01 4.097365379333496094e+00 1.382502675056457520e+00 1.128449440002441406e+00
2.219000000000000000e+03 7.922379016876220703e+00 -7.533555030822753906e+00 -1.022777795791625977e+00 3.663813829421997070e+00 7.923107743263244629e-01 9.778614044189453125e-01
2.220000000000000000e+03 1.503589916229248047e+01 -6.398772239685058594e+00 3.860533237457275391e+00 -2.340955883264541626e-01 1.087931275367736816e+00 4.718345165252685547e+00
2.221000000000000000e+03 1.534000873565673828e+01 -5.871439456939697266e+00 5.001201152801513672e+00 -7.571749389171600342e-02 1.477645158767700195e+00 4.454860210418701172e+00
2.222000000000000000e+03 1.781577873229980469e+01 -8.389424324035644531e+00 -9.160367399454116821e-02 2.504370212554931641e+00 7.238299846649169922e-01 2.806204557418823242e+00
2.223000000000000000e+03 6.750671863555908203e+00 6.913125991821289062e+00 2.231311798095703125e-01 5.697428807616233826e-02 8.403164148330688477e-02 3.369623720645904541e-01
2.224000000000000000e+03 1.144526290893554688e+01 -6.099472999572753906e+00 1.080031752586364746e+00 8.472318649291992188e-01 5.781790614128112793e-01 3.515792846679687500e+00
2.225000000000000000e+03 9.593413352966308594e+00 -5.124145984649658203e+00 -6.506798416376113892e-02 1.449663162231445312e+00 4.153785407543182373e-01 1.774310827255249023e+00
2.226000000000000000e+03 7.633861064910888672e+00 -6.570342063903808594e+00 -8.132774829864501953e-01 2.763921976089477539e+00 5.851933360099792480e-01 7.431899309158325195e-01
2.227000000000000000e+03 8.787027359008789062e+00 6.361514568328857422e+00 2.363511621952056885e-01 3.370923697948455811e-01 1.720330566167831421e-01 2.694460451602935791e-01
2.228000000000000000e+03 9.338193893432617188e+00 9.942616462707519531e+00 5.290800929069519043e-01 6.693318486213684082e-01 3.595235943794250488e-01 3.486501425504684448e-02
2.229000000000000000e+03 2.207140350341796875e+01 5.641326308250427246e-01 1.514525532722473145e+00 3.112962484359741211e+00 1.388246417045593262e+00 3.185103893280029297e+00
2.230000000000000000e+03 2.156001853942871094e+01 1.139497876167297363e+00 9.043906331062316895e-01 3.046983957290649414e+00 1.185412406921386719e+00 2.777662038803100586e+00
2.231000000000000000e+03 2.324515342712402344e+01 1.133123397827148438e+00 1.280086398124694824e+00 2.862717151641845703e+00 1.242841005325317383e+00 3.133669614791870117e+00
2.232000000000000000e+03 6.698474884033203125e+00 1.278883647918701172e+01 2.834167778491973877e-01 1.498739719390869141e-01 1.299872249364852905e-01 -6.451096385717391968e-02
2.233000000000000000e+03 1.892443466186523438e+01 1.442342996597290039e+00 -3.455428034067153931e-02 2.532263517379760742e+00 7.493127584457397461e-01 7.285714149475097656e-02
2.234000000000000000e+03 1.948028564453125000e+01 1.160394310951232910e+00 1.893067508935928345e-01 2.934075593948364258e+00 9.370146989822387695e-01 7.796643376350402832e-01
2.235000000000000000e+03 3.613130569458007812e+01 1.186273193359375000e+01 8.164140582084655762e-01 1.630531311035156250e+00 7.340835928916931152e-01 1.206375241279602051e+00
2.236000000000000000e+03 3.030721855163574219e+01 1.037693119049072266e+01 9.942365884780883789e-01 2.316075086593627930e+00 9.930934906005859375e-01 1.549989581108093262e+00
2.237000000000000000e+03 1.060065078735351562e+01 7.520581722259521484e+00 4.606897234916687012e-01 8.935009837150573730e-01 4.062572121620178223e-01 1.225025206804275513e-01
2.238000000000000000e+03 1.071801948547363281e+01 -7.764650821685791016e+00 -4.691417142748832703e-02 2.389498472213745117e+00 7.027752995491027832e-01 4.042846679687500000e+00
2.239000000000000000e+03 2.561453056335449219e+01 2.136668443679809570e+00 1.167328119277954102e+00 2.976011276245117188e+00 1.243001818656921387e+00 2.421387195587158203e+00
2.240000000000000000e+03 2.132388687133789062e+01 -7.742793560028076172e+00 1.157017827033996582e+00 2.880481719970703125e+00 1.211249828338623047e+00 -6.546975374221801758e-01
2.241000000000000000e+03 1.966258049011230469e+01 -8.250162124633789062e+00 -8.601010590791702271e-02 3.241777658462524414e+00 9.467302560806274414e-01 6.011028885841369629e-01
2.242000000000000000e+03 3.332767486572265625e+01 -9.721326828002929688e+00 -1.091512441635131836e+00 4.031385779380798340e-01 -2.065121680498123169e-01 -6.392679810523986816e-01
2.243000000000000000e+03 1.123199939727783203e+01 5.632026195526123047e+00 1.283575743436813354e-01 9.102756977081298828e-01 3.115899860858917236e-01 5.095452442765235901e-02
2.244000000000000000e+03 1.144677543640136719e+01 6.997619152069091797e+00 3.814870715141296387e-01 1.091267347335815430e+00 4.418263137340545654e-01 3.517480567097663879e-02
2.245000000000000000e+03 2.261060714721679688e+01 8.641623258590698242e-01 1.368101477622985840e+00 3.017828226089477539e+00 1.315778851509094238e+00 3.165754079818725586e+00
2.246000000000000000e+03 6.747495651245117188e+00 -9.174966812133789062e+00 -2.456575781106948853e-01 4.064975738525390625e+00 1.145795464515686035e+00 -5.363416075706481934e-01
2.247000000000000000e+03 1.139541149139404297e+01 -6.884978294372558594e+00 9.579963684082031250e-01 9.715070128440856934e-01 5.788509845733642578e-01 4.004991531372070312e+00
2.248000000000000000e+03 1.162003421783447266e+01 -8.424757003784179688e+00 2.659278213977813721e-01 1.706068396568298340e+00 5.915988683700561523e-01 5.203925132751464844e+00
2.249000000000000000e+03 4.315897369384765625e+01 -1.127589988708496094e+01 -1.732788324356079102e+00 1.314359307289123535e-01 -4.804057478904724121e-01 -6.444247961044311523e-01
2.250000000000000000e+03 3.873188018798828125e+01 -1.088162326812744141e+01 -1.550704717636108398e+00 2.601171433925628662e-01 -3.871762752532958984e-01 -6.040713787078857422e-01
2.251000000000000000e+03 7.233229064941406250e+01 -2.555602455139160156e+01 -8.358455300331115723e-01 8.793518066406250000e+00 2.387301683425903320e+00 -5.074328780174255371e-01
2.252000000000000000e+03 7.232569122314453125e+01 -2.369934844970703125e+01 -8.744408488273620605e-01 9.095980644226074219e+00 2.466461896896362305e+00 -7.333856225013732910e-01
2.253000000000000000e+03 2.440746688842773438e+01 5.736015439033508301e-01 1.747657895088195801e+00 2.657046556472778320e+00 1.321411371231079102e+00 2.932962894439697266e+00
2.254000000000000000e+03 2.397089958190917969e+01 1.429404735565185547e+00 1.194421291351318359e+00 2.988623380661010742e+00 1.254913449287414551e+00 3.046624183654785156e+00
2.255000000000000000e+03 1.087115097045898438e+01 6.291328907012939453e+00 2.582395970821380615e-01 8.545703887939453125e-01 3.338429927825927734e-01 1.035188212990760803e-01
2.256000000000000000e+03 3.718594741821289062e+01 5.136798858642578125e+00 1.059702277183532715e+00 9.282773733139038086e-01 5.963938832283020020e-01 6.212716698646545410e-01
2.257000000000000000e+03 9.539985656738281250e+00 1.085814666748046875e+01 5.429877042770385742e-01 7.394716739654541016e-01 3.847378194332122803e-01 -9.036729112267494202e-03
2.258000000000000000e+03 9.720780372619628906e+00 1.182726764678955078e+01 4.986388087272644043e-01 8.169839978218078613e-01 3.946868479251861572e-01 -8.401460200548171997e-02
2.259000000000000000e+03 1.393824768066406250e+01 -8.165475845336914062e+00 1.308632373809814453e+00 -7.299033403396606445e-01 1.736187338829040527e-01 5.229188919067382812e+00
2.260000000000000000e+03 1.552122974395751953e+01 -8.595597267150878906e+00 6.253764629364013672e-01 -9.736797958612442017e-02 1.584025472402572632e-01 4.597789287567138672e+00
2.261000000000000000e+03 4.633996582031250000e+01 -1.008645725250244141e+01 -1.690420508384704590e+00 4.951719939708709717e-02 -4.922710061073303223e-01 -6.569603681564331055e-01
2.262000000000000000e+03 4.846615982055664062e+01 -8.992319107055664062e+00 -1.670161724090576172e+00 1.096610259264707565e-02 -4.977587163448333740e-01 -6.329578161239624023e-01
2.263000000000000000e+03 2.390255737304687500e+01 -5.404337406158447266e+00 3.681345462799072266e+00 1.133897542953491211e+00 1.444572925567626953e+00 1.293669044971466064e-01
2.264000000000000000e+03 3.657186126708984375e+01 -1.110783958435058594e+01 -1.588535308837890625e+00 3.230975270271301270e-01 -3.796313405036926270e-01 -6.160438060760498047e-01
2.265000000000000000e+03 3.436056518554687500e+01 -1.232444477081298828e+01 -1.992308855056762695e+00 3.959339857101440430e-01 -4.789124429225921631e-01 -5.926330685615539551e-01
2.266000000000000000e+03 7.231533813476562500e+01 1.536549663543701172e+01 1.127365007996559143e-01 5.957218170166015625e+00 1.820986509323120117e+00 -7.179360985755920410e-01
2.267000000000000000e+03 4.289550018310546875e+01 -1.012240314483642578e+01 -1.518567681312561035e+00 1.522269695997238159e-01 -4.099022150039672852e-01 -6.006215810775756836e-01
2.268000000000000000e+03 4.774919986724853516e+00 7.603916168212890625e+00 1.553211957216262817e-01 -1.969081014394760132e-01 -1.247607357800006866e-02 2.908095717430114746e-01
2.269000000000000000e+03 3.052314186096191406e+01 7.499322414398193359e+00 1.534973025321960449e+00 2.077421426773071289e+00 1.083718299865722656e+00 1.401676297187805176e+00
2.270000000000000000e+03 5.827410507202148438e+01 5.393791675567626953e+00 5.418449640274047852e-01 1.770274400711059570e+00 6.936358213424682617e-01 -6.840864419937133789e-01
2.271000000000000000e+03 2.510260581970214844e+01 -5.038703441619873047e+00 3.017383098602294922e+00 8.245806694030761719e-01 1.152589082717895508e+00 3.002326488494873047e-01
2.272000000000000000e+03 9.982387542724609375e+00 1.501594543457031250e+01 2.213503718376159668e-01 8.919864296913146973e-01 3.340010344982147217e-01 -1.696430146694183350e-01
2.273000000000000000e+03 2.140760993957519531e+01 -1.080161380767822266e+01 -3.231618642807006836e+00 1.342486619949340820e+00 -5.667396187782287598e-01 1.017816811800003052e-01
2.274000000000000000e+03 2.357705307006835938e+01 -9.293890953063964844e+00 -7.734366059303283691e-01 1.406178116798400879e+00 1.898224353790283203e-01 -9.051311612129211426e-01
2.275000000000000000e+03 7.311093139648437500e+01 6.357418537139892578e+00 -3.325183689594268799e-01 7.038786888122558594e+00 2.011880397796630859e+00 -7.184115648269653320e-01
2.276000000000000000e+03 4.421601867675781250e+01 -1.096998786926269531e+01 -1.723773837089538574e+00 1.013874858617782593e-01 -4.867159128189086914e-01 -6.560657620429992676e-01
2.277000000000000000e+03 3.721548461914062500e+01 8.406458854675292969e+00 9.185423254966735840e-01 1.315538167953491211e+00 6.702241301536560059e-01 8.929761052131652832e-01
2.278000000000000000e+03 1.010365104675292969e+01 8.770715713500976562e+00 5.447787642478942871e-01 8.427196145057678223e-01 4.162495136260986328e-01 7.322518527507781982e-02
2.279000000000000000e+03 5.256043243408203125e+01 -6.819884300231933594e+00 -1.641521573066711426e+00 -6.603009998798370361e-02 -5.122655034065246582e-01 -5.516965389251708984e-01
2.280000000000000000e+03 4.893131637573242188e+01 -7.240569114685058594e+00 -1.374610781669616699e+00 3.276285901665687561e-02 -4.025543630123138428e-01 -4.987303912639617920e-01
2.281000000000000000e+03 3.437595367431640625e+01 -1.357175064086914062e+01 -2.352456331253051758e+00 3.746564984321594238e-01 -5.933399200439453125e-01 -5.150301456451416016e-01
2.282000000000000000e+03 7.307601928710937500e+01 -2.251509094238281250e+01 -8.319596648216247559e-01 9.331337928771972656e+00 2.549813508987426758e+00 -1.085198521614074707e+00
2.283000000000000000e+03 7.280236053466796875e+01 3.600888013839721680e+00 -6.517784595489501953e-01 7.464686393737792969e+00 2.043872356414794922e+00 -6.665711402893066406e-01
2.284000000000000000e+03 7.225803375244140625e+01 6.596141457557678223e-01 -1.137710690498352051e+00 8.315461158752441406e+00 2.153325080871582031e+00 -4.510725140571594238e-01
2.285000000000000000e+03 7.301589965820312500e+01 -1.480436474084854126e-01 -1.105877518653869629e+00 8.528881072998046875e+00 2.226901054382324219e+00 -1.275184005498886108e-01
2.286000000000000000e+03 7.157574462890625000e+01 -4.225707054138183594e+00 -1.180726289749145508e+00 1.098983383178710938e+01 2.942732334136962891e+00 4.271701276302337646e-01
2.287000000000000000e+03 2.040294456481933594e+01 -8.597581863403320312e+00 -4.591702520847320557e-01 2.803969383239746094e+00 7.034397125244140625e-01 2.974124997854232788e-02
2.288000000000000000e+03 6.856689453125000000e+01 -2.415617370605468750e+01 -1.144367337226867676e+00 7.527982234954833984e+00 1.915084481239318848e+00 2.238943129777908325e-01
2.289000000000000000e+03 7.309088134765625000e+01 -2.473073005676269531e+01 -8.087109923362731934e-01 9.091462135314941406e+00 2.484825372695922852e+00 -7.712684273719787598e-01
2.290000000000000000e+03 7.170773983001708984e+00 2.254042625427246094e+01 -1.164563596248626709e-01 2.355710268020629883e-01 3.573440015316009521e-02 -8.381040394306182861e-02
2.291000000000000000e+03 2.519094467163085938e+01 -1.110292911529541016e+01 -2.383552789688110352e+00 9.958599209785461426e-01 -4.163078963756561279e-01 -6.818661093711853027e-01
2.292000000000000000e+03 1.050783634185791016e+01 -6.929536342620849609e+00 1.099705621600151062e-01 2.039663076400756836e+00 6.448900699615478516e-01 3.503234863281250000e+00
2.293000000000000000e+03 7.145276641845703125e+01 1.730665206909179688e+01 1.705224812030792236e-01 5.650639533996582031e+00 1.746348619461059570e+00 -7.064868211746215820e-01
2.294000000000000000e+03 7.151248168945312500e+01 1.244470787048339844e+01 7.820899039506912231e-02 5.887608051300048828e+00 1.789745092391967773e+00 -8.833178877830505371e-01
2.295000000000000000e+03 2.294254684448242188e+01 -6.783419132232666016e+00 2.619711875915527344e+00 1.653676152229309082e+00 1.282016396522521973e+00 -7.281680107116699219e-01
2.296000000000000000e+03 1.107943248748779297e+01 8.367717742919921875e+00 6.203191876411437988e-01 1.117931604385375977e+00 5.214752554893493652e-01 1.065133605152368546e-02
2.297000000000000000e+03 2.799170494079589844e+01 4.166996002197265625e+00 1.435498356819152832e+00 2.700290203094482422e+00 1.240736603736877441e+00 1.427785277366638184e+00
2.298000000000000000e+03 7.759592533111572266e+00 -9.568787574768066406e+00 -8.652153611183166504e-01 6.549645900726318359e+00 1.705329060554504395e+00 -1.251727044582366943e-01
2.299000000000000000e+03 7.283433437347412109e+00 -2.552858924865722656e+01 -7.489127516746520996e-01 2.904501914978027344e+00 6.466767787933349609e-01 8.206794857978820801e-01
2.300000000000000000e+03 8.453586578369140625e+00 1.822119903564453125e+01 -3.416969627141952515e-02 5.278855562210083008e-01 1.481147557497024536e-01 -1.652244776487350464e-01
2.301000000000000000e+03 6.761307239532470703e+00 1.614537811279296875e+01 9.724850207567214966e-02 2.244146168231964111e-01 9.649893641471862793e-02 -1.816253662109375000e-01
2.302000000000000000e+03 1.142964363098144531e+01 -2.595033264160156250e+01 -6.432430744171142578e-01 2.836676359176635742e+00 6.580299735069274902e-01 -1.792376488447189331e-01
2.303000000000000000e+03 2.698617935180664062e+01 1.541698694229125977e+00 1.482757210731506348e+00 2.401546239852905273e+00 1.165290951728820801e+00 1.988595724105834961e+00
2.304000000000000000e+03 9.878989219665527344e+00 1.725011825561523438e+01 -5.275660660117864609e-03 8.062542080879211426e-01 2.402935624122619629e-01 -1.485832482576370239e-01
2.305000000000000000e+03 4.527433395385742188e+01 -1.057308673858642578e+01 -1.701433300971984863e+00 7.778033614158630371e-02 -4.870958924293518066e-01 -6.573606729507446289e-01
2.306000000000000000e+03 5.739842605590820312e+01 2.931835889816284180e+00 5.189254283905029297e-01 1.018866062164306641e+00 4.613374471664428711e-01 -5.791556835174560547e-01
2.307000000000000000e+03 6.303263664245605469e+00 -7.905088901519775391e+00 -5.478869676589965820e-01 2.858248949050903320e+00 6.931086182594299316e-01 -7.025170326232910156e-01
2.308000000000000000e+03 3.705938339233398438e+01 7.307103633880615234e+00 9.772124290466308594e-01 1.206563234329223633e+00 6.551327109336853027e-01 8.156001567840576172e-01
2.309000000000000000e+03 6.294669151306152344e+00 8.401727676391601562e+00 2.778048515319824219e-01 -2.500663744285702705e-03 8.259125798940658569e-02 2.518780827522277832e-01
2.310000000000000000e+03 6.642872333526611328e+00 7.905010700225830078e+00 2.703543603420257568e-01 3.531024232506752014e-02 9.169938415288925171e-02 2.795323729515075684e-01
2.311000000000000000e+03 5.954592895507812500e+01 1.798473930358886719e+01 6.807531714439392090e-01 3.430784940719604492e+00 1.233461380004882812e+00 -6.651456952095031738e-01
2.312000000000000000e+03 8.543752670288085938e+00 1.196155548095703125e+01 4.262934625148773193e-01 5.205151438713073730e-01 2.840425670146942139e-01 -4.618152976036071777e-02
2.313000000000000000e+03 1.234053134918212891e+01 1.866856765747070312e+01 -1.992574632167816162e-01 1.095756769180297852e+00 2.689498066902160645e-01 8.469824492931365967e-02
2.314000000000000000e+03 1.085372352600097656e+01 1.984059715270996094e+01 -1.865483075380325317e-01 8.190734982490539551e-01 1.897575557231903076e-01 6.591733108507469296e-05
2.315000000000000000e+03 5.807363891601562500e+01 -2.623759984970092773e+00 -5.753245949745178223e-01 1.437417715787887573e-01 -1.294748485088348389e-01 -6.749364733695983887e-01
2.316000000000000000e+03 1.193508720397949219e+01 3.084913825988769531e+01 -2.265468239784240723e-02 3.403787910938262939e-01 9.531722962856292725e-02 1.157448515295982361e-01
2.317000000000000000e+03 5.753330612182617188e+01 7.224580764770507812e+00 5.073090791702270508e-01 1.997104287147521973e+00 7.513239979743957520e-01 -4.831981062889099121e-01
2.318000000000000000e+03 5.430846786499023438e+01 -5.275479793548583984e+00 -1.337974309921264648e+00 -5.646071583032608032e-02 -4.183304905891418457e-01 -4.615235924720764160e-01
2.319000000000000000e+03 5.236550903320312500e+01 1.160471916198730469e+00 4.258366823196411133e-01 2.032942026853561401e-01 1.887392699718475342e-01 -1.477291584014892578e-01
2.320000000000000000e+03 4.677870178222656250e+01 1.221044898033142090e+00 5.260204076766967773e-01 1.851514726877212524e-01 2.133515775203704834e-01 -2.013404108583927155e-02
2.321000000000000000e+03 7.089235687255859375e+01 1.973969650268554688e+01 1.929654628038406372e-01 5.442542552947998047e+00 1.690652489662170410e+00 -6.412833333015441895e-01
2.322000000000000000e+03 7.156348228454589844e+00 1.018366718292236328e+01 3.692820668220520020e-01 1.767796128988265991e-01 1.638184934854507446e-01 9.343095868825912476e-02
2.323000000000000000e+03 6.429386138916015625e+01 -1.592803955078125000e+00 -2.756767868995666504e-01 2.884182929992675781e+00 7.825518250465393066e-01 -3.068645477294921875e+00
2.324000000000000000e+03 6.265956878662109375e+01 -2.130743265151977539e+00 -1.471946239471435547e-01 1.090790033340454102e+00 2.830786406993865967e-01 -2.198215246200561523e+00
2.325000000000000000e+03 2.797292518615722656e+01 -1.190322780609130859e+01 -2.427231550216674805e+00 7.041579484939575195e-01 -5.169220566749572754e-01 -6.028152108192443848e-01
2.326000000000000000e+03 2.570137786865234375e+01 -9.618179321289062500e+00 -9.080801606178283691e-01 9.573561549186706543e-01 1.478280313313007355e-02 -9.257634282112121582e-01
2.327000000000000000e+03 7.244198608398437500e+01 -2.878744697570800781e+01 -4.981432855129241943e-01 8.419673919677734375e+00 2.376459121704101562e+00 -2.287000864744186401e-01
2.328000000000000000e+03 6.794212341308593750e+01 -3.037013244628906250e+01 -5.574898719787597656e-01 6.059670448303222656e+00 1.650654196739196777e+00 3.048607707023620605e-01
2.329000000000000000e+03 7.382594299316406250e+01 -1.892638587951660156e+01 -3.985323309898376465e-01 9.913544654846191406e+00 2.854503631591796875e+00 -1.586205601692199707e+00
2.330000000000000000e+03 7.171651458740234375e+01 -1.998182678222656250e+01 -7.854776382446289062e-01 9.980798721313476562e+00 2.758596420288085938e+00 -9.503634572029113770e-01
2.331000000000000000e+03 5.197285461425781250e+01 -2.303776979446411133e+00 -4.183585941791534424e-01 7.620250433683395386e-02 -1.026468276977539062e-01 -2.145967036485671997e-01
2.332000000000000000e+03 5.312834548950195312e+01 1.705918312072753906e+00 5.038472414016723633e-01 2.759081721305847168e-01 2.339266240596771240e-01 -1.716036051511764526e-01
2.333000000000000000e+03 4.028686141967773438e+01 3.584216117858886719e+00 8.845887184143066406e-01 5.066170096397399902e-01 4.173617064952850342e-01 2.225760519504547119e-01
2.334000000000000000e+03 3.841146087646484375e+01 1.739931488037109375e+01 7.914170622825622559e-01 1.863184928894042969e+00 7.963805794715881348e-01 8.534972667694091797e-01
2.335000000000000000e+03 4.597197723388671875e+01 1.547172784805297852e+00 5.697946548461914062e-01 1.884406656026840210e-01 2.274705916643142700e-01 2.702253498136997223e-02
2.336000000000000000e+03 4.920537948608398438e+01 7.346540689468383789e-01 3.944671750068664551e-01 1.618065983057022095e-01 1.668821275234222412e-01 -6.319758296012878418e-02
2.337000000000000000e+03 4.740317153930664062e+01 -9.547334671020507812e+00 -1.682992577552795410e+00 3.690958023071289062e-02 -4.938248693943023682e-01 -6.464607119560241699e-01
2.338000000000000000e+03 4.748788833618164062e+01 -1.284925222396850586e+00 4.675338044762611389e-02 1.244900599122047424e-01 5.137303099036216736e-02 -8.445731550455093384e-02
2.339000000000000000e+03 3.138665962219238281e+01 1.363402938842773438e+01 3.843985795974731445e-01 2.132204294204711914e+00 7.549808621406555176e-01 1.291437506675720215e+00
2.340000000000000000e+03 3.077197265625000000e+01 1.178677368164062500e+01 6.934078335762023926e-01 2.237878799438476562e+00 8.793859481811523438e-01 1.475656867027282715e+00
2.341000000000000000e+03 7.289342498779296875e+01 -2.724697875976562500e+01 -6.473538875579833984e-01 8.776766777038574219e+00 2.438823938369750977e+00 -4.014812409877777100e-01
2.342000000000000000e+03 6.829954528808593750e+01 2.890674972534179688e+01 2.189443111419677734e-01 4.791928768157958984e+00 1.503261923789978027e+00 -4.070977866649627686e-01
2.343000000000000000e+03 7.234558105468750000e+01 2.171736335754394531e+01 1.467087119817733765e-01 5.607878208160400391e+00 1.726376056671142578e+00 -5.007375478744506836e-01
2.344000000000000000e+03 2.996889686584472656e+01 -1.217378711700439453e+01 -2.266622066497802734e+00 5.763918161392211914e-01 -5.070691108703613281e-01 -5.946214795112609863e-01
2.345000000000000000e+03 3.216312026977539062e+01 -1.103672599792480469e+01 -1.623591661453247070e+00 4.504075050354003906e-01 -3.519552648067474365e-01 -6.448867917060852051e-01
2.346000000000000000e+03 6.386202239990234375e+01 1.067482566833496094e+01 3.899562358856201172e-01 3.963926792144775391e+00 1.306164860725402832e+00 -1.230379462242126465e+00
2.347000000000000000e+03 7.320523071289062500e+01 -2.592732429504394531e+01 -6.130650043487548828e-01 8.937331199645996094e+00 2.497279882431030273e+00 -5.955606102943420410e-01
2.348000000000000000e+03 7.018363952636718750e+01 4.110635817050933838e-02 -1.326621294021606445e+00 7.927303314208984375e+00 1.980204582214355469e+00 -1.256732344627380371e+00
2.349000000000000000e+03 7.320440673828125000e+01 9.111994504928588867e-01 -9.262768626213073730e-01 8.223624229431152344e+00 2.189204216003417969e+00 -2.338108420372009277e-01
2.350000000000000000e+03 5.625917434692382812e+01 -5.524492263793945312e+00 -1.627260804176330566e+00 -1.662233620882034302e-01 -5.380452871322631836e-01 -5.934000611305236816e-01
2.351000000000000000e+03 5.411965942382812500e+01 2.256904363632202148e+00 5.536716580390930176e-01 4.245618581771850586e-01 2.934700548648834229e-01 -2.210560590028762817e-01
2.352000000000000000e+03 7.142288208007812500e+01 -2.709492683410644531e+00 -1.571790695190429688e+00 1.001701354980468750e+01 2.533566713333129883e+00 -3.870803117752075195e-01
2.353000000000000000e+03 8.038815498352050781e+00 -1.992123031616210938e+01 -5.405707359313964844e-01 5.801064968109130859e+00 1.578148245811462402e+00 7.598571181297302246e-01
2.354000000000000000e+03 3.971657180786132812e+01 1.772004890441894531e+01 8.554070591926574707e-01 1.929969072341918945e+00 8.356128334999084473e-01 7.806308269500732422e-01
2.355000000000000000e+03 9.429814338684082031e+00 -2.672984886169433594e+01 -7.893242835998535156e-01 2.918023824691772461e+00 6.386098861694335938e-01 3.414202630519866943e-01
2.356000000000000000e+03 6.695176696777343750e+01 -1.385238647460937500e+00 -1.222614049911499023e+00 6.220072746276855469e+00 1.499237537384033203e+00 -2.929829597473144531e+00
2.357000000000000000e+03 7.193106079101562500e+01 -6.923997879028320312e+00 9.065155386924743652e-01 1.193096923828125000e+01 3.851245403289794922e+00 1.115950345993041992e+00
2.358000000000000000e+03 7.311572265625000000e+01 -6.902403354644775391e+00 1.004572391510009766e+00 1.029323863983154297e+01 3.389343261718750000e+00 1.155514955520629883e+00
2.359000000000000000e+03 7.334631347656250000e+01 7.468575477600097656e+00 -2.143701910972595215e-01 6.892253398895263672e+00 2.003364801406860352e+00 -7.113377451896667480e-01
2.360000000000000000e+03 7.034648895263671875e+01 -2.189058494567871094e+01 -1.119877815246582031e+00 9.139135360717773438e+00 2.405777454376220703e+00 -3.554772436618804932e-01
2.361000000000000000e+03 6.958972167968750000e+01 -2.521087265014648438e+01 -1.061456918716430664e+00 7.684205055236816406e+00 1.986824393272399902e+00 -2.933176606893539429e-02
2.362000000000000000e+03 5.937754058837890625e+01 7.606657028198242188e+00 4.631436467170715332e-01 2.525836706161499023e+00 8.966940641403198242e-01 -8.809999823570251465e-01
2.363000000000000000e+03 6.180272293090820312e+01 1.054840278625488281e+01 4.790715575218200684e-01 3.475569486618041992e+00 1.186392307281494141e+00 -1.140789270401000977e+00
2.364000000000000000e+03 7.605897903442382812e+00 -2.752312278747558594e+01 -6.885617375373840332e-01 2.664469480514526367e+00 5.927723050117492676e-01 6.575430631637573242e-01
2.365000000000000000e+03 9.424270629882812500e+00 -2.536913108825683594e+01 -8.009022474288940430e-01 3.242259263992309570e+00 7.324070930480957031e-01 2.284256070852279663e-01
2.366000000000000000e+03 7.653000354766845703e+00 1.396108341217041016e+01 2.637653648853302002e-01 3.745769560337066650e-01 1.915026903152465820e-01 -1.379825025796890259e-01
2.367000000000000000e+03 9.864588737487792969e+00 1.285992240905761719e+01 4.278443753719329834e-01 8.784180879592895508e-01 3.918787240982055664e-01 -1.159945726394653320e-01
2.368000000000000000e+03 7.161746215820312500e+01 1.426644325256347656e+01 1.229888275265693665e-01 5.838747501373291016e+00 1.788520932197570801e+00 -8.034695386886596680e-01
2.369000000000000000e+03 7.071057891845703125e+01 1.150298690795898438e+01 5.564993619918823242e-02 5.817327499389648438e+00 1.761893153190612793e+00 -9.597966074943542480e-01
2.370000000000000000e+03 6.803493499755859375e+01 -3.436128234863281250e+01 -1.592833548784255981e-01 5.883569240570068359e+00 1.717285752296447754e+00 3.121846914291381836e-01
2.371000000000000000e+03 3.065806388854980469e+01 1.830975723266601562e+01 -5.009618028998374939e-02 1.807213902473449707e+00 5.271353125572204590e-01 6.195976734161376953e-01
2.372000000000000000e+03 7.106378173828125000e+01 -2.088056564331054688e+01 -1.027381777763366699e+00 9.535284042358398438e+00 2.552370786666870117e+00 -8.254213929176330566e-01
2.373000000000000000e+03 2.779985046386718750e+01 1.991878509521484375e+01 -1.958747357130050659e-01 1.423932552337646484e+00 3.684173524379730225e-01 2.416150420904159546e-01
2.374000000000000000e+03 2.970800399780273438e+01 1.886302757263183594e+01 -1.191026270389556885e-01 1.726171374320983887e+00 4.821206033229827881e-01 4.870953559875488281e-01
2.375000000000000000e+03 7.012976074218750000e+01 1.842073822021484375e+01 2.268739789724349976e-01 5.325350761413574219e+00 1.665667414665222168e+00 -7.171847224235534668e-01
2.376000000000000000e+03 9.044641494750976562e+00 -2.813102340698242188e+01 -7.053229808807373047e-01 2.707147598266601562e+00 6.005473732948303223e-01 3.527563512325286865e-01
2.377000000000000000e+03 5.527364730834960938e+01 -4.461173057556152344e+00 -1.171197533607482910e+00 -4.415174201130867004e-02 -3.646048009395599365e-01 -4.519290924072265625e-01
2.378000000000000000e+03 6.039938735961914062e+01 -8.531418442726135254e-01 6.203512661159038544e-03 8.337453603744506836e-01 2.519846558570861816e-01 -1.358898043632507324e+00
2.379000000000000000e+03 5.327933883666992188e+01 2.579503250122070312e+01 8.134816884994506836e-01 2.272315263748168945e+00 9.257391095161437988e-01 -3.526204228401184082e-01
2.380000000000000000e+03 5.126721954345703125e+01 2.529394721984863281e+01 9.352131485939025879e-01 1.831971526145935059e+00 8.301553726196289062e-01 -1.758348792791366577e-01
2.381000000000000000e+03 9.310663223266601562e+00 -3.176779937744140625e+01 -4.849736392498016357e-01 2.233068227767944336e+00 5.244283676147460938e-01 2.826898694038391113e-01
2.382000000000000000e+03 4.174317550659179688e+01 2.618652582168579102e+00 8.137096762657165527e-01 3.254235982894897461e-01 3.417399823665618896e-01 1.200452744960784912e-01
2.383000000000000000e+03 1.025751876831054688e+01 3.349990463256835938e+01 3.214198397472500801e-03 2.176494598388671875e-01 6.625910103321075439e-02 7.538786530494689941e-02
2.384000000000000000e+03 9.894251823425292969e+00 -2.368063735961914062e+01 -7.513535618782043457e-01 3.725439310073852539e+00 8.922257423400878906e-01 -5.388683453202247620e-02
2.385000000000000000e+03 9.277089118957519531e+00 3.013234329223632812e+01 -4.425717890262603760e-02 2.189454436302185059e-01 5.240648239850997925e-02 6.750345975160598755e-02
2.386000000000000000e+03 9.400199890136718750e+00 -3.464733886718750000e+01 -3.409512042999267578e-01 2.046626567840576172e+00 5.117026567459106445e-01 1.830485612154006958e-01
2.387000000000000000e+03 7.143486022949218750e+00 -3.582362365722656250e+01 -2.408399134874343872e-01 2.146541118621826172e+00 5.717104077339172363e-01 2.092753201723098755e-01
2.388000000000000000e+03 5.263504028320312500e+01 -5.337553977966308594e+00 -1.260379195213317871e+00 -1.119924150407314301e-02 -3.814735412597656250e-01 -4.231566786766052246e-01
2.389000000000000000e+03 3.755643081665039062e+01 -9.926746368408203125e+00 -1.285657882690429688e+00 2.863456904888153076e-01 -2.997936606407165527e-01 -5.923563241958618164e-01
2.390000000000000000e+03 3.887554550170898438e+01 -1.209448146820068359e+01 -1.830010294914245605e+00 2.621690332889556885e-01 -4.703523814678192139e-01 -6.165009737014770508e-01
2.391000000000000000e+03 6.241203308105468750e+01 1.365794277191162109e+01 5.961805582046508789e-01 3.750000476837158203e+00 1.303854346275329590e+00 -1.007558941841125488e+00
2.392000000000000000e+03 6.206260681152343750e+01 1.821992111206054688e+01 5.959380269050598145e-01 3.795451641082763672e+00 1.317416906356811523e+00 -7.298303246498107910e-01
2.393000000000000000e+03 7.043160247802734375e+01 -2.988753318786621094e+01 -5.781278610229492188e-01 7.469000339508056641e+00 2.067261695861816406e+00 8.862374722957611084e-02
2.394000000000000000e+03 3.128553771972656250e+01 8.290466308593750000e+00 1.404137372970581055e+00 1.817025303840637207e+00 9.663488268852233887e-01 1.408874154090881348e+00
2.395000000000000000e+03 6.980583190917968750e+01 2.712222480773925781e+01 1.930646449327468872e-01 5.037733554840087891e+00 1.569239377975463867e+00 -4.308893978595733643e-01
2.396000000000000000e+03 1.216623687744140625e+01 2.004194641113281250e+01 -2.536377906799316406e-01 9.270737171173095703e-01 2.020307779312133789e-01 1.267713308334350586e-01
2.397000000000000000e+03 8.947681427001953125e+00 2.201030731201171875e+01 -1.645303368568420410e-01 4.571342766284942627e-01 8.778118342161178589e-02 -3.774180635809898376e-02
2.398000000000000000e+03 5.408495712280273438e+01 3.246424496173858643e-01 2.234062552452087402e-01 2.622691988945007324e-01 1.457026302814483643e-01 -2.570166289806365967e-01
2.399000000000000000e+03 9.363614082336425781e+00 2.496570777893066406e+01 -1.391907036304473877e-01 3.755823075771331787e-01 7.091747969388961792e-02 4.244950413703918457e-02
2.400000000000000000e+03 1.053392505645751953e+01 2.923450469970703125e+01 -6.146492436528205872e-02 3.088398575782775879e-01 7.421248406171798706e-02 1.003022119402885437e-01
2.401000000000000000e+03 7.267019653320312500e+01 -1.310638070106506348e+00 -1.289459705352783203e+00 9.139495849609375000e+00 2.355010747909545898e+00 -6.712499260902404785e-02
2.402000000000000000e+03 2.615717506408691406e+01 2.015697669982910156e+01 -1.920060962438583374e-01 1.123637914657592773e+00 2.794895172119140625e-01 1.140293553471565247e-01
2.403000000000000000e+03 8.061679840087890625e+00 -2.637987136840820312e+01 -7.900222539901733398e-01 2.959706068038940430e+00 6.509051918983459473e-01 6.059519648551940918e-01
2.404000000000000000e+03 6.991646575927734375e+01 2.998291587829589844e+01 1.790663599967956543e-01 4.980376720428466797e+00 1.547832965850830078e+00 -3.473277390003204346e-01
2.405000000000000000e+03 3.611604309082031250e+01 9.534159660339355469e+00 9.466740489006042480e-01 1.470468401908874512e+00 7.251427173614501953e-01 1.106779217720031738e+00
2.406000000000000000e+03 3.595115661621093750e+01 8.472109794616699219e+00 1.035114765167236328e+00 1.400564670562744141e+00 7.307038307189941406e-01 1.054031610488891602e+00
2.407000000000000000e+03 1.808437156677246094e+01 2.101541900634765625e+01 -1.098459884524345398e-01 5.397252440452575684e-01 1.289637833833694458e-01 5.703442692756652832e-01
2.408000000000000000e+03 5.791128540039062500e+01 2.214098739624023438e+01 5.777686834335327148e-01 3.226932764053344727e+00 1.141410470008850098e+00 -6.769617795944213867e-01
2.409000000000000000e+03 2.096807479858398438e+01 2.084675979614257812e+01 1.157151907682418823e-02 2.328704744577407837e-01 7.333259284496307373e-02 3.519891500473022461e-01
2.410000000000000000e+03 2.523701286315917969e+01 2.268993377685546875e+01 2.903514169156551361e-02 8.879222273826599121e-01 2.750872075557708740e-01 1.442383527755737305e-01
2.411000000000000000e+03 7.104381561279296875e+01 3.270315551757812500e+01 1.286433041095733643e-01 5.077945232391357422e+00 1.561976552009582520e+00 -2.447789460420608521e-01
2.412000000000000000e+03 2.998735046386718750e+01 1.280996227264404297e+01 3.779356181621551514e-01 2.251218318939208984e+00 7.887461781501770020e-01 1.334012508392333984e+00
2.413000000000000000e+03 6.037950038909912109e+00 -2.276663017272949219e+01 -7.819148302078247070e-01 3.157368898391723633e+00 7.126362323760986328e-01 1.341757893562316895e+00
2.414000000000000000e+03 2.027581214904785156e+01 2.029956626892089844e+01 -8.949603885412216187e-03 2.113689482212066650e-01 6.072580069303512573e-02 4.578889012336730957e-01
2.415000000000000000e+03 1.574736118316650391e+01 2.176694869995117188e+01 -2.078891247510910034e-01 7.446766495704650879e-01 1.610362529754638672e-01 4.523292183876037598e-01
2.416000000000000000e+03 1.696171760559082031e+01 2.567425346374511719e+01 -2.268970012664794922e-02 5.838986039161682129e-01 1.683626621961593628e-01 3.386078178882598877e-01
2.417000000000000000e+03 3.661010742187500000e+01 1.398464679718017578e+01 7.319278717041015625e-01 1.743872046470642090e+00 7.427399754524230957e-01 1.139128684997558594e+00
2.418000000000000000e+03 3.493454360961914062e+01 1.078046512603759766e+01 9.354077577590942383e-01 1.603912353515625000e+00 7.617959976196289062e-01 1.263187289237976074e+00
2.419000000000000000e+03 6.980173110961914062e+00 3.780164718627929688e+01 1.872744970023632050e-02 -1.512864109827205539e-04 5.572848953306674957e-03 3.217232972383499146e-02
2.420000000000000000e+03 2.014325904846191406e+01 -7.650337815284729004e-01 1.763847708702087402e+00 5.165603160858154297e+00 2.078835248947143555e+00 2.759456634521484375e+00
2.421000000000000000e+03 1.981561279296875000e+01 -2.346442788839340210e-01 9.724304080009460449e-01 4.794629573822021484e+00 1.730117917060852051e+00 1.854726910591125488e+00
2.422000000000000000e+03 1.853250885009765625e+01 5.955098867416381836e-01 2.216866165399551392e-01 3.306140661239624023e+00 1.058348178863525391e+00 -2.346689999103546143e-01
2.423000000000000000e+03 1.882943344116210938e+01 -1.156777501106262207e+00 8.244056105613708496e-01 6.249789237976074219e+00 2.122258424758911133e+00 6.239185333251953125e-01
2.424000000000000000e+03 1.845474815368652344e+01 -6.563965678215026855e-01 5.212640166282653809e-01 4.969025611877441406e+00 1.647086977958679199e+00 -2.831550240516662598e-01
2.425000000000000000e+03 1.840007400512695312e+01 1.417281746864318848e+00 -1.222016587853431702e-01 2.393903493881225586e+00 6.815105676651000977e-01 -4.292703866958618164e-01
2.426000000000000000e+03 1.916950988769531250e+01 7.163560390472412109e-01 2.847911417484283447e-01 3.544343233108520508e+00 1.148740291595458984e+00 5.455633997917175293e-01
2.427000000000000000e+03 2.059176635742187500e+01 -1.221336483955383301e+00 2.883293390274047852e+00 5.065291404724121094e+00 2.384575366973876953e+00 3.530896902084350586e+00
2.428000000000000000e+03 2.193781661987304688e+01 -1.449630379676818848e+00 3.679341316223144531e+00 3.293362617492675781e+00 2.091811180114746094e+00 3.572618246078491211e+00
2.429000000000000000e+03 1.404466247558593750e+01 -7.089094638824462891e+00 2.624050617218017578e+00 -5.205509066581726074e-01 6.310499310493469238e-01 5.020635604858398438e+00
2.430000000000000000e+03 1.554629611968994141e+01 -6.794933319091796875e+00 3.580484390258789062e+00 4.929014742374420166e-01 1.222015738487243652e+00 4.823676586151123047e+00
2.431000000000000000e+03 1.453296089172363281e+01 -6.170900344848632812e+00 3.937308073043823242e+00 -5.870160460472106934e-01 1.005087614059448242e+00 4.501425743103027344e+00
2.432000000000000000e+03 2.000006484985351562e+01 6.837144494056701660e-01 5.624583959579467773e-01 3.620974779129028320e+00 1.255029916763305664e+00 1.603377938270568848e+00
2.433000000000000000e+03 2.319695091247558594e+01 -3.051966905593872070e+00 4.791211605072021484e+00 1.667875170707702637e+00 1.937725901603698730e+00 2.123803853988647461e+00
2.434000000000000000e+03 9.923741340637207031e+00 -5.719852924346923828e+00 2.277868837118148804e-01 1.451329469680786133e+00 5.037348866462707520e-01 2.402961015701293945e+00
2.435000000000000000e+03 9.286571502685546875e+00 -6.126530647277832031e+00 -3.084707856178283691e-01 2.188135385513305664e+00 5.638993382453918457e-01 2.142383575439453125e+00
2.436000000000000000e+03 2.163221168518066406e+01 1.825948655605316162e-01 1.691448926925659180e+00 3.417641639709472656e+00 1.532727122306823730e+00 3.150909662246704102e+00
2.437000000000000000e+03 7.180453300476074219e+00 7.579700946807861328e+00 3.050752580165863037e-01 1.334481984376907349e-01 1.315570324659347534e-01 2.859505116939544678e-01
2.438000000000000000e+03 1.354023551940917969e+01 -5.402239322662353516e+00 3.316469907760620117e+00 -7.110648155212402344e-01 7.816215157508850098e-01 3.398001670837402344e+00
2.439000000000000000e+03 1.677328491210937500e+01 -9.465793609619140625e+00 -1.511004805564880371e+00 3.889169394969940186e-01 -3.366263508796691895e-01 3.304250717163085938e+00
2.440000000000000000e+03 2.109519767761230469e+01 6.528963446617126465e-01 1.089883804321289062e+00 3.391845226287841797e+00 1.344518661499023438e+00 2.747361660003662109e+00
2.441000000000000000e+03 1.461284923553466797e+01 -6.746068954467773438e+00 3.292332649230957031e+00 -4.060520231723785400e-01 8.658842444419860840e-01 4.690741062164306641e+00
2.442000000000000000e+03 1.291251087188720703e+01 -7.962413787841796875e+00 1.168395757675170898e+00 1.871929764747619629e-01 4.066766202449798584e-01 5.634496688842773438e+00
2.443000000000000000e+03 1.497028255462646484e+01 -8.238648414611816406e+00 1.163091897964477539e+00 -3.804659545421600342e-01 2.347877770662307739e-01 4.913722515106201172e+00
2.444000000000000000e+03 9.319488525390625000e+00 7.123375892639160156e+00 3.627030551433563232e-01 5.220599174499511719e-01 2.654289007186889648e-01 2.198238372802734375e-01
2.445000000000000000e+03 7.203671932220458984e+00 8.257557868957519531e+00 3.447073101997375488e-01 1.647769212722778320e-01 1.528452634811401367e-01 2.282102108001708984e-01
2.446000000000000000e+03 8.244573593139648438e+00 1.013104057312011719e+01 4.596589207649230957e-01 4.019078314304351807e-01 2.584700286388397217e-01 7.873027771711349487e-02
2.447000000000000000e+03 3.891607284545898438e+01 3.187176704406738281e+00 9.322971105575561523e-01 6.063013076782226562e-01 4.615795314311981201e-01 3.239398002624511719e-01
2.448000000000000000e+03 3.852263259887695312e+01 5.486738204956054688e+00 9.623990654945373535e-01 8.676036596298217773e-01 5.490007996559143066e-01 5.083981156349182129e-01
2.449000000000000000e+03 2.899027061462402344e+01 -8.938757896423339844e+00 -5.525408983230590820e-01 5.371675491333007812e-01 -4.611998796463012695e-03 -7.202534675598144531e-01
2.450000000000000000e+03 3.326298904418945312e+01 -1.103642368316650391e+01 -1.610046386718750000e+00 4.284944236278533936e-01 -3.544656038284301758e-01 -6.436687111854553223e-01
2.451000000000000000e+03 2.370710945129394531e+01 -6.071847915649414062e+00 3.220864057540893555e+00 1.241044759750366211e+00 1.338572621345520020e+00 -3.307391405105590820e-01
2.452000000000000000e+03 2.287769699096679688e+01 -5.992810726165771484e+00 3.698022842407226562e+00 1.661696910858154297e+00 1.607915878295898438e+00 -3.561694025993347168e-01
2.453000000000000000e+03 7.126866149902343750e+01 2.526186406612396240e-01 -1.273841142654418945e+00 8.243530273437500000e+00 2.090906858444213867e+00 -9.148229360580444336e-01
2.454000000000000000e+03 7.188396453857421875e+01 1.950862884521484375e+00 -9.757809638977050781e-01 7.737137794494628906e+00 2.028407096862792969e+00 -8.169700503349304199e-01
2.455000000000000000e+03 2.297386741638183594e+01 1.741398572921752930e-01 1.976024746894836426e+00 2.865884065628051758e+00 1.452572584152221680e+00 3.280668735504150391e+00
2.456000000000000000e+03 2.159806060791015625e+01 -9.600419044494628906e+00 -1.543551802635192871e+00 1.968600511550903320e+00 1.275146305561065674e-01 -4.316409230232238770e-01
2.457000000000000000e+03 5.178079605102539062e+01 2.908223271369934082e-01 2.589027583599090576e-01 1.761974990367889404e-01 1.305300742387771606e-01 -1.432076543569564819e-01
2.458000000000000000e+03 5.319662857055664062e+01 7.614704370498657227e-01 3.240803182125091553e-01 2.443929016590118408e-01 1.705419719219207764e-01 -1.966870725154876709e-01
2.459000000000000000e+03 9.389060020446777344e+00 -7.896213054656982422e+00 -7.170385122299194336e-01 3.749832630157470703e+00 9.098382592201232910e-01 2.966184377670288086e+00
2.460000000000000000e+03 2.608798789978027344e+01 1.226438403129577637e+00 1.494730234146118164e+00 2.550730466842651367e+00 1.213638186454772949e+00 2.303061485290527344e+00
2.461000000000000000e+03 1.009869384765625000e+01 6.730737686157226562e+00 3.374949693679809570e-01 6.805741786956787109e-01 3.054207563400268555e-01 1.659265905618667603e-01
2.462000000000000000e+03 3.979287719726562500e+01 -1.070986652374267578e+01 -1.537548184394836426e+00 2.394935041666030884e-01 -3.894163966178894043e-01 -6.028825640678405762e-01
2.463000000000000000e+03 4.187689971923828125e+01 -1.031595134735107422e+01 -1.518733859062194824e+00 1.822540760040283203e-01 -4.009439647197723389e-01 -6.001562476158142090e-01
2.464000000000000000e+03 7.983877182006835938e+00 -8.558273315429687500e+00 -1.048392176628112793e+00 5.114070415496826172e+00 1.219703435897827148e+00 1.063843011856079102e+00
2.465000000000000000e+03 3.397060775756835938e+01 1.070965194702148438e+01 9.443645477294921875e-01 1.767183065414428711e+00 8.134642839431762695e-01 1.347274661064147949e+00
2.466000000000000000e+03 4.783331680297851562e+01 -7.856035709381103516e+00 -1.416607141494750977e+00 6.433388590812683105e-02 -4.056819975376129150e-01 -5.275411605834960938e-01
2.467000000000000000e+03 4.582894134521484375e+01 -9.059338569641113281e+00 -1.483853220939636230e+00 9.338522702455520630e-02 -4.171403944492340088e-01 -5.730259418487548828e-01
2.468000000000000000e+03 7.145118713378906250e+01 5.646872997283935547e+00 -4.663230478763580322e-01 6.795506000518798828e+00 1.898754835128784180e+00 -9.692671895027160645e-01
2.469000000000000000e+03 7.040154457092285156e+00 -8.358928680419921875e+00 -8.619474172592163086e-01 4.295777320861816406e+00 1.030148983001708984e+00 -3.654996454715728760e-01
2.470000000000000000e+03 3.009766578674316406e+01 -1.104149723052978516e+01 -1.701446413993835449e+00 5.568727254867553711e-01 -3.433721065521240234e-01 -6.896254420280456543e-01
2.471000000000000000e+03 9.107871055603027344e+00 9.062248229980468750e+00 5.143125653266906738e-01 5.600855946540832520e-01 3.223194479942321777e-01 1.155264899134635925e-01
2.472000000000000000e+03 4.712894821166992188e+01 -6.714080810546875000e+00 -1.125249147415161133e+00 9.336719661951065063e-02 -3.095645904541015625e-01 -4.190457165241241455e-01
2.473000000000000000e+03 5.003696823120117188e+01 -6.863354206085205078e+00 -1.373055458068847656e+00 3.630730137228965759e-02 -4.010244309902191162e-01 -4.799682796001434326e-01
2.474000000000000000e+03 3.027861404418945312e+01 4.918618202209472656e+00 1.568257093429565430e+00 1.977733850479125977e+00 1.063797235488891602e+00 1.176148891448974609e+00
2.475000000000000000e+03 3.113839721679687500e+01 6.476645469665527344e+00 1.557880759239196777e+00 1.817972183227539062e+00 1.012755870819091797e+00 1.252970337867736816e+00
2.476000000000000000e+03 3.275584411621093750e+01 1.526371860504150391e+01 3.673585653305053711e-01 1.962911844253540039e+00 6.990811228752136230e-01 1.133093595504760742e+00
2.477000000000000000e+03 7.175806522369384766e+00 9.414593696594238281e+00 3.991759121417999268e-01 1.728962212800979614e-01 1.716216355562210083e-01 1.573389470577239990e-01
2.478000000000000000e+03 6.587948608398437500e+01 -9.015693664550781250e-01 -6.656332015991210938e-01 4.783070087432861328e+00 1.235231041908264160e+00 -3.064171314239501953e+00
2.479000000000000000e+03 6.902805328369140625e+01 -2.197402715682983398e+00 -1.842226982116699219e+00 8.766913414001464844e+00 2.077405929565429688e+00 -2.209247589111328125e+00
2.480000000000000000e+03 7.072122192382812500e+01 -2.606682777404785156e+01 -9.335903525352478027e-01 8.143870353698730469e+00 2.163083791732788086e+00 -2.185110002756118774e-01
2.481000000000000000e+03 6.831884765625000000e+01 -2.800928115844726562e+01 -8.130190968513488770e-01 6.508666038513183594e+00 1.708694100379943848e+00 2.020520120859146118e-01
2.482000000000000000e+03 7.047831726074218750e+01 -2.394895553588867188e+01 -1.079443812370300293e+00 8.531147956848144531e+00 2.235511302947998047e+00 -2.965261638164520264e-01
2.483000000000000000e+03 2.457854080200195312e+01 -9.097755432128906250e+00 -5.039221048355102539e-01 1.180285930633544922e+00 2.029091566801071167e-01 -9.461712241172790527e-01
2.484000000000000000e+03 3.825708770751953125e+01 6.426269531250000000e+00 9.338157773017883301e-01 9.860851168632507324e-01 5.759702920913696289e-01 5.730586647987365723e-01
2.485000000000000000e+03 3.319102096557617188e+01 4.469110965728759766e+00 1.392614841461181641e+00 1.321409463882446289e+00 8.142072558403015137e-01 9.415455460548400879e-01
2.486000000000000000e+03 2.163027572631835938e+01 2.554949188232421875e+01 1.229016110301017761e-01 6.267661452293395996e-01 2.249003350734710693e-01 2.589150369167327881e-01
2.487000000000000000e+03 7.146479797363281250e+01 3.332995891571044922e+00 -7.367865443229675293e-01 7.217522621154785156e+00 1.944220900535583496e+00 -8.874852061271667480e-01
2.488000000000000000e+03 5.454716491699218750e+01 -3.294845342636108398e+00 -7.481718659400939941e-01 3.269065171480178833e-02 -2.146443575620651245e-01 -3.541021943092346191e-01
2.489000000000000000e+03 4.794913482666015625e+01 -5.102362155914306641e+00 -7.907097935676574707e-01 9.587732702493667603e-02 -2.084497362375259399e-01 -3.090278506278991699e-01
2.490000000000000000e+03 2.847469902038574219e+01 3.155062913894653320e+00 1.422964930534362793e+00 2.411465883255004883e+00 1.150329232215881348e+00 1.455825567245483398e+00
2.491000000000000000e+03 5.095531463623046875e+01 -6.484375476837158203e+00 -1.398869514465332031e+00 4.007427953183650970e-03 -4.184586405754089355e-01 -4.570136368274688721e-01
2.492000000000000000e+03 7.168707275390625000e+01 8.658582687377929688e+00 -1.363217532634735107e-01 6.303042411804199219e+00 1.850016236305236816e+00 -9.359595179557800293e-01
2.493000000000000000e+03 3.663726425170898438e+01 -1.230180835723876953e+01 -1.900260448455810547e+00 3.256332874298095703e-01 -4.723881483078002930e-01 -6.005638837814331055e-01
2.494000000000000000e+03 3.549061965942382812e+01 -1.111251544952392578e+01 -1.588389158248901367e+00 3.542939722537994385e-01 -3.702285587787628174e-01 -6.196796298027038574e-01
2.495000000000000000e+03 5.732469558715820312e+01 1.713464498519897461e+00 3.938504457473754883e-01 7.828227877616882324e-01 3.530019521713256836e-01 -6.359884142875671387e-01
2.496000000000000000e+03 5.900515747070312500e+01 3.635468244552612305e+00 4.844353795051574707e-01 1.590966463088989258e+00 6.226205825805664062e-01 -9.162133336067199707e-01
2.497000000000000000e+03 1.010390186309814453e+01 2.693554687500000000e+01 -1.108284220099449158e-01 3.523324728012084961e-01 7.245121151208877563e-02 8.362901955842971802e-02
2.498000000000000000e+03 2.402909088134765625e+01 -7.419113636016845703e+00 1.523844718933105469e+00 1.246356487274169922e+00 8.310603499412536621e-01 -8.081161379814147949e-01
2.499000000000000000e+03 2.435458564758300781e+01 -1.059615707397460938e+01 -2.020357608795166016e+00 1.205614805221557617e+00 -2.444228082895278931e-01 -7.701966166496276855e-01
2.500000000000000000e+03 2.652982711791992188e+01 2.485119581222534180e+00 1.200580954551696777e+00 2.892003059387207031e+00 1.227775216102600098e+00 2.004664659500122070e+00
2.501000000000000000e+03 3.765233612060546875e+01 -1.103130435943603516e+01 -1.572552084922790527e+00 2.994796037673950195e-01 -3.819217383861541748e-01 -6.109678149223327637e-01
2.502000000000000000e+03 4.485985565185546875e+01 -9.568417549133300781e+00 -1.507418870925903320e+00 1.036023646593093872e-01 -4.211449325084686279e-01 -5.929068922996520996e-01
2.503000000000000000e+03 2.540600395202636719e+01 -3.240181446075439453e+00 3.255970239639282227e+00 1.085220694541931152e+00 1.302357316017150879e+00 1.421218037605285645e+00
2.504000000000000000e+03 1.019755268096923828e+01 -8.280129432678222656e+00 -8.810683488845825195e-01 3.646407127380371094e+00 8.296016454696655273e-01 3.884994268417358398e+00
2.505000000000000000e+03 3.335999679565429688e+01 1.831901931762695312e+01 2.256353497505187988e-01 1.866619825363159180e+00 6.276765465736389160e-01 7.795374989509582520e-01
2.506000000000000000e+03 2.729253959655761719e+01 -1.069138813018798828e+01 -1.719372868537902832e+00 7.612431645393371582e-01 -2.874389290809631348e-01 -7.970255613327026367e-01
2.507000000000000000e+03 2.654001998901367188e+01 -8.809203147888183594e+00 -2.393432557582855225e-01 7.904298305511474609e-01 1.653259694576263428e-01 -8.339869976043701172e-01
2.508000000000000000e+03 7.072511196136474609e+00 2.052622604370117188e+01 -8.687721937894821167e-02 2.592520713806152344e-01 5.171245709061622620e-02 -1.386457681655883789e-01
2.509000000000000000e+03 4.418634796142578125e+01 1.874499201774597168e+00 7.105649113655090332e-01 1.936438679695129395e-01 2.712626159191131592e-01 3.087257780134677887e-02
2.510000000000000000e+03 1.611353302001953125e+01 2.300395774841308594e+01 -1.270536482334136963e-01 6.685337424278259277e-01 1.624440252780914307e-01 4.224052727222442627e-01
2.511000000000000000e+03 5.703464126586914062e+01 -7.117187380790710449e-01 -4.900700226426124573e-02 3.612138330936431885e-01 9.366204589605331421e-02 -5.588862895965576172e-01
2.512000000000000000e+03 5.659192657470703125e+01 3.679290115833282471e-01 1.726517230272293091e-01 4.204384088516235352e-01 1.779270321130752563e-01 -5.502558350563049316e-01
2.513000000000000000e+03 8.652443885803222656e+00 1.712570381164550781e+01 2.647290006279945374e-02 5.794520974159240723e-01 1.817775070667266846e-01 -1.783952713012695312e-01
2.514000000000000000e+03 5.994665527343750000e+01 2.091279792785644531e+01 5.712134242057800293e-01 3.523876190185546875e+00 1.228526949882507324e+00 -6.829891800880432129e-01
2.515000000000000000e+03 3.773900985717773438e+01 1.947621726989746094e+01 5.455076694488525391e-01 1.888529062271118164e+00 7.302110195159912109e-01 7.036397457122802734e-01
2.516000000000000000e+03 3.506166839599609375e+01 2.042957305908203125e+01 3.294711410999298096e-01 1.825758099555969238e+00 6.465687751770019531e-01 6.377676129341125488e-01
2.517000000000000000e+03 5.227699279785156250e+01 -1.205349087715148926e+00 -9.314851462841033936e-02 1.133355498313903809e-01 6.056110374629497528e-03 -2.098159343004226685e-01
2.518000000000000000e+03 4.754006195068359375e+01 5.243058800697326660e-01 4.040338099002838135e-01 1.435766071081161499e-01 1.642831265926361084e-01 -1.682972721755504608e-02
2.519000000000000000e+03 2.200372886657714844e+01 -1.036997795104980469e+01 -2.441550970077514648e+00 1.625703930854797363e+00 -2.447540760040283203e-01 -3.541828989982604980e-01
2.520000000000000000e+03 7.030207824707031250e+01 -1.189448356628417969e+00 -1.597638249397277832e+00 8.722238540649414062e+00 2.137380123138427734e+00 -1.331904172897338867e+00
2.521000000000000000e+03 9.739323616027832031e+00 1.840863227844238281e+01 -8.082567155361175537e-02 7.421629428863525391e-01 1.984011828899383545e-01 -1.196212321519851685e-01
2.522000000000000000e+03 8.148374557495117188e+00 2.050785255432128906e+01 -1.159733831882476807e-01 4.231784939765930176e-01 9.216153621673583984e-02 -1.179583370685577393e-01
2.523000000000000000e+03 6.006028366088867188e+01 8.522739410400390625e+00 4.554186761379241943e-01 2.857711553573608398e+00 9.939390420913696289e-01 -9.815719127655029297e-01
2.524000000000000000e+03 9.044257164001464844e+00 -2.268266105651855469e+01 -8.823479413986206055e-01 4.358504295349121094e+00 1.042846918106079102e+00 1.413652002811431885e-01
2.525000000000000000e+03 6.312637710571289062e+01 -9.719133973121643066e-01 6.105112656950950623e-02 1.987248063087463379e+00 6.144897341728210449e-01 -2.376766204833984375e+00
2.526000000000000000e+03 4.083806610107421875e+01 -1.052669143676757812e+01 -1.517274975776672363e+00 2.127127945423126221e-01 -3.913686573505401611e-01 -5.959060192108154297e-01
2.527000000000000000e+03 3.145041275024414062e+01 9.473156929016113281e+00 1.177509427070617676e+00 2.004801988601684570e+00 9.546934366226196289e-01 1.470060110092163086e+00
2.528000000000000000e+03 7.054161071777343750e+01 1.515092849731445312e+01 1.858525276184082031e-01 5.553351402282714844e+00 1.721761226654052734e+00 -8.339096307754516602e-01
2.529000000000000000e+03 7.679443836212158203e+00 1.498325729370117188e+01 1.840332150459289551e-01 4.042732715606689453e-01 1.764919459819793701e-01 -1.726817488670349121e-01
2.530000000000000000e+03 3.907476806640625000e+01 2.068041038513183594e+01 5.251606702804565430e-01 1.927394986152648926e+00 7.357667088508605957e-01 6.403989195823669434e-01
2.531000000000000000e+03 3.677628326416015625e+01 2.087430381774902344e+01 4.162378907203674316e-01 1.855784654617309570e+00 6.816067695617675781e-01 6.317730545997619629e-01
2.532000000000000000e+03 5.615161132812500000e+01 1.603681206703186035e+00 4.187186956405639648e-01 5.969243645668029785e-01 3.046929240226745605e-01 -4.417624771595001221e-01
2.533000000000000000e+03 2.820809745788574219e+01 -1.084391498565673828e+01 -1.706609368324279785e+00 6.864849328994750977e-01 -3.060373365879058838e-01 -7.620938420295715332e-01
2.534000000000000000e+03 3.290482330322265625e+01 -7.961100578308105469e+00 -4.351267516613006592e-01 3.833566606044769287e-01 -1.553102117031812668e-02 -5.279310941696166992e-01
2.535000000000000000e+03 6.328421020507812500e+01 -3.207018661499023438e+01 -2.594061195850372314e-01 3.284956693649291992e+00 9.076651930809020996e-01 3.831439018249511719e-01
2.536000000000000000e+03 6.431209564208984375e+01 -3.015973663330078125e+01 -5.176627635955810547e-01 4.048585414886474609e+00 1.059276700019836426e+00 4.415295422077178955e-01
2.537000000000000000e+03 5.563311386108398438e+01 -2.737799644470214844e+00 -6.265853643417358398e-01 5.169340968132019043e-02 -1.724675893783569336e-01 -4.338680505752563477e-01
2.538000000000000000e+03 7.146967315673828125e+01 2.095760345458984375e+01 1.756005734205245972e-01 5.473325729370117188e+00 1.694677948951721191e+00 -5.633575916290283203e-01
2.539000000000000000e+03 6.945261383056640625e+01 2.076834297180175781e+01 2.465772628784179688e-01 5.118952274322509766e+00 1.609658837318420410e+00 -6.537581086158752441e-01
2.540000000000000000e+03 2.914104080200195312e+01 -1.096262359619140625e+01 -1.703709959983825684e+00 6.122644543647766113e-01 -3.274336457252502441e-01 -7.202631831169128418e-01
2.541000000000000000e+03 3.075527954101562500e+01 -8.940093994140625000e+00 -6.345594525337219238e-01 4.552915394306182861e-01 -5.378037318587303162e-02 -6.654596924781799316e-01
2.542000000000000000e+03 7.002220153808593750e+01 2.443264007568359375e+01 2.000969350337982178e-01 5.139498710632324219e+00 1.601878762245178223e+00 -5.086264014244079590e-01
2.543000000000000000e+03 6.891931915283203125e+01 2.318835258483886719e+01 2.460008859634399414e-01 4.986669540405273438e+00 1.569801211357116699e+00 -5.761516094207763672e-01
2.544000000000000000e+03 3.505314636230468750e+01 1.829776573181152344e+01 4.088028669357299805e-01 1.854961276054382324e+00 6.791292428970336914e-01 8.188086152076721191e-01
2.545000000000000000e+03 3.506789779663085938e+01 9.056407928466796875e+00 1.044662475585937500e+00 1.504940390586853027e+00 7.648808360099792480e-01 1.150123476982116699e+00
2.546000000000000000e+03 3.196949005126953125e+01 1.240224552154541016e+01 6.678966283798217773e-01 2.002324581146240234e+00 8.010663390159606934e-01 1.408367753028869629e+00
2.547000000000000000e+03 1.085114955902099609e+01 -2.711430740356445312e+01 -6.998968124389648438e-01 2.771493911743164062e+00 6.214790940284729004e-01 -2.179336547851562500e-02
2.548000000000000000e+03 6.925236511230468750e+01 -2.893274497985839844e+01 -7.288853526115417480e-01 7.075870513916015625e+00 1.904095530509948730e+00 1.486033946275711060e-01
2.549000000000000000e+03 3.253768920898437500e+01 9.345400810241699219e+00 1.159344315528869629e+00 1.745973348617553711e+00 8.715953230857849121e-01 1.368125677108764648e+00
2.550000000000000000e+03 8.361069679260253906e+00 1.102834796905517578e+01 4.611914455890655518e-01 4.663844108581542969e-01 2.782727479934692383e-01 -4.007851239293813705e-03
2.551000000000000000e+03 6.221491241455078125e+01 1.586163139343261719e+01 6.415199041366577148e-01 3.768349409103393555e+00 1.322960734367370605e+00 -8.786136507987976074e-01
2.552000000000000000e+03 6.219889068603515625e+01 2.063780975341796875e+01 5.271081328392028809e-01 3.839414596557617188e+00 1.309956789016723633e+00 -6.844389438629150391e-01
2.553000000000000000e+03 3.550313949584960938e+01 -1.233264446258544922e+01 -1.942028045654296875e+00 3.561183810234069824e-01 -4.757729172706604004e-01 -6.024355888366699219e-01
2.554000000000000000e+03 6.903160858154296875e+01 1.731941795349121094e+01 2.687467634677886963e-01 5.155826091766357422e+00 1.627371907234191895e+00 -7.976018190383911133e-01
2.555000000000000000e+03 6.983786773681640625e+01 1.614029884338378906e+01 2.281291633844375610e-01 5.333508491516113281e+00 1.668491363525390625e+00 -8.299731612205505371e-01
2.556000000000000000e+03 5.633992767333984375e+01 -3.807749271392822266e+00 -9.601357579231262207e-01 -2.671659737825393677e-02 -2.960557043552398682e-01 -4.762604534626007080e-01
2.557000000000000000e+03 4.681302642822265625e+01 -8.469717979431152344e+00 -1.447425723075866699e+00 7.467254251241683960e-02 -4.118259549140930176e-01 -5.519766211509704590e-01
2.558000000000000000e+03 5.923709106445312500e+01 -3.851763308048248291e-01 9.393521398305892944e-02 7.194564342498779297e-01 2.440174967050552368e-01 -9.961456060409545898e-01
2.559000000000000000e+03 5.829050445556640625e+01 -1.349072575569152832e+00 -1.784007251262664795e-01 3.907467126846313477e-01 6.370379775762557983e-02 -7.502578496932983398e-01
2.560000000000000000e+03 6.540409088134765625e+01 -3.329647827148437500e+01 -2.181781530380249023e-01 4.715334892272949219e+00 1.349146962165832520e+00 3.611682355403900146e-01
2.561000000000000000e+03 3.569738006591796875e+01 7.316591739654541016e+00 1.097549915313720703e+00 1.286272525787353516e+00 7.151467204093933105e-01 9.707453250885009766e-01
2.562000000000000000e+03 6.980371093750000000e+01 1.052727603912353516e+01 4.110699892044067383e-02 5.641023635864257812e+00 1.704639077186584473e+00 -1.072606444358825684e+00
2.563000000000000000e+03 6.987330627441406250e+01 8.546968460083007812e+00 -1.062559187412261963e-01 5.825877666473388672e+00 1.715886473655700684e+00 -1.146663665771484375e+00
2.564000000000000000e+03 2.047679138183593750e+01 2.237800025939941406e+01 4.106112569570541382e-02 4.144431352615356445e-01 1.366512775421142578e-01 3.824102580547332764e-01
2.565000000000000000e+03 1.737940406799316406e+01 2.385726547241210938e+01 -5.840812996029853821e-02 6.008989810943603516e-01 1.627472490072250366e-01 4.138827323913574219e-01
2.566000000000000000e+03 3.573242568969726562e+01 6.095698356628417969e+00 1.155528187751770020e+00 1.160501956939697266e+00 6.948090195655822754e-01 8.572944998741149902e-01
2.567000000000000000e+03 6.345065307617187500e+01 1.478425693511962891e+01 5.718424320220947266e-01 3.969546318054199219e+00 1.362416625022888184e+00 -9.801743030548095703e-01
2.568000000000000000e+03 3.249333572387695312e+01 8.130004882812500000e+00 1.310263395309448242e+00 1.735648393630981445e+00 9.137735366821289062e-01 1.300465226173400879e+00
2.569000000000000000e+03 7.005258178710937500e+01 -2.745293426513671875e+01 -8.286942243576049805e-01 7.599265575408935547e+00 2.031171321868896484e+00 -7.122044451534748077e-03
2.570000000000000000e+03 8.838853836059570312e+00 2.610221672058105469e+01 -1.212348639965057373e-01 2.980836033821105957e-01 5.305461958050727844e-02 3.404745832085609436e-02
2.571000000000000000e+03 4.043117141723632812e+01 2.286162614822387695e+00 8.306528329849243164e-01 4.132258296012878418e-01 3.731635808944702148e-01 1.752121746540069580e-01
2.572000000000000000e+03 1.306593513488769531e+01 -3.436684417724609375e+01 -3.902297616004943848e-01 1.678636908531188965e+00 3.865221440792083740e-01 1.241913717240095139e-02
2.573000000000000000e+03 1.368709373474121094e+01 -3.094923019409179688e+01 -4.659023284912109375e-01 1.814867019653320312e+00 4.046894013881683350e-01 -1.331449002027511597e-01
2.574000000000000000e+03 4.983889389038085938e+01 2.812593650817871094e+01 8.211354613304138184e-01 2.024730920791625977e+00 8.537598848342895508e-01 -3.242903854697942734e-03
2.575000000000000000e+03 4.942636489868164062e+01 -1.334092378616333008e+00 -6.234220787882804871e-02 1.215684339404106140e-01 1.776786707341670990e-02 -1.233205869793891907e-01
2.576000000000000000e+03 6.663813018798828125e+01 3.103518486022949219e+01 2.669481337070465088e-01 4.529926300048828125e+00 1.439062356948852539e+00 -3.657341301441192627e-01
2.577000000000000000e+03 1.645090103149414062e+01 -3.350435256958007812e+01 -3.475386500358581543e-01 1.236236333847045898e+00 2.666093111038208008e-01 -1.323704272508621216e-01
2.578000000000000000e+03 9.853310585021972656e+00 2.374003410339355469e+01 -1.714363843202590942e-01 4.633931517601013184e-01 8.758702874183654785e-02 4.469580575823783875e-02
2.579000000000000000e+03 1.133413314819335938e+01 2.431543159484863281e+01 -1.673126667737960815e-01 5.412436723709106445e-01 1.121792942285537720e-01 1.287906020879745483e-01
2.580000000000000000e+03 3.615887832641601562e+01 1.297366333007812500e+01 7.434135675430297852e-01 1.751707196235656738e+00 7.485362291336059570e-01 1.193270444869995117e+00
2.581000000000000000e+03 1.331421756744384766e+01 2.170087623596191406e+01 -2.492942661046981812e-01 8.092340826988220215e-01 1.679819524288177490e-01 2.681844234466552734e-01
2.582000000000000000e+03 9.562602996826171875e+00 1.960778617858886719e+01 -1.329097300767898560e-01 6.575946211814880371e-01 1.574054807424545288e-01 -8.774874359369277954e-02
2.583000000000000000e+03 7.030453491210937500e+01 2.199214172363281250e+01 2.047263979911804199e-01 5.261982917785644531e+00 1.640012860298156738e+00 -5.879932045936584473e-01
2.584000000000000000e+03 5.740407180786132812e+01 2.406185531616210938e+01 5.785884261131286621e-01 3.031069517135620117e+00 1.082897424697875977e+00 -6.169613003730773926e-01
2.585000000000000000e+03 5.439796447753906250e+01 2.676318359375000000e+01 7.701072692871093750e-01 2.503270864486694336e+00 9.820134639739990234e-01 -3.692653179168701172e-01
2.586000000000000000e+03 2.918000602722167969e+01 2.004558372497558594e+01 -1.128254532814025879e-01 1.586129903793334961e+00 4.419913589954376221e-01 3.602563738822937012e-01
2.587000000000000000e+03 4.547116088867187500e+01 2.600571060180664062e+01 7.445595264434814453e-01 1.722377300262451172e+00 7.400810718536376953e-01 4.457417726516723633e-01
2.588000000000000000e+03 4.746876144409179688e+01 2.519194221496582031e+01 8.942391276359558105e-01 1.630624532699584961e+00 7.574591040611267090e-01 3.374341726303100586e-01
2.589000000000000000e+03 3.804121017456054688e+01 2.641828727722167969e+01 3.671278059482574463e-01 1.790709137916564941e+00 6.473510861396789551e-01 4.092460870742797852e-01
2.590000000000000000e+03 4.338937377929687500e+01 2.417063331604003906e+01 6.293835639953613281e-01 1.807470321655273438e+00 7.310561537742614746e-01 5.922221541404724121e-01
2.591000000000000000e+03 1.112663459777832031e+01 -3.663651657104492188e+01 -3.141578435897827148e-01 1.876691102981567383e+00 4.687599837779998779e-01 8.798878639936447144e-02
2.592000000000000000e+03 8.164185523986816406e+00 3.363374710083007812e+01 2.292961115017533302e-03 8.682556450366973877e-02 2.673555724322795868e-02 5.014793202280998230e-02
2.593000000000000000e+03 6.788249206542968750e+01 3.478363800048828125e+01 2.155817896127700806e-01 4.661490440368652344e+00 1.463121652603149414e+00 -2.151598930358886719e-01
2.594000000000000000e+03 6.464258575439453125e+01 3.368612289428710938e+01 3.205372989177703857e-01 4.205703735351562500e+00 1.357872366905212402e+00 -2.744808793067932129e-01
2.595000000000000000e+03 6.743145751953125000e+01 4.091168594360351562e+01 2.139713466167449951e-01 4.577771663665771484e+00 1.437522888183593750e+00 -4.334469139575958252e-02
2.596000000000000000e+03 2.171422386169433594e+01 -6.541068553924560547e-01 2.549261331558227539e+00 3.554298877716064453e+00 1.831068038940429688e+00 3.437350273132324219e+00
2.597000000000000000e+03 1.934683036804199219e+01 -4.426713585853576660e-01 8.195555210113525391e-01 5.284278392791748047e+00 1.831150174140930176e+00 1.313174366950988770e+00
2.598000000000000000e+03 1.246636104583740234e+01 -6.556344032287597656e+00 1.834825992584228516e+00 1.407358348369598389e-01 5.926685333251953125e-01 4.199218750000000000e+00
2.599000000000000000e+03 1.283678531646728516e+01 -6.092508792877197266e+00 2.405506372451782227e+00 -2.052452415227890015e-01 6.600783467292785645e-01 3.975001573562622070e+00
2.600000000000000000e+03 1.452400970458984375e+01 -7.704817295074462891e+00 1.880504846572875977e+00 -5.054606795310974121e-01 4.125132262706756592e-01 4.949804782867431641e+00
2.601000000000000000e+03 1.144427394866943359e+01 -7.643430709838867188e+00 2.458203583955764771e-01 1.769326448440551758e+00 6.045440435409545898e-01 4.679612636566162109e+00
2.602000000000000000e+03 2.203019714355468750e+01 -2.483889758586883545e-01 2.190374374389648438e+00 3.265778303146362305e+00 1.636845707893371582e+00 3.387224674224853516e+00
2.603000000000000000e+03 2.141796684265136719e+01 -1.144261956214904785e+00 3.176700830459594727e+00 3.844755649566650391e+00 2.106436967849731445e+00 3.619119167327880859e+00
2.604000000000000000e+03 1.348468971252441406e+01 -6.482015132904052734e+00 2.856621265411376953e+00 -5.466709136962890625e-01 6.929851174354553223e-01 4.422003746032714844e+00
2.605000000000000000e+03 1.229985523223876953e+01 -8.262039184570312500e+00 3.088998794555664062e-01 1.022248983383178711e+00 3.993446528911590576e-01 5.307663917541503906e+00
2.606000000000000000e+03 1.255685615539550781e+01 -7.391361236572265625e+00 1.378732204437255859e+00 2.498664259910583496e-01 4.885796010494232178e-01 4.848451137542724609e+00
2.607000000000000000e+03 1.348083686828613281e+01 -7.551075458526611328e+00 1.882617235183715820e+00 -5.388590097427368164e-01 4.031274616718292236e-01 5.132816791534423828e+00
2.608000000000000000e+03 2.431909561157226562e+01 -8.224028587341308594e+00 5.272629261016845703e-01 1.212944030761718750e+00 5.220621228218078613e-01 -9.442024230957031250e-01
2.609000000000000000e+03 1.512003993988037109e+01 -7.297354698181152344e+00 2.557810068130493164e+00 2.643616311252117157e-02 7.752738595008850098e-01 5.035836696624755859e+00
2.610000000000000000e+03 2.214096450805664062e+01 -9.523195028305053711e-01 3.021687030792236328e+00 3.198014259338378906e+00 1.865910410881042480e+00 3.518808126449584961e+00
2.611000000000000000e+03 2.591055107116699219e+01 -5.285540580749511719e+00 2.561051130294799805e+00 7.093862295150756836e-01 9.811311960220336914e-01 1.607851684093475342e-01
2.612000000000000000e+03 7.978749752044677734e+00 8.365355491638183594e+00 4.077526628971099854e-01 2.701819837093353271e-01 2.033803910017013550e-01 2.081675678491592407e-01
2.613000000000000000e+03 8.868385314941406250e+00 8.224211692810058594e+00 4.413162767887115479e-01 4.718450605869293213e-01 2.739484012126922607e-01 1.760061234235763550e-01
2.614000000000000000e+03 2.791404342651367188e+01 1.839509606361389160e+00 1.447197794914245605e+00 2.277229309082031250e+00 1.117328166961669922e+00 1.674178838729858398e+00
2.615000000000000000e+03 2.477606201171875000e+01 -3.070732355117797852e-01 2.337562561035156250e+00 2.272200345993041992e+00 1.382928848266601562e+00 2.822606325149536133e+00
2.616000000000000000e+03 3.215641021728515625e+01 -9.726639747619628906e+00 -1.098061919212341309e+00 4.430121183395385742e-01 -1.965149343013763428e-01 -6.610487103462219238e-01
2.617000000000000000e+03 3.168337249755859375e+01 -7.248923778533935547e+00 1.039674878120422363e-02 4.064374864101409912e-01 1.250502616167068481e-01 -4.679218232631683350e-01
2.618000000000000000e+03 2.503532409667968750e+01 -4.355029106140136719e+00 3.388812303543090820e+00 8.964393138885498047e-01 1.285575509071350098e+00 7.599698305130004883e-01
2.619000000000000000e+03 6.798007965087890625e+01 6.732100963592529297e+00 -1.887275129556655884e-01 5.409914016723632812e+00 1.566355943679809570e+00 -1.433991670608520508e+00
2.620000000000000000e+03 7.084133148193359375e+01 1.560003161430358887e+00 -1.042558789253234863e+00 7.569149494171142578e+00 1.957977294921875000e+00 -1.037329435348510742e+00
2.621000000000000000e+03 2.333720207214355469e+01 -6.720544099807739258e-01 2.777313232421875000e+00 2.641701221466064453e+00 1.625704288482666016e+00 3.313201665878295898e+00
2.622000000000000000e+03 3.735626220703125000e+01 3.998591661453247070e+00 1.052910923957824707e+00 8.083570599555969238e-01 5.583803653717041016e-01 5.269054770469665527e-01
2.623000000000000000e+03 2.522450828552246094e+01 8.916184902191162109e-01 1.624157309532165527e+00 2.619486093521118164e+00 1.273092985153198242e+00 2.691502332687377930e+00
2.624000000000000000e+03 2.335342025756835938e+01 -8.420775413513183594e+00 3.104115724563598633e-01 1.573810219764709473e+00 5.652665495872497559e-01 -9.343395233154296875e-01
2.625000000000000000e+03 4.525330734252929688e+01 -8.102361679077148438e+00 -1.271567463874816895e+00 1.122120171785354614e-01 -3.478066623210906982e-01 -5.060237646102905273e-01
2.626000000000000000e+03 4.275674057006835938e+01 -8.897168159484863281e+00 -1.265726566314697266e+00 1.712845712900161743e-01 -3.283326029777526855e-01 -5.365962386131286621e-01
2.627000000000000000e+03 6.971806335449218750e+01 1.245497417449951172e+01 1.323722600936889648e-01 5.484779834747314453e+00 1.685145616531372070e+00 -1.000404357910156250e+00
2.628000000000000000e+03 2.532350540161132812e+01 -7.937953472137451172e+00 6.505610942840576172e-01 9.095013737678527832e-01 4.680187404155731201e-01 -8.081662654876708984e-01
2.629000000000000000e+03 4.310383605957031250e+01 1.622363090515136719e+00 6.861928105354309082e-01 2.282953560352325439e-01 2.743464708328247070e-01 7.624862343072891235e-02
2.630000000000000000e+03 7.019033813476562500e+01 -2.537490606307983398e+00 -1.727897047996520996e+00 9.541242599487304688e+00 2.344003677368164062e+00 -1.154381871223449707e+00
2.631000000000000000e+03 3.446930313110351562e+01 9.926643371582031250e+00 1.054898500442504883e+00 1.600809931755065918e+00 7.967125773429870605e-01 1.285482406616210938e+00
2.632000000000000000e+03 3.156162834167480469e+01 5.316797733306884766e+00 1.536902904510498047e+00 1.687351942062377930e+00 9.672765135765075684e-01 1.133981823921203613e+00
2.633000000000000000e+03 3.391180038452148438e+01 8.383701324462890625e+00 1.193711757659912109e+00 1.516009807586669922e+00 8.129164576530456543e-01 1.225847363471984863e+00
2.634000000000000000e+03 8.783758163452148438e+00 1.396354961395263672e+01 3.010551631450653076e-01 6.223388910293579102e-01 2.770182192325592041e-01 -1.518085151910781860e-01
2.635000000000000000e+03 5.988712310791015625e+01 1.938924074172973633e+00 3.761572241783142090e-01 1.481388926506042480e+00 5.572638511657714844e-01 -1.172016501426696777e+00
2.636000000000000000e+03 5.120446014404296875e+01 -7.631064653396606445e-01 3.675484284758567810e-02 1.259364038705825806e-01 4.880737140774726868e-02 -1.420441865921020508e-01
2.637000000000000000e+03 5.271709823608398438e+01 -2.023373693227767944e-01 1.060910522937774658e-01 1.621091365814208984e-01 8.046005666255950928e-02 -1.908069550991058350e-01
2.638000000000000000e+03 4.614610671997070312e+01 -7.431549549102783203e+00 -1.196345686912536621e+00 1.086938008666038513e-01 -3.262955546379089355e-01 -4.691446125507354736e-01
2.639000000000000000e+03 2.558876419067382812e+01 -8.811694145202636719e+00 -1.821123808622360229e-01 9.239853620529174805e-01 2.225618958473205566e-01 -8.882932066917419434e-01
2.640000000000000000e+03 2.827124404907226562e+01 -8.182964324951171875e+00 1.487030088901519775e-02 5.584391355514526367e-01 1.719928383827209473e-01 -6.780939698219299316e-01
2.641000000000000000e+03 3.020818519592285156e+01 -9.897517204284667969e+00 -1.073539018630981445e+00 5.264969468116760254e-01 -1.641126275062561035e-01 -7.180531024932861328e-01
2.642000000000000000e+03 7.015319061279296875e+01 6.504127979278564453e+00 -3.097383081912994385e-01 6.103344917297363281e+00 1.738081932067871094e+00 -1.218113183975219727e+00
2.643000000000000000e+03 5.328279113769531250e+01 -3.516484975814819336e+00 -7.813747525215148926e-01 3.245018050074577332e-02 -2.246773689985275269e-01 -3.025366961956024170e-01
2.644000000000000000e+03 6.745105743408203125e+01 -1.435037404298782349e-01 -9.899710416793823242e-01 6.195980072021484375e+00 1.561802625656127930e+00 -2.541866302490234375e+00
2.645000000000000000e+03 6.635243225097656250e+01 3.392912745475769043e-01 -7.350662350654602051e-01 5.261191368103027344e+00 1.357837557792663574e+00 -2.522692680358886719e+00
2.646000000000000000e+03 2.747767639160156250e+01 2.821861267089843750e+00 1.346669435501098633e+00 2.627254724502563477e+00 1.192177295684814453e+00 1.702875852584838867e+00
2.647000000000000000e+03 6.866645050048828125e+01 1.953121948242187500e+01 2.799544632434844971e-01 5.004510879516601562e+00 1.585339546203613281e+00 -7.081948518753051758e-01
2.648000000000000000e+03 5.941586303710937500e+01 4.736039161682128906e+00 4.737147688865661621e-01 1.918389081954956055e+00 7.176311612129211426e-01 -9.507768154144287109e-01
2.649000000000000000e+03 5.866620254516601562e+01 2.485128879547119141e+00 4.280366003513336182e-01 1.233269572257995605e+00 4.983918368816375732e-01 -9.027044177055358887e-01
2.650000000000000000e+03 5.017199707031250000e+01 -1.023134589195251465e-01 1.942988783121109009e-01 1.518872529268264771e-01 1.038558408617973328e-01 -1.079548597335815430e-01
2.651000000000000000e+03 4.903283691406250000e+01 -5.194974422454833984e+00 -9.512528777122497559e-01 7.557266205549240112e-02 -2.627040743827819824e-01 -3.281315863132476807e-01
2.652000000000000000e+03 7.088819122314453125e+01 7.621106147766113281e+00 -2.298951894044876099e-01 6.272199630737304688e+00 1.812691330909729004e+00 -1.051822185516357422e+00
2.653000000000000000e+03 6.967044067382812500e+01 1.433340549468994141e+01 2.060654759407043457e-01 5.392015457153320312e+00 1.679424285888671875e+00 -9.117684960365295410e-01
2.654000000000000000e+03 2.741400909423828125e+01 -8.754431724548339844e+00 -3.325666487216949463e-01 6.497477293014526367e-01 9.515433013439178467e-02 -7.787557840347290039e-01
2.655000000000000000e+03 7.064095306396484375e+01 1.337683010101318359e+01 1.279727369546890259e-01 5.686952590942382812e+00 1.744477629661560059e+00 -9.097689390182495117e-01
2.656000000000000000e+03 9.321770668029785156e+00 2.082937622070312500e+01 -1.556335687637329102e-01 5.638592243194580078e-01 1.224676966667175293e-01 -6.082136556506156921e-02
2.657000000000000000e+03 7.722929954528808594e+00 2.146781730651855469e+01 -1.181307956576347351e-01 3.237436711788177490e-01 6.168385967612266541e-02 -1.031094789505004883e-01
2.658000000000000000e+03 6.587210845947265625e+01 1.067053222656250000e+01 2.605026662349700928e-01 4.521215915679931641e+00 1.434515476226806641e+00 -1.259309411048889160e+00
2.659000000000000000e+03 6.267947006225585938e+01 1.160498142242431641e+01 4.974482953548431396e-01 3.740236759185791016e+00 1.271305561065673828e+00 -1.113544106483459473e+00
2.660000000000000000e+03 5.462564086914062500e+01 -5.628811717033386230e-01 -7.264094427227973938e-03 2.213210612535476685e-01 6.421709060668945312e-02 -3.241938352584838867e-01
2.661000000000000000e+03 5.606017684936523438e+01 -1.151787757873535156e+00 -1.514447182416915894e-01 2.092737853527069092e-01 1.734871976077556610e-02 -4.819161891937255859e-01
2.662000000000000000e+03 1.027626228332519531e+01 2.247415351867675781e+01 -1.869382858276367188e-01 5.737546086311340332e-01 1.160449013113975525e-01 4.081109911203384399e-02
2.663000000000000000e+03 3.859164428710937500e+01 -9.694510459899902344e+00 -1.268305778503417969e+00 2.651851475238800049e-01 -3.009361922740936279e-01 -5.769284367561340332e-01
2.664000000000000000e+03 4.188629150390625000e+01 1.291037321090698242e+00 6.935755610466003418e-01 2.760518193244934082e-01 2.908882200717926025e-01 8.323515951633453369e-02
2.665000000000000000e+03 6.686791229248046875e+01 2.748998260498046875e+01 2.764429152011871338e-01 4.609020233154296875e+00 1.465638995170593262e+00 -4.649215936660766602e-01
2.666000000000000000e+03 6.735240173339843750e+01 2.443869972229003906e+01 2.863229513168334961e-01 4.711874008178710938e+00 1.499459147453308105e+00 -5.505293011665344238e-01
2.667000000000000000e+03 2.749258995056152344e+01 -9.660764694213867188e+00 -8.955465555191040039e-01 6.925146579742431641e-01 -6.090955808758735657e-02 -8.474315404891967773e-01
2.668000000000000000e+03 2.996886062622070312e+01 -8.100355148315429688e+00 -1.570125967264175415e-01 4.751316905021667480e-01 9.543573111295700073e-02 -6.168226003646850586e-01
2.669000000000000000e+03 6.474473571777343750e+01 -3.522293865680694580e-01 -3.092960417270660400e-01 3.673830747604370117e+00 1.009360432624816895e+00 -2.695014953613281250e+00
2.670000000000000000e+03 5.101931762695312500e+01 -4.879605293273925781e+00 -9.731567502021789551e-01 3.518342226743698120e-02 -2.813920080661773682e-01 -3.429507613182067871e-01
2.671000000000000000e+03 5.557404327392578125e+01 -5.928632989525794983e-02 8.048343658447265625e-02 3.229964077472686768e-01 1.210439577698707581e-01 -4.029993414878845215e-01
2.672000000000000000e+03 6.079655838012695312e+01 6.233957767486572266e+00 4.274548590183258057e-01 2.670754432678222656e+00 9.294627904891967773e-01 -1.175023794174194336e+00
2.673000000000000000e+03 6.200672531127929688e+01 6.172503948211669922e+00 3.350611627101898193e-01 3.048583030700683594e+00 1.015093326568603516e+00 -1.366315126419067383e+00
2.674000000000000000e+03 3.353628540039062500e+01 9.407818794250488281e+00 1.099309086799621582e+00 1.692951798439025879e+00 8.376782536506652832e-01 1.307881116867065430e+00
2.675000000000000000e+03 3.367710113525390625e+01 1.171406650543212891e+01 8.414011597633361816e-01 1.776403188705444336e+00 7.853413224220275879e-01 1.356365442276000977e+00
2.676000000000000000e+03 3.753733062744140625e+01 2.794018507003784180e+00 9.972612261772155762e-01 6.752306818962097168e-01 5.017475485801696777e-01 4.215116500854492188e-01
2.677000000000000000e+03 3.262977600097656250e+01 6.880668640136718750e+00 1.406609058380126953e+00 1.597727775573730469e+00 9.013010859489440918e-01 1.219897508621215820e+00
2.678000000000000000e+03 5.012064361572265625e+01 -5.706704139709472656e+00 -1.126380681991577148e+00 4.557141661643981934e-02 -3.242428004741668701e-01 -3.759990632534027100e-01
2.679000000000000000e+03 1.296941089630126953e+01 2.486286354064941406e+01 -1.537020951509475708e-01 5.848870873451232910e-01 1.293555051088333130e-01 2.208168208599090576e-01
2.680000000000000000e+03 1.167489910125732422e+01 2.797513198852539062e+01 -8.734820038080215454e-02 3.948266804218292236e-01 9.224354475736618042e-02 1.322584152221679688e-01
2.681000000000000000e+03 2.255615615844726562e+01 2.275791549682617188e+01 6.312181800603866577e-02 5.251564383506774902e-01 1.764834821224212646e-01 2.189849019050598145e-01
2.682000000000000000e+03 5.334154510498046875e+01 -1.532717347145080566e+00 -2.243327647447586060e-01 1.212376058101654053e-01 -3.092855028808116913e-02 -2.497378289699554443e-01
2.683000000000000000e+03 3.705364990234375000e+01 6.226439476013183594e+00 1.024855971336364746e+00 1.072690606117248535e+00 6.292639970779418945e-01 7.227733135223388672e-01
2.684000000000000000e+03 2.372445487976074219e+01 2.423005676269531250e+01 9.840770065784454346e-02 7.248693704605102539e-01 2.469831258058547974e-01 1.762956231832504272e-01
2.685000000000000000e+03 6.742413330078125000e+01 -2.882677268981933594e+01 -7.831555008888244629e-01 5.865817070007324219e+00 1.524798512458801270e+00 4.445388615131378174e-01
2.686000000000000000e+03 4.841191864013671875e+01 -3.433424830436706543e-01 1.886188685894012451e-01 1.521483063697814941e-01 1.022301539778709412e-01 -7.745307683944702148e-02
2.687000000000000000e+03 4.668371963500976562e+01 -3.455616533756256104e-01 2.454934120178222656e-01 1.549364775419235229e-01 1.201289668679237366e-01 -5.995035916566848755e-02
2.688000000000000000e+03 3.529696655273437500e+01 1.451265907287597656e+01 6.485497951507568359e-01 1.820041060447692871e+00 7.405772805213928223e-01 1.173311471939086914e+00
2.689000000000000000e+03 2.329956436157226562e+01 2.131765747070312500e+01 -2.083102939650416374e-03 5.668864250183105469e-01 1.694409847259521484e-01 1.703208982944488525e-01
2.690000000000000000e+03 4.210810089111328125e+01 -7.093567371368408203e+00 -8.649109601974487305e-01 1.823140978813171387e-01 -2.047790586948394775e-01 -4.332685172557830811e-01
2.691000000000000000e+03 1.005373573303222656e+01 -3.026604461669921875e+01 -5.860328078269958496e-01 2.383729934692382812e+00 5.393091440200805664e-01 2.120814621448516846e-01
2.692000000000000000e+03 3.154300498962402344e+01 1.672434234619140625e+01 7.206553965806961060e-02 1.958441853523254395e+00 6.091521978378295898e-01 8.764851093292236328e-01
2.693000000000000000e+03 3.187920761108398438e+01 1.983164978027343750e+01 9.369978308677673340e-02 1.754596590995788574e+00 5.544888973236083984e-01 5.719335079193115234e-01
2.694000000000000000e+03 6.339522171020507812e+01 1.712533760070800781e+01 5.787017941474914551e-01 4.010815620422363281e+00 1.376855134963989258e+00 -8.406769037246704102e-01
2.695000000000000000e+03 3.340502548217773438e+01 1.293893146514892578e+01 6.506094932556152344e-01 1.915681242942810059e+00 7.698872089385986328e-01 1.320829868316650391e+00
2.696000000000000000e+03 9.935611724853515625e+00 3.163329124450683594e+01 -2.791045792400836945e-02 2.245585918426513672e-01 5.899443849921226501e-02 7.374119758605957031e-02
2.697000000000000000e+03 1.082273864746093750e+01 2.567193031311035156e+01 -1.416941434144973755e-01 4.439140558242797852e-01 9.066597372293472290e-02 1.064795926213264465e-01
2.698000000000000000e+03 6.852507781982421875e+01 2.589127349853515625e+01 2.334152907133102417e-01 4.879316329956054688e+00 1.533819437026977539e+00 -4.934929311275482178e-01
2.699000000000000000e+03 6.799525451660156250e+01 2.182259750366210938e+01 2.903746366500854492e-01 4.859094619750976562e+00 1.544840812683105469e+00 -6.352093219757080078e-01
2.700000000000000000e+03 5.949908447265625000e+01 2.281879806518554688e+01 5.151780843734741211e-01 3.441791772842407227e+00 1.187090992927551270e+00 -6.286897659301757812e-01
2.701000000000000000e+03 4.068106842041015625e+01 -9.350543975830078125e+00 -1.255416154861450195e+00 2.174901366233825684e-01 -3.113777935504913330e-01 -5.606172084808349609e-01
2.702000000000000000e+03 6.609104156494140625e+01 -3.085165596008300781e+01 -4.965032041072845459e-01 5.167378902435302734e+00 1.401262760162353516e+00 4.342956542968750000e-01
2.703000000000000000e+03 6.621249389648437500e+01 -2.900425148010253906e+01 -7.052156925201416016e-01 5.324905395507812500e+00 1.385906934738159180e+00 4.318481683731079102e-01
2.704000000000000000e+03 6.990287780761718750e+01 1.142075181007385254e+00 -1.127872824668884277e+00 7.439384460449218750e+00 1.893453478813171387e+00 -1.447995781898498535e+00
2.705000000000000000e+03 7.145578765869140625e+01 -1.181670546531677246e+00 -1.439293146133422852e+00 8.889376640319824219e+00 2.235024929046630859e+00 -5.654409527778625488e-01
2.706000000000000000e+03 3.671981048583984375e+01 2.271911811828613281e+01 3.562907278537750244e-01 1.826624393463134766e+00 6.548745632171630859e-01 5.256477594375610352e-01
2.707000000000000000e+03 7.026266479492187500e+01 2.763883113861083984e+00 -8.520732522010803223e-01 6.923131465911865234e+00 1.821317553520202637e+00 -1.341500639915466309e+00
2.708000000000000000e+03 5.913335037231445312e+01 2.504279518127441406e+01 5.332944989204406738e-01 3.397073507308959961e+00 1.179110407829284668e+00 -5.767012238502502441e-01
2.709000000000000000e+03 5.732753372192382812e+01 2.887796592712402344e+01 5.936355590820312500e-01 3.167101621627807617e+00 1.128221154212951660e+00 -3.815248608589172363e-01
2.710000000000000000e+03 4.274597167968750000e+01 2.900118446350097656e+01 5.689090490341186523e-01 1.846608281135559082e+00 7.246552109718322754e-01 3.464846611022949219e-01
2.711000000000000000e+03 3.994202804565429688e+01 2.810764503479003906e+01 4.575361013412475586e-01 1.816192626953125000e+00 6.821186542510986328e-01 3.757960796356201172e-01
2.712000000000000000e+03 7.369433593750000000e+01 -3.726247406005859375e+01 -8.837448060512542725e-02 8.587960243225097656e+00 2.549875736236572266e+00 -3.949847444891929626e-02
2.713000000000000000e+03 7.081620788574218750e+01 -3.773245239257812500e+01 1.034073624759912491e-02 7.265599250793457031e+00 2.182781934738159180e+00 7.370240241289138794e-02
2.714000000000000000e+03 6.787854003906250000e+01 1.638652801513671875e+01 3.228274285793304443e-01 4.900291919708251953e+00 1.566935777664184570e+00 -8.775508403778076172e-01
2.715000000000000000e+03 6.773360443115234375e+01 1.446460437774658203e+01 3.115293383598327637e-01 4.907886981964111328e+00 1.565824866294860840e+00 -9.834318161010742188e-01
2.716000000000000000e+03 3.069192695617675781e+01 1.946306037902832031e+01 1.040533767081797123e-03 1.702084541320800781e+00 5.109375119209289551e-01 5.113025307655334473e-01
2.717000000000000000e+03 1.024926662445068359e+01 3.566818237304687500e+01 3.178066760301589966e-02 1.889978051185607910e-01 6.623353809118270874e-02 5.603080987930297852e-02
2.718000000000000000e+03 3.458248138427734375e+01 1.649748229980468750e+01 4.735150039196014404e-01 1.863255143165588379e+00 7.010310292243957520e-01 1.004800438880920410e+00
2.719000000000000000e+03 1.484627819061279297e+01 2.526762580871582031e+01 -1.013806760311126709e-01 6.022121906280517578e-01 1.502494513988494873e-01 2.999714016914367676e-01
2.720000000000000000e+03 1.462048053741455078e+01 2.180648231506347656e+01 -2.312145233154296875e-01 8.077271580696105957e-01 1.729537993669509888e-01 3.788703978061676025e-01
2.721000000000000000e+03 1.209562969207763672e+01 -7.013374805450439453e+00 1.200105428695678711e+00 7.712797522544860840e-01 5.914155244827270508e-01 4.647506237030029297e+00
2.722000000000000000e+03 1.300474548339843750e+01 -6.992526054382324219e+00 1.900305271148681641e+00 1.202909974381327629e-03 5.704524517059326172e-01 5.005356788635253906e+00
2.723000000000000000e+03 2.095959854125976562e+01 -7.564550042152404785e-01 2.392587423324584961e+00 4.307212829589843750e+00 2.009940147399902344e+00 3.305039167404174805e+00
2.724000000000000000e+03 1.394419956207275391e+01 -5.902430057525634766e+00 3.547681093215942383e+00 -6.792265772819519043e-01 8.605363368988037109e-01 4.075728416442871094e+00
2.725000000000000000e+03 2.055014610290527344e+01 -3.694799542427062988e-01 1.677728772163391113e+00 4.507786273956298828e+00 1.855654597282409668e+00 2.824683189392089844e+00
2.726000000000000000e+03 2.255596542358398438e+01 -1.607034683227539062e+00 3.876209735870361328e+00 2.757572412490844727e+00 1.990134596824645996e+00 3.442821264266967773e+00
2.727000000000000000e+03 2.326962280273437500e+01 -1.559673666954040527e+00 3.671134233474731445e+00 2.289780139923095703e+00 1.788274288177490234e+00 3.127255678176879883e+00
2.728000000000000000e+03 2.263013839721679688e+01 -3.733807504177093506e-01 2.371962547302246094e+00 2.956885576248168945e+00 1.598654389381408691e+00 3.347979307174682617e+00
2.729000000000000000e+03 2.412629318237304688e+01 -2.981065273284912109e+00 4.146490573883056641e+00 1.342187285423278809e+00 1.646603345870971680e+00 1.892585873603820801e+00
2.730000000000000000e+03 2.562914276123046875e+01 2.275278419256210327e-02 2.041595220565795898e+00 2.184491872787475586e+00 1.267826080322265625e+00 2.465216398239135742e+00
2.731000000000000000e+03 2.392554283142089844e+01 -5.572741627693176270e-01 2.574273824691772461e+00 2.412073612213134766e+00 1.495904207229614258e+00 3.055134534835815430e+00
2.732000000000000000e+03 2.565867805480957031e+01 -5.970808506011962891e+00 2.223405599594116211e+00 7.562872767448425293e-01 8.939078450202941895e-01 -1.735904663801193237e-01
2.733000000000000000e+03 2.480426597595214844e+01 -5.767431735992431641e+00 2.675283432006835938e+00 8.616569638252258301e-01 1.061082124710083008e+00 -1.151008084416389465e-01
2.734000000000000000e+03 3.666085433959960938e+01 -8.894444465637207031e+00 -9.725197553634643555e-01 3.115807771682739258e-01 -1.982817053794860840e-01 -5.530708432197570801e-01
2.735000000000000000e+03 3.584789276123046875e+01 -7.427947044372558594e+00 -5.076908469200134277e-01 3.092813789844512939e-01 -5.952284857630729675e-02 -4.708068668842315674e-01
2.736000000000000000e+03 2.649034309387207031e+01 3.563544154167175293e-01 1.845543742179870605e+00 2.101344585418701172e+00 1.184066534042358398e+00 2.173899412155151367e+00
2.737000000000000000e+03 5.765433120727539062e+01 6.877347230911254883e-01 2.373913526535034180e-01 6.713741421699523926e-01 2.726296484470367432e-01 -6.925551891326904297e-01
2.738000000000000000e+03 2.312609863281250000e+01 -1.047925591468811035e+00 3.053226709365844727e+00 2.642535209655761719e+00 1.708728551864624023e+00 3.266379356384277344e+00
2.739000000000000000e+03 2.266039848327636719e+01 -7.161170840263366699e-01 2.798056125640869141e+00 2.891725778579711914e+00 1.706934571266174316e+00 3.418847322463989258e+00
2.740000000000000000e+03 6.361071014404296875e+01 1.265384483337402344e+01 4.952574074268341064e-01 3.964100360870361328e+00 1.337807297706604004e+00 -1.111231446266174316e+00
2.741000000000000000e+03 6.795903015136718750e+01 8.645549774169921875e+00 -4.691150505095720291e-03 5.209748744964599609e+00 1.561517357826232910e+00 -1.313884019851684570e+00
2.742000000000000000e+03 2.414518165588378906e+01 -1.430379271507263184e+00 3.261916160583496094e+00 1.977447867393493652e+00 1.571809172630310059e+00 2.785983085632324219e+00
2.743000000000000000e+03 6.057618713378906250e+01 4.174615859985351562e+00 4.112753868103027344e-01 2.226680040359497070e+00 7.913866043090820312e-01 -1.252965092658996582e+00
2.744000000000000000e+03 6.838356781005859375e+01 -7.109673619270324707e-01 -1.415661811828613281e+00 7.341759204864501953e+00 1.777829170227050781e+00 -2.252243995666503906e+00
2.745000000000000000e+03 4.840983963012695312e+01 -2.364562749862670898e+00 -2.479111999273300171e-01 1.169817298650741577e-01 -3.927884250879287720e-02 -1.507444977760314941e-01
2.746000000000000000e+03 2.687673950195312500e+01 -8.153889656066894531e+00 2.350475937128067017e-01 7.024778723716735840e-01 2.812576293945312500e-01 -7.253969311714172363e-01
2.747000000000000000e+03 2.441172599792480469e+01 -6.403034687042236328e+00 2.469048261642456055e+00 9.908857345581054688e-01 1.037980198860168457e+00 -4.242106378078460693e-01
2.748000000000000000e+03 3.187463760375976562e+01 -8.432872772216796875e+00 -4.659546017646789551e-01 4.226372838020324707e-01 -1.299519836902618408e-02 -6.012493371963500977e-01
2.749000000000000000e+03 3.909983062744140625e+01 1.927081108093261719e+00 8.561238646507263184e-01 4.827757179737091064e-01 4.016698598861694336e-01 2.456060051918029785e-01
2.750000000000000000e+03 6.887522888183593750e+01 9.557686805725097656e+00 1.112909242510795593e-02 5.477368831634521484e+00 1.646549344062805176e+00 -1.177969932556152344e+00
2.751000000000000000e+03 6.898069763183593750e+01 7.513853073120117188e+00 -1.602616608142852783e-01 5.685945034027099609e+00 1.657704949378967285e+00 -1.260156631469726562e+00
2.752000000000000000e+03 3.068994522094726562e+01 3.833699226379394531e+00 1.519328117370605469e+00 1.797679662704467773e+00 9.951023459434509277e-01 1.128254413604736328e+00
2.753000000000000000e+03 2.954387855529785156e+01 3.490334033966064453e+00 1.482464671134948730e+00 2.071095466613769531e+00 1.066068053245544434e+00 1.251568317413330078e+00
2.754000000000000000e+03 3.967659378051757812e+01 -8.309733390808105469e+00 -9.908884763717651367e-01 2.410703301429748535e-01 -2.249454408884048462e-01 -5.147632360458374023e-01
2.755000000000000000e+03 4.171747207641601562e+01 -9.056879997253417969e+00 -1.240110993385314941e+00 1.887909471988677979e-01 -3.153960406780242920e-01 -5.389685630798339844e-01
2.756000000000000000e+03 5.835476303100585938e+01 1.367833018302917480e+00 3.464961946010589600e-01 9.202768802642822266e-01 3.800319135189056396e-01 -8.168407678604125977e-01
2.757000000000000000e+03 6.075683593750000000e+01 2.423559278249740601e-01 2.103266119956970215e-01 1.281740188598632812e+00 4.476200640201568604e-01 -1.445434808731079102e+00
2.758000000000000000e+03 4.529929733276367188e+01 -4.728401660919189453e+00 -5.569621920585632324e-01 1.237627416849136353e-01 -1.299598217010498047e-01 -2.727681696414947510e-01
2.759000000000000000e+03 4.139211654663085938e+01 -8.000741004943847656e+00 -1.011436581611633301e+00 2.001820355653762817e-01 -2.433763742446899414e-01 -4.886140823364257812e-01
2.760000000000000000e+03 4.074371337890625000e+01 -7.449833869934082031e+00 -8.330808281898498535e-01 2.103196382522583008e-01 -1.868283599615097046e-01 -4.521959722042083740e-01
2.761000000000000000e+03 4.446045684814453125e+01 9.236065149307250977e-01 5.249965786933898926e-01 1.836208552122116089e-01 2.125852257013320923e-01 4.320067912340164185e-02
2.762000000000000000e+03 6.062305068969726562e+01 7.423943519592285156e+00 4.373807311058044434e-01 2.808603525161743164e+00 9.737952947616577148e-01 -1.079049706459045410e+00
2.763000000000000000e+03 5.052359008789062500e+01 -3.527802705764770508e+00 -6.220288872718811035e-01 8.237992227077484131e-02 -1.618946790695190430e-01 -2.392089664936065674e-01
2.764000000000000000e+03 4.722623825073242188e+01 -3.100006818771362305e+00 -3.641747832298278809e-01 1.074155345559120178e-01 -7.702777534723281860e-02 -1.866397261619567871e-01
2.765000000000000000e+03 3.554931640625000000e+01 -9.913108825683593750e+00 -1.247395396232604980e+00 3.407854139804840088e-01 -2.719829976558685303e-01 -6.092631816864013672e-01
2.766000000000000000e+03 3.465189743041992188e+01 -8.659495353698730469e+00 -8.070041537284851074e-01 3.458386957645416260e-01 -1.383496224880218506e-01 -5.765765905380249023e-01
2.767000000000000000e+03 3.572700881958007812e+01 -8.696742057800292969e+00 -8.704705238342285156e-01 3.261744379997253418e-01 -1.632888317108154297e-01 -5.567675232887268066e-01
2.768000000000000000e+03 2.841348266601562500e+01 -9.787169456481933594e+00 -9.848148822784423828e-01 6.263563036918640137e-01 -1.075375676155090332e-01 -8.007347583770751953e-01
2.769000000000000000e+03 3.245780181884765625e+01 1.119177246093750000e+01 8.857290148735046387e-01 1.946602940559387207e+00 8.496996164321899414e-01 1.420436263084411621e+00
2.770000000000000000e+03 5.193573760986328125e+01 -3.461321592330932617e+00 -6.837875843048095703e-01 4.803530871868133545e-02 -1.907256841659545898e-01 -2.720753252506256104e-01
2.771000000000000000e+03 5.313032531738281250e+01 -2.444573640823364258e+00 -4.633508324623107910e-01 6.665735691785812378e-02 -1.190080419182777405e-01 -2.654942572116851807e-01
2.772000000000000000e+03 6.516741943359375000e+01 7.912878513336181641e+00 1.653096079826354980e-01 4.324660301208496094e+00 1.346991062164306641e+00 -1.433835506439208984e+00
2.773000000000000000e+03 1.195505237579345703e+01 2.146783828735351562e+01 -2.315604090690612793e-01 7.818067073822021484e-01 1.650738865137100220e-01 1.443677246570587158e-01
2.774000000000000000e+03 1.480412292480468750e+01 2.342794036865234375e+01 -1.639399826526641846e-01 6.767266392707824707e-01 1.538359969854354858e-01 3.474006056785583496e-01
2.775000000000000000e+03 3.655662918090820312e+01 -9.970153808593750000e+00 -1.276095747947692871e+00 3.255115449428558350e-01 -2.851752638816833496e-01 -6.037301421165466309e-01
2.776000000000000000e+03 3.697141647338867188e+01 -7.237584114074707031e+00 -5.415335297584533691e-01 2.968218624591827393e-01 -7.341349869966506958e-02 -4.513548016548156738e-01
2.777000000000000000e+03 4.604246902465820312e+01 5.446529388427734375e-01 4.516134858131408691e-01 1.432989388704299927e-01 1.784737259149551392e-01 1.372042763978242874e-02
2.778000000000000000e+03 4.445978927612304688e+01 -5.616492271423339844e+00 -6.913491487503051758e-01 1.417526751756668091e-01 -1.648789495229721069e-01 -3.264859318733215332e-01
2.779000000000000000e+03 5.066559219360351562e+01 -2.029295206069946289e+00 -2.623625695705413818e-01 9.612433612346649170e-02 -4.987146705389022827e-02 -1.851726174354553223e-01
2.780000000000000000e+03 3.303079605102539062e+01 1.022037410736083984e+01 1.054879665374755859e+00 1.771145701408386230e+00 8.478075861930847168e-01 1.400197982788085938e+00
2.781000000000000000e+03 5.747721862792968750e+01 -1.713456392288208008e+00 -2.785675823688507080e-01 2.218932211399078369e-01 -1.700231246650218964e-02 -6.643484234809875488e-01
2.782000000000000000e+03 3.491106414794921875e+01 1.189563655853271484e+01 8.087254166603088379e-01 1.753545403480529785e+00 7.686812281608581543e-01 1.281826019287109375e+00
2.783000000000000000e+03 3.419449234008789062e+01 7.177674770355224609e+00 1.230020284652709961e+00 1.420896291732788086e+00 7.952749729156494141e-01 1.096160411834716797e+00
2.784000000000000000e+03 4.302528381347656250e+01 -7.668093204498291016e+00 -1.029586791992187500e+00 1.687038689851760864e-01 -2.582648694515228271e-01 -4.666178822517395020e-01
2.785000000000000000e+03 6.520845794677734375e+01 8.813820481300354004e-01 -3.461718261241912842e-01 4.182618618011474609e+00 1.150934100151062012e+00 -2.515272855758666992e+00
2.786000000000000000e+03 6.302216720581054688e+01 9.684093475341796875e+00 3.948500454425811768e-01 3.728984117507934570e+00 1.237150192260742188e+00 -1.217307567596435547e+00
2.787000000000000000e+03 6.896162414550781250e+01 9.495379328727722168e-01 -1.055738687515258789e+00 6.904537200927734375e+00 1.754639625549316406e+00 -1.784859776496887207e+00
2.788000000000000000e+03 5.991647720336914062e+01 5.742486000061035156e+00 4.623208343982696533e-01 2.341325521469116211e+00 8.410938978195190430e-01 -1.013685107231140137e+00
2.789000000000000000e+03 6.726311492919921875e+01 2.046353149414062500e+01 3.302398025989532471e-01 4.731587409973144531e+00 1.518548130989074707e+00 -6.896690726280212402e-01
2.790000000000000000e+03 4.907147216796875000e+01 -3.741390705108642578e+00 -5.832760930061340332e-01 7.768406718969345093e-02 -1.516776084899902344e-01 -2.415123432874679565e-01
2.791000000000000000e+03 2.682305145263671875e+01 -4.211884737014770508e-01 2.044393062591552734e+00 1.785746216773986816e+00 1.149041771888732910e+00 1.960688591003417969e+00
2.792000000000000000e+03 2.736767578125000000e+01 6.211754083633422852e-01 1.672698736190795898e+00 2.024387359619140625e+00 1.109125852584838867e+00 1.843452334403991699e+00
2.793000000000000000e+03 6.872031402587890625e+01 1.344210529327392578e+01 2.213374972343444824e-01 5.205993652343750000e+00 1.628199338912963867e+00 -9.908328056335449219e-01
2.794000000000000000e+03 3.585065078735351562e+01 4.906764030456542969e+00 1.165865540504455566e+00 1.036627173423767090e+00 6.607478260993957520e-01 7.410510182380676270e-01
2.795000000000000000e+03 3.600028610229492188e+01 3.700559616088867188e+00 1.149168610572814941e+00 8.999657034873962402e-01 6.147403120994567871e-01 6.294487118721008301e-01
2.796000000000000000e+03 3.293086242675781250e+01 5.664476394653320312e+00 1.412261605262756348e+00 1.451432466506958008e+00 8.591082096099853516e-01 1.068838596343994141e+00
2.797000000000000000e+03 2.851242065429687500e+01 -6.637427330017089844e+00 8.357762694358825684e-01 4.990567564964294434e-01 4.004499018192291260e-01 -3.685572743415832520e-01
2.798000000000000000e+03 4.368861770629882812e+01 -6.578093528747558594e+00 -8.381176590919494629e-01 1.537296772003173828e-01 -2.053163945674896240e-01 -3.963468372821807861e-01
2.799000000000000000e+03 6.446855926513671875e+01 6.118767738342285156e+00 1.376706659793853760e-01 3.972522974014282227e+00 1.233058094978332520e+00 -1.584097146987915039e+00
2.800000000000000000e+03 2.655298233032226562e+01 2.374424552917480469e+01 6.938092410564422607e-02 1.049576640129089355e+00 3.356872498989105225e-01 1.660100817680358887e-01
2.801000000000000000e+03 6.324287414550781250e+01 1.954776954650878906e+01 5.045531988143920898e-01 4.003831386566162109e+00 1.352515459060668945e+00 -7.276467680931091309e-01
2.802000000000000000e+03 4.389348983764648438e+01 -8.071088790893554688e+00 -1.173320293426513672e+00 1.430076509714126587e-01 -3.090938031673431396e-01 -4.928736388683319092e-01
2.803000000000000000e+03 3.434317398071289062e+01 5.925908565521240234e+00 1.280133962631225586e+00 1.286040425300598145e+00 7.698523402214050293e-01 9.727594852447509766e-01
2.804000000000000000e+03 1.247714710235595703e+01 2.646054458618164062e+01 -1.081430464982986450e-01 4.871698915958404541e-01 1.137080490589141846e-01 1.809976249933242798e-01
2.805000000000000000e+03 6.460668182373046875e+01 1.368661403656005859e+01 4.655899703502655029e-01 4.218225479125976562e+00 1.405144572257995605e+00 -1.046944618225097656e+00
2.806000000000000000e+03 6.461515045166015625e+01 1.589977073669433594e+01 5.004329085350036621e-01 4.233420848846435547e+00 1.420156121253967285e+00 -9.128827452659606934e-01
2.807000000000000000e+03 2.697396659851074219e+01 2.703816795349121094e+01 1.568859368562698364e-01 1.075091838836669922e+00 3.695933222770690918e-01 1.688835471868515015e-01
2.808000000000000000e+03 1.060987949371337891e+01 2.116454505920410156e+01 -2.085994184017181396e-01 6.908662915229797363e-01 1.446800529956817627e-01 3.309343010187149048e-02
2.809000000000000000e+03 1.913809776306152344e+01 2.257312965393066406e+01 -1.180318370461463928e-02 5.002045631408691406e-01 1.465204209089279175e-01 4.574653804302215576e-01
2.810000000000000000e+03 6.160445404052734375e+01 -3.389088058471679688e+01 -2.823220333084464073e-03 2.497571229934692383e+00 7.484244108200073242e-01 2.776473462581634521e-01
2.811000000000000000e+03 5.409105682373046875e+01 -2.186291933059692383e+00 -4.064825177192687988e-01 1.034344881772994995e-01 -9.091441333293914795e-02 -3.044151365756988525e-01
2.812000000000000000e+03 7.195796966552734375e+01 6.851926803588867188e+00 -2.898189723491668701e-01 6.612028121948242188e+00 1.896662831306457520e+00 -8.967803120613098145e-01
2.813000000000000000e+03 1.319701004028320312e+01 2.326500701904296875e+01 -1.926817446947097778e-01 6.879509687423706055e-01 1.485807597637176514e-01 2.476866096258163452e-01
2.814000000000000000e+03 6.100804519653320312e+01 2.544274520874023438e+01 4.828718006610870361e-01 3.650673151016235352e+00 1.240063548088073730e+00 -5.640854239463806152e-01
2.815000000000000000e+03 6.131047821044921875e+01 2.176737976074218750e+01 4.938763082027435303e-01 3.745004415512084961e+00 1.271664261817932129e+00 -6.541557312011718750e-01
2.816000000000000000e+03 1.317217922210693359e+01 3.519856643676757812e+01 5.823758989572525024e-02 3.484676778316497803e-01 1.220115870237350464e-01 8.433508127927780151e-02
2.817000000000000000e+03 6.971237182617187500e+01 3.986927986145019531e+00 -6.258888244628906250e-01 6.463315486907958984e+00 1.751227974891662598e+00 -1.340832471847534180e+00
2.818000000000000000e+03 6.965252685546875000e+01 5.278860569000244141e+00 -4.307329952716827393e-01 6.188874721527099609e+00 1.727442502975463867e+00 -1.310196161270141602e+00
2.819000000000000000e+03 4.092153549194335938e+01 2.580138969421386719e+01 5.130792856216430664e-01 1.857697844505310059e+00 7.112331390380859375e-01 4.924969673156738281e-01
2.820000000000000000e+03 5.919603347778320312e+01 2.903330421447753906e+01 5.306550860404968262e-01 3.416200160980224609e+00 1.184056639671325684e+00 -4.615489244461059570e-01
2.821000000000000000e+03 5.613798904418945312e+01 3.145426177978515625e+01 6.122325658798217773e-01 2.981736898422241211e+00 1.078190803527832031e+00 -2.506453692913055420e-01
2.822000000000000000e+03 6.876515197753906250e+01 1.534679603576660156e+01 2.688565254211425781e-01 5.131076812744140625e+00 1.619980096817016602e+00 -8.898691534996032715e-01
2.823000000000000000e+03 5.670194244384765625e+01 2.593731880187988281e+01 6.357687115669250488e-01 2.972679138183593750e+00 1.082534313201904297e+00 -5.217387080192565918e-01
2.824000000000000000e+03 1.899384880065917969e+01 -3.371677780151367188e+01 -2.769735455513000488e-01 8.561746478080749512e-01 1.737603396177291870e-01 -1.457041203975677490e-01
2.825000000000000000e+03 1.287125968933105469e+01 -4.103874206542968750e+01 -2.380935698747634888e-01 1.603433132171630859e+00 4.096018671989440918e-01 -3.980905283242464066e-03
2.826000000000000000e+03 3.613600540161132812e+01 1.602378654479980469e+01 6.279350519180297852e-01 1.811477422714233398e+00 7.318237423896789551e-01 1.014647364616394043e+00
2.827000000000000000e+03 2.512181472778320312e+01 -1.187853813171386719e+00 2.766691684722900391e+00 1.799163937568664551e+00 1.369756698608398438e+00 2.421868801116943359e+00
2.828000000000000000e+03 2.773987770080566406e+01 -6.894067287445068359e+00 8.846766352653503418e-01 5.465030074119567871e-01 4.293538928031921387e-01 -4.324243366718292236e-01
2.829000000000000000e+03 2.602855300903320312e+01 -7.951161861419677734e-01 2.331037282943725586e+00 1.780693888664245605e+00 1.233519315719604492e+00 2.186166048049926758e+00
2.830000000000000000e+03 5.949653244018554688e+01 7.757082581520080566e-01 2.422952353954315186e-01 1.043119549751281738e+00 3.856244385242462158e-01 -1.114339470863342285e+00
2.831000000000000000e+03 3.360012054443359375e+01 -8.557177543640136719e+00 -6.733692884445190430e-01 3.707931041717529297e-01 -9.077285975217819214e-02 -5.796691775321960449e-01
2.832000000000000000e+03 4.503279113769531250e+01 -4.333580285310745239e-02 3.697447776794433594e-01 1.658901125192642212e-01 1.606904715299606323e-01 -2.847811765968799591e-02
2.833000000000000000e+03 4.337880706787109375e+01 3.995443880558013916e-01 5.030926465988159180e-01 1.929879486560821533e-01 2.088241726160049438e-01 1.123086921870708466e-02
2.834000000000000000e+03 5.807992553710937500e+01 -3.559745848178863525e-01 5.389484018087387085e-02 5.019862651824951172e-01 1.667643189430236816e-01 -7.916069030761718750e-01
2.835000000000000000e+03 2.624986648559570312e+01 -2.734283208847045898e+00 2.802788257598876953e+00 1.058954715728759766e+00 1.158522844314575195e+00 1.391000151634216309e+00
2.836000000000000000e+03 2.582366752624511719e+01 -6.740340709686279297e+00 1.640555024147033691e+00 7.394157052040100098e-01 7.139912247657775879e-01 -4.598291516304016113e-01
2.837000000000000000e+03 2.755532836914062500e+01 -7.590765953063964844e+00 5.915480852127075195e-01 5.873028039932250977e-01 3.536552786827087402e-01 -6.173573136329650879e-01
2.838000000000000000e+03 1.169458675384521484e+01 2.290781784057617188e+01 -2.100235819816589355e-01 6.485254168510437012e-01 1.315505504608154297e-01 1.458155661821365356e-01
2.839000000000000000e+03 3.207216644287109375e+01 -6.243833541870117188e+00 3.389882445335388184e-01 3.956410586833953857e-01 2.203887850046157837e-01 -3.022543191909790039e-01
2.840000000000000000e+03 2.761520385742187500e+01 -2.805747091770172119e-01 1.885333657264709473e+00 1.634323120117187500e+00 1.055896997451782227e+00 1.684258580207824707e+00
2.841000000000000000e+03 2.639847946166992188e+01 -5.792520523071289062e+00 1.945887207984924316e+00 6.333713531494140625e-01 7.737775444984436035e-01 -8.567570149898529053e-02
2.842000000000000000e+03 4.121010589599609375e+01 -6.481532096862792969e+00 -6.515176296234130859e-01 2.006492167711257935e-01 -1.352605223655700684e-01 -3.923095166683197021e-01
2.843000000000000000e+03 4.060651016235351562e+01 9.488855600357055664e-01 6.944950819015502930e-01 3.290865421295166016e-01 3.070744872093200684e-01 1.162313520908355713e-01
2.844000000000000000e+03 4.643961715698242188e+01 -2.094527006149291992e+00 -9.015011042356491089e-02 1.292154490947723389e-01 1.171960122883319855e-02 -1.187314167618751526e-01
2.845000000000000000e+03 6.357211685180664062e+01 2.387394011020660400e-01 -3.508052229881286621e-02 2.758084535598754883e+00 8.169012069702148438e-01 -2.415090084075927734e+00
2.846000000000000000e+03 6.318385696411132812e+01 7.152704238891601562e+00 2.805255651473999023e-01 3.573237180709838867e+00 1.156128764152526855e+00 -1.413019657135009766e+00
2.847000000000000000e+03 2.925203895568847656e+01 1.123481035232543945e+00 1.543709397315979004e+00 1.724910616874694824e+00 9.805859923362731934e-01 1.348349690437316895e+00
2.848000000000000000e+03 2.889375114440917969e+01 2.140892982482910156e+00 1.472391247749328613e+00 2.033504009246826172e+00 1.051768541336059570e+00 1.418308258056640625e+00
2.849000000000000000e+03 4.056839370727539062e+01 -8.324761390686035156e+00 -1.053251743316650391e+00 2.106120586395263672e-01 -2.527919113636016846e-01 -5.084639191627502441e-01
2.850000000000000000e+03 6.201173019409179688e+01 4.945351600646972656e+00 3.236472606658935547e-01 2.848808765411376953e+00 9.517368078231811523e-01 -1.460630416870117188e+00
2.851000000000000000e+03 6.195161437988281250e+01 7.428569793701171875e+00 3.754977583885192871e-01 3.230383872985839844e+00 1.081764459609985352e+00 -1.279371261596679688e+00
2.852000000000000000e+03 3.377351379394531250e+01 -7.571701526641845703e+00 -3.662531375885009766e-01 3.615437448024749756e-01 -1.412820536643266678e-03 -4.773657023906707764e-01
2.853000000000000000e+03 3.830800628662109375e+01 -8.742897987365722656e+00 -1.041326522827148438e+00 2.739777863025665283e-01 -2.302046120166778564e-01 -5.435634851455688477e-01
2.854000000000000000e+03 4.101715087890625000e+01 -3.486444950103759766e+00 -2.806653082370758057e-02 2.141560018062591553e-01 5.582683905959129333e-02 -1.755330860614776611e-01
2.855000000000000000e+03 4.387275695800781250e+01 -7.754534482955932617e-01 2.780295908451080322e-01 1.664794981479644775e-01 1.333527266979217529e-01 -2.727116644382476807e-02
2.856000000000000000e+03 6.775661468505859375e+01 1.252343940734863281e+01 2.404524981975555420e-01 4.978531360626220703e+00 1.565695166587829590e+00 -1.092204809188842773e+00
2.857000000000000000e+03 6.878834533691406250e+01 1.151373958587646484e+01 1.347076892852783203e-01 5.318750858306884766e+00 1.636037588119506836e+00 -1.089862227439880371e+00
2.858000000000000000e+03 3.614723968505859375e+01 2.418779850006103516e+00 1.092604398727416992e+00 7.817394733428955078e-01 5.623031854629516602e-01 5.112805962562561035e-01
2.859000000000000000e+03 3.190739440917968750e+01 4.172565937042236328e+00 1.462711215019226074e+00 1.522652983665466309e+00 8.956092596054077148e-01 1.028082728385925293e+00
2.860000000000000000e+03 4.083071517944335938e+01 -4.496735036373138428e-01 5.104978680610656738e-01 2.771373987197875977e-01 2.362905889749526978e-01 3.264088556170463562e-02
2.861000000000000000e+03 3.964455413818359375e+01 -9.489684104919433594e+00 -1.253406167030334473e+00 2.384370714426040649e-01 -3.044907152652740479e-01 -5.673746466636657715e-01
2.862000000000000000e+03 2.993704986572265625e+01 2.443426609039306641e+00 1.487575769424438477e+00 1.817330598831176758e+00 9.914718866348266602e-01 1.222770571708679199e+00
2.863000000000000000e+03 3.103800201416015625e+01 2.747040033340454102e+00 1.459506869316101074e+00 1.567437767982482910e+00 9.080833792686462402e-01 1.053943634033203125e+00
2.864000000000000000e+03 6.228156280517578125e+01 8.633109092712402344e+00 3.837403953075408936e-01 3.404756069183349609e+00 1.136548995971679688e+00 -1.249506831169128418e+00
2.865000000000000000e+03 4.784119033813476562e+01 -4.099957466125488281e+00 -5.783254504203796387e-01 1.091690808534622192e-01 -1.407469063997268677e-01 -2.542128264904022217e-01
2.866000000000000000e+03 6.842107391357421875e+01 5.352494716644287109e+00 -3.109801709651947021e-01 5.695616722106933594e+00 1.615391016006469727e+00 -1.450301170349121094e+00
2.867000000000000000e+03 6.571831512451171875e+01 1.262648200988769531e+01 3.649801611900329590e-01 4.465235233306884766e+00 1.449064612388610840e+00 -1.135296940803527832e+00
2.868000000000000000e+03 2.921365547180175781e+01 -5.009881973266601562e+00 1.341902732849121094e+00 5.234488844871520996e-01 5.596054792404174805e-01 7.863341271877288818e-02
2.869000000000000000e+03 4.348173904418945312e+01 -4.790130138397216797e+00 -4.580080211162567139e-01 1.553982347249984741e-01 -9.078294038772583008e-02 -2.717278897762298584e-01
2.870000000000000000e+03 3.799964523315429688e+01 2.965595424175262451e-01 7.844902873039245605e-01 4.594450294971466064e-01 3.731805980205535889e-01 2.057075202465057373e-01
2.871000000000000000e+03 6.499161529541015625e+01 9.747423171997070312e+00 2.796317636966705322e-01 4.276358604431152344e+00 1.366797208786010742e+00 -1.296122908592224121e+00
2.872000000000000000e+03 6.780988311767578125e+01 1.837715148925781250e+01 3.316860795021057129e-01 4.862731456756591797e+00 1.558325171470642090e+00 -7.764738202095031738e-01
2.873000000000000000e+03 2.668362808227539062e+01 -6.441025733947753906e+00 1.467422604560852051e+00 6.404137611389160156e-01 6.323509216308593750e-01 -3.122450411319732666e-01
2.874000000000000000e+03 2.902110481262207031e+01 -5.961421489715576172e+00 1.012401103973388672e+00 4.704780876636505127e-01 4.448637664318084717e-01 -2.071973830461502075e-01
2.875000000000000000e+03 6.553795623779296875e+01 5.075768947601318359e+00 -7.477404177188873291e-02 4.453919410705566406e+00 1.313743710517883301e+00 -1.748902559280395508e+00
2.876000000000000000e+03 6.659673309326171875e+01 3.881624460220336914e+00 -3.447578847408294678e-01 5.029401779174804688e+00 1.405393123626708984e+00 -1.855478286743164062e+00
2.877000000000000000e+03 6.913775634765625000e+01 -1.123962253332138062e-01 -1.341267108917236328e+00 7.483181953430175781e+00 1.842574477195739746e+00 -1.921997189521789551e+00
2.878000000000000000e+03 3.023188400268554688e+01 2.059308433532714844e+01 -1.383112277835607529e-02 1.642668604850769043e+00 4.886512458324432373e-01 4.404577314853668213e-01
2.879000000000000000e+03 3.306079101562500000e+01 1.668095588684082031e+01 2.782309949398040771e-01 1.929251074790954590e+00 6.622446179389953613e-01 9.614601135253906250e-01
2.880000000000000000e+03 6.566729736328125000e+01 1.465516471862792969e+01 4.310852885246276855e-01 4.445199966430664062e+00 1.462885618209838867e+00 -1.014888644218444824e+00
2.881000000000000000e+03 4.619762039184570312e+01 -3.879716396331787109e+00 -4.542419910430908203e-01 1.201028525829315186e-01 -1.002417430281639099e-01 -2.390384674072265625e-01
2.882000000000000000e+03 6.587859344482421875e+01 1.665597534179687500e+01 4.305257797241210938e-01 4.481717586517333984e+00 1.473672986030578613e+00 -8.878104090690612793e-01
2.883000000000000000e+03 6.580339813232421875e+01 1.791591072082519531e+01 4.475145637989044189e-01 4.451496601104736328e+00 1.469703316688537598e+00 -8.293003439903259277e-01
2.884000000000000000e+03 4.625489044189453125e+01 -5.668261528015136719e+00 -8.290915489196777344e-01 1.156057864427566528e-01 -2.140457332134246826e-01 -3.349919319152832031e-01
2.885000000000000000e+03 1.923380088806152344e+01 2.592299461364746094e+01 6.477013230323791504e-02 5.823436975479125977e-01 1.941341459751129150e-01 3.194071054458618164e-01
2.886000000000000000e+03 1.354979228973388672e+01 2.928811645507812500e+01 -2.620674856007099152e-02 4.362179040908813477e-01 1.230033487081527710e-01 1.737317740917205811e-01
2.887000000000000000e+03 2.469463348388671875e+01 2.774704170227050781e+01 1.663285195827484131e-01 8.649670481681823730e-01 3.093886673450469971e-01 1.693499684333801270e-01
2.888000000000000000e+03 2.200728988647460938e+01 2.798217773437500000e+01 1.437959671020507812e-01 7.087403535842895508e-01 2.557608783245086670e-01 2.096390426158905029e-01
2.889000000000000000e+03 6.150759124755859375e+01 2.558338403701782227e+00 3.190063834190368652e-01 2.223841667175292969e+00 7.628543972969055176e-01 -1.553636074066162109e+00
2.890000000000000000e+03 6.237168884277343750e+01 8.244010806083679199e-01 1.858729571104049683e-01 2.160643100738525391e+00 7.039548158645629883e-01 -1.934464931488037109e+00
2.891000000000000000e+03 6.677215576171875000e+01 1.551746463775634766e+01 3.759951591491699219e-01 4.673031330108642578e+00 1.514707922935485840e+00 -9.352090954780578613e-01
2.892000000000000000e+03 3.400964355468750000e+01 1.501640987396240234e+01 5.167332887649536133e-01 1.874257922172546387e+00 7.172973752021789551e-01 1.131489276885986328e+00
2.893000000000000000e+03 6.791530609130859375e+01 1.153314948081970215e+00 -9.963424205780029297e-01 6.403611660003662109e+00 1.622180700302124023e+00 -2.086487531661987305e+00
2.894000000000000000e+03 3.960575103759765625e+01 2.312943267822265625e+01 4.749151766300201416e-01 1.893161177635192871e+00 7.104229331016540527e-01 5.670651197433471680e-01
2.895000000000000000e+03 3.143165206909179688e+01 2.434281349182128906e+01 1.418212950229644775e-01 1.529148578643798828e+00 5.012909770011901855e-01 3.081190586090087891e-01
2.896000000000000000e+03 6.348053359985351562e+01 2.205290985107421875e+01 4.359078109264373779e-01 4.081328392028808594e+00 1.355170845985412598e+00 -6.471521854400634766e-01
2.897000000000000000e+03 1.555309295654296875e+01 -3.565167999267578125e+01 -3.236998617649078369e-01 1.353427410125732422e+00 3.089182674884796143e-01 -8.383730798959732056e-02
2.898000000000000000e+03 2.921323966979980469e+01 2.573312187194824219e+01 1.466024816036224365e-01 1.279586553573608398e+00 4.278567135334014893e-01 2.090214341878890991e-01
2.899000000000000000e+03 1.761504364013671875e+01 -3.084650230407714844e+01 -3.349828422069549561e-01 1.074884891510009766e+00 2.219706326723098755e-01 -2.141463309526443481e-01
2.900000000000000000e+03 5.504535675048828125e+01 -1.640966534614562988e+00 -2.802760601043701172e-01 1.469002664089202881e-01 -4.001273587346076965e-02 -3.491564393043518066e-01
2.901000000000000000e+03 6.445838165283203125e+01 1.852153778076171875e+01 4.738410413265228271e-01 4.242228031158447266e+00 1.414820671081542969e+00 -7.630429267883300781e-01
2.902000000000000000e+03 6.442958831787109375e+01 2.083505630493164062e+01 4.403958916664123535e-01 4.244435310363769531e+00 1.405449271202087402e+00 -6.765086054801940918e-01
2.903000000000000000e+03 1.918133163452148438e+01 -3.158095169067382812e+01 -3.004657328128814697e-01 7.743478417396545410e-01 1.421646326780319214e-01 -1.945113986730575562e-01
2.904000000000000000e+03 6.377128219604492188e+01 -3.597397613525390625e+01 1.471804678440093994e-01 3.660867452621459961e+00 1.142414331436157227e+00 2.400148361921310425e-01
2.905000000000000000e+03 5.828913879394531250e+01 2.700761604309082031e+01 5.452796816825866699e-01 3.248949050903320312e+00 1.138268589973449707e+00 -5.066955089569091797e-01
2.906000000000000000e+03 3.895719528198242188e+01 2.486434555053710938e+01 4.315499365329742432e-01 1.855138897895812988e+00 6.860066652297973633e-01 4.991233646869659424e-01
2.907000000000000000e+03 3.625649642944335938e+01 2.758481025695800781e+01 3.282435834407806396e-01 1.709223985671997070e+00 6.112402677536010742e-01 3.388270437717437744e-01
2.908000000000000000e+03 6.243431091308593750e+01 3.132344818115234375e+01 4.026061296463012695e-01 3.905379295349121094e+00 1.292395591735839844e+00 -3.388984501361846924e-01
2.909000000000000000e+03 4.146895599365234375e+01 2.387185478210449219e+01 5.466151237487792969e-01 1.901086091995239258e+00 7.343103885650634766e-01 5.939376354217529297e-01
2.910000000000000000e+03 2.486420822143554688e+01 -2.557049989700317383e+00 3.447096109390258789e+00 1.298375487327575684e+00 1.423641443252563477e+00 1.917198657989501953e+00
2.911000000000000000e+03 2.652052307128906250e+01 -1.526329159736633301e+00 2.410764455795288086e+00 1.419577360153198242e+00 1.149102568626403809e+00 1.789177417755126953e+00
2.912000000000000000e+03 3.099601554870605469e+01 -2.042412281036376953e+00 1.395411491394042969e+00 8.120326399803161621e-01 6.622332334518432617e-01 6.120209097862243652e-01
2.913000000000000000e+03 3.027500724792480469e+01 1.397428393363952637e+00 1.486418008804321289e+00 1.520587205886840820e+00 9.021015763282775879e-01 1.129591941833496094e+00
2.914000000000000000e+03 2.827962303161621094e+01 8.551713228225708008e-01 1.608387231826782227e+00 1.876290202140808105e+00 1.045403242111206055e+00 1.585855722427368164e+00
2.915000000000000000e+03 2.562333106994628906e+01 -2.004435062408447266e+00 2.943420171737670898e+00 1.412724971771240234e+00 1.306843519210815430e+00 1.955592632293701172e+00
2.916000000000000000e+03 2.714859962463378906e+01 -5.405308723449707031e+00 1.871869444847106934e+00 6.050018072128295898e-01 7.430614233016967773e-01 2.562231197953224182e-02
2.917000000000000000e+03 6.850141906738281250e+01 3.848476409912109375e+00 -5.981204509735107422e-01 6.064730167388916016e+00 1.639982938766479492e+00 -1.610173940658569336e+00
2.918000000000000000e+03 6.704551696777343750e+01 4.524178028106689453e+00 -2.975587248802185059e-01 5.236762046813964844e+00 1.481760978698730469e+00 -1.701891064643859863e+00
2.919000000000000000e+03 3.472314834594726562e+01 -6.297356605529785156e+00 -8.529481291770935059e-02 3.453331887722015381e-01 7.801151275634765625e-02 -3.510357737541198730e-01
2.920000000000000000e+03 4.567520141601562500e+01 -1.097437739372253418e+00 1.468923389911651611e-01 1.346280425786972046e-01 8.445611596107482910e-02 -5.250195041298866272e-02
2.921000000000000000e+03 4.214743041992187500e+01 -7.400489598512649536e-02 4.882098138332366943e-01 2.300101518630981445e-01 2.154659926891326904e-01 2.766158059239387512e-02
2.922000000000000000e+03 3.262344360351562500e+01 -6.939764499664306641e+00 -2.577245421707630157e-02 3.799124062061309814e-01 1.062419861555099487e-01 -4.180905222892761230e-01
2.923000000000000000e+03 2.981059455871582031e+01 -6.412301540374755859e+00 6.635165214538574219e-01 4.639812707901000977e-01 3.382493257522583008e-01 -3.034770786762237549e-01
2.924000000000000000e+03 6.023966979980468750e+01 3.077965021133422852e+00 3.990832269191741943e-01 1.824111819267272949e+00 6.669585108757019043e-01 -1.236075282096862793e+00
2.925000000000000000e+03 6.113663864135742188e+01 1.387557506561279297e+00 2.687711119651794434e-01 1.722344398498535156e+00 5.973346233367919922e-01 -1.557241916656494141e+00
2.926000000000000000e+03 3.476038742065429688e+01 -7.490757465362548828e+00 -4.119911193847656250e-01 3.365833461284637451e-01 -2.262233011424541473e-02 -4.735119640827178955e-01
2.927000000000000000e+03 3.806978607177734375e+01 -7.967112064361572266e+00 -7.751684188842773438e-01 2.758245170116424561e-01 -1.498031616210937500e-01 -5.060963034629821777e-01
2.928000000000000000e+03 4.535554885864257812e+01 -6.478831291198730469e+00 -9.445145726203918457e-01 1.197250261902809143e-01 -2.474368661642074585e-01 -3.931143581867218018e-01
2.929000000000000000e+03 4.455180358886718750e+01 -1.882587671279907227e+00 6.292235106229782104e-02 1.574604064226150513e-01 6.611482799053192139e-02 -9.866340458393096924e-02
2.930000000000000000e+03 4.236519241333007812e+01 -3.962891101837158203e+00 -2.003020346164703369e-01 1.815710663795471191e-01 -5.619290284812450409e-03 -2.173891961574554443e-01
2.931000000000000000e+03 3.219021224975585938e+01 3.043718814849853516e+00 1.426554679870605469e+00 1.374070286750793457e+00 8.401874899864196777e-01 9.347937703132629395e-01
2.932000000000000000e+03 3.884429550170898438e+01 -8.086738586425781250e+00 -8.892900943756103516e-01 2.440469413995742798e-01 -1.935729384422302246e-01 -5.071476101875305176e-01
2.933000000000000000e+03 3.720924377441406250e+01 -8.204275131225585938e+00 -8.015480637550354004e-01 2.822918295860290527e-01 -1.557768732309341431e-01 -5.201839804649353027e-01
2.934000000000000000e+03 3.070260620117187500e+01 -6.966603279113769531e+00 2.515105605125427246e-01 4.208912551403045654e-01 2.017205506563186646e-01 -4.176981449127197266e-01
2.935000000000000000e+03 2.955013275146484375e+01 1.351023614406585693e-01 1.602940320968627930e+00 1.397853136062622070e+00 9.002380371093750000e-01 1.195407509803771973e+00
2.936000000000000000e+03 6.682267761230468750e+01 1.545906543731689453e+00 -6.173266172409057617e-01 5.377414703369140625e+00 1.428026437759399414e+00 -2.270152330398559570e+00
2.937000000000000000e+03 3.468197250366210938e+01 3.490194082260131836e+00 1.249798178672790527e+00 1.027539253234863281e+00 6.832012534141540527e-01 7.282817959785461426e-01
2.938000000000000000e+03 2.661199760437011719e+01 -4.711139202117919922e+00 2.414718389511108398e+00 6.737126708030700684e-01 9.265292882919311523e-01 3.793814480304718018e-01
2.939000000000000000e+03 6.317198562622070312e+01 3.339275360107421875e+00 1.449104994535446167e-01 3.178274631500244141e+00 9.969555139541625977e-01 -1.797369718551635742e+00
2.940000000000000000e+03 4.024557113647460938e+01 -6.118245124816894531e+00 -5.124481320381164551e-01 2.203726619482040405e-01 -8.762263506650924683e-02 -3.685743510723114014e-01
2.941000000000000000e+03 6.604439544677734375e+01 8.796364784240722656e+00 1.287375241518020630e-01 4.613021850585937500e+00 1.422527790069580078e+00 -1.390164613723754883e+00
2.942000000000000000e+03 3.479459381103515625e+01 2.245338439941406250e+00 1.188247203826904297e+00 8.853046298027038574e-01 6.220655441284179688e-01 6.116318106651306152e-01
2.943000000000000000e+03 6.655159759521484375e+01 5.642350196838378906e+00 -1.460673660039901733e-01 4.905433654785156250e+00 1.427809834480285645e+00 -1.637139916419982910e+00
2.944000000000000000e+03 6.653821563720703125e+01 1.918793296813964844e+01 3.775966167449951172e-01 4.585194110870361328e+00 1.488837122917175293e+00 -7.448931336402893066e-01
2.945000000000000000e+03 6.785375213623046875e+01 1.057759380340576172e+01 1.394409835338592529e-01 5.079908847808837891e+00 1.565804958343505859e+00 -1.200713276863098145e+00
2.946000000000000000e+03 6.476296234130859375e+01 1.165903186798095703e+01 3.844463825225830078e-01 4.236971855163574219e+00 1.386425495147705078e+00 -1.171166181564331055e+00
2.947000000000000000e+03 6.417020416259765625e+01 8.854739189147949219e+00 2.749358117580413818e-01 3.975158929824829102e+00 1.275028467178344727e+00 -1.357252717018127441e+00
2.948000000000000000e+03 6.401526641845703125e+01 1.481459498405456543e+00 -4.705533385276794434e-02 3.350897550582885742e+00 9.911526441574096680e-01 -2.203375816345214844e+00
2.949000000000000000e+03 6.671571350097656250e+01 1.356226444244384766e+01 3.379467725753784180e-01 4.704615116119384766e+00 1.512768507003784180e+00 -1.047631621360778809e+00
2.950000000000000000e+03 4.275768280029296875e+01 -5.911678314208984375e+00 -6.327518820762634277e-01 1.751062572002410889e-01 -1.372936815023422241e-01 -3.499229550361633301e-01
2.951000000000000000e+03 3.451533889770507812e+01 4.705808162689208984e+00 1.281679153442382812e+00 1.149869203567504883e+00 7.294645309448242188e-01 8.498878479003906250e-01
2.952000000000000000e+03 2.747258949279785156e+01 -6.138296604156494141e+00 1.376229882240295410e+00 5.747909545898437500e-01 5.853062272071838379e-01 -1.857264488935470581e-01
2.953000000000000000e+03 2.955123519897460938e+01 -3.917704343795776367e+00 1.500029087066650391e+00 6.096458435058593750e-01 6.329024434089660645e-01 3.622824251651763916e-01
2.954000000000000000e+03 6.694043731689453125e+01 1.734388542175292969e+01 3.743810653686523438e-01 4.726024627685546875e+00 1.530121803283691406e+00 -8.343737125396728516e-01
2.955000000000000000e+03 1.596028518676757812e+01 3.041659927368164062e+01 4.205180332064628601e-02 5.106547474861145020e-01 1.658119708299636841e-01 1.955799013376235962e-01
2.956000000000000000e+03 1.440074062347412109e+01 2.724857139587402344e+01 -5.423614755272865295e-02 5.262119174003601074e-01 1.415927410125732422e-01 2.401576191186904907e-01
2.957000000000000000e+03 6.460317230224609375e+01 2.383027267456054688e+01 3.838712275028228760e-01 4.269961357116699219e+00 1.396149754524230957e+00 -5.832637548446655273e-01
2.958000000000000000e+03 6.564183044433593750e+01 2.576414871215820312e+01 3.212793767452239990e-01 4.447976589202880859e+00 1.430776834487915039e+00 -5.246864557266235352e-01
2.959000000000000000e+03 3.133424568176269531e+01 2.143349075317382812e+01 6.433012336492538452e-02 1.642347693443298340e+00 5.120033621788024902e-01 4.318829774856567383e-01
2.960000000000000000e+03 3.712226104736328125e+01 2.465655326843261719e+01 3.567086458206176758e-01 1.809582352638244629e+00 6.498872637748718262e-01 4.628456830978393555e-01
2.961000000000000000e+03 6.223052215576171875e+01 2.299682998657226562e+01 4.739869832992553711e-01 3.869976520538330078e+00 1.303189039230346680e+00 -6.206606626510620117e-01
2.962000000000000000e+03 6.371224594116210938e+01 2.711065673828125000e+01 3.784033358097076416e-01 4.116400241851806641e+00 1.348441004753112793e+00 -4.808667302131652832e-01
2.963000000000000000e+03 2.761293029785156250e+01 -4.190793514251708984e+00 2.068682432174682617e+00 6.750449538230895996e-01 8.231182098388671875e-01 4.976626336574554443e-01
2.964000000000000000e+03 2.597396850585937500e+01 -3.985213041305541992e+00 2.919111728668212891e+00 8.268707394599914551e-01 1.123794794082641602e+00 8.438765406608581543e-01
2.965000000000000000e+03 2.732343673706054688e+01 -1.011540889739990234e+00 2.098590612411499023e+00 1.473268032073974609e+00 1.071557521820068359e+00 1.663466572761535645e+00
2.966000000000000000e+03 2.688571739196777344e+01 -3.458822250366210938e+00 2.521662950515747070e+00 8.559552431106567383e-01 1.013285398483276367e+00 9.857802391052246094e-01
2.967000000000000000e+03 6.704371643066406250e+01 7.828272819519042969e+00 1.000464335083961487e-02 5.001174926757812500e+00 1.503353834152221680e+00 -1.380850315093994141e+00
2.968000000000000000e+03 6.693614196777343750e+01 9.673355102539062500e+00 1.386410742998123169e-01 4.882356166839599609e+00 1.506299138069152832e+00 -1.266819596290588379e+00
2.969000000000000000e+03 3.992205047607421875e+01 -7.214815616607666016e+00 -7.284032106399536133e-01 2.243302613496780396e-01 -1.512218713760375977e-01 -4.347967505455017090e-01
2.970000000000000000e+03 4.536534500122070312e+01 -2.906480789184570312e+00 -2.037864774465560913e-01 1.328612118959426880e-01 -2.127758041024208069e-02 -1.623651683330535889e-01
2.971000000000000000e+03 4.173895645141601562e+01 -5.300583362579345703e+00 -4.486584961414337158e-01 1.882500052452087402e-01 -7.812254875898361206e-02 -3.098488152027130127e-01
2.972000000000000000e+03 3.068045425415039062e+01 -4.404400348663330078e+00 1.063984036445617676e+00 5.296397805213928223e-01 4.780871570110321045e-01 1.035475507378578186e-01
2.973000000000000000e+03 2.854765701293945312e+01 -1.656983494758605957e-01 1.739872813224792480e+00 1.544653296470642090e+00 9.853578209877014160e-01 1.433987975120544434e+00
2.974000000000000000e+03 3.133304977416992188e+01 1.665841221809387207e+00 1.437496781349182129e+00 1.365647912025451660e+00 8.409434556961059570e-01 9.663128852844238281e-01
2.975000000000000000e+03 6.277873229980468750e+01 2.047946453094482422e+00 1.540559381246566772e-01 2.676757574081420898e+00 8.492440581321716309e-01 -1.947341203689575195e+00
2.976000000000000000e+03 6.723377990722656250e+01 2.690593719482421875e+00 -5.981194972991943359e-01 5.602044105529785156e+00 1.501177310943603516e+00 -1.926651120185852051e+00
2.977000000000000000e+03 6.705778503417968750e+01 6.246719360351562500e+00 -1.517537683248519897e-01 5.145084381103515625e+00 1.497999191284179688e+00 -1.535356760025024414e+00
2.978000000000000000e+03 3.295929718017578125e+01 1.410757160186767578e+01 4.961560964584350586e-01 1.913064956665039062e+00 7.227662801742553711e-01 1.237462162971496582e+00
2.979000000000000000e+03 3.361386108398437500e+01 -6.499475002288818359e+00 -2.769769355654716492e-02 3.629567921161651611e-01 1.005777344107627869e-01 -3.736042678356170654e-01
2.980000000000000000e+03 3.117882156372070312e+01 -5.845182895660400391e+00 6.042622923851013184e-01 4.406244158744812012e-01 3.134660124778747559e-01 -2.079686969518661499e-01
2.981000000000000000e+03 6.679994201660156250e+01 1.159619140625000000e+01 2.527470588684082031e-01 4.777416229248046875e+00 1.509048938751220703e+00 -1.160861015319824219e+00
2.982000000000000000e+03 4.256383895874023438e+01 -1.502784013748168945e+00 2.257831692695617676e-01 1.970735937356948853e-01 1.268570274114608765e-01 -6.855917721986770630e-02
2.983000000000000000e+03 4.108901977539062500e+01 -1.945230484008789062e+00 2.383488118648529053e-01 2.277323603630065918e-01 1.398243457078933716e-01 -6.863301992416381836e-02
2.984000000000000000e+03 2.766625213623046875e+01 -2.915340423583984375e+00 2.260717630386352539e+00 9.053565859794616699e-01 9.498222470283508301e-01 9.934224486351013184e-01
2.985000000000000000e+03 3.677203369140625000e+01 -3.698750585317611694e-02 8.495152592658996582e-01 5.252178311347961426e-01 4.124199151992797852e-01 2.493276894092559814e-01
2.986000000000000000e+03 3.805045700073242188e+01 -7.032680511474609375e+00 -5.762795805931091309e-01 2.659367620944976807e-01 -9.310285001993179321e-02 -4.286832213401794434e-01
2.987000000000000000e+03 3.165137481689453125e+01 -4.855849742889404297e+00 7.639545798301696777e-01 4.605333507061004639e-01 3.673463761806488037e-01 -5.178322643041610718e-02
2.988000000000000000e+03 6.618645477294921875e+01 3.058434247970581055e+00 -3.418968617916107178e-01 4.796226024627685547e+00 1.336298704147338867e+00 -2.055798292160034180e+00
2.989000000000000000e+03 6.516682434082031250e+01 3.737694263458251953e+00 -1.124927401542663574e-01 4.234819889068603516e+00 1.236698150634765625e+00 -1.901960730552673340e+00
2.990000000000000000e+03 6.347127532958984375e+01 8.038361549377441406e+00 3.060970008373260498e-01 3.780312538146972656e+00 1.225922822952270508e+00 -1.353414297103881836e+00
2.991000000000000000e+03 3.340683364868164062e+01 3.295791864395141602e+00 1.339079976081848145e+00 1.175215244293212891e+00 7.542885541915893555e-01 8.345251679420471191e-01
2.992000000000000000e+03 4.435463714599609375e+01 -3.787054061889648438e+00 -3.199727535247802734e-01 1.466602385044097900e-01 -5.199375003576278687e-02 -2.217815369367599487e-01
2.993000000000000000e+03 3.279048538208007812e+01 2.639485168457031250e+01 2.184296697378158569e-01 1.560188770294189453e+00 5.335855484008789062e-01 3.021122515201568604e-01
2.994000000000000000e+03 3.948751831054687500e+01 -7.264342308044433594e-01 5.422180294990539551e-01 3.227217197418212891e-01 2.594819366931915283e-01 5.887031182646751404e-02
2.995000000000000000e+03 3.921279907226562500e+01 -5.945004940032958984e+00 -4.029908180236816406e-01 2.401391267776489258e-01 -4.885550215840339661e-02 -3.528201580047607422e-01
2.996000000000000000e+03 3.463172531127929688e+01 -5.067480087280273438e+00 2.518489360809326172e-01 3.632121086120605469e-01 1.845183074474334717e-01 -2.081897556781768799e-01
2.997000000000000000e+03 3.468625259399414062e+01 -3.865753650665283203e+00 5.070258975028991699e-01 3.986728787422180176e-01 2.717096209526062012e-01 -6.357432901859283447e-02
2.998000000000000000e+03 6.568974304199218750e+01 2.046393632888793945e+00 -3.690700232982635498e-01 4.624553680419921875e+00 1.276645064353942871e+00 -2.194311141967773438e+00
2.999000000000000000e+03 6.833618927001953125e+01 2.469437837600708008e+00 -7.320662736892700195e-01 6.168900489807128906e+00 1.631050348281860352e+00 -1.774325370788574219e+00
3.000000000000000000e+03 6.423072814941406250e+01 7.250636100769042969e+00 1.855209022760391235e-01 3.986053705215454102e+00 1.251472353935241699e+00 -1.496366500854492188e+00
3.001000000000000000e+03 6.580336761474609375e+01 2.116408538818359375e+01 3.716130256652832031e-01 4.460124015808105469e+00 1.449521064758300781e+00 -6.608576178550720215e-01
3.002000000000000000e+03 6.531800842285156250e+01 1.985106277465820312e+01 4.231874644756317139e-01 4.393410682678222656e+00 1.444979429244995117e+00 -7.406069040298461914e-01
3.003000000000000000e+03 3.929832458496093750e+01 6.201210618019104004e-01 7.368029356002807617e-01 3.985183537006378174e-01 3.405963778495788574e-01 1.541706174612045288e-01
3.004000000000000000e+03 3.644285964965820312e+01 1.154748797416687012e+00 9.919378161430358887e-01 6.427044272422790527e-01 4.903926849365234375e-01 3.917868435382843018e-01
3.005000000000000000e+03 1.663256835937500000e+01 2.789624786376953125e+01 9.307076223194599152e-03 5.602567195892333984e-01 1.708691269159317017e-01 2.603464722633361816e-01
3.006000000000000000e+03 6.448905181884765625e+01 2.740360260009765625e+00 -7.483051717281341553e-02 3.782588958740234375e+00 1.112327456474304199e+00 -2.084766626358032227e+00
3.007000000000000000e+03 3.903025054931640625e+01 -7.055325984954833984e+00 -6.470064520835876465e-01 2.438642382621765137e-01 -1.209426596760749817e-01 -4.282041192054748535e-01
3.008000000000000000e+03 6.145746994018554688e+01 2.822906303405761719e+01 4.566996395587921143e-01 3.705507516860961914e+00 1.248662114143371582e+00 -4.639880657196044922e-01
3.009000000000000000e+03 3.333818054199218750e+01 2.019924736022949219e+01 2.045190632343292236e-01 1.798310518264770508e+00 6.008489131927490234e-01 6.161428689956665039e-01
3.010000000000000000e+03 3.188400840759277344e+01 1.826262283325195312e+01 7.622329890727996826e-02 1.862531065940856934e+00 5.816262960433959961e-01 7.119798660278320312e-01
3.011000000000000000e+03 2.936308670043945312e+01 2.140183067321777344e+01 -6.106479465961456299e-02 1.481686592102050781e+00 4.261865317821502686e-01 2.951955497264862061e-01
3.012000000000000000e+03 6.633358764648437500e+01 2.277590751647949219e+01 3.411037027835845947e-01 4.557204723358154297e+00 1.469492554664611816e+00 -6.191470026969909668e-01
3.013000000000000000e+03 3.054831314086914062e+01 3.768614828586578369e-01 1.478027343750000000e+00 1.281960725784301758e+00 8.279964327812194824e-01 1.003753304481506348e+00
3.014000000000000000e+03 2.709683799743652344e+01 -2.216286897659301758e+00 2.416969776153564453e+00 1.115651488304138184e+00 1.059786438941955566e+00 1.400734543800354004e+00
3.015000000000000000e+03 3.350049972534179688e+01 -5.329638957977294922e+00 3.529940545558929443e-01 3.907079696655273438e-01 2.231106162071228027e-01 -2.066649198532104492e-01
3.016000000000000000e+03 3.121336174011230469e+01 -3.449542760848999023e+00 1.166141033172607422e+00 5.807922482490539551e-01 5.240799784660339355e-01 2.614922821521759033e-01
3.017000000000000000e+03 6.616204833984375000e+01 7.023861885070800781e+00 2.763859229162335396e-03 4.675236225128173828e+00 1.403400063514709473e+00 -1.540251851081848145e+00
3.018000000000000000e+03 6.323693847656250000e+01 6.047501564025878906e+00 2.310604155063629150e-01 3.517651319503784180e+00 1.124613523483276367e+00 -1.501616001129150391e+00
3.019000000000000000e+03 3.827256774902343750e+01 -3.502857446670532227e+00 1.976000070571899414e-01 2.933870851993560791e-01 1.472961306571960449e-01 -1.370357424020767212e-01
3.020000000000000000e+03 6.562635803222656250e+01 6.057714462280273438e+00 -3.149667754769325256e-02 4.524034976959228516e+00 1.347761511802673340e+00 -1.644777297973632812e+00
3.021000000000000000e+03 3.025481986999511719e+01 -5.399105072021484375e+00 9.118357896804809570e-01 4.698388278484344482e-01 4.145023822784423828e-01 -8.268765360116958618e-02
3.022000000000000000e+03 2.811036109924316406e+01 -5.029783248901367188e+00 1.667313218116760254e+00 5.625534653663635254e-01 6.689599752426147461e-01 1.321909278631210327e-01
3.023000000000000000e+03 3.023301506042480469e+01 -2.904263973236083984e+00 1.507068753242492676e+00 7.318276762962341309e-01 6.716689467430114746e-01 5.556106567382812500e-01
3.024000000000000000e+03 3.355665969848632812e+01 2.159580707550048828e+00 1.303521871566772461e+00 1.054559588432312012e+00 7.074244618415832520e-01 7.342873811721801758e-01
3.025000000000000000e+03 3.696371841430664062e+01 -6.032453060150146484e+00 -2.316335439682006836e-01 2.936984002590179443e-01 1.861945539712905884e-02 -3.463864624500274658e-01
3.026000000000000000e+03 3.810502624511718750e+01 -5.929087162017822266e+00 -3.166440129280090332e-01 2.694802880287170410e-01 -1.414911821484565735e-02 -3.459903001785278320e-01
3.027000000000000000e+03 3.242020797729492188e+01 1.932646632194519043e+00 1.365623712539672852e+00 1.203116655349731445e+00 7.706221342086791992e-01 8.407349586486816406e-01
3.028000000000000000e+03 3.363380432128906250e+01 1.096783518791198730e+00 1.234952449798583984e+00 9.321870207786560059e-01 6.501418352127075195e-01 6.400454044342041016e-01
3.029000000000000000e+03 3.582155609130859375e+01 -4.952363014221191406e+00 1.271219849586486816e-01 3.435040414333343506e-01 1.411878019571304321e-01 -2.190016210079193115e-01
3.030000000000000000e+03 3.254059600830078125e+01 -5.307939529418945312e+00 4.924010038375854492e-01 4.044457674026489258e-01 2.690540254116058350e-01 -1.713010668754577637e-01
3.031000000000000000e+03 3.817347335815429688e+01 -9.772851467132568359e-01 6.105079054832458496e-01 3.880720734596252441e-01 2.995739877223968506e-01 8.743510395288467407e-02
3.032000000000000000e+03 3.959203720092773438e+01 -3.437977075576782227e+00 1.028458625078201294e-01 2.564252018928527832e-01 1.077813208103179932e-01 -1.532613933086395264e-01
3.033000000000000000e+03 3.942161178588867188e+01 -4.738690853118896484e+00 -1.587682515382766724e-01 2.468779534101486206e-01 2.643291093409061432e-02 -2.575331032276153564e-01
3.034000000000000000e+03 4.061888122558593750e+01 -4.898921012878417969e+00 -2.908949851989746094e-01 2.129917144775390625e-01 -2.337098121643066406e-02 -2.805662453174591064e-01
3.035000000000000000e+03 3.536587142944335938e+01 5.441830158233642578e-01 1.051994800567626953e+00 7.128245234489440918e-01 5.294457674026489258e-01 4.354771375656127930e-01
3.036000000000000000e+03 3.567864227294921875e+01 -3.651620447635650635e-01 9.202508330345153809e-01 5.673193335533142090e-01 4.462710320949554443e-01 2.815996408462524414e-01
3.037000000000000000e+03 1.919437789916992188e+01 2.819029235839843750e+01 8.458297699689865112e-02 6.040378808975219727e-01 2.065862417221069336e-01 2.557677626609802246e-01
3.038000000000000000e+03 1.891127967834472656e+01 3.091364288330078125e+01 1.098823472857475281e-01 6.118471622467041016e-01 2.165188491344451904e-01 1.909178495407104492e-01
3.039000000000000000e+03 3.869991683959960938e+01 3.301398468017578125e+01 4.414974451065063477e-01 1.732182383537292480e+00 6.521039605140686035e-01 2.177439182996749878e-01
3.040000000000000000e+03 3.783043670654296875e+01 2.995950317382812500e+01 4.096630811691284180e-01 1.730615854263305664e+00 6.420836448669433594e-01 2.921564280986785889e-01
3.041000000000000000e+03 3.401686096191406250e+01 2.874397277832031250e+01 3.041749000549316406e-01 1.580068469047546387e+00 5.652730464935302734e-01 2.684055566787719727e-01
3.042000000000000000e+03 3.070435333251953125e+01 -5.999449491500854492e-01 1.463078379631042480e+00 1.064545631408691406e+00 7.582871913909912109e-01 8.595169782638549805e-01
3.043000000000000000e+03 2.844059181213378906e+01 -3.463621616363525391e+00 1.894985318183898926e+00 7.410090565681457520e-01 7.907983064651489258e-01 6.474951505661010742e-01
3.044000000000000000e+03 2.891090011596679688e+01 -1.168379545211791992e+00 1.813863635063171387e+00 1.206532478332519531e+00 9.061188697814941406e-01 1.194875955581665039e+00
3.045000000000000000e+03 2.982912063598632812e+01 -7.563889026641845703e-01 1.616001129150390625e+00 1.182068228721618652e+00 8.394207954406738281e-01 1.031731963157653809e+00
3.046000000000000000e+03 3.158059120178222656e+01 5.795272588729858398e-01 1.382261157035827637e+00 1.152490496635437012e+00 7.604255080223083496e-01 8.513523340225219727e-01
3.047000000000000000e+03 3.263284301757812500e+01 8.202897310256958008e-01 1.317689061164855957e+00 1.038419127464294434e+00 7.068324685096740723e-01 7.304620146751403809e-01
3.048000000000000000e+03 2.849796295166015625e+01 -2.545758247375488281e+00 1.917357683181762695e+00 8.882246017456054688e-01 8.416746854782104492e-01 9.202198386192321777e-01
3.049000000000000000e+03 3.961579513549804688e+01 -2.086652517318725586e+00 3.260957300662994385e-01 2.817644178867340088e-01 1.823580563068389893e-01 -5.310508608818054199e-02
3.050000000000000000e+03 3.217938995361328125e+01 -3.901262998580932617e+00 8.797918558120727539e-01 5.001220703125000000e-01 4.139741659164428711e-01 9.674235433340072632e-02
3.051000000000000000e+03 3.469768524169921875e+01 -3.660877943038940430e-01 1.046721339225769043e+00 6.844586730003356934e-01 5.193539857864379883e-01 3.985932469367980957e-01
3.052000000000000000e+03 3.373212432861328125e+01 -3.468131542205810547e+00 7.265802621841430664e-01 4.811804592609405518e-01 3.623282313346862793e-01 6.362286210060119629e-02
3.053000000000000000e+03 4.334083938598632812e+01 -2.773688316345214844e+00 -5.095989629626274109e-02 1.671877354383468628e-01 3.486834838986396790e-02 -1.403523534536361694e-01
3.054000000000000000e+03 6.456426239013671875e+01 4.827859878540039062e+00 1.287013385444879532e-02 3.995086431503295898e+00 1.202386975288391113e+00 -1.780738949775695801e+00
3.055000000000000000e+03 3.826666259765625000e+01 -2.245055675506591797e+00 4.174535572528839111e-01 3.289159536361694336e-01 2.239108532667160034e-01 -2.432232350111007690e-02
3.056000000000000000e+03 3.310194015502929688e+01 -1.583557009696960449e+00 1.101600885391235352e+00 6.788720488548278809e-01 5.341418981552124023e-01 3.941584229469299316e-01
3.057000000000000000e+03 3.582904815673828125e+01 -3.759077072143554688e+00 3.945770561695098877e-01 3.711634576320648193e-01 2.297221571207046509e-01 -1.019840091466903687e-01
3.058000000000000000e+03 3.571413421630859375e+01 -1.445649385452270508e+00 7.710832953453063965e-01 5.162654519081115723e-01 3.862046301364898682e-01 1.834174394607543945e-01
3.059000000000000000e+03 6.331871032714843750e+01 4.725226402282714844e+00 1.815151870250701904e-01 3.390673875808715820e+00 1.071656703948974609e+00 -1.661702752113342285e+00
3.060000000000000000e+03 2.514474678039550781e+01 3.037595939636230469e+01 1.870195269584655762e-01 9.204450845718383789e-01 3.322393894195556641e-01 1.466165333986282349e-01
3.061000000000000000e+03 3.016366004943847656e+01 2.278399467468261719e+01 5.150254070758819580e-02 1.492387294769287109e+00 4.631669521331787109e-01 3.034423291683197021e-01
3.062000000000000000e+03 2.946060562133789062e+01 -2.114848136901855469e+00 1.694603204727172852e+00 9.107489585876464844e-01 7.816056609153747559e-01 8.341405987739562988e-01
3.063000000000000000e+03 3.174996376037597656e+01 -5.419470667839050293e-01 1.329754233360290527e+00 9.590547084808349609e-01 6.866427063941955566e-01 7.009930610656738281e-01
3.064000000000000000e+03 3.033936309814453125e+01 -1.426825165748596191e+00 1.527471184730529785e+00 9.633074998855590820e-01 7.472336292266845703e-01 8.066075444221496582e-01
3.065000000000000000e+03 3.443087387084960938e+01 -1.569157719612121582e+00 9.220033884048461914e-01 5.849312543869018555e-01 4.520803987979888916e-01 2.747616767883300781e-01
3.066000000000000000e+03 3.460011291503906250e+01 -2.777900218963623047e+00 7.632233500480651855e-01 4.871734976768493652e-01 3.751190602779388428e-01 1.077290177345275879e-01
3.067000000000000000e+03 3.190343093872070312e+01 -1.600661993026733398e+00 1.286204457283020020e+00 7.908614873886108398e-01 6.231197714805603027e-01 5.495342612266540527e-01
3.068000000000000000e+03 3.692549514770507812e+01 -1.224924683570861816e+00 6.915961503982543945e-01 4.367648959159851074e-01 3.385083079338073730e-01 1.306815892457962036e-01
3.069000000000000000e+03 3.820127868652343750e+01 -4.738777160644531250e+00 -4.355305805802345276e-02 2.748576998710632324e-01 6.939139217138290405e-02 -2.436267584562301636e-01
3.070000000000000000e+03 3.293283462524414062e+01 -3.169548511505126953e-01 1.191572904586791992e+00 8.366309404373168945e-01 6.084611415863037109e-01 5.658692717552185059e-01
3.071000000000000000e+03 3.508158493041992188e+01 2.528727531433105469e+01 2.675580084323883057e-01 1.710425138473510742e+00 5.933949351310729980e-01 3.849837481975555420e-01
3.072000000000000000e+03 3.041098976135253906e+01 2.792313194274902344e+01 2.096465080976486206e-01 1.332333803176879883e+00 4.625940918922424316e-01 2.114386558532714844e-01
3.073000000000000000e+03 2.542514228820800781e+01 2.557633781433105469e+01 1.228556707501411438e-01 9.268904328346252441e-01 3.149238228797912598e-01 1.726416051387786865e-01
3.074000000000000000e+03 3.578736495971679688e+01 -2.590969562530517578e+00 6.381914019584655762e-01 4.312417805194854736e-01 3.208299577236175537e-01 5.692137032747268677e-02
3.075000000000000000e+03 3.702511215209960938e+01 -3.622478961944580078e+00 2.968742251396179199e-01 3.363525569438934326e-01 1.899680346250534058e-01 -1.171163693070411682e-01
3.076000000000000000e+03 3.699953842163085938e+01 -4.828852653503417969e+00 4.476053640246391296e-02 3.100234270095825195e-01 1.064351871609687805e-01 -2.341211885213851929e-01
3.077000000000000000e+03 1.832480049133300781e+01 3.410433578491210938e+01 1.216079369187355042e-01 5.838195681571960449e-01 2.116282582283020020e-01 1.270169317722320557e-01
3.078000000000000000e+03 5.260839080810546875e+01 3.061374092102050781e+01 7.402724623680114746e-01 2.469098091125488281e+00 9.628111720085144043e-01 -1.840347647666931152e-01
3.079000000000000000e+03 1.866550636291503906e+01 -3.624692153930664062e+01 -2.533058822154998779e-01 9.040690064430236816e-01 1.952289342880249023e-01 -7.721530646085739136e-02
3.080000000000000000e+03 3.161067008972167969e+01 -4.106831741333007812e+01 -1.789740324020385742e-01 -1.352960169315338135e-01 -9.428101778030395508e-02 3.834059694781899452e-03
3.081000000000000000e+03 4.696754455566406250e+01 3.495389175415039062e+01 6.424934864044189453e-01 2.175512790679931641e+00 8.454018831253051758e-01 7.659262418746948242e-02
3.082000000000000000e+03 5.454265213012695312e+01 2.964461135864257812e+01 7.051129341125488281e-01 2.676377534866333008e+00 1.014447093009948730e+00 -2.604084312915802002e-01
3.083000000000000000e+03 8.398127555847167969e+00 4.100511932373046875e+01 2.402384020388126373e-02 4.972974583506584167e-02 2.212607488036155701e-02 1.339744590222835541e-02
3.084000000000000000e+03 7.836564064025878906e+00 3.558870697021484375e+01 8.115428499877452850e-03 4.683573544025421143e-02 1.648534834384918213e-02 3.997311368584632874e-02
3.085000000000000000e+03 4.591405868530273438e+01 2.855330276489257812e+01 7.328405380249023438e-01 1.886063575744628906e+00 7.856712341308593750e-01 2.782302796840667725e-01
3.086000000000000000e+03 4.305522155761718750e+01 3.624724197387695312e+01 5.572994947433471680e-01 1.949555397033691406e+00 7.520564794540405273e-01 1.072439178824424744e-01
3.087000000000000000e+03 2.206170463562011719e+01 -3.624961853027343750e+01 -1.924475729465484619e-01 4.524756371974945068e-01 7.800842076539993286e-02 -7.480762898921966553e-02
3.088000000000000000e+03 2.677460098266601562e+01 -3.641705703735351562e+01 -2.070093154907226562e-01 4.077219218015670776e-02 -4.987113922834396362e-02 3.167437016963958740e-02
3.089000000000000000e+03 5.910036468505859375e+01 -3.532831954956054688e+01 1.851841956377029419e-01 1.518701672554016113e+00 5.111657977104187012e-01 1.698080748319625854e-01
3.090000000000000000e+03 1.787908172607421875e+01 3.756161499023437500e+01 1.263947337865829468e-01 5.552006363868713379e-01 2.044786214828491211e-01 6.978201121091842651e-02
3.091000000000000000e+03 2.243060302734375000e+01 -3.882611846923828125e+01 -1.746380329132080078e-01 4.371064901351928711e-01 7.874052971601486206e-02 -2.953553386032581329e-02
3.092000000000000000e+03 2.791220474243164062e+01 2.934171676635742188e+01 2.053447514772415161e-01 1.133858680725097656e+00 4.017610549926757812e-01 1.568989157676696777e-01
3.093000000000000000e+03 1.350647926330566406e+01 3.789759826660156250e+01 6.441083550453186035e-02 3.423007428646087646e-01 1.220134720206260681e-01 5.683647096157073975e-02
3.094000000000000000e+03 6.315537261962890625e+01 3.708797073364257812e+01 3.628701269626617432e-01 4.017341136932373047e+00 1.314063429832458496e+00 -1.763353347778320312e-01
3.095000000000000000e+03 3.535074996948242188e+01 3.333093643188476562e+01 3.641505837440490723e-01 1.569725036621093750e+00 5.801626443862915039e-01 1.811727136373519897e-01
3.096000000000000000e+03 2.247047233581542969e+01 -4.132627105712890625e+01 -1.590201705694198608e-01 4.582622051239013672e-01 8.977261185646057129e-02 -2.474039979279041290e-02
3.097000000000000000e+03 2.933208847045898438e+01 -3.459694671630859375e+01 -3.275930583477020264e-01 -7.477523386478424072e-02 -1.207104921340942383e-01 1.143046170473098755e-01
3.098000000000000000e+03 3.845968627929687500e+01 3.666148757934570312e+01 4.574584960937500000e-01 1.712100386619567871e+00 6.508677005767822266e-01 1.257932335138320923e-01
3.099000000000000000e+03 5.293475341796875000e+01 4.058988189697265625e+01 5.969013571739196777e-01 2.797552585601806641e+00 1.018336176872253418e+00 -3.008151613175868988e-02
3.100000000000000000e+03 5.847191619873046875e+01 3.653702926635742188e+01 4.996141195297241211e-01 3.392562389373779297e+00 1.167652964591979980e+00 -1.642396599054336548e-01
3.101000000000000000e+03 2.244838523864746094e+01 3.733386611938476562e+01 2.000049799680709839e-01 7.999405264854431152e-01 2.999836504459381104e-01 7.629977166652679443e-02
3.102000000000000000e+03 5.007632064819335938e+01 3.387114334106445312e+01 6.850768327713012695e-01 2.385438203811645508e+00 9.211545586585998535e-01 -5.457855295389890671e-03
3.103000000000000000e+03 2.590792846679687500e+01 3.330740737915039062e+01 2.228364646434783936e-01 9.944356083869934082e-01 3.651816248893737793e-01 1.166371181607246399e-01
3.104000000000000000e+03 3.309272766113281250e+01 3.230508804321289062e+01 3.171352744102478027e-01 1.469948649406433105e+00 5.361251831054687500e-01 1.786315441131591797e-01
3.105000000000000000e+03 4.638533020019531250e+01 3.163487243652343750e+01 6.829030513763427734e-01 2.004205465316772461e+00 8.061325550079345703e-01 1.667266041040420532e-01
3.106000000000000000e+03 2.707180595397949219e+01 3.660198211669921875e+01 2.567441463470458984e-01 1.069858670234680176e+00 3.979808390140533447e-01 7.818032801151275635e-02
3.107000000000000000e+03 1.687842750549316406e+01 -2.700082659721374512e-01 6.393083333969116211e-01 1.829153895378112793e+00 7.405386567115783691e-01 -1.285861492156982422e+00
3.108000000000000000e+03 1.734691810607910156e+01 -4.545773565769195557e-01 6.700327992439270020e-01 2.526809692382812500e+00 9.590527415275573730e-01 -1.266078114509582520e+00
3.109000000000000000e+03 1.759447288513183594e+01 -1.023407459259033203e+00 8.669599890708923340e-01 3.364431858062744141e+00 1.269417524337768555e+00 -1.358640789985656738e+00
3.110000000000000000e+03 1.548159885406494141e+01 -3.732748746871948242e+00 5.507728099822998047e+00 -8.341569304466247559e-01 1.402071356773376465e+00 8.516009449958801270e-01
3.111000000000000000e+03 1.585042667388916016e+01 -3.931076526641845703e+00 6.829247951507568359e+00 -8.046172261238098145e-01 1.807389259338378906e+00 1.238659143447875977e+00
3.112000000000000000e+03 1.636863517761230469e+01 -4.222782135009765625e+00 8.796814918518066406e+00 -4.009735286235809326e-01 2.518752336502075195e+00 2.445466518402099609e+00
3.113000000000000000e+03 1.650778579711914062e+01 -4.334260463714599609e+00 9.256876945495605469e+00 -1.073843762278556824e-01 2.744847774505615234e+00 3.099254846572875977e+00
3.114000000000000000e+03 1.702801132202148438e+01 -4.696402072906494141e+00 9.614142417907714844e+00 2.663477897644042969e+00 3.683286190032958984e+00 5.089478492736816406e+00
3.115000000000000000e+03 1.716742515563964844e+01 -4.778689384460449219e+00 9.662441253662109375e+00 3.815208673477172852e+00 4.043294906616210938e+00 6.116934299468994141e+00
3.116000000000000000e+03 2.714999771118164062e+01 9.754096984863281250e+00 1.004444241523742676e+00 3.893074750900268555e+00 1.469255685806274414e+00 1.664654135704040527e+00
3.117000000000000000e+03 4.351374816894531250e+01 7.920954704284667969e+00 5.364960432052612305e-01 6.067839264869689941e-01 3.429839611053466797e-01 -2.546823620796203613e-01
3.118000000000000000e+03 4.396362686157226562e+01 1.855567359924316406e+01 8.997204899787902832e-01 2.145039796829223633e+00 9.134281277656555176e-01 1.056094169616699219e+00
3.119000000000000000e+03 5.604839324951171875e+01 1.589963722229003906e+01 1.140390157699584961e+00 3.660169124603271484e+00 1.440167784690856934e+00 -1.026312589645385742e+00
3.120000000000000000e+03 3.487878036499023438e+01 -3.959639358520507812e+01 -2.573172450065612793e-01 -1.661089807748794556e-01 -1.270278692245483398e-01 9.895356371998786926e-03
3.121000000000000000e+03 1.717335128784179688e+01 -5.026098728179931641e+00 8.642672538757324219e+00 4.371833801269531250e+00 3.904351711273193359e+00 5.986832618713378906e+00
3.122000000000000000e+03 1.726717948913574219e+01 -5.017973899841308594e+00 8.647552490234375000e+00 4.378222942352294922e+00 3.907732486724853516e+00 5.993467807769775391e+00
3.123000000000000000e+03 1.674796867370605469e+01 -5.054102897644042969e+00 7.963422298431396484e+00 1.917262673377990723e+00 2.964205503463745117e+00 5.006665706634521484e+00
3.124000000000000000e+03 1.715156555175781250e+01 -5.139955520629882812e+00 8.628777503967285156e+00 4.369872570037841797e+00 3.899595022201538086e+00 5.995880603790283203e+00
3.125000000000000000e+03 1.720482254028320312e+01 -4.900274753570556641e+00 8.670494079589843750e+00 4.372259616851806641e+00 3.912826061248779297e+00 5.998941898345947266e+00
3.126000000000000000e+03 1.708920860290527344e+01 -5.022256374359130859e+00 8.639737129211425781e+00 4.357314586639404297e+00 3.899115800857543945e+00 5.983614444732666016e+00
3.127000000000000000e+03 1.544757175445556641e+01 -4.528999805450439453e+00 6.363239288330078125e+00 -9.508701562881469727e-01 1.623710751533508301e+00 2.591516971588134766e+00
3.128000000000000000e+03 1.573611354827880859e+01 -4.208566665649414062e+00 6.844271659851074219e+00 -9.157910346984863281e-01 1.778544187545776367e+00 1.872715353965759277e+00
3.129000000000000000e+03 1.607473754882812500e+01 -4.707681655883789062e+00 7.664526939392089844e+00 4.134060442447662354e-02 2.311760187149047852e+00 3.564931869506835938e+00
3.130000000000000000e+03 1.632332420349121094e+01 -4.427156925201416016e+00 8.767414093017578125e+00 -4.806413501501083374e-02 2.615804910659790039e+00 3.016164541244506836e+00
3.131000000000000000e+03 4.446411132812500000e+01 4.289901256561279297e+00 1.030743360519409180e+00 2.005900293588638306e-01 3.693999946117401123e-01 -4.481691401451826096e-03
3.132000000000000000e+03 2.705312538146972656e+01 1.554799461364746094e+01 -5.517407059669494629e-01 1.830188035964965820e+00 3.835341930389404297e-01 4.713198542594909668e-01
3.133000000000000000e+03 6.503993225097656250e+01 -3.415325403213500977e+00 -5.328402519226074219e-01 3.222566843032836914e+00 8.069180250167846680e-01 -4.069793701171875000e+00
3.134000000000000000e+03 3.407019042968750000e+01 3.644314575195312500e+01 3.627334535121917725e-01 1.464144468307495117e+00 5.480633974075317383e-01 1.102262809872627258e-01
3.135000000000000000e+03 5.450382614135742188e+01 2.079053115844726562e+01 6.458780765533447266e-01 2.406714200973510742e+00 9.157776832580566406e-01 -8.333643078804016113e-01
3.136000000000000000e+03 5.636166763305664062e+01 1.294329166412353516e+01 3.701086342334747314e-01 3.676340341567993164e+00 1.213934659957885742e+00 -7.150620818138122559e-01
3.137000000000000000e+03 2.122973251342773438e+01 -6.839070796966552734e+00 2.669947385787963867e+00 3.272472858428955078e+00 1.782726168632507324e+00 -7.405956983566284180e-01
3.138000000000000000e+03 1.807847785949707031e+01 -6.973315477371215820e-01 5.455046892166137695e-01 4.309501647949218750e+00 1.456501960754394531e+00 -8.124319911003112793e-01
3.139000000000000000e+03 1.855750465393066406e+01 -1.278202652931213379e+00 7.316091656684875488e-01 6.468002796173095703e+00 2.159883499145507812e+00 5.938704684376716614e-02
3.140000000000000000e+03 1.929762840270996094e+01 -9.902798533439636230e-01 1.060426115989685059e+00 6.281692028045654297e+00 2.202635288238525391e+00 1.649203777313232422e+00
3.141000000000000000e+03 1.851772117614746094e+01 -1.051620364189147949e+00 5.673457384109497070e-01 5.842238903045654297e+00 1.922875404357910156e+00 -1.310377418994903564e-01
3.142000000000000000e+03 1.753136062622070312e+01 -2.242377847433090210e-01 5.611588358879089355e-01 2.832462549209594727e+00 1.018086433410644531e+00 -1.181904315948486328e+00
3.143000000000000000e+03 4.199776077270507812e+01 -1.539201068878173828e+01 -2.350749492645263672e+00 8.036927133798599243e-02 -6.811140775680541992e-01 -6.156612038612365723e-01
3.144000000000000000e+03 1.613800048828125000e+01 -5.655813217163085938e+00 5.991109371185302734e+00 1.137471079826354980e+00 2.138574123382568359e+00 4.931974887847900391e+00
3.145000000000000000e+03 2.235453605651855469e+01 2.082143592834472656e+01 -9.142873977907584049e-07 3.615563809871673584e-01 1.084666401147842407e-01 2.089792937040328979e-01
3.146000000000000000e+03 2.585641670227050781e+01 1.704071617126464844e+01 -5.714191198348999023e-01 1.352358818054199219e+00 2.342818975448608398e-01 8.681567013263702393e-02
3.147000000000000000e+03 7.045826721191406250e+01 -4.516776561737060547e+00 -1.474666714668273926e+00 1.149122428894042969e+01 3.004967212677001953e+00 -5.151285529136657715e-01
3.148000000000000000e+03 6.656118011474609375e+01 -2.629170179367065430e+00 -9.679380059242248535e-01 5.745378494262695312e+00 1.433232069015502930e+00 -3.690736770629882812e+00
3.149000000000000000e+03 2.050561141967773438e+01 -7.712118148803710938e+00 1.025422692298889160e+00 3.449576139450073242e+00 1.342499613761901855e+00 -2.555061578750610352e-01
3.150000000000000000e+03 2.896145439147949219e+01 1.768271827697753906e+01 -2.251821756362915039e-01 1.760592937469482422e+00 4.606232345104217529e-01 5.096492767333984375e-01
3.151000000000000000e+03 1.850282287597656250e+01 -8.445496559143066406e-01 5.520441532135009766e-01 5.389779090881347656e+00 1.782546997070312500e+00 -1.888201534748077393e-01
3.152000000000000000e+03 1.870050239562988281e+01 -7.996139526367187500e-01 5.887027382850646973e-01 5.607183456420898438e+00 1.858765840530395508e+00 1.524391174316406250e-01
3.153000000000000000e+03 1.897181510925292969e+01 -9.256778955459594727e-01 7.296086549758911133e-01 5.875352382659912109e+00 1.981488347053527832e+00 7.377463579177856445e-01
3.154000000000000000e+03 1.867271232604980469e+01 -6.203393340110778809e-01 5.056018233299255371e-01 5.074528217315673828e+00 1.674039006233215332e+00 4.033365473151206970e-02
3.155000000000000000e+03 1.546110820770263672e+01 -4.977997303009033203e+00 6.094154357910156250e+00 -4.825856387615203857e-01 1.683470726013183594e+00 3.456828117370605469e+00
3.156000000000000000e+03 2.161294364929199219e+01 2.173614120483398438e+01 3.559520095586776733e-02 3.812245428562164307e-01 1.250459253787994385e-01 2.790459394454956055e-01
3.157000000000000000e+03 1.843671798706054688e+01 -7.268179416656494141e+00 1.461030483245849609e+00 4.397898197174072266e+00 1.757678627967834473e+00 2.157258749008178711e+00
3.158000000000000000e+03 5.563892745971679688e+01 5.357196331024169922e+00 7.225256562232971191e-01 1.008084297180175781e+00 5.191829800605773926e-01 -1.287502348423004150e-01
3.159000000000000000e+03 5.485720062255859375e+01 4.196967124938964844e+00 7.557200789451599121e-01 6.754548549652099609e-01 4.293524622917175293e-01 -1.905579715967178345e-01
3.160000000000000000e+03 1.767227172851562500e+01 3.759692907333374023e-01 2.890338599681854248e-01 2.672157764434814453e+00 8.883574604988098145e-01 -9.535910487174987793e-01
3.161000000000000000e+03 2.634450531005859375e+01 -1.376720905303955078e+01 -3.879785776138305664e+00 6.203016042709350586e-01 -9.778452515602111816e-01 2.012995444238185883e-02
3.162000000000000000e+03 3.035743141174316406e+01 9.443362236022949219e+00 1.269662022590637207e+00 2.078127622604370117e+00 1.004336953163146973e+00 1.517115235328674316e+00
3.163000000000000000e+03 1.292720413208007812e+01 -5.462400436401367188e+00 2.765927791595458984e+00 -5.224140882492065430e-01 6.730540990829467773e-01 3.432934761047363281e+00
3.164000000000000000e+03 1.626243972778320312e+01 -6.430730819702148438e+00 4.296492099761962891e+00 1.503873229026794434e+00 1.740109682083129883e+00 4.951209545135498047e+00
3.165000000000000000e+03 1.640042114257812500e+01 -7.696586132049560547e+00 1.759634971618652344e+00 1.410963296890258789e+00 9.511794447898864746e-01 4.545736789703369141e+00
3.166000000000000000e+03 2.325994491577148438e+01 -2.283688783645629883e+00 4.279623508453369141e+00 1.957289934158325195e+00 1.871073961257934570e+00 2.749385356903076172e+00
3.167000000000000000e+03 2.414219856262207031e+01 -2.248971700668334961e+00 3.755407571792602539e+00 1.671963334083557129e+00 1.628211259841918945e+00 2.404380083084106445e+00
3.168000000000000000e+03 4.969820785522460938e+01 2.608689689636230469e+01 9.514130353927612305e-01 1.782630920410156250e+00 8.202131986618041992e-01 -3.061963710933923721e-03
3.169000000000000000e+03 2.261502075195312500e+01 -1.104644656181335449e+00 3.236645698547363281e+00 2.850999355316162109e+00 1.826293468475341797e+00 3.405035972595214844e+00
3.170000000000000000e+03 6.797265625000000000e+01 -1.825614333152770996e+00 -1.319713711738586426e+00 7.193363666534423828e+00 1.762094974517822266e+00 -2.738502502441406250e+00
3.171000000000000000e+03 1.346714305877685547e+01 2.020035362243652344e+01 -2.753590047359466553e-01 9.772017598152160645e-01 2.105528265237808228e-01 2.731316983699798584e-01
3.172000000000000000e+03 1.685099983215332031e+01 -8.601200103759765625e+00 -7.160666584968566895e-02 1.013929843902587891e+00 2.826969325542449951e-01 3.513206720352172852e+00
3.173000000000000000e+03 1.783121681213378906e+01 -1.157250776886940002e-01 4.274334609508514404e-01 3.321372270584106445e+00 1.124641776084899902e+00 -9.442919492721557617e-01
3.174000000000000000e+03 1.888808059692382812e+01 -7.000624537467956543e-01 5.962271094322204590e-01 5.526965141296386719e+00 1.836957573890686035e+00 5.201662182807922363e-01
3.175000000000000000e+03 1.867592620849609375e+01 -3.767270147800445557e-01 4.677500724792480469e-01 4.633720874786376953e+00 1.530441284179687500e+00 2.536482363939285278e-02
3.176000000000000000e+03 5.721940612792968750e+01 -4.818113327026367188e+00 -1.443965554237365723e+00 -1.446736752986907959e-01 -4.765917658805847168e-01 -6.337216496467590332e-01
3.177000000000000000e+03 1.201018333435058594e+01 7.844639301300048828e+00 5.848389267921447754e-01 1.446721792221069336e+00 6.094682216644287109e-01 -4.114230722188949585e-02
3.178000000000000000e+03 1.090170288085937500e+01 -8.490859985351562500e+00 -5.285434126853942871e-01 3.152003049850463867e+00 7.870378494262695312e-01 5.109244823455810547e+00
3.179000000000000000e+03 5.482929229736328125e+01 3.172766923904418945e+00 6.688032746315002441e-01 5.627089142799377441e-01 3.694536387920379639e-01 -2.314918041229248047e-01
3.180000000000000000e+03 2.566172409057617188e+01 -3.377087020874023438e+01 -2.784445583820343018e-01 -1.134743288275785744e-04 -8.356741070747375488e-02 5.999936535954475403e-02
3.181000000000000000e+03 2.029990386962890625e+01 1.080246418714523315e-01 1.132545828819274902e+00 4.049379825592041016e+00 1.554577708244323730e+00 2.268061637878417969e+00
3.182000000000000000e+03 1.218386650085449219e+01 -6.047807216644287109e+00 1.897434830665588379e+00 7.878175377845764160e-02 5.928649902343750000e-01 3.738666772842407227e+00
3.183000000000000000e+03 1.896829605102539062e+01 -4.509966969490051270e-01 5.248264074325561523e-01 5.332117557525634766e+00 1.757083296775817871e+00 6.056668758392333984e-01
3.184000000000000000e+03 1.808924484252929688e+01 5.655444860458374023e-01 1.623119860887527466e-01 2.943823814392089844e+00 9.318407177925109863e-01 -6.528071165084838867e-01
3.185000000000000000e+03 4.364522552490234375e+01 2.126364326477050781e+01 6.531992554664611816e-01 1.860940217971801758e+00 7.542418241500854492e-01 7.369461059570312500e-01
3.186000000000000000e+03 2.017252349853515625e+01 2.125790214538574219e+01 -9.469727519899606705e-04 3.398425281047821045e-01 1.016686633229255676e-01 4.465189278125762939e-01
3.187000000000000000e+03 1.860274696350097656e+01 1.712933927774429321e-01 2.746367156505584717e-01 3.954830408096313477e+00 1.268840074539184570e+00 -1.155340597033500671e-01
3.188000000000000000e+03 5.577696990966796875e+01 2.780513572692871094e+01 6.671658754348754883e-01 2.818187236785888672e+00 1.045605897903442383e+00 -3.651482760906219482e-01
3.189000000000000000e+03 2.811062812805175781e+01 1.680929374694824219e+01 -3.618066906929016113e-01 1.843768239021301270e+00 4.445884525775909424e-01 5.148138999938964844e-01
3.190000000000000000e+03 4.130602645874023438e+01 -1.296491336822509766e+01 -1.997099757194519043e+00 1.679221689701080322e-01 -5.487532615661621094e-01 -6.353843808174133301e-01
3.191000000000000000e+03 3.556197738647460938e+01 -1.357277107238769531e+01 -2.266543865203857422e+00 3.433969318866729736e-01 -5.769441127777099609e-01 -5.346642732620239258e-01
3.192000000000000000e+03 2.982455062866210938e+01 -1.331737422943115234e+01 -2.809815883636474609e+00 5.464723110198974609e-01 -6.790031194686889648e-01 -4.181069433689117432e-01
3.193000000000000000e+03 2.771019363403320312e+01 -1.297260761260986328e+01 -3.081724405288696289e+00 6.644425988197326660e-01 -7.251845002174377441e-01 -3.688707947731018066e-01
3.194000000000000000e+03 8.767206192016601562e+00 -7.272737026214599609e+00 -9.556209444999694824e-01 3.670706510543823242e+00 8.145256638526916504e-01 1.906916856765747070e+00
3.195000000000000000e+03 7.180216217041015625e+01 -1.838103675842285156e+01 -4.036277532577514648e-01 1.043465232849121094e+01 3.009307384490966797e+00 -1.168709635734558105e+00
3.196000000000000000e+03 5.726928329467773438e+01 -3.197309494018554688e+00 -7.889593243598937988e-01 1.480196323245763779e-02 -2.322472035884857178e-01 -6.104558706283569336e-01
3.197000000000000000e+03 2.258669281005859375e+01 -9.381214141845703125e+00 -1.045710444450378418e+00 1.797113537788391113e+00 2.254209220409393311e-01 -7.533678412437438965e-01
3.198000000000000000e+03 3.892754745483398438e+01 1.860838890075683594e+01 6.654222607612609863e-01 1.931284546852111816e+00 7.790120244026184082e-01 7.600206732749938965e-01
3.199000000000000000e+03 2.375423431396484375e+01 -6.708141803741455078e+00 2.378471612930297852e+00 1.301025629043579102e+00 1.103849172592163086e+00 -6.546958684921264648e-01
3.200000000000000000e+03 1.882934951782226562e+01 -1.472228318452835083e-01 4.665692150592803955e-01 4.608397006988525391e+00 1.522489905357360840e+00 2.735818326473236084e-01
3.201000000000000000e+03 1.889452934265136719e+01 3.873319029808044434e-01 2.987194061279296875e-01 3.846038818359375000e+00 1.243427395820617676e+00 3.449149727821350098e-01
3.202000000000000000e+03 2.243487167358398438e+01 3.967078402638435364e-02 2.001347780227661133e+00 3.125668048858642578e+00 1.538104772567749023e+00 3.330721855163574219e+00
3.203000000000000000e+03 5.161326599121093750e+01 -7.432391166687011719e+00 -1.669544935226440430e+00 -4.169180616736412048e-02 -5.133709907531738281e-01 -5.848823785781860352e-01
3.204000000000000000e+03 2.569429206848144531e+01 -1.240551090240478516e+01 -3.297948360443115234e+00 8.348802924156188965e-01 -7.389204502105712891e-01 -3.444198966026306152e-01
3.205000000000000000e+03 7.359770202636718750e+01 2.957697677612304688e+01 8.005118370056152344e-02 5.454716682434082031e+00 1.660430312156677246e+00 -2.384549975395202637e-01
3.206000000000000000e+03 7.361757659912109375e+01 2.835348510742187500e+01 8.545173704624176025e-02 5.510278224945068359e+00 1.678718924522399902e+00 -2.823952734470367432e-01
3.207000000000000000e+03 7.255367279052734375e+01 -2.071172523498535156e+01 -8.564959168434143066e-01 9.666508674621582031e+00 2.643003702163696289e+00 -1.279890656471252441e+00
3.208000000000000000e+03 7.298515319824218750e+01 -1.893840980529785156e+01 -5.178636312484741211e-01 9.995112419128417969e+00 2.843174695968627930e+00 -1.558047652244567871e+00
3.209000000000000000e+03 7.561233520507812500e+01 -1.661744689941406250e+01 1.477809995412826538e-01 8.999103546142578125e+00 2.744065523147583008e+00 -1.668099403381347656e+00
3.210000000000000000e+03 2.276548957824707031e+01 -1.015366363525390625e+01 -1.956526279449462891e+00 1.582747936248779297e+00 -1.121334731578826904e-01 -6.225498914718627930e-01
3.211000000000000000e+03 3.102455139160156250e+01 -1.224183750152587891e+01 -2.196206808090209961e+00 5.174663066864013672e-01 -5.036221742630004883e-01 -5.869792103767395020e-01
3.212000000000000000e+03 2.701767730712890625e+01 -1.170080089569091797e+01 -2.475464820861816406e+00 7.850384116172790527e-01 -5.071279406547546387e-01 -6.219125390052795410e-01
3.213000000000000000e+03 6.182841873168945312e+01 3.735024690628051758e+00 3.190663754940032959e-01 2.545540809631347656e+00 8.593821525573730469e-01 -1.544094443321228027e+00
3.214000000000000000e+03 3.812431716918945312e+01 2.196474456787109375e+01 4.644250869750976562e-01 1.890626311302185059e+00 7.065153717994689941e-01 5.899046063423156738e-01
3.215000000000000000e+03 5.211615371704101562e+01 -4.511179924011230469e+00 -9.244084358215332031e-01 3.954527899622917175e-02 -2.654589414596557617e-01 -3.234960734844207764e-01
3.216000000000000000e+03 5.368005371093750000e+01 -6.047387719154357910e-01 8.552342769689857960e-04 1.623268127441406250e-01 4.895461723208427429e-02 -2.544619739055633545e-01
3.217000000000000000e+03 8.610463142395019531e+00 7.473722934722900391e+00 3.804540932178497314e-01 3.658119440078735352e-01 2.238798141479492188e-01 2.327814549207687378e-01
3.218000000000000000e+03 1.917246627807617188e+01 2.409402084350585938e+01 3.782961145043373108e-02 5.394511222839355469e-01 1.731842160224914551e-01 3.876931369304656982e-01
3.219000000000000000e+03 3.608483123779296875e+01 1.067738246917724609e+01 8.801031112670898438e-01 1.609290480613708496e+00 7.468181252479553223e-01 1.180185198783874512e+00
3.220000000000000000e+03 5.321733474731445312e+01 -4.581406116485595703e+00 -1.053626775741577148e+00 -1.248420216143131256e-03 -3.164625465869903564e-01 -3.715499639511108398e-01
3.221000000000000000e+03 5.178549194335937500e+01 -5.894468307495117188e+00 -1.367804169654846191e+00 7.050403393805027008e-03 -4.082261323928833008e-01 -4.351842403411865234e-01
3.222000000000000000e+03 4.388723373413085938e+01 -9.917161941528320312e+00 -1.512074589729309082e+00 1.340565681457519531e-01 -4.134054183959960938e-01 -6.001457571983337402e-01
3.223000000000000000e+03 2.305215072631835938e+01 -3.566771149635314941e-01 2.463265657424926758e+00 2.794759750366210938e+00 1.577407717704772949e+00 3.291013240814208984e+00
3.224000000000000000e+03 3.283070755004882812e+01 2.237926673889160156e+01 1.727618873119354248e-01 1.685714006423950195e+00 5.575427412986755371e-01 4.417338967323303223e-01
3.225000000000000000e+03 6.933324432373046875e+01 2.015411853790283203e+00 -9.457634687423706055e-01 6.813426017761230469e+00 1.760298728942871094e+00 -1.570619225502014160e+00
3.226000000000000000e+03 2.495036888122558594e+01 -9.883258819580078125e+00 -1.261314153671264648e+00 1.101173162460327148e+00 -4.804227873682975769e-02 -8.810312747955322266e-01
3.227000000000000000e+03 2.639895057678222656e+01 -1.053215694427490234e+01 -1.688612222671508789e+00 8.729090690612792969e-01 -2.447109371423721313e-01 -8.230443000793457031e-01
3.228000000000000000e+03 6.629720306396484375e+01 -2.618892288208007812e+01 -9.861273765563964844e-01 5.480223655700683594e+00 1.348228812217712402e+00 5.740838646888732910e-01
3.229000000000000000e+03 6.760499572753906250e+01 -2.632508659362792969e+01 -9.411875605583190918e-01 6.430953502655029297e+00 1.646929740905761719e+00 3.817263543605804443e-01
3.230000000000000000e+03 2.300526237487792969e+01 -7.086780071258544922e-01 2.870002985000610352e+00 2.796552658081054688e+00 1.699966669082641602e+00 3.447989702224731445e+00
3.231000000000000000e+03 8.381050109863281250e+00 -2.347532272338867188e+01 -9.105896949768066406e-01 3.880172729492187500e+00 8.908749222755432129e-01 5.819877386093139648e-01
3.232000000000000000e+03 7.464548492431640625e+01 -4.610690116882324219e+00 -2.185533195734024048e-01 9.073897361755371094e+00 2.656603336334228516e+00 1.336753845214843750e+00
3.233000000000000000e+03 8.165758132934570312e+00 -2.436653518676757812e+01 -8.592668771743774414e-01 3.456426858901977539e+00 7.791479825973510742e-01 6.293476819992065430e-01
3.234000000000000000e+03 7.715861797332763672e+00 1.597557735443115234e+01 1.287428289651870728e-01 4.127783179283142090e-01 1.624563336372375488e-01 -1.925815939903259277e-01
3.235000000000000000e+03 2.930061721801757812e+01 -9.847056388854980469e+00 -1.059069871902465820e+00 5.521993041038513184e-01 -1.520611643791198730e-01 -7.475301623344421387e-01
3.236000000000000000e+03 1.044508266448974609e+01 5.658185482025146484e+00 1.498226523399353027e-01 6.256052255630493164e-01 2.326283752918243408e-01 1.318442076444625854e-01
3.237000000000000000e+03 3.111323547363281250e+01 -9.929848670959472656e+00 -1.140771985054016113e+00 4.798798859119415283e-01 -1.982676237821578979e-01 -6.648300290107727051e-01
3.238000000000000000e+03 8.197356224060058594e+00 2.917114448547363281e+01 -5.687508359551429749e-02 1.620713919401168823e-01 3.155888989567756653e-02 4.738264530897140503e-02
3.239000000000000000e+03 2.625348091125488281e+01 -7.538440227508544922e+00 8.552312850952148438e-01 7.309539318084716797e-01 4.758555591106414795e-01 -6.621204614639282227e-01
3.240000000000000000e+03 6.199187278747558594e+00 8.993404388427734375e+00 3.051187694072723389e-01 -4.839448258280754089e-03 9.008379280567169189e-02 2.110421806573867798e-01
3.241000000000000000e+03 3.459032440185546875e+01 1.092764735221862793e+00 1.128577709197998047e+00 8.066075444221496582e-01 5.805555582046508789e-01 5.232750773429870605e-01
3.242000000000000000e+03 7.392676353454589844e+00 1.213866424560546875e+01 3.315127491950988770e-01 2.709677219390869141e-01 1.807441413402557373e-01 -4.124471172690391541e-02
3.243000000000000000e+03 2.700479316711425781e+01 -7.097610950469970703e+00 1.032999873161315918e+00 6.332848668098449707e-01 4.998854100704193115e-01 -5.082041621208190918e-01
3.244000000000000000e+03 3.393904876708984375e+01 1.896594315767288208e-01 1.138162732124328613e+00 7.800872325897216797e-01 5.754749774932861328e-01 5.002262592315673828e-01
3.245000000000000000e+03 6.629977416992187500e+01 4.933856964111328125e+00 -1.839666068553924561e-01 4.877178192138671875e+00 1.407963514328002930e+00 -1.700526714324951172e+00
3.246000000000000000e+03 4.823164367675781250e+01 -6.101252555847167969e+00 -1.100899457931518555e+00 8.909813314676284790e-02 -3.035404086112976074e-01 -3.784258067607879639e-01
3.247000000000000000e+03 7.373206615447998047e+00 5.338397979736328125e+00 6.803791224956512451e-02 8.030509948730468750e-02 4.450290277600288391e-02 3.704055249691009521e-01
3.248000000000000000e+03 2.825727653503417969e+01 -5.894057750701904297e+00 1.268021821975708008e+00 5.363695621490478516e-01 5.413174033164978027e-01 -1.623252034187316895e-01
3.249000000000000000e+03 3.583306503295898438e+01 -6.165809154510498047e+00 -1.409715116024017334e-01 3.190035521984100342e-01 5.340961739420890808e-02 -3.459965586662292480e-01
3.250000000000000000e+03 6.588708496093750000e+01 4.355947971343994141e+00 -1.742456704378128052e-01 4.653317928314208984e+00 1.343721628189086914e+00 -1.819941163063049316e+00
3.251000000000000000e+03 7.473712921142578125e+00 1.687944221496582031e+01 5.024595931172370911e-02 3.521664738655090332e-01 1.207237318158149719e-01 -1.933404356241226196e-01
3.252000000000000000e+03 4.446733856201171875e+01 -8.679865837097167969e+00 -1.325832128524780273e+00 1.315730959177017212e-01 -3.582776784896850586e-01 -5.312649607658386230e-01
3.253000000000000000e+03 7.243354797363281250e+01 1.311010169982910156e+01 7.186736911535263062e-02 6.132291316986083984e+00 1.861247658729553223e+00 -7.662859559059143066e-01
3.254000000000000000e+03 6.743255615234375000e+01 3.775419712066650391e+00 -4.326409101486206055e-01 5.455763816833496094e+00 1.506936907768249512e+00 -1.752396464347839355e+00
3.255000000000000000e+03 3.175450515747070312e+01 -2.535148620605468750e+00 1.226116061210632324e+00 6.644373536109924316e-01 5.671660304069519043e-01 4.110341370105743408e-01
3.256000000000000000e+03 3.277761077880859375e+01 -2.852076768875122070e+00 9.909816384315490723e-01 5.587515234947204590e-01 4.649199545383453369e-01 2.250048071146011353e-01
3.257000000000000000e+03 2.912303924560546875e+01 -7.343347549438476562e+00 4.031659066677093506e-01 4.765710234642028809e-01 2.639210820198059082e-01 -5.084142088890075684e-01
3.258000000000000000e+03 3.746527099609375000e+01 -8.985530853271484375e+00 -1.078417897224426270e+00 2.838773727416992188e-01 -2.383621633052825928e-01 -5.476466417312622070e-01
3.259000000000000000e+03 3.306723785400390625e+01 -4.430109500885009766e+00 6.455076932907104492e-01 4.424088001251220703e-01 3.263749480247497559e-01 -4.119245707988739014e-02
3.260000000000000000e+03 6.737329101562500000e+01 5.320906639099121094e+00 -2.806795537471771240e-01 5.341232299804687500e+00 1.518165826797485352e+00 -1.605907678604125977e+00
3.261000000000000000e+03 1.109428310394287109e+01 -9.500241279602050781e-01 -7.076993584632873535e-01 -5.234782397747039795e-02 -2.280141562223434448e-01 3.313924372196197510e-01
3.262000000000000000e+03 1.165381717681884766e+01 -7.241671085357666016e-01 -8.135961294174194336e-01 1.189368590712547302e-02 -2.405107319355010986e-01 3.665657043457031250e-01
3.263000000000000000e+03 1.027435588836669922e+01 -1.351947069168090820e+00 -6.921332478523254395e-01 1.241925880312919617e-01 -1.703822016716003418e-01 4.097349643707275391e-01
3.264000000000000000e+03 1.030054473876953125e+01 -8.435348272323608398e-01 -9.299963116645812988e-01 3.195657208561897278e-02 -2.694119215011596680e-01 2.369238734245300293e-01
3.265000000000000000e+03 1.209442901611328125e+01 -1.691910147666931152e+00 -2.513917908072471619e-02 -6.320393085479736328e-02 -2.650293335318565369e-02 4.926358163356781006e-01
3.266000000000000000e+03 1.235916519165039062e+01 -9.953780174255371094e-01 -5.049978494644165039e-01 -1.387972980737686157e-01 -1.931385397911071777e-01 2.822943627834320068e-01
3.267000000000000000e+03 1.103997993469238281e+01 -4.984331727027893066e-01 -1.164997339248657227e+00 -1.434196382761001587e-01 -3.925251066684722900e-01 2.591227591037750244e-01
3.268000000000000000e+03 1.033364486694335938e+01 -3.521796166896820068e-01 -1.106198906898498535e+00 4.238633066415786743e-02 -3.191437721252441406e-01 2.485549002885818481e-01
3.269000000000000000e+03 1.116429042816162109e+01 -1.513366341590881348e+00 -3.497588932514190674e-01 -9.207804501056671143e-02 -1.325510740280151367e-01 4.431837797164916992e-01
3.270000000000000000e+03 8.929869651794433594e+00 -3.257387280464172363e-01 -1.458055019378662109e+00 2.435983717441558838e-02 -4.301085472106933594e-01 1.441135164350271225e-02
3.271000000000000000e+03 9.405135154724121094e+00 -1.207431554794311523e+00 -8.944231271743774414e-01 8.699917048215866089e-02 -2.422271817922592163e-01 2.317616194486618042e-01
3.272000000000000000e+03 9.509044647216796875e+00 -6.957387328147888184e-01 -1.116339564323425293e+00 1.196181029081344604e-01 -2.990164160728454590e-01 2.730749249458312988e-01
3.273000000000000000e+03 8.311937332153320312e+00 -6.852564215660095215e-01 -1.322385668754577637e+00 5.142731964588165283e-02 -3.812875151634216309e-01 7.752639800310134888e-02
3.274000000000000000e+03 7.644789695739746094e+00 -4.091947972774505615e-01 -1.582350969314575195e+00 -3.322134912014007568e-02 -4.846717119216918945e-01 -5.949313193559646606e-02
3.275000000000000000e+03 6.843236923217773438e+00 -3.888793289661407471e-01 -1.495964169502258301e+00 5.945726856589317322e-02 -4.309520721435546875e-01 -2.589412033557891846e-02
3.276000000000000000e+03 5.179682731628417969e+00 -3.839172124862670898e-01 -1.162092208862304688e+00 3.201779723167419434e-02 -3.390223383903503418e-01 -1.027437075972557068e-01
3.277000000000000000e+03 4.313897609710693359e+00 -3.908450603485107422e-01 -9.285385608673095703e-01 -2.754325978457927704e-02 -2.868245542049407959e-01 -1.531135290861129761e-01
3.278000000000000000e+03 2.978018999099731445e+00 -6.541122794151306152e-01 -4.896765947341918945e-01 5.013592541217803955e-03 -1.453988999128341675e-01 -2.021650224924087524e-01
3.279000000000000000e+03 1.116362333297729492e+00 -3.878802657127380371e-01 -5.338820070028305054e-02 -1.935856044292449951e-02 -2.182402834296226501e-02 -3.686253726482391357e-02
3.280000000000000000e+03 3.952576816082000732e-01 -5.600912570953369141e-01 -7.139637600630521774e-04 -4.130024928599596024e-03 -1.453196629881858826e-03 -1.677289954386651516e-03
3.281000000000000000e+03 6.959925889968872070e-01 -1.127880215644836426e+00 -2.842548303306102753e-02 -7.408969104290008545e-02 -3.075455315411090851e-02 -6.545893847942352295e-02
3.282000000000000000e+03 8.588925361633300781e+00 -1.222332477569580078e+00 -1.069445490837097168e+00 1.846573948860168457e-01 -2.654364407062530518e-01 1.922805309295654297e-01
3.283000000000000000e+03 7.880912780761718750e+00 -1.224491596221923828e+00 -1.155501484870910645e+00 7.061861455440521240e-02 -3.254648745059967041e-01 2.459595724940299988e-02
3.284000000000000000e+03 7.163526535034179688e+00 -1.149194836616516113e+00 -1.087185859680175781e+00 1.351544260978698730e-01 -2.856094241142272949e-01 -2.028030529618263245e-02
3.285000000000000000e+03 6.369585514068603516e+00 -1.128879308700561523e+00 -1.149915575981140137e+00 5.275603011250495911e-02 -3.291478753089904785e-01 -2.137088030576705933e-01
3.286000000000000000e+03 5.550294876098632812e+00 -1.121867775917053223e+00 -9.851878881454467773e-01 6.832490116357803345e-02 -2.750588953495025635e-01 -2.346437722444534302e-01
3.287000000000000000e+03 4.721254825592041016e+00 -1.123917222023010254e+00 -8.839781284332275391e-01 4.747888073325157166e-03 -2.637690603733062744e-01 -3.456133008003234863e-01
3.288000000000000000e+03 3.863081216812133789e+00 -1.130845069885253906e+00 -6.195630431175231934e-01 -1.985849626362323761e-02 -1.918264627456665039e-01 -3.294579386711120605e-01
3.289000000000000000e+03 2.967671394348144531e+00 -1.180732727050781250e+00 -4.461067914962768555e-01 -4.869989678263664246e-02 -1.484420150518417358e-01 -3.613405823707580566e-01
3.290000000000000000e+03 2.120916366577148438e+00 -1.226537704467773438e+00 -2.307835668325424194e-01 -9.538389742374420166e-02 -9.785024076700210571e-02 -2.420315742492675781e-01
3.291000000000000000e+03 9.597342491149902344e+00 -2.483072280883789062e-01 -1.247969627380371094e+00 8.677241392433643341e-03 -3.717877268791198730e-01 7.636980712413787842e-02
3.292000000000000000e+03 3.571783065795898438e+00 -3.039060533046722412e-01 -6.226473450660705566e-01 -2.765306271612644196e-02 -1.950901299715042114e-01 -9.042569249868392944e-02
3.293000000000000000e+03 2.233603715896606445e+00 -7.216347455978393555e-01 -2.683999538421630859e-01 -3.269784152507781982e-02 -9.032934159040451050e-02 -1.904975622892379761e-01
3.294000000000000000e+03 1.673935413360595703e+00 -5.692175030708312988e-01 -1.225580945611000061e-01 -2.677102945744991302e-02 -4.479873925447463989e-02 -7.630772888660430908e-02
3.295000000000000000e+03 1.373850703239440918e+00 -1.189781188964843750e+00 -1.286346316337585449e-01 -9.508185088634490967e-02 -6.711494922637939453e-02 -1.645524650812149048e-01
3.296000000000000000e+03 6.016335010528564453e+00 -3.818677961826324463e-01 -1.416183352470397949e+00 -2.083087898790836334e-02 -4.311042726039886475e-01 -1.258551925420761108e-01
3.297000000000000000e+03 2.176476955413818359e+00 -2.550970613956451416e-01 -2.080245614051818848e-01 9.467188268899917603e-03 -5.956720933318138123e-02 -5.094204097986221313e-02
3.298000000000000000e+03 2.899653196334838867e+00 -2.333795428276062012e-01 -3.597801327705383301e-01 8.145327446982264519e-04 -1.076896861195564270e-01 -3.568682074546813965e-02
3.299000000000000000e+03 1.809629440307617188e+01 -3.466699838638305664e+00 3.590777587890625000e+01 6.203672409057617188e+00 1.263343429565429688e+01 -1.213462162017822266e+01
3.300000000000000000e+03 1.808883666992187500e+01 -3.484683990478515625e+00 4.505491256713867188e+01 3.470809221267700195e+00 1.455771732330322266e+01 -3.868846416473388672e+00
3.301000000000000000e+03 1.808502388000488281e+01 -3.503776073455810547e+00 4.927573394775390625e+01 5.451801776885986328e+00 1.641826057434082031e+01 2.610959053039550781e+00
3.302000000000000000e+03 1.808500099182128906e+01 -3.523245096206665039e+00 5.047314071655273438e+01 8.838249206542968750e+00 1.779341697692871094e+01 9.074951171875000000e+00
3.303000000000000000e+03 1.808876800537109375e+01 -3.542346239089965820e+00 4.955512237548828125e+01 1.433916187286376953e+01 1.916828536987304688e+01 1.407767009735107422e+01
3.304000000000000000e+03 1.809618186950683594e+01 -3.560348272323608398e+00 4.625972747802734375e+01 2.036892509460449219e+01 1.998859596252441406e+01 1.781319618225097656e+01
3.305000000000000000e+03 1.810696029663085938e+01 -3.576562166213989258e+00 4.229176330566406250e+01 2.714115905761718750e+01 2.082987594604492188e+01 1.934778785705566406e+01
3.306000000000000000e+03 1.812068748474121094e+01 -3.590367555618286133e+00 3.727167129516601562e+01 3.301438903808593750e+01 2.108581924438476562e+01 1.912539863586425781e+01
3.307000000000000000e+03 1.813684272766113281e+01 -3.601236104965209961e+00 3.342597961425781250e+01 3.806484603881835938e+01 2.144724845886230469e+01 1.699225997924804688e+01
3.308000000000000000e+03 1.815480232238769531e+01 -3.608752012252807617e+00 2.993459892272949219e+01 4.139107894897460938e+01 2.139770317077636719e+01 1.361528587341308594e+01
3.309000000000000000e+03 1.817388153076171875e+01 -3.612627267837524414e+00 2.823041725158691406e+01 4.293946075439453125e+01 2.135096359252929688e+01 9.778203964233398438e+00
3.310000000000000000e+03 1.819334983825683594e+01 -3.612713813781738281e+00 2.777768707275390625e+01 4.276298904418945312e+01 2.116220283508300781e+01 5.790942192077636719e+00
3.311000000000000000e+03 1.821246337890625000e+01 -3.609008312225341797e+00 2.886810111999511719e+01 4.132935714721679688e+01 2.105923843383789062e+01 2.519462347030639648e+00
3.312000000000000000e+03 1.823048973083496094e+01 -3.601652383804321289e+00 3.061762237548828125e+01 3.862062835693359375e+01 2.077147483825683594e+01 -1.145579665899276733e-02
3.313000000000000000e+03 1.824673843383789062e+01 -3.590927839279174805e+00 3.349861145019531250e+01 3.583573150634765625e+01 2.080030441284179688e+01 -1.189374327659606934e+00
3.314000000000000000e+03 1.826058769226074219e+01 -3.577244997024536133e+00 3.635326004028320312e+01 3.236286163330078125e+01 2.061483573913574219e+01 -1.340436458587646484e+00
3.315000000000000000e+03 1.827150917053222656e+01 -3.561127424240112305e+00 3.922449493408203125e+01 2.963302040100097656e+01 2.065725517272949219e+01 -1.818330138921737671e-01
3.316000000000000000e+03 1.827908325195312500e+01 -3.543191909790039062e+00 4.159035110473632812e+01 2.733367919921875000e+01 2.067720794677734375e+01 2.118393898010253906e+00
3.317000000000000000e+03 1.828302192687988281e+01 -3.524125099182128906e+00 4.313762664794921875e+01 2.617470359802246094e+01 2.079369926452636719e+01 5.468638420104980469e+00
3.318000000000000000e+03 1.828317070007324219e+01 -3.504656314849853516e+00 4.298312377929687500e+01 2.563527488708496094e+01 2.058551979064941406e+01 9.126715660095214844e+00
3.319000000000000000e+03 1.827952766418457031e+01 -3.485531091690063477e+00 4.162723541259765625e+01 2.758967399597167969e+01 2.076507186889648438e+01 1.299905776977539062e+01
3.320000000000000000e+03 1.827223014831542969e+01 -3.467481136322021484e+00 3.811300659179687500e+01 2.996603965759277344e+01 2.042371368408203125e+01 1.639433479309082031e+01
3.321000000000000000e+03 1.826155853271484375e+01 -3.451197385787963867e+00 3.308133697509765625e+01 3.338320159912109375e+01 1.993936157226562500e+01 1.861553764343261719e+01
3.322000000000000000e+03 1.824792098999023438e+01 -3.437302827835083008e+00 2.743334960937500000e+01 3.751921463012695312e+01 1.948576927185058594e+01 1.905283164978027344e+01
3.323000000000000000e+03 1.823183822631835938e+01 -3.426329374313354492e+00 2.056920433044433594e+01 4.091131591796875000e+01 1.844415664672851562e+01 1.785882568359375000e+01
3.324000000000000000e+03 1.821392822265625000e+01 -3.418696880340576172e+00 1.439874458312988281e+01 4.320825195312500000e+01 1.728209877014160156e+01 1.497718715667724609e+01
3.325000000000000000e+03 1.819487380981445312e+01 -3.414697408676147461e+00 9.081531524658203125e+00 4.377800750732421875e+01 1.585786247253417969e+01 1.087107181549072266e+01
3.326000000000000000e+03 1.817540550231933594e+01 -3.414484262466430664e+00 4.701673984527587891e+00 4.221239852905273438e+01 1.407422161102294922e+01 5.973952293395996094e+00
3.327000000000000000e+03 1.815626907348632812e+01 -3.418065547943115234e+00 1.842858910560607910e+00 3.873432159423828125e+01 1.217315387725830078e+01 1.360487222671508789e+00
3.328000000000000000e+03 1.813819503784179688e+01 -3.425303936004638672e+00 5.350324511528015137e-01 3.307997894287109375e+01 1.008450317382812500e+01 -3.126985073089599609e+00
3.329000000000000000e+03 1.812187767028808594e+01 -3.435922861099243164e+00 3.936972022056579590e-01 2.610309219360351562e+01 7.949037075042724609e+00 -6.343691349029541016e+00
3.330000000000000000e+03 1.810793876647949219e+01 -3.449515581130981445e+00 5.198718070983886719e+00 1.443089008331298828e+01 5.888882160186767578e+00 -8.185910224914550781e+00
