# el_label, x, y, sXX, sYY, sZZ, sXY
1.000000000000000000e+00 2.170582962036132812e+01 -7.976861000061035156e+00 -1.200895428657531738e+00 2.787483453750610352e+00 4.759763777256011963e-01 -1.480673909187316895e+00
2.000000000000000000e+00 2.157750129699707031e+01 -7.824711799621582031e+00 2.412063837051391602e+00 2.762767076492309570e+00 1.552449345588684082e+00 -2.236541032791137695e+00
3.000000000000000000e+00 2.144917488098144531e+01 -7.672563076019287109e+00 1.245042085647583008e+00 2.219602823257446289e+00 1.039393544197082520e+00 -1.802460551261901855e+00
4.000000000000000000e+00 2.132084655761718750e+01 -7.520413875579833984e+00 1.282828211784362793e+00 1.793940067291259766e+00 9.230304956436157227e-01 -1.523746371269226074e+00
5.000000000000000000e+00 2.166508102416992188e+01 -8.018703460693359375e+00 3.843043088912963867e+00 5.776446819305419922e+00 2.885847091674804688e+00 -6.484979152679443359e+00
6.000000000000000000e+00 2.150958824157714844e+01 -7.894449234008789062e+00 3.392773628234863281e+00 3.477690219879150391e+00 2.061139106750488281e+00 -3.196154356002807617e+00
7.000000000000000000e+00 2.135409355163574219e+01 -7.770195007324218750e+00 3.537187814712524414e+00 2.660156726837158203e+00 1.859203338623046875e+00 -3.128393173217773438e+00
8.000000000000000000e+00 2.119860076904296875e+01 -7.645940780639648438e+00 2.774478673934936523e+00 2.255075216293334961e+00 1.508866190910339355e+00 -2.536601543426513672e+00
9.000000000000000000e+00 2.163325881958007812e+01 -8.067678451538085938e+00 1.074875450134277344e+01 4.623988151550292969e+00 4.611822605133056641e+00 -7.663189888000488281e+00
1.000000000000000000e+01 2.145654869079589844e+01 -7.976073741912841797e+00 6.679124832153320312e+00 3.451056241989135742e+00 3.039054155349731445e+00 -5.125512123107910156e+00
1.100000000000000000e+01 2.127984046936035156e+01 -7.884469509124755859e+00 5.694928169250488281e+00 2.587383508682250977e+00 2.484693527221679688e+00 -3.589118480682373047e+00
1.200000000000000000e+01 2.110313224792480469e+01 -7.792865276336669922e+00 5.016804218292236328e+00 1.883450031280517578e+00 2.070076227188110352e+00 -3.282102108001708984e+00
1.300000000000000000e+01 2.161157798767089844e+01 -8.121911048889160156e+00 1.644321250915527344e+01 3.194316625595092773e+00 5.891258716583251953e+00 -7.182374000549316406e+00
1.400000000000000000e+01 2.142041778564453125e+01 -8.066462516784667969e+00 1.089874076843261719e+01 2.471218585968017578e+00 4.010987758636474609e+00 -4.927326679229736328e+00
1.500000000000000000e+01 2.122925567626953125e+01 -8.011013031005859375e+00 8.604630470275878906e+00 1.900778889656066895e+00 3.151622772216796875e+00 -4.009166717529296875e+00
1.600000000000000000e+01 2.103809547424316406e+01 -7.955564498901367188e+00 7.393229484558105469e+00 1.289935827255249023e+00 2.604949474334716797e+00 -3.092325687408447266e+00
1.700000000000000000e+01 2.160087203979492188e+01 -8.179327011108398438e+00 2.118353271484375000e+01 2.203333854675292969e+00 7.016059875488281250e+00 -4.658535957336425781e+00
1.800000000000000000e+01 2.140257453918457031e+01 -8.162155151367187500e+00 1.451408386230468750e+01 1.604884982109069824e+00 4.835690498352050781e+00 -3.897679805755615234e+00
1.900000000000000000e+01 2.120427513122558594e+01 -8.144984245300292969e+00 1.154263782501220703e+01 1.187324643135070801e+00 3.818988800048828125e+00 -2.917424440383911133e+00
2.000000000000000000e+01 2.100597572326660156e+01 -8.127813339233398438e+00 9.825127601623535156e+00 6.507843732833862305e-01 3.142773628234863281e+00 -2.633928060531616211e+00
2.100000000000000000e+01 2.160154914855957031e+01 -8.237729072570800781e+00 2.420629119873046875e+01 2.195412158966064453e+00 7.920510768890380859e+00 -1.499606251716613770e+00
2.200000000000000000e+01 2.140370178222656250e+01 -8.259491920471191406e+00 1.715153503417968750e+01 1.505036234855651855e+00 5.596971511840820312e+00 -1.584219694137573242e+00
2.300000000000000000e+01 2.120585441589355469e+01 -8.281254768371582031e+00 1.392363262176513672e+01 7.785279154777526855e-01 4.410647869110107422e+00 -1.479741930961608887e+00
2.400000000000000000e+01 2.100800704956054688e+01 -8.303018569946289062e+00 1.173959636688232422e+01 5.168129801750183105e-01 3.676922798156738281e+00 -9.783701896667480469e-01
2.500000000000000000e+01 2.161358451843261719e+01 -8.294881820678710938e+00 2.535890197753906250e+01 3.584026813507080078e+00 8.682878494262695312e+00 2.096558809280395508e+00
2.600000000000000000e+01 2.142375946044921875e+01 -8.354745864868164062e+00 1.875720596313476562e+01 2.175796508789062500e+00 6.279901027679443359e+00 8.710860610008239746e-01
2.700000000000000000e+01 2.123393440246582031e+01 -8.414610862731933594e+00 1.505880260467529297e+01 1.372524857521057129e+00 4.929398059844970703e+00 7.119014859199523926e-01
2.800000000000000000e+01 2.104410934448242188e+01 -8.474475860595703125e+00 1.308962917327880859e+01 6.579194664955139160e-01 4.124264717102050781e+00 5.820605158805847168e-01
2.900000000000000000e+01 2.163651466369628906e+01 -8.348597526550292969e+00 2.512264442443847656e+01 6.319888114929199219e+00 9.432760238647460938e+00 5.120740890502929688e+00
3.000000000000000000e+01 2.146197700500488281e+01 -8.444272994995117188e+00 1.881553077697753906e+01 3.734684467315673828e+00 6.765064239501953125e+00 3.301499128341674805e+00
3.100000000000000000e+01 2.128743934631347656e+01 -8.539948463439941406e+00 1.564191913604736328e+01 2.669769525527954102e+00 5.493506908416748047e+00 2.762010812759399414e+00
3.200000000000000000e+01 2.111289978027343750e+01 -8.635623931884765625e+00 1.288922786712646484e+01 1.911037802696228027e+00 4.440079689025878906e+00 2.482661485671997070e+00
3.300000000000000000e+01 2.166946411132812500e+01 -8.396821975708007812e+00 2.340708160400390625e+01 9.321537017822265625e+00 9.818585395812988281e+00 7.267169952392578125e+00
3.400000000000000000e+01 2.151689338684082031e+01 -8.524646759033203125e+00 1.825067138671875000e+01 6.496250152587890625e+00 7.424076557159423828e+00 5.107911586761474609e+00
3.500000000000000000e+01 2.136432075500488281e+01 -8.652471542358398438e+00 1.483400249481201172e+01 4.372646808624267578e+00 5.761994838714599609e+00 4.350858688354492188e+00
3.600000000000000000e+01 2.121174812316894531e+01 -8.780296325683593750e+00 1.283570861816406250e+01 3.649258375167846680e+00 4.945489883422851562e+00 4.219363212585449219e+00
3.700000000000000000e+01 2.171117019653320312e+01 -8.437707901000976562e+00 2.167059135437011719e+01 1.333780193328857422e+01 1.050251770019531250e+01 7.903843402862548828e+00
3.800000000000000000e+01 2.158640480041503906e+01 -8.592790603637695312e+00 1.655349159240722656e+01 8.881497383117675781e+00 7.630496501922607422e+00 6.346547603607177734e+00
3.900000000000000000e+01 2.146163749694824219e+01 -8.747873306274414062e+00 1.384417819976806641e+01 7.365910530090332031e+00 6.363026618957519531e+00 5.132927417755126953e+00
4.000000000000000000e+01 2.133687210083007812e+01 -8.902956008911132812e+00 1.179624652862548828e+01 5.016993999481201172e+00 5.043972492218017578e+00 4.826784610748291016e+00
4.100000000000000000e+01 2.176004219055175781e+01 -8.469693183898925781e+00 1.923313713073730469e+01 1.647499847412109375e+01 1.071244049072265625e+01 7.663158416748046875e+00
4.200000000000000000e+01 2.166785430908203125e+01 -8.646098136901855469e+00 1.529184246063232422e+01 1.182746505737304688e+01 8.135792732238769531e+00 6.208467483520507812e+00
4.300000000000000000e+01 2.157566642761230469e+01 -8.822503089904785156e+00 1.210693168640136719e+01 9.531292915344238281e+00 6.491467475891113281e+00 5.600423812866210938e+00
4.400000000000000000e+01 2.148348045349121094e+01 -8.998908996582031250e+00 1.073353862762451172e+01 8.300691604614257812e+00 5.710269451141357422e+00 4.496837615966796875e+00
4.500000000000000000e+01 2.181420326232910156e+01 -8.491551399230957031e+00 1.776649856567382812e+01 1.897095108032226562e+01 1.102123451232910156e+01 6.440119743347167969e+00
4.600000000000000000e+01 2.175812339782714844e+01 -8.682528495788574219e+00 1.375231552124023438e+01 1.427814483642578125e+01 8.409137725830078125e+00 5.358994007110595703e+00
4.700000000000000000e+01 2.170204353332519531e+01 -8.873505592346191406e+00 1.105857658386230469e+01 1.143620395660400391e+01 6.748434066772460938e+00 4.916815757751464844e+00
4.800000000000000000e+01 2.164596366882324219e+01 -9.064483642578125000e+00 9.271383285522460938e+00 1.032516956329345703e+01 5.878965854644775391e+00 4.379041194915771484e+00
4.900000000000000000e+01 2.187158203125000000e+01 -8.502446174621582031e+00 1.721026992797851562e+01 2.066461181640625000e+01 1.136246490478515625e+01 4.498656272888183594e+00
5.000000000000000000e+01 2.185375595092773438e+01 -8.700687408447265625e+00 1.253963565826416016e+01 1.581330108642578125e+01 8.505881309509277344e+00 4.052687168121337891e+00
5.100000000000000000e+01 2.183593177795410156e+01 -8.898928642272949219e+00 1.064541530609130859e+01 1.310845756530761719e+01 7.126162052154541016e+00 3.480048656463623047e+00
5.200000000000000000e+01 2.181810569763183594e+01 -9.097169876098632812e+00 8.056239128112792969e+00 1.063757133483886719e+01 5.608143329620361328e+00 3.244719028472900391e+00
5.300000000000000000e+01 2.192998695373535156e+01 -8.501962661743164062e+00 1.690076828002929688e+01 2.114554023742675781e+01 1.141389274597167969e+01 2.542656421661376953e+00
5.400000000000000000e+01 2.195109748840332031e+01 -8.699880599975585938e+00 1.267862510681152344e+01 1.655623817443847656e+01 8.770459175109863281e+00 2.317725181579589844e+00
5.500000000000000000e+01 2.197220611572265625e+01 -8.897798538208007812e+00 1.006433486938476562e+01 1.363490104675292969e+01 7.109770774841308594e+00 1.916829705238342285e+00
5.600000000000000000e+01 2.199331665039062500e+01 -9.095717430114746094e+00 8.304336547851562500e+00 1.211793708801269531e+01 6.126682281494140625e+00 1.681975245475769043e+00
5.700000000000000000e+01 2.198717880249023438e+01 -8.490117073059082031e+00 1.748888397216796875e+01 2.073570632934570312e+01 1.146737766265869141e+01 8.165186643600463867e-01
5.800000000000000000e+01 2.204641723632812500e+01 -8.680138587951660156e+00 1.335781192779541016e+01 1.631749343872070312e+01 8.902591705322265625e+00 7.018900513648986816e-01
5.900000000000000000e+01 2.210565376281738281e+01 -8.870159149169921875e+00 1.034831809997558594e+01 1.354336166381835938e+01 7.167504310607910156e+00 3.653342723846435547e-01
6.000000000000000000e+01 2.216489219665527344e+01 -9.060180664062500000e+00 9.144897460937500000e+00 1.202729988098144531e+01 6.351659297943115234e+00 8.267898559570312500e-01
6.100000000000000000e+01 2.204096984863281250e+01 -8.467363357543945312e+00 1.910212135314941406e+01 1.979192161560058594e+01 1.166821289062500000e+01 -2.413018792867660522e-01
6.200000000000000000e+01 2.213606834411621094e+01 -8.642216682434082031e+00 1.413149452209472656e+01 1.515231990814208984e+01 8.785143852233886719e+00 -7.416591048240661621e-01
6.300000000000000000e+01 2.223116874694824219e+01 -8.817069053649902344e+00 1.180329418182373047e+01 1.290015220642089844e+01 7.411033630371093750e+00 -4.006689190864562988e-01
6.400000000000000000e+01 2.232626724243164062e+01 -8.991922378540039062e+00 9.918446540832519531e+00 1.009992122650146484e+01 6.005510330200195312e+00 -6.469631195068359375e-01
6.500000000000000000e+01 2.208930206298828125e+01 -8.434573173522949219e+00 2.054826354980468750e+01 1.775247764587402344e+01 1.149022197723388672e+01 -9.889825582504272461e-01
6.600000000000000000e+01 2.221662330627441406e+01 -8.587566375732421875e+00 1.574834632873535156e+01 1.398951339721679688e+01 8.921358108520507812e+00 -9.838439822196960449e-01
6.700000000000000000e+01 2.234394454956054688e+01 -8.740558624267578125e+00 1.302363681793212891e+01 1.104896259307861328e+01 7.221779823303222656e+00 -1.146918535232543945e+00
6.800000000000000000e+01 2.247126388549804688e+01 -8.893551826477050781e+00 1.126468372344970703e+01 9.557590484619140625e+00 6.246682167053222656e+00 -1.402612805366516113e+00
6.900000000000000000e+01 2.213032722473144531e+01 -8.393001556396484375e+00 2.209140586853027344e+01 1.607613754272460938e+01 1.145026302337646484e+01 -7.506831288337707520e-01
7.000000000000000000e+01 2.228499603271484375e+01 -8.518278121948242188e+00 1.738201904296875000e+01 1.198335456848144531e+01 8.809612274169921875e+00 -5.882388353347778320e-01
7.100000000000000000e+01 2.243966674804687500e+01 -8.643556594848632812e+00 1.409880542755126953e+01 9.870218276977539062e+00 7.190707206726074219e+00 -9.627810716629028320e-01
7.200000000000000000e+01 2.259433555603027344e+01 -8.768834114074707031e+00 1.225629520416259766e+01 8.378824234008789062e+00 6.190536022186279297e+00 -1.155145049095153809e+00
7.300000000000000000e+01 2.216247177124023438e+01 -8.344237327575683594e+00 2.351472091674804688e+01 1.425649452209472656e+01 1.133136463165283203e+01 4.154510200023651123e-01
7.400000000000000000e+01 2.233857154846191406e+01 -8.437005043029785156e+00 1.854060745239257812e+01 1.033239841461181641e+01 8.661901473999023438e+00 3.517815470695495605e-01
7.500000000000000000e+01 2.251467323303222656e+01 -8.529773712158203125e+00 1.514041328430175781e+01 8.721735000610351562e+00 7.158644199371337891e+00 4.065085947513580322e-01
7.600000000000000000e+01 2.269077301025390625e+01 -8.622542381286621094e+00 1.249122905731201172e+01 7.081005096435546875e+00 5.871670246124267578e+00 -2.180624604225158691e-01
7.700000000000000000e+01 2.218450927734375000e+01 -8.290147781372070312e+00 2.427662849426269531e+01 1.272823905944824219e+01 1.110146045684814453e+01 2.255929470062255859e+00
7.800000000000000000e+01 2.237530136108398438e+01 -8.346857070922851562e+00 1.890874099731445312e+01 9.372345924377441406e+00 8.484326362609863281e+00 2.031447172164916992e+00
7.900000000000000000e+01 2.256609153747558594e+01 -8.403565406799316406e+00 1.589756774902343750e+01 7.529522418975830078e+00 7.028127193450927734e+00 2.007246255874633789e+00
8.000000000000000000e+01 2.275688362121582031e+01 -8.460274696350097656e+00 1.293497371673583984e+01 6.628121376037597656e+00 5.868928432464599609e+00 1.760708928108215332e+00
8.100000000000000000e+01 2.219559288024902344e+01 -8.232803344726562500e+00 2.409116554260253906e+01 1.200286674499511719e+01 1.082820987701416016e+01 4.578499794006347656e+00
8.200000000000000000e+01 2.239377593994140625e+01 -8.251282691955566406e+00 1.839323043823242188e+01 9.037849426269531250e+00 8.229323387145996094e+00 4.092605113983154297e+00
8.300000000000000000e+01 2.259195709228515625e+01 -8.269762039184570312e+00 1.548847770690917969e+01 7.101349830627441406e+00 6.776948451995849609e+00 3.528501749038696289e+00
8.400000000000000000e+01 2.279013824462890625e+01 -8.288241386413574219e+00 1.399893760681152344e+01 6.391636371612548828e+00 6.117172241210937500e+00 3.492253780364990234e+00
8.500000000000000000e+01 2.219530105590820312e+01 -8.174398422241210938e+00 2.257649993896484375e+01 1.198471164703369141e+01 1.036836338043212891e+01 7.046902179718017578e+00
8.600000000000000000e+01 2.239328956604003906e+01 -8.153940200805664062e+00 1.699628639221191406e+01 9.651939392089843750e+00 7.994467735290527344e+00 6.001729965209960938e+00
8.700000000000000000e+01 2.259127616882324219e+01 -8.133482933044433594e+00 1.405878162384033203e+01 7.422895431518554688e+00 6.444502830505371094e+00 5.028534412384033203e+00
8.800000000000000000e+01 2.278926277160644531e+01 -8.113025665283203125e+00 1.267418003082275391e+01 6.711444854736328125e+00 5.815687656402587891e+00 4.260236740112304688e+00
8.900000000000000000e+01 2.218364524841308594e+01 -8.117167472839355469e+00 2.007957649230957031e+01 1.363492202758789062e+01 1.011434936523437500e+01 9.133240699768066406e+00
9.000000000000000000e+01 2.237386131286621094e+01 -8.058555603027343750e+00 1.443475437164306641e+01 1.024728584289550781e+01 7.404612064361572266e+00 7.469854354858398438e+00
9.100000000000000000e+01 2.256407737731933594e+01 -7.999944686889648438e+00 1.201993751525878906e+01 9.062458992004394531e+00 6.324718952178955078e+00 6.047419071197509766e+00
9.200000000000000000e+01 2.275429153442382812e+01 -7.941332817077636719e+00 9.428573608398437500e+00 7.101649761199951172e+00 4.959066867828369141e+00 5.436709880828857422e+00
9.300000000000000000e+01 2.216106986999511719e+01 -8.063301086425781250e+00 1.610208129882812500e+01 1.513419532775878906e+01 9.370882987976074219e+00 1.055857086181640625e+01
9.400000000000000000e+01 2.233623504638671875e+01 -7.968778610229492188e+00 1.157094764709472656e+01 1.217910385131835938e+01 7.125015258789062500e+00 7.882709026336669922e+00
9.500000000000000000e+01 2.251140022277832031e+01 -7.874256610870361328e+00 8.900869369506835938e+00 9.971606254577636719e+00 5.661742687225341797e+00 6.700886726379394531e+00
9.600000000000000000e+01 2.268656539916992188e+01 -7.779734134674072266e+00 7.874027252197265625e+00 8.687597274780273438e+00 4.968487262725830078e+00 6.083064079284667969e+00
9.700000000000000000e+01 2.212843894958496094e+01 -8.014860153198242188e+00 1.192699337005615234e+01 1.745986366271972656e+01 8.816057205200195312e+00 1.051369094848632812e+01
9.800000000000000000e+01 2.228184890747070312e+01 -7.888044834136962891e+00 8.026215553283691406e+00 1.356632041931152344e+01 6.477760791778564453e+00 7.515515804290771484e+00
9.900000000000000000e+01 2.243526077270507812e+01 -7.761228561401367188e+00 6.250939369201660156e+00 1.124315166473388672e+01 5.248227119445800781e+00 6.414793968200683594e+00
1.000000000000000000e+02 2.258867263793945312e+01 -7.634412765502929688e+00 5.718326568603515625e+00 9.575572013854980469e+00 4.588169574737548828e+00 5.306458950042724609e+00
1.010000000000000000e+02 2.208700180053710938e+01 -7.973699569702148438e+00 7.647695541381835938e+00 1.932844734191894531e+01 8.092843055725097656e+00 9.059730529785156250e+00
1.020000000000000000e+02 2.221278762817382812e+01 -7.819443225860595703e+00 4.739038467407226562e+00 1.461494827270507812e+01 5.806196212768554688e+00 6.298464298248291016e+00
1.030000000000000000e+02 2.233857345581054688e+01 -7.665186882019042969e+00 3.944578886032104492e+00 1.189038372039794922e+01 4.750488758087158203e+00 4.990543842315673828e+00
1.040000000000000000e+02 2.246436119079589844e+01 -7.510930061340332031e+00 2.752078533172607422e+00 1.035929393768310547e+01 3.933411598205566406e+00 4.192547798156738281e+00
1.050000000000000000e+02 2.203834342956542969e+01 -7.941393852233886719e+00 3.665025949478149414e+00 2.018775939941406250e+01 7.155835628509521484e+00 6.468115329742431641e+00
1.060000000000000000e+02 2.213169097900390625e+01 -7.765600204467773438e+00 2.464879274368286133e+00 1.463216686248779297e+01 5.129113674163818359e+00 4.157788753509521484e+00
1.070000000000000000e+02 2.222503852844238281e+01 -7.589806079864501953e+00 1.576280117034912109e+00 1.197009658813476562e+01 4.063912868499755859e+00 3.154622316360473633e+00
1.080000000000000000e+02 2.231838798522949219e+01 -7.414012432098388672e+00 1.295648813247680664e+00 1.022420692443847656e+01 3.455956697463989258e+00 2.822876453399658203e+00
1.090000000000000000e+02 2.198432731628417969e+01 -7.919178962707519531e+00 1.250319361686706543e+00 1.932697486877441406e+01 6.173188209533691406e+00 3.215161561965942383e+00
1.100000000000000000e+02 2.204166412353515625e+01 -7.728575229644775391e+00 6.272419095039367676e-01 1.361691665649414062e+01 4.273247718811035156e+00 1.605695247650146484e+00
1.110000000000000000e+02 2.209900093078613281e+01 -7.537971496582031250e+00 5.166827440261840820e-01 1.081962013244628906e+01 3.400891065597534180e+00 1.269021034240722656e+00
1.120000000000000000e+02 2.215633773803710938e+01 -7.347367763519287109e+00 2.994404137134552002e-01 9.257658958435058594e+00 2.867129802703857422e+00 1.094094276428222656e+00
1.130000000000000000e+02 2.192701911926269531e+01 -7.907905578613281250e+00 -1.868643239140510559e-02 1.672352027893066406e+01 5.011449813842773438e+00 -3.373978435993194580e-01
1.140000000000000000e+02 2.194615173339843750e+01 -7.709785938262939453e+00 -1.676846528425812721e-03 1.105818367004394531e+01 3.316951990127563477e+00 -4.906048178672790527e-01
1.150000000000000000e+02 2.196528434753417969e+01 -7.511666774749755859e+00 1.507626473903656006e-01 8.859870910644531250e+00 2.703189849853515625e+00 -5.072878599166870117e-01
1.160000000000000000e+02 2.198441505432128906e+01 -7.313547611236572266e+00 3.970037028193473816e-02 7.399602890014648438e+00 2.231791019439697266e+00 -2.594039738178253174e-01
1.170000000000000000e+02 2.186861419677734375e+01 -7.908004760742187500e+00 -1.401990652084350586e-01 1.195813846588134766e+01 3.545382022857666016e+00 -2.744363546371459961e+00
1.180000000000000000e+02 2.184880828857421875e+01 -7.709951400756835938e+00 2.811602056026458740e-01 7.544075489044189453e+00 2.347570657730102539e+00 -2.073403835296630859e+00
1.190000000000000000e+02 2.182900428771972656e+01 -7.511898040771484375e+00 3.477699458599090576e-01 5.913508415222167969e+00 1.878383517265319824e+00 -1.225178956985473633e+00
1.200000000000000000e+02 2.180919837951660156e+01 -7.313845157623291016e+00 2.054264843463897705e-01 5.510306358337402344e+00 1.714719772338867188e+00 -1.002534270286560059e+00
1.210000000000000000e+02 2.181134414672851562e+01 -7.919472694396972656e+00 7.515652179718017578e-01 5.359609127044677734e+00 1.833352208137512207e+00 -4.062110424041748047e+00
1.220000000000000000e+02 2.175336074829101562e+01 -7.729064941406250000e+00 7.475084066390991211e-01 3.170627355575561523e+00 1.175440788269042969e+00 -1.542040109634399414e+00
1.230000000000000000e+02 2.169537544250488281e+01 -7.538657188415527344e+00 5.029541254043579102e-01 3.776700973510742188e+00 1.283896565437316895e+00 -1.223148465156555176e+00
1.240000000000000000e+02 2.163739204406738281e+01 -7.348249435424804688e+00 3.628948628902435303e-01 2.840074062347412109e+00 9.608906507492065430e-01 -1.134212493896484375e+00
1.250000000000000000e+02 2.175740432739257812e+01 -7.941870689392089844e+00 1.785651743412017822e-01 -2.961688518524169922e+00 -8.349370360374450684e-01 -7.040342688560485840e-01
1.260000000000000000e+02 2.166345977783203125e+01 -7.766395568847656250e+00 5.641669631004333496e-01 1.777449965476989746e+00 7.024850845336914062e-01 -4.536754786968231201e-01
1.270000000000000000e+02 2.156951522827148438e+01 -7.590919971466064453e+00 2.302796393632888794e-01 7.844624519348144531e-01 3.044226467609405518e-01 -6.914325356483459473e-01
1.280000000000000000e+02 2.147556877136230469e+01 -7.415444374084472656e+00 3.712390065193176270e-01 9.193001985549926758e-01 3.871617615222930908e-01 -4.404916763305664062e-01
1.290000000000000000e+02 1.760791015625000000e+01 -3.592630624771118164e+00 -4.553925096988677979e-01 -4.253302514553070068e-01 -2.642168104648590088e-01 4.818470180034637451e-01
1.300000000000000000e+02 1.641983032226562500e+01 -3.659779310226440430e+00 -3.639626502990722656e-01 -5.748457908630371094e-01 -2.816425561904907227e-01 6.374948620796203613e-01
1.310000000000000000e+02 1.596709632873535156e+01 -3.138501405715942383e+00 -6.443203091621398926e-01 -4.393505454063415527e-01 -3.251012563705444336e-01 7.381963729858398438e-01
1.320000000000000000e+02 1.586659336090087891e+01 -2.276184797286987305e+00 -1.014629364013671875e+00 -3.504649996757507324e-01 -4.095283150672912598e-01 7.091951966285705566e-01
1.330000000000000000e+02 1.709290885925292969e+01 -4.137548923492431641e+00 -8.889756351709365845e-02 -5.583503246307373047e-01 -1.941743642091751099e-01 5.743612051010131836e-01
1.340000000000000000e+02 1.699184036254882812e+01 -3.153491020202636719e+00 -7.085018754005432129e-01 -4.305095374584197998e-01 -3.417034149169921875e-01 6.228092312812805176e-01
1.350000000000000000e+02 1.642672538757324219e+01 -2.708522081375122070e+00 -9.252136349678039551e-01 -5.112577080726623535e-01 -4.309414029121398926e-01 6.606361865997314453e-01
1.360000000000000000e+02 1.559137153625488281e+01 -2.682137489318847656e+00 -1.019036173820495605e+00 -3.671652376651763916e-01 -4.158604145050048828e-01 7.052251696586608887e-01
1.370000000000000000e+02 1.540681362152099609e+01 -3.142266035079956055e+00 -6.741800308227539062e-01 -3.696443438529968262e-01 -3.131473064422607422e-01 7.640802264213562012e-01
1.380000000000000000e+02 1.831415557861328125e+01 -5.311081409454345703e+00 5.671728849411010742e-01 -5.480089187622070312e-01 5.749193485826253891e-03 8.773134648799896240e-02
1.390000000000000000e+02 1.890605545043945312e+01 -5.755866527557373047e+00 8.287998437881469727e-01 -4.493484199047088623e-01 1.138354316353797913e-01 -1.975244581699371338e-01
1.400000000000000000e+02 1.773148727416992188e+01 -4.693105220794677734e+00 1.917201578617095947e-01 -6.043793559074401855e-01 -1.237977594137191772e-01 3.472951650619506836e-01
1.410000000000000000e+02 1.921659660339355469e+01 -6.291914463043212891e+00 1.082400202751159668e+00 -3.069357275962829590e-01 2.326393574476242065e-01 -4.556734263896942139e-01
1.420000000000000000e+02 1.938408851623535156e+01 -6.216047286987304688e+00 1.013981103897094727e+00 -1.318163573741912842e-01 2.646494209766387939e-01 -5.409669280052185059e-01
1.430000000000000000e+02 1.964806747436523438e+01 -5.894126892089843750e+00 5.609845519065856934e-01 -8.360049128532409668e-02 1.432152092456817627e-01 -2.826386988162994385e-01
1.440000000000000000e+02 1.983474922180175781e+01 -5.801286697387695312e+00 3.237132132053375244e-01 1.317837238311767578e-01 1.366490870714187622e-01 -2.803899049758911133e-01
1.450000000000000000e+02 1.962500190734863281e+01 -5.558226108551025391e+00 2.139075100421905518e-01 -9.685157984495162964e-02 3.511677682399749756e-02 -1.437523663043975830e-01
1.460000000000000000e+02 1.819162178039550781e+01 -4.100187778472900391e+00 -2.167944461107254028e-01 -4.071887433528900146e-01 -1.871949583292007446e-01 3.768664896488189697e-01
1.470000000000000000e+02 1.892551231384277344e+01 -6.315641403198242188e+00 1.476607918739318848e+00 -5.783005952835083008e-01 2.694922089576721191e-01 -4.376100003719329834e-01
1.480000000000000000e+02 1.992595100402832031e+01 -5.596430301666259766e+00 1.204667091369628906e-01 -2.285896986722946167e-02 2.928232215344905853e-02 -7.833439111709594727e-02
1.490000000000000000e+02 1.949548149108886719e+01 -6.037966251373291016e+00 8.551078438758850098e-01 -1.066866517066955566e-01 2.245263457298278809e-01 -4.374800324440002441e-01
1.500000000000000000e+02 1.925853538513183594e+01 -5.189209938049316406e+00 7.736942917108535767e-02 -2.307978123426437378e-01 -4.602851346135139465e-02 8.284977823495864868e-02
1.510000000000000000e+02 1.926170921325683594e+01 -6.002766609191894531e+00 8.837795257568359375e-01 -2.078075557947158813e-01 2.027916014194488525e-01 -4.210909903049468994e-01
1.520000000000000000e+02 1.872156715393066406e+01 -4.660795688629150391e+00 -8.491585403680801392e-02 -4.120917320251464844e-01 -1.491022706031799316e-01 2.290327996015548706e-01
1.530000000000000000e+02 2.017254066467285156e+01 -5.882553100585937500e+00 1.573310345411300659e-01 2.386728823184967041e-01 1.188011765480041504e-01 -2.073042094707489014e-01
1.540000000000000000e+02 2.082940292358398438e+01 -6.874885559082031250e+00 7.089853882789611816e-01 8.920086026191711426e-01 4.802981913089752197e-01 -8.102374672889709473e-01
1.550000000000000000e+02 2.085389328002929688e+01 -7.366857051849365234e+00 2.289639949798583984e+00 1.392387509346008301e+00 1.104608297348022461e+00 -1.865455269813537598e+00
1.560000000000000000e+02 2.220371437072753906e+01 -9.318879127502441406e+00 6.488425254821777344e+00 9.578577995300292969e+00 4.820100784301757812e+00 2.629488110542297363e-01
1.570000000000000000e+02 2.297884368896484375e+01 -8.669325828552246094e+00 1.086877632141113281e+01 5.082310676574707031e+00 4.785326004028320312e+00 7.132870554924011230e-01
1.580000000000000000e+02 2.266232109069824219e+01 -8.949969291687011719e+00 1.116181373596191406e+01 8.071197509765625000e+00 5.769903182983398438e+00 -1.137421011924743652e+00
1.590000000000000000e+02 2.280320739746093750e+01 -8.818826675415039062e+00 1.150567245483398438e+01 6.939665317535400391e+00 5.533601284027099609e+00 -7.946101427078247070e-01
1.600000000000000000e+02 2.310527801513671875e+01 -8.387600898742675781e+00 1.100194168090820312e+01 4.581116676330566406e+00 4.674917697906494141e+00 1.903856039047241211e+00
1.610000000000000000e+02 2.151794242858886719e+01 -6.119241237640380859e+00 -7.187195122241973877e-02 2.489998579025268555e+00 7.254379987716674805e-01 -4.432977437973022461e-01
1.620000000000000000e+02 2.093909072875976562e+01 -6.535506725311279297e+00 5.847566947340965271e-02 3.745824098587036133e-01 1.299174278974533081e-01 -1.305482387542724609e-01
1.630000000000000000e+02 2.295529174804687500e+01 -7.277116775512695312e+00 3.211205959320068359e+00 7.241685390472412109e+00 3.135867357254028320e+00 4.155581951141357422e+00
1.640000000000000000e+02 2.292802810668945312e+01 -7.635877609252929688e+00 6.472715377807617188e+00 6.721021175384521484e+00 3.958121061325073242e+00 4.737452030181884766e+00
1.650000000000000000e+02 2.116325569152832031e+01 -9.027999877929687500e+00 1.090992355346679688e+01 3.939409971237182617e+00 4.454800128936767578e+00 4.655870914459228516e+00
1.660000000000000000e+02 2.086044883728027344e+01 -8.525200843811035156e+00 1.130205249786376953e+01 4.339512884616851807e-01 3.520801305770874023e+00 7.273117303848266602e-01
1.670000000000000000e+02 1.932744598388671875e+01 -6.581600666046142578e+00 1.811674952507019043e+00 -3.743852078914642334e-01 4.311869144439697266e-01 -6.198457479476928711e-01
1.680000000000000000e+02 1.928968811035156250e+01 -6.808392047882080078e+00 2.086236715316772461e+00 -5.165536999702453613e-01 4.709048867225646973e-01 -7.196782231330871582e-01
1.690000000000000000e+02 2.000412750244140625e+01 -7.866486072540283203e+00 5.273047447204589844e+00 -6.755390167236328125e-01 1.379252433776855469e+00 -1.254255175590515137e+00
1.700000000000000000e+02 2.085633850097656250e+01 -8.794950485229492188e+00 1.037679767608642578e+01 1.332676529884338379e+00 3.512842178344726562e+00 2.291276216506958008e+00
1.710000000000000000e+02 2.043701362609863281e+01 -8.574563026428222656e+00 8.791096687316894531e+00 -4.385181665420532227e-01 2.505773544311523438e+00 4.980163276195526123e-01
1.720000000000000000e+02 2.090665245056152344e+01 -7.713686466217041016e+00 4.523535251617431641e+00 1.447120070457458496e+00 1.791196584701538086e+00 -2.660275220870971680e+00
1.730000000000000000e+02 2.050440788269042969e+01 -6.374249458312988281e+00 4.006326198577880859e-01 4.829140305519104004e-01 2.650640010833740234e-01 -4.364043176174163818e-01
1.740000000000000000e+02 1.954960823059082031e+01 -7.162569522857666016e+00 2.879060983657836914e+00 -4.958747923374176025e-01 7.149558663368225098e-01 -1.001385092735290527e+00
1.750000000000000000e+02 2.136457824707031250e+01 -4.932814121246337891e+00 -2.543004453182220459e-01 1.912103414535522461e+00 4.973409175872802734e-01 -1.748692542314529419e-01
1.760000000000000000e+02 2.140597724914550781e+01 -5.355346202850341797e+00 -2.088827639818191528e-01 2.051815986633300781e+00 5.528799891471862793e-01 -2.479408383369445801e-01
1.770000000000000000e+02 2.114049148559570312e+01 -5.328229427337646484e+00 -1.519173979759216309e-01 1.520404458045959473e+00 4.105461239814758301e-01 -2.650032341480255127e-01
1.780000000000000000e+02 2.037257385253906250e+01 -5.726189613342285156e+00 -1.245582103729248047e-01 -7.043342292308807373e-02 -5.849749222397804260e-02 6.207061931490898132e-02
1.790000000000000000e+02 2.103236198425292969e+01 -5.188653469085693359e+00 -1.491927951574325562e-01 1.350794196128845215e+00 3.604804277420043945e-01 -2.316187769174575806e-01
1.800000000000000000e+02 2.081197738647460938e+01 -6.393595695495605469e+00 3.345279768109321594e-02 2.366281151771545410e-01 8.102427423000335693e-02 -9.761071205139160156e-02
1.810000000000000000e+02 2.157971382141113281e+01 -7.154744148254394531e+00 3.281478583812713623e-01 2.604372262954711914e+00 8.797560334205627441e-01 -8.788683414459228516e-01
1.820000000000000000e+02 2.138176536560058594e+01 -7.240107536315917969e+00 1.916929036378860474e-01 7.344715595245361328e-01 2.778493165969848633e-01 -4.860354661941528320e-01
1.830000000000000000e+02 2.254500389099121094e+01 -9.020619392395019531e+00 1.047866153717041016e+01 9.144001960754394531e+00 5.886798858642578125e+00 -1.408688902854919434e+00
1.840000000000000000e+02 2.316519165039062500e+01 -7.776843547821044922e+00 7.572257995605468750e+00 5.790958404541015625e+00 4.008965015411376953e+00 4.780116558074951172e+00
1.850000000000000000e+02 2.222183799743652344e+01 -6.240949153900146484e+00 -1.972806900739669800e-01 4.927697658538818359e+00 1.419125080108642578e+00 3.938003182411193848e-01
1.860000000000000000e+02 2.118852996826171875e+01 -7.367220878601074219e+00 1.082759976387023926e+00 1.540926218032836914e+00 7.871058583259582520e-01 -1.266130328178405762e+00
1.870000000000000000e+02 2.094268608093261719e+01 -7.042149543762207031e+00 8.605338931083679199e-01 1.081884264945983887e+00 5.827254056930541992e-01 -9.594058990478515625e-01
1.880000000000000000e+02 2.085585212707519531e+01 -7.917490959167480469e+00 6.930197715759277344e+00 8.309730887413024902e-01 2.328351259231567383e+00 -2.841571331024169922e+00
1.890000000000000000e+02 2.082711601257324219e+01 -8.115475654602050781e+00 8.762227058410644531e+00 3.058373630046844482e-01 2.720419406890869141e+00 -2.065168857574462891e+00
1.900000000000000000e+02 2.065998649597167969e+01 -8.104416847229003906e+00 8.184431076049804688e+00 3.807104378938674927e-02 2.466750621795654297e+00 -1.934415578842163086e+00
1.910000000000000000e+02 2.132497787475585938e+01 -9.231217384338378906e+00 8.367502212524414062e+00 5.323496818542480469e+00 4.107299804687500000e+00 4.011287689208984375e+00
1.920000000000000000e+02 1.966376304626464844e+01 -7.346868991851806641e+00 3.393018007278442383e+00 -4.742487668991088867e-01 8.756307959556579590e-01 -1.137595772743225098e+00
1.930000000000000000e+02 1.916625595092773438e+01 -6.674401283264160156e+00 2.023607015609741211e+00 -5.221413969993591309e-01 4.504396617412567139e-01 -5.313546061515808105e-01
1.940000000000000000e+02 2.000877952575683594e+01 -6.012645244598388672e+00 4.289108514785766602e-01 5.874753743410110474e-02 1.462975144386291504e-01 -2.819073796272277832e-01
1.950000000000000000e+02 2.255775642395019531e+01 -6.945518970489501953e+00 7.778103351593017578e-01 7.534110546112060547e+00 2.493576288223266602e+00 2.132430315017700195e+00
1.960000000000000000e+02 2.147272872924804688e+01 -5.089428901672363281e+00 -2.811020314693450928e-01 2.080430746078491211e+00 5.397985577583312988e-01 -1.670369207859039307e-01
1.970000000000000000e+02 2.248243522644042969e+01 -7.076841831207275391e+00 8.868901729583740234e-01 8.155266761779785156e+00 2.712647199630737305e+00 2.349941968917846680e+00
1.980000000000000000e+02 2.201821327209472656e+01 -7.098497867584228516e+00 4.070564173161983490e-03 6.706758975982666016e+00 2.013248920440673828e+00 -7.203260809183120728e-02
1.990000000000000000e+02 2.070605659484863281e+01 -5.454629421234130859e+00 -3.810633718967437744e-02 6.284926533699035645e-01 1.771158874034881592e-01 -1.316002607345581055e-01
2.000000000000000000e+02 2.241603851318359375e+01 -7.240698814392089844e+00 1.030641198158264160e+00 9.042461395263671875e+00 3.021930694580078125e+00 2.552688837051391602e+00
2.010000000000000000e+02 2.274850082397460938e+01 -7.209286212921142578e+00 2.369459629058837891e+00 8.140255928039550781e+00 3.152914524078369141e+00 3.647333621978759766e+00
2.020000000000000000e+02 2.100136566162109375e+01 -9.188314437866210938e+00 9.031615257263183594e+00 3.174893379211425781e+00 3.661952495574951172e+00 4.276453971862792969e+00
2.030000000000000000e+02 2.101967811584472656e+01 -7.521960258483886719e+00 2.627561092376708984e+00 1.732777953147888184e+00 1.308101773262023926e+00 -2.237560987472534180e+00
2.040000000000000000e+02 2.095990753173828125e+01 -8.707106590270996094e+00 1.181925582885742188e+01 1.242644309997558594e+00 3.918570041656494141e+00 2.141693830490112305e+00
2.050000000000000000e+02 2.026105117797851562e+01 -8.225805282592773438e+00 7.356425762176513672e+00 -6.348482966423034668e-01 2.016473293304443359e+00 -9.768787026405334473e-01
2.060000000000000000e+02 2.152427673339843750e+01 -9.317626953125000000e+00 7.258681297302246094e+00 7.776641368865966797e+00 4.510596752166748047e+00 3.446169376373291016e+00
2.070000000000000000e+02 2.246473121643066406e+01 -9.376984596252441406e+00 6.439511775970458984e+00 8.700863838195800781e+00 4.542112827301025391e+00 -3.989720940589904785e-01
2.080000000000000000e+02 2.081632232666015625e+01 -8.319219589233398438e+00 1.033521938323974609e+01 -4.748974367976188660e-02 3.086318969726562500e+00 -1.049116373062133789e+00
2.090000000000000000e+02 2.070879173278808594e+01 -8.910483360290527344e+00 9.346266746520996094e+00 2.222329974174499512e-01 2.870549917221069336e+00 1.984664440155029297e+00
2.100000000000000000e+02 2.167685127258300781e+01 -9.524459838867187500e+00 6.449128627777099609e+00 8.399042129516601562e+00 4.454451084136962891e+00 3.208110332489013672e+00
2.110000000000000000e+02 2.176860427856445312e+01 -9.308559417724609375e+00 7.039446353912353516e+00 1.074756813049316406e+01 5.336104393005371094e+00 3.498901844024658203e+00
2.120000000000000000e+02 2.241583633422851562e+01 -9.131139755249023438e+00 8.528929710388183594e+00 9.087508201599121094e+00 5.284931182861328125e+00 -5.730641484260559082e-01
2.130000000000000000e+02 2.291097831726074219e+01 -9.060712814331054688e+00 9.043086051940917969e+00 6.170599937438964844e+00 4.564105987548828125e+00 -1.017397046089172363e+00
2.140000000000000000e+02 2.260775947570800781e+01 -7.346345901489257812e+00 2.392943143844604492e+00 8.919901847839355469e+00 3.393853425979614258e+00 3.941832304000854492e+00
2.150000000000000000e+02 2.281669998168945312e+01 -7.457228660583496094e+00 4.036132335662841797e+00 7.821368694305419922e+00 3.557250261306762695e+00 4.528363704681396484e+00
2.160000000000000000e+02 2.128650093078613281e+01 -7.063689231872558594e+00 2.078001201152801514e-01 7.084596753120422363e-01 2.748779356479644775e-01 -3.525167703628540039e-01
2.170000000000000000e+02 2.179788780212402344e+01 -7.095118522644042969e+00 4.304664954543113708e-02 4.718305587768554688e+00 1.428405642509460449e+00 -8.406515717506408691e-01
2.180000000000000000e+02 2.306836509704589844e+01 -8.058600425720214844e+00 8.750957489013671875e+00 5.631242752075195312e+00 4.314660072326660156e+00 3.793061733245849609e+00
2.190000000000000000e+02 2.221978950500488281e+01 -7.162604331970214844e+00 2.322688251733779907e-01 8.223565101623535156e+00 2.536750316619873047e+00 1.105509161949157715e+00
2.200000000000000000e+02 2.230435562133789062e+01 -6.988195896148681641e+00 2.562784254550933838e-01 7.669872760772705078e+00 2.377845287322998047e+00 1.217797517776489258e+00
2.210000000000000000e+02 2.295639228820800781e+01 -7.868011474609375000e+00 9.454239845275878906e+00 6.526930809020996094e+00 4.794351100921630859e+00 5.745957374572753906e+00
2.220000000000000000e+02 2.144053649902343750e+01 -6.764610767364501953e+00 1.801551878452301025e-01 2.116758346557617188e+00 6.890740394592285156e-01 -6.979386210441589355e-01
2.230000000000000000e+02 2.233757591247558594e+01 -6.395897388458251953e+00 -7.590240985155105591e-02 5.552835464477539062e+00 1.643079996109008789e+00 7.202700376510620117e-01
2.240000000000000000e+02 2.071901130676269531e+01 -6.707824707031250000e+00 6.081857085227966309e-01 7.358039021492004395e-01 4.031968712806701660e-01 -6.634232401847839355e-01
2.250000000000000000e+02 2.028656387329101562e+01 -6.045650005340576172e+00 2.655131816864013672e-01 2.890842556953430176e-01 1.663792282342910767e-01 -2.367749661207199097e-01
2.260000000000000000e+02 1.997564697265625000e+01 -6.287012577056884766e+00 7.169348597526550293e-01 1.652702093124389648e-01 2.646615207195281982e-01 -5.263156890869140625e-01
2.270000000000000000e+02 2.072204017639160156e+01 -6.235909461975097656e+00 -1.755224773660302162e-03 1.474983096122741699e-01 4.372292757034301758e-02 -4.766784608364105225e-02
2.280000000000000000e+02 2.107253837585449219e+01 -6.694497585296630859e+00 6.636644154787063599e-02 5.296548008918762207e-01 1.788063645362854004e-01 -1.955408751964569092e-01
2.290000000000000000e+02 2.127113342285156250e+01 -6.480065345764160156e+00 1.548093557357788086e-01 1.493617177009582520e+00 4.945279657840728760e-01 -5.365277528762817383e-01
2.300000000000000000e+02 2.118965911865234375e+01 -6.876399040222167969e+00 7.406694442033767700e-02 5.926283597946166992e-01 2.000085860490798950e-01 -3.139247894287109375e-01
2.310000000000000000e+02 2.151298522949218750e+01 -6.961695194244384766e+00 1.591285616159439087e-01 2.248313903808593750e+00 7.222326993942260742e-01 -8.233411908149719238e-01
2.320000000000000000e+02 2.143498420715332031e+01 -6.555433273315429688e+00 9.554995596408843994e-02 2.109029769897460938e+00 6.613739132881164551e-01 -6.477614045143127441e-01
2.330000000000000000e+02 2.098342704772949219e+01 -5.457073211669921875e+00 -7.570181787014007568e-02 1.175148129463195801e+00 3.298338651657104492e-01 -2.658781707286834717e-01
2.340000000000000000e+02 2.034663391113281250e+01 -8.415858268737792969e+00 8.420667648315429688e+00 -7.361711859703063965e-01 2.305348873138427734e+00 -2.517977356910705566e-01
2.350000000000000000e+02 1.998469734191894531e+01 -7.386388301849365234e+00 3.476341724395751953e+00 -8.612956106662750244e-02 1.017063617706298828e+00 -1.437181830406188965e+00
2.360000000000000000e+02 1.988939666748046875e+01 -7.696153640747070312e+00 4.591239452362060547e+00 -5.670478940010070801e-01 1.207257509231567383e+00 -1.208064436912536621e+00
2.370000000000000000e+02 1.942840194702148438e+01 -6.963048458099365234e+00 2.403600215911865234e+00 -4.384377002716064453e-01 5.895487666130065918e-01 -8.417536616325378418e-01
2.380000000000000000e+02 2.070808410644531250e+01 -8.610841751098632812e+00 1.049443340301513672e+01 -4.648746550083160400e-01 3.008867502212524414e+00 7.428370714187622070e-01
2.390000000000000000e+02 2.013248825073242188e+01 -8.036563873291015625e+00 6.228923320770263672e+00 -7.126528024673461914e-01 1.654881238937377930e+00 -1.075880885124206543e+00
2.400000000000000000e+02 1.987627983093261719e+01 -7.203502178192138672e+00 2.886594295501708984e+00 -9.826426208019256592e-02 8.364989757537841797e-01 -1.273181438446044922e+00
2.410000000000000000e+02 2.019377326965332031e+01 -7.260281085968017578e+00 2.853988885879516602e+00 3.356017172336578369e-01 9.568771719932556152e-01 -1.541548013687133789e+00
2.420000000000000000e+02 1.951982116699218750e+01 -6.478275299072265625e+00 1.339351177215576172e+00 -1.255429387092590332e-01 3.641424775123596191e-01 -6.276960372924804688e-01
2.430000000000000000e+02 1.964972877502441406e+01 -6.763441562652587891e+00 1.888500571250915527e+00 -1.510663628578186035e-01 5.212302803993225098e-01 -8.634147047996520996e-01
2.440000000000000000e+02 1.984875106811523438e+01 -6.147548198699951172e+00 7.228813171386718750e-01 1.923195719718933105e-01 2.745602726936340332e-01 -5.176624655723571777e-01
2.450000000000000000e+02 2.130483055114746094e+01 -5.207734584808349609e+00 -2.105603367090225220e-01 1.842643499374389648e+00 4.896249473094940186e-01 -2.184921503067016602e-01
2.460000000000000000e+02 2.086843109130859375e+01 -5.320188045501708984e+00 -1.025858074426651001e-01 1.015970230102539062e+00 2.740153372287750244e-01 -1.849278807640075684e-01
2.470000000000000000e+02 2.067417907714843750e+01 -5.745538711547851562e+00 -5.297712236642837524e-02 3.796743452548980713e-01 9.800916910171508789e-02 -7.970076799392700195e-02
2.480000000000000000e+02 2.119809913635253906e+01 -5.059932708740234375e+00 -2.487474679946899414e-01 1.611963748931884766e+00 4.089649021625518799e-01 -1.943697631359100342e-01
2.490000000000000000e+02 2.106020927429199219e+01 -7.208041191101074219e+00 9.139957427978515625e-01 1.286780238151550293e+00 6.602327823638916016e-01 -1.144900083541870117e+00
2.500000000000000000e+02 2.062532234191894531e+01 -6.058350563049316406e+00 -7.289072871208190918e-02 9.845518320798873901e-02 7.669336628168821335e-03 -1.073201280087232590e-02
2.510000000000000000e+02 2.185251426696777344e+01 -5.762348651885986328e+00 -2.311291545629501343e-01 3.255501270294189453e+00 9.073116183280944824e-01 -1.441561728715896606e-01
2.520000000000000000e+02 2.177126693725585938e+01 -5.577882289886474609e+00 -2.431825399398803711e-01 2.903698444366455078e+00 7.981547713279724121e-01 -1.266120225191116333e-01
2.530000000000000000e+02 2.212221908569335938e+01 -6.883594036102294922e+00 -6.437233835458755493e-02 6.361693859100341797e+00 1.889196395874023438e+00 2.542793154716491699e-01
2.540000000000000000e+02 2.268763542175292969e+01 -6.846256732940673828e+00 7.932952642440795898e-01 7.249275684356689453e+00 2.412771224975585938e+00 2.350342512130737305e+00
2.550000000000000000e+02 2.196465873718261719e+01 -5.935262680053710938e+00 -2.613261640071868896e-01 3.727793931961059570e+00 1.039940357208251953e+00 -1.103477627038955688e-01
2.560000000000000000e+02 2.175066566467285156e+01 -6.875688076019287109e+00 6.399276107549667358e-02 4.154934883117675781e+00 1.265678286552429199e+00 -6.829136610031127930e-01
2.570000000000000000e+02 2.257134056091308594e+01 -6.698104858398437500e+00 4.539168477058410645e-01 6.718699932098388672e+00 2.151785135269165039e+00 1.666324257850646973e+00
2.580000000000000000e+02 2.167930793762207031e+01 -5.409010410308837891e+00 -2.517934739589691162e-01 2.608603239059448242e+00 7.070429325103759766e-01 -1.398134380578994751e-01
2.590000000000000000e+02 2.210126495361328125e+01 -6.086719989776611328e+00 -2.220427989959716797e-01 4.232463359832763672e+00 1.203126192092895508e+00 6.170651689171791077e-02
2.600000000000000000e+02 2.149395942687988281e+01 -5.507864475250244141e+00 -1.839478015899658203e-01 2.253035068511962891e+00 6.207261681556701660e-01 -2.390306740999221802e-01
2.610000000000000000e+02 2.245351219177246094e+01 -6.548470497131347656e+00 7.248512655496597290e-02 6.185610771179199219e+00 1.877428770065307617e+00 1.161331534385681152e+00
2.620000000000000000e+02 2.039737892150878906e+01 -6.209039211273193359e+00 3.084841668605804443e-01 3.423989415168762207e-01 1.952649354934692383e-01 -3.552642464637756348e-01
2.630000000000000000e+02 2.012549018859863281e+01 -6.169275283813476562e+00 5.220649838447570801e-01 2.725731730461120605e-01 2.383914440870285034e-01 -4.199292957782745361e-01
2.640000000000000000e+02 2.133228683471679688e+01 -5.583664894104003906e+00 -1.405663490295410156e-01 1.946840763092041016e+00 5.418823361396789551e-01 -3.274345099925994873e-01
2.650000000000000000e+02 2.067879104614257812e+01 -7.708518981933593750e+00 4.764285087585449219e+00 8.794793486595153809e-01 1.693129420280456543e+00 -2.422031164169311523e+00
2.660000000000000000e+02 2.062431907653808594e+01 -7.502798080444335938e+00 3.429467439651489258e+00 9.758148193359375000e-01 1.321584701538085938e+00 -2.109108686447143555e+00
2.670000000000000000e+02 2.011634445190429688e+01 -6.594631195068359375e+00 1.120091080665588379e+00 3.884162008762359619e-01 4.525521993637084961e-01 -8.385263681411743164e-01
2.680000000000000000e+02 2.030823326110839844e+01 -7.884845733642578125e+00 5.903925895690917969e+00 -2.091732323169708252e-01 1.708425879478454590e+00 -1.708552241325378418e+00
2.690000000000000000e+02 2.019959640502929688e+01 -6.779523849487304688e+00 1.369514226913452148e+00 4.691208302974700928e-01 5.515905618667602539e-01 -9.712242484092712402e-01
2.700000000000000000e+02 2.203626251220703125e+01 -6.411859989166259766e+00 -1.549817770719528198e-01 4.719888210296630859e+00 1.369472026824951172e+00 -6.039100885391235352e-02
2.710000000000000000e+02 2.157749557495117188e+01 -5.871016025543212891e+00 -1.262171268463134766e-01 2.612454414367675781e+00 7.458711862564086914e-01 -3.265739679336547852e-01
2.720000000000000000e+02 2.113525962829589844e+01 -5.829710960388183594e+00 -4.928439389914274216e-03 1.380721211433410645e+00 4.127378463745117188e-01 -3.530212044715881348e-01
2.730000000000000000e+02 2.019593048095703125e+01 -7.729040145874023438e+00 4.957767963409423828e+00 -1.851257681846618652e-01 1.431792616844177246e+00 -1.600088000297546387e+00
2.740000000000000000e+02 2.008667182922363281e+01 -7.078951835632324219e+00 2.323436498641967773e+00 2.871721684932708740e-01 7.831825613975524902e-01 -1.299881100654602051e+00
2.750000000000000000e+02 1.976598167419433594e+01 -7.003495693206787109e+00 2.368090629577636719e+00 -7.803358882665634155e-02 6.870170831680297852e-01 -1.085440754890441895e+00
2.760000000000000000e+02 2.049429512023925781e+01 -5.890064239501953125e+00 -3.142762184143066406e-02 3.511454537510871887e-02 1.106076873838901520e-03 6.985221803188323975e-02
2.770000000000000000e+02 2.196987915039062500e+01 -6.738926887512207031e+00 -7.361909747123718262e-02 5.146414279937744141e+00 1.521838545799255371e+00 -2.269459962844848633e-01
2.780000000000000000e+02 2.029901313781738281e+01 -6.960288047790527344e+00 1.756207942962646484e+00 5.602881908416748047e-01 6.949488520622253418e-01 -1.199686527252197266e+00
2.790000000000000000e+02 2.061767005920410156e+01 -7.010540008544921875e+00 1.407823443412780762e+00 9.077595472335815430e-01 6.946748495101928711e-01 -1.189424157142639160e+00
2.800000000000000000e+02 2.196347236633300781e+01 -9.384157180786132812e+00 6.794028759002685547e+00 8.952204704284667969e+00 4.723870277404785156e+00 1.837548375129699707e+00
2.810000000000000000e+02 2.054248237609863281e+01 -5.590821743011474609e+00 -8.880309015512466431e-02 2.429635375738143921e-01 4.624813050031661987e-02 -1.155576854944229126e-02
2.820000000000000000e+02 2.083168983459472656e+01 -5.597592353820800781e+00 -5.769442394375801086e-02 8.059474825859069824e-01 2.244759202003479004e-01 -2.048443704843521118e-01
2.830000000000000000e+02 2.157857513427734375e+01 -5.247310161590576172e+00 -2.618891298770904541e-01 2.303565740585327148e+00 6.125029921531677246e-01 -1.444452404975891113e-01
2.840000000000000000e+02 2.082333374023437500e+01 -5.899139404296875000e+00 8.035854436457157135e-03 6.041876673698425293e-01 1.836670637130737305e-01 -1.754143387079238892e-01
2.850000000000000000e+02 2.092558670043945312e+01 -6.227305412292480469e+00 1.457875501364469528e-02 6.416111588478088379e-01 1.968569755554199219e-01 -1.888306736946105957e-01
2.860000000000000000e+02 2.125722885131835938e+01 -6.099195003509521484e+00 2.443323098123073578e-02 1.642075061798095703e+00 4.999524950981140137e-01 -4.376825988292694092e-01
2.870000000000000000e+02 2.175297355651855469e+01 -6.154919624328613281e+00 -1.157898306846618652e-01 3.265942811965942383e+00 9.450458884239196777e-01 -3.422854840755462646e-01
2.880000000000000000e+02 2.022807693481445312e+01 -6.326749801635742188e+00 5.979555845260620117e-01 3.914172053337097168e-01 2.968118488788604736e-01 -5.292326211929321289e-01
2.890000000000000000e+02 1.969722557067871094e+01 -6.309183597564697266e+00 1.000156998634338379e+00 -2.548775169998407364e-03 2.992824614048004150e-01 -6.083671450614929199e-01
2.900000000000000000e+02 2.031808662414550781e+01 -6.493926525115966797e+00 7.493060231208801270e-01 4.606251120567321777e-01 3.629793524742126465e-01 -6.481517553329467773e-01
2.910000000000000000e+02 1.987580490112304688e+01 -6.442726612091064453e+00 1.100697636604309082e+00 2.185138612985610962e-01 3.957634270191192627e-01 -7.212882041931152344e-01
2.920000000000000000e+02 2.041088485717773438e+01 -6.665863037109375000e+00 9.322257041931152344e-01 5.999874472618103027e-01 4.596639573574066162e-01 -8.135315775871276855e-01
2.930000000000000000e+02 2.061094093322753906e+01 -6.540774345397949219e+00 4.849298000335693359e-01 5.977262854576110840e-01 3.247968256473541260e-01 -5.434866547584533691e-01
2.940000000000000000e+02 2.073078918457031250e+01 -7.185286998748779297e+00 1.713181614875793457e+00 1.115861058235168457e+00 8.487128019332885742e-01 -1.476893424987792969e+00
2.950000000000000000e+02 1.998204803466796875e+01 -6.884439945220947266e+00 1.934479355812072754e+00 1.825385838747024536e-01 6.351053714752197266e-01 -1.073590636253356934e+00
2.960000000000000000e+02 2.190976905822753906e+01 -6.270826816558837891e+00 -1.947197318077087402e-01 4.046028137207031250e+00 1.155392646789550781e+00 -2.516123950481414795e-01
2.970000000000000000e+02 2.215591239929199219e+01 -6.560682773590087891e+00 -1.319241374731063843e-01 5.567573547363281250e+00 1.630694746971130371e+00 3.192576467990875244e-01
2.980000000000000000e+02 2.289231872558593750e+01 -7.140658855438232422e+00 2.445023536682128906e+00 7.107399940490722656e+00 2.865726947784423828e+00 3.680323362350463867e+00
2.990000000000000000e+02 2.279327964782714844e+01 -6.995359897613525391e+00 1.697607874870300293e+00 7.378167629241943359e+00 2.722732543945312500e+00 3.142350435256958008e+00
3.000000000000000000e+02 2.264609146118164062e+01 -7.072917461395263672e+00 1.384162068367004395e+00 8.124250411987304688e+00 2.852523565292358398e+00 2.991858482360839844e+00
3.010000000000000000e+02 2.228484916687011719e+01 -6.701751708984375000e+00 3.090053796768188477e-02 6.294452667236328125e+00 1.897606015205383301e+00 7.752165198326110840e-01
3.020000000000000000e+02 2.242417716979980469e+01 -6.830231189727783203e+00 2.625531554222106934e-01 7.045527935028076172e+00 2.192424297332763672e+00 1.477819442749023438e+00
3.030000000000000000e+02 2.255541419982910156e+01 -9.125699043273925781e+00 8.942708969116210938e+00 8.972950935363769531e+00 5.374698162078857422e+00 -6.835175752639770508e-01
3.040000000000000000e+02 2.103680419921875000e+01 -8.862316131591796875e+00 1.098720169067382812e+01 3.089508295059204102e+00 4.223012924194335938e+00 3.886671304702758789e+00
3.050000000000000000e+02 2.056384086608886719e+01 -8.733356475830078125e+00 9.602196693420410156e+00 -1.240161508321762085e-01 2.843454360961914062e+00 1.706754207611083984e+00
3.060000000000000000e+02 2.054171371459960938e+01 -8.447243690490722656e+00 9.099143981933593750e+00 -2.342878431081771851e-01 2.659456968307495117e+00 -7.548307627439498901e-02
3.070000000000000000e+02 2.061868286132812500e+01 -8.279928207397460938e+00 9.214983940124511719e+00 -4.295827746391296387e-01 2.635620355606079102e+00 -8.348712921142578125e-01
3.080000000000000000e+02 2.009135246276855469e+01 -7.561232089996337891e+00 4.186720371246337891e+00 -1.592910140752792358e-01 1.208228826522827148e+00 -1.597128391265869141e+00
3.090000000000000000e+02 1.977661132812500000e+01 -7.523452281951904297e+00 3.934186220169067383e+00 -5.169488787651062012e-01 1.025171279907226562e+00 -1.236450076103210449e+00
3.100000000000000000e+02 2.066938591003417969e+01 -7.916199207305908203e+00 6.681571006774902344e+00 4.778004288673400879e-01 2.147811412811279297e+00 -2.233834981918334961e+00
3.110000000000000000e+02 2.005843734741210938e+01 -6.422226428985595703e+00 9.275214672088623047e-01 2.683424651622772217e-01 3.587591648101806641e-01 -6.348047256469726562e-01
3.120000000000000000e+02 2.051497459411621094e+01 -7.316371440887451172e+00 2.658651590347290039e+00 8.518854379653930664e-01 1.053161144256591797e+00 -1.750001907348632812e+00
3.130000000000000000e+02 2.124338531494140625e+01 -5.461003780364990234e+00 -1.352335512638092041e-01 1.737198472023010254e+00 4.805894792079925537e-01 -2.846761047840118408e-01
3.140000000000000000e+02 2.155400848388671875e+01 -5.674872875213623047e+00 -1.734680682420730591e-01 2.473183155059814453e+00 6.899145245552062988e-01 -2.781857252120971680e-01
3.150000000000000000e+02 2.122096633911132812e+01 -5.680859088897705078e+00 -8.423934876918792725e-02 1.640360236167907715e+00 4.668362438678741455e-01 -3.401242792606353760e-01
3.160000000000000000e+02 2.133612060546875000e+01 -5.880892276763916016e+00 -7.240430265665054321e-02 1.921283125877380371e+00 5.546636581420898438e-01 -4.106025397777557373e-01
3.170000000000000000e+02 2.051118087768554688e+01 -6.837947368621826172e+00 1.111290335655212402e+00 7.525327205657958984e-01 5.591469407081604004e-01 -9.772585630416870117e-01
3.180000000000000000e+02 2.046513938903808594e+01 -7.770570278167724609e+00 5.221111297607421875e+00 2.591133713722229004e-01 1.644067406654357910e+00 -2.004112958908081055e+00
3.190000000000000000e+02 2.047953224182128906e+01 -8.135039329528808594e+00 7.622115612030029297e+00 -2.743197381496429443e-01 2.204338788986206055e+00 -1.232088327407836914e+00
3.200000000000000000e+02 1.988872718811035156e+01 -6.661353111267089844e+00 1.416206836700439453e+00 1.576271057128906250e-01 4.721501767635345459e-01 -8.195887207984924316e-01
3.210000000000000000e+02 2.029871749877929688e+01 -7.436612129211425781e+00 3.502904653549194336e+00 4.108144044876098633e-01 1.174115777015686035e+00 -1.791196584701538086e+00
3.220000000000000000e+02 2.039361572265625000e+01 -7.607910156250000000e+00 4.423339843750000000e+00 3.721144795417785645e-01 1.438636183738708496e+00 -2.005567312240600586e+00
3.230000000000000000e+02 2.046914291381835938e+01 -7.942007541656494141e+00 6.335089206695556641e+00 2.412423864006996155e-02 1.907763957977294922e+00 -1.851204633712768555e+00
3.240000000000000000e+02 2.176712226867675781e+01 -6.434271812438964844e+00 -7.640967518091201782e-02 3.569524765014648438e+00 1.047934532165527344e+00 -4.332437515258789062e-01
3.250000000000000000e+02 2.186244964599609375e+01 -6.572036743164062500e+00 -1.141546219587326050e-01 4.259896278381347656e+00 1.243722558021545410e+00 -3.800199925899505615e-01
3.260000000000000000e+02 2.110015296936035156e+01 -5.581467628479003906e+00 -7.597426325082778931e-02 1.397060394287109375e+00 3.963258266448974609e-01 -3.219208717346191406e-01
3.270000000000000000e+02 2.096915626525878906e+01 -5.727882385253906250e+00 -3.454105928540229797e-02 1.020663499832153320e+00 2.958367168903350830e-01 -2.712115049362182617e-01
3.280000000000000000e+02 2.167047500610351562e+01 -6.690133571624755859e+00 5.083630234003067017e-02 3.321522951126098633e+00 1.011707782745361328e+00 -6.758500337600708008e-01
3.290000000000000000e+02 2.136650276184082031e+01 -5.714453220367431641e+00 -9.098256379365921021e-02 2.022614240646362305e+00 5.794894695281982422e-01 -3.465459942817687988e-01
3.300000000000000000e+02 2.102305984497070312e+01 -6.020814895629882812e+00 8.976352401077747345e-03 9.602005481719970703e-01 2.907530665397644043e-01 -2.958711087703704834e-01
3.310000000000000000e+02 2.040535545349121094e+01 -7.137773036956787109e+00 2.110580444335937500e+00 7.202823758125305176e-01 8.492588400840759277e-01 -1.454759359359741211e+00
3.320000000000000000e+02 2.164509582519531250e+01 -6.359421730041503906e+00 -8.378420770168304443e-02 2.937145948410034180e+00 8.560085296630859375e-01 -5.107499361038208008e-01
3.330000000000000000e+02 2.112001228332519531e+01 -6.334460258483886719e+00 8.062486350536346436e-02 1.084693431854248047e+00 3.495954871177673340e-01 -3.556558787822723389e-01
3.340000000000000000e+02 2.145969772338867188e+01 -6.353923320770263672e+00 1.399941649287939072e-02 2.316446542739868164e+00 6.991338133811950684e-01 -5.014501214027404785e-01
3.350000000000000000e+02 2.162345886230468750e+01 -6.524621009826660156e+00 2.518721856176853180e-02 2.985718011856079102e+00 9.032715559005737305e-01 -5.825437903404235840e-01
3.360000000000000000e+02 2.013143539428710938e+01 -5.451884269714355469e+00 -1.386272758245468140e-01 -1.254548579454421997e-01 -7.922463864088058472e-02 1.473900824785232544e-01
3.370000000000000000e+02 2.010946273803710938e+01 -4.450353622436523438e+00 -2.559806406497955322e-01 2.869721949100494385e-01 9.297467768192291260e-03 4.973129555583000183e-02
3.380000000000000000e+02 1.964740371704101562e+01 -4.630689144134521484e+00 -2.833250164985656738e-01 -2.267654389142990112e-01 -1.530271321535110474e-01 2.395414263010025024e-01
3.390000000000000000e+02 2.065686035156250000e+01 -4.225648403167724609e+00 -2.539804279804229736e-01 8.590146899223327637e-01 1.815102845430374146e-01 -9.005898982286453247e-02
3.400000000000000000e+02 1.919816017150878906e+01 -4.051544189453125000e+00 -3.397956192493438721e-01 -2.630052268505096436e-01 -1.808402538299560547e-01 3.111287653446197510e-01
3.410000000000000000e+02 2.058563041687011719e+01 -4.578837871551513672e+00 -2.216223627328872681e-01 7.567500472068786621e-01 1.605383008718490601e-01 -1.105321496725082397e-01
3.420000000000000000e+02 2.109706115722656250e+01 -4.635157108306884766e+00 -2.653895318508148193e-01 1.501126646995544434e+00 3.707211315631866455e-01 -1.426640450954437256e-01
3.430000000000000000e+02 1.915836715698242188e+01 -2.910374879837036133e+00 -3.409444093704223633e-01 1.655746065080165863e-02 -9.731608629226684570e-02 1.583648920059204102e-01
3.440000000000000000e+02 1.868775177001953125e+01 -3.491888761520385742e+00 -4.547446668148040771e-01 -3.426312804222106934e-01 -2.392127811908721924e-01 3.720380365848541260e-01
3.450000000000000000e+02 1.963701248168945312e+01 -3.435469150543212891e+00 -3.118020296096801758e-01 1.734517812728881836e-01 -4.150507599115371704e-02 1.084220632910728455e-01
3.460000000000000000e+02 2.015700721740722656e+01 -3.868944406509399414e+00 -2.514043152332305908e-01 4.591368138790130615e-01 6.231975182890892029e-02 1.433739438652992249e-02
3.470000000000000000e+02 2.013935279846191406e+01 -5.225425720214843750e+00 -1.655321419239044189e-01 -7.327205687761306763e-02 -7.164125889539718628e-02 1.216103211045265198e-01
3.480000000000000000e+02 2.059396171569824219e+01 -5.098427295684814453e+00 -1.520214378833770752e-01 6.434407830238342285e-01 1.474258005619049072e-01 -1.188730373978614807e-01
3.490000000000000000e+02 2.078079986572265625e+01 -4.943743705749511719e+00 -2.021589428186416626e-01 9.251578450202941895e-01 2.168996781110763550e-01 -1.374421268701553345e-01
3.500000000000000000e+02 2.096175384521484375e+01 -4.811989784240722656e+00 -2.200963497161865234e-01 1.286130905151367188e+00 3.198103606700897217e-01 -1.634204387664794922e-01
3.510000000000000000e+02 2.048688697814941406e+01 -5.286303043365478516e+00 -1.660827845335006714e-01 3.619510531425476074e-01 5.876047536730766296e-02 -1.761188358068466187e-02
3.520000000000000000e+02 2.010500335693359375e+01 -4.936563491821289062e+00 -2.174564898014068604e-01 3.225491940975189209e-02 -5.556047335267066956e-02 1.084606721997261047e-01
3.530000000000000000e+02 2.036716079711914062e+01 -5.416350364685058594e+00 -4.648020118474960327e-02 9.783170372247695923e-02 1.540545001626014709e-02 8.188651874661445618e-03
3.540000000000000000e+02 1.724629974365234375e+01 -1.505973219871520996e+00 -4.119474291801452637e-01 -2.063686400651931763e-01 -1.854948103427886963e-01 2.597489655017852783e-01
3.550000000000000000e+02 1.620514488220214844e+01 -1.697480440139770508e+00 -5.571646094322204590e-01 -2.346895784139633179e-01 -2.375562489032745361e-01 3.241559863090515137e-01
3.560000000000000000e+02 1.748624420166015625e+01 -2.562495470046997070e+00 -5.072336792945861816e-01 -2.562259137630462646e-01 -2.290378808975219727e-01 3.607043027877807617e-01
3.570000000000000000e+02 1.812313652038574219e+01 -2.997157573699951172e+00 -5.305213332176208496e-01 -3.195791244506835938e-01 -2.550301253795623779e-01 3.839447796344757080e-01
3.580000000000000000e+02 1.859226417541503906e+01 -2.421155929565429688e+00 -3.307950198650360107e-01 -1.328584849834442139e-01 -1.390960514545440674e-01 2.041135132312774658e-01
3.590000000000000000e+02 1.657006454467773438e+01 -1.050868153572082520e+00 -4.335913956165313721e-01 -2.088830620050430298e-01 -1.927423328161239624e-01 2.224872261285781860e-01
3.600000000000000000e+02 1.792063713073730469e+01 -1.962957024574279785e+00 -3.633248209953308105e-01 -2.097500413656234741e-01 -1.719224601984024048e-01 2.681232988834381104e-01
3.610000000000000000e+02 1.684664344787597656e+01 -2.129048585891723633e+00 -4.982836246490478516e-01 -2.459568232297897339e-01 -2.232721298933029175e-01 3.432970643043518066e-01
3.620000000000000000e+02 1.437439537048339844e+01 -8.830149471759796143e-02 -5.428863763809204102e-01 -9.512247145175933838e-02 -1.914026588201522827e-01 1.857336610555648804e-01
3.630000000000000000e+02 1.338726615905761719e+01 -4.958960413932800293e-01 -6.158530116081237793e-01 -8.372706919908523560e-02 -2.098740190267562866e-01 2.069093137979507446e-01
3.640000000000000000e+02 1.481616306304931641e+01 -1.058209896087646484e+00 -5.582292675971984863e-01 -1.033426001667976379e-01 -1.984715461730957031e-01 2.308346778154373169e-01
3.650000000000000000e+02 1.552819252014160156e+01 -1.340840697288513184e+00 -5.900973081588745117e-01 -1.726980209350585938e-01 -2.288386076688766479e-01 2.752756178379058838e-01
3.660000000000000000e+02 1.586064529418945312e+01 -6.765008568763732910e-01 -4.510031938552856445e-01 -1.969366371631622314e-01 -1.943819522857666016e-01 2.173523008823394775e-01
3.670000000000000000e+02 1.362912273406982422e+01 2.041978091001510620e-01 -5.528485178947448730e-01 -8.981866389513015747e-02 -1.928001493215560913e-01 1.568221896886825562e-01
3.680000000000000000e+02 1.511841678619384766e+01 -3.819521367549896240e-01 -5.114104747772216797e-01 -1.468956768512725830e-01 -1.974918395280838013e-01 2.107510119676589966e-01
3.690000000000000000e+02 1.410233974456787109e+01 -7.764772772789001465e-01 -5.663337111473083496e-01 -9.335337579250335693e-02 -1.979061216115951538e-01 2.135740220546722412e-01
3.700000000000000000e+02 1.131013679504394531e+01 8.408998847007751465e-01 -5.652737021446228027e-01 -4.403353482484817505e-02 -1.827921718358993530e-01 1.405669599771499634e-01
3.710000000000000000e+02 1.042135906219482422e+01 2.992311716079711914e-01 -6.532107591629028320e-01 -4.790796339511871338e-02 -2.103356122970581055e-01 1.355475485324859619e-01
3.720000000000000000e+02 1.191366195678710938e+01 -7.340838760137557983e-02 -6.242232918739318848e-01 -3.941033780574798584e-02 -1.990900933742523193e-01 1.625108867883682251e-01
3.730000000000000000e+02 1.265766906738281250e+01 -2.614961266517639160e-01 -6.427591443061828613e-01 -7.300440967082977295e-02 -2.147290706634521484e-01 1.795099675655364990e-01
3.740000000000000000e+02 1.286749935150146484e+01 4.488001465797424316e-01 -5.564454197883605957e-01 -7.417269796133041382e-02 -1.891854405403137207e-01 1.605671942234039307e-01
3.750000000000000000e+02 1.052962684631347656e+01 1.034987807273864746e+00 -5.084905624389648438e-01 -6.948936730623245239e-02 -1.733939796686172485e-01 1.292265504598617554e-01
3.760000000000000000e+02 1.116801452636718750e+01 1.136300638318061829e-01 -6.208618879318237305e-01 -4.576775804162025452e-02 -1.999888867139816284e-01 1.556512564420700073e-01
3.770000000000000000e+02 1.208963775634765625e+01 6.453746557235717773e-01 -5.659053921699523926e-01 -6.191280484199523926e-02 -1.883454620838165283e-01 1.579294800758361816e-01
3.780000000000000000e+02 9.769897460937500000e+00 1.127334952354431152e+00 -4.662757217884063721e-01 -5.609832331538200378e-02 -1.567122042179107666e-01 1.472676694393157959e-01
3.790000000000000000e+02 8.908253669738769531e+00 3.834950029850006104e-01 -4.776965975761413574e-01 2.460035262629389763e-03 -1.425709724426269531e-01 4.674424976110458374e-02
3.800000000000000000e+02 8.148585319519042969e+00 3.813146948814392090e-01 -3.896933495998382568e-01 -8.590245619416236877e-03 -1.194850802421569824e-01 3.808590769767761230e-02
3.810000000000000000e+02 7.554188251495361328e+00 1.119702935218811035e+00 -3.167031705379486084e-01 -1.310983020812273026e-02 -9.894389659166336060e-02 9.975008666515350342e-02
3.820000000000000000e+02 5.871814727783203125e+00 3.743358254432678223e-01 -1.852101683616638184e-01 1.664706040173768997e-03 -5.506363883614540100e-02 2.789987064898014069e-02
3.830000000000000000e+02 5.112776756286621094e+00 3.704028129577636719e-01 -1.313303411006927490e-01 -4.315403755754232407e-03 -4.069372266530990601e-02 2.310102432966232300e-02
3.840000000000000000e+02 4.353713035583496094e+00 3.684068620204925537e-01 -8.385128527879714966e-02 5.337338661774992943e-04 -2.499526552855968475e-02 2.074038423597812653e-02
3.850000000000000000e+02 2.836367130279541016e+00 3.604523241519927979e-01 -1.841656863689422607e-02 -1.660255715250968933e-03 -6.023047491908073425e-03 1.065531931817531586e-02
3.860000000000000000e+02 2.079849958419799805e+00 3.577947616577148438e-01 -2.280782209709286690e-03 -2.515016356483101845e-03 -1.438739593140780926e-03 5.384325515478849411e-03
3.870000000000000000e+02 2.391217708587646484e+00 1.097794771194458008e+00 -2.898392267525196075e-02 -1.145692635327577591e-02 -1.213225442916154861e-02 2.400643937289714813e-02
3.880000000000000000e+02 1.668007969856262207e+00 1.106352806091308594e+00 -1.283545233309268951e-02 -1.176101621240377426e-02 -7.378940470516681671e-03 1.175606343895196915e-02
3.890000000000000000e+02 3.545288145542144775e-01 9.535720348358154297e-01 -4.442156059667468071e-04 1.308117643930017948e-03 2.591706288512796164e-04 -4.531934100668877363e-04
3.900000000000000000e+02 1.335685014724731445e+00 3.663527369499206543e-01 1.956892898306250572e-03 -2.052342519164085388e-03 -2.863488043658435345e-05 5.507587338797748089e-04
3.910000000000000000e+02 3.126780033111572266e+00 1.100452303886413574e+00 -5.101722106337547302e-02 -1.346589904278516769e-02 -1.934493705630302429e-02 3.843508660793304443e-02
3.920000000000000000e+02 3.594501495361328125e+00 3.669418096542358398e-01 -4.563224688172340393e-02 -3.669185563921928406e-03 -1.479042973369359970e-02 1.565637066960334778e-02
3.930000000000000000e+02 5.340324878692626953e+00 1.110402822494506836e+00 -1.595594584941864014e-01 -5.117209162563085556e-03 -4.940300062298774719e-02 7.281228899955749512e-02
3.940000000000000000e+02 6.630899906158447266e+00 3.767811954021453857e-01 -2.466355562210083008e-01 -5.224752705544233322e-03 -7.555808871984481812e-02 2.966174669563770294e-02
3.950000000000000000e+02 6.816537857055664062e+00 1.116781234741210938e+00 -2.593963146209716797e-01 -3.219131380319595337e-03 -7.878463715314865112e-02 9.075811505317687988e-02
3.960000000000000000e+02 7.389504909515380859e+00 3.797029256820678711e-01 -3.138655126094818115e-01 2.695392584428191185e-03 -9.335103631019592285e-02 3.440209105610847473e-02
3.970000000000000000e+02 8.292314529418945312e+00 1.121314764022827148e+00 -3.774467110633850098e-01 -6.540017668157815933e-03 -1.151960119605064392e-01 1.098375916481018066e-01
3.980000000000000000e+02 9.031026840209960938e+00 1.123494982719421387e+00 -4.444492161273956299e-01 -3.557339310646057129e-02 -1.440067887306213379e-01 1.342009752988815308e-01
3.990000000000000000e+02 9.668079376220703125e+00 3.873349428176879883e-01 -6.053751707077026367e-01 -4.079613462090492249e-02 -1.938513815402984619e-01 8.025313168764114380e-02
4.000000000000000000e+02 1.010643720626831055e+00 1.130747556686401367e+00 -4.807410296052694321e-03 -7.712717633694410324e-03 -3.756038378924131393e-03 3.164788475260138512e-03
4.010000000000000000e+02 6.573658585548400879e-01 3.907475173473358154e-01 1.032350002788007259e-03 -1.149405725300312042e-04 2.752228465396910906e-04 -8.449940942227840424e-04
4.020000000000000000e+02 6.078407764434814453e+00 1.114335775375366211e+00 -2.067299932241439819e-01 -1.028629392385482788e-02 -6.510488688945770264e-02 8.156970888376235962e-02
4.030000000000000000e+02 4.602215766906738281e+00 1.108406901359558105e+00 -1.176999285817146301e-01 -1.059464737772941589e-02 -3.848837316036224365e-02 6.248350813984870911e-02
4.040000000000000000e+02 3.863959550857543945e+00 1.106941819190979004e+00 -8.255411684513092041e-02 -8.000588975846767426e-03 -2.716641128063201904e-02 5.181577429175376892e-02
4.050000000000000000e+02 1.388111495971679688e+01 -2.388393163681030273e+00 -1.182027459144592285e+00 -2.112587541341781616e-01 -4.179858863353729248e-01 7.925320863723754883e-01
4.060000000000000000e+02 1.301526165008544922e+01 -1.988485813140869141e+00 -1.540670871734619141e+00 -1.729309111833572388e-01 -5.140805244445800781e-01 6.717007160186767578e-01
4.070000000000000000e+02 1.456621360778808594e+01 -1.633289217948913574e+00 -1.621724128723144531e+00 -2.124201804399490356e-01 -5.502432584762573242e-01 6.800076365470886230e-01
4.080000000000000000e+02 1.470362663269042969e+01 -2.776672124862670898e+00 -9.535731673240661621e-01 -3.654454350471496582e-01 -3.957055807113647461e-01 8.004083633422851562e-01
4.090000000000000000e+02 1.522682380676269531e+01 -1.924743771553039551e+00 -1.315543055534362793e+00 -2.898055911064147949e-01 -4.816046059131622314e-01 6.398752927780151367e-01
4.100000000000000000e+02 1.320408344268798828e+01 -1.267461419105529785e+00 -1.797580361366271973e+00 -1.552639603614807129e-01 -5.858532786369323730e-01 6.834249496459960938e-01
4.110000000000000000e+02 1.497323989868164062e+01 -2.346927881240844727e+00 -1.087409377098083496e+00 -2.928408682346343994e-01 -4.140750467777252197e-01 7.841078042984008789e-01
4.120000000000000000e+02 1.393587779998779297e+01 -1.459229350090026855e+00 -1.777936100959777832e+00 -3.563823401927947998e-01 -6.402955055236816406e-01 7.113730311393737793e-01
4.130000000000000000e+02 1.426281070709228516e+01 -1.972140312194824219e+00 -1.431434988975524902e+00 -3.173002898693084717e-01 -5.246205925941467285e-01 7.501131296157836914e-01
4.140000000000000000e+02 8.579203605651855469e+00 -1.933688044548034668e+00 -1.673313975334167480e+00 2.994622290134429932e-01 -4.121555387973785400e-01 -3.108113817870616913e-02
4.150000000000000000e+02 3.689679861068725586e+00 -2.001207351684570312e+00 -6.904087662696838379e-01 -1.040329784154891968e-01 -2.383325248956680298e-01 -7.319716215133666992e-01
4.160000000000000000e+02 6.216958761215209961e-01 -1.063999271392822266e+01 -3.488417342305183411e-02 -5.675323009490966797e+00 -1.713062167167663574e+00 -3.882521986961364746e-01
4.170000000000000000e+02 9.695859909057617188e+00 -1.149860286712646484e+01 3.542861223220825195e+00 8.540203094482421875e+00 3.624919414520263672e+00 3.309978485107421875e+00
4.180000000000000000e+02 1.092348670959472656e+01 -1.169105243682861328e+01 5.873896121978759766e+00 3.892346382141113281e+00 2.929872751235961914e+00 3.943606138229370117e+00
4.190000000000000000e+02 1.223584938049316406e+01 -1.165129947662353516e+01 2.200515031814575195e+00 -2.167719006538391113e-01 5.951229929924011230e-01 1.135605096817016602e+00
4.200000000000000000e+02 1.365782737731933594e+01 -1.187646102905273438e+01 -1.416024804115295410e+00 -8.725622892379760742e-01 -6.865761280059814453e-01 1.706396341323852539e+00
4.210000000000000000e+02 2.076361846923828125e+01 -9.960166931152343750e+00 5.066686630249023438e+00 2.816965103149414062e+00 2.365095615386962891e+00 3.808603763580322266e+00
4.220000000000000000e+02 2.074742889404296875e+01 -9.378655433654785156e+00 7.259494781494140625e+00 2.256940841674804688e+00 2.854930639266967773e+00 3.599724769592285156e+00
4.230000000000000000e+02 1.880580711364746094e+01 -1.432065963745117188e+01 -8.864552497863769531e+00 -1.989281415939331055e+00 -3.256150245666503906e+00 4.385719299316406250e+00
4.240000000000000000e+02 2.158231353759765625e+01 -1.456241893768310547e+01 -7.069769382476806641e+00 -1.377366930246353149e-01 -2.162251949310302734e+00 2.501026868820190430e+00
4.250000000000000000e+02 2.325773048400878906e+01 -9.633173942565917969e+00 6.176057338714599609e+00 5.008121490478515625e+00 3.355253696441650391e+00 -1.293612957000732422e+00
4.260000000000000000e+02 2.265855979919433594e+01 -9.999265670776367188e+00 4.091063022613525391e+00 6.711690902709960938e+00 3.240826129913330078e+00 -4.322127997875213623e-01
4.270000000000000000e+02 1.891313195228576660e+00 -1.055346488952636719e+01 2.135743200778961182e-01 -3.621667146682739258e+00 -1.022427797317504883e+00 -1.119084835052490234e+00
4.280000000000000000e+02 6.049283742904663086e-01 -1.767195510864257812e+01 3.612947650253772736e-03 -5.882401466369628906e+00 -1.763636589050292969e+00 3.544446527957916260e-01
4.290000000000000000e+02 1.173002338409423828e+01 -1.841570091247558594e+01 2.162462472915649414e+00 3.818658828735351562e+00 1.794336438179016113e+00 -2.887697219848632812e+00
4.300000000000000000e+02 9.972623825073242188e+00 -1.618440437316894531e+01 2.408491373062133789e+00 9.134207725524902344e+00 3.462809562683105469e+00 -4.301964282989501953e+00
4.310000000000000000e+02 9.330764770507812500e+00 -1.496645641326904297e+01 2.287006139755249023e+00 1.499733448028564453e+01 5.185302257537841797e+00 -2.407222747802734375e+00
4.320000000000000000e+02 9.316523551940917969e+00 -1.281606006622314453e+01 4.796014785766601562e+00 1.446928501129150391e+01 5.779589653015136719e+00 3.443941831588745117e+00
4.330000000000000000e+02 1.817863583564758301e+00 -1.748549652099609375e+01 1.308175325393676758e-01 -3.875787496566772461e+00 -1.123491048812866211e+00 9.385527372360229492e-01
4.340000000000000000e+02 6.611562371253967285e-01 -2.332446289062500000e+01 -7.618264853954315186e-02 -2.510981321334838867e+00 -7.761492133140563965e-01 3.324074447154998779e-01
4.350000000000000000e+02 1.753433227539062500e+01 -4.110135269165039062e+01 -3.093297481536865234e-01 8.317146897315979004e-01 1.567154824733734131e-01 -1.346481405198574066e-02
4.360000000000000000e+02 2.710258674621582031e+01 -4.103014755249023438e+01 -9.749256074428558350e-02 2.541034221649169922e-01 4.698326066136360168e-02 -1.290108636021614075e-02
4.370000000000000000e+02 2.606620025634765625e+01 -3.818257141113281250e+01 -9.438153356313705444e-02 2.845825254917144775e-01 5.706029385328292847e-02 -8.564366400241851807e-02
4.380000000000000000e+02 3.037380027770996094e+01 -3.638508224487304688e+01 -5.782004073262214661e-02 4.655769839882850647e-02 -3.378702560439705849e-03 -4.713208600878715515e-02
4.390000000000000000e+02 3.279445266723632812e+01 -3.215335845947265625e+01 -1.681317538022994995e-01 -1.233118399977684021e-02 -5.413888394832611084e-02 2.622218802571296692e-02
4.400000000000000000e+02 2.963010597229003906e+01 -3.313139724731445312e+01 -9.370413422584533691e-02 3.687653690576553345e-02 -1.704827882349491119e-02 -8.803464472293853760e-03
4.410000000000000000e+02 2.857703590393066406e+01 -3.121649169921875000e+01 -1.159286573529243469e-01 1.271872594952583313e-02 -3.096297942101955414e-02 1.263291481882333755e-02
4.420000000000000000e+02 2.529943847656250000e+01 -3.106861305236816406e+01 -4.576556384563446045e-03 1.684207469224929810e-01 4.915325716137886047e-02 -1.320219188928604126e-01
4.430000000000000000e+02 2.725034713745117188e+01 -3.061843299865722656e+01 -6.775689125061035156e-02 1.314830780029296875e-02 -1.638257503509521484e-02 -8.751218207180500031e-03
4.440000000000000000e+02 1.752140045166015625e+01 -2.677261352539062500e+01 3.048374354839324951e-01 1.070183634757995605e+00 4.125063121318817139e-01 -6.145210266113281250e-01
4.450000000000000000e+02 1.863665008544921875e+01 -2.556863212585449219e+01 6.408021450042724609e-01 8.560249805450439453e-01 4.490481317043304443e-01 -6.995153427124023438e-01
4.460000000000000000e+02 1.566360664367675781e+01 -2.244743347167968750e+01 1.023867011070251465e+00 1.410371661186218262e+00 7.302715778350830078e-01 -1.230476021766662598e+00
4.470000000000000000e+02 1.467398643493652344e+01 -2.145296287536621094e+01 1.263976335525512695e+00 1.766129255294799805e+00 9.090316891670227051e-01 -1.448177576065063477e+00
4.480000000000000000e+02 1.081000995635986328e+01 -1.924953079223632812e+01 8.803638815879821777e-01 4.731326103210449219e+00 1.683507084846496582e+00 -1.884641528129577637e+00
4.490000000000000000e+02 1.468067836761474609e+01 -2.518470573425292969e+01 2.087733894586563110e-01 1.729539275169372559e+00 5.814937949180603027e-01 -7.582339048385620117e-01
4.500000000000000000e+02 1.189023590087890625e+01 -2.420983314514160156e+01 -1.440512984991073608e-01 2.407959222793579102e+00 6.791723966598510742e-01 -5.918036103248596191e-01
4.510000000000000000e+02 6.655672192573547363e-01 -2.474056625366210938e+01 2.073832973837852478e-02 -1.859139323234558105e+00 -5.515202879905700684e-01 2.878300547599792480e-01
4.520000000000000000e+02 7.420204877853393555e-01 -3.039888381958007812e+01 8.377986960113048553e-03 -2.064843177795410156e-01 -5.943189933896064758e-02 1.386592239141464233e-01
4.530000000000000000e+02 7.752532005310058594e+00 -3.815179061889648438e+01 -2.251457571983337402e-01 8.101961612701416016e-01 1.755151301622390747e-01 1.584199368953704834e-01
4.540000000000000000e+02 1.768587303161621094e+01 -3.818060302734375000e+01 -2.942421734333038330e-01 8.563938736915588379e-01 1.686455011367797852e-01 -9.272290021181106567e-02
4.550000000000000000e+02 7.811537981033325195e-01 -3.181612968444824219e+01 -2.891371771693229675e-02 2.738510444760322571e-02 -4.585838760249316692e-04 1.148226261138916016e-01
4.560000000000000000e+02 8.865209221839904785e-01 -3.743594360351562500e+01 -1.371581479907035828e-02 5.407777428627014160e-01 1.581185758113861084e-01 4.099082946777343750e-02
4.570000000000000000e+02 7.963989734649658203e+00 -4.096461486816406250e+01 -2.089515328407287598e-01 8.045067191123962402e-01 1.786665618419647217e-01 6.077249720692634583e-02
4.580000000000000000e+02 2.782950878143310547e+00 -3.835946655273437500e+01 -4.801204428076744080e-02 6.183201074600219727e-01 1.710924208164215088e-01 8.265162259340286255e-02
4.590000000000000000e+02 3.688188552856445312e+01 -3.714117813110351562e+01 -7.080870866775512695e-02 -9.854851663112640381e-02 -5.080716684460639954e-02 -3.865620493888854980e-02
4.600000000000000000e+02 3.845623397827148438e+01 -3.284730911254882812e+01 -2.307144105434417725e-01 -3.266045451164245605e-02 -7.901246100664138794e-02 -4.361676797270774841e-02
4.610000000000000000e+02 3.706451034545898438e+01 -3.262358856201171875e+01 -1.863871663808822632e-01 -5.797161255031824112e-03 -5.765529721975326538e-02 -1.102990936487913132e-02
4.620000000000000000e+02 4.283944702148437500e+01 -3.857022094726562500e+01 8.200882375240325928e-02 -2.747464776039123535e-01 -5.782129615545272827e-02 -1.480803191661834717e-01
4.630000000000000000e+02 4.731837463378906250e+01 -3.114376258850097656e+01 -9.202458262443542480e-01 -1.598386615514755249e-01 -3.240253329277038574e-01 -3.783212900161743164e-01
4.640000000000000000e+02 4.303115463256835938e+01 -3.227061080932617188e+01 -4.619795978069305420e-01 -1.060915738344192505e-01 -1.704213470220565796e-01 -1.742186844348907471e-01
4.650000000000000000e+02 4.204674911499023438e+01 -3.492716598510742188e+01 -1.803504675626754761e-01 -1.748373806476593018e-01 -1.065563485026359558e-01 -2.010829150676727295e-01
4.660000000000000000e+02 4.808019638061523438e+01 -3.890352630615234375e+01 3.076090514659881592e-01 -3.564511537551879883e-01 -1.465262565761804581e-02 -2.040167450904846191e-01
4.670000000000000000e+02 5.227540206909179688e+01 -3.885911941528320312e+01 5.108687877655029297e-01 5.426203832030296326e-02 1.695392578840255737e-01 -8.175560086965560913e-02
4.680000000000000000e+02 4.993476104736328125e+01 -3.016968154907226562e+01 -1.314897060394287109e+00 -2.963241040706634521e-01 -4.833663403987884521e-01 -6.124151349067687988e-01
4.690000000000000000e+02 4.862942886352539062e+01 -3.066971206665039062e+01 -1.154341697692871094e+00 -2.437109053134918213e-01 -4.194158017635345459e-01 -4.908666014671325684e-01
4.700000000000000000e+02 5.662873840332031250e+01 -3.865011596679687500e+01 5.538482069969177246e-01 9.195466041564941406e-01 4.420184493064880371e-01 1.614576019346714020e-02
4.710000000000000000e+02 5.724123001098632812e+01 -4.124635314941406250e+01 6.105477809906005859e-01 1.142671704292297363e+00 5.259658098220825195e-01 2.858154475688934326e-02
4.720000000000000000e+02 6.271872711181640625e+01 -3.245636367797851562e+01 -9.430965781211853027e-02 3.109023094177246094e+00 9.044140577316284180e-01 4.085285663604736328e-01
4.730000000000000000e+02 6.170535278320312500e+01 -2.254379844665527344e+01 3.921328112483024597e-02 9.954094290733337402e-01 3.103868067264556885e-01 4.086175858974456787e-01
4.740000000000000000e+02 6.071450042724609375e+01 -2.355453872680664062e+01 -3.597037196159362793e-01 3.788876831531524658e-01 5.755187477916479111e-03 9.991413913667201996e-03
4.750000000000000000e+02 5.855267333984375000e+01 -2.537987136840820312e+01 -1.099482536315917969e+00 -3.205415308475494385e-01 -4.260072410106658936e-01 -5.978280901908874512e-01
4.760000000000000000e+02 5.620232009887695312e+01 -2.692070198059082031e+01 -1.490987539291381836e+00 -4.657194018363952637e-01 -5.870120525360107422e-01 -8.156535625457763672e-01
4.770000000000000000e+02 5.692386627197265625e+01 -2.797738647460937500e+01 -9.937571287155151367e-01 -5.647030472755432129e-02 -3.150682151317596436e-01 -3.918533623218536377e-01
4.780000000000000000e+02 6.213317108154296875e+01 -4.098374176025390625e+01 4.345541298389434814e-01 3.075438022613525391e+00 1.052997589111328125e+00 5.824664607644081116e-02
4.790000000000000000e+02 6.083919906616210938e+01 -3.815756225585937500e+01 4.020866453647613525e-01 2.595906972885131836e+00 8.993980884552001953e-01 1.911652833223342896e-01
4.800000000000000000e+02 7.216725921630859375e+01 -3.094987487792968750e+01 -3.673590421676635742e-01 7.878647327423095703e+00 2.253386497497558594e+00 -5.250656977295875549e-04
4.810000000000000000e+02 6.717859649658203125e+01 -2.246574974060058594e+01 -8.318487405776977539e-01 7.024219036102294922e+00 1.857711076736450195e+00 8.591347932815551758e-01
4.820000000000000000e+02 7.933200836181640625e+01 -2.222188186645507812e+01 1.515133678913116455e-02 8.949113845825195312e+00 2.689279556274414062e+00 -3.113265633583068848e-01
4.830000000000000000e+02 7.797332000732421875e+01 -1.627832603454589844e+01 1.120297312736511230e-01 6.894970893859863281e+00 2.102100133895874023e+00 -9.969576597213745117e-01
4.840000000000000000e+02 7.937317657470703125e+01 -1.240939521789550781e+01 1.176274344325065613e-01 4.141726970672607422e+00 1.277806401252746582e+00 -1.224136129021644592e-01
4.850000000000000000e+02 7.821023559570312500e+01 -9.384230613708496094e+00 1.888542175292968750e-01 5.657305240631103516e+00 1.753847837448120117e+00 4.094740748405456543e-01
4.860000000000000000e+02 7.940756225585937500e+01 -5.472211837768554688e+00 -5.985714867711067200e-02 5.925378799438476562e+00 1.759656548500061035e+00 3.499551713466644287e-01
4.870000000000000000e+02 7.282857513427734375e+01 2.256847143173217773e+00 -7.867438793182373047e-01 7.801748752593994141e+00 2.104501485824584961e+00 -4.152913987636566162e-01
4.880000000000000000e+02 6.152607727050781250e+01 1.240995502471923828e+01 5.808327794075012207e-01 3.625353097915649414e+00 1.261855721473693848e+00 -8.921210765838623047e-01
4.890000000000000000e+02 5.629449462890625000e+01 1.112303924560546875e+01 3.461667001247406006e-01 3.286484956741333008e+00 1.089795470237731934e+00 -9.203315526247024536e-02
4.900000000000000000e+02 5.735873413085937500e+01 1.208250331878662109e+01 5.391746759414672852e-01 3.241091966629028320e+00 1.134079933166503906e+00 -5.539750456809997559e-01
4.910000000000000000e+02 5.540063858032226562e+01 1.005469799041748047e+01 3.643452227115631104e-01 2.733791112899780273e+00 9.294408559799194336e-01 4.312902092933654785e-01
4.920000000000000000e+02 5.358881759643554688e+01 7.781186103820800781e+00 6.732845306396484375e-01 8.187236785888671875e-01 4.476024806499481201e-01 5.455722808837890625e-01
4.930000000000000000e+02 5.228963851928710938e+01 7.036498546600341797e+00 8.757516741752624512e-01 3.263443410396575928e-01 3.606288135051727295e-01 4.165087342262268066e-01
4.940000000000000000e+02 5.101015472412109375e+01 6.452869415283203125e+00 9.957380890846252441e-01 1.586060822010040283e-01 3.463032543659210205e-01 2.855507731437683105e-01
4.950000000000000000e+02 4.989229202270507812e+01 3.815845727920532227e+00 5.687701702117919922e-01 1.981809437274932861e-01 2.300853431224822998e-01 2.114123106002807617e-01
4.960000000000000000e+02 4.978201675415039062e+01 6.040307044982910156e+00 9.387454390525817871e-01 9.635533392429351807e-02 3.105302155017852783e-01 1.350987702608108521e-01
4.970000000000000000e+02 4.425624847412109375e+01 8.866630554199218750e+00 1.277572214603424072e-01 4.964889883995056152e-01 1.872738599777221680e-01 -1.757041513919830322e-01
4.980000000000000000e+02 3.939167404174804688e+01 4.562438964843750000e+00 2.206649780273437500e-01 7.735138535499572754e-01 2.982536554336547852e-01 5.050578117370605469e-01
4.990000000000000000e+02 2.664856719970703125e+01 4.504053592681884766e+00 5.630217492580413818e-02 1.819074749946594238e+00 5.626130700111389160e-01 7.177757620811462402e-01
5.000000000000000000e+02 2.398121070861816406e+01 5.835074901580810547e+00 7.589221000671386719e-01 1.293824911117553711e+00 6.158241033554077148e-01 9.900091886520385742e-01
5.010000000000000000e+02 2.496201896667480469e+01 6.697213172912597656e+00 8.637791872024536133e-01 2.316261529922485352e+00 9.540122151374816895e-01 1.127199530601501465e+00
5.020000000000000000e+02 2.152396392822265625e+01 4.564651966094970703e+00 -3.434102833271026611e-01 1.769721508026123047e-01 -4.993144422769546509e-02 1.368888765573501587e-01
5.030000000000000000e+02 1.898287010192871094e+01 4.205043315887451172e+00 -1.078118324279785156e+00 -1.552415341138839722e-01 -3.700079321861267090e-01 1.656762510538101196e-01
5.040000000000000000e+02 1.741327476501464844e+01 1.745311766862869263e-01 -3.247020244598388672e-01 -1.562434285879135132e-01 -1.442836374044418335e-01 1.098016649484634399e-01
5.050000000000000000e+02 1.959193992614746094e+01 2.381503582000732422e+00 -3.797820210456848145e-01 2.125415019690990448e-02 -1.075583621859550476e-01 1.642673760652542114e-01
5.060000000000000000e+02 1.471919059753417969e+01 6.611450910568237305e-01 -4.849860370159149170e-01 -1.207419633865356445e-01 -1.817183941602706909e-01 1.385772973299026489e-01
5.070000000000000000e+02 1.391844654083251953e+01 9.396235346794128418e-01 -5.052559375762939453e-01 -8.416950702667236328e-02 -1.768276393413543701e-01 1.406401544809341431e-01
5.080000000000000000e+02 1.422169685363769531e+01 1.703073501586914062e+00 -4.706956148147583008e-01 -8.438277989625930786e-02 -1.665235161781311035e-01 1.132310926914215088e-01
5.090000000000000000e+02 1.066715812683105469e+01 1.744868755340576172e+00 -4.481154382228851318e-01 -5.388285219669342041e-02 -1.505994945764541626e-01 1.642185002565383911e-01
5.100000000000000000e+02 4.874556064605712891e-01 6.426709651947021484e+00 -2.910216338932514191e-03 -2.210248410701751709e-01 -6.718051433563232422e-02 3.575980663299560547e-02
5.110000000000000000e+02 4.755173683166503906e+00 2.574016094207763672e+00 -1.272836774587631226e-01 -4.042819514870643616e-02 -5.031356215476989746e-02 1.346208453178405762e-01
5.120000000000000000e+02 6.713661956787109375e+01 -4.096349334716796875e+01 1.998228430747985840e-01 5.173603057861328125e+00 1.612027883529663086e+00 9.920395165681838989e-02
5.130000000000000000e+02 7.183089447021484375e+01 -4.116471481323242188e+01 6.639125198125839233e-02 7.534593582153320312e+00 2.280295610427856445e+00 -1.196828763931989670e-02
5.140000000000000000e+02 7.923976135253906250e+01 -3.338100814819335938e+01 -1.989790005609393120e-03 1.087110424041748047e+01 3.260734558105468750e+00 -2.282737940549850464e-02
5.150000000000000000e+02 7.790073394775390625e+01 -3.046955108642578125e+01 -6.807937473058700562e-02 1.013024044036865234e+01 3.018648386001586914e+00 -1.491248458623886108e-01
5.160000000000000000e+02 7.933142089843750000e+01 -2.642450332641601562e+01 -4.721443355083465576e-02 1.023985862731933594e+01 3.057793378829956055e+00 -1.612755358219146729e-01
5.170000000000000000e+02 7.802286529541015625e+01 -2.350004959106445312e+01 -8.578477054834365845e-02 9.226135253906250000e+00 2.742105245590209961e+00 -6.379540562629699707e-01
5.180000000000000000e+02 7.799478149414062500e+01 -4.166828536987304688e+01 1.967733949422836304e-01 1.029770565032958984e+01 3.148343563079833984e+00 5.527359992265701294e-02
5.190000000000000000e+02 7.757864379882812500e+01 -3.830680084228515625e+01 -9.975326061248779297e-02 1.012268733978271484e+01 3.006880283355712891e+00 1.601645648479461670e-01
5.200000000000000000e+02 7.813043212890625000e+01 -2.529669523239135742e+00 -8.626344054937362671e-02 7.673609256744384766e+00 2.276203870773315430e+00 6.960893869400024414e-01
5.210000000000000000e+02 7.935197448730468750e+01 2.865531206130981445e+00 -2.906608395278453827e-02 8.711230278015136719e+00 2.604649305343627930e+00 6.251095980405807495e-02
5.220000000000000000e+02 7.298032379150390625e+01 1.039287948608398438e+01 -2.157049998641014099e-02 6.611400127410888672e+00 1.976948857307434082e+00 -7.107118964195251465e-01
5.230000000000000000e+02 6.010245513916015625e+01 1.862702560424804688e+01 5.048692822456359863e-01 3.641161203384399414e+00 1.243809103965759277e+00 -5.990768671035766602e-01
5.240000000000000000e+02 5.512555313110351562e+01 1.856563949584960938e+01 3.748973309993743896e-01 2.963044166564941406e+00 1.001382470130920410e+00 -9.762782454490661621e-01
5.250000000000000000e+02 5.382159423828125000e+01 1.748806953430175781e+01 7.673786282539367676e-01 1.528218865394592285e+00 6.886792182922363281e-01 -1.106724381446838379e+00
5.260000000000000000e+02 7.806025695800781250e+01 4.416602134704589844e+00 -7.455392926931381226e-02 8.379220962524414062e+00 2.491400003433227539e+00 -1.094864588230848312e-02
5.270000000000000000e+02 7.936202239990234375e+01 8.435387611389160156e+00 1.167345885187387466e-02 8.467703819274902344e+00 2.543813228607177734e+00 -5.941501632332801819e-02
5.280000000000000000e+02 7.253825378417968750e+01 1.764214134216308594e+01 1.234250292181968689e-01 6.053257465362548828e+00 1.853004813194274902e+00 -5.572972297668457031e-01
5.290000000000000000e+02 6.087682342529296875e+01 2.159456253051757812e+01 4.088626205921173096e-01 3.809105873107910156e+00 1.265390515327453613e+00 -5.974887609481811523e-01
5.300000000000000000e+02 5.397741317749023438e+01 2.910413360595703125e+01 6.494261622428894043e-01 2.439454317092895508e+00 9.266641139984130859e-01 -2.939763963222503662e-01
5.310000000000000000e+02 4.742785263061523438e+01 4.103584289550781250e+01 6.307560801506042480e-01 1.986208558082580566e+00 7.850894331932067871e-01 2.678094198927283287e-03
5.320000000000000000e+02 3.779058837890625000e+01 4.082425689697265625e+01 5.096820592880249023e-01 1.242259383201599121e+00 5.255824327468872070e-01 3.075382858514785767e-02
5.330000000000000000e+02 4.261444854736328125e+01 4.101608657836914062e+01 5.923554897308349609e-01 1.570744752883911133e+00 6.489300727844238281e-01 1.916303671896457672e-02
5.340000000000000000e+02 3.447035598754882812e+01 3.641255569458007812e+01 4.340599477291107178e-01 1.016529917716979980e+00 4.351769685745239258e-01 1.034472659230232239e-01
5.350000000000000000e+02 3.865707015991210938e+01 3.745671844482421875e+01 5.132679343223571777e-01 1.286730170249938965e+00 5.399994254112243652e-01 8.902768790721893311e-02
5.360000000000000000e+02 3.585935592651367188e+01 2.838447380065917969e+01 3.628173768520355225e-01 1.179541945457458496e+00 4.627077877521514893e-01 2.459694594144821167e-01
5.370000000000000000e+02 3.972220230102539062e+01 2.261546134948730469e+01 3.604026138782501221e-01 1.498945713043212891e+00 5.578044652938842773e-01 4.166488945484161377e-01
5.380000000000000000e+02 3.886835479736328125e+01 1.135711383819580078e+01 4.002337157726287842e-01 1.374252676963806152e+00 5.323459506034851074e-01 7.661178708076477051e-01
5.390000000000000000e+02 3.763500976562500000e+01 1.105650043487548828e+01 3.614654242992401123e-01 1.334425091743469238e+00 5.087671279907226562e-01 8.276451826095581055e-01
5.400000000000000000e+02 4.150965499877929688e+01 1.176090621948242188e+01 2.702019512653350830e-01 1.826837182044982910e+00 6.291117072105407715e-01 4.999110102653503418e-01
5.410000000000000000e+02 4.262875747680664062e+01 8.123343467712402344e+00 7.313276082277297974e-02 8.890976905822753906e-01 2.886691391468048096e-01 7.107023894786834717e-02
5.420000000000000000e+02 4.517643737792968750e+01 8.047651290893554688e+00 9.616637974977493286e-02 1.436337530612945557e-01 7.194004207849502563e-02 -1.224943771958351135e-01
5.430000000000000000e+02 7.808840179443359375e+01 1.135298061370849609e+01 -1.610820554196834564e-02 7.796087741851806641e+00 2.333993911743164062e+00 -2.218964397907257080e-01
5.440000000000000000e+02 7.935206604003906250e+01 1.678950500488281250e+01 1.513620093464851379e-02 7.450693607330322266e+00 2.239748954772949219e+00 -6.559047102928161621e-02
5.450000000000000000e+02 7.286135864257812500e+01 2.380743980407714844e+01 9.555869549512863159e-02 5.857860088348388672e+00 1.786025643348693848e+00 -3.809235394001007080e-01
5.460000000000000000e+02 5.550786590576171875e+01 3.652922439575195312e+01 5.587869286537170410e-01 2.940079927444458008e+00 1.049660086631774902e+00 -1.348649710416793823e-01
5.470000000000000000e+02 5.223409271240234375e+01 4.086198043823242188e+01 6.154755949974060059e-01 2.494535207748413086e+00 9.330031871795654297e-01 -1.096866745501756668e-02
5.480000000000000000e+02 7.802715301513671875e+01 1.973477363586425781e+01 9.660307550802826881e-04 6.951072216033935547e+00 2.085611581802368164e+00 -1.659980714321136475e-01
5.490000000000000000e+02 7.933206939697265625e+01 2.378765296936035156e+01 -7.925659418106079102e-03 6.835318565368652344e+00 2.048217773437500000e+00 -3.967703878879547119e-02
5.500000000000000000e+02 6.228287506103515625e+01 4.011725234985351562e+01 3.660375475883483887e-01 3.951075553894042969e+00 1.295133948326110840e+00 -8.234398812055587769e-02
5.510000000000000000e+02 5.711378097534179688e+01 4.039173126220703125e+01 5.120439529418945312e-01 3.199171543121337891e+00 1.113364577293395996e+00 -5.604683235287666321e-02
5.520000000000000000e+02 7.658829498291015625e+01 2.277001762390136719e+01 3.816760331392288208e-02 6.513357639312744141e+00 1.965457677841186523e+00 -2.304064929485321045e-01
5.530000000000000000e+02 7.946073150634765625e+01 2.924108695983886719e+01 -6.862642243504524231e-03 6.528006076812744141e+00 1.956343054771423340e+00 -2.055717445909976959e-02
5.540000000000000000e+02 7.168979644775390625e+01 3.824135589599609375e+01 1.048645600676536560e-01 5.347867012023925781e+00 1.635819554328918457e+00 -7.089938968420028687e-02
5.550000000000000000e+02 7.936352539062500000e+01 3.194665527343750000e+01 -3.085185540840029716e-03 6.420763015747070312e+00 1.925303220748901367e+00 -1.815523952245712280e-02
5.560000000000000000e+02 7.901455688476562500e+01 3.738414001464843750e+01 -3.323691431432962418e-03 6.234844684600830078e+00 1.869456291198730469e+00 -3.574027493596076965e-02
5.570000000000000000e+02 7.216687011718750000e+01 3.595985031127929688e+01 7.875443994998931885e-02 5.413770675659179688e+00 1.647757530212402344e+00 -1.369582414627075195e-01
5.580000000000000000e+02 2.774980354309082031e+01 4.035606384277343750e+01 3.421489894390106201e-01 6.326187252998352051e-01 2.924303114414215088e-01 3.667661175131797791e-02
5.590000000000000000e+02 3.131192779541015625e+01 3.432680130004882812e+01 3.727084398269653320e-01 8.372073769569396973e-01 3.629747331142425537e-01 1.263236403465270996e-01
5.600000000000000000e+02 2.942630386352539062e+01 3.158500671386718750e+01 3.228581845760345459e-01 7.034234404563903809e-01 3.078844845294952393e-01 1.618826091289520264e-01
5.610000000000000000e+02 2.687362289428710938e+01 2.136046981811523438e+01 1.668544113636016846e-01 4.918851256370544434e-01 1.976218670606613159e-01 2.273687571287155151e-01
5.620000000000000000e+02 2.731621360778808594e+01 1.606761741638183594e+01 -2.743636071681976318e-01 7.273732423782348633e-01 1.359028816223144531e-01 3.019568324089050293e-01
5.630000000000000000e+02 2.706004714965820312e+01 1.028043079376220703e+01 2.372253090143203735e-01 1.601126670837402344e+00 5.515056252479553223e-01 7.995527982711791992e-01
5.640000000000000000e+02 2.672815322875976562e+01 1.308475589752197266e+01 -2.987039387226104736e-01 9.389540553092956543e-01 1.920750290155410767e-01 5.235495567321777344e-01
5.650000000000000000e+02 1.766221427917480469e+01 4.060208892822265625e+01 1.565649658441543579e-01 5.718359351158142090e-02 6.412456929683685303e-02 3.274502232670783997e-02
5.660000000000000000e+02 2.265696144104003906e+01 4.064833831787109375e+01 2.496425658464431763e-01 3.336317539215087891e-01 1.749822944402694702e-01 3.414798900485038757e-02
5.670000000000000000e+02 2.284240531921386719e+01 3.083268737792968750e+01 2.438028454780578613e-01 3.273975849151611328e-01 1.713601201772689819e-01 2.042364180088043213e-01
5.680000000000000000e+02 2.136649513244628906e+01 2.279440116882324219e+01 1.823792755603790283e-01 1.263133138418197632e-01 9.260777384042739868e-02 3.711762726306915283e-01
5.690000000000000000e+02 1.917788505554199219e+01 1.764619636535644531e+01 5.152945592999458313e-02 7.439441233873367310e-02 3.777716308832168579e-02 4.387757480144500732e-01
5.700000000000000000e+02 2.126061248779296875e+01 1.822744941711425781e+01 1.820387691259384155e-02 -1.641710400581359863e-01 -4.379015043377876282e-02 4.416229128837585449e-01
5.710000000000000000e+02 2.251668167114257812e+01 1.567204952239990234e+01 -7.762296795845031738e-01 -3.427127599716186523e-01 -3.356827497482299805e-01 4.794595539569854736e-01
5.720000000000000000e+02 2.330464553833007812e+01 1.664356231689453125e+01 -3.385029137134552002e-01 -1.899812519550323486e-01 -1.585452556610107422e-01 2.288016676902770996e-01
5.730000000000000000e+02 2.360793685913085938e+01 1.486612510681152344e+01 -6.620092988014221191e-01 -3.603567779064178467e-01 -3.067098259925842285e-01 4.676453769207000732e-01
5.740000000000000000e+02 2.543185043334960938e+01 1.270775508880615234e+01 -2.605955004692077637e-01 5.416104793548583984e-01 8.430448919534683228e-02 2.276158928871154785e-01
5.750000000000000000e+02 2.568244743347167969e+01 1.130010986328125000e+01 5.674956366419792175e-02 1.294585704803466797e+00 4.054005742073059082e-01 2.279500812292098999e-01
5.760000000000000000e+02 2.575860404968261719e+01 9.953762054443359375e+00 1.249659992754459381e-02 1.892168879508972168e+00 5.713996291160583496e-01 2.949578762054443359e-01
5.770000000000000000e+02 2.579365158081054688e+01 8.676194190979003906e+00 4.624038636684417725e-01 2.571530103683471680e+00 9.101802110671997070e-01 7.268723249435424805e-01
5.780000000000000000e+02 2.615950012207031250e+01 7.417959213256835938e+00 7.407511472702026367e-01 2.237952947616577148e+00 8.936112523078918457e-01 8.242930173873901367e-01
5.790000000000000000e+02 1.849433135986328125e+01 3.692793655395507812e+01 1.720300018787384033e-01 9.995464235544204712e-02 8.159539103507995605e-02 9.414260089397430420e-02
5.800000000000000000e+02 1.677855491638183594e+01 3.278709793090820312e+01 1.396773904561996460e-01 5.290729552507400513e-02 5.777540802955627441e-02 1.711575835943222046e-01
5.810000000000000000e+02 1.659555244445800781e+01 2.444403457641601562e+01 6.188051030039787292e-02 1.589492559432983398e-01 6.624893099069595337e-02 3.484090566635131836e-01
5.820000000000000000e+02 1.803754425048828125e+01 1.664012336730957031e+01 3.458906412124633789e-01 1.776502281427383423e-01 1.570622622966766357e-01 4.068788886070251465e-01
5.830000000000000000e+02 1.823993110656738281e+01 1.885441017150878906e+01 1.120111048221588135e-01 2.445482462644577026e-01 1.069678068161010742e-01 5.526885986328125000e-01
5.840000000000000000e+02 1.267982959747314453e+01 4.076883697509765625e+01 8.705532550811767578e-02 -2.036591321229934692e-01 -3.498113900423049927e-02 2.341295219957828522e-02
5.850000000000000000e+02 4.844683647155761719e+00 4.040522384643554688e+01 2.113529946655035019e-03 -7.548188567161560059e-01 -2.258116006851196289e-01 2.913934737443923950e-02
5.860000000000000000e+02 7.844347476959228516e+00 3.221379470825195312e+01 1.150394324213266373e-02 -4.505896270275115967e-01 -1.317257136106491089e-01 7.456509768962860107e-02
5.870000000000000000e+02 9.090809822082519531e+00 2.390354156494140625e+01 4.404662642627954483e-03 -2.166479676961898804e-01 -6.367298960685729980e-02 1.199855357408523560e-01
5.880000000000000000e+02 1.247967910766601562e+01 1.495754051208496094e+01 3.342839479446411133e-01 2.797434926033020020e-01 1.842082291841506958e-01 2.406310737133026123e-01
5.890000000000000000e+02 1.312765979766845703e+01 9.784591674804687500e+00 2.370612323284149170e-02 3.191749155521392822e-01 1.028643101453781128e-01 2.614572942256927490e-01
5.900000000000000000e+02 1.189771747589111328e+01 1.019062900543212891e+01 8.871366828680038452e-02 1.996292471885681152e-01 8.650287240743637085e-02 3.675271272659301758e-01
5.910000000000000000e+02 1.367442417144775391e+01 1.370271396636962891e+01 4.288645088672637939e-01 5.536633133888244629e-01 2.947583496570587158e-01 3.592650294303894043e-01
5.920000000000000000e+02 1.443948650360107422e+01 1.094073772430419922e+01 1.655795425176620483e-02 6.841395497322082520e-01 2.102092504501342773e-01 1.380990296602249146e-01
5.930000000000000000e+02 1.463440799713134766e+01 8.174219131469726562e+00 -5.059874430298805237e-02 1.646201908588409424e-01 3.420643508434295654e-02 9.609914571046829224e-02
5.940000000000000000e+02 1.511883544921875000e+01 1.507966518402099609e+00 -4.494279026985168457e-01 -1.129254996776580811e-01 -1.687060296535491943e-01 1.009739339351654053e-01
5.950000000000000000e+02 1.994633674621582031e+00 4.164454269409179688e+01 -2.777295187115669250e-02 -9.483953714370727539e-01 -2.928504943847656250e-01 -7.898072712123394012e-03
5.960000000000000000e+02 4.298295497894287109e+00 3.781719207763671875e+01 2.134779654443264008e-02 -7.947253584861755371e-01 -2.320132702589035034e-01 4.191553965210914612e-02
5.970000000000000000e+02 2.083931684494018555e+00 3.591448211669921875e+01 1.478324271738529205e-02 -9.182574748992919922e-01 -2.710422873497009277e-01 -6.123930215835571289e-03
5.980000000000000000e+02 2.066070318222045898e+00 2.888051033020019531e+01 -2.551343059167265892e-03 -8.605622649192810059e-01 -2.589340806007385254e-01 1.570316962897777557e-02
5.990000000000000000e+02 1.925968408584594727e+00 2.323880004882812500e+01 1.414984115399420261e-03 -8.197021484375000000e-01 -2.454861551523208618e-01 1.405025739222764969e-02
6.000000000000000000e+02 1.850739002227783203e+00 1.756366348266601562e+01 1.189142838120460510e-02 -7.427878975868225098e-01 -2.192689478397369385e-01 4.321108758449554443e-02
6.010000000000000000e+02 1.639533638954162598e+00 9.109043121337890625e+00 2.392920898273587227e-03 -3.807018697261810303e-01 -1.134926900267601013e-01 1.172661334276199341e-01
6.020000000000000000e+02 5.460338115692138672e+00 1.862398266792297363e+00 -1.667917072772979736e-01 -2.286097407341003418e-02 -5.689580366015434265e-02 1.176055520772933960e-01
6.030000000000000000e+02 1.228758907318115234e+01 1.378277063369750977e+00 -5.085791945457458496e-01 -5.717939510941505432e-02 -1.697275787591934204e-01 1.455707848072052002e-01
6.040000000000000000e+02 1.697281265258789062e+01 -4.278630316257476807e-01 -3.491741120815277100e-01 -1.868132650852203369e-01 -1.607962101697921753e-01 1.656574457883834839e-01
6.050000000000000000e+02 1.956058502197265625e+01 -2.383427619934082031e+00 -2.889030575752258301e-01 2.740141451358795166e-01 -4.466675221920013428e-03 7.558538764715194702e-02
6.060000000000000000e+02 2.171109390258789062e+01 -4.907825469970703125e+00 -3.129599392414093018e-01 2.418577194213867188e+00 6.316851377487182617e-01 -5.989468842744827271e-02
6.070000000000000000e+02 2.488851737976074219e+01 -1.318305492401123047e+01 -2.692597389221191406e+00 1.414770960807800293e+00 -3.833479583263397217e-01 -7.353876829147338867e-01
6.080000000000000000e+02 3.059709358215332031e+01 -1.823472976684570312e+01 -3.774875640869140625e+00 2.615267224609851837e-02 -1.124616861343383789e+00 3.845235705375671387e-01
6.090000000000000000e+02 3.337824249267578125e+01 -1.612374496459960938e+01 -2.479380369186401367e+00 1.901213228702545166e-01 -6.867777109146118164e-01 -3.943545222282409668e-01
6.100000000000000000e+02 3.333898162841796875e+01 -1.857160758972167969e+01 -2.950431346893310547e+00 7.122144103050231934e-02 -8.637629747390747070e-01 1.197295486927032471e-01
6.110000000000000000e+02 3.865689468383789062e+01 -1.730923271179199219e+01 -2.090760946273803711e+00 5.679935961961746216e-02 -6.101884841918945312e-01 -3.953199982643127441e-01
6.120000000000000000e+02 4.403544235229492188e+01 -1.381198406219482422e+01 -1.600917100906372070e+00 -2.042339928448200226e-02 -4.864021241664886475e-01 -5.354970097541809082e-01
6.130000000000000000e+02 4.516548919677734375e+01 -4.237825393676757812e+00 -4.659684002399444580e-01 1.168710812926292419e-01 -1.047291979193687439e-01 5.313267558813095093e-02
6.140000000000000000e+02 4.599213027954101562e+01 7.151900768280029297e+00 3.331344723701477051e-01 1.135157123208045959e-01 1.339950561523437500e-01 -1.123755127191543579e-01
6.150000000000000000e+02 2.378688430786132812e+01 -8.579728126525878906e+00 8.204770088195800781e+00 3.100695371627807617e+00 3.391639471054077148e+00 1.106596350669860840e+00
6.160000000000000000e+02 2.395792388916015625e+01 -9.419588088989257812e+00 6.315526008605957031e+00 3.115073680877685547e+00 2.829180002212524414e+00 -6.468312740325927734e-01
6.170000000000000000e+02 2.438154411315917969e+01 -1.032653427124023438e+01 3.065425395965576172e+00 2.597078800201416016e+00 1.698751330375671387e+00 -1.456549406051635742e+00
6.180000000000000000e+02 1.729561614990234375e+01 -5.278182506561279297e+00 6.685205698013305664e-01 -7.908255457878112793e-01 -3.669148683547973633e-02 4.076176285743713379e-01
6.190000000000000000e+02 1.591111946105957031e+01 -4.261672019958496094e+00 -3.513727709650993347e-02 -5.802865624427795410e-01 -1.846271604299545288e-01 7.883852720260620117e-01
6.200000000000000000e+02 1.276219463348388672e+01 -2.738562583923339844e+00 -1.171262502670288086e+00 -1.778217963874340057e-02 -3.567134141921997070e-01 7.941782474517822266e-01
6.210000000000000000e+02 1.106314468383789062e+01 -2.254091501235961914e+00 -1.570426821708679199e+00 2.649541199207305908e-01 -3.916418254375457764e-01 5.050008893013000488e-01
6.220000000000000000e+02 9.385205268859863281e+00 -1.956519842147827148e+00 -1.726614594459533691e+00 3.998201191425323486e-01 -3.980383276939392090e-01 1.583719700574874878e-01
6.230000000000000000e+02 1.108453750610351562e+01 -1.047152614593505859e+01 1.132251620292663574e+00 4.251325130462646484e+00 1.615073084831237793e+00 3.488849163055419922e+00
6.240000000000000000e+02 1.457919025421142578e+01 1.227675342559814453e+01 1.689306348562240601e-01 1.006453871726989746e+00 3.526153564453125000e-01 2.948661744594573975e-01
6.250000000000000000e+02 1.489812564849853516e+01 1.354700851440429688e+01 3.481701910495758057e-01 1.106636881828308105e+00 4.364421069622039795e-01 5.201541781425476074e-01
6.260000000000000000e+02 1.549594593048095703e+01 1.594312667846679688e+01 5.264028310775756836e-01 6.945279836654663086e-01 3.662792444229125977e-01 4.440315067768096924e-01
6.270000000000000000e+02 1.538432407379150391e+01 1.468587493896484375e+01 5.683010816574096680e-01 9.234564900398254395e-01 4.475272595882415771e-01 6.022364497184753418e-01
6.280000000000000000e+02 1.390688610076904297e+01 1.606196212768554688e+01 3.066363036632537842e-01 4.719984531402587891e-01 2.335904240608215332e-01 2.415516972541809082e-01
6.290000000000000000e+02 6.692919921875000000e+01 -7.048091888427734375e+00 2.956802129745483398e+00 8.128497123718261719e+00 3.325589656829833984e+00 -5.120141983032226562e+00
6.300000000000000000e+02 6.819045257568359375e+01 -7.325626373291015625e+00 2.441721677780151367e+00 1.513921928405761719e+01 5.274282455444335938e+00 -4.096798419952392578e+00
6.310000000000000000e+02 6.855631256103515625e+01 -9.979548454284667969e+00 1.278012037277221680e+00 2.451552581787109375e+01 7.738061428070068359e+00 -2.190454244613647461e+00
6.320000000000000000e+02 6.938779449462890625e+01 -1.276009178161621094e+01 2.732018232345581055e+00 1.892091369628906250e+01 6.495879173278808594e+00 1.143617510795593262e+00
6.330000000000000000e+02 7.052364349365234375e+01 -1.419237232208251953e+01 1.592652797698974609e+00 1.310677909851074219e+01 4.409829616546630859e+00 -4.142673015594482422e-01
6.340000000000000000e+02 6.704637145996093750e+01 -1.805297660827636719e+01 6.903169751167297363e-01 8.955106735229492188e+00 2.893627166748046875e+00 2.352248907089233398e+00
6.350000000000000000e+02 6.621707153320312500e+01 -1.709158515930175781e+01 2.126616239547729492e+00 7.910538673400878906e+00 3.011146545410156250e+00 3.977614164352416992e+00
6.360000000000000000e+02 6.249369430541992188e+01 -2.360895347595214844e+01 -3.198932707309722900e-01 2.126662731170654297e+00 5.420308113098144531e-01 6.742488145828247070e-01
6.370000000000000000e+02 6.830334472656250000e+01 -2.328790664672851562e+01 -9.472190737724304199e-01 7.398935317993164062e+00 1.935514926910400391e+00 4.342122673988342285e-01
6.380000000000000000e+02 2.420800971984863281e+01 -3.168477630615234375e+01 -7.905700244009494781e-03 2.698029875755310059e-01 7.856918126344680786e-02 -1.952513158321380615e-01
6.390000000000000000e+02 2.097716140747070312e+01 -2.736825561523437500e+01 4.321434497833251953e-01 4.104084968566894531e-01 2.527655959129333496e-01 -3.998092114925384521e-01
6.400000000000000000e+02 1.973779106140136719e+01 -2.656433868408203125e+01 5.706585049629211426e-01 6.402563452720642090e-01 3.632744550704956055e-01 -5.756966471672058105e-01
6.410000000000000000e+02 2.653641319274902344e+01 -1.734462547302246094e+01 -5.657715797424316406e+00 -1.577502191066741943e-01 -1.744639754295349121e+00 1.207320094108581543e+00
6.420000000000000000e+02 3.885017395019531250e+01 -1.853034019470214844e+01 -2.201371669769287109e+00 1.144707947969436646e-02 -6.569773554801940918e-01 -2.206580936908721924e-01
6.430000000000000000e+02 4.333305740356445312e+01 -1.526213264465332031e+01 -1.735112786293029785e+00 -3.935745358467102051e-02 -5.323410630226135254e-01 -5.314875245094299316e-01
6.440000000000000000e+02 5.032428359985351562e+01 -1.222521877288818359e+01 -1.803424477577209473e+00 -1.659541875123977661e-01 -5.908135771751403809e-01 -7.291260957717895508e-01
6.450000000000000000e+02 4.863089370727539062e+01 -6.545599460601806641e+00 -1.062201142311096191e+00 1.113393530249595642e-01 -2.852585315704345703e-01 -1.408976167440414429e-01
6.460000000000000000e+02 4.749012756347656250e+01 -1.245301127433776855e+00 -1.267055422067642212e-01 1.373752802610397339e-01 3.200920764356851578e-03 1.805364191532135010e-01
6.470000000000000000e+02 4.419554901123046875e+01 -1.743880653381347656e+01 -1.992351174354553223e+00 -1.791872978210449219e-01 -6.514615416526794434e-01 -6.092544794082641602e-01
6.480000000000000000e+02 5.060001754760742188e+01 -1.497112083435058594e+01 -1.758895874023437500e+00 -3.679033517837524414e-01 -6.380397677421569824e-01 -8.674531579017639160e-01
6.490000000000000000e+02 5.424076843261718750e+01 -1.295567417144775391e+01 -2.056491374969482422e+00 -5.904864072799682617e-01 -7.940933108329772949e-01 -1.141225934028625488e+00
6.500000000000000000e+02 5.805334472656250000e+01 -9.098390579223632812e+00 -2.857647180557250977e+00 -6.097156405448913574e-01 -1.040208935737609863e+00 -1.315078020095825195e+00
6.510000000000000000e+02 6.346741867065429688e+01 -6.929660320281982422e+00 -5.129412174224853516e+00 -1.237844586372375488e+00 -1.910177111625671387e+00 -2.238146543502807617e+00
6.520000000000000000e+02 6.284722518920898438e+01 -4.975284099578857422e+00 -1.334174990653991699e+00 -3.528048098087310791e-01 -5.060939788818359375e-01 -1.574688315391540527e+00
6.530000000000000000e+02 4.783823394775390625e+01 1.909156036376953125e+01 5.463807582855224609e-01 3.127747178077697754e-01 2.577466368675231934e-01 3.835301101207733154e-01
6.540000000000000000e+02 4.486763000488281250e+01 1.735437774658203125e+01 1.302835822105407715e+00 1.236813426017761230e+00 7.618947625160217285e-01 1.215103149414062500e+00
6.550000000000000000e+02 4.085182952880859375e+01 1.593587493896484375e+01 7.418838143348693848e-01 1.823984503746032715e+00 7.697604894638061523e-01 5.497525930404663086e-01
6.560000000000000000e+02 4.254882812500000000e+01 1.607788848876953125e+01 9.638227820396423340e-01 2.444951295852661133e+00 1.022632241249084473e+00 8.925763368606567383e-01
6.570000000000000000e+02 4.281189727783203125e+01 1.463052749633789062e+01 6.491478085517883301e-01 3.016191244125366211e+00 1.099601745605468750e+00 9.088137745857238770e-01
6.580000000000000000e+02 5.763608932495117188e+01 1.496427249908447266e+01 7.875221967697143555e-01 3.361677646636962891e+00 1.244759917259216309e+00 -6.181891560554504395e-01
6.590000000000000000e+02 5.685195922851562500e+01 2.070298957824707031e+01 3.958654403686523438e-01 3.091833114624023438e+00 1.046309590339660645e+00 -7.071606516838073730e-01
6.600000000000000000e+02 5.544522094726562500e+01 1.330199241638183594e+01 4.159225523471832275e-02 4.061946868896484375e+00 1.231061816215515137e+00 -2.806095480918884277e-01
6.610000000000000000e+02 4.488032150268554688e+01 2.020321083068847656e+01 5.602353811264038086e-01 1.407348632812500000e+00 5.902752280235290527e-01 8.183990120887756348e-01
6.620000000000000000e+02 3.107880020141601562e+01 -1.364157199859619141e+01 -1.691541194915771484e+00 2.334112524986267090e-01 -4.374389946460723877e-01 -8.020099401473999023e-01
6.630000000000000000e+02 3.705516433715820312e+01 -1.389859199523925781e+01 -1.570546746253967285e+00 1.019342392683029175e-01 -4.405837357044219971e-01 -5.385111570358276367e-01
6.640000000000000000e+02 3.710702896118164062e+01 -6.443768978118896484e+00 -5.556065589189529419e-02 1.094215586781501770e-01 1.615827158093452454e-02 9.583270549774169922e-02
6.650000000000000000e+02 4.046346664428710938e+01 4.819613456726074219e+00 2.100773900747299194e-01 7.424691319465637207e-01 2.857639491558074951e-01 4.048956334590911865e-01
6.660000000000000000e+02 3.821237945556640625e+01 -1.382341575622558594e+01 -1.552498459815979004e+00 9.101613610982894897e-02 -4.384447038173675537e-01 -5.188462138175964355e-01
6.670000000000000000e+02 4.511035919189453125e+01 -1.333240604400634766e+01 -1.596852064132690430e+00 -3.185698017477989197e-02 -4.886127412319183350e-01 -5.614165663719177246e-01
6.680000000000000000e+02 1.768803405761718750e+01 -2.974084854125976562e+01 -5.760138854384422302e-02 1.042969107627868652e+00 2.956103086471557617e-01 -3.887381255626678467e-01
6.690000000000000000e+02 6.006596088409423828e+00 -3.407999038696289062e+01 -2.191373109817504883e-01 7.280519008636474609e-01 1.526743769645690918e-01 3.483668863773345947e-01
6.700000000000000000e+02 6.369603729248046875e+01 -3.028179168701171875e+01 -4.170024991035461426e-01 3.738848209381103516e+00 9.965537190437316895e-01 5.192269682884216309e-01
6.710000000000000000e+02 7.360318756103515625e+01 -3.125438880920410156e+01 -2.778588533401489258e-01 8.414258003234863281e+00 2.440919876098632812e+00 -1.390863060951232910e-01
6.720000000000000000e+02 6.697498321533203125e+01 -1.590713405609130859e+01 2.265858650207519531e+00 1.097924137115478516e+01 3.973530054092407227e+00 4.302742004394531250e+00
6.730000000000000000e+02 5.813119125366210938e+01 -5.799356460571289062e+00 -1.878953337669372559e+00 -9.509292244911193848e-02 -5.922138690948486328e-01 -4.987370669841766357e-01
6.740000000000000000e+02 5.872367095947265625e+01 -3.365049123764038086e+00 -8.986263871192932129e-01 1.810988932847976685e-01 -2.152582406997680664e-01 -5.248482823371887207e-01
6.750000000000000000e+02 5.475333786010742188e+01 3.478186130523681641e+00 4.010490477085113525e-01 7.897068858146667480e-01 3.572267591953277588e-01 4.227730259299278259e-02
6.760000000000000000e+02 5.453981399536132812e+01 5.367033481597900391e+00 5.652046799659729004e-01 1.004043221473693848e+00 4.707743525505065918e-01 1.484421938657760620e-01
6.770000000000000000e+02 6.226797103881835938e+01 6.397034972906112671e-02 -2.862354042008519173e-03 1.953361511230468750e+00 5.851497650146484375e-01 -1.686583757400512695e+00
6.780000000000000000e+02 4.480836105346679688e+01 -6.624372482299804688e+00 -7.609010934829711914e-01 9.790387749671936035e-02 -1.988991647958755493e-01 -1.083735972642898560e-01
6.790000000000000000e+02 3.753174591064453125e+01 -7.864722728729248047e+00 -2.637810409069061279e-01 5.337475612759590149e-02 -6.312188506126403809e-02 -1.013203561305999756e-01
6.800000000000000000e+02 2.779355621337890625e+01 -4.399054646492004395e-01 -1.691378280520439148e-02 1.818459391593933105e+00 5.404636859893798828e-01 1.262240767478942871e+00
6.810000000000000000e+02 3.335504913330078125e+01 -6.218027114868164062e+00 5.545482635498046875e-01 1.964456737041473389e-01 2.252981811761856079e-01 4.188573956489562988e-01
6.820000000000000000e+02 5.892890548706054688e+01 -9.955215454101562500e+00 -3.098806142807006836e+00 -1.070769786834716797e+00 -1.250872731208801270e+00 -1.796115279197692871e+00
6.830000000000000000e+02 6.854697418212890625e+01 -4.864543914794921875e+00 -2.289996385574340820e+00 1.077606391906738281e+01 2.545820236206054688e+00 -2.869748115539550781e+00
6.840000000000000000e+02 2.095189094543457031e+01 -3.834959745407104492e+00 -3.220979273319244385e-01 1.211264610290527344e+00 2.667500078678131104e-01 -4.878433421254158020e-02
6.850000000000000000e+02 2.977827644348144531e+01 6.157247066497802734e+00 4.214712679386138916e-01 1.372156262397766113e+00 5.380882620811462402e-01 7.916614413261413574e-01
6.860000000000000000e+02 7.295332336425781250e+01 4.958814144134521484e+00 -4.409026205539703369e-01 7.288522243499755859e+00 2.054285764694213867e+00 -5.963882207870483398e-01
6.870000000000000000e+02 5.467830276489257812e+01 8.815058708190917969e+00 5.197582244873046875e-01 1.603462100028991699e+00 6.369661092758178711e-01 6.032193899154663086e-01
6.880000000000000000e+02 7.204406738281250000e+01 1.218752288818359375e+01 6.469169259071350098e-02 6.234185218811035156e+00 1.889663100242614746e+00 -7.496744394302368164e-01
6.890000000000000000e+02 6.064026641845703125e+01 1.133726215362548828e+01 5.659981966018676758e-01 3.411120891571044922e+00 1.193135738372802734e+00 -8.395864367485046387e-01
6.900000000000000000e+02 7.267227935791015625e+01 1.904300117492675781e+01 1.263560950756072998e-01 6.032772541046142578e+00 1.847738504409790039e+00 -5.118823647499084473e-01
6.910000000000000000e+02 5.932571411132812500e+01 1.732726860046386719e+01 5.906946659088134766e-01 3.487305879592895508e+00 1.223400235176086426e+00 -5.465537309646606445e-01
6.920000000000000000e+02 4.920664978027343750e+01 1.910331535339355469e+01 2.977338135242462158e-01 1.870756298303604126e-01 1.454428285360336304e-01 8.056881278753280640e-02
6.930000000000000000e+02 5.188783264160156250e+01 1.871119117736816406e+01 5.472856163978576660e-01 6.965522766113281250e-01 3.731513917446136475e-01 -5.449293851852416992e-01
6.940000000000000000e+02 4.814055633544921875e+01 2.272423171997070312e+01 8.109520077705383301e-01 1.015523076057434082e+00 5.479425191879272461e-01 2.914729714393615723e-01
6.950000000000000000e+02 5.163141632080078125e+01 3.028796958923339844e+01 6.928673982620239258e-01 2.154983282089233398e+00 8.543552160263061523e-01 -1.354474574327468872e-01
6.960000000000000000e+02 4.404782485961914062e+01 3.250580215454101562e+01 6.131350398063659668e-01 1.598987817764282227e+00 6.636368632316589355e-01 1.548844128847122192e-01
6.970000000000000000e+02 4.152544021606445312e+01 3.112118148803710938e+01 5.404360890388488770e-01 1.450412034988403320e+00 5.972544550895690918e-01 2.239263504743576050e-01
6.980000000000000000e+02 4.679868698120117188e+01 2.328638458251953125e+01 7.327871322631835938e-01 1.190051794052124023e+00 5.768516659736633301e-01 4.237709641456604004e-01
6.990000000000000000e+02 4.319485855102539062e+01 2.241872596740722656e+01 4.528298974037170410e-01 1.544198870658874512e+00 5.991086363792419434e-01 5.799104571342468262e-01
7.000000000000000000e+02 5.434699249267578125e+01 2.310617256164550781e+01 5.970711708068847656e-01 2.202039957046508789e+00 8.397333025932312012e-01 -6.402054429054260254e-01
7.010000000000000000e+02 2.665282058715820312e+01 1.776155471801757812e+01 -1.087089031934738159e-01 5.137100219726562500e-01 1.215003281831741333e-01 2.025563567876815796e-01
7.020000000000000000e+02 1.840770006179809570e+00 1.614793395996093750e+01 1.244255062192678452e-02 -7.059730291366577148e-01 -2.080591470003128052e-01 5.912301316857337952e-02
7.030000000000000000e+02 7.232973480224609375e+01 2.647895431518554688e+01 9.647551923990249634e-02 5.683805942535400391e+00 1.734084367752075195e+00 -3.436142206192016602e-01
7.040000000000000000e+02 6.335412979125976562e+01 2.404575347900390625e+01 3.289445340633392334e-01 4.154759883880615234e+00 1.345111370086669922e+00 -5.515548586845397949e-01
7.050000000000000000e+02 2.908684158325195312e+01 2.225397300720214844e+01 1.845836788415908813e-01 7.066389322280883789e-01 2.673667967319488525e-01 2.311607301235198975e-01
7.060000000000000000e+02 1.911832237243652344e+01 2.248929786682128906e+01 1.121865361928939819e-01 1.501060128211975098e-01 7.868776470422744751e-02 4.397051930427551270e-01
7.070000000000000000e+02 8.750690460205078125e+00 2.541193389892578125e+01 4.441398661583662033e-03 -2.746183276176452637e-01 -8.105307817459106445e-02 1.138786971569061279e-01
7.080000000000000000e+02 7.156816864013671875e+01 3.270765686035156250e+01 9.916447103023529053e-02 5.415893077850341797e+00 1.654517292976379395e+00 -2.294602543115615845e-01
7.090000000000000000e+02 5.577605438232421875e+01 3.163294219970703125e+01 5.833764076232910156e-01 2.803009510040283203e+00 1.015915751457214355e+00 -2.603334486484527588e-01
7.100000000000000000e+02 2.636233329772949219e+01 3.311187362670898438e+01 2.978454530239105225e-01 5.363022685050964355e-01 2.502443194389343262e-01 1.497435122728347778e-01
7.110000000000000000e+02 2.181325435638427734e+00 3.173140525817871094e+01 -7.901240314822643995e-05 -8.733244538307189941e-01 -2.620210349559783936e-01 2.194784581661224365e-02
7.120000000000000000e+02 6.953495502471923828e+00 -1.926360726356506348e+00 -1.493399500846862793e+00 2.076029479503631592e-01 -3.857389688491821289e-01 -4.287835657596588135e-01
7.130000000000000000e+02 6.137250900268554688e+00 -1.936266899108886719e+00 -1.305647373199462891e+00 1.888727545738220215e-01 -3.350323736667633057e-01 -5.538611412048339844e-01
7.140000000000000000e+02 5.321112632751464844e+00 -1.952865958213806152e+00 -1.120715498924255371e+00 5.946125835180282593e-02 -3.183762729167938232e-01 -6.855891346931457520e-01
7.150000000000000000e+02 4.505637168884277344e+00 -1.974322676658630371e+00 -8.907033205032348633e-01 7.586900610476732254e-03 -2.649349272251129150e-01 -6.998392343521118164e-01
7.160000000000000000e+02 2.869669675827026367e+00 -2.037725448608398438e+00 -4.710620343685150146e-01 -1.981268674135208130e-01 -2.007566690444946289e-01 -6.095626354217529297e-01
7.170000000000000000e+02 2.920593023300170898e+00 -3.088986396789550781e+00 -4.382520318031311035e-01 -3.526330888271331787e-01 -2.372655272483825684e-01 -9.157810211181640625e-01
7.180000000000000000e+02 2.048176288604736328e+00 -2.087623119354248047e+00 -2.856560647487640381e-01 -2.821580767631530762e-01 -1.703442484140396118e-01 -4.898268878459930420e-01
7.190000000000000000e+02 1.228522181510925293e+00 -2.142270565032958984e+00 -1.022276133298873901e-01 -3.266298770904541016e-01 -1.286572515964508057e-01 -2.812190651893615723e-01
7.200000000000000000e+02 4.093718826770782471e-01 -2.187644243240356445e+00 -3.377116471529006958e-02 -2.265470027923583984e-01 -7.809545099735260010e-02 -9.588771313428878784e-02
7.210000000000000000e+02 2.008097648620605469e+00 -4.168927001953125000e+01 -3.051671944558620453e-02 6.566997170448303223e-01 1.878549009561538696e-01 8.726075291633605957e-03
7.220000000000000000e+02 5.117391586303710938e+00 -3.880987930297851562e+01 -1.371952742338180542e-01 7.117795944213867188e-01 1.723752915859222412e-01 1.256981343030929565e-01
7.230000000000000000e+02 1.005700945854187012e+00 -3.879531097412109375e+01 3.915751352906227112e-03 6.003204584121704102e-01 1.812708526849746704e-01 3.641526773571968079e-02
7.240000000000000000e+02 8.570013046264648438e-01 -3.465606307983398438e+01 -1.675301231443881989e-02 3.510129749774932861e-01 1.002779901027679443e-01 7.811085879802703857e-02
7.250000000000000000e+02 8.233140707015991211e-01 -3.323666000366210938e+01 7.594350026920437813e-04 2.081686854362487793e-01 6.267843395471572876e-02 9.343489259481430054e-02
7.260000000000000000e+02 7.106630802154541016e-01 -2.898376274108886719e+01 -4.159784317016601562e-02 -4.985223114490509033e-01 -1.620360463857650757e-01 1.644705235958099365e-01
7.270000000000000000e+02 6.881841421127319336e-01 -2.756939315795898438e+01 1.429396588355302811e-02 -8.642769455909729004e-01 -2.549948990345001221e-01 1.999101787805557251e-01
7.280000000000000000e+02 6.736299395561218262e-01 -2.615515327453613281e+01 -5.894881114363670349e-02 -1.311962604522705078e+00 -4.112734496593475342e-01 2.359930872917175293e-01
7.290000000000000000e+02 6.562666893005371094e-01 -2.190737915039062500e+01 3.719008341431617737e-02 -3.273958206176757812e+00 -9.710304737091064453e-01 3.909870684146881104e-01
7.300000000000000000e+02 6.464406847953796387e-01 -2.049154663085937500e+01 -5.942903459072113037e-02 -4.116880416870117188e+00 -1.252892851829528809e+00 3.983734548091888428e-01
7.310000000000000000e+02 1.941322326660156250e+00 -2.030095100402832031e+01 3.131072968244552612e-03 -2.685902118682861328e+00 -8.048313260078430176e-01 1.078398942947387695e+00
7.320000000000000000e+02 5.821933746337890625e-01 -1.626706695556640625e+01 5.421693995594978333e-02 -6.618588924407958984e+00 -1.969311594963073730e+00 2.930053770542144775e-01
7.330000000000000000e+02 5.722618699073791504e-01 -1.486013698577880859e+01 9.079693257808685303e-02 -7.080431461334228516e+00 -2.096890449523925781e+00 1.152265593409538269e-01
7.340000000000000000e+02 5.838900804519653320e-01 -1.345323944091796875e+01 7.016940414905548096e-02 -7.058151245117187500e+00 -2.096394538879394531e+00 -8.308387547731399536e-02
7.350000000000000000e+02 1.740709424018859863e+00 -1.335785484313964844e+01 4.486484825611114502e-01 -4.578403949737548828e+00 -1.238926529884338379e+00 -3.371016979217529297e-01
7.360000000000000000e+02 6.112550497055053711e-01 -9.223453521728515625e+00 8.436530083417892456e-02 -4.663133621215820312e+00 -1.373630523681640625e+00 -4.275569617748260498e-01
7.370000000000000000e+02 5.888872146606445312e-01 -7.803831100463867188e+00 -6.202551722526550293e-02 -3.545005559921264648e+00 -1.082109332084655762e+00 -4.576664566993713379e-01
7.380000000000000000e+02 3.731356620788574219e+00 -2.993378162384033203e+00 -6.184092164039611816e-01 -1.320476680994033813e-01 -2.251370698213577271e-01 -9.163940548896789551e-01
7.390000000000000000e+02 3.801214933395385742e+00 -3.977025508880615234e+00 -5.559090375900268555e-01 -2.346282452344894409e-01 -2.371611893177032471e-01 -1.182783484458923340e+00
7.400000000000000000e+02 6.734678649902343750e+01 -3.797018051147460938e+01 1.462565064430236816e-01 5.331547737121582031e+00 1.643341302871704102e+00 1.894231289625167847e-01
7.410000000000000000e+02 4.851197433471679688e+01 -3.680683517456054688e+01 2.080470770597457886e-01 -2.908582985401153564e-01 -2.484336681663990021e-02 -2.853083610534667969e-01
7.420000000000000000e+02 3.084829521179199219e+01 -3.820748901367187500e+01 -6.178079918026924133e-02 6.496635079383850098e-02 9.556639706715941429e-04 -2.309419400990009308e-02
7.430000000000000000e+02 1.346606540679931641e+01 -3.780551147460937500e+01 -3.458736836910247803e-01 9.743138551712036133e-01 1.885320544242858887e-01 3.780505806207656860e-02
7.440000000000000000e+02 7.840827941894531250e+01 4.018710327148437500e+01 -1.564826071262359619e-02 6.130084514617919922e+00 1.834330916404724121e+00 -5.996801331639289856e-02
7.450000000000000000e+02 7.798999023437500000e+01 4.172714233398437500e+01 7.802076637744903564e-02 6.094929218292236328e+00 1.851884961128234863e+00 -2.181051485240459442e-02
7.460000000000000000e+02 7.862274932861328125e+01 3.874008560180664062e+01 -1.211774069815874100e-02 6.177817821502685547e+00 1.849710106849670410e+00 -4.754893481731414795e-02
7.470000000000000000e+02 7.664447021484375000e+01 3.783325958251953125e+01 -9.105875156819820404e-03 6.006480216979980469e+00 1.799212336540222168e+00 -3.683238849043846130e-02
7.480000000000000000e+02 7.924208068847656250e+01 3.466103744506835938e+01 -1.432291697710752487e-03 6.336672306060791016e+00 1.900572061538696289e+00 -2.033866755664348602e-02
7.490000000000000000e+02 7.617978668212890625e+01 3.386576080322265625e+01 1.257561706006526947e-02 5.994457721710205078e+00 1.802109956741333008e+00 -9.185867756605148315e-02
7.500000000000000000e+02 7.930047607421875000e+01 3.329934692382812500e+01 1.071029575541615486e-03 6.377818584442138672e+00 1.913666844367980957e+00 -1.930081844329833984e-02
7.510000000000000000e+02 7.942414093017578125e+01 3.059656524658203125e+01 6.146453320980072021e-03 6.469931602478027344e+00 1.942823410034179688e+00 -2.029975689947605133e-02
7.520000000000000000e+02 7.734038543701171875e+01 2.809081649780273438e+01 2.179701067507266998e-02 6.340789794921875000e+00 1.908775925636291504e+00 -1.192410066723823547e-01
7.530000000000000000e+02 7.940334320068359375e+01 2.652688407897949219e+01 -8.273939602077007294e-03 6.667405605316162109e+00 1.997739434242248535e+00 -2.724624052643775940e-02
7.540000000000000000e+02 7.655523681640625000e+01 2.569553375244140625e+01 2.888077497482299805e-02 6.338435649871826172e+00 1.910194993019104004e+00 -1.901529729366302490e-01
7.550000000000000000e+02 7.935643768310546875e+01 2.516704559326171875e+01 1.406767871230840683e-02 6.746751785278320312e+00 2.028245925903320312e+00 -3.608591854572296143e-02
7.560000000000000000e+02 7.933348846435546875e+01 2.099244308471679688e+01 -7.435158826410770416e-03 7.043882369995117188e+00 2.110934257507324219e+00 -4.894867911934852600e-02
7.570000000000000000e+02 7.934156036376953125e+01 1.958802795410156250e+01 1.311241928488016129e-02 7.167908668518066406e+00 2.154306411743164062e+00 -5.725140497088432312e-02
7.580000000000000000e+02 7.934807586669921875e+01 1.818652534484863281e+01 -1.034785248339176178e-02 7.303163051605224609e+00 2.187844514846801758e+00 -5.810893326997756958e-02
7.590000000000000000e+02 7.935864257812500000e+01 1.400546836853027344e+01 1.563235931098461151e-02 7.777211189270019531e+00 2.337852954864501953e+00 -7.262977212667465210e-02
7.600000000000000000e+02 7.936065673828125000e+01 1.261225795745849609e+01 -1.554427016526460648e-02 7.951119422912597656e+00 2.380672454833984375e+00 -7.011090964078903198e-02
7.610000000000000000e+02 7.936250305175781250e+01 1.121933174133300781e+01 1.584943197667598724e-02 8.129849433898925781e+00 2.443709611892700195e+00 -7.342500984668731689e-02
7.620000000000000000e+02 7.935982513427734375e+01 7.044185638427734375e+00 -2.205644734203815460e-02 8.608744621276855469e+00 2.576006412506103516e+00 -4.517000913619995117e-02
7.630000000000000000e+02 7.935701751708984375e+01 5.652289390563964844e+00 -2.722191624343395233e-03 8.708981513977050781e+00 2.611877679824829102e+00 -1.962594315409660339e-02
7.640000000000000000e+02 7.935397338867187500e+01 4.259664535522460938e+00 -2.050669677555561066e-02 8.753761291503906250e+00 2.619976282119750977e+00 6.631062366068363190e-03
7.650000000000000000e+02 7.935745239257812500e+01 8.052125573158264160e-02 -5.451088771224021912e-02 8.293193817138671875e+00 2.471605062484741211e+00 1.810427457094192505e-01
7.660000000000000000e+02 7.936608123779296875e+01 -1.308528542518615723e+00 9.546750225126743317e-03 7.887291908264160156e+00 2.369051694869995117e+00 2.217954844236373901e-01
7.670000000000000000e+02 7.818668365478515625e+01 -3.905698776245117188e+00 -1.071066707372665405e-01 7.262632369995117188e+00 2.146657705307006836e+00 8.423100709915161133e-01
7.680000000000000000e+02 7.939450073242187500e+01 -4.081809520721435547e+00 4.499419033527374268e-02 6.669776439666748047e+00 2.014431238174438477e+00 3.122676312923431396e-01
7.690000000000000000e+02 7.941073608398437500e+01 -8.248583793640136719e+00 -3.754985332489013672e-02 4.566215991973876953e+00 1.358599901199340820e+00 2.574914991855621338e-01
7.700000000000000000e+02 7.816749572753906250e+01 -1.075441169738769531e+01 2.981694936752319336e-01 5.553883075714111328e+00 1.755615830421447754e+00 9.021231532096862793e-02
7.710000000000000000e+02 7.938901519775390625e+01 -1.102082061767578125e+01 -1.227807067334651947e-02 4.005474090576171875e+00 1.197958827018737793e+00 2.266559191048145294e-02
7.720000000000000000e+02 7.933741760253906250e+01 -1.518578529357910156e+01 5.278915911912918091e-02 5.208408832550048828e+00 1.578359365463256836e+00 -3.380691409111022949e-01
7.730000000000000000e+02 7.796560668945312500e+01 -1.772537803649902344e+01 -5.786036141216754913e-03 7.446539878845214844e+00 2.232226133346557617e+00 -1.082882404327392578e+00
7.740000000000000000e+02 7.931500244140625000e+01 -1.798450088500976562e+01 -1.683717779815196991e-02 6.792179584503173828e+00 2.032602548599243164e+00 -4.105092287063598633e-01
7.750000000000000000e+02 7.933570098876953125e+01 -2.362494087219238281e+01 -6.155065074563026428e-02 9.484666824340820312e+00 2.826934814453125000e+00 -2.521845996379852295e-01
7.760000000000000000e+02 7.801428222656250000e+01 -2.491456794738769531e+01 -1.225102841854095459e-01 9.537458419799804688e+00 2.824484348297119141e+00 -5.139691829681396484e-01
7.770000000000000000e+02 7.933499145507812500e+01 -2.502630233764648438e+01 1.119560375809669495e-02 9.908155441284179688e+00 2.975805282592773438e+00 -2.053103148937225342e-01
7.780000000000000000e+02 7.931591033935546875e+01 -2.920866584777832031e+01 -3.339295834302902222e-02 1.065368175506591797e+01 3.186086654663085938e+00 -8.867723494768142700e-02
7.790000000000000000e+02 7.782254791259765625e+01 -3.184669876098632812e+01 -2.382222935557365417e-02 1.014252948760986328e+01 3.035612344741821289e+00 -1.039742454886436462e-01
7.800000000000000000e+02 7.927290344238281250e+01 -3.199006462097167969e+01 -2.332425490021705627e-02 1.083886241912841797e+01 3.244661331176757812e+00 -4.456118494272232056e-02
7.810000000000000000e+02 7.923004913330078125e+01 -3.613016891479492188e+01 8.882933296263217926e-03 1.081403350830078125e+01 3.246875047683715820e+00 2.117325738072395325e-02
7.820000000000000000e+02 7.923683166503906250e+01 -3.749267959594726562e+01 -4.635881632566452026e-02 1.071358871459960938e+01 3.200169086456298828e+00 6.460878998041152954e-02
7.830000000000000000e+02 7.909626770019531250e+01 -3.882201766967773438e+01 1.529247500002384186e-02 1.056695842742919922e+01 3.174675464630126953e+00 8.024600893259048462e-02
7.840000000000000000e+02 7.873034667968750000e+01 -4.015594100952148438e+01 -9.029563516378402710e-02 1.038436985015869141e+01 3.088222265243530273e+00 1.557103544473648071e-01
7.850000000000000000e+02 5.992575645446777344e+00 3.831572341918945312e+01 2.393406070768833160e-02 -6.253294944763183594e-01 -1.804186254739761353e-01 3.209371864795684814e-02
7.860000000000000000e+02 4.723115539550781250e+01 3.807089996337890625e+01 6.429778337478637695e-01 1.943814396858215332e+00 7.760376334190368652e-01 1.514222100377082825e-02
7.870000000000000000e+02 6.740865325927734375e+01 4.054738616943359375e+01 2.153987884521484375e-01 4.707380771636962891e+00 1.476833820343017578e+00 -5.828753113746643066e-02
7.880000000000000000e+02 3.791610300540924072e-01 2.196459054946899414e+00 -3.109624143689870834e-03 -1.001786813139915466e-02 -3.938247915357351303e-03 6.340915337204933167e-03
7.890000000000000000e+02 2.748302459716796875e+00 2.846747159957885742e+00 -5.580085888504981995e-02 -5.342227220535278320e-02 -3.276693820953369141e-02 8.669307827949523926e-02
7.900000000000000000e+02 1.463726401329040527e+00 6.374182701110839844e+00 -6.895334459841251373e-03 -2.179881930351257324e-01 -6.746505945920944214e-02 9.885596483945846558e-02
7.910000000000000000e+02 5.399479269981384277e-01 9.226297378540039062e+00 -1.324938260950148106e-03 -4.358308613300323486e-01 -1.311467438936233521e-01 4.065954312682151794e-02
7.920000000000000000e+02 5.828331112861633301e-01 1.203873825073242188e+01 8.762718061916530132e-04 -6.336525678634643555e-01 -1.898328810930252075e-01 3.636524826288223267e-02
7.930000000000000000e+02 1.758290886878967285e+00 1.190023136138916016e+01 1.107736676931381226e-02 -5.359019041061401367e-01 -1.574473530054092407e-01 1.064345464110374451e-01
7.940000000000000000e+02 6.132889389991760254e-01 1.627838325500488281e+01 3.339000744745135307e-03 -8.347855210304260254e-01 -2.494339644908905029e-01 1.921428181231021881e-02
7.950000000000000000e+02 6.179264187812805176e-01 1.769267082214355469e+01 1.751755131408572197e-03 -8.733065724372863770e-01 -2.614664435386657715e-01 1.364484988152980804e-02
7.960000000000000000e+02 6.351282596588134766e-01 2.194051361083984375e+01 6.758660310879349709e-04 -9.306576251983642578e-01 -2.789945304393768311e-01 4.358214326202869415e-03
7.970000000000000000e+02 6.428766846656799316e-01 2.335474586486816406e+01 2.208966470789164305e-04 -9.403660893440246582e-01 -2.820435464382171631e-01 3.479485632851719856e-03
7.980000000000000000e+02 6.521296501159667969e-01 2.476861572265625000e+01 2.274744038004428148e-04 -9.481695294380187988e-01 -2.843826115131378174e-01 2.927605062723159790e-03
7.990000000000000000e+02 6.868077516555786133e-01 2.900589942932128906e+01 -1.542017795145511627e-03 -9.726473093032836914e-01 -2.922568023204803467e-01 4.783975891768932343e-03
8.000000000000000000e+02 7.039177417755126953e-01 3.042139244079589844e+01 -4.056552425026893616e-04 -9.849255084991455078e-01 -2.955993413925170898e-01 6.615252234041690826e-03
8.010000000000000000e+02 2.115434169769287109e+00 3.029751205444335938e+01 -3.063572570681571960e-03 -8.660906553268432617e-01 -2.607462704181671143e-01 1.823229342699050903e-02
8.020000000000000000e+02 7.221466302871704102e-01 3.184058189392089844e+01 5.679999012500047684e-04 -9.984920620918273926e-01 -2.993772327899932861e-01 6.426141597330570221e-03
8.030000000000000000e+02 6.936371922492980957e-01 3.604259490966796875e+01 -3.263898659497499466e-03 -1.016664147377014160e+00 -3.059784173965454102e-01 5.969362682662904263e-04
8.040000000000000000e+02 2.311989068984985352e+00 3.819448089599609375e+01 1.741875335574150085e-02 -9.093139767646789551e-01 -2.675685584545135498e-01 -1.538588199764490128e-02
8.050000000000000000e+02 8.633716106414794922e-01 3.875293731689453125e+01 -6.972685456275939941e-03 -9.860545992851257324e-01 -2.979081869125366211e-01 -1.024852693080902100e-02
8.060000000000000000e+02 1.241905927658081055e+00 4.009970855712890625e+01 1.556396577507257462e-02 -9.602773189544677734e-01 -2.834140062332153320e-01 -2.218105830252170563e-02
8.070000000000000000e+02 9.902558326721191406e+00 1.868784666061401367e+00 -4.086373448371887207e-01 -5.999860167503356934e-02 -1.405907869338989258e-01 1.687398999929428101e-01
8.080000000000000000e+02 9.160029411315917969e+00 1.901916503906250000e+00 -3.716607689857482910e-01 -4.413935169577598572e-02 -1.247400343418121338e-01 1.762156933546066284e-01
8.090000000000000000e+02 8.410412788391113281e+00 1.905107617378234863e+00 -3.438028991222381592e-01 -3.341262042522430420e-02 -1.131646558642387390e-01 1.732067316770553589e-01
8.100000000000000000e+02 7.661935329437255859e+00 1.895027399063110352e+00 -2.962740659713745117e-01 -1.600738242268562317e-02 -9.368443489074707031e-02 1.563530266284942627e-01
8.110000000000000000e+02 6.186831474304199219e+00 1.871375918388366699e+00 -2.072254568338394165e-01 -1.540593989193439484e-02 -6.678941845893859863e-02 1.298510283231735229e-01
8.120000000000000000e+02 4.739738941192626953e+00 1.858258366584777832e+00 -1.319724321365356445e-01 -1.860703155398368835e-02 -4.517383873462677002e-02 1.014247685670852661e-01
8.130000000000000000e+02 4.023782730102539062e+00 1.865419983863830566e+00 -9.904310852289199829e-02 -2.589382603764533997e-02 -3.748108074069023132e-02 8.708470314741134644e-02
8.140000000000000000e+02 3.306677103042602539e+00 1.897597670555114746e+00 -7.316686958074569702e-02 -2.490150183439254761e-02 -2.942050993442535400e-02 7.101431488990783691e-02
8.150000000000000000e+02 1.863426089286804199e+00 2.073429822921752930e+00 -2.643119543790817261e-02 -3.175736963748931885e-02 -1.745656877756118774e-02 3.453285247087478638e-02
8.160000000000000000e+02 1.129487395286560059e+00 2.157685279846191406e+00 -1.195570360869169235e-02 -2.586353942751884460e-02 -1.134577300399541855e-02 1.898387446999549866e-02
8.170000000000000000e+02 1.146979427337646484e+01 1.555799961090087891e+00 -4.800794720649719238e-01 -6.332933157682418823e-02 -1.630226373672485352e-01 1.465877741575241089e-01
8.180000000000000000e+02 1.310677528381347656e+01 1.185376524925231934e+00 -5.099721550941467285e-01 -7.427693158388137817e-02 -1.752747297286987305e-01 1.383243352174758911e-01
8.190000000000000000e+02 1.597321319580078125e+01 1.180959224700927734e+00 -4.221691191196441650e-01 -1.441714316606521606e-01 -1.699021607637405396e-01 8.264366537332534790e-02
8.200000000000000000e+02 1.549337959289550781e+01 3.514638245105743408e-01 -4.435133635997772217e-01 -1.531756073236465454e-01 -1.790066957473754883e-01 1.509327739477157593e-01
8.210000000000000000e+02 1.624271583557128906e+01 -4.654726013541221619e-03 -4.095214307308197021e-01 -1.809885352849960327e-01 -1.771529912948608398e-01 1.486577540636062622e-01
8.220000000000000000e+02 1.836195182800292969e+01 -1.379927992820739746e+00 -2.884089648723602295e-01 -8.473123610019683838e-02 -1.119420602917671204e-01 1.635822802782058716e-01
8.230000000000000000e+02 1.901030540466308594e+01 -1.884829521179199219e+00 -2.840539515018463135e-01 7.978676259517669678e-02 -6.128015369176864624e-02 1.390811204910278320e-01
8.240000000000000000e+02 2.050058937072753906e+01 -3.330887556076049805e+00 -3.478032946586608887e-01 8.182426095008850098e-01 1.411317884922027588e-01 1.590113341808319092e-02
8.250000000000000000e+02 2.133614921569824219e+01 -4.344190120697021484e+00 -3.249293863773345947e-01 1.749469399452209473e+00 4.273619949817657471e-01 -7.417025417089462280e-02
8.260000000000000000e+02 2.159339904785156250e+01 -4.691318988800048828e+00 -3.400964736938476562e-01 2.178488969802856445e+00 5.515177845954895020e-01 -7.968012243509292603e-02
8.270000000000000000e+02 2.345751762390136719e+01 -7.076385021209716797e+00 3.739804506301879883e+00 5.514737606048583984e+00 2.776362657546997070e+00 4.095345020294189453e+00
8.280000000000000000e+02 1.962583732604980469e+01 -8.205451011657714844e+00 5.767826080322265625e+00 -1.367862105369567871e+00 1.319989204406738281e+00 -3.586174249649047852e-01
8.290000000000000000e+02 1.993498992919921875e+01 -8.382730484008789062e+00 6.632023811340332031e+00 -1.231409788131713867e+00 1.620184302330017090e+00 -3.483116999268531799e-02
8.300000000000000000e+02 1.561887359619140625e+01 -1.147401046752929688e+01 -7.989917993545532227e-01 -2.415484189987182617e+00 -9.643427729606628418e-01 2.757402420043945312e+00
8.310000000000000000e+02 1.849263381958007812e+01 -6.455767631530761719e+00 1.759349584579467773e+00 -8.622171282768249512e-01 2.691397368907928467e-01 -2.168309390544891357e-01
8.320000000000000000e+02 1.662940979003906250e+01 -4.741348266601562500e+00 3.282072246074676514e-01 -7.921944260597229004e-01 -1.391961574554443359e-01 6.004588007926940918e-01
8.330000000000000000e+02 1.518090534210205078e+01 -3.795115947723388672e+00 -3.605595827102661133e-01 -5.185873508453369141e-01 -2.637440860271453857e-01 8.502387404441833496e-01
8.340000000000000000e+02 1.191931629180908203e+01 -2.470547437667846680e+00 -1.400996088981628418e+00 8.739910274744033813e-02 -3.940790891647338867e-01 6.117860674858093262e-01
8.350000000000000000e+02 1.173653984069824219e+01 -3.303091287612915039e+00 -1.123835682868957520e+00 3.058263361454010010e-01 -2.454028129577636719e-01 7.628648281097412109e-01
8.360000000000000000e+02 7.761434078216552734e+00 -2.768303394317626953e+00 -1.419616222381591797e+00 4.789457619190216064e-01 -2.822011411190032959e-01 -3.317769765853881836e-01
8.370000000000000000e+02 2.136311912536621094e+01 1.631398963928222656e+01 -6.456236243247985840e-01 -2.228651642799377441e-01 -2.605466246604919434e-01 3.542395532131195068e-01
8.380000000000000000e+02 2.467324638366699219e+01 1.392541503906250000e+01 -4.593213498592376709e-01 -4.851250723004341125e-02 -1.523501574993133545e-01 3.535225093364715576e-01
8.390000000000000000e+02 6.787127685546875000e+01 -1.692853164672851562e+01 7.845883965492248535e-01 1.065332889556884766e+01 3.431375265121459961e+00 2.535174131393432617e+00
8.400000000000000000e+02 6.539073181152343750e+01 -1.824248886108398438e+01 1.886482000350952148e+00 5.611041069030761719e+00 2.249256849288940430e+00 3.028710365295410156e+00
8.410000000000000000e+02 6.450049591064453125e+01 -1.934769058227539062e+01 1.300804018974304199e+00 3.560750961303710938e+00 1.458466529846191406e+00 2.228641748428344727e+00
8.420000000000000000e+02 6.264926910400390625e+01 -2.148966789245605469e+01 3.787738680839538574e-01 1.593137145042419434e+00 5.915732979774475098e-01 8.938034772872924805e-01
8.430000000000000000e+02 5.966130828857421875e+01 -2.449909210205078125e+01 -7.238548994064331055e-01 -2.444830723106861115e-02 -2.244909554719924927e-01 -3.570721149444580078e-01
8.440000000000000000e+02 5.739398574829101562e+01 -2.618131256103515625e+01 -1.354656577110290527e+00 -4.118242263793945312e-01 -5.299442410469055176e-01 -7.611385583877563477e-01
8.450000000000000000e+02 5.500674819946289062e+01 -2.765050888061523438e+01 -1.564933061599731445e+00 -4.639356434345245361e-01 -6.086606383323669434e-01 -8.561196923255920410e-01
8.460000000000000000e+02 5.254925537109375000e+01 -2.903933143615722656e+01 -1.435828924179077148e+00 -4.219090342521667480e-01 -5.573213696479797363e-01 -7.681201100349426270e-01
8.470000000000000000e+02 4.593267822265625000e+01 -3.156636810302734375e+01 -7.418703436851501465e-01 -1.258489489555358887e-01 -2.603157758712768555e-01 -2.960939407348632812e-01
8.480000000000000000e+02 4.000083160400390625e+01 -3.288529586791992188e+01 -2.911255359649658203e-01 -4.321746155619621277e-02 -1.003028973937034607e-01 -8.463553339242935181e-02
8.490000000000000000e+02 3.571815872192382812e+01 -3.264374160766601562e+01 -1.670162379741668701e-01 -1.734691485762596130e-02 -5.530894547700881958e-02 1.000218838453292847e-02
8.500000000000000000e+02 3.141520690917968750e+01 -3.183715820312500000e+01 -1.641786396503448486e-01 -3.814041265286505222e-04 -4.936801642179489136e-02 3.222669661045074463e-02
8.510000000000000000e+02 3.000031280517578125e+01 -3.158433914184570312e+01 -1.518425792455673218e-01 -3.644853597506880760e-03 -4.664622992277145386e-02 2.296336367726325989e-02
8.520000000000000000e+02 2.481844329833984375e+01 -2.923201942443847656e+01 6.648939102888107300e-02 8.126129955053329468e-02 4.432520642876625061e-02 -9.981680661439895630e-02
8.530000000000000000e+02 2.227440643310546875e+01 -2.803558540344238281e+01 2.793866693973541260e-01 2.306797355413436890e-01 1.530199199914932251e-01 -2.604000270366668701e-01
8.540000000000000000e+02 2.355644989013671875e+01 -2.864940834045410156e+01 1.730165332555770874e-01 1.551915854215621948e-01 9.846243262290954590e-02 -1.636672168970108032e-01
8.550000000000000000e+02 1.368210315704345703e+01 -2.045827484130859375e+01 1.496062517166137695e+00 2.172482252120971680e+00 1.100563406944274902e+00 -1.827841043472290039e+00
8.560000000000000000e+02 1.270055675506591797e+01 -1.944631195068359375e+01 1.828213930130004883e+00 2.884384155273437500e+00 1.413779377937316895e+00 -2.177349567413330078e+00
8.570000000000000000e+02 1.079925441741943359e+01 -1.734120750427246094e+01 2.646015882492065430e+00 6.120009422302246094e+00 2.629807710647583008e+00 -3.499273061752319336e+00
8.580000000000000000e+02 1.754694938659667969e+01 -1.375421047210693359e+01 -6.996924400329589844e+00 -1.929269313812255859e+00 -2.677858114242553711e+00 3.840914726257324219e+00
8.590000000000000000e+02 2.211228179931640625e+01 -1.059675121307373047e+01 2.038548946380615234e+00 5.628981590270996094e+00 2.300259113311767578e+00 1.093646049499511719e+00
8.600000000000000000e+02 2.257063484191894531e+01 -1.606932449340820312e+01 -7.767118930816650391e+00 -8.140142560005187988e-01 -2.574339866638183594e+00 2.895773649215698242e+00
8.610000000000000000e+02 2.279768180847167969e+01 -1.505757617950439453e+01 -6.724843025207519531e+00 2.663554847240447998e-01 -1.937546372413635254e+00 1.927429199218750000e+00
8.620000000000000000e+02 2.387046432495117188e+01 -1.654158973693847656e+01 -7.186784267425537109e+00 -4.725414812564849854e-01 -2.297797679901123047e+00 2.171892881393432617e+00
8.630000000000000000e+02 2.923525428771972656e+01 -1.799985885620117188e+01 -4.180553913116455078e+00 2.368664136156439781e-03 -1.253455638885498047e+00 6.182242631912231445e-01
8.640000000000000000e+02 3.196872520446777344e+01 -1.841798400878906250e+01 -3.424702644348144531e+00 2.510346239432692528e-03 -1.026657700538635254e+00 2.551390826702117920e-01
8.650000000000000000e+02 3.747563934326171875e+01 -1.859593772888183594e+01 -2.452381610870361328e+00 7.404183968901634216e-03 -7.334932088851928711e-01 -1.798671782016754150e-01
8.660000000000000000e+02 3.467810821533203125e+01 -1.739335441589355469e+01 -2.595045804977416992e+00 1.485422104597091675e-01 -7.339510321617126465e-01 -1.978620737791061401e-01
8.670000000000000000e+02 4.021016693115234375e+01 -1.840843200683593750e+01 -1.944109559059143066e+00 2.386213839054107666e-02 -5.760742425918579102e-01 -3.134514987468719482e-01
8.680000000000000000e+02 4.551294708251953125e+01 -1.702939796447753906e+01 -1.997043967247009277e+00 -1.905120313167572021e-01 -6.562668085098266602e-01 -6.069802045822143555e-01
8.690000000000000000e+02 4.375603103637695312e+01 -1.634854125976562500e+01 -1.846783161163330078e+00 -9.614844620227813721e-02 -5.828794836997985840e-01 -5.242295265197753906e-01
8.700000000000000000e+02 4.682153701782226562e+01 -1.661741256713867188e+01 -1.799095749855041504e+00 -1.582969129085540771e-01 -5.872178077697753906e-01 -6.254151463508605957e-01
8.710000000000000000e+02 4.809910202026367188e+01 -1.612220573425292969e+01 -1.758790135383605957e+00 -2.385595142841339111e-01 -5.992048978805541992e-01 -7.109892964363098145e-01
8.720000000000000000e+02 5.225300979614257812e+01 -1.262842655181884766e+01 -1.926548361778259277e+00 -3.672528266906738281e-01 -6.881403326988220215e-01 -8.972034454345703125e-01
8.730000000000000000e+02 5.302864074707031250e+01 -1.363285636901855469e+01 -2.038942098617553711e+00 -5.697726607322692871e-01 -7.826144099235534668e-01 -1.073017239570617676e+00
8.740000000000000000e+02 5.542868423461914062e+01 -1.223906326293945312e+01 -2.152607917785644531e+00 -7.092394232749938965e-01 -8.585541844367980957e-01 -1.278420567512512207e+00
8.750000000000000000e+02 5.776440048217773438e+01 -1.071989154815673828e+01 -2.729604721069335938e+00 -9.737926125526428223e-01 -1.111019253730773926e+00 -1.625661134719848633e+00
8.760000000000000000e+02 6.124473953247070312e+01 -8.428715705871582031e+00 -3.954665660858154297e+00 -1.215639472007751465e+00 -1.551091551780700684e+00 -2.151887655258178711e+00
8.770000000000000000e+02 6.425770568847656250e+01 -5.951703071594238281e+00 -3.220676660537719727e+00 -5.653942227363586426e-01 -1.135821342468261719e+00 -2.106182813644409180e+00
8.780000000000000000e+02 5.058655166625976562e+01 1.895616912841796875e+01 2.978551089763641357e-01 1.818723827600479126e-01 1.439182460308074951e-01 -1.812799274921417236e-01
8.790000000000000000e+02 5.476860809326171875e+01 1.653448867797851562e+01 1.102183818817138672e+00 3.003842115402221680e+00 1.231807827949523926e+00 -1.339099526405334473e+00
8.800000000000000000e+02 4.625261688232421875e+01 5.877437114715576172e+00 5.350042581558227539e-01 1.191073134541511536e-01 1.962334811687469482e-01 -2.539750188589096069e-02
8.810000000000000000e+02 4.303718948364257812e+01 9.290912628173828125e+00 8.844938129186630249e-02 1.004411935806274414e+00 3.278584182262420654e-01 -6.997293233871459961e-02
8.820000000000000000e+02 4.639763259887695312e+01 1.950526237487792969e+01 6.792122721672058105e-01 7.917774319648742676e-01 4.412969052791595459e-01 6.832390427589416504e-01
8.830000000000000000e+02 2.324014091491699219e+01 -7.239421367645263672e+00 3.892249822616577148e+00 6.381151199340820312e+00 3.082020282745361328e+00 4.515558242797851562e+00
8.840000000000000000e+02 2.213773345947265625e+01 -5.204632759094238281e+00 -3.703521788120269775e-01 3.316061496734619141e+00 8.837127685546875000e-01 1.756108254194259644e-01
8.850000000000000000e+02 2.228442764282226562e+01 -5.725354194641113281e+00 -2.733058631420135498e-01 4.131705760955810547e+00 1.157519936561584473e+00 3.756347894668579102e-01
8.860000000000000000e+02 2.278285980224609375e+01 -6.527352333068847656e+00 5.079717636108398438e-01 6.141493797302246094e+00 1.994839668273925781e+00 1.966546297073364258e+00
8.870000000000000000e+02 2.291945266723632812e+01 -6.692339897155761719e+00 1.107840180397033691e+00 6.383541584014892578e+00 2.247414588928222656e+00 2.588890314102172852e+00
8.880000000000000000e+02 2.188940429687500000e+01 -5.280073165893554688e+00 -3.176524341106414795e-01 2.900718212127685547e+00 7.749196887016296387e-01 -2.650121413171291351e-02
8.890000000000000000e+02 2.278816032409667969e+01 -6.195658206939697266e+00 2.194506675004959106e-01 5.471618652343750000e+00 1.707320809364318848e+00 1.517884612083435059e+00
8.900000000000000000e+02 2.346321868896484375e+01 -6.480803489685058594e+00 1.692489147186279297e+00 5.294285774230957031e+00 2.096032619476318359e+00 3.032272815704345703e+00
8.910000000000000000e+02 2.195549583435058594e+01 -4.387791156768798828e+00 -4.307685792446136475e-01 2.477983236312866211e+00 6.141643524169921875e-01 1.244326308369636536e-01
8.920000000000000000e+02 1.886973190307617188e+01 -6.841988086700439453e+00 2.305559158325195312e+00 -8.694266080856323242e-01 4.308398067951202393e-01 -5.686697363853454590e-01
8.930000000000000000e+02 1.631664466857910156e+01 -1.311541843414306641e+01 -5.234820365905761719e+00 -1.908693075180053711e+00 -2.143054008483886719e+00 3.460056066513061523e+00
8.940000000000000000e+02 2.015043830871582031e+01 -9.233640670776367188e+00 7.282274723052978516e+00 -5.642393827438354492e-01 2.015410661697387695e+00 2.560013771057128906e+00
8.950000000000000000e+02 1.933353614807128906e+01 -7.337959766387939453e+00 3.301833152770996094e+00 -8.332882523536682129e-01 7.405634522438049316e-01 -8.228372335433959961e-01
8.960000000000000000e+02 1.988077163696289062e+01 -8.173777580261230469e+00 6.097949504852294922e+00 -1.140013217926025391e+00 1.487380862236022949e+00 -6.402734518051147461e-01
8.970000000000000000e+02 1.976849937438964844e+01 -8.016239166259765625e+00 5.579772949218750000e+00 -1.077132105827331543e+00 1.350792169570922852e+00 -7.514891028404235840e-01
8.980000000000000000e+02 1.942434692382812500e+01 -7.509516716003417969e+00 3.755091428756713867e+00 -9.181578159332275391e-01 8.510801196098327637e-01 -8.720574975013732910e-01
8.990000000000000000e+02 1.905115509033203125e+01 -7.025804042816162109e+00 2.642485141754150391e+00 -8.068680763244628906e-01 5.506851077079772949e-01 -6.535719037055969238e-01
9.000000000000000000e+02 1.920034408569335938e+01 -7.187897205352783203e+00 3.018582820892333984e+00 -8.558623790740966797e-01 6.488161087036132812e-01 -7.427133917808532715e-01
9.010000000000000000e+02 2.189562797546386719e+01 -2.810317993164062500e+00 -4.694188237190246582e-01 1.857250452041625977e+00 4.163494706153869629e-01 2.450977563858032227e-01
9.020000000000000000e+02 2.082832145690917969e+01 -2.804686784744262695e+00 -3.492006659507751465e-01 1.080760002136230469e+00 2.194678187370300293e-01 3.415784612298011780e-02
9.030000000000000000e+02 2.001805496215820312e+01 -2.865226745605468750e+00 -3.143364787101745605e-01 5.327345728874206543e-01 6.551942974328994751e-02 4.941222816705703735e-02
9.040000000000000000e+02 2.036090087890625000e+01 -2.408043384552001953e+00 -3.183382153511047363e-01 7.046870589256286621e-01 1.159046515822410583e-01 5.624494701623916626e-02
9.050000000000000000e+02 1.992072868347167969e+01 -1.935580015182495117e+00 -3.020626604557037354e-01 4.924648404121398926e-01 5.712065473198890686e-02 8.492474257946014404e-02
9.060000000000000000e+02 8.479126930236816406e+00 3.513412714004516602e+00 -2.553512156009674072e-01 -4.484475031495094299e-02 -9.005878865718841553e-02 2.437676936388015747e-01
9.070000000000000000e+02 8.478143692016601562e+00 2.715060472488403320e+00 -2.948544919490814209e-01 -3.531422466039657593e-02 -9.905061870813369751e-02 2.104340493679046631e-01
9.080000000000000000e+02 6.920265197753906250e+00 1.882770061492919922e+00 -2.500441074371337891e-01 -2.290717326104640961e-02 -8.188538998365402222e-02 1.457650363445281982e-01
9.090000000000000000e+02 5.456154823303222656e+00 2.588965654373168945e+00 -1.586250066757202148e-01 -3.316205739974975586e-02 -5.753611773252487183e-02 1.510329693555831909e-01
9.100000000000000000e+02 1.555159926414489746e+00 7.741418838500976562e+00 -2.929591573774814606e-03 -2.990193068981170654e-01 -9.058466553688049316e-02 1.124679967761039734e-01
9.110000000000000000e+02 1.008710956573486328e+01 2.655307054519653320e+00 -3.633035421371459961e-01 -4.702198877930641174e-02 -1.230976581573486328e-01 1.997447460889816284e-01
9.120000000000000000e+02 6.920371055603027344e+00 2.640439510345458984e+00 -2.274841517210006714e-01 -2.902140468358993530e-02 -7.695166766643524170e-02 1.842303574085235596e-01
9.130000000000000000e+02 1.283643364906311035e+00 3.523884534835815430e+00 -1.515629235655069351e-02 -7.248963415622711182e-02 -2.629377692937850952e-02 5.104606971144676208e-02
9.140000000000000000e+02 5.420565128326416016e+00 3.325647115707397461e+00 -1.430610865354537964e-01 -5.615322664380073547e-02 -5.976429581642150879e-02 1.845652014017105103e-01
9.150000000000000000e+02 2.586525201797485352e+00 1.969779372215270996e+00 -4.584263637661933899e-02 -3.439125791192054749e-02 -2.407016791403293610e-02 5.486575141549110413e-02
9.160000000000000000e+02 2.070070028305053711e+00 3.229722976684570312e+00 -3.156685829162597656e-02 -7.161832600831985474e-02 -3.095555678009986877e-02 7.340212911367416382e-02
9.170000000000000000e+02 2.142913246154785156e+01 -1.012709426879882812e+01 3.690219879150390625e+00 5.431597709655761719e+00 2.736545324325561523e+00 2.884149312973022461e+00
9.180000000000000000e+02 2.373461341857910156e+01 -1.052686405181884766e+01 2.449359893798828125e+00 3.688597440719604492e+00 1.841387271881103516e+00 -1.196488499641418457e+00
9.190000000000000000e+02 2.006788063049316406e+01 -1.490363883972167969e+01 -9.411744117736816406e+00 -2.106319665908813477e+00 -3.455419063568115234e+00 4.419415473937988281e+00
9.200000000000000000e+02 2.477698898315429688e+01 -9.398805618286132812e+00 4.890522003173828125e+00 1.664113998413085938e+00 1.966390728950500488e+00 -2.169726788997650146e-01
9.210000000000000000e+02 2.397924995422363281e+01 -7.972185611724853516e+00 6.957713127136230469e+00 3.183630704879760742e+00 3.042403221130371094e+00 2.869766235351562500e+00
9.220000000000000000e+02 1.791942787170410156e+01 -1.288234043121337891e+01 -4.166427135467529297e+00 -2.121955156326293945e+00 -1.886514663696289062e+00 3.906179428100585938e+00
9.230000000000000000e+02 2.321234321594238281e+01 -6.523868560791015625e+00 1.270010113716125488e+00 5.827097892761230469e+00 2.129132509231567383e+00 2.762083292007446289e+00
9.240000000000000000e+02 1.788919830322265625e+01 3.963401556015014648e+00 -7.550564408302307129e-01 -1.660306155681610107e-01 -2.763261198997497559e-01 1.402185112237930298e-01
9.250000000000000000e+02 1.619371986389160156e+01 5.846960544586181641e+00 -2.795503437519073486e-01 -1.548688858747482300e-01 -1.303257793188095093e-01 2.089439332485198975e-01
9.260000000000000000e+02 1.693643569946289062e+01 3.367692947387695312e+00 -4.975571632385253906e-01 -1.235397085547447205e-01 -1.863290518522262573e-01 4.603257775306701660e-02
9.270000000000000000e+02 1.718029975891113281e+01 4.940072059631347656e+00 -5.745689868927001953e-01 -1.959582567214965820e-01 -2.311581671237945557e-01 2.772413492202758789e-01
9.280000000000000000e+02 4.536520481109619141e+00 -2.919872283935546875e+00 -8.101323843002319336e-01 -7.430568803101778030e-03 -2.452688813209533691e-01 -9.726714491844177246e-01
9.290000000000000000e+02 7.768123149871826172e+00 -1.924813151359558105e+00 -1.604926109313964844e+00 2.991602420806884766e-01 -3.917297720909118652e-01 -2.274309396743774414e-01
9.300000000000000000e+02 1.844601869583129883e+00 -9.114236831665039062e+00 4.674229770898818970e-02 -2.956555128097534180e+00 -8.729438185691833496e-01 -1.274016618728637695e+00
9.310000000000000000e+02 5.551912188529968262e-01 -6.380019664764404297e+00 -2.491547493264079094e-03 -2.465581417083740234e+00 -7.404218912124633789e-01 -3.633999824523925781e-01
9.320000000000000000e+02 3.035989999771118164e+00 -4.060080051422119141e+00 -3.963551521301269531e-01 -4.074572920799255371e-01 -2.411437332630157471e-01 -1.068468332290649414e+00
9.330000000000000000e+02 4.307428598403930664e-01 -3.568145513534545898e+00 -1.538342610001564026e-02 -7.380902171134948730e-01 -2.260420918464660645e-01 -1.848574131727218628e-01
9.340000000000000000e+02 1.116068744659423828e+01 -5.616960048675537109e+00 -5.544998645782470703e-01 9.292470812797546387e-01 1.124241650104522705e-01 1.132772088050842285e+00
9.350000000000000000e+02 8.553260803222656250e+00 -2.791665554046630859e+00 -1.484524250030517578e+00 5.900910496711730957e-01 -2.683299779891967773e-01 -7.636469602584838867e-02
9.360000000000000000e+02 6.152174472808837891e+00 -2.802884817123413086e+00 -1.182054042816162109e+00 2.956351935863494873e-01 -2.659256756305694580e-01 -7.630339264869689941e-01
9.370000000000000000e+02 5.344094276428222656e+00 -2.854638338088989258e+00 -9.917806982994079590e-01 1.963075697422027588e-01 -2.386419475078582764e-01 -8.619096279144287109e-01
9.380000000000000000e+02 1.021037292480468750e+01 -2.061351060867309570e+00 -1.666677474975585938e+00 2.955387234687805176e-01 -4.113416373729705811e-01 2.838651537895202637e-01
9.390000000000000000e+02 1.336483383178710938e+01 1.969299554824829102e+00 -4.704773724079132080e-01 -5.941091477870941162e-02 -1.589664816856384277e-01 1.349369883537292480e-01
9.400000000000000000e+02 1.162935543060302734e+01 2.253493070602416992e+00 -4.393899738788604736e-01 -4.571985825896263123e-02 -1.455329507589340210e-01 1.646440178155899048e-01
9.410000000000000000e+02 1.768201637268066406e+01 -8.968852758407592773e-01 -3.181602656841278076e-01 -1.526905149221420288e-01 -1.412552297115325928e-01 1.767134070396423340e-01
9.420000000000000000e+02 1.817194175720214844e+01 -2.683362662792205811e-01 -2.661819458007812500e-01 -6.308215111494064331e-02 -9.877923130989074707e-02 1.282344460487365723e-01
9.430000000000000000e+02 1.886786651611328125e+01 -7.871844172477722168e-01 -2.693137228488922119e-01 9.405422955751419067e-02 -5.257784947752952576e-02 1.278684139251708984e-01
9.440000000000000000e+02 1.929463195800781250e+01 3.261270284652709961e+00 -5.384083986282348633e-01 -1.146321520209312439e-01 -1.959121525287628174e-01 9.044281393289566040e-02
9.450000000000000000e+02 1.440921211242675781e+01 -3.394088506698608398e+00 -6.697359085083007812e-01 -3.007108569145202637e-01 -2.911340296268463135e-01 9.043342471122741699e-01
9.460000000000000000e+02 1.483023262023925781e+01 -4.549103736877441406e+00 4.514917731285095215e-03 -4.988375008106231689e-01 -1.482967734336853027e-01 1.044400691986083984e+00
9.470000000000000000e+02 1.554800701141357422e+01 -4.966793060302734375e+00 3.988011181354522705e-01 -8.014944195747375488e-01 -1.208079978823661804e-01 9.245837926864624023e-01
9.480000000000000000e+02 1.624165344238281250e+01 -5.411581993103027344e+00 7.618889212608337402e-01 -9.234080910682678223e-01 -4.845575615763664246e-02 7.870597243309020996e-01
9.490000000000000000e+02 1.689429092407226562e+01 -5.875005722045898438e+00 1.225987553596496582e+00 -1.185711503028869629e+00 1.208281237632036209e-02 5.457971692085266113e-01
9.500000000000000000e+02 1.791157531738281250e+01 -5.872646331787109375e+00 1.188003420829772949e+00 -9.045736193656921387e-01 8.502893894910812378e-02 5.944355204701423645e-02
9.510000000000000000e+02 1.587993717193603516e+01 -6.097685813903808594e+00 1.254007339477539062e+00 -1.261151194572448730e+00 -2.143156947568058968e-03 1.020860195159912109e+00
9.520000000000000000e+02 1.012064456939697266e+01 -2.943231821060180664e+00 -1.439598798751831055e+00 5.658085346221923828e-01 -2.621370851993560791e-01 3.607292175292968750e-01
9.530000000000000000e+02 1.332581710815429688e+01 -3.851064443588256836e+00 -6.178922653198242188e-01 -8.275386691093444824e-02 -2.101938426494598389e-01 1.008447885513305664e+00
9.540000000000000000e+02 1.136019229888916016e+01 -4.902965068817138672e+00 -6.964983940124511719e-01 7.751104831695556641e-01 2.358362637460231781e-02 1.044467449188232422e+00
9.550000000000000000e+02 1.253866767883300781e+01 -3.555793285369873047e+00 -9.031481146812438965e-01 7.109951972961425781e-02 -2.496145814657211304e-01 8.643088936805725098e-01
9.560000000000000000e+02 1.359102058410644531e+01 -3.057634592056274414e+00 -9.521066546440124512e-01 -2.143143564462661743e-01 -3.499263226985931396e-01 8.565279841423034668e-01
9.570000000000000000e+02 2.856303405761718750e+01 9.428989410400390625e+00 3.904224336147308350e-01 1.377703189849853516e+00 5.304377079010009766e-01 8.559855818748474121e-01
9.580000000000000000e+02 1.690689468383789062e+01 1.612791252136230469e+01 6.832682490348815918e-01 5.802842378616333008e-01 3.790657520294189453e-01 5.190832614898681641e-01
9.590000000000000000e+02 2.019988822937011719e+01 1.680179977416992188e+01 -2.149595022201538086e-01 -6.577561795711517334e-02 -8.422053605318069458e-02 3.345879316329956055e-01
9.600000000000000000e+02 2.026847076416015625e+01 1.908297538757324219e+01 5.264403298497200012e-02 -1.552422158420085907e-02 1.113594323396682739e-02 5.102025866508483887e-01
9.610000000000000000e+02 1.529621696472167969e+01 6.910170078277587891e+00 -1.947767883539199829e-01 -9.094293415546417236e-02 -8.571591973304748535e-02 1.473393589258193970e-01
9.620000000000000000e+02 1.372461318969726562e+01 2.736290216445922852e+00 -4.434460401535034180e-01 -5.229646340012550354e-02 -1.487227529287338257e-01 1.167511641979217529e-01
9.630000000000000000e+02 2.230464935302734375e+01 1.945563697814941406e+01 9.854944050312042236e-02 -4.173480719327926636e-02 1.704439148306846619e-02 3.445693552494049072e-01
9.640000000000000000e+02 1.606927680969238281e+01 2.733155250549316406e+00 -4.722548425197601318e-01 -9.742600470781326294e-02 -1.709042489528656006e-01 5.085609853267669678e-02
9.650000000000000000e+02 2.578346252441406250e+01 5.491275787353515625e+00 1.944945156574249268e-01 1.879948496818542480e+00 6.223328709602355957e-01 5.901778936386108398e-01
9.660000000000000000e+02 2.158130455017089844e+01 3.601304531097412109e+00 -3.743833303451538086e-01 4.902310967445373535e-01 3.475432470440864563e-02 4.279171526432037354e-01
9.670000000000000000e+02 2.020628356933593750e+01 4.280785083770751953e+00 -9.671199321746826172e-01 4.841142799705266953e-03 -2.886836230754852295e-01 -4.140244796872138977e-02
9.680000000000000000e+02 2.281879425048828125e+01 5.082825183868408203e+00 2.347240149974822998e-01 6.173164844512939453e-01 2.556121647357940674e-01 4.974938035011291504e-01
9.690000000000000000e+02 2.463624191284179688e+01 4.787984371185302734e+00 2.092781849205493927e-02 1.797843337059020996e+00 5.456313490867614746e-01 8.009319901466369629e-01
9.700000000000000000e+02 1.523144912719726562e+01 1.736625480651855469e+01 1.897622197866439819e-01 5.026419758796691895e-01 2.077212631702423096e-01 2.824403047561645508e-01
9.710000000000000000e+02 1.384724712371826172e+01 1.488477039337158203e+01 4.156364202499389648e-01 4.921827614307403564e-01 2.723457515239715576e-01 2.742251455783843994e-01
9.720000000000000000e+02 2.690357589721679688e+01 1.161967754364013672e+01 -6.715726107358932495e-02 1.220573425292968750e+00 3.460248708724975586e-01 6.056802868843078613e-01
9.730000000000000000e+02 1.331165313720703125e+01 1.111471939086914062e+01 1.365643590688705444e-01 4.886422157287597656e-01 1.875619739294052124e-01 3.084034025669097900e-01
9.740000000000000000e+02 2.401015090942382812e+01 3.295526266098022461e+00 -3.002303242683410645e-01 1.602283120155334473e+00 3.906158506870269775e-01 8.099263310432434082e-01
9.750000000000000000e+02 2.554442977905273438e+01 1.505835819244384766e+01 -4.546252489089965820e-01 4.018369317054748535e-01 -1.583648845553398132e-02 2.305617034435272217e-01
9.760000000000000000e+02 2.227527427673339844e+01 1.745487594604492188e+01 -1.091131344437599182e-01 -2.432698309421539307e-01 -1.057148873805999756e-01 3.023971319198608398e-01
9.770000000000000000e+02 2.758546257019042969e+01 7.895700931549072266e+00 5.878516435623168945e-01 1.514363527297973633e+00 6.306645274162292480e-01 7.369213700294494629e-01
9.780000000000000000e+02 2.725737380981445312e+01 9.052064895629882812e+00 5.012493729591369629e-01 1.453869938850402832e+00 5.865358114242553711e-01 8.642010092735290527e-01
9.790000000000000000e+02 1.248626232147216797e+01 2.142427206039428711e+00 -4.532110691070556641e-01 -6.008543446660041809e-02 -1.539889574050903320e-01 1.429979205131530762e-01
9.800000000000000000e+02 1.726981735229492188e+01 1.292647361755371094e+00 -3.638179302215576172e-01 -1.506740599870681763e-01 -1.543475985527038574e-01 4.973529279232025146e-02
9.810000000000000000e+02 2.437655067443847656e+01 1.583393192291259766e+01 -4.353786408901214600e-01 9.363709017634391785e-03 -1.278044730424880981e-01 2.091518193483352661e-01
9.820000000000000000e+02 2.261082458496093750e+01 3.384508132934570312e+00 -2.830936014652252197e-01 9.097974300384521484e-01 1.880111545324325562e-01 6.136431097984313965e-01
9.830000000000000000e+02 2.145988655090332031e+01 2.651221752166748047e+00 -3.830688893795013428e-01 5.960663557052612305e-01 6.389924883842468262e-02 4.767487645149230957e-01
9.840000000000000000e+02 1.437100410461425781e+01 9.558945655822753906e+00 1.711820624768733978e-02 4.233808517456054688e-01 1.321497261524200439e-01 1.013976037502288818e-01
9.850000000000000000e+02 8.148028373718261719e+00 -1.204373931884765625e+01 3.088491678237915039e+00 6.066813468933105469e+00 2.746591567993164062e+00 -1.404384255409240723e+00
9.860000000000000000e+02 7.558438301086425781e+00 -1.295232772827148438e+01 4.488614559173583984e+00 5.535089492797851562e+00 3.007111310958862305e+00 3.345340490341186523e-03
9.870000000000000000e+02 6.830612945556640625e+01 -8.671801567077636719e+00 4.333331584930419922e+00 2.192101287841796875e+01 7.876303195953369141e+00 -5.335730552673339844e+00
9.880000000000000000e+02 6.869569396972656250e+01 -1.132885074615478516e+01 1.649506330490112305e+00 2.304237174987792969e+01 7.407563209533691406e+00 8.779991269111633301e-01
9.890000000000000000e+02 5.555648422241210938e+01 1.448572731018066406e+01 6.401355266571044922e-01 4.412278652191162109e+00 1.515724301338195801e+00 -9.274762868881225586e-01
9.900000000000000000e+02 5.548812484741210938e+01 1.217505550384521484e+01 1.444363445043563843e-01 3.548440217971801758e+00 1.107862949371337891e+00 3.824739158153533936e-02
9.910000000000000000e+02 9.949910163879394531e+00 -1.017020034790039062e+01 4.234088361263275146e-01 5.261055469512939453e+00 1.705339312553405762e+00 1.699922442436218262e+00
9.920000000000000000e+02 6.347817230224609375e+01 -3.913239479064941406e+00 -8.665723800659179688e-01 4.681445062160491943e-01 -1.195283606648445129e-01 -2.181350469589233398e+00
9.930000000000000000e+02 6.568438720703125000e+01 -6.609000682830810547e+00 -2.469420194625854492e+00 4.234232306480407715e-01 -6.137990951538085938e-01 -2.602846145629882812e+00
9.940000000000000000e+02 4.307051849365234375e+01 1.054196166992187500e+01 9.531778842210769653e-02 1.460065126419067383e+00 4.666148722171783447e-01 -1.636158078908920288e-01
9.950000000000000000e+02 4.282051467895507812e+01 1.185221767425537109e+01 1.661054491996765137e-01 2.288571596145629883e+00 7.364031076431274414e-01 4.013809189200401306e-02
9.960000000000000000e+02 4.388627624511718750e+01 1.655119895935058594e+01 1.265577912330627441e+00 2.417699098587036133e+00 1.104983091354370117e+00 1.328117728233337402e+00
9.970000000000000000e+02 4.585948562622070312e+01 1.813964653015136719e+01 8.962453603744506836e-01 7.337692975997924805e-01 4.890044033527374268e-01 7.868236899375915527e-01
9.980000000000000000e+02 7.673973846435546875e+01 -3.744871139526367188e+01 -1.121939495205879211e-01 9.990680694580078125e+00 2.963546276092529297e+00 1.364721804857254028e-01
9.990000000000000000e+02 7.921492004394531250e+01 -3.476011657714843750e+01 -2.922421880066394806e-02 1.086078548431396484e+01 3.249468326568603516e+00 7.861808873713016510e-03
1.000000000000000000e+03 7.932566833496093750e+01 -2.781813049316406250e+01 5.355019588023424149e-03 1.048203849792480469e+01 3.146218061447143555e+00 -1.216132268309593201e-01
1.001000000000000000e+03 7.787126922607421875e+01 3.295936965942382812e+01 2.560821827501058578e-03 6.223735332489013672e+00 1.867888808250427246e+00 -5.610746890306472778e-02
1.002000000000000000e+03 7.916683197021484375e+01 3.602619552612304688e+01 -6.581283640116453171e-03 6.289263725280761719e+00 1.884804725646972656e+00 -2.853999473154544830e-02
1.003000000000000000e+03 7.932370758056640625e+01 -2.081468582153320312e+01 -6.033344566822052002e-02 8.315687179565429688e+00 2.476606130599975586e+00 -3.502899706363677979e-01
1.004000000000000000e+03 7.797699737548828125e+01 -2.771223831176757812e+01 -1.010293290019035339e-01 9.944364547729492188e+00 2.953000545501708984e+00 -3.046361804008483887e-01
1.005000000000000000e+03 7.799735260009765625e+01 -2.632102775573730469e+01 -6.846034526824951172e-02 9.764230728149414062e+00 2.908730983734130859e+00 -3.956432938575744629e-01
1.006000000000000000e+03 7.929895019531250000e+01 -3.059911346435546875e+01 6.110648624598979950e-03 1.076599121093750000e+01 3.231630563735961914e+00 -6.452797353267669678e-02
1.007000000000000000e+03 7.756192779541015625e+01 -3.462016677856445312e+01 -4.899482056498527527e-02 1.011908149719238281e+01 3.021025896072387695e+00 -5.044895224273204803e-03
1.008000000000000000e+03 7.770666503906250000e+01 -3.322926712036132812e+01 -7.652976363897323608e-02 1.012658786773681641e+01 3.015017271041870117e+00 -5.321454629302024841e-02
1.009000000000000000e+03 7.339056396484375000e+01 -3.668969345092773438e+01 -6.031225249171257019e-02 8.211858749389648438e+00 2.445463895797729492e+00 9.078561328351497650e-03
1.010000000000000000e+03 7.668599700927734375e+01 -3.929941940307617188e+01 -4.201156646013259888e-02 1.006673240661621094e+01 3.007416248321533203e+00 6.238527968525886536e-02
1.011000000000000000e+03 7.806988525390625000e+01 1.413656234741210938e+01 -5.091398488730192184e-03 7.487322807312011719e+00 2.244669437408447266e+00 -2.164764702320098877e-01
1.012000000000000000e+03 7.935556030273437500e+01 1.539685630798339844e+01 -1.236339937895536423e-02 7.608293056488037109e+00 2.278778791427612305e+00 -6.643404066562652588e-02
1.013000000000000000e+03 7.799958038330078125e+01 2.116386222839355469e+01 2.142635360360145569e-02 6.834681987762451172e+00 2.056832551956176758e+00 -1.575376540422439575e-01
1.014000000000000000e+03 7.932740783691406250e+01 2.239355659484863281e+01 1.196806970983743668e-02 6.934412002563476562e+00 2.083914041519165039e+00 -4.656176641583442688e-02
1.015000000000000000e+03 7.805696868896484375e+01 3.167670440673828125e+01 1.126838568598031998e-02 6.283214569091796875e+00 1.888344883918762207e+00 -6.270651519298553467e-02
1.016000000000000000e+03 7.835639190673828125e+01 2.793649673461914062e+01 1.646895078010857105e-03 6.461910247802734375e+00 1.939067125320434570e+00 -7.807935029268264771e-02
1.017000000000000000e+03 7.945117950439453125e+01 2.788196182250976562e+01 1.059062220156192780e-02 6.595338821411132812e+00 1.981778740882873535e+00 -2.509168721735477448e-02
1.018000000000000000e+03 7.802130126953125000e+01 2.538032722473144531e+01 6.736451177857816219e-04 6.570630073547363281e+00 1.971391201019287109e+00 -1.124605908989906311e-01
1.019000000000000000e+03 7.796763610839843750e+01 2.400226402282714844e+01 1.807658188045024872e-02 6.637733936309814453e+00 1.996743202209472656e+00 -1.271050721406936646e-01
1.020000000000000000e+03 7.804254150390625000e+01 1.831910133361816406e+01 2.246311493217945099e-02 7.074921131134033203e+00 2.129215240478515625e+00 -1.835939884185791016e-01
1.021000000000000000e+03 7.805779266357421875e+01 1.552507495880126953e+01 2.043244801461696625e-02 7.344513893127441406e+00 2.209483861923217773e+00 -2.089171111583709717e-01
1.022000000000000000e+03 7.804975891113281250e+01 1.691679573059082031e+01 -5.477988161146640778e-04 7.206430912017822266e+00 2.161764860153198242e+00 -1.950116306543350220e-01
1.023000000000000000e+03 7.808042144775390625e+01 1.274372577667236328e+01 1.455364190042018890e-02 7.641685962677001953e+00 2.296871900558471680e+00 -2.256048172712326050e-01
1.024000000000000000e+03 7.681863403320312500e+01 1.146178054809570312e+01 5.971950478851795197e-03 7.471980571746826172e+00 2.243385791778564453e+00 -3.593932092189788818e-01
1.025000000000000000e+03 7.808673858642578125e+01 8.579331398010253906e+00 -3.426074236631393433e-02 8.094063758850097656e+00 2.417941093444824219e+00 -1.980548799037933350e-01
1.026000000000000000e+03 7.936311340332031250e+01 9.826907157897949219e+00 -2.011412195861339569e-02 8.304644584655761719e+00 2.485359191894531250e+00 -6.567090004682540894e-02
1.027000000000000000e+03 7.931498718261718750e+01 -1.940156936645507812e+01 1.368538476526737213e-02 7.587166786193847656e+00 2.280255794525146484e+00 -4.117612242698669434e-01
1.028000000000000000e+03 7.935614013671875000e+01 -1.379775619506835938e+01 2.084353566169738770e-02 4.575873374938964844e+00 1.379014968872070312e+00 -2.547974586486816406e-01
1.029000000000000000e+03 7.941315460205078125e+01 -6.862013816833496094e+00 8.731371164321899414e-02 5.193125724792480469e+00 1.584131836891174316e+00 2.922877371311187744e-01
1.030000000000000000e+03 7.806126403808593750e+01 2.314850240945816040e-01 -1.193206310272216797e-01 8.213698387145996094e+00 2.428313255310058594e+00 3.813190758228302002e-01
1.031000000000000000e+03 7.935289764404296875e+01 1.471985936164855957e+00 -1.106298342347145081e-02 8.566638946533203125e+00 2.566672801971435547e+00 1.027851179242134094e-01
1.032000000000000000e+03 7.679830932617187500e+01 7.336376190185546875e+00 -9.086286276578903198e-02 7.879887104034423828e+00 2.336707353591918945e+00 -2.874306738376617432e-01
1.033000000000000000e+03 7.839086151123046875e+01 2.918093299865722656e+01 1.278983056545257568e-02 6.409349918365478516e+00 1.926641941070556641e+00 -6.610495597124099731e-02
1.034000000000000000e+03 7.469223022460937500e+01 3.837770843505859375e+01 2.431414276361465454e-02 5.779442310333251953e+00 1.741126894950866699e+00 -4.480704665184020996e-02
1.035000000000000000e+03 7.432305145263671875e+01 3.650453567504882812e+01 3.597016260027885437e-02 5.723526954650878906e+00 1.727849125862121582e+00 -8.761143684387207031e-02
1.036000000000000000e+03 7.809056091308593750e+01 9.965409278869628906e+00 2.136862138286232948e-03 7.947482585906982422e+00 2.384885787963867188e+00 -2.152287960052490234e-01
1.037000000000000000e+03 7.674121856689453125e+01 3.648527264595031738e-01 -3.486901819705963135e-01 8.259785652160644531e+00 2.373328685760498047e+00 5.021696686744689941e-01
1.038000000000000000e+03 7.805307006835937500e+01 3.020025968551635742e+00 -1.044861525297164917e-01 8.402763366699218750e+00 2.489483118057250977e+00 7.549387961626052856e-02
1.039000000000000000e+03 7.808549499511718750e+01 -1.153242707252502441e+00 -1.616036146879196167e-01 7.988276958465576172e+00 2.348001956939697266e+00 5.843040347099304199e-01
1.040000000000000000e+03 7.937929534912109375e+01 -2.694800615310668945e+00 -6.935992091894149780e-02 7.336843967437744141e+00 2.180245161056518555e+00 3.019540607929229736e-01
1.041000000000000000e+03 7.823921203613281250e+01 -8.023832321166992188e+00 1.934673041105270386e-01 5.899489402770996094e+00 1.827887058258056641e+00 6.438505649566650391e-01
1.042000000000000000e+03 7.823292541503906250e+01 -5.286786079406738281e+00 4.182615131139755249e-02 6.774638175964355469e+00 2.044939279556274414e+00 8.393131494522094727e-01
1.043000000000000000e+03 7.940253448486328125e+01 -9.633871078491210938e+00 1.240534633398056030e-01 4.148526191711425781e+00 1.281773924827575684e+00 1.241074353456497192e-01
1.044000000000000000e+03 7.811818695068359375e+01 -1.213168239593505859e+01 2.446877360343933105e-01 5.707345008850097656e+00 1.785609722137451172e+00 -2.723807990550994873e-01
1.045000000000000000e+03 7.932310485839843750e+01 -1.657742500305175781e+01 2.575464546680450439e-02 5.980873107910156250e+00 1.801988244056701660e+00 -4.135912954807281494e-01
1.046000000000000000e+03 7.799709320068359375e+01 -2.065564537048339844e+01 -7.291328907012939453e-02 8.423356056213378906e+00 2.505132675170898438e+00 -9.118922948837280273e-01
1.047000000000000000e+03 7.796915435791015625e+01 -1.920010185241699219e+01 -7.525265961885452271e-02 7.960865020751953125e+00 2.365683794021606445e+00 -9.861428737640380859e-01
1.048000000000000000e+03 4.480167388916015625e+01 4.408610343933105469e+00 4.088063836097717285e-01 2.262901812791824341e-01 1.905289739370346069e-01 9.584221988916397095e-02
1.049000000000000000e+03 4.492613601684570312e+01 5.595557689666748047e+00 3.803587555885314941e-01 2.130895555019378662e-01 1.780344992876052856e-01 1.567254588007926941e-02
1.050000000000000000e+03 6.958589935302734375e+01 -8.475653648376464844e+00 2.919450998306274414e+00 1.516706275939941406e+01 5.425953865051269531e+00 -2.124339491128921509e-01
1.051000000000000000e+03 6.835677337646484375e+01 -5.992735385894775391e+00 -1.640913367271423340e+00 1.171260643005371094e+01 3.021507978439331055e+00 -2.089596509933471680e+00
1.052000000000000000e+03 4.878474426269531250e+01 5.077941894531250000e+00 7.243292927742004395e-01 1.007086113095283508e-01 2.475113719701766968e-01 1.164347156882286072e-01
1.053000000000000000e+03 5.176031875610351562e+01 5.342604160308837891e+00 7.592542767524719238e-01 3.088366389274597168e-01 3.204272687435150146e-01 2.288581132888793945e-01
1.054000000000000000e+03 1.230719089508056641e+01 -1.063833332061767578e+01 2.178260803222656250e+00 6.284406781196594238e-01 8.420104384422302246e-01 3.498908281326293945e+00
1.055000000000000000e+03 4.758502960205078125e+01 5.914193630218505859e+00 7.200013995170593262e-01 8.122424036264419556e-02 2.403676956892013550e-01 6.421811878681182861e-03
1.056000000000000000e+03 6.835008239746093750e+01 -1.358613491058349609e+01 2.257846355438232422e+00 1.885901260375976562e+01 6.335057735443115234e+00 3.865237474441528320e+00
1.057000000000000000e+03 6.768264770507812500e+01 -1.472169208526611328e+01 1.929588437080383301e+00 1.349851703643798828e+01 4.628431797027587891e+00 4.870435237884521484e+00
1.058000000000000000e+03 5.060518646240234375e+01 2.082106208801269531e+01 8.624027967453002930e-01 7.434983253479003906e-01 4.817703366279602051e-01 -3.236606717109680176e-01
1.059000000000000000e+03 4.793332672119140625e+01 2.102021789550781250e+01 7.735263705253601074e-01 7.763970494270324707e-01 4.649770259857177734e-01 4.646087586879730225e-01
1.060000000000000000e+03 5.186870956420898438e+01 2.082331085205078125e+01 7.223326563835144043e-01 1.121641278266906738e+00 5.531921386718750000e-01 -6.053589582443237305e-01
1.061000000000000000e+03 6.212026977539062500e+01 -5.892994880676269531e+00 -2.300529241561889648e+00 -4.063355028629302979e-01 -8.120594620704650879e-01 -9.487631320953369141e-01
1.062000000000000000e+03 4.155105590820312500e+01 -1.816990661621093750e+01 -1.882151603698730469e+00 -4.688864201307296753e-02 -5.787121057510375977e-01 -4.351144134998321533e-01
1.063000000000000000e+03 3.994810104370117188e+01 -1.717910003662109375e+01 -2.014738559722900391e+00 6.766472011804580688e-02 -5.841221809387207031e-01 -4.305703341960906982e-01
1.064000000000000000e+03 4.468683242797851562e+01 1.906491661071777344e+01 5.792092680931091309e-01 1.538771629333496094e+00 6.353942751884460449e-01 9.465776085853576660e-01
1.065000000000000000e+03 3.471396636962890625e+01 -1.864266586303710938e+01 -2.716245651245117188e+00 6.223257258534431458e-02 -7.962039113044738770e-01 -3.761397674679756165e-02
1.066000000000000000e+03 3.334996032714843750e+01 -1.732203865051269531e+01 -2.851486444473266602e+00 1.735056638717651367e-01 -8.033941984176635742e-01 -1.883496195077896118e-01
1.067000000000000000e+03 2.015955924987792969e+01 -2.891509437561035156e+01 1.427541226148605347e-01 6.766489744186401367e-01 2.458209395408630371e-01 -4.171517193317413330e-01
1.068000000000000000e+03 4.274985122680664062e+01 1.325662136077880859e+01 1.895264685153961182e-01 2.799072742462158203e+00 8.965798020362854004e-01 4.043207764625549316e-01
1.069000000000000000e+03 4.134193420410156250e+01 1.314050292968750000e+01 5.288367867469787598e-01 2.079224348068237305e+00 7.824183702468872070e-01 7.188193798065185547e-01
1.070000000000000000e+03 4.114490127563476562e+01 1.451518058776855469e+01 7.799629569053649902e-01 1.843251466751098633e+00 7.869642972946166992e-01 7.102804780006408691e-01
1.071000000000000000e+03 5.480387115478515625e+01 1.978565406799316406e+01 4.655870199203491211e-01 2.518035888671875000e+00 8.950868844985961914e-01 -9.623135328292846680e-01
1.072000000000000000e+03 5.424238586425781250e+01 6.570217132568359375e+00 6.128426790237426758e-01 1.027151465415954590e+00 4.919982254505157471e-01 3.492925167083740234e-01
1.073000000000000000e+03 5.569357299804687500e+01 6.602744102478027344e+00 4.747492969036102295e-01 1.543684005737304688e+00 6.055299639701843262e-01 1.313041448593139648e-01
1.074000000000000000e+03 3.424554824829101562e+01 -3.258251571655273438e+01 -1.688777953386306763e-01 -2.990781562402844429e-03 -5.156057327985763550e-02 2.191380783915519714e-02
1.075000000000000000e+03 3.069151878356933594e+01 -1.702013587951660156e+01 -3.433969020843505859e+00 2.020882815122604370e-01 -9.695642590522766113e-01 6.098311394453048706e-03
1.076000000000000000e+03 3.466540527343750000e+01 -1.619127082824707031e+01 -2.332558870315551758e+00 1.693416088819503784e-01 -6.489651203155517578e-01 -4.018672108650207520e-01
1.077000000000000000e+03 6.253896713256835938e+00 -1.736516189575195312e+01 7.947217822074890137e-01 3.214984655380249023e+00 1.202911853790283203e+00 1.357513666152954102e+00
1.078000000000000000e+03 9.873457908630371094e+00 -1.813774490356445312e+01 9.173447489738464355e-01 6.022993564605712891e+00 2.082101583480834961e+00 -1.875027418136596680e+00
1.079000000000000000e+03 7.012167358398437500e+01 -1.095852375030517578e+01 3.192028045654296875e+00 1.657266044616699219e+01 5.929406166076660156e+00 -3.098309338092803955e-01
1.080000000000000000e+03 1.504402256011962891e+01 -1.240001296997070312e+01 -3.557603597640991211e+00 -1.817387700080871582e+00 -1.612497448921203613e+00 2.535300731658935547e+00
1.081000000000000000e+03 1.475774669647216797e+01 -1.048696136474609375e+01 6.636788249015808105e-01 -2.141644239425659180e+00 -4.433895945549011230e-01 2.644663095474243164e+00
1.082000000000000000e+03 1.177580928802490234e+01 -2.031264877319335938e+01 8.785455226898193359e-01 3.368947505950927734e+00 1.274247884750366211e+00 -1.792609453201293945e+00
1.083000000000000000e+03 4.652907180786132812e+01 2.140928649902343750e+01 6.458240747451782227e-01 1.012582540512084961e+00 4.975219964981079102e-01 6.179184913635253906e-01
1.084000000000000000e+03 5.926092910766601562e+01 -2.644777107238769531e+01 -7.947878241539001465e-01 4.500107169151306152e-01 -1.034331321716308594e-01 -8.455524593591690063e-02
1.085000000000000000e+03 5.329995727539062500e+01 1.902876472473144531e+01 6.450943350791931152e-01 1.387793660163879395e+00 6.098663806915283203e-01 -7.969815731048583984e-01
1.086000000000000000e+03 3.601078414916992188e+01 -1.741152763366699219e+01 -2.388288736343383789e+00 8.488715440034866333e-02 -6.910204887390136719e-01 -2.558992505073547363e-01
1.087000000000000000e+03 5.062858963012695312e+01 -3.147895050048828125e+01 -7.494680285453796387e-01 -3.603590428829193115e-01 -3.329481184482574463e-01 -5.112525820732116699e-01
1.088000000000000000e+03 5.126005172729492188e+01 -2.965330314636230469e+01 -1.416248917579650879e+00 -3.918941915035247803e-01 -5.424429178237915039e-01 -6.908282041549682617e-01
1.089000000000000000e+03 4.249258422851562500e+01 -1.669962501525878906e+01 -1.884552359580993652e+00 -2.522691711783409119e-02 -5.729337930679321289e-01 -4.958660602569580078e-01
1.090000000000000000e+03 4.287877655029296875e+01 -1.783709144592285156e+01 -1.900877952575683594e+00 -1.096677631139755249e-01 -6.031637191772460938e-01 -5.391691327095031738e-01
1.091000000000000000e+03 4.448817062377929688e+01 -3.192426490783691406e+01 -6.015127301216125488e-01 -8.768563717603683472e-02 -2.067595124244689941e-01 -2.605189979076385498e-01
1.092000000000000000e+03 4.832468795776367188e+01 -3.271192550659179688e+01 -5.340282320976257324e-01 -3.243231475353240967e-01 -2.575054168701171875e-01 -4.521891772747039795e-01
1.093000000000000000e+03 4.676240539550781250e+01 -3.337590789794921875e+01 -3.977777361869812012e-01 -2.546797990798950195e-01 -1.957372725009918213e-01 -4.150823354721069336e-01
1.094000000000000000e+03 4.323933410644531250e+01 1.777679252624511719e+01 5.677561759948730469e-01 1.994883656501770020e+00 7.687919735908508301e-01 6.473042964935302734e-01
1.095000000000000000e+03 4.406309127807617188e+01 1.827694892883300781e+01 5.250306725502014160e-01 1.923557877540588379e+00 7.345765829086303711e-01 8.786759972572326660e-01
1.096000000000000000e+03 2.603639030456542969e+01 -2.988578605651855469e+01 -9.172216989099979401e-03 5.814893916249275208e-02 1.469301618635654449e-02 -3.089777752757072449e-02
1.097000000000000000e+03 2.633018684387207031e+01 -3.220098495483398438e+01 -4.791312292218208313e-02 1.471597403287887573e-01 2.977398596704006195e-02 -9.075260162353515625e-02
1.098000000000000000e+03 4.985886001586914062e+01 -1.388353157043457031e+01 -1.821310758590698242e+00 -2.374954968690872192e-01 -6.176418662071228027e-01 -8.050259947776794434e-01
1.099000000000000000e+03 5.181642532348632812e+01 -1.431339740753173828e+01 -1.873363852500915527e+00 -4.888002872467041016e-01 -7.086492776870727539e-01 -9.844626784324645996e-01
1.100000000000000000e+03 3.108109092712402344e+01 -3.314349365234375000e+01 -1.202563494443893433e-01 -6.154712289571762085e-03 -3.792331740260124207e-02 7.269435562193393707e-03
1.101000000000000000e+03 6.788430786132812500e+01 -1.905098915100097656e+01 -1.968356817960739136e-01 8.960010528564453125e+00 2.628952503204345703e+00 1.361481904983520508e+00
1.102000000000000000e+03 5.379409027099609375e+01 -2.835771942138671875e+01 -1.498885989189147949e+00 -4.479801654815673828e-01 -5.840598344802856445e-01 -8.157860040664672852e-01
1.103000000000000000e+03 5.764192581176757812e+01 -2.904077148437500000e+01 -6.327095031738281250e-01 3.985361456871032715e-01 -7.025200873613357544e-02 -6.962400674819946289e-02
1.104000000000000000e+03 6.979540252685546875e+01 -9.716457366943359375e+00 3.866488695144653320e+00 1.722301864624023438e+01 6.326851844787597656e+00 -9.861912131309509277e-01
1.105000000000000000e+03 3.202236557006835938e+01 -1.719572257995605469e+01 -3.058747053146362305e+00 1.567372977733612061e-01 -8.706029057502746582e-01 -1.238682344555854797e-01
1.106000000000000000e+03 4.624811553955078125e+01 -1.550016117095947266e+01 -1.801457762718200684e+00 -1.478621363639831543e-01 -5.847959518432617188e-01 -6.761589646339416504e-01
1.107000000000000000e+03 3.225423812866210938e+01 -3.349379348754882812e+01 -1.332303732633590698e-01 3.095255000516772270e-03 -3.904053568840026855e-02 1.704430766403675079e-02
1.108000000000000000e+03 2.950908660888671875e+01 -1.563235092163085938e+01 -3.215125083923339844e+00 3.683590590953826904e-01 -8.540298342704772949e-01 -3.943352103233337402e-01
1.109000000000000000e+03 5.698471450805664062e+01 1.389071178436279297e+01 7.793964743614196777e-01 3.311512470245361328e+00 1.227272748947143555e+00 -7.545779943466186523e-01
1.110000000000000000e+03 6.870645904541015625e+01 -1.587385082244873047e+01 5.477985143661499023e-01 1.387192249298095703e+01 4.325916290283203125e+00 1.893986940383911133e+00
1.111000000000000000e+03 6.123903656005859375e+01 -6.729330539703369141e+00 -3.431087493896484375e+00 -4.535873234272003174e-01 -1.165402412414550781e+00 -1.153851747512817383e+00
1.112000000000000000e+03 6.237600326538085938e+01 -7.657102108001708984e+00 -4.598304748535156250e+00 -1.301336884498596191e+00 -1.769892454147338867e+00 -2.376277446746826172e+00
1.113000000000000000e+03 5.461281204223632812e+01 -1.129188919067382812e+01 -2.212961673736572266e+00 -4.276843965053558350e-01 -7.921938300132751465e-01 -1.080370783805847168e+00
1.114000000000000000e+03 6.620738220214843750e+01 -1.920064926147460938e+01 4.733629822731018066e-01 6.746952533721923828e+00 2.166094541549682617e+00 2.223054409027099609e+00
1.115000000000000000e+03 5.088430023193359375e+01 2.752970457077026367e+00 3.986481130123138428e-01 2.576273083686828613e-01 1.968826353549957275e-01 2.000561505556106567e-01
1.116000000000000000e+03 2.410770034790039062e+01 -1.137384605407714844e+01 3.397364616394042969e-01 2.641273498535156250e+00 8.943030238151550293e-01 -1.145768165588378906e+00
1.117000000000000000e+03 2.131170845031738281e+01 -1.551293563842773438e+01 -8.576490402221679688e+00 -1.455107808113098145e+00 -3.009479284286499023e+00 3.843369722366333008e+00
1.118000000000000000e+03 2.036615753173828125e+01 -1.396910858154296875e+01 -6.348578929901123047e+00 -9.357983469963073730e-01 -2.185313224792480469e+00 3.212532043457031250e+00
1.119000000000000000e+03 4.434432983398437500e+01 7.270694732666015625e+00 2.835271954536437988e-01 4.293304383754730225e-01 2.138572931289672852e-01 -1.719132512807846069e-01
1.120000000000000000e+03 4.155032730102539062e+01 -3.265805816650390625e+01 -3.634288012981414795e-01 -4.131401702761650085e-02 -1.214228421449661255e-01 -1.199442222714424133e-01
1.121000000000000000e+03 4.360262680053710938e+01 -3.400887680053710938e+01 -2.836312353610992432e-01 -1.725686341524124146e-01 -1.368599683046340942e-01 -2.535386085510253906e-01
1.122000000000000000e+03 1.677782249450683594e+01 -1.224158573150634766e+01 -2.984193325042724609e+00 -2.314648389816284180e+00 -1.589652538299560547e+00 3.270564556121826172e+00
1.123000000000000000e+03 5.204464340209960938e+01 -3.109935951232910156e+01 -7.679129242897033691e-01 -3.644044101238250732e-01 -3.396952152252197266e-01 -5.181614160537719727e-01
1.124000000000000000e+03 1.750869560241699219e+01 -6.357884883880615234e+00 1.681043267250061035e+00 -1.232889533042907715e+00 1.344461441040039062e-01 2.856643497943878174e-01
1.125000000000000000e+03 6.330923461914062500e+01 -2.473586845397949219e+01 -5.471184849739074707e-01 3.220007419586181641e+00 8.018666505813598633e-01 7.443285584449768066e-01
1.126000000000000000e+03 6.347229385375976562e+01 -2.254178810119628906e+01 -9.829537570476531982e-02 3.006287813186645508e+00 8.723977208137512207e-01 1.000551462173461914e+00
1.127000000000000000e+03 2.788464355468750000e+01 -1.768941879272460938e+01 -4.938128471374511719e+00 -1.149433255195617676e-01 -1.515921473503112793e+00 8.939226865768432617e-01
1.128000000000000000e+03 2.555429458618164062e+01 -1.471877288818359375e+01 -4.291633605957031250e+00 8.289359211921691895e-01 -1.038809299468994141e+00 -1.201093122363090515e-01
1.129000000000000000e+03 3.999964904785156250e+01 -3.538041305541992188e+01 -1.429974436759948730e-01 -1.219089999794960022e-01 -7.947193086147308350e-02 -1.314031630754470825e-01
1.130000000000000000e+03 4.745673370361328125e+01 -1.500326824188232422e+01 -1.775798559188842773e+00 -1.360167264938354492e-01 -5.735446214675903320e-01 -6.826687455177307129e-01
1.131000000000000000e+03 4.501483154296875000e+01 -1.594510841369628906e+01 -1.778811931610107422e+00 -1.561256349086761475e-01 -5.804812312126159668e-01 -6.030296087265014648e-01
1.132000000000000000e+03 6.009037399291992188e+01 -9.191532135009765625e+00 -3.509615898132324219e+00 -1.145758509635925293e+00 -1.396612405776977539e+00 -1.979604005813598633e+00
1.133000000000000000e+03 5.809413909912109375e+01 -2.724959754943847656e+01 -8.964594006538391113e-01 1.040437519550323486e-01 -2.377246916294097900e-01 -2.377003431320190430e-01
1.134000000000000000e+03 2.303126335144042969e+01 -3.006107902526855469e+01 8.448529243469238281e-02 2.878938913345336914e-01 1.117137521505355835e-01 -2.418253123760223389e-01
1.135000000000000000e+03 2.216961097717285156e+01 -1.278989028930664062e+01 -3.266052484512329102e+00 2.013104438781738281e+00 -3.758844137191772461e-01 1.204765200614929199e+00
1.136000000000000000e+03 3.734122848510742188e+01 -1.738310241699218750e+01 -2.225346565246582031e+00 4.351956397294998169e-02 -6.545481085777282715e-01 -3.232783377170562744e-01
1.137000000000000000e+03 3.609475708007812500e+01 -1.863820075988769531e+01 -2.607082366943359375e+00 2.186142653226852417e-02 -7.755663394927978516e-01 -1.341630369424819946e-01
1.138000000000000000e+03 6.357617187500000000e+01 -2.042098999023437500e+01 7.977578639984130859e-01 2.437074899673461914e+00 9.704498648643493652e-01 1.413600087165832520e+00
1.139000000000000000e+03 2.519657707214355469e+01 -1.696272277832031250e+01 -6.421357154846191406e+00 -3.010504543781280518e-01 -2.016722202301025391e+00 1.620228767395019531e+00
1.140000000000000000e+03 5.268067932128906250e+01 -1.099739933013916016e+01 -1.972750544548034668e+00 -2.270016074180603027e-01 -6.599256396293640137e-01 -8.028031587600708008e-01
1.141000000000000000e+03 5.496128845214843750e+01 -9.667082786560058594e+00 -2.254307031631469727e+00 -2.569504678249359131e-01 -7.533771991729736328e-01 -8.864552974700927734e-01
1.142000000000000000e+03 2.036213493347167969e+01 -1.063154220581054688e+01 2.581237077713012695e+00 1.376194238662719727e+00 1.187229394912719727e+00 3.622661352157592773e+00
1.143000000000000000e+03 2.162670707702636719e+01 -2.956628799438476562e+01 1.293818801641464233e-01 4.683174788951873779e-01 1.793098151683807373e-01 -3.294671177864074707e-01
1.144000000000000000e+03 6.533276367187500000e+01 -2.034065246582031250e+01 2.433148324489593506e-01 5.350618362426757812e+00 1.678179979324340820e+00 1.821607351303100586e+00
1.145000000000000000e+03 2.429330444335937500e+01 -3.042921066284179688e+01 5.045786127448081970e-02 2.066920995712280273e-01 7.714498788118362427e-02 -1.713119000196456909e-01
1.146000000000000000e+03 3.633859252929687500e+01 -3.409743499755859375e+01 -1.565074473619461060e-01 -3.058134391903877258e-02 -5.612663924694061279e-02 -1.257836446166038513e-02
1.147000000000000000e+03 4.935850524902343750e+01 -1.556648063659667969e+01 -1.783166289329528809e+00 -3.146794736385345459e-01 -6.293537020683288574e-01 -7.846740484237670898e-01
1.148000000000000000e+03 3.350037384033203125e+01 -3.435184860229492188e+01 -1.206331476569175720e-01 -1.087132934480905533e-02 -3.945134207606315613e-02 9.685932658612728119e-03
1.149000000000000000e+03 6.956388854980468750e+01 -1.495764255523681641e+01 6.489447355270385742e-01 1.382960033416748047e+01 4.343563556671142578e+00 -3.725489974021911621e-02
1.150000000000000000e+03 5.659789657592773438e+01 -1.148362731933593750e+01 -2.423303604125976562e+00 -8.692454099655151367e-01 -9.877646565437316895e-01 -1.450963139533996582e+00
1.151000000000000000e+03 5.577372360229492188e+01 -1.058214378356933594e+01 -2.378710031509399414e+00 -4.926672875881195068e-01 -8.614132404327392578e-01 -1.146416187286376953e+00
1.152000000000000000e+03 5.344352340698242188e+01 -3.042580795288085938e+01 -8.432735800743103027e-01 -3.125688433647155762e-01 -3.467527329921722412e-01 -5.199099183082580566e-01
1.153000000000000000e+03 1.763209533691406250e+01 -2.449690437316894531e+01 7.039901018142700195e-01 9.917508363723754883e-01 5.087223052978515625e-01 -8.566921949386596680e-01
1.154000000000000000e+03 1.870512962341308594e+01 -2.802229309082031250e+01 1.860538423061370850e-01 9.220306277275085449e-01 3.324253559112548828e-01 -4.810133278369903564e-01
1.155000000000000000e+03 5.468866729736328125e+01 -2.959359931945800781e+01 -9.010210633277893066e-01 -2.294255495071411133e-01 -3.391339778900146484e-01 -5.199364423751831055e-01
1.156000000000000000e+03 6.441943359375000000e+01 -2.145187377929687500e+01 7.367530465126037598e-02 3.911340713500976562e+00 1.195504784584045410e+00 1.470794081687927246e+00
1.157000000000000000e+03 4.947951507568359375e+01 -3.196921730041503906e+01 -6.456640362739562988e-01 -3.292979598045349121e-01 -2.924886047840118408e-01 -4.851369559764862061e-01
1.158000000000000000e+03 2.936844635009765625e+01 -1.679490470886230469e+01 -3.910130977630615234e+00 2.581325471401214600e-01 -1.095599532127380371e+00 6.176262348890304565e-02
1.159000000000000000e+03 5.916036224365234375e+01 -8.329703330993652344e+00 -3.125715970993041992e+00 -6.235427856445312500e-01 -1.124777555465698242e+00 -1.354748725891113281e+00
1.160000000000000000e+03 5.105340576171875000e+01 -1.326793575286865234e+01 -1.883805274963378906e+00 -2.750079631805419922e-01 -6.476439833641052246e-01 -8.330909609794616699e-01
1.161000000000000000e+03 2.672132682800292969e+01 -1.619169616699218750e+01 -4.906189441680908203e+00 3.074424266815185547e-01 -1.379624128341674805e+00 3.779264092445373535e-01
1.162000000000000000e+03 1.372840690612792969e+01 -2.234659194946289062e+01 6.867422461509704590e-01 2.146852970123291016e+00 8.500785827636718750e-01 -1.310961842536926270e+00
1.163000000000000000e+03 1.469635391235351562e+01 -2.334070014953613281e+01 6.121051907539367676e-01 1.813497781753540039e+00 7.276809215545654297e-01 -1.079296946525573730e+00
1.164000000000000000e+03 1.664837074279785156e+01 -2.345598602294921875e+01 8.660265207290649414e-01 1.202952504158020020e+00 6.206936836242675781e-01 -1.001850724220275879e+00
1.165000000000000000e+03 1.658341598510742188e+01 -2.546956825256347656e+01 4.365698993206024170e-01 1.284158945083618164e+00 5.162186622619628906e-01 -7.727110981941223145e-01
1.166000000000000000e+03 1.564763927459716797e+01 -2.436310195922851562e+01 5.087084174156188965e-01 1.473421573638916016e+00 5.946390032768249512e-01 -9.463003873825073242e-01
1.167000000000000000e+03 1.312680840492248535e+00 -4.017449188232421875e+01 -9.630096144974231720e-03 6.417035460472106934e-01 1.896220445632934570e-01 2.999813668429851532e-02
1.168000000000000000e+03 7.074781656265258789e-01 3.741553878784179688e+01 1.133325882256031036e-02 -1.005776524543762207e+00 -2.983329594135284424e-01 -1.002164278179407120e-02
1.169000000000000000e+03 7.185904979705810547e-01 3.465323257446289062e+01 3.889468498528003693e-03 -1.015447497367858887e+00 -3.034673929214477539e-01 4.514457250479608774e-04
1.170000000000000000e+03 7.316799759864807129e-01 3.325372314453125000e+01 7.272218936122953892e-04 -1.009893298149108887e+00 -3.027498424053192139e-01 5.117201711982488632e-03
1.171000000000000000e+03 6.739752292633056641e-01 2.759478378295898438e+01 2.919450635090470314e-04 -9.633436799049377441e-01 -2.889155149459838867e-01 3.254062030464410782e-03
1.172000000000000000e+03 6.628671288490295410e-01 2.618294715881347656e+01 -4.103173268958926201e-04 -9.557896256446838379e-01 -2.868599891662597656e-01 3.247342538088560104e-03
1.173000000000000000e+03 8.701975345611572266e-01 -3.605801391601562500e+01 -7.634053006768226624e-03 4.609071314334869385e-01 1.359819173812866211e-01 5.940537899732589722e-02
1.174000000000000000e+03 2.464854955673217773e+00 -3.306899261474609375e+01 -7.573290169239044189e-02 3.131285905838012695e-01 7.121870666742324829e-02 2.644489407539367676e-01
1.175000000000000000e+03 3.320610523223876953e+00 2.595057868957519531e+01 -5.474206991493701935e-04 -7.261621952056884766e-01 -2.180128842592239380e-01 2.770834229886531830e-02
1.176000000000000000e+03 3.251646280288696289e+00 2.454173851013183594e+01 1.481952611356973648e-03 -7.145620584487915039e-01 -2.139240205287933350e-01 2.602028660476207733e-02
1.177000000000000000e+03 2.243224143981933594e+00 3.316078186035156250e+01 6.610510405153036118e-03 -8.860339522361755371e-01 -2.638270258903503418e-01 1.846840977668762207e-02
1.178000000000000000e+03 3.219651222229003906e+00 3.918587875366210938e+01 7.905080914497375488e-03 -9.070948958396911621e-01 -2.697569429874420166e-01 3.058492438867688179e-03
1.179000000000000000e+03 2.214793920516967773e+00 -3.021430015563964844e+01 -9.214700758457183838e-02 -2.454759366810321808e-02 -3.500838205218315125e-02 3.787531256675720215e-01
1.180000000000000000e+03 2.057810068130493164e+00 -2.739538574218750000e+01 -1.194545626640319824e-01 -5.159350633621215820e-01 -1.906168907880783081e-01 5.380402207374572754e-01
1.181000000000000000e+03 1.967318058013916016e+00 -2.172842407226562500e+01 -1.237590238451957703e-01 -2.107530593872070312e+00 -6.693868637084960938e-01 9.924290180206298828e-01
1.182000000000000000e+03 2.563137531280517578e+00 -3.723765563964843750e+01 -4.261501878499984741e-02 5.687621235847473145e-01 1.578441411256790161e-01 1.336850076913833618e-01
1.183000000000000000e+03 5.131986141204833984e-01 7.827935695648193359e+00 4.196400404907763004e-04 -3.278090357780456543e-01 -9.821681678295135498e-02 3.908514976501464844e-02
1.184000000000000000e+03 6.286204457283020020e-01 2.052538299560546875e+01 7.934584864415228367e-04 -9.181271791458129883e-01 -2.752001285552978516e-01 6.053713150322437286e-03
1.185000000000000000e+03 6.229204535484313965e-01 1.910887527465820312e+01 2.120864344760775566e-03 -8.999960422515869141e-01 -2.693625390529632568e-01 9.133761748671531677e-03
1.186000000000000000e+03 6.073773503303527832e-01 1.486466312408447266e+01 1.953359926119446754e-03 -7.824089527130126953e-01 -2.341366857290267944e-01 2.553223259747028351e-02
1.187000000000000000e+03 5.976055860519409180e-01 1.345118045806884766e+01 3.166327252984046936e-03 -7.151523232460021973e-01 -2.135958075523376465e-01 3.125388175249099731e-02
1.188000000000000000e+03 3.401237726211547852e+00 -3.951670074462890625e+01 -3.266766294836997986e-02 6.058499217033386230e-01 1.719546765089035034e-01 6.520650535821914673e-02
1.189000000000000000e+03 4.091226577758789062e+00 -3.753729629516601562e+01 -1.092912331223487854e-01 6.249217987060546875e-01 1.546891778707504272e-01 1.639392673969268799e-01
1.190000000000000000e+03 2.594474315643310547e+00 -3.452953338623046875e+01 -4.623489826917648315e-02 4.206493198871612549e-01 1.123243272304534912e-01 2.052985578775405884e-01
1.191000000000000000e+03 2.328975915908813477e+00 -3.163147544860839844e+01 -5.016425624489784241e-02 1.574307531118392944e-01 3.217994794249534607e-02 3.131480813026428223e-01
1.192000000000000000e+03 3.412791967391967773e+00 -2.722294998168945312e+01 -1.852854192256927490e-01 -6.496638059616088867e-02 -7.507554441690444946e-02 7.398467659950256348e-01
1.193000000000000000e+03 1.979666948318481445e+00 -2.315390396118164062e+01 -7.540573179721832275e-02 -1.638401627540588379e+00 -5.141422152519226074e-01 8.809782266616821289e-01
1.194000000000000000e+03 2.014656305313110352e+00 -2.598583793640136719e+01 -6.795903295278549194e-02 -8.415715098381042480e-01 -2.728591859340667725e-01 6.353836059570312500e-01
1.195000000000000000e+03 3.238105773925781250e+00 -2.011527252197265625e+01 -8.261189609766006470e-02 -1.081108093261718750e+00 -3.491159975528717041e-01 1.410061836242675781e+00
1.196000000000000000e+03 6.287795901298522949e-01 -1.907939720153808594e+01 4.971553385257720947e-02 -5.007120609283447266e+00 -1.487221598625183105e+00 4.261347353458404541e-01
1.197000000000000000e+03 1.892766952514648438e+00 -1.888225746154785156e+01 1.451482530683279037e-02 -3.273336410522460938e+00 -9.776464700698852539e-01 9.992907047271728516e-01
1.198000000000000000e+03 1.736495733261108398e+00 -1.610952758789062500e+01 2.437682449817657471e-01 -4.436300754547119141e+00 -1.257759690284729004e+00 6.080616116523742676e-01
1.199000000000000000e+03 6.089611053466796875e-01 -1.204917716979980469e+01 1.133299022912979126e-01 -6.538392543792724609e+00 -1.927518725395202637e+00 -2.944252789020538330e-01
1.200000000000000000e+03 1.844316959381103516e+00 -1.197266960144042969e+01 2.580164074897766113e-01 -4.118933200836181641e+00 -1.158275008201599121e+00 -7.622736692428588867e-01
1.201000000000000000e+03 1.680713295936584473e+00 -6.207994461059570312e+00 -1.379991769790649414e-01 -1.731239795684814453e+00 -5.607717037200927734e-01 -1.063598990440368652e+00
1.202000000000000000e+03 1.282536387443542480e+00 -3.433262586593627930e+00 -1.210211142897605896e-01 -7.026776075363159180e-01 -2.471096217632293701e-01 -5.184832215309143066e-01
1.203000000000000000e+03 4.928964078426361084e-01 -4.963788509368896484e+00 -4.760190099477767944e-02 -1.534978866577148438e+00 -4.747742116451263428e-01 -2.943475842475891113e-01
1.204000000000000000e+03 4.658747911453247070e-01 5.015042781829833984e+00 -2.557055559009313583e-03 -1.263356059789657593e-01 -3.866779804229736328e-02 2.738766930997371674e-02
1.205000000000000000e+03 5.347632884979248047e+00 4.081673622131347656e+00 -1.215907409787178040e-01 -7.623983919620513916e-02 -5.934917554259300232e-02 2.074442356824874878e-01
1.206000000000000000e+03 1.705371260643005371e+00 1.049566364288330078e+01 5.411282647401094437e-03 -4.609011113643646240e-01 -1.366469562053680420e-01 1.155439093708992004e-01
1.207000000000000000e+03 5.634871721267700195e-01 1.062965011596679688e+01 1.937584718689322472e-03 -5.393063426017761230e-01 -1.612106263637542725e-01 3.953024744987487793e-02
1.208000000000000000e+03 1.799461960792541504e+00 1.331360912322998047e+01 1.176699902862310410e-02 -6.026614904403686523e-01 -1.772683411836624146e-01 9.259729832410812378e-02
1.209000000000000000e+03 1.880551695823669434e+00 2.040717887878417969e+01 5.415406078100204468e-03 -7.912050485610961914e-01 -2.357368916273117065e-01 2.217613905668258667e-02
1.210000000000000000e+03 1.863116860389709473e+00 1.898439598083496094e+01 7.900601252913475037e-03 -7.704665660858154297e-01 -2.287697792053222656e-01 3.039349243044853210e-02
1.211000000000000000e+03 1.955501794815063477e+00 2.465249824523925781e+01 6.124115316197276115e-04 -8.314700722694396973e-01 -2.492572963237762451e-01 1.339534670114517212e-02
1.212000000000000000e+03 2.267580986022949219e+01 -5.891189575195312500e+00 -1.115768700838088989e-01 4.837871551513671875e+00 1.417888402938842773e+00 1.045235157012939453e+00
1.213000000000000000e+03 2.211164283752441406e+01 -4.965614795684814453e+00 -3.761597573757171631e-01 3.116766452789306641e+00 8.221819996833801270e-01 1.794354021549224854e-01
1.214000000000000000e+03 2.180804824829101562e+01 -5.102803230285644531e+00 -3.197686970233917236e-01 2.692064523696899414e+00 7.116886973381042480e-01 -4.174586385488510132e-02
1.215000000000000000e+03 2.261285972595214844e+01 -6.105971813201904297e+00 4.011856392025947571e-03 5.207631111145019531e+00 1.563492894172668457e+00 1.083860635757446289e+00
1.216000000000000000e+03 2.296566009521484375e+01 -6.302091121673583984e+00 5.936434268951416016e-01 5.745237827301025391e+00 1.901664376258850098e+00 2.051837682723999023e+00
1.217000000000000000e+03 2.237719345092773438e+01 -5.923306941986083984e+00 -2.428227216005325317e-01 4.618608951568603516e+00 1.312735915184020996e+00 5.619965791702270508e-01
1.218000000000000000e+03 1.965130996704101562e+01 -7.851082324981689453e+00 4.927122116088867188e+00 -1.003044962882995605e+00 1.177223086357116699e+00 -8.210322856903076172e-01
1.219000000000000000e+03 1.921249961853027344e+01 -1.091208362579345703e+01 1.682974457740783691e+00 -9.131686091423034668e-01 2.309417575597763062e-01 3.482418775558471680e+00
1.220000000000000000e+03 2.005036354064941406e+01 -8.588037490844726562e+00 7.357741832733154297e+00 -1.131677746772766113e+00 1.867819309234619141e+00 4.099152386188507080e-01
1.221000000000000000e+03 1.976252937316894531e+01 -8.896801948547363281e+00 6.626374244689941406e+00 -1.390008687973022461e+00 1.570909738540649414e+00 1.409092545509338379e+00
1.222000000000000000e+03 1.953279495239257812e+01 -7.682659149169921875e+00 4.183368682861328125e+00 -9.452834129333496094e-01 9.714255928993225098e-01 -8.410030603408813477e-01
1.223000000000000000e+03 1.938694190979003906e+01 -8.835557937622070312e+00 5.747965812683105469e+00 -1.819665551185607910e+00 1.178490042686462402e+00 1.062832713127136230e+00
1.224000000000000000e+03 2.204721260070800781e+01 -4.708443641662597656e+00 -3.832092583179473877e-01 2.784168720245361328e+00 7.202878594398498535e-01 1.700736582279205322e-01
1.225000000000000000e+03 2.036382865905761719e+01 -8.937802314758300781e+00 8.465352058410644531e+00 -1.963875144720077515e-01 2.480689287185668945e+00 1.848514318466186523e+00
1.226000000000000000e+03 2.147015762329101562e+01 -3.497182846069335938e+00 -4.222068190574645996e-01 1.682236433029174805e+00 3.780089020729064941e-01 7.294248789548873901e-02
1.227000000000000000e+03 2.149577713012695312e+01 -1.476230621337890625e+00 -4.053370654582977295e-01 1.289919614791870117e+00 2.653747498989105225e-01 2.736153900623321533e-01
1.228000000000000000e+03 2.069675445556640625e+01 -1.996425509452819824e+00 -3.510968983173370361e-01 9.459205865859985352e-01 1.784471124410629272e-01 9.548192471265792847e-02
1.229000000000000000e+03 1.942931365966796875e+01 -1.395587205886840820e+00 -2.699997425079345703e-01 2.599285244941711426e-01 -3.021365264430642128e-03 1.071326881647109985e-01
1.230000000000000000e+03 2.463408851623535156e+01 -8.700995445251464844e+00 5.608132362365722656e+00 1.754920125007629395e+00 2.208915710449218750e+00 6.464872360229492188e-01
1.231000000000000000e+03 9.335012435913085938e+00 -2.844914913177490234e+00 -1.479552745819091797e+00 5.332329273223876953e-01 -2.838959395885467529e-01 1.136258766055107117e-01
1.232000000000000000e+03 1.078468132019042969e+01 -3.928108692169189453e+00 -1.101809501647949219e+00 7.034161090850830078e-01 -1.195180192589759827e-01 6.621407866477966309e-01
1.233000000000000000e+03 1.350289344787597656e+01 -5.767657279968261719e+00 2.783634662628173828e-01 -2.317881882190704346e-01 1.397258322685956955e-02 1.468213081359863281e+00
1.234000000000000000e+03 1.409225368499755859e+01 -4.178686618804931641e+00 -3.141143918037414551e-01 -3.548255860805511475e-01 -2.006819993257522583e-01 1.023779988288879395e+00
1.235000000000000000e+03 6.178006649017333984e+00 2.611985921859741211e+00 -1.919498741626739502e-01 -3.623747080564498901e-02 -6.845620274543762207e-02 1.713064908981323242e-01
1.236000000000000000e+03 4.107176303863525391e+00 3.268542766571044922e+00 -9.278887510299682617e-02 -6.425479799509048462e-02 -4.711310192942619324e-02 1.421301811933517456e-01
1.237000000000000000e+03 7.686358451843261719e+00 2.675030946731567383e+00 -2.635713517665863037e-01 -3.743485733866691589e-02 -9.030186384916305542e-02 2.037632316350936890e-01
1.238000000000000000e+03 6.139049530029296875e+00 3.351329803466796875e+00 -1.710884869098663330e-01 -4.803818836808204651e-02 -6.573800742626190186e-02 2.000904381275177002e-01
1.239000000000000000e+03 3.531564235687255859e+00 3.275370836257934570e+00 -7.510400563478469849e-02 -6.460035592317581177e-02 -4.191130772233009338e-02 1.224527806043624878e-01
1.240000000000000000e+03 4.076146602630615234e+00 2.580182790756225586e+00 -1.013562008738517761e-01 -3.922096639871597290e-02 -4.217315092682838440e-02 1.152660697698593140e-01
1.241000000000000000e+03 3.042603969573974609e+00 3.496560096740722656e+00 -5.501123890280723572e-02 -7.568878680467605591e-02 -3.921000659465789795e-02 1.089250221848487854e-01
1.242000000000000000e+03 3.407391548156738281e+00 2.647455215454101562e+00 -7.514534890651702881e-02 -4.798323661088943481e-02 -3.693857416510581970e-02 9.921507537364959717e-02
1.243000000000000000e+03 4.739163875579833984e+00 3.297999143600463867e+00 -1.166598871350288391e-01 -5.796385928988456726e-02 -5.238712579011917114e-02 1.617480218410491943e-01
1.244000000000000000e+03 9.290474891662597656e+00 2.733067035675048828e+00 -3.317735791206359863e-01 -4.710763320326805115e-02 -1.136643588542938232e-01 2.086014449596405029e-01
1.245000000000000000e+03 7.658443450927734375e+00 3.433877706527709961e+00 -2.285689711570739746e-01 -4.242444783449172974e-02 -8.129803091287612915e-02 2.302846163511276245e-01
1.246000000000000000e+03 8.367019653320312500e+00 4.274268150329589844e+00 -2.190636545419692993e-01 -4.574489966034889221e-02 -7.944256812334060669e-02 2.646346688270568848e-01
1.247000000000000000e+03 1.084859085083007812e+01 2.456898927688598633e+00 -3.989472687244415283e-01 -5.143259465694427490e-02 -1.351139694452285767e-01 1.804758757352828979e-01
1.248000000000000000e+03 1.035812759399414062e+01 3.561421632766723633e+00 -3.187869489192962646e-01 -3.758704662322998047e-02 -1.069122031331062317e-01 2.270949631929397583e-01
1.249000000000000000e+03 2.024994468688964844e+01 -9.786388397216796875e+00 5.082257747650146484e+00 3.135088980197906494e-01 1.618730068206787109e+00 2.978481292724609375e+00
1.250000000000000000e+03 1.306078147888183594e+01 -4.654594421386718750e+00 -3.305379450321197510e-01 -3.781620040535926819e-02 -1.105062440037727356e-01 1.140583395957946777e+00
1.251000000000000000e+03 1.092466831207275391e+01 -3.098125219345092773e+00 -1.312693119049072266e+00 4.016919732093811035e-01 -2.733003497123718262e-01 5.167314410209655762e-01
1.252000000000000000e+03 1.321250057220458984e+01 6.486801624298095703e+00 -2.399373650550842285e-01 9.674391895532608032e-02 -4.295803233981132507e-02 2.540214061737060547e-01
1.253000000000000000e+03 1.670744895935058594e+01 6.718284487724304199e-01 -3.648230731487274170e-01 -1.662815213203430176e-01 -1.593313813209533691e-01 9.621150791645050049e-02
1.254000000000000000e+03 1.664153861999511719e+01 1.943531155586242676e+00 -4.066855609416961670e-01 -1.369462460279464722e-01 -1.630895435810089111e-01 3.990481793880462646e-02
1.255000000000000000e+03 4.597390174865722656e+00 -3.862805366516113281e+00 -7.273914217948913574e-01 6.904409825801849365e-02 -1.975042074918746948e-01 -1.132814526557922363e+00
1.256000000000000000e+03 2.107664346694946289e+00 -3.248419284820556641e+00 -2.257921844720840454e-01 -5.726652145385742188e-01 -2.395372241735458374e-01 -7.201124429702758789e-01
1.257000000000000000e+03 4.336327075958251953e+00 -8.802100181579589844e+00 -8.163057267665863037e-02 5.929498001933097839e-02 -6.700678262859582901e-03 -1.912758946418762207e+00
1.258000000000000000e+03 1.485005736351013184e+00 -4.768041610717773438e+00 -8.727175742387771606e-02 -1.174316525459289551e+00 -3.784764707088470459e-01 -7.685647606849670410e-01
1.259000000000000000e+03 6.959363937377929688e+00 -2.772669315338134766e+00 -1.315322279930114746e+00 4.542326927185058594e-01 -2.583268880844116211e-01 -5.387572646141052246e-01
1.260000000000000000e+03 8.513858795166015625e+00 -3.631451845169067383e+00 -1.322204232215881348e+00 7.955139279365539551e-01 -1.580071151256561279e-01 -1.495310366153717041e-01
1.261000000000000000e+03 5.396057128906250000e+00 -3.744798898696899414e+00 -9.190313816070556641e-01 2.816488146781921387e-01 -1.912147700786590576e-01 -1.097262978553771973e+00
1.262000000000000000e+03 6.971841812133789062e+00 -3.599434614181518555e+00 -1.205592751502990723e+00 6.377303004264831543e-01 -1.703587472438812256e-01 -6.728034019470214844e-01
1.263000000000000000e+03 1.170771408081054688e+01 3.531617879867553711e+00 -3.712410330772399902e-01 -1.884486712515354156e-02 -1.170257702469825745e-01 1.967354267835617065e-01
1.264000000000000000e+03 1.534297752380371094e+01 5.034092426300048828e+00 -4.226813912391662598e-01 -4.366365447640419006e-02 -1.399035155773162842e-01 1.742759197950363159e-01
1.265000000000000000e+03 1.247971820831298828e+01 3.464441537857055664e+00 -3.879339098930358887e-01 -2.124243602156639099e-02 -1.227528974413871765e-01 1.706549674272537231e-01
1.266000000000000000e+03 1.795803260803222656e+01 1.778992891311645508e+00 -3.553972840309143066e-01 -1.277559399604797363e-01 -1.449459642171859741e-01 4.030553251504898071e-02
1.267000000000000000e+03 1.925252914428710938e+01 4.754498004913330078e-01 -2.688024044036865234e-01 1.648623794317245483e-01 -3.118200413882732391e-02 1.558328121900558472e-01
1.268000000000000000e+03 1.450194549560546875e+01 -5.293686866760253906e+00 3.615612089633941650e-01 -6.049485802650451660e-01 -7.301621139049530029e-02 1.239245772361755371e+00
1.269000000000000000e+03 2.033840560913085938e+01 -1.532175898551940918e+00 -3.158057034015655518e-01 6.754903197288513184e-01 1.079053878784179688e-01 1.078908368945121765e-01
1.270000000000000000e+03 1.994862937927246094e+01 -9.721040725708007812e-01 -2.933296263217926025e-01 4.835853278636932373e-01 5.707671493291854858e-02 1.332450509071350098e-01
1.271000000000000000e+03 1.419884395599365234e+01 -6.041687011718750000e+00 5.936862826347351074e-01 -4.975923299789428711e-01 2.882817946374416351e-02 1.562870979309082031e+00
1.272000000000000000e+03 1.002496051788330078e+01 -3.793028593063354492e+00 -1.236694812774658203e+00 7.494419217109680176e-01 -1.461758762598037720e-01 3.600690364837646484e-01
1.273000000000000000e+03 9.270919799804687500e+00 -3.697225093841552734e+00 -1.308627843856811523e+00 8.649271726608276367e-01 -1.331101953983306885e-01 1.544883102178573608e-01
1.274000000000000000e+03 1.446338844299316406e+01 2.409236431121826172e+00 -4.488289356231689453e-01 -7.611889392137527466e-02 -1.574843525886535645e-01 1.094967648386955261e-01
1.275000000000000000e+03 1.421021270751953125e+01 3.449390411376953125e+00 -4.328400194644927979e-01 -3.711331263184547424e-02 -1.409859955310821533e-01 1.262702047824859619e-01
1.276000000000000000e+03 1.379038715362548828e+01 -4.960315704345703125e+00 -2.467672340571880341e-02 -2.362177968025207520e-01 -7.826835662126541138e-02 1.259868025779724121e+00
1.277000000000000000e+03 1.075188732147216797e+01 4.575101852416992188e+00 -2.860502302646636963e-01 -5.403599236160516739e-03 -8.743614703416824341e-02 2.574518918991088867e-01
1.278000000000000000e+03 1.834811210632324219e+01 1.096665263175964355e+00 -3.030148744583129883e-01 -3.659332171082496643e-02 -1.018824577331542969e-01 8.914114534854888916e-02
1.279000000000000000e+03 2.316629600524902344e+01 -1.076330661773681641e+01 1.694289684295654297e+00 4.254237651824951172e+00 1.784558176994323730e+00 -8.298088312149047852e-01
1.280000000000000000e+03 2.101962661743164062e+01 -1.102008628845214844e+01 8.579490780830383301e-01 2.481165647506713867e+00 1.001734375953674316e+00 2.722289085388183594e+00
1.281000000000000000e+03 1.119918060302734375e+01 1.613638114929199219e+01 2.416464537382125854e-01 9.159615635871887207e-02 9.997277706861495972e-02 1.841221898794174194e-01
1.282000000000000000e+03 3.971524047851562500e+01 -1.599419307708740234e+01 -1.880611538887023926e+00 8.037784695625305176e-02 -5.400701165199279785e-01 -4.792004525661468506e-01
1.283000000000000000e+03 4.122409439086914062e+01 -1.697782707214355469e+01 -1.916152596473693848e+00 4.778658971190452576e-02 -5.605098009109497070e-01 -4.502741098403930664e-01
1.284000000000000000e+03 3.079689598083496094e+01 -1.584264659881591797e+01 -2.955931663513183594e+00 2.910170853137969971e-01 -7.994743585586547852e-01 -4.100382924079895020e-01
1.285000000000000000e+03 1.275232028961181641e+01 -2.134286308288574219e+01 7.894746065139770508e-01 2.756652355194091797e+00 1.063838124275207520e+00 -1.476021766662597656e+00
1.286000000000000000e+03 2.866103553771972656e+01 5.731986999511718750e+00 3.514622449874877930e-01 1.505564093589782715e+00 5.571079254150390625e-01 7.036618590354919434e-01
1.287000000000000000e+03 2.688854026794433594e+01 6.224661827087402344e+00 4.883932173252105713e-01 1.716128706932067871e+00 6.613565683364868164e-01 6.386482119560241699e-01
1.288000000000000000e+03 1.911730957031250000e+01 -1.341360378265380859e+01 -5.335248470306396484e+00 -1.748627543449401855e+00 -2.125162839889526367e+00 3.729805946350097656e+00
1.289000000000000000e+03 5.076185226440429688e+01 4.663127899169921875e+00 6.381745934486389160e-01 2.492560148239135742e-01 2.662291824817657471e-01 2.099052667617797852e-01
1.290000000000000000e+03 5.168779373168945312e+01 3.584651708602905273e+00 5.310257077217102051e-01 3.294682204723358154e-01 2.581481933593750000e-01 2.098646461963653564e-01
1.291000000000000000e+03 2.818778991699218750e+01 1.188805580139160156e+01 -1.840190961956977844e-02 1.258512973785400391e+00 3.720333278179168701e-01 8.351041078567504883e-01
1.292000000000000000e+03 2.406842994689941406e+01 -1.546501922607421875e+01 -6.104242801666259766e+00 3.602578043937683105e-01 -1.723195433616638184e+00 1.209180593490600586e+00
1.293000000000000000e+03 2.298419570922851562e+01 -1.410234832763671875e+01 -5.341437816619873047e+00 1.150578856468200684e+00 -1.257257699966430664e+00 9.988089203834533691e-01
1.294000000000000000e+03 4.682504653930664062e+01 -1.390479660034179688e+01 -1.699222564697265625e+00 -9.985239803791046143e-02 -5.397225022315979004e-01 -6.559967994689941406e-01
1.295000000000000000e+03 4.093127441406250000e+01 -1.582071876525878906e+01 -1.845351696014404297e+00 6.175129115581512451e-02 -5.350801348686218262e-01 -4.929707646369934082e-01
1.296000000000000000e+03 4.914648437500000000e+01 -1.280920600891113281e+01 -1.751754403114318848e+00 -1.259978562593460083e-01 -5.633256435394287109e-01 -6.885783672332763672e-01
1.297000000000000000e+03 3.590941238403320312e+01 -1.505491352081298828e+01 -1.903713464736938477e+00 1.347561776638031006e-01 -5.306871533393859863e-01 -5.126579999923706055e-01
1.298000000000000000e+03 1.362809181213378906e+01 7.769227981567382812e+00 -1.314084231853485107e-01 1.703213453292846680e-01 1.167387422174215317e-02 2.308461964130401611e-01
1.299000000000000000e+03 5.144070434570312500e+01 -3.629246139526367188e+01 2.572399675846099854e-01 -1.404312103986740112e-01 3.504262492060661316e-02 -2.081830054521560669e-01
1.300000000000000000e+03 5.080730438232421875e+01 -1.061862754821777344e+01 -1.765559911727905273e+00 -8.424774557352066040e-02 -5.549423098564147949e-01 -6.219455003738403320e-01
1.301000000000000000e+03 4.618941116333007812e+01 -1.281176948547363281e+01 -1.596944570541381836e+00 -3.575506433844566345e-02 -4.898099005222320557e-01 -5.683177113533020020e-01
1.302000000000000000e+03 2.538880920410156250e+01 -1.583367252349853516e+01 -5.523274421691894531e+00 3.634752333164215088e-01 -1.547939658164978027e+00 6.938537359237670898e-01
1.303000000000000000e+03 2.421010589599609375e+01 -1.441001510620117188e+01 -4.844401836395263672e+00 1.123275637626647949e+00 -1.116337895393371582e+00 3.201234638690948486e-01
1.304000000000000000e+03 4.252985417842864990e-01 3.599515199661254883e+00 -3.404587740078568459e-03 -5.497385188937187195e-02 -1.751353219151496887e-02 1.826495118439197540e-02
1.305000000000000000e+03 2.804832267761230469e+01 -1.651647949218750000e+01 -4.315145492553710938e+00 2.657395005226135254e-01 -1.214821815490722656e+00 1.680989563465118408e-01
1.306000000000000000e+03 6.430448913574218750e+01 -2.362099075317382812e+01 -5.027583241462707520e-01 4.024988174438476562e+00 1.056668996810913086e+00 1.005659341812133789e+00
1.307000000000000000e+03 6.528855133056640625e+01 -2.251744270324707031e+01 -4.600189626216888428e-01 5.180021286010742188e+00 1.416000723838806152e+00 1.205221176147460938e+00
1.308000000000000000e+03 3.833511352539062500e+01 -1.495449733734130859e+01 -1.764947295188903809e+00 9.639660269021987915e-02 -5.005652308464050293e-01 -5.049411654472351074e-01
1.309000000000000000e+03 2.470960426330566406e+01 -3.330267333984375000e+01 -4.775144159793853760e-02 3.044356107711791992e-01 7.700524479150772095e-02 -1.774227619171142578e-01
1.310000000000000000e+03 5.581491851806640625e+01 -3.077759742736816406e+01 -4.863358139991760254e-01 1.279669553041458130e-01 -1.075106635689735413e-01 -1.742173284292221069e-01
1.311000000000000000e+03 4.388634490966796875e+01 6.457665443420410156e+00 2.329871803522109985e-01 4.928766489028930664e-01 2.177591472864151001e-01 1.319507509469985962e-02
1.312000000000000000e+03 8.791091918945312500e+00 -9.692219734191894531e+00 2.465635240077972412e-01 5.391809940338134766e+00 1.691512107849121094e+00 4.215976297855377197e-01
1.313000000000000000e+03 8.547530174255371094e+00 -1.385535240173339844e+01 4.021039009094238281e+00 1.285469150543212891e+01 5.062718868255615234e+00 7.892901897430419922e-01
1.314000000000000000e+03 7.564068794250488281e+00 -1.472079944610595703e+01 3.387347936630249023e+00 6.361417770385742188e+00 2.924629688262939453e+00 3.797988593578338623e-01
1.315000000000000000e+03 2.690678787231445312e+01 -1.507485485076904297e+01 -3.894817829132080078e+00 6.142286658287048340e-01 -9.841767549514770508e-01 -3.091379106044769287e-01
1.316000000000000000e+03 7.576524353027343750e+01 -1.014669036865234375e+01 1.084422945976257324e+00 7.908504009246826172e+00 2.697878122329711914e+00 4.019553661346435547e-01
1.317000000000000000e+03 7.127369689941406250e+01 -1.055588817596435547e+01 3.462462663650512695e+00 1.320624351501464844e+01 5.000611782073974609e+00 -4.522149860858917236e-01
1.318000000000000000e+03 9.845705032348632812e+00 -5.498998641967773438e+00 -9.339596033096313477e-01 1.464496254920959473e+00 1.591610014438629150e-01 5.643510818481445312e-01
1.319000000000000000e+03 1.348265933990478516e+01 1.242862033843994141e+01 2.740826308727264404e-01 5.542213320732116699e-01 2.484911978244781494e-01 3.612554073333740234e-01
1.320000000000000000e+03 1.213069629669189453e+01 1.136213302612304688e+01 1.909208446741104126e-01 2.438685148954391479e-01 1.304368078708648682e-01 3.555155098438262939e-01
1.321000000000000000e+03 5.820553970336914062e+01 1.310742568969726562e+01 6.561582088470458984e-01 3.392599821090698242e+00 1.214627385139465332e+00 -6.461780667304992676e-01
1.322000000000000000e+03 5.344158172607421875e+01 -1.197263908386230469e+01 -2.048191308975219727e+00 -4.214500486850738525e-01 -7.408924102783203125e-01 -1.013919115066528320e+00
1.323000000000000000e+03 7.499487304687500000e+01 -3.143245506286621094e+01 -1.481516957283020020e-01 8.990660667419433594e+00 2.652752876281738281e+00 -1.604456603527069092e-01
1.324000000000000000e+03 7.764656066894531250e+01 -3.600574493408203125e+01 -7.719461619853973389e-02 1.016136646270751953e+01 3.025251626968383789e+00 5.699322372674942017e-02
1.325000000000000000e+03 7.549289703369140625e+01 -2.184671211242675781e+01 -3.894551396369934082e-01 9.071076393127441406e+00 2.604486465454101562e+00 -1.191836595535278320e+00
1.326000000000000000e+03 7.794895172119140625e+01 -2.909183120727539062e+01 -5.251488462090492249e-02 1.006354904174804688e+01 3.003310441970825195e+00 -2.146290987730026245e-01
1.327000000000000000e+03 7.377164459228515625e+01 -3.851807022094726562e+01 -5.489799007773399353e-02 8.248613357543945312e+00 2.458114624023437500e+00 -4.535264521837234497e-02
1.328000000000000000e+03 7.544522857666015625e+01 1.429267978668212891e+01 3.100251033902168274e-02 6.884710788726806641e+00 2.074713945388793945e+00 -4.583808183670043945e-01
1.329000000000000000e+03 7.673473358154296875e+01 1.563138484954833984e+01 1.610185392200946808e-02 7.063188552856445312e+00 2.123787164688110352e+00 -3.309180736541748047e-01
1.330000000000000000e+03 7.758791351318359375e+01 3.559056854248046875e+01 -5.213843192905187607e-03 6.142493724822998047e+00 1.841183900833129883e+00 -5.116664990782737732e-02
1.331000000000000000e+03 7.635358428955078125e+01 3.251641845703125000e+01 2.933615259826183319e-02 6.050778865814208984e+00 1.824034571647644043e+00 -1.060790345072746277e-01
1.332000000000000000e+03 7.801780700683593750e+01 -2.208414840698242188e+01 -1.259518265724182129e-01 8.871616363525390625e+00 2.623699188232421875e+00 -7.681469917297363281e-01
1.333000000000000000e+03 7.674378967285156250e+01 -2.337716674804687500e+01 -2.524846196174621582e-01 9.128881454467773438e+00 2.662919044494628906e+00 -8.878926038742065430e-01
1.334000000000000000e+03 7.651730346679687500e+01 -3.031156921386718750e+01 -1.209900751709938049e-01 9.575418472290039062e+00 2.836328506469726562e+00 -2.062249481678009033e-01
1.335000000000000000e+03 7.507028198242187500e+01 -3.667435836791992188e+01 -1.150380820035934448e-01 8.922598838806152344e+00 2.642268419265747070e+00 -6.444989144802093506e-02
1.336000000000000000e+03 7.658670806884765625e+01 -2.896077346801757812e+01 -1.852400451898574829e-01 9.552989959716796875e+00 2.810324907302856445e+00 -3.145211637020111084e-01
1.337000000000000000e+03 7.666970062255859375e+01 -2.621453285217285156e+01 -2.270857095718383789e-01 9.415884971618652344e+00 2.756639719009399414e+00 -5.579882264137268066e-01
1.338000000000000000e+03 7.662590789794921875e+01 -2.760111999511718750e+01 -1.694198548793792725e-01 9.490499496459960938e+00 2.796324014663696289e+00 -4.215269386768341064e-01
1.339000000000000000e+03 7.671627807617187500e+01 -2.480081748962402344e+01 -2.271403521299362183e-01 9.281398773193359375e+00 2.716277360916137695e+00 -7.147963643074035645e-01
1.340000000000000000e+03 7.639450836181640625e+01 -3.165110206604003906e+01 -1.110255941748619080e-01 9.540003776550292969e+00 2.828693628311157227e+00 -1.239902749657630920e-01
1.341000000000000000e+03 7.619698333740234375e+01 -3.298299026489257812e+01 -7.782238721847534180e-02 9.462263107299804688e+00 2.815332412719726562e+00 -1.005374118685722351e-01
1.342000000000000000e+03 7.515995025634765625e+01 -3.014433860778808594e+01 -2.592439949512481689e-01 9.036468505859375000e+00 2.633167505264282227e+00 -2.236359864473342896e-01
1.343000000000000000e+03 7.506334686279296875e+01 -4.049710083007812500e+01 8.424722403287887573e-02 9.089739799499511719e+00 2.752196073532104492e+00 -1.008764132857322693e-01
1.344000000000000000e+03 7.796968841552734375e+01 2.258937072753906250e+01 3.891268745064735413e-03 6.725008487701416016e+00 2.018669843673706055e+00 -1.409653723239898682e-01
1.345000000000000000e+03 7.672335052490234375e+01 1.985646438598632812e+01 3.935099393129348755e-02 6.723776340484619141e+00 2.028938055038452148e+00 -2.703710794448852539e-01
1.346000000000000000e+03 7.516095733642578125e+01 2.290021133422851562e+01 4.444517195224761963e-02 6.274310111999511719e+00 1.895626544952392578e+00 -3.051546812057495117e-01
1.347000000000000000e+03 7.667508697509765625e+01 2.130607032775878906e+01 2.032995596528053284e-02 6.611429214477539062e+00 1.989527821540832520e+00 -2.442790120840072632e-01
1.348000000000000000e+03 7.679864501953125000e+01 1.284704685211181641e+01 -1.637258392293006182e-04 7.329470634460449219e+00 2.198792219161987305e+00 -3.537512123584747314e-01
1.349000000000000000e+03 7.554049682617187500e+01 8.833566665649414062e+00 -8.741844445466995239e-02 7.429949283599853516e+00 2.202759265899658203e+00 -4.577950239181518555e-01
1.350000000000000000e+03 7.676631927490234375e+01 1.423871898651123047e+01 2.662350051105022430e-02 7.196380615234375000e+00 2.166901350021362305e+00 -3.463805317878723145e-01
1.351000000000000000e+03 7.654853820800781250e+01 2.422713851928710938e+01 1.834698952734470367e-02 6.416578292846679688e+00 1.930477499961853027e+00 -2.109220772981643677e-01
1.352000000000000000e+03 7.817409515380859375e+01 2.668408966064453125e+01 1.380889024585485458e-02 6.515731811523437500e+00 1.958862185478210449e+00 -1.017598584294319153e-01
1.353000000000000000e+03 7.674517059326171875e+01 -2.196104240417480469e+01 -2.348025888204574585e-01 8.896854400634765625e+00 2.598615646362304688e+00 -1.069777607917785645e+00
1.354000000000000000e+03 7.825591278076171875e+01 3.042347908020019531e+01 -2.755083376541733742e-03 6.348995208740234375e+00 1.903872132301330566e+00 -6.060549989342689514e-02
1.355000000000000000e+03 7.340149688720703125e+01 -1.797235298156738281e+01 -2.418978065252304077e-01 9.867453575134277344e+00 2.887666702270507812e+00 -1.490740895271301270e+00
1.356000000000000000e+03 7.672756958007812500e+01 -2.053388404846191406e+01 -1.978065818548202515e-01 8.706389427185058594e+00 2.552574872970581055e+00 -1.211229443550109863e+00
1.357000000000000000e+03 7.584495544433593750e+01 -8.828463554382324219e+00 7.659111022949218750e-01 7.993383407592773438e+00 2.627788305282592773e+00 8.121595978736877441e-01
1.358000000000000000e+03 7.800502014160156250e+01 -1.488284111022949219e+01 1.454800814390182495e-01 6.420615673065185547e+00 1.969828724861145020e+00 -8.841145634651184082e-01
1.359000000000000000e+03 7.556531524658203125e+01 -2.390793323516845703e+00 -4.904516339302062988e-01 8.487824440002441406e+00 2.399211883544921875e+00 9.584673047065734863e-01
1.360000000000000000e+03 7.707694244384765625e+01 -7.794620037078857422e+00 2.840526401996612549e-01 7.038748264312744141e+00 2.196840286254882812e+00 9.440596699714660645e-01
1.361000000000000000e+03 7.807004547119140625e+01 5.807044506072998047e+00 -6.299030035734176636e-02 8.322379112243652344e+00 2.477816581726074219e+00 -1.133343204855918884e-01
1.362000000000000000e+03 7.675232696533203125e+01 3.169415473937988281e+00 -2.350884974002838135e-01 8.173295974731445312e+00 2.381462335586547852e+00 6.415411084890365601e-02
1.363000000000000000e+03 7.602337646484375000e+01 3.655316543579101562e+01 1.730794645845890045e-02 5.911663532257080078e+00 1.778691530227661133e+00 -5.073983222246170044e-02
1.364000000000000000e+03 7.736669158935546875e+01 3.682656860351562500e+01 -9.059827774763107300e-03 6.113220691680908203e+00 1.831248283386230469e+00 -5.481813475489616394e-02
1.365000000000000000e+03 7.807936859130859375e+01 7.193894863128662109e+00 -2.495337091386318207e-02 8.215565681457519531e+00 2.457183837890625000e+00 -1.553891450166702271e-01
1.366000000000000000e+03 7.678237915039062500e+01 5.957625389099121094e+00 -1.144775599241256714e-01 7.983369350433349609e+00 2.360667467117309570e+00 -1.962293833494186401e-01
1.367000000000000000e+03 7.686210632324218750e+01 -2.412908554077148438e+00 -3.127736151218414307e-01 8.072924613952636719e+00 2.328045368194580078e+00 9.450190663337707520e-01
1.368000000000000000e+03 7.702536010742187500e+01 -9.115184783935546875e+00 5.217074751853942871e-01 6.841343402862548828e+00 2.208915233612060547e+00 6.596511602401733398e-01
1.369000000000000000e+03 7.451876831054687500e+01 3.495989227294921875e+01 3.625214844942092896e-02 5.732796192169189453e+00 1.730714559555053711e+00 -1.005268543958663940e-01
1.370000000000000000e+03 7.668804931640625000e+01 3.125030708312988281e+01 1.133619062602519989e-02 6.126341819763183594e+00 1.841303467750549316e+00 -1.112104877829551697e-01
1.371000000000000000e+03 7.672942352294921875e+01 1.843550300598144531e+01 1.807891763746738434e-02 6.837637901306152344e+00 2.056715011596679688e+00 -2.887119054794311523e-01
1.372000000000000000e+03 7.682231903076171875e+01 1.008573722839355469e+01 -3.470706194639205933e-02 7.616901874542236328e+00 2.274658441543579102e+00 -3.495731353759765625e-01
1.373000000000000000e+03 7.806621551513671875e+01 -1.350718212127685547e+01 2.966178953647613525e-01 5.965498447418212891e+00 1.878634929656982422e+00 -5.814837217330932617e-01
1.374000000000000000e+03 7.662041473388671875e+01 -1.598747348785400391e+01 1.881134957075119019e-01 7.882428646087646484e+00 2.421162605285644531e+00 -1.390363574028015137e+00
1.375000000000000000e+03 7.825057220458984375e+01 -6.661252021789550781e+00 2.810622565448284149e-02 6.306524753570556641e+00 1.900389194488525391e+00 8.158255815505981445e-01
1.376000000000000000e+03 7.805208587646484375e+01 1.623158812522888184e+00 -1.374153643846511841e-01 8.346033096313476562e+00 2.462585449218750000e+00 2.552206814289093018e-01
1.377000000000000000e+03 7.676932525634765625e+01 -1.028395414352416992e+00 -3.093425333499908447e-01 8.194166183471679688e+00 2.365447282791137695e+00 6.905643343925476074e-01
1.378000000000000000e+03 7.772929382324218750e+01 3.427497100830078125e+01 3.032912733033299446e-03 6.175611019134521484e+00 1.853593230247497559e+00 -5.550102889537811279e-02
1.379000000000000000e+03 7.676701354980468750e+01 4.568946838378906250e+00 -1.836366802453994751e-01 8.101942062377929688e+00 2.375491619110107422e+00 -1.193985268473625183e-01
1.380000000000000000e+03 7.708741760253906250e+01 -5.147105216979980469e+00 -4.833042994141578674e-02 7.547560691833496094e+00 2.249768972396850586e+00 1.202441811561584473e+00
1.381000000000000000e+03 7.699358367919921875e+01 -3.788089513778686523e+00 -1.659671515226364136e-01 7.844478607177734375e+00 2.303553342819213867e+00 1.079187154769897461e+00
1.382000000000000000e+03 7.678443908691406250e+01 -1.318173313140869141e+01 6.441488265991210938e-01 7.187140941619873047e+00 2.349386930465698242e+00 -7.662505507469177246e-01
1.383000000000000000e+03 7.695369720458984375e+01 -1.046302318572998047e+01 6.299455165863037109e-01 6.880540847778320312e+00 2.253145933151245117e+00 1.830035597085952759e-01
1.384000000000000000e+03 7.557376098632812500e+01 -1.151438426971435547e+01 1.184380888938903809e+00 8.226427078247070312e+00 2.823242425918579102e+00 -3.078557252883911133e-01
1.385000000000000000e+03 7.666639709472656250e+01 -1.902831459045410156e+01 -1.437435150146484375e-01 8.386523246765136719e+00 2.472834110260009766e+00 -1.395569562911987305e+00
1.386000000000000000e+03 3.848305130004882812e+01 -1.611649513244628906e+01 -1.960759639739990234e+00 8.452187478542327881e-02 -5.628713369369506836e-01 -4.586744606494903564e-01
1.387000000000000000e+03 6.090121459960937500e+01 -5.014320850372314453e+00 -1.711065769195556641e+00 -2.374158203601837158e-01 -5.845444798469543457e-01 -1.000086188316345215e+00
1.388000000000000000e+03 5.609990692138671875e+01 7.902329444885253906e+00 3.713316619396209717e-01 2.028907299041748047e+00 7.200716733932495117e-01 6.125532835721969604e-02
1.389000000000000000e+03 1.625340843200683594e+01 4.220624446868896484e+00 -5.188955664634704590e-01 -6.604374945163726807e-02 -1.754817962646484375e-01 9.257899224758148193e-02
1.390000000000000000e+03 5.692247009277343750e+01 -9.848692893981933594e+00 -2.616188526153564453e+00 -5.735350847244262695e-01 -9.569170475006103516e-01 -1.231084942817687988e+00
1.391000000000000000e+03 5.383006286621093750e+01 -1.034659576416015625e+01 -2.090085268020629883e+00 -2.524948716163635254e-01 -7.027740478515625000e-01 -8.611800670623779297e-01
1.392000000000000000e+03 8.291258811950683594e+00 -1.579046058654785156e+01 2.165311813354492188e+00 8.004175186157226562e+00 3.050846099853515625e+00 6.688951849937438965e-01
1.393000000000000000e+03 1.554688167572021484e+01 -2.624388504028320312e+01 1.798569560050964355e-01 1.435626745223999023e+00 4.846450984477996826e-01 -6.647764444351196289e-01
1.394000000000000000e+03 2.058448600769042969e+01 -1.176883029937744141e+01 -1.002743363380432129e+00 1.123149752616882324e+00 3.612189367413520813e-02 2.813599109649658203e+00
1.395000000000000000e+03 6.000748825073242188e+01 -2.761181831359863281e+01 -5.787406563758850098e-01 1.146847128868103027e+00 1.704319268465042114e-01 2.175252139568328857e-01
1.396000000000000000e+03 6.023228073120117188e+01 -7.542481422424316406e+00 -3.343300819396972656e+00 -5.784395337104797363e-01 -1.176522016525268555e+00 -1.382919073104858398e+00
1.397000000000000000e+03 5.580331039428710938e+01 -2.874684906005859375e+01 -9.579977393150329590e-01 -1.707590967416763306e-01 -3.386270403861999512e-01 -4.575367867946624756e-01
1.398000000000000000e+03 5.881737136840820312e+01 -2.843708610534667969e+01 -6.356164813041687012e-01 6.485643386840820312e-01 3.884363453835248947e-03 1.073376908898353577e-01
1.399000000000000000e+03 1.940226936340332031e+01 -3.066081428527832031e+01 -4.828583821654319763e-02 8.380386233329772949e-01 2.369258254766464233e-01 -3.421754837036132812e-01
1.400000000000000000e+03 2.273342704772949219e+01 -3.161905860900878906e+01 -7.081351359374821186e-04 4.110918939113616943e-01 1.231151297688484192e-01 -2.609279155731201172e-01
1.401000000000000000e+03 1.279690837860107422e+01 -2.324812316894531250e+01 2.057679444551467896e-01 2.469032287597656250e+00 8.024400472640991211e-01 -9.526141881942749023e-01
1.402000000000000000e+03 1.375841712951660156e+01 -2.421100044250488281e+01 2.201215475797653198e-01 1.989722490310668945e+00 6.629531979560852051e-01 -8.881357908248901367e-01
1.403000000000000000e+03 1.419452381134033203e+01 6.602112293243408203e+00 -2.473903000354766846e-01 6.628255546092987061e-02 -5.433232337236404419e-02 1.726225763559341431e-01
1.404000000000000000e+03 2.616842460632324219e+01 1.641682624816894531e+01 -2.792575359344482422e-01 5.171610116958618164e-01 7.137104868888854980e-02 2.210233956575393677e-01
1.405000000000000000e+03 2.208657264709472656e+00 3.455839920043945312e+01 7.615054957568645477e-03 -9.065005779266357422e-01 -2.696656584739685059e-01 1.362592261284589767e-02
1.406000000000000000e+03 3.467653751373291016e+00 3.602193450927734375e+01 2.023409120738506317e-02 -8.254052996635437012e-01 -2.415513694286346436e-01 2.606657519936561584e-02
1.407000000000000000e+03 2.027855157852172852e+00 2.747491455078125000e+01 -1.026564394123852253e-03 -8.515183329582214355e-01 -2.557634711265563965e-01 1.423662528395652771e-02
1.408000000000000000e+03 3.524077892303466797e+00 3.017328834533691406e+01 -5.235092714428901672e-03 -7.563229203224182129e-01 -2.284674048423767090e-01 2.930592000484466553e-02
1.409000000000000000e+03 1.990729808807373047e+00 2.606619071960449219e+01 -1.244241429958492517e-04 -8.411546349525451660e-01 -2.523837089538574219e-01 1.267597544938325882e-02
1.410000000000000000e+03 3.392255544662475586e+00 2.735741806030273438e+01 -1.657325774431228638e-03 -7.373626232147216797e-01 -2.217059880495071411e-01 2.842109277844429016e-02
1.411000000000000000e+03 5.440581798553466797e+00 3.268171691894531250e+01 5.023018922656774521e-03 -6.297467947006225586e-01 -1.874171346426010132e-01 4.750699922442436218e-02
1.412000000000000000e+03 3.456402778625488281e+00 2.876332473754882812e+01 -2.277818508446216583e-03 -7.478002309799194336e-01 -2.250234186649322510e-01 2.865594625473022461e-02
1.413000000000000000e+03 2.001743078231811523e+00 3.716103744506835938e+01 -1.961442409083247185e-03 -9.269233942031860352e-01 -2.786654531955718994e-01 -1.047370606102049351e-03
1.414000000000000000e+03 3.901106595993041992e+00 3.309871673583984375e+01 5.512193776667118073e-03 -7.463850975036621094e-01 -2.222618758678436279e-01 3.594892099499702454e-02
1.415000000000000000e+03 4.984648227691650391e+00 3.142596054077148438e+01 -4.133468493819236755e-03 -6.639012098312377930e-01 -2.004104107618331909e-01 4.567866399884223938e-02
1.416000000000000000e+03 3.640839338302612305e+00 3.160546684265136719e+01 -1.279175630770623684e-03 -7.530204057693481445e-01 -2.262898832559585571e-01 2.969361841678619385e-02
1.417000000000000000e+03 4.563069820404052734e+00 -3.609625244140625000e+01 -1.181746125221252441e-01 6.331608891487121582e-01 1.544958800077438354e-01 2.167548835277557373e-01
1.418000000000000000e+03 4.343931674957275391e+00 -3.440082168579101562e+01 -1.534501910209655762e-01 5.800961256027221680e-01 1.279937773942947388e-01 3.067252635955810547e-01
1.419000000000000000e+03 3.665321588516235352e+00 -3.000587081909179688e+01 -1.507426798343658447e-01 2.416610270738601685e-01 2.727550454437732697e-02 5.313787460327148438e-01
1.420000000000000000e+03 2.124815702438354492e+00 -2.880514144897460938e+01 -5.641760304570198059e-02 -2.518552541732788086e-01 -9.248185157775878906e-02 4.447235763072967529e-01
1.421000000000000000e+03 1.901516675949096680e+00 2.182421302795410156e+01 2.990844426676630974e-03 -8.075183033943176270e-01 -2.413582354784011841e-01 1.673862896859645844e-02
1.422000000000000000e+03 3.197766780853271484e+00 2.312897682189941406e+01 4.524178802967071533e-03 -7.041578888893127441e-01 -2.098901122808456421e-01 2.873577177524566650e-02
1.423000000000000000e+03 2.836839199066162109e+00 -1.336618328094482422e+01 9.060218334197998047e-01 -2.693371534347534180e+00 -5.362049341201782227e-01 -3.749986290931701660e-01
1.424000000000000000e+03 1.767510533332824707e+00 -7.678275585174560547e+00 -2.829821035265922546e-02 -2.341796398162841797e+00 -7.110283970832824707e-01 -1.191510558128356934e+00
1.425000000000000000e+03 3.156888961791992188e+00 2.171503639221191406e+01 7.329690735787153244e-03 -6.884110569953918457e-01 -2.043244093656539917e-01 3.302335739135742188e-02
1.426000000000000000e+03 2.951599836349487305e+00 1.174826431274414062e+01 2.357594110071659088e-02 -4.512074291706085205e-01 -1.282894462347030640e-01 1.662829667329788208e-01
1.427000000000000000e+03 3.074759483337402344e+00 1.744573402404785156e+01 2.734608203172683716e-02 -6.262831687927246094e-01 -1.796811223030090332e-01 7.228863239288330078e-02
1.428000000000000000e+03 3.087223529815673828e+00 1.886844062805175781e+01 2.083230949938297272e-02 -6.531479954719543457e-01 -1.896947026252746582e-01 5.348491296172142029e-02
1.429000000000000000e+03 4.493198394775390625e+00 -1.843311309814453125e+01 2.298141270875930786e-01 4.853923320770263672e-01 2.145619392395019531e-01 1.452587842941284180e+00
1.430000000000000000e+03 1.697069644927978516e+00 -1.473394298553466797e+01 3.344715237617492676e-01 -4.697276592254638672e+00 -1.308841466903686523e+00 2.531111240386962891e-01
1.431000000000000000e+03 3.132386445999145508e+00 -1.201419258117675781e+01 7.721343040466308594e-01 -1.985357284545898438e+00 -3.639669120311737061e-01 -1.180305600166320801e+00
1.432000000000000000e+03 3.850091457366943359e+00 -4.975680351257324219e+00 -4.691669046878814697e-01 -2.911568284034729004e-01 -2.280971258878707886e-01 -1.339798092842102051e+00
1.433000000000000000e+03 3.242476224899291992e+00 4.382499694824218750e+00 -5.266226828098297119e-02 -1.133297011256217957e-01 -4.979759082198143005e-02 1.435562223196029663e-01
1.434000000000000000e+03 2.642019271850585938e+00 7.606982707977294922e+00 -8.506656624376773834e-03 -2.641332149505615234e-01 -8.179195970296859741e-02 1.710959821939468384e-01
1.435000000000000000e+03 1.826233386993408203e+00 1.473078536987304688e+01 1.397409848868846893e-02 -6.590557694435119629e-01 -1.935245096683502197e-01 7.600753009319305420e-02
1.436000000000000000e+03 3.068989038467407227e+00 1.602680969238281250e+01 3.202833607792854309e-02 -5.932548642158508301e-01 -1.683679670095443726e-01 9.555395692586898804e-02
1.437000000000000000e+03 2.787564277648925781e+00 8.953139305114746094e+00 2.147929742932319641e-03 -3.259510397911071777e-01 -9.714093804359436035e-02 1.835648715496063232e-01
1.438000000000000000e+03 2.965285778045654297e+00 -7.551573276519775391e+00 -1.957721263170242310e-01 -1.229292988777160645e+00 -4.275195300579071045e-01 -1.641497850418090820e+00
1.439000000000000000e+03 2.325237989425659180e+00 -4.367561340332031250e+00 -2.360813915729522705e-01 -8.170134425163269043e-01 -3.159284591674804688e-01 -1.048097014427185059e+00
1.440000000000000000e+03 3.525013923645019531e+00 -2.861627006530761719e+01 -2.083771675825119019e-01 1.034552082419395447e-01 -3.147658705711364746e-02 6.396245956420898438e-01
1.441000000000000000e+03 3.275377035140991211e+00 -2.156904029846191406e+01 -1.737683713436126709e-01 -8.596212267875671387e-01 -3.100168704986572266e-01 1.337803125381469727e+00
1.442000000000000000e+03 3.241368055343627930e+00 -1.050646591186523438e+01 4.111894965171813965e-01 -1.452176451683044434e+00 -3.122960925102233887e-01 -1.544095873832702637e+00
1.443000000000000000e+03 3.094924211502075195e+00 -8.985104560852050781e+00 1.268184930086135864e-01 -1.411637067794799805e+00 -3.854455649852752686e-01 -1.699727773666381836e+00
1.444000000000000000e+03 2.866030693054199219e+00 -1.593133354187011719e+01 5.734424591064453125e-01 -2.444894790649414062e+00 -5.614356994628906250e-01 8.500234484672546387e-01
1.445000000000000000e+03 3.293231725692749023e+00 -2.300547599792480469e+01 -2.661342024803161621e-01 -6.159895062446594238e-01 -2.646371126174926758e-01 1.189621090888977051e+00
1.446000000000000000e+03 2.642906665802001953e+00 -3.595707321166992188e+01 -5.399790406227111816e-02 4.965478777885437012e-01 1.327649950981140137e-01 1.687855124473571777e-01
1.447000000000000000e+03 4.060630798339843750e+00 -3.285137557983398438e+01 -1.321654021739959717e-01 4.745485186576843262e-01 1.027149334549903870e-01 3.735015094280242920e-01
1.448000000000000000e+03 5.548704147338867188e+00 -3.256247329711914062e+01 -2.448327392339706421e-01 6.763796210289001465e-01 1.294640600681304932e-01 4.383583962917327881e-01
1.449000000000000000e+03 1.991272091865539551e+00 -2.457266807556152344e+01 -1.446812897920608521e-01 -1.206723928451538086e+00 -4.054215550422668457e-01 7.575318217277526855e-01
1.450000000000000000e+03 3.339424371719360352e+00 -2.582752799987792969e+01 -2.574625611305236816e-01 -2.277766764163970947e-01 -1.455717682838439941e-01 8.884331583976745605e-01
1.451000000000000000e+03 4.636628627777099609e+00 -2.569116592407226562e+01 -3.487918376922607422e-01 3.913026452064514160e-01 1.275324542075395584e-02 9.525163769721984863e-01
1.452000000000000000e+03 2.756948709487915039e+00 -1.464123916625976562e+01 7.980331778526306152e-01 -2.821831941604614258e+00 -6.071396470069885254e-01 2.213625758886337280e-01
1.453000000000000000e+03 2.875966787338256836e+00 1.033872032165527344e+01 1.635608263313770294e-02 -3.905298113822937012e-01 -1.122521236538887024e-01 1.794067621231079102e-01
1.454000000000000000e+03 3.016715049743652344e+00 1.316961383819580078e+01 3.144719079136848450e-02 -5.052174329757690430e-01 -1.421310752630233765e-01 1.462862789630889893e-01
1.455000000000000000e+03 6.621515655517578125e+01 -2.137902832031250000e+01 -4.034956395626068115e-01 6.169120311737060547e+00 1.729687452316284180e+00 1.387889266014099121e+00
1.456000000000000000e+03 5.714586639404296875e+01 -8.220588684082031250e+00 -2.538284778594970703e+00 -2.961178123950958252e-01 -8.503208160400390625e-01 -8.975274562835693359e-01
1.457000000000000000e+03 5.606896209716796875e+01 -8.956786155700683594e+00 -2.384687662124633789e+00 -2.801486253738403320e-01 -7.994509339332580566e-01 -9.000584483146667480e-01
1.458000000000000000e+03 1.631941986083984375e+01 -2.747877693176269531e+01 6.385942548513412476e-02 1.285785317420959473e+00 4.048934280872344971e-01 -5.075040459632873535e-01
1.459000000000000000e+03 3.126338386535644531e+01 -3.434031295776367188e+01 -9.239859879016876221e-02 1.250253245234489441e-02 -2.396881952881813049e-02 -1.306339260190725327e-02
1.460000000000000000e+03 2.246333885192871094e+01 -1.194724082946777344e+01 -1.304452180862426758e+00 3.466107606887817383e+00 6.484966278076171875e-01 5.845659375190734863e-01
1.461000000000000000e+03 3.327601623535156250e+01 -3.733344650268554688e+01 -5.612823739647865295e-02 -9.116863831877708435e-03 -1.957353018224239349e-02 -1.470324676483869553e-02
1.462000000000000000e+03 1.229504108428955078e+01 1.258347415924072266e+01 3.019281923770904541e-01 2.830487787723541260e-01 1.754930913448333740e-01 3.454220294952392578e-01
1.463000000000000000e+03 4.346235275268554688e+01 -3.656960678100585938e+01 -6.288152188062667847e-02 -2.517329454421997070e-01 -9.438434243202209473e-02 -2.258929461240768433e-01
1.464000000000000000e+03 4.507612609863281250e+01 -3.365570831298828125e+01 -3.232015371322631836e-01 -2.145347595214843750e-01 -1.613208949565887451e-01 -3.119299709796905518e-01
1.465000000000000000e+03 5.450135040283203125e+01 -3.188405990600585938e+01 -3.106459677219390869e-01 3.764932975172996521e-02 -8.189899474382400513e-02 -2.806581556797027588e-01
1.466000000000000000e+03 4.783679962158203125e+01 -3.507579421997070312e+01 -3.320627659559249878e-02 -2.974975705146789551e-01 -9.921115636825561523e-02 -3.662593364715576172e-01
1.467000000000000000e+03 5.671860504150390625e+01 -2.974634552001953125e+01 -5.617055296897888184e-01 1.765487790107727051e-01 -1.155470311641693115e-01 -1.910440325736999512e-01
1.468000000000000000e+03 6.147202682495117188e+01 -2.462613677978515625e+01 -5.135542154312133789e-01 1.538593411445617676e+00 3.075117468833923340e-01 3.763610422611236572e-01
1.469000000000000000e+03 3.501354598999023438e+01 -3.567150115966796875e+01 -1.149943247437477112e-01 -3.484110906720161438e-02 -4.495063051581382751e-02 -1.019719988107681274e-02
1.470000000000000000e+03 5.061468887329101562e+01 -8.110087394714355469e+00 -1.477715611457824707e+00 4.972836375236511230e-02 -4.283961951732635498e-01 -3.480991423130035400e-01
1.471000000000000000e+03 2.130447959899902344e+01 -1.229310226440429688e+01 -2.121347427368164062e+00 1.734341621398925781e+00 -1.161017194390296936e-01 2.153961896896362305e+00
1.472000000000000000e+03 4.478203582763671875e+01 -3.516726684570312500e+01 -1.352960616350173950e-01 -2.483249008655548096e-01 -1.150862872600555420e-01 -2.911489307880401611e-01
1.473000000000000000e+03 2.342972183227539062e+01 4.165780544281005859e+00 -1.129904016852378845e-01 1.156829833984375000e+00 3.131518363952636719e-01 7.453643083572387695e-01
1.474000000000000000e+03 6.956164550781250000e+01 -1.701302528381347656e+01 6.155042722821235657e-02 1.139454746246337891e+01 3.436829328536987305e+00 6.206294521689414978e-02
1.475000000000000000e+03 7.048477935791015625e+01 -1.619927215576171875e+01 6.348358988761901855e-01 1.197027397155761719e+01 3.781533002853393555e+00 -9.152475744485855103e-02
1.476000000000000000e+03 2.259820365905761719e+01 -3.343055725097656250e+01 -8.439317345619201660e-02 4.778504073619842529e-01 1.180371642112731934e-01 -2.317074835300445557e-01
1.477000000000000000e+03 2.052248382568359375e+01 2.573781013488769531e+00 -3.471787571907043457e-01 2.753296792507171631e-01 -2.155471593141555786e-02 3.256689906120300293e-01
1.478000000000000000e+03 2.054483985900878906e+01 -6.552091836929321289e-01 -3.329166173934936523e-01 7.044296860694885254e-01 1.114539057016372681e-01 1.861462146043777466e-01
1.479000000000000000e+03 1.084947776794433594e+01 -2.120440292358398438e+01 1.194621697068214417e-01 3.718931913375854492e+00 1.151518225669860840e+00 -1.062484264373779297e+00
1.480000000000000000e+03 1.849313163757324219e+01 -7.142263889312744141e+00 2.635643005371093750e+00 -1.270166397094726562e+00 4.096429646015167236e-01 -2.239400446414947510e-01
1.481000000000000000e+03 8.878473281860351562e+00 -1.902520942687988281e+01 6.662303954362869263e-02 5.424971103668212891e+00 1.647478342056274414e+00 -4.130446314811706543e-01
1.482000000000000000e+03 6.706958770751953125e+01 -2.019785118103027344e+01 -3.554061949253082275e-01 7.773950576782226562e+00 2.225563287734985352e+00 1.389516711235046387e+00
1.483000000000000000e+03 1.362652397155761719e+01 -1.073473644256591797e+01 8.802592754364013672e-01 -1.524832129478454590e+00 -1.933718770742416382e-01 2.513603448867797852e+00
1.484000000000000000e+03 4.701536941528320312e+01 4.139022350311279297e+00 4.680765569210052490e-01 1.334415078163146973e-01 1.804554164409637451e-01 1.739762425422668457e-01
1.485000000000000000e+03 4.482788848876953125e+01 6.586087226867675781e+00 3.866935372352600098e-01 2.186720520257949829e-01 1.816096752882003784e-01 -1.065620407462120056e-01
1.486000000000000000e+03 2.776216125488281250e+01 -3.508106231689453125e+01 -6.425140798091888428e-02 1.596422493457794189e-01 2.861725166440010071e-02 -8.039457350969314575e-02
1.487000000000000000e+03 2.788054656982421875e+01 -3.298668670654296875e+01 -6.774376332759857178e-02 8.465111255645751953e-02 5.072204861789941788e-03 -5.973313748836517334e-02
1.488000000000000000e+03 2.808566093444824219e+01 6.780457496643066406e+00 5.656578540802001953e-01 1.578655004501342773e+00 6.432938575744628906e-01 7.213665246963500977e-01
1.489000000000000000e+03 2.887460327148437500e+01 8.310657501220703125e+00 4.753721654415130615e-01 1.348143100738525391e+00 5.470545887947082520e-01 8.943280577659606934e-01
1.490000000000000000e+03 4.980104446411132812e+01 -3.425810623168945312e+01 -1.173524856567382812e-01 -3.248555660247802734e-01 -1.326624155044555664e-01 -3.753796517848968506e-01
1.491000000000000000e+03 2.334626197814941406e+01 1.855144882202148438e+01 1.226143096573650837e-03 -3.735363110899925232e-02 -1.083824597299098969e-02 2.480074018239974976e-01
1.492000000000000000e+03 9.024953842163085938e+00 -1.695997428894042969e+01 9.236782789230346680e-01 8.490772247314453125e+00 2.824335098266601562e+00 -1.141720771789550781e+00
1.493000000000000000e+03 9.882413864135742188e+00 -2.012943840026855469e+01 1.392465978860855103e-01 4.314479351043701172e+00 1.336117744445800781e+00 -9.245305657386779785e-01
1.494000000000000000e+03 4.202831268310546875e+01 1.762244224548339844e+01 6.636192202568054199e-01 1.869613289833068848e+00 7.599697709083557129e-01 5.475137233734130859e-01
1.495000000000000000e+03 5.292534637451171875e+01 5.996906280517578125e+00 7.740986347198486328e-01 5.013877749443054199e-01 3.826459050178527832e-01 3.483825623989105225e-01
1.496000000000000000e+03 5.333083724975585938e+01 3.411765098571777344e+00 4.483830332756042480e-01 5.676484704017639160e-01 3.048094511032104492e-01 1.621422320604324341e-01
1.497000000000000000e+03 2.420949554443359375e+01 1.760162925720214844e+01 -1.117334440350532532e-01 2.858497947454452515e-02 -2.494453825056552887e-02 1.617826521396636963e-01
1.498000000000000000e+03 3.753831863403320312e+01 1.533292198181152344e+01 5.227631926536560059e-01 1.378802180290222168e+00 5.704696178436279297e-01 6.365110278129577637e-01
1.499000000000000000e+03 4.163796234130859375e+01 1.047522926330566406e+01 1.403056234121322632e-01 1.610026121139526367e+00 5.250995159149169922e-01 4.329462647438049316e-01
1.500000000000000000e+03 1.528081893920898438e+01 -2.799465751647949219e+01 -7.743919640779495239e-02 1.428033351898193359e+00 4.051782190799713135e-01 -4.759219586849212646e-01
1.501000000000000000e+03 5.597522354125976562e+01 1.772283363342285156e+01 3.476154506206512451e-01 3.115894317626953125e+00 1.039052963256835938e+00 -5.924669504165649414e-01
1.502000000000000000e+03 5.766933441162109375e+01 1.985988426208496094e+01 3.951557576656341553e-01 3.249385833740234375e+00 1.093362450599670410e+00 -6.258813738822937012e-01
1.503000000000000000e+03 5.319217300415039062e+01 2.100373268127441406e+01 5.800065398216247559e-01 1.657483100891113281e+00 6.712468862533569336e-01 -7.444961667060852051e-01
1.504000000000000000e+03 5.310240173339843750e+01 2.267446899414062500e+01 6.864650845527648926e-01 1.791215658187866211e+00 7.433041930198669434e-01 -5.634233355522155762e-01
1.505000000000000000e+03 1.182271194458007812e+01 -2.224768638610839844e+01 1.933468431234359741e-01 2.866644859313964844e+00 9.179975390434265137e-01 -1.068897008895874023e+00
1.506000000000000000e+03 1.511570262908935547e+01 1.882176208496093750e+01 4.016773775219917297e-02 4.108728468418121338e-01 1.353121697902679443e-01 3.375746309757232666e-01
1.507000000000000000e+03 1.643951988220214844e+01 1.745849609375000000e+01 5.644697323441505432e-02 5.729331970214843750e-01 1.888140439987182617e-01 3.943609595298767090e-01
1.508000000000000000e+03 5.057359313964843750e+01 2.272231674194335938e+01 8.470808267593383789e-01 1.166680216789245605e+00 6.041283011436462402e-01 -2.050059139728546143e-01
1.509000000000000000e+03 3.960514450073242188e+01 1.427957153320312500e+01 6.196177601814270020e-01 1.622024178504943848e+00 6.724925637245178223e-01 6.707645654678344727e-01
1.510000000000000000e+03 1.249522972106933594e+01 1.611946678161621094e+01 2.883089184761047363e-01 2.561359703540802002e-01 1.633334755897521973e-01 2.045603990554809570e-01
1.511000000000000000e+03 1.339569950103759766e+01 -9.610185623168945312e+00 1.774801731109619141e+00 -7.478606700897216797e-01 3.080823421478271484e-01 3.327691078186035156e+00
1.512000000000000000e+03 5.710941314697265625e+01 1.690057182312011719e+01 6.867616176605224609e-01 3.198465585708618164e+00 1.165568113327026367e+00 -5.329728722572326660e-01
1.513000000000000000e+03 1.923602867126464844e+01 2.008863258361816406e+01 8.371408283710479736e-02 1.271311044692993164e-01 6.325355917215347290e-02 5.103011727333068848e-01
1.514000000000000000e+03 5.681607818603515625e+01 9.086857795715332031e+00 3.814927637577056885e-01 2.531583309173583984e+00 8.739228248596191406e-01 -2.378337681293487549e-01
1.515000000000000000e+03 5.761648178100585938e+01 1.015934181213378906e+01 5.053318738937377930e-01 2.794915199279785156e+00 9.900741577148437500e-01 -4.157725572586059570e-01
1.516000000000000000e+03 4.927188491821289062e+01 2.086417007446289062e+01 8.533512353897094727e-01 5.350777506828308105e-01 4.165287017822265625e-01 1.064582988619804382e-01
1.517000000000000000e+03 4.165345764160156250e+01 9.282480239868164062e+00 4.793062806129455566e-02 1.392789483070373535e+00 4.322160482406616211e-01 2.887012660503387451e-01
1.518000000000000000e+03 4.049210739135742188e+01 1.750801658630371094e+01 6.515379548072814941e-01 1.780903100967407227e+00 7.297323346138000488e-01 5.112720727920532227e-01
1.519000000000000000e+03 4.317584991455078125e+01 1.888696098327636719e+01 5.216296911239624023e-01 1.731655240058898926e+00 6.759854555130004883e-01 6.585733890533447266e-01
1.520000000000000000e+03 4.188900756835937500e+01 1.924832153320312500e+01 4.517914652824401855e-01 1.794500350952148438e+00 6.738875508308410645e-01 5.613338947296142578e-01
1.521000000000000000e+03 1.834780693054199219e+01 2.975315570831298828e+00 -5.349547266960144043e-01 -1.533939838409423828e-01 -2.065046131610870361e-01 2.122754417359828949e-02
1.522000000000000000e+03 1.873851013183593750e+01 2.123605012893676758e+00 -3.692905008792877197e-01 -6.003731489181518555e-02 -1.287983506917953491e-01 9.183862805366516113e-02
1.523000000000000000e+03 7.158551025390625000e+01 -1.348848342895507812e+01 2.310081005096435547e+00 1.309909915924072266e+01 4.622754096984863281e+00 -8.514137864112854004e-01
1.524000000000000000e+03 7.071143341064453125e+01 -1.221318721771240234e+01 2.656954050064086914e+00 1.457731056213378906e+01 5.170279502868652344e+00 -5.207116603851318359e-01
1.525000000000000000e+03 3.992822647094726562e+01 1.291982650756835938e+01 5.640037059783935547e-01 1.545620799064636230e+00 6.328873634338378906e-01 7.407163977622985840e-01
1.526000000000000000e+03 4.032252120971679688e+01 1.034907150268554688e+01 2.123391628265380859e-01 1.479593992233276367e+00 5.075799226760864258e-01 5.843778252601623535e-01
1.527000000000000000e+03 5.560655975341796875e+01 5.418489456176757812e+00 4.742872416973114014e-01 1.251764655113220215e+00 5.178155303001403809e-01 2.796220034360885620e-02
1.528000000000000000e+03 4.866171264648437500e+01 -1.446187686920166016e+01 -1.753877401351928711e+00 -1.950813829898834229e-01 -5.846876502037048340e-01 -7.354334592819213867e-01
1.529000000000000000e+03 6.949623107910156250e+01 -7.252315521240234375e+00 9.428934454917907715e-01 1.537935543060302734e+01 4.896674633026123047e+00 -5.712602660059928894e-02
1.530000000000000000e+03 1.241140556335449219e+01 1.379047775268554688e+01 3.502673208713531494e-01 2.657673954963684082e-01 1.848104149103164673e-01 2.886606156826019287e-01
1.531000000000000000e+03 6.604804992675781250e+01 -5.297390937805175781e+00 -6.092912554740905762e-01 4.424776077270507812e+00 1.144645452499389648e+00 -5.386689662933349609e+00
1.532000000000000000e+03 5.845492553710937500e+01 1.611166381835937500e+01 8.209008574485778809e-01 3.437871932983398438e+00 1.277631878852844238e+00 -6.274291276931762695e-01
1.533000000000000000e+03 7.268204498291015625e+01 -4.298919200897216797e+00 -8.446944355964660645e-01 1.011815452575683594e+01 2.782037973403930664e+00 8.413783311843872070e-01
1.534000000000000000e+03 6.944317626953125000e+01 -4.911091327667236328e+00 -2.097499608993530273e+00 1.162613964080810547e+01 2.858591794967651367e+00 -1.154260277748107910e+00
1.535000000000000000e+03 4.710879802703857422e+00 -4.064287567138671875e+01 -8.562000840902328491e-02 7.038246393203735352e-01 1.854613870382308960e-01 5.618278682231903076e-02
1.536000000000000000e+03 4.595063018798828125e+01 4.362872123718261719e+00 4.970659315586090088e-01 1.349930614233016968e-01 1.896176934242248535e-01 1.400969177484512329e-01
1.537000000000000000e+03 6.647422790527343750e+01 -4.084393024444580078e+00 -1.562642931938171387e+00 6.014863967895507812e+00 1.335666298866271973e+00 -3.721853733062744141e+00
1.538000000000000000e+03 2.021638488769531250e+01 -8.763656616210937500e+00 8.246720314025878906e+00 -8.192431926727294922e-01 2.228243112564086914e+00 1.268177866935729980e+00
1.539000000000000000e+03 2.235524940490722656e+01 -4.747867584228515625e+00 -4.061335027217864990e-01 3.143691778182983398e+00 8.212674856185913086e-01 3.784186542034149170e-01
1.540000000000000000e+03 2.242244338989257812e+01 -6.113382339477539062e+00 -1.489823460578918457e-01 5.053158760070800781e+00 1.471252918243408203e+00 7.020733952522277832e-01
1.541000000000000000e+03 2.262546348571777344e+01 -5.452028274536132812e+00 -2.637704312801361084e-01 4.228070259094238281e+00 1.189289927482604980e+00 7.923977971076965332e-01
1.542000000000000000e+03 1.627220726013183594e+01 -9.326000213623046875e+00 2.124021291732788086e+00 -2.641246795654296875e+00 -1.551676392555236816e-01 2.231857538223266602e+00
1.543000000000000000e+03 1.830597496032714844e+01 -1.205929660797119141e+01 -1.799232125282287598e+00 -2.069602727890014648e+00 -1.160650491714477539e+00 3.589851617813110352e+00
1.544000000000000000e+03 2.423172950744628906e+01 -7.473915576934814453e+00 4.614424228668212891e+00 3.331198215484619141e+00 2.383686780929565430e+00 3.050078630447387695e+00
1.545000000000000000e+03 2.349432182312011719e+01 -6.222825050354003906e+00 1.216870069503784180e+00 5.051494121551513672e+00 1.880509257316589355e+00 2.691893815994262695e+00
1.546000000000000000e+03 1.652271080017089844e+01 -6.513568878173828125e+00 1.609242081642150879e+00 -1.406219244003295898e+00 6.090686470270156860e-02 8.360914587974548340e-01
1.547000000000000000e+03 2.136413764953613281e+01 -2.939251422882080078e+00 -4.070850312709808350e-01 1.476891279220581055e+00 3.209418654441833496e-01 9.144636988639831543e-02
1.548000000000000000e+03 2.551784515380859375e+01 -9.322026252746582031e+00 3.980973005294799805e+00 1.118990659713745117e+00 1.529989123344421387e+00 -1.386595964431762695e-01
1.549000000000000000e+03 2.534711074829101562e+01 -8.692142486572265625e+00 4.683537006378173828e+00 1.242884159088134766e+00 1.777926325798034668e+00 6.210710406303405762e-01
1.550000000000000000e+03 2.103583145141601562e+01 -2.340576410293579102e+00 -3.867422342300415039e-01 1.177156090736389160e+00 2.371241450309753418e-01 1.232225671410560608e-01
1.551000000000000000e+03 2.107581329345703125e+01 -1.685219287872314453e+00 -3.849610388278961182e-01 1.101732969284057617e+00 2.150315791368484497e-01 1.858000755310058594e-01
1.552000000000000000e+03 2.180028533935546875e+01 -2.353404045104980469e+00 -4.432811141014099121e-01 1.620720028877258301e+00 3.532316684722900391e-01 2.404513061046600342e-01
1.553000000000000000e+03 2.167079544067382812e+01 -1.915476441383361816e+00 -4.415235221385955811e-01 1.447669982910156250e+00 3.018439412117004395e-01 2.573415935039520264e-01
1.554000000000000000e+03 6.074256896972656250e+00 4.091753005981445312e+00 -1.482509821653366089e-01 -6.926384568214416504e-02 -6.525444984436035156e-02 2.318421453237533569e-01
1.555000000000000000e+03 9.390467643737792969e+00 3.635019779205322266e+00 -2.849153876304626465e-01 -3.357127308845520020e-02 -9.554599970579147339e-02 2.432396858930587769e-01
1.556000000000000000e+03 1.459973144531250000e+01 -6.984981060028076172e+00 1.208672761917114258e+00 -9.639338850975036621e-01 7.342164218425750732e-02 1.792264938354492188e+00
1.557000000000000000e+03 1.487758350372314453e+01 -6.362739562988281250e+00 1.094958782196044922e+00 -1.022754669189453125e+00 2.166123315691947937e-02 1.524091839790344238e+00
1.558000000000000000e+03 6.813411712646484375e+00 4.120698451995849609e+00 -1.730574518442153931e-01 -5.817981809377670288e-02 -6.937118619680404663e-02 2.432264387607574463e-01
1.559000000000000000e+03 6.883882522583007812e+00 3.384365081787109375e+00 -2.013135999441146851e-01 -4.843188449740409851e-02 -7.492364197969436646e-02 2.212636619806289673e-01
1.560000000000000000e+03 3.488451719284057617e+00 6.127963542938232422e+00 -3.854327648878097534e-02 -1.718351244926452637e-01 -6.311352550983428955e-02 1.938340216875076294e-01
1.561000000000000000e+03 3.811445713043212891e+00 4.681039333343505859e+00 -6.547947227954864502e-02 -1.185945868492126465e-01 -5.522221699357032776e-02 1.805609911680221558e-01
1.562000000000000000e+03 5.266169071197509766e+00 4.854804992675781250e+00 -9.936852008104324341e-02 -1.040530055761337280e-01 -6.102645769715309143e-02 2.350804656744003296e-01
1.563000000000000000e+03 9.926490783691406250e+00 -4.631329059600830078e+00 -1.074823617935180664e+00 1.128418326377868652e+00 1.607840880751609802e-02 4.978772699832916260e-01
1.564000000000000000e+03 1.409786224365234375e+00 4.959961891174316406e+00 -1.278774999082088470e-02 -1.377047449350357056e-01 -4.514775052666664124e-02 8.084901422262191772e-02
1.565000000000000000e+03 1.155206298828125000e+01 -4.118384838104248047e+00 -8.996585607528686523e-01 4.598304331302642822e-01 -1.319484263658523560e-01 8.340821862220764160e-01
1.566000000000000000e+03 1.279120349884033203e+01 -5.475204944610595703e+00 -8.531826734542846680e-02 1.717939823865890503e-01 2.594271488487720490e-02 1.427403450012207031e+00
1.567000000000000000e+03 1.729598236083984375e+01 -1.142499256134033203e+01 -2.419507652521133423e-01 -2.618220329284667969e+00 -8.580513000488281250e-01 3.221503973007202148e+00
1.568000000000000000e+03 1.178815650939941406e+01 -5.928040027618408203e+00 -2.754290997982025146e-01 7.892280817031860352e-01 1.541396975517272949e-01 1.430749416351318359e+00
1.569000000000000000e+03 1.231343078613281250e+01 -4.367190837860107422e+00 -6.246939301490783691e-01 2.793259620666503906e-01 -1.036103889346122742e-01 1.070207953453063965e+00
1.570000000000000000e+03 1.485667133331298828e+01 2.979300737380981445e+00 -4.563437402248382568e-01 -5.724362283945083618e-02 -1.540762186050415039e-01 8.057592809200286865e-02
1.571000000000000000e+03 6.245385646820068359e+00 -4.468677043914794922e+00 -1.000514626502990723e+00 7.152729034423828125e-01 -8.557252585887908936e-02 -1.034015774726867676e+00
1.572000000000000000e+03 8.461588859558105469e+00 -4.457947731018066406e+00 -1.199414968490600586e+00 1.175245642662048340e+00 -7.250776980072259903e-03 -1.474662423133850098e-01
1.573000000000000000e+03 7.749660015106201172e+00 -3.595713853836059570e+00 -1.289411544799804688e+00 8.030945658683776855e-01 -1.458950936794281006e-01 -3.835353851318359375e-01
1.574000000000000000e+03 6.186372280120849609e+00 -3.651311635971069336e+00 -1.080852150917053223e+00 5.501084923744201660e-01 -1.592230796813964844e-01 -8.687543272972106934e-01
1.575000000000000000e+03 5.487576007843017578e+00 -4.612214565277099609e+00 -8.667888045310974121e-01 5.483435392379760742e-01 -9.553356468677520752e-02 -1.189987182617187500e+00
1.576000000000000000e+03 3.991402387619018555e+00 -6.085729122161865234e+00 -4.506247937679290771e-01 -2.206307500600814819e-01 -2.013766616582870483e-01 -1.638645887374877930e+00
1.577000000000000000e+03 2.845721006393432617e+00 -6.140455245971679688e+00 -2.030722051858901978e-01 -9.739936590194702148e-01 -3.531197607517242432e-01 -1.413005948066711426e+00
1.578000000000000000e+03 1.293136119842529297e+01 4.887420654296875000e+00 -3.385707736015319824e-01 2.244727313518524170e-02 -9.483705461025238037e-02 2.015150189399719238e-01
1.579000000000000000e+03 1.111955165863037109e+01 3.181100845336914062e+00 -3.696894347667694092e-01 -2.538685873150825500e-02 -1.185228899121284485e-01 2.059905529022216797e-01
1.580000000000000000e+03 2.081548118591308594e+01 -1.213524460792541504e+00 -3.523711562156677246e-01 9.128065109252929688e-01 1.681306064128875732e-01 1.838456243276596069e-01
1.581000000000000000e+03 2.417880630493164062e+01 -1.266618728637695312e+01 -1.990366339683532715e+00 2.167142391204833984e+00 5.303281918168067932e-02 -7.293308973312377930e-01
1.582000000000000000e+03 1.520263290405273438e+01 -5.675186157226562500e+00 7.502351999282836914e-01 -8.579291701316833496e-01 -3.230819106101989746e-02 1.211383938789367676e+00
1.583000000000000000e+03 2.170416259765625000e+01 -1.146457386016845703e+01 -4.652310609817504883e-01 3.319930315017700195e+00 8.564097285270690918e-01 1.831408500671386719e+00
1.584000000000000000e+03 8.012851715087890625e+00 5.711011409759521484e+00 -1.452249139547348022e-01 -5.782223865389823914e-02 -6.091414391994476318e-02 3.049231469631195068e-01
1.585000000000000000e+03 1.474170207977294922e+01 4.181256294250488281e+00 -4.326281845569610596e-01 -2.401227317750453949e-02 -1.369921416044235229e-01 1.068853065371513367e-01
1.586000000000000000e+03 1.266889095306396484e+01 4.129927158355712891e+00 -3.826603591442108154e-01 8.946869522333145142e-03 -1.121140420436859131e-01 1.895032525062561035e-01
1.587000000000000000e+03 1.249175548553466797e+01 2.846231698989868164e+00 -4.294142723083496094e-01 -3.488259389996528625e-02 -1.392890512943267822e-01 1.565116047859191895e-01
1.588000000000000000e+03 1.059417819976806641e+01 -8.119225502014160156e+00 -2.965844571590423584e-01 2.671168327331542969e+00 7.123751640319824219e-01 1.737625837326049805e+00
1.589000000000000000e+03 1.805853271484375000e+01 -6.821765899658203125e+00 2.278577089309692383e+00 -1.339092373847961426e+00 2.818453907966613770e-01 -1.130722183734178543e-02
1.590000000000000000e+03 1.953183937072753906e+01 -3.093559741973876953e-01 -2.725388109683990479e-01 2.786625325679779053e-01 1.837108982726931572e-03 1.317083537578582764e-01
1.591000000000000000e+03 1.174141693115234375e+01 4.288586616516113281e+00 -3.317248821258544922e-01 -4.074809607118368149e-03 -1.007399111986160278e-01 2.211424112319946289e-01
1.592000000000000000e+03 9.227458953857421875e+00 4.478861331939697266e+00 -2.392372488975524902e-01 -3.286095336079597473e-02 -8.162946254014968872e-02 2.764820754528045654e-01
1.593000000000000000e+03 1.782778167724609375e+01 7.358306050300598145e-01 -2.972751557826995850e-01 -1.258503794670104980e-01 -1.269376575946807861e-01 8.427252620458602905e-02
1.594000000000000000e+03 1.747898864746093750e+01 2.533388853073120117e+00 -4.802338778972625732e-01 -1.433767527341842651e-01 -1.870831847190856934e-01 2.298330515623092651e-02
1.595000000000000000e+03 1.148644351959228516e+01 -8.455119132995605469e+00 2.714274227619171143e-01 1.977636456489562988e+00 6.747191548347473145e-01 2.567839384078979492e+00
1.596000000000000000e+03 3.951387786865234375e+01 -1.484272861480712891e+01 -1.732661247253417969e+00 8.515864610671997070e-02 -4.942507743835449219e-01 -5.059954524040222168e-01
1.597000000000000000e+03 3.920655059814453125e+01 1.571826171875000000e+01 6.514125466346740723e-01 1.552841305732727051e+00 6.612761616706848145e-01 6.258860826492309570e-01
1.598000000000000000e+03 1.095545291900634766e+01 1.160958194732666016e+01 2.004178464412689209e-01 9.662559628486633301e-02 8.911303430795669556e-02 3.646624088287353516e-01
1.599000000000000000e+03 7.382174015045166016e+00 -1.061236953735351562e+01 1.494463801383972168e+00 4.037932395935058594e+00 1.659718871116638184e+00 -1.084737539291381836e+00
1.600000000000000000e+03 4.299305438995361328e+00 -1.252927589416503906e+01 1.472640395164489746e+00 -4.499178230762481689e-01 3.068167865276336670e-01 -1.018664121627807617e+00
1.601000000000000000e+03 8.474916458129882812e+00 -1.090808105468750000e+01 9.492021799087524414e-01 7.413095951080322266e+00 2.508689403533935547e+00 -7.327967286109924316e-01
1.602000000000000000e+03 5.817775726318359375e+01 8.227226257324218750e+00 4.269247651100158691e-01 2.490456819534301758e+00 8.752145171165466309e-01 -4.710922837257385254e-01
1.603000000000000000e+03 4.451967620849609375e+01 -1.486603260040283203e+01 -1.720710873603820801e+00 -6.747850030660629272e-02 -5.364568233489990234e-01 -5.698097944259643555e-01
1.604000000000000000e+03 4.067302322387695312e+01 -1.469582462310791016e+01 -1.689235091209411621e+00 6.670941412448883057e-02 -4.867576956748962402e-01 -4.991135597229003906e-01
1.605000000000000000e+03 3.217692947387695312e+01 -1.487119865417480469e+01 -2.209458112716674805e+00 2.274963110685348511e-01 -5.945885181427001953e-01 -6.092528104782104492e-01
1.606000000000000000e+03 3.152408027648925781e+01 -1.166592407226562500e+01 -5.380095243453979492e-01 7.556059956550598145e-02 -1.387346833944320679e-01 -7.198783755302429199e-01
1.607000000000000000e+03 2.821680259704589844e+01 -1.537654876708984375e+01 -3.590920209884643555e+00 4.623474180698394775e-01 -9.385718703269958496e-01 -3.710606992244720459e-01
1.608000000000000000e+03 5.524342727661132812e+01 -6.403281211853027344e+00 -1.759244441986083984e+00 3.385965526103973389e-02 -5.176154375076293945e-01 -3.611189424991607666e-01
1.609000000000000000e+03 6.009863662719726562e+01 -5.864334583282470703e+00 -2.114218473434448242e+00 -2.769031822681427002e-01 -7.173365354537963867e-01 -7.118579745292663574e-01
1.610000000000000000e+03 5.150976943969726562e+01 -1.162205410003662109e+01 -1.882999658584594727e+00 -1.923025548458099365e-01 -6.225906610488891602e-01 -7.678803801536560059e-01
1.611000000000000000e+03 4.846157455444335938e+01 -1.173694419860839844e+01 -1.652743220329284668e+00 -4.826901853084564209e-02 -5.103036761283874512e-01 -5.978379845619201660e-01
1.612000000000000000e+03 3.467200088500976562e+01 -1.504017066955566406e+01 -1.984584093093872070e+00 1.531702876091003418e-01 -5.494241118431091309e-01 -5.234088301658630371e-01
1.613000000000000000e+03 3.595018005371093750e+01 -1.621316909790039062e+01 -2.170855760574340820e+00 1.263242661952972412e-01 -6.133594512939453125e-01 -3.987769484519958496e-01
1.614000000000000000e+03 4.730968475341796875e+01 -1.227782726287841797e+01 -1.615934729576110840e+00 -4.324421286582946777e-02 -4.977536797523498535e-01 -5.886821746826171875e-01
1.615000000000000000e+03 4.798040390014648438e+01 -1.336941051483154297e+01 -1.729566812515258789e+00 -9.504795819520950317e-02 -5.473844408988952637e-01 -6.710910201072692871e-01
1.616000000000000000e+03 1.121767807006835938e+01 1.499796199798583984e+01 2.878820896148681641e-01 9.300945699214935303e-02 1.142674684524536133e-01 2.304956912994384766e-01
1.617000000000000000e+03 1.423494529724121094e+01 5.524809837341308594e+00 -3.263370692729949951e-01 -2.930921618826687336e-04 -9.798905253410339355e-02 1.759900152683258057e-01
1.618000000000000000e+03 1.202456760406494141e+01 5.097938537597656250e+00 -2.987213730812072754e-01 3.480854630470275879e-02 -7.917384803295135498e-02 2.457276135683059692e-01
1.619000000000000000e+03 6.589233875274658203e+00 -1.552196311950683594e+01 2.166874408721923828e+00 4.452754497528076172e+00 1.985888719558715820e+00 1.102267384529113770e+00
1.620000000000000000e+03 2.005205535888671875e+01 7.172554731369018555e-01 -3.083216249942779541e-01 3.941786289215087891e-01 2.575710229575634003e-02 2.087149471044540405e-01
1.621000000000000000e+03 1.990877151489257812e+01 -1.128071975708007812e+01 8.051888346672058105e-01 -9.149114787578582764e-02 2.141093164682388306e-01 3.439184427261352539e+00
1.622000000000000000e+03 4.568126296997070312e+01 -1.440845680236816406e+01 -1.686383843421936035e+00 -9.172751009464263916e-02 -5.334333777427673340e-01 -6.048895716667175293e-01
1.623000000000000000e+03 4.181261062622070312e+01 -1.449399375915527344e+01 -1.662886857986450195e+00 3.648134693503379822e-02 -4.879216253757476807e-01 -5.106197595596313477e-01
1.624000000000000000e+03 9.939676284790039062e+00 5.020980834960937500e+00 -2.308485507965087891e-01 -1.800999045372009277e-02 -7.465756684541702271e-02 2.832697331905364990e-01
1.625000000000000000e+03 1.269600296020507812e+01 8.645602226257324219e+00 -4.254548251628875732e-02 1.842706501483917236e-01 4.251755028963088989e-02 2.904110550880432129e-01
1.626000000000000000e+03 5.014852523803710938e+01 -9.616945266723632812e+00 -1.613315343856811523e+00 -4.061285406351089478e-03 -4.852129817008972168e-01 -4.876338541507720947e-01
1.627000000000000000e+03 4.449525833129882812e+01 -1.227060127258300781e+01 -1.466190934181213379e+00 1.236100215464830399e-02 -4.361489713191986084e-01 -4.921317696571350098e-01
1.628000000000000000e+03 3.713156509399414062e+01 -1.502527427673339844e+01 -1.828303337097167969e+00 1.103585362434387207e-01 -5.153834223747253418e-01 -4.997123479843139648e-01
1.629000000000000000e+03 5.415049743652343750e+01 -8.743225097656250000e+00 -2.018065452575683594e+00 -1.042804419994354248e-01 -6.367037892341613770e-01 -6.472741365432739258e-01
1.630000000000000000e+03 3.208924484252929688e+01 -1.600827598571777344e+01 -2.710366010665893555e+00 2.499396353960037231e-01 -7.381278872489929199e-01 -3.854829370975494385e-01
1.631000000000000000e+03 2.328170585632324219e+01 2.818915128707885742e+00 -3.174842298030853271e-01 1.290074706077575684e+00 2.917771637439727783e-01 7.682130336761474609e-01
1.632000000000000000e+03 2.332643699645996094e+01 -1.232300281524658203e+01 -1.781209349632263184e+00 2.561277151107788086e+00 2.340203523635864258e-01 -4.190060794353485107e-01
1.633000000000000000e+03 2.313702964782714844e+01 -1.319603633880615234e+01 -3.671949625015258789e+00 1.866638183593750000e+00 -5.415934920310974121e-01 3.086493909358978271e-01
1.634000000000000000e+03 3.722594833374023438e+01 -1.618897438049316406e+01 -2.043459177017211914e+00 9.705207496881484985e-02 -5.839220881462097168e-01 -4.337406158447265625e-01
1.635000000000000000e+03 2.966968345642089844e+01 -1.451533031463623047e+01 -2.488236427307128906e+00 3.797931075096130371e-01 -6.325330138206481934e-01 -7.324950098991394043e-01
1.636000000000000000e+03 2.840204238891601562e+01 -1.427334785461425781e+01 -2.595058679580688477e+00 5.365025401115417480e-01 -6.175668239593505859e-01 -7.860186100006103516e-01
1.637000000000000000e+03 6.619207000732421875e+01 -2.365763473510742188e+01 -7.859229445457458496e-01 5.798883438110351562e+00 1.503888130187988281e+00 9.083318114280700684e-01
1.638000000000000000e+03 1.549447917938232422e+01 3.540718317031860352e+00 -4.530043303966522217e-01 -6.818643957376480103e-02 -1.563572287559509277e-01 9.184446185827255249e-02
1.639000000000000000e+03 6.039336395263671875e+01 -2.556893348693847656e+01 -6.916599869728088379e-01 9.147583246231079102e-01 6.692949682474136353e-02 1.244675368070602417e-01
1.640000000000000000e+03 6.196792984008789062e+01 -2.806896972656250000e+01 -5.060719251632690430e-01 2.548224687576293945e+00 6.126458644866943359e-01 5.076081156730651855e-01
1.641000000000000000e+03 3.342652511596679688e+01 -1.497970962524414062e+01 -2.103900432586669922e+00 2.013641893863677979e-01 -5.707609057426452637e-01 -5.521696805953979492e-01
1.642000000000000000e+03 1.558597087860107422e+01 -9.927262306213378906e+00 1.409402728080749512e+00 -2.606923580169677734e+00 -3.592562377452850342e-01 2.560012817382812500e+00
1.643000000000000000e+03 1.430903434753417969e+01 -9.435945510864257812e+00 1.722021579742431641e+00 -1.745868206024169922e+00 -7.153980433940887451e-03 2.675718545913696289e+00
1.644000000000000000e+03 2.219764900207519531e+01 -3.563381958007812500e+01 -1.531968265771865845e-01 5.705221891403198242e-01 1.251976042985916138e-01 -1.862290650606155396e-01
1.645000000000000000e+03 2.524371337890625000e+01 -3.552652740478515625e+01 -8.818619698286056519e-02 3.021579682826995850e-01 6.419152766466140747e-02 -1.250914484262466431e-01
1.646000000000000000e+03 5.253846359252929688e+01 4.322278022766113281e+00 5.752513408660888672e-01 4.557334184646606445e-01 3.092954456806182861e-01 2.359390556812286377e-01
1.647000000000000000e+03 7.552015686035156250e+01 1.290518283843994141e+01 2.853047475218772888e-02 7.026548862457275391e+00 2.116523742675781250e+00 -4.754482209682464600e-01
1.648000000000000000e+03 7.538568115234375000e+01 -9.421208500862121582e-01 -6.310024261474609375e-01 8.505555152893066406e+00 2.362365722656250000e+00 7.207105755805969238e-01
1.649000000000000000e+03 7.347628021240234375e+01 -1.042790603637695312e+01 2.059944868087768555e+00 1.040615653991699219e+01 3.739830255508422852e+00 1.746589243412017822e-01
1.650000000000000000e+03 7.546337890625000000e+01 -1.600330734252929688e+01 3.849741518497467041e-01 8.721303939819335938e+00 2.731883525848388672e+00 -1.454883217811584473e+00
1.651000000000000000e+03 7.663774108886718750e+01 -1.455172348022460938e+01 4.980385601520538330e-01 7.562157630920410156e+00 2.418058872222900391e+00 -1.165067434310913086e+00
1.652000000000000000e+03 7.710964965820312500e+01 -6.480010509490966797e+00 1.875115036964416504e-01 7.213692188262939453e+00 2.220361232757568359e+00 1.101983904838562012e+00
1.653000000000000000e+03 7.598279571533203125e+01 -6.305660247802734375e+00 2.192922234535217285e-01 8.119548797607421875e+00 2.501652240753173828e+00 1.356301903724670410e+00
1.654000000000000000e+03 7.584976196289062500e+01 -3.770637512207031250e+00 -3.518538773059844971e-01 8.400484085083007812e+00 2.414589166641235352e+00 1.233372211456298828e+00
1.655000000000000000e+03 7.364238739013671875e+01 -1.202402687072753906e+01 1.969848632812500000e+00 1.025461101531982422e+01 3.667337894439697266e+00 -6.254822611808776855e-01
1.656000000000000000e+03 7.686244201660156250e+01 -1.182639884948730469e+01 6.434347629547119141e-01 6.928340911865234375e+00 2.271532773971557617e+00 -2.536109089851379395e-01
1.657000000000000000e+03 7.467030334472656250e+01 -8.565464973449707031e+00 1.175000548362731934e+00 8.856462478637695312e+00 3.009438753128051758e+00 1.034748673439025879e+00
1.658000000000000000e+03 7.589919281005859375e+01 -7.546340942382812500e+00 5.254174470901489258e-01 7.931559085845947266e+00 2.537092924118041992e+00 1.148222208023071289e+00
1.659000000000000000e+03 7.599150085449218750e+01 -5.065613269805908203e+00 -6.832885742187500000e-02 8.223608016967773438e+00 2.446583747863769531e+00 1.321750521659851074e+00
1.660000000000000000e+03 7.674104309082031250e+01 1.765989422798156738e+00 -2.999782860279083252e-01 8.248915672302246094e+00 2.384681224822998047e+00 2.092231661081314087e-01
1.661000000000000000e+03 7.542979431152343750e+01 1.909163713455200195e+00 -4.871144890785217285e-01 8.150991439819335938e+00 2.299163103103637695e+00 1.413380205631256104e-01
1.662000000000000000e+03 7.549528503417968750e+01 6.102386474609375000e+00 -2.065636664628982544e-01 7.699280261993408203e+00 2.247814893722534180e+00 -3.541682958602905273e-01
1.663000000000000000e+03 7.558210754394531250e+01 -1.713931083679199219e+01 -5.685940384864807129e-02 8.723518371582031250e+00 2.599997520446777344e+00 -1.632474184036254883e+00
1.664000000000000000e+03 7.607247161865234375e+01 3.522996139526367188e+01 1.136522460728883743e-02 5.940605640411376953e+00 1.785591244697570801e+00 -8.234634250402450562e-02
1.665000000000000000e+03 7.464787292480468750e+01 3.199273872375488281e+01 4.559383541345596313e-02 5.833795547485351562e+00 1.763816833496093750e+00 -1.628566235303878784e-01
1.666000000000000000e+03 7.545841217041015625e+01 3.316654682159423828e+00 -3.981060087680816650e-01 8.010359764099121094e+00 2.283676147460937500e+00 -1.100176349282264709e-01
1.667000000000000000e+03 7.540158843994140625e+01 4.954542815685272217e-01 -5.934496521949768066e-01 8.347740173339843750e+00 2.326287031173706055e+00 3.235728144645690918e-01
1.668000000000000000e+03 7.547959136962890625e+01 4.717042922973632812e+00 -2.750984728336334229e-01 7.827118396759033203e+00 2.265605926513671875e+00 -2.182291746139526367e-01
1.669000000000000000e+03 7.417987060546875000e+01 3.463417530059814453e+00 -5.056924223899841309e-01 7.775249004364013672e+00 2.180866956710815430e+00 -2.681578993797302246e-01
1.670000000000000000e+03 7.352443695068359375e+01 -1.896815299987792969e+01 -3.276419043540954590e-01 9.712981224060058594e+00 2.815601825714111328e+00 -1.414056777954101562e+00
1.671000000000000000e+03 7.666851043701171875e+01 -1.748731994628906250e+01 3.598963469266891479e-02 8.122761726379394531e+00 2.447625398635864258e+00 -1.376013875007629395e+00
1.672000000000000000e+03 7.681329345703125000e+01 8.711619377136230469e+00 -3.667762130498886108e-02 7.742228984832763672e+00 2.311665534973144531e+00 -3.195990025997161865e-01
1.673000000000000000e+03 7.551523590087890625e+01 7.471026897430419922e+00 -1.193429306149482727e-01 7.541484832763671875e+00 2.226642608642578125e+00 -3.988023698329925537e-01
1.674000000000000000e+03 7.672472381591796875e+01 1.702925682067871094e+01 3.696036338806152344e-02 6.946253776550292969e+00 2.094964265823364258e+00 -3.100860118865966797e-01
1.675000000000000000e+03 7.536782073974609375e+01 1.570952129364013672e+01 5.504428222775459290e-02 6.772071361541748047e+00 2.048134803771972656e+00 -4.347721636295318604e-01
1.676000000000000000e+03 7.555834960937500000e+01 1.018868446350097656e+01 -2.570201084017753601e-02 7.283308029174804688e+00 2.177281856536865234e+00 -4.745515882968902588e-01
1.677000000000000000e+03 7.426575469970703125e+01 8.950994491577148438e+00 -9.238561987876892090e-02 7.077135562896728516e+00 2.095424890518188477e+00 -5.838561654090881348e-01
1.678000000000000000e+03 7.535588073730468750e+01 1.714062500000000000e+01 4.312058538198471069e-02 6.670980453491210938e+00 2.014230251312255859e+00 -4.129679501056671143e-01
1.679000000000000000e+03 7.391485595703125000e+01 1.727612113952636719e+01 9.092731028795242310e-02 6.347647190093994141e+00 1.931572318077087402e+00 -5.013741850852966309e-01
1.680000000000000000e+03 7.544207763671875000e+01 1.996533775329589844e+01 4.637122526764869690e-02 6.500229835510253906e+00 1.963980317115783691e+00 -3.485544323921203613e-01
1.681000000000000000e+03 7.522371673583984375e+01 -2.883803749084472656e+01 -2.810150682926177979e-01 9.095794677734375000e+00 2.644433736801147461e+00 -3.399730026721954346e-01
1.682000000000000000e+03 7.434090423583984375e+01 -2.316523551940917969e+01 -5.815659761428833008e-01 9.083798408508300781e+00 2.550669670104980469e+00 -9.640418887138366699e-01
1.683000000000000000e+03 7.540216827392578125e+01 2.138938903808593750e+01 5.940750986337661743e-02 6.404849529266357422e+00 1.939277172088623047e+00 -3.263677060604095459e-01
1.684000000000000000e+03 7.545349884033203125e+01 -2.468021392822265625e+01 -4.030963182449340820e-01 9.117570877075195312e+00 2.614342212677001953e+00 -7.985772490501403809e-01
1.685000000000000000e+03 7.534514617919921875e+01 -2.609954452514648438e+01 -3.552537262439727783e-01 9.099508285522460938e+00 2.623276472091674805e+00 -6.330137252807617188e-01
1.686000000000000000e+03 7.550470733642578125e+01 -2.325681114196777344e+01 -4.139663279056549072e-01 9.075420379638671875e+00 2.598436117172241211e+00 -1.010184288024902344e+00
1.687000000000000000e+03 7.321098327636718750e+01 2.809361648559570312e+01 7.769780606031417847e-02 5.780302047729492188e+00 1.757399916648864746e+00 -2.784191370010375977e-01
1.688000000000000000e+03 7.685995483398437500e+01 2.702130889892578125e+01 2.392956241965293884e-02 6.321205139160156250e+00 1.903540372848510742e+00 -1.542598158121109009e-01
1.689000000000000000e+03 7.587830352783203125e+01 2.778113555908203125e+01 3.165607154369354248e-02 6.170746326446533203e+00 1.860720753669738770e+00 -1.974496543407440186e-01
1.690000000000000000e+03 7.708084106445312500e+01 3.009292030334472656e+01 1.864837855100631714e-02 6.217489242553710938e+00 1.870841264724731445e+00 -1.115359663963317871e-01
1.691000000000000000e+03 7.473189544677734375e+01 2.740217399597167969e+01 5.831913650035858154e-02 6.017601490020751953e+00 1.822776198387145996e+00 -2.408911287784576416e-01
1.692000000000000000e+03 7.387658691406250000e+01 -2.999490356445312500e+01 -2.849490940570831299e-01 8.566365242004394531e+00 2.484424829483032227e+00 -2.087094187736511230e-01
1.693000000000000000e+03 7.531142425537109375e+01 -3.549577713012695312e+01 -5.429374426603317261e-02 9.135414123535156250e+00 2.724335908889770508e+00 -3.481147065758705139e-02
1.694000000000000000e+03 7.586655426025390625e+01 -3.430294418334960938e+01 -1.463289409875869751e-01 9.320013046264648438e+00 2.752105236053466797e+00 -5.962050706148147583e-02
1.695000000000000000e+03 7.428215026855468750e+01 -3.372576904296875000e+01 -1.510382294654846191e-01 8.569904327392578125e+00 2.525659799575805664e+00 -5.063714832067489624e-02
1.696000000000000000e+03 7.451353454589843750e+01 3.353857803344726562e+01 4.996580258011817932e-02 5.769554615020751953e+00 1.745856046676635742e+00 -1.505068391561508179e-01
1.697000000000000000e+03 7.600355529785156250e+01 2.950325775146484375e+01 2.545003779232501984e-02 6.100913047790527344e+00 1.837908983230590820e+00 -1.716943383216857910e-01
1.698000000000000000e+03 1.458107280731201172e+01 -2.693609237670898438e+01 -7.549452781677246094e-02 1.617247462272644043e+00 4.625258743762969971e-01 -4.815583527088165283e-01
1.699000000000000000e+03 1.625073432922363281e+01 -2.881169128417968750e+01 -6.868539005517959595e-02 1.297892332077026367e+00 3.687621057033538818e-01 -4.270735681056976318e-01
1.700000000000000000e+03 3.043281078338623047e+00 -1.726162528991699219e+01 3.543892502784729004e-01 -1.998112797737121582e+00 -4.931170642375946045e-01 1.130912780761718750e+00
1.701000000000000000e+03 4.983638763427734375e+00 -1.518351459503173828e+01 1.688468098640441895e+00 1.171088695526123047e+00 8.578670620918273926e-01 8.139113187789916992e-01
1.702000000000000000e+03 4.399851322174072266e+00 2.161904144287109375e+01 1.410959474742412567e-02 -5.786700844764709473e-01 -1.693681329488754272e-01 5.035147815942764282e-02
1.703000000000000000e+03 3.174815654754638672e+00 -1.866388130187988281e+01 1.459829509258270264e-01 -1.524523377418518066e+00 -4.135621488094329834e-01 1.441829085350036621e+00
1.704000000000000000e+03 4.310551643371582031e+00 -1.695551872253417969e+01 7.131770849227905273e-01 9.416376054286956787e-02 2.422022521495819092e-01 1.414383769035339355e+00
1.705000000000000000e+03 4.585916996002197266e+00 -2.143884277343750000e+01 -3.191674351692199707e-01 4.558388590812683105e-01 4.100142791867256165e-02 1.414458513259887695e+00
1.706000000000000000e+03 3.118471145629882812e+00 2.029710578918457031e+01 1.294885668903589249e-02 -6.731278896331787109e-01 -1.980537027120590210e-01 3.975259140133857727e-02
1.707000000000000000e+03 4.446197509765625000e+00 2.303200149536132812e+01 9.006406180560588837e-03 -5.894300937652587891e-01 -1.741271018981933594e-01 4.348304495215415955e-02
1.708000000000000000e+03 6.878316402435302734e+00 -1.840089988708496094e+01 2.851457893848419189e-01 3.959884643554687500e+00 1.273509144783020020e+00 9.819601178169250488e-01
1.709000000000000000e+03 4.289249420166015625e+00 1.735054969787597656e+01 4.811696335673332214e-02 -5.215844511985778809e-01 -1.420402377843856812e-01 9.849217534065246582e-02
1.710000000000000000e+03 4.282777786254882812e+00 1.876551628112792969e+01 3.817500174045562744e-02 -5.443952083587646484e-01 -1.518660634756088257e-01 7.383321225643157959e-02
1.711000000000000000e+03 4.337746143341064453e+00 2.019685745239257812e+01 2.204442769289016724e-02 -5.618342161178588867e-01 -1.619369387626647949e-01 5.907390266656875610e-02
1.712000000000000000e+03 4.298176288604736328e+00 1.592960262298583984e+01 5.658845975995063782e-02 -4.926266670227050781e-01 -1.308114677667617798e-01 1.266080439090728760e-01
1.713000000000000000e+03 4.647629737854003906e+00 2.582850837707519531e+01 -1.518927398137748241e-03 -6.112231016159057617e-01 -1.838226020336151123e-01 4.412886872887611389e-02
1.714000000000000000e+03 4.933373928070068359e+00 3.008255767822265625e+01 -1.698165433481335640e-03 -6.480585336685180664e-01 -1.949270069599151611e-01 4.397235438227653503e-02
1.715000000000000000e+03 4.921638011932373047e+00 -2.842969512939453125e+01 -2.902827858924865723e-01 5.031603574752807617e-01 6.386326998472213745e-02 7.056904435157775879e-01
1.716000000000000000e+03 3.305010318756103516e+00 -2.442334175109863281e+01 -2.178893536329269409e-01 -4.313895106315612793e-01 -1.947836577892303467e-01 1.032974720001220703e+00
1.717000000000000000e+03 4.612113475799560547e+00 -2.289166450500488281e+01 -3.653474450111389160e-01 4.205310642719268799e-01 1.655508391559123993e-02 1.289362192153930664e+00
1.718000000000000000e+03 3.053994417190551758e+00 1.459829998016357422e+01 3.249263390898704529e-02 -5.532702207565307617e-01 -1.562332808971405029e-01 1.214061155915260315e-01
1.719000000000000000e+03 4.259209156036376953e+00 1.302340793609619141e+01 5.172133445739746094e-02 -4.175586700439453125e-01 -1.097512021660804749e-01 1.916320919990539551e-01
1.720000000000000000e+03 4.293043613433837891e+00 1.447673225402832031e+01 6.129131466150283813e-02 -4.559717178344726562e-01 -1.184041202068328857e-01 1.619607210159301758e-01
1.721000000000000000e+03 4.596098899841308594e+00 -1.026336765289306641e+01 7.180817723274230957e-01 1.986057609319686890e-01 2.750062644481658936e-01 -1.765918016433715820e+00
1.722000000000000000e+03 6.773317337036132812e+00 -1.373835945129394531e+01 3.731384992599487305e+00 5.069587707519531250e+00 2.640291929244995117e+00 1.904913038015365601e-01
1.723000000000000000e+03 5.652484416961669922e+00 2.296425437927246094e+01 1.022420171648263931e-02 -4.820217788219451904e-01 -1.415392756462097168e-01 6.151784583926200867e-02
1.724000000000000000e+03 4.768340110778808594e+00 2.724293327331542969e+01 -1.495526754297316074e-03 -6.211019754409790039e-01 -1.867792606353759766e-01 4.687401652336120605e-02
1.725000000000000000e+03 4.529194831848144531e+00 2.443304634094238281e+01 2.271505771204829216e-03 -6.024067997932434082e-01 -1.800405830144882202e-01 4.295932129025459290e-02
1.726000000000000000e+03 5.891787528991699219e+00 -2.558873558044433594e+01 -5.055034756660461426e-01 9.961942434310913086e-01 1.472072303295135498e-01 9.269025921821594238e-01
1.727000000000000000e+03 4.601487636566162109e+00 -2.431002616882324219e+01 -4.198377430438995361e-01 4.261370599269866943e-01 1.889796229079365730e-03 1.119394183158874512e+00
1.728000000000000000e+03 3.836214780807495117e+00 -3.140599060058593750e+01 -1.703307181596755981e-01 3.712225258350372314e-01 6.026754155755043030e-02 4.564215540885925293e-01
1.729000000000000000e+03 5.107668876647949219e+00 -2.979341888427734375e+01 -2.978100478649139404e-01 5.669472813606262207e-01 8.074116706848144531e-02 6.155860424041748047e-01
1.730000000000000000e+03 6.921591758728027344e+00 1.266191768646240234e+01 1.139511018991470337e-01 -2.432037442922592163e-01 -3.877579420804977417e-02 2.692837715148925781e-01
1.731000000000000000e+03 6.377309799194335938e+00 3.012020492553710938e+01 1.731947530061006546e-03 -5.352171063423156738e-01 -1.600455492734909058e-01 7.009705156087875366e-02
1.732000000000000000e+03 6.184548854827880859e+00 3.648428726196289062e+01 2.036572806537151337e-02 -6.191392540931701660e-01 -1.796320527791976929e-01 3.959764912724494934e-02
1.733000000000000000e+03 4.781227588653564453e+00 3.641025543212890625e+01 1.232384517788887024e-02 -7.159011960029602051e-01 -2.110732048749923706e-01 3.450134769082069397e-02
1.734000000000000000e+03 5.911891460418701172e+00 -1.448656177520751953e+01 2.746441841125488281e+00 2.491030931472778320e+00 1.571241855621337891e+00 4.170506596565246582e-01
1.735000000000000000e+03 3.788127183914184570e+00 -1.357395553588867188e+01 1.422369241714477539e+00 -1.221345901489257812e+00 6.030697748064994812e-02 -3.501016497611999512e-01
1.736000000000000000e+03 4.155691146850585938e+00 1.159045505523681641e+01 4.562157019972801208e-02 -3.769701421260833740e-01 -9.940457344055175781e-02 2.160603553056716919e-01
1.737000000000000000e+03 4.902637481689453125e+00 -5.739515781402587891e+00 -6.394809484481811523e-01 3.961564302444458008e-01 -7.299733906984329224e-02 -1.507689952850341797e+00
1.738000000000000000e+03 6.876173496246337891e+00 -3.226146316528320312e+01 -3.062960207462310791e-01 8.608176708221435547e-01 1.663564890623092651e-01 4.248139560222625732e-01
1.739000000000000000e+03 5.296120166778564453e+00 -3.116021347045898438e+01 -2.397827059030532837e-01 6.121109127998352051e-01 1.116984635591506958e-01 5.103564262390136719e-01
1.740000000000000000e+03 4.869140625000000000e+00 2.867200469970703125e+01 -1.063127070665359497e-03 -6.348884701728820801e-01 -1.907854825258255005e-01 4.717794805765151978e-02
1.741000000000000000e+03 3.856108427047729492e+00 3.460559463500976562e+01 2.106806263327598572e-02 -7.610970735549926758e-01 -2.220087051391601562e-01 3.107502125203609467e-02
1.742000000000000000e+03 6.802299499511718750e+00 3.394213485717773438e+01 1.959689706563949585e-02 -5.392447113990783691e-01 -1.558943390846252441e-01 5.936303362250328064e-02
1.743000000000000000e+03 1.378839111328125000e+01 -2.598053741455078125e+01 -4.775546863675117493e-02 1.800286769866943359e+00 5.257593989372253418e-01 -5.735285282135009766e-01
1.744000000000000000e+03 4.006914615631103516e+00 8.761401176452636719e+00 9.118750458583235741e-04 -2.704707384109497070e-01 -8.086765557527542114e-02 2.367396056652069092e-01
1.745000000000000000e+03 2.353651046752929688e+00 5.038211345672607422e+00 -2.916960045695304871e-02 -1.399151533842086792e-01 -5.072542652487754822e-02 1.236614882946014404e-01
1.746000000000000000e+03 4.481882095336914062e+00 4.894303321838378906e+00 -7.772181183099746704e-02 -1.153339818120002747e-01 -5.791673809289932251e-02 2.042866051197052002e-01
1.747000000000000000e+03 2.950353145599365234e+00 -4.974909782409667969e+00 -3.744601309299468994e-01 -6.692255735397338867e-01 -3.131057024002075195e-01 -1.260630607604980469e+00
1.748000000000000000e+03 6.512326049804687500e+01 -2.469142723083496094e+01 -7.205928564071655273e-01 4.890853881835937500e+00 1.251078367233276367e+00 8.736866712570190430e-01
1.749000000000000000e+03 5.519803237915039062e+01 -8.047683715820312500e+00 -2.115505218505859375e+00 -9.557156264781951904e-02 -6.633229851722717285e-01 -6.251157522201538086e-01
1.750000000000000000e+03 5.818710708618164062e+01 -7.457716941833496094e+00 -2.602221727371215820e+00 -2.836267948150634766e-01 -8.657545447349548340e-01 -8.818355202674865723e-01
1.751000000000000000e+03 5.306960678100585938e+01 -9.402033805847167969e+00 -1.939579606056213379e+00 -1.009328588843345642e-01 -6.121537089347839355e-01 -6.429142355918884277e-01
1.752000000000000000e+03 5.275915908813476562e+01 -3.285504150390625000e+01 -2.361755520105361938e-01 -2.129175215959548950e-01 -1.347279250621795654e-01 -3.450074195861816406e-01
1.753000000000000000e+03 5.591680908203125000e+01 -3.329405212402343750e+01 2.972490713000297546e-02 5.133236050605773926e-01 1.629145592451095581e-01 -1.237494405359029770e-02
1.754000000000000000e+03 7.284654617309570312e+00 -1.658941650390625000e+01 1.482852220535278320e+00 5.216498374938964844e+00 2.009805202484130859e+00 7.230085134506225586e-01
1.755000000000000000e+03 6.225590515136718750e+01 -3.089224100112915039e+00 -4.461382329463958740e-01 6.157721281051635742e-01 5.089016631245613098e-02 -1.493846058845520020e+00
1.756000000000000000e+03 4.909550857543945312e+01 2.731957912445068359e+00 4.072667956352233887e-01 1.612732261419296265e-01 1.705620139837265015e-01 2.015273869037628174e-01
1.757000000000000000e+03 4.804925537109375000e+01 3.587646245956420898e+00 4.650443196296691895e-01 1.419058591127395630e-01 1.820850521326065063e-01 1.703149825334548950e-01
1.758000000000000000e+03 2.006754112243652344e+01 -1.242875480651855469e+01 -2.540713310241699219e+00 -3.783428966999053955e-01 -8.757168650627136230e-01 3.131372690200805664e+00
1.759000000000000000e+03 8.973944664001464844e+00 -2.107961654663085938e+01 -3.905890285968780518e-01 3.983080148696899414e+00 1.077747344970703125e+00 -1.192406266927719116e-01
1.760000000000000000e+03 2.076803016662597656e+01 -3.292897033691406250e+01 -1.028330251574516296e-01 6.475217342376708984e-01 1.634066104888916016e-01 -2.706158459186553955e-01
1.761000000000000000e+03 1.386458492279052734e+01 4.621909141540527344e+00 -4.043052196502685547e-01 1.216277386993169785e-02 -1.176427304744720459e-01 1.682083457708358765e-01
1.762000000000000000e+03 5.349310302734375000e+01 4.963108539581298828e+00 5.970786213874816895e-01 6.805332899093627930e-01 3.832835555076599121e-01 2.404980808496475220e-01
1.763000000000000000e+03 5.582347106933593750e+01 3.145921230316162109e+00 3.135933279991149902e-01 9.575998187065124512e-01 3.813579380512237549e-01 -1.222600415349006653e-01
1.764000000000000000e+03 2.112764167785644531e+01 -3.120270919799804688e+01 -1.990007981657981873e-02 5.713403820991516113e-01 1.654320806264877319e-01 -3.003087341785430908e-01
1.765000000000000000e+03 4.292625045776367188e+01 6.664919376373291016e+00 2.240457981824874878e-01 6.397930383682250977e-01 2.591516375541687012e-01 9.359052777290344238e-02
1.766000000000000000e+03 4.265740966796875000e+01 4.398772716522216797e+00 2.633906602859497070e-01 4.902493953704833984e-01 2.260920107364654541e-01 2.005637884140014648e-01
1.767000000000000000e+03 1.108550834655761719e+01 1.274128532409667969e+01 2.649906575679779053e-01 9.237737953662872314e-02 1.072104051709175110e-01 3.183647990226745605e-01
1.768000000000000000e+03 4.160589599609375000e+01 8.114796638488769531e+00 8.893451839685440063e-02 1.060290217399597168e+00 3.447674214839935303e-01 2.475463151931762695e-01
1.769000000000000000e+03 1.074164581298828125e+01 1.051424694061279297e+01 1.152850911021232605e-01 7.666858285665512085e-02 5.758610367774963379e-02 3.670880198478698730e-01
1.770000000000000000e+03 5.851847457885742188e+01 1.119418716430664062e+01 5.434089303016662598e-01 3.200544595718383789e+00 1.123185992240905762e+00 -6.010785698890686035e-01
1.771000000000000000e+03 3.210322570800781250e+01 -3.564205551147460938e+01 -9.832777082920074463e-02 2.012772299349308014e-02 -2.346001565456390381e-02 -1.025581639260053635e-02
1.772000000000000000e+03 6.227895355224609375e+01 -2.581161499023437500e+01 -5.976412892341613770e-01 2.380080938339233398e+00 5.347318649291992188e-01 6.015306711196899414e-01
1.773000000000000000e+03 4.530164337158203125e+01 -3.789074707031250000e+01 1.454553902149200439e-01 -3.347306549549102783e-01 -5.678258091211318970e-02 -1.808099150657653809e-01
1.774000000000000000e+03 4.642365264892578125e+01 -3.617845916748046875e+01 4.166575521230697632e-02 -3.440497517585754395e-01 -9.071519225835800171e-02 -3.053486943244934082e-01
1.775000000000000000e+03 4.489334106445312500e+01 2.189509391784667969e+01 5.331354141235351562e-01 1.350337862968444824e+00 5.650419592857360840e-01 6.590358018875122070e-01
1.776000000000000000e+03 3.794309234619140625e+01 -3.495925903320312500e+01 -1.443443447351455688e-01 -7.722773402929306030e-02 -6.647162139415740967e-02 -6.967687606811523438e-02
1.777000000000000000e+03 3.826641464233398438e+01 -4.098392486572265625e+01 2.352711185812950134e-02 -1.722404509782791138e-01 -4.461400210857391357e-02 -1.011853665113449097e-02
1.778000000000000000e+03 2.683452796936035156e+01 1.460806083679199219e+01 -3.922250866889953613e-01 8.019457459449768066e-01 1.229162067174911499e-01 3.728244602680206299e-01
1.779000000000000000e+03 5.086480331420898438e+01 -3.293745040893554688e+01 -2.965056002140045166e-01 -3.413883745670318604e-01 -1.913681924343109131e-01 -4.124223887920379639e-01
1.780000000000000000e+03 6.476828002929687500e+01 -4.697977066040039062e+00 -3.447742760181427002e-01 1.151811122894287109e+00 2.421110719442367554e-01 -3.216686010360717773e+00
1.781000000000000000e+03 7.092344665527343750e+01 -9.436198234558105469e+00 3.167442560195922852e+00 1.328033351898193359e+01 4.934332847595214844e+00 6.263270974159240723e-01
1.782000000000000000e+03 7.076885986328125000e+01 -8.312713623046875000e+00 2.068425416946411133e+00 1.410512161254882812e+01 4.852064132690429688e+00 5.969974994659423828e-01
1.783000000000000000e+03 5.408150100708007812e+01 -3.491791152954101562e+01 2.238778918981552124e-01 1.800495535135269165e-01 1.211782321333885193e-01 -1.678136140108108521e-01
1.784000000000000000e+03 7.252494812011718750e+01 -1.804561614990234375e+01 -2.969770431518554688e-01 1.035605239868164062e+01 3.017722606658935547e+00 -1.206788420677185059e+00
1.785000000000000000e+03 7.154112243652343750e+01 -1.551913642883300781e+01 6.208194494247436523e-01 1.208091831207275391e+01 3.810521364212036133e+00 -9.834617376327514648e-01
1.786000000000000000e+03 4.376887130737304688e+01 5.488486289978027344e+00 3.070509135723114014e-01 4.243870973587036133e-01 2.194314002990722656e-01 4.961749911308288574e-02
1.787000000000000000e+03 6.949156188964843750e+01 -6.038076400756835938e+00 -6.871265769004821777e-01 1.322698783874511719e+01 3.761958360671997070e+00 -8.951677083969116211e-01
1.788000000000000000e+03 6.808630371093750000e+01 -3.391504526138305664e+00 -2.037965059280395508e+00 8.582510948181152344e+00 1.963363885879516602e+00 -2.716003894805908203e+00
1.789000000000000000e+03 1.089886283874511719e+01 -2.320260238647460938e+01 -2.597195208072662354e-01 2.935927152633666992e+00 8.028622865676879883e-01 -5.337984561920166016e-01
1.790000000000000000e+03 5.899064254760742188e+01 1.417036819458007812e+01 7.445062994956970215e-01 3.405013084411621094e+00 1.244855880737304688e+00 -7.373689413070678711e-01
1.791000000000000000e+03 6.870384216308593750e+01 -1.797689437866210938e+01 -2.030751854181289673e-01 1.096974563598632812e+01 3.230001211166381836e+00 1.057506442070007324e+00
1.792000000000000000e+03 7.333334350585937500e+01 -1.684109115600585938e+01 2.872660160064697266e-01 1.025136661529541016e+01 3.161589622497558594e+00 -1.421849846839904785e+00
1.793000000000000000e+03 6.160478973388671875e+01 -4.102130413055419922e+00 -1.208822131156921387e+00 1.997569352388381958e-01 -3.027195632457733154e-01 -1.129362821578979492e+00
1.794000000000000000e+03 6.045728302001953125e+01 -3.291626214981079102e+00 -7.366666793823242188e-01 2.301315665245056152e-01 -1.519605517387390137e-01 -8.880873322486877441e-01
1.795000000000000000e+03 6.874038696289062500e+01 -1.999689483642578125e+01 -7.385841012001037598e-01 9.381555557250976562e+00 2.592891454696655273e+00 5.952382087707519531e-01
1.796000000000000000e+03 7.552999877929687500e+01 4.051264190673828125e+01 4.237089306116104126e-02 5.903238296508789062e+00 1.783682703971862793e+00 1.520115323364734650e-02
1.797000000000000000e+03 1.552662658691406250e+01 -6.802105426788330078e+00 1.553868174552917480e+00 -1.429714679718017578e+00 3.724605590105056763e-02 1.423848271369934082e+00
1.798000000000000000e+03 1.632362556457519531e+01 -1.073023509979248047e+01 6.829472780227661133e-01 -2.725964069366455078e+00 -6.129050254821777344e-01 2.824088335037231445e+00
1.799000000000000000e+03 7.096983337402343750e+01 -1.899938964843750000e+01 -6.442977786064147949e-01 1.023285865783691406e+01 2.876568317413330078e+00 -7.982153892517089844e-01
1.800000000000000000e+03 5.185943603515625000e+01 2.271780395507812500e+01 7.957406640052795410e-01 1.447009444236755371e+00 6.728250384330749512e-01 -4.105727076530456543e-01
1.801000000000000000e+03 4.509976577758789062e+01 2.385904312133789062e+01 5.969919562339782715e-01 1.358066558837890625e+00 5.865175127983093262e-01 4.855103492736816406e-01
1.802000000000000000e+03 2.216125869750976562e+01 1.796716928482055664e+00 -3.805848658084869385e-01 9.606974124908447266e-01 1.740337759256362915e-01 5.646193623542785645e-01
1.803000000000000000e+03 7.999750137329101562e+00 -1.779804039001464844e+01 5.948608517646789551e-01 5.385549545288085938e+00 1.794123053550720215e+00 5.820571184158325195e-01
1.804000000000000000e+03 6.981196880340576172e+00 -1.968826675415039062e+01 -8.415367454290390015e-02 3.279017448425292969e+00 9.584591388702392578e-01 9.946753382682800293e-01
1.805000000000000000e+03 2.428494834899902344e+01 1.965581130981445312e+01 7.709642499685287476e-02 1.434652954339981079e-01 6.616851687431335449e-02 2.104654908180236816e-01
1.806000000000000000e+03 2.608991050720214844e+01 3.535323381423950195e+00 -1.451164186000823975e-01 1.807855248451232910e+00 4.988216459751129150e-01 7.637760639190673828e-01
1.807000000000000000e+03 2.711966896057128906e+01 -1.399721336364746094e+01 -2.831718921661376953e+00 7.248296141624450684e-01 -6.320667862892150879e-01 -8.106914162635803223e-01
1.808000000000000000e+03 2.455492210388183594e+01 -1.209993648529052734e+01 -1.054101705551147461e+00 2.080217123031616211e+00 3.078346550464630127e-01 -1.044696331024169922e+00
1.809000000000000000e+03 5.940632247924804688e+01 1.224064731597900391e+01 6.294478774070739746e-01 3.309746026992797852e+00 1.181758165359497070e+00 -7.684066295623779297e-01
1.810000000000000000e+03 4.200367355346679688e+01 7.163745403289794922e+00 1.343099474906921387e-01 8.549583554267883301e-01 2.967804968357086182e-01 1.782262176275253296e-01
1.811000000000000000e+03 2.367359352111816406e+01 2.279535865783691406e+01 2.096793204545974731e-01 2.192620635032653809e-01 1.286824196577072144e-01 2.781429588794708252e-01
1.812000000000000000e+03 2.130945968627929688e+01 2.040357971191406250e+01 1.460225135087966919e-01 7.404895965009927750e-03 4.602822288870811462e-02 4.132502079010009766e-01
1.813000000000000000e+03 7.184400177001953125e+01 -1.166450691223144531e+01 2.670361042022705078e+00 1.282518482208251953e+01 4.648663997650146484e+00 -5.196270942687988281e-01
1.814000000000000000e+03 2.534514236450195312e+01 1.796289062500000000e+01 -9.456390142440795898e-02 2.873651683330535889e-01 5.784038081765174866e-02 1.616510450839996338e-01
1.815000000000000000e+03 2.330327987670898438e+01 2.058017539978027344e+01 1.480540931224822998e-01 7.999977469444274902e-02 6.841616332530975342e-02 2.859985530376434326e-01
1.816000000000000000e+03 1.113064002990722656e+01 1.729714775085449219e+01 1.904280483722686768e-01 8.696085959672927856e-02 8.321667462587356567e-02 1.658593416213989258e-01
1.817000000000000000e+03 7.259936523437500000e+01 -1.474109172821044922e+01 1.004356741905212402e+00 1.090119075775146484e+01 3.571664094924926758e+00 -1.372859597206115723e+00
1.818000000000000000e+03 5.647507858276367188e+01 2.229432487487792969e+01 4.438517987728118896e-01 2.871209383010864258e+00 9.945183396339416504e-01 -6.875498890876770020e-01
1.819000000000000000e+03 5.473000335693359375e+01 2.149005317687988281e+01 4.867798686027526855e-01 2.321825981140136719e+00 8.425818085670471191e-01 -7.343313097953796387e-01
1.820000000000000000e+03 5.207358551025390625e+01 2.465041732788085938e+01 7.524209618568420410e-01 1.785040020942687988e+00 7.612382769584655762e-01 -3.262106180191040039e-01
1.821000000000000000e+03 3.682721328735351562e+01 1.337014293670654297e+01 4.510695040225982666e-01 1.322848200798034668e+00 5.321753025054931641e-01 7.669993638992309570e-01
1.822000000000000000e+03 7.187405395507812500e+01 -9.208224296569824219e+00 2.632550477981567383e+00 1.228609752655029297e+01 4.475594520568847656e+00 3.331390917301177979e-01
1.823000000000000000e+03 3.009240150451660156e+01 8.680060386657714844e+00 4.159058332443237305e-01 1.245539426803588867e+00 4.984335899353027344e-01 8.903590440750122070e-01
1.824000000000000000e+03 2.796728897094726562e+01 1.752501296997070312e+01 -9.870738536119461060e-02 7.459161877632141113e-01 1.941626518964767456e-01 2.872384488582611084e-01
1.825000000000000000e+03 1.642823410034179688e+01 1.867859458923339844e+01 8.078470081090927124e-02 3.812898099422454834e-01 1.386223584413528442e-01 4.124700427055358887e-01
1.826000000000000000e+03 1.735567283630371094e+01 1.790338134765625000e+01 6.142704561352729797e-02 4.812872707843780518e-01 1.628142893314361572e-01 5.566310286521911621e-01
1.827000000000000000e+03 4.016936111450195312e+01 1.160046482086181641e+01 3.576564490795135498e-01 1.634825587272644043e+00 5.977446436882019043e-01 7.403439283370971680e-01
1.828000000000000000e+03 2.397974014282226562e+01 -6.919301509857177734e+00 3.353527784347534180e+00 4.099770069122314453e+00 2.235989332199096680e+00 3.390337705612182617e+00
1.829000000000000000e+03 2.285463333129882812e+01 -5.623289585113525391e+00 -8.497115224599838257e-02 4.581133842468261719e+00 1.348848819732666016e+00 1.156750917434692383e+00
1.830000000000000000e+03 2.319797706604003906e+01 -6.289688110351562500e+00 8.902459144592285156e-01 5.471743583679199219e+00 1.908596873283386230e+00 2.376198053359985352e+00
1.831000000000000000e+03 2.264059638977050781e+01 -4.946475982666015625e+00 -3.536257743835449219e-01 3.616313219070434570e+00 9.788061976432800293e-01 6.674181818962097168e-01
1.832000000000000000e+03 2.346896171569824219e+01 -7.590663433074951172e+00 6.015859603881835938e+00 4.754024505615234375e+00 3.230965137481689453e+00 3.890828371047973633e+00
1.833000000000000000e+03 2.260010528564453125e+01 -4.438081741333007812e+00 -4.271880686283111572e-01 3.123956680297851562e+00 8.090305328369140625e-01 5.326398015022277832e-01
1.834000000000000000e+03 1.874286460876464844e+01 -7.608496189117431641e+00 3.698158502578735352e+00 -1.557955861091613770e+00 6.420608162879943848e-01 -2.227067649364471436e-01
1.835000000000000000e+03 1.827360534667968750e+01 -7.636291503906250000e+00 3.366280555725097656e+00 -1.821998596191406250e+00 4.632846117019653320e-01 1.976226419210433960e-01
1.836000000000000000e+03 1.713315963745117188e+01 -6.917045593261718750e+00 2.153930664062500000e+00 -1.715910673141479492e+00 1.314060091972351074e-01 6.411136388778686523e-01
1.837000000000000000e+03 1.824579811096191406e+01 -8.243425369262695312e+00 3.869765043258666992e+00 -2.143350601196289062e+00 5.179243087768554688e-01 6.370807886123657227e-01
1.838000000000000000e+03 2.467079162597656250e+01 -8.111100196838378906e+00 5.980747222900390625e+00 1.899553060531616211e+00 2.364090204238891602e+00 1.735548853874206543e+00
1.839000000000000000e+03 2.477085304260253906e+01 -7.561910152435302734e+00 4.827763557434082031e+00 2.408797740936279297e+00 2.170968294143676758e+00 2.709253072738647461e+00
1.840000000000000000e+03 2.202701950073242188e+01 -3.273110628128051758e+00 -4.514978826045989990e-01 2.092351198196411133e+00 4.922559857368469238e-01 2.647449970245361328e-01
1.841000000000000000e+03 2.237349700927734375e+01 -2.606180906295776367e+00 -4.795005023479461670e-01 2.062019586563110352e+00 4.747557044029235840e-01 4.209384024143218994e-01
1.842000000000000000e+03 2.221233177185058594e+01 -3.715081214904785156e+00 -4.752400219440460205e-01 2.389391660690307617e+00 5.742454528808593750e-01 3.051942586898803711e-01
1.843000000000000000e+03 1.323820781707763672e+01 -6.645176410675048828e+00 4.680212140083312988e-01 3.011242486536502838e-02 1.494400948286056519e-01 1.916534423828125000e+00
1.844000000000000000e+03 6.714201927185058594e+00 4.861835002899169922e+00 -1.456539779901504517e-01 -7.374738901853561401e-02 -6.582041084766387939e-02 2.693840265274047852e-01
1.845000000000000000e+03 3.480017662048339844e+00 3.810742616653442383e+00 -6.244472414255142212e-02 -9.053804725408554077e-02 -4.589483141899108887e-02 1.387721300125122070e-01
1.846000000000000000e+03 4.035109996795654297e+00 3.954405546188354492e+00 -8.117725700139999390e-02 -8.900646120309829712e-02 -5.105511471629142761e-02 1.647598147392272949e-01
1.847000000000000000e+03 4.485502243041992188e+00 5.865617752075195312e+00 -5.858276411890983582e-02 -1.495762169361114502e-01 -6.244769319891929626e-02 2.272561341524124146e-01
1.848000000000000000e+03 4.656543254852294922e+00 4.053628921508789062e+00 -1.011348143219947815e-01 -8.377006649971008301e-02 -5.547146126627922058e-02 1.886729449033737183e-01
1.849000000000000000e+03 1.403476047515869141e+01 -8.499297142028808594e+00 1.617209196090698242e+00 -1.031039237976074219e+00 1.758509576320648193e-01 2.785679340362548828e+00
1.850000000000000000e+03 5.997763156890869141e+00 4.827871799468994141e+00 -1.239036470651626587e-01 -8.452366292476654053e-02 -6.252819299697875977e-02 2.511393129825592041e-01
1.851000000000000000e+03 7.571466922760009766e+00 4.175230979919433594e+00 -1.975239962339401245e-01 -5.420902743935585022e-02 -7.551990449428558350e-02 2.594262361526489258e-01
1.852000000000000000e+03 7.442555904388427734e+00 4.915575981140136719e+00 -1.642649918794631958e-01 -6.195410341024398804e-02 -6.786572933197021484e-02 2.771909832954406738e-01
1.853000000000000000e+03 8.178325653076171875e+00 5.000850677490234375e+00 -1.812687963247299194e-01 -5.310193821787834167e-02 -7.031121850013732910e-02 2.900671362876892090e-01
1.854000000000000000e+03 1.396561908721923828e+01 -6.811311721801757812e+00 9.999430179595947266e-01 -6.530033946037292480e-01 1.040818914771080017e-01 1.905072927474975586e+00
1.855000000000000000e+03 2.618177223205566406e+01 -9.181016921997070312e+00 3.432653427124023438e+00 7.329339385032653809e-01 1.249676227569580078e+00 4.011476784944534302e-02
1.856000000000000000e+03 1.248730659484863281e+01 -6.329949855804443359e+00 1.049709171056747437e-01 3.940797150135040283e-01 1.497152000665664673e-01 1.647207140922546387e+00
1.857000000000000000e+03 1.064452362060546875e+01 -4.736642360687255859e+00 -9.291465282440185547e-01 9.214470982551574707e-01 -2.309831324964761734e-03 7.118646502494812012e-01
1.858000000000000000e+03 2.227284431457519531e+01 1.070160031318664551e+00 -4.041298329830169678e-01 1.142449855804443359e+00 2.214960157871246338e-01 5.595307350158691406e-01
1.859000000000000000e+03 2.479161071777343750e+01 -1.112976646423339844e+01 1.108182430267333984e+00 2.035065650939941406e+00 9.429743885993957520e-01 -1.306546330451965332e+00
1.860000000000000000e+03 2.341746902465820312e+01 -1.149756145477294922e+01 -1.107040718197822571e-01 3.299972772598266602e+00 9.567806124687194824e-01 -6.865267157554626465e-01
1.861000000000000000e+03 1.207455444335937500e+01 -5.166501998901367188e+00 -4.146394729614257812e-01 4.296367466449737549e-01 4.499182105064392090e-03 1.202134609222412109e+00
1.862000000000000000e+03 5.656035423278808594e+00 -5.449834346771240234e+00 -7.962356209754943848e-01 7.453085780143737793e-01 -1.527809631079435349e-02 -1.350401639938354492e+00
1.863000000000000000e+03 4.691951751708984375e+00 -4.802538394927978516e+00 -6.679610013961791992e-01 1.052197515964508057e-01 -1.688223779201507568e-01 -1.414329648017883301e+00
1.864000000000000000e+03 8.293685913085937500e+00 -7.060991287231445312e+00 -9.083384275436401367e-01 2.603798866271972656e+00 5.086381435394287109e-01 -2.166547179222106934e-01
1.865000000000000000e+03 1.769595527648925781e+01 -7.354492187500000000e+00 2.741696596145629883e+00 -1.807307839393615723e+00 2.803166210651397705e-01 4.076676070690155029e-01
1.866000000000000000e+03 1.474547767639160156e+01 -8.311357498168945312e+00 1.820452213287353516e+00 -1.651677727699279785e+00 5.063235014677047729e-02 2.275474071502685547e+00
1.867000000000000000e+03 6.987705707550048828e+00 -4.392528533935546875e+00 -1.126426219940185547e+00 9.787387847900390625e-01 -4.430622979998588562e-02 -7.226768732070922852e-01
1.868000000000000000e+03 9.112235069274902344e+00 -5.364133834838867188e+00 -1.066064119338989258e+00 1.642552137374877930e+00 1.729463934898376465e-01 2.136411666870117188e-01
1.869000000000000000e+03 6.359682559967041016e+00 -5.254619121551513672e+00 -9.672356247901916504e-01 1.089074850082397461e+00 3.655174747109413147e-02 -1.106721401214599609e+00
1.870000000000000000e+03 6.995705127716064453e+00 -5.126208782196044922e+00 -1.068847417831420898e+00 1.217718124389648438e+00 4.466123133897781372e-02 -8.090110421180725098e-01
1.871000000000000000e+03 1.348116016387939453e+01 3.846638917922973633e+00 -4.044458270072937012e-01 -1.916582137346267700e-02 -1.270834952592849731e-01 1.408068835735321045e-01
1.872000000000000000e+03 2.367238807678222656e+01 2.170023918151855469e+00 -4.046674668788909912e-01 1.562110543251037598e+00 3.472329080104827881e-01 7.999165654182434082e-01
1.873000000000000000e+03 2.510329627990722656e+01 2.555366277694702148e+00 -3.137684166431427002e-01 1.769526958465576172e+00 4.367275834083557129e-01 8.395734429359436035e-01
1.874000000000000000e+03 2.501780891418457031e+01 3.640459299087524414e+00 -2.458797842264175415e-01 1.771672129631042480e+00 4.577376842498779297e-01 7.342712283134460449e-01
1.875000000000000000e+03 1.727357292175292969e+01 -7.865513324737548828e+00 2.925474405288696289e+00 -2.256396532058715820e+00 2.007233798503875732e-01 9.254795312881469727e-01
1.876000000000000000e+03 1.324734115600585938e+01 -8.595647811889648438e+00 1.038678050041198730e+00 -6.304028630256652832e-02 2.926913499832153320e-01 2.801723957061767578e+00
1.877000000000000000e+03 6.279994487762451172e+00 -9.152892112731933594e+00 5.677294358611106873e-02 2.797024011611938477e+00 8.561391234397888184e-01 -1.574613213539123535e+00
1.878000000000000000e+03 1.128324317932128906e+01 -9.407447814941406250e+00 5.899218916893005371e-01 2.625699758529663086e+00 9.646865129470825195e-01 2.710850238800048828e+00
1.879000000000000000e+03 1.121793842315673828e+01 5.404773712158203125e+00 -2.444163560867309570e-01 1.154455728828907013e-02 -6.986153870820999146e-02 2.710353434085845947e-01
1.880000000000000000e+03 2.169434738159179688e+01 3.078978061676025391e-01 -3.829307556152343750e-01 1.041843891143798828e+00 1.976739317178726196e-01 4.230070710182189941e-01
1.881000000000000000e+03 2.028194236755371094e+01 -1.291577890515327454e-02 -3.038388192653656006e-01 5.508193373680114746e-01 7.409415394067764282e-02 2.151042520999908447e-01
1.882000000000000000e+03 8.604945182800292969e+00 6.353728771209716797e+00 -1.348400712013244629e-01 -4.091500863432884216e-02 -5.272652581334114075e-02 3.272674381732940674e-01
1.883000000000000000e+03 3.092241287231445312e+01 -1.471322822570800781e+01 -2.329009294509887695e+00 3.022156059741973877e-01 -6.080380678176879883e-01 -6.540793776512145996e-01
1.884000000000000000e+03 2.597350311279296875e+01 -8.608860969543457031e+00 3.883825302124023438e+00 8.707897067070007324e-01 1.426384568214416504e+00 6.046763658523559570e-01
1.885000000000000000e+03 5.526635646820068359e+00 -1.634628486633300781e+01 1.394205689430236816e+00 1.962486863136291504e+00 1.007007718086242676e+00 1.140840768814086914e+00
1.886000000000000000e+03 4.264036560058593750e+01 5.504159450531005859e+00 2.321308255195617676e-01 5.777267813682556152e-01 2.429572939872741699e-01 1.639476716518402100e-01
1.887000000000000000e+03 4.367624282836914062e+01 4.400151252746582031e+00 3.077202141284942627e-01 3.681335151195526123e-01 2.027561217546463013e-01 1.436584889888763428e-01
1.888000000000000000e+03 5.357911586761474609e+00 1.140989303588867188e+01 6.489434093236923218e-02 -3.004651665687561035e-01 -7.067124545574188232e-02 2.630199193954467773e-01
1.889000000000000000e+03 2.586478614807128906e+01 1.589289784431457520e+00 -3.092103898525238037e-01 1.869382262229919434e+00 4.680515825748443604e-01 9.389895796775817871e-01
1.890000000000000000e+03 4.741646575927734375e+01 2.319254636764526367e+00 3.211000263690948486e-01 1.351257711648941040e-01 1.368677467107772827e-01 2.097727507352828979e-01
1.891000000000000000e+03 6.169207000732421875e+01 -1.205239534378051758e+00 -8.282899856567382812e-02 1.258410453796386719e+00 3.526744544506072998e-01 -1.418803453445434570e+00
1.892000000000000000e+03 6.109081649780273438e+01 -2.308615207672119141e+00 -4.860059320926666260e-01 6.952677369117736816e-01 6.277853250503540039e-02 -1.194250345230102539e+00
1.893000000000000000e+03 1.156610965728759766e+01 9.135482788085937500e+00 -4.950988222844898701e-04 1.478484570980072021e-01 4.420600458979606628e-02 3.496923446655273438e-01
1.894000000000000000e+03 4.963462448120117188e+01 -1.118554496765136719e+01 -1.698782682418823242e+00 -6.394005566835403442e-02 -5.288168191909790039e-01 -6.049116849899291992e-01
1.895000000000000000e+03 4.781460571289062500e+01 -1.065701484680175781e+01 -1.507978320121765137e+00 5.709360819309949875e-03 -4.506806731224060059e-01 -4.915989041328430176e-01
1.896000000000000000e+03 3.924074172973632812e+01 7.862453460693359375e+00 1.925040930509567261e-01 1.145839214324951172e+00 4.015029668807983398e-01 6.110405325889587402e-01
1.897000000000000000e+03 1.905137634277343750e+01 1.308899044990539551e+00 -2.989509105682373047e-01 3.375490754842758179e-02 -7.955879718065261841e-02 1.217234805226325989e-01
1.898000000000000000e+03 5.982540512084960938e+01 1.530766582489013672e+01 7.007590532302856445e-01 3.483973979949951172e+00 1.255419969558715820e+00 -6.749780774116516113e-01
1.899000000000000000e+03 1.927806472778320312e+01 -1.255709075927734375e+01 -2.926705837249755859e+00 -1.204573631286621094e+00 -1.239383816719055176e+00 3.590281009674072266e+00
1.900000000000000000e+03 7.183219909667968750e+00 -1.151182746887207031e+01 1.737859606742858887e+00 5.305849552154541016e+00 2.113112688064575195e+00 -9.998655319213867188e-01
1.901000000000000000e+03 5.183238220214843750e+01 1.824752330780029297e+00 2.726413905620574951e-01 3.173322379589080811e-01 1.769920885562896729e-01 1.833048015832901001e-01
1.902000000000000000e+03 5.403687667846679688e+01 4.061534404754638672e+00 4.571330249309539795e-01 7.454915642738342285e-01 3.607873916625976562e-01 1.288586407899856567e-01
1.903000000000000000e+03 7.728614330291748047e+00 -4.403257369995117188e+00 -1.182415843009948730e+00 1.028520703315734863e+00 -4.616852849721908569e-02 -4.759314954280853271e-01
1.904000000000000000e+03 1.316054248809814453e+01 5.681115150451660156e+00 -3.023733794689178467e-01 7.826013863086700439e-02 -6.723397225141525269e-02 2.194937020540237427e-01
1.905000000000000000e+03 1.800670051574707031e+01 -9.877872467041015625e+00 3.106821775436401367e+00 -2.579055786132812500e+00 1.583297997713088989e-01 2.443773746490478516e+00
1.906000000000000000e+03 8.879350662231445312e+00 5.184903621673583984e+00 -1.850948929786682129e-01 -3.868638351559638977e-02 -6.713438034057617188e-02 2.955501675605773926e-01
1.907000000000000000e+03 5.232328033447265625e+01 -8.460466384887695312e+00 -1.725103139877319336e+00 -1.118445582687854767e-02 -5.208862423896789551e-01 -4.746724963188171387e-01
1.908000000000000000e+03 3.588430404663085938e+01 -1.394331359863281250e+01 -1.599435448646545410e+00 1.116657853126525879e-01 -4.463309049606323242e-01 -5.583213567733764648e-01
1.909000000000000000e+03 2.861062049865722656e+01 -1.320377922058105469e+01 -1.623246550559997559e+00 4.677387773990631104e-01 -3.466523587703704834e-01 -1.020474672317504883e+00
1.910000000000000000e+03 2.985692787170410156e+01 -1.344513607025146484e+01 -1.640029907226562500e+00 3.257953822612762451e-01 -3.942703604698181152e-01 -8.944050669670104980e-01
1.911000000000000000e+03 1.117228126525878906e+01 1.386891937255859375e+01 2.900751233100891113e-01 1.110492274165153503e-01 1.203373074531555176e-01 2.795963287353515625e-01
1.912000000000000000e+03 2.457585096359252930e+00 6.302990436553955078e+00 -1.663997769355773926e-02 -2.025056034326553345e-01 -6.574367731809616089e-02 1.523701697587966919e-01
1.913000000000000000e+03 4.101235961914062500e+01 2.186173629760742188e+01 3.877753615379333496e-01 1.609186530113220215e+00 5.990885496139526367e-01 4.775947332382202148e-01
1.914000000000000000e+03 4.244955825805664062e+01 2.085031509399414062e+01 4.073912501335144043e-01 1.627704381942749023e+00 6.105287075042724609e-01 5.709478855133056641e-01
1.915000000000000000e+03 2.146158027648925781e+01 1.788623809814453125e+00 -3.595422506332397461e-01 7.332049012184143066e-01 1.120987907052040100e-01 4.487609863281250000e-01
1.916000000000000000e+03 1.983862495422363281e+01 1.526751875877380371e+00 -2.979709208011627197e-01 2.252575606107711792e-01 -2.181401103734970093e-02 2.272097170352935791e-01
1.917000000000000000e+03 1.151560401916503906e+01 6.095518112182617188e+00 -2.228067517280578613e-01 5.057248473167419434e-02 -5.167028307914733887e-02 2.884731292724609375e-01
1.918000000000000000e+03 1.286854076385498047e+01 7.210931301116943359e+00 -1.771243214607238770e-01 1.057194322347640991e-01 -2.142146602272987366e-02 2.733181118965148926e-01
1.919000000000000000e+03 1.879806327819824219e+01 -1.144546222686767578e+01 2.303839921951293945e-01 -1.551003456115722656e+00 -3.961858451366424561e-01 3.402541637420654297e+00
1.920000000000000000e+03 2.834019660949707031e+01 1.061464977264404297e+01 2.496920973062515259e-01 1.214403629302978516e+00 4.392287135124206543e-01 8.830393552780151367e-01
1.921000000000000000e+03 7.072602844238281250e+01 -7.162699699401855469e+00 1.193358421325683594e+00 1.265090560913085938e+01 4.153279304504394531e+00 6.207441687583923340e-01
1.922000000000000000e+03 7.375054168701171875e+01 -4.098517417907714844e+00 -6.889826059341430664e-01 9.675185203552246094e+00 2.695860862731933594e+00 1.195092320442199707e+00
1.923000000000000000e+03 4.045788955688476562e+01 -1.359982299804687500e+01 -1.529716014862060547e+00 6.678670644760131836e-02 -4.388787746429443359e-01 -5.044800639152526855e-01
1.924000000000000000e+03 3.586643218994140625e+01 -1.288234996795654297e+01 -1.291783571243286133e+00 8.713249862194061279e-02 -3.613953292369842529e-01 -5.629560351371765137e-01
1.925000000000000000e+03 1.234932613372802734e+01 -9.592886924743652344e+00 8.829378485679626465e-01 1.138860940933227539e+00 6.065396666526794434e-01 3.362000703811645508e+00
1.926000000000000000e+03 6.997442626953125000e+01 -2.577075195312500000e+01 -9.366182088851928711e-01 7.808422565460205078e+00 2.061541318893432617e+00 -2.446263656020164490e-02
1.927000000000000000e+03 6.946688079833984375e+01 -2.388726806640625000e+01 -1.028648495674133301e+00 8.043253898620605469e+00 2.104381799697875977e+00 2.004952169954776764e-02
1.928000000000000000e+03 2.922079849243164062e+01 4.731728553771972656e+00 2.292204201221466064e-01 1.524389028549194336e+00 5.260828137397766113e-01 7.793183326721191406e-01
1.929000000000000000e+03 2.760014724731445312e+01 5.206632137298583984e+00 2.168037891387939453e-01 1.716123938560485840e+00 5.798783302307128906e-01 6.685544252395629883e-01
1.930000000000000000e+03 5.332733535766601562e+01 -7.817986965179443359e+00 -1.779440283775329590e+00 3.742857370525598526e-03 -5.327092409133911133e-01 -4.390347599983215332e-01
1.931000000000000000e+03 4.256637573242187500e+01 -1.321141529083251953e+01 -1.502122402191162109e+00 2.726409956812858582e-02 -4.424574971199035645e-01 -4.980045557022094727e-01
1.932000000000000000e+03 6.694096374511718750e+01 -2.991423130035400391e+00 -1.278770089149475098e+00 6.257623195648193359e+00 1.493655920028686523e+00 -3.488980531692504883e+00
1.933000000000000000e+03 1.989737701416015625e+01 -1.020431232452392578e+01 3.920819520950317383e+00 -2.579403519630432129e-01 1.098863720893859863e+00 3.389792203903198242e+00
1.934000000000000000e+03 5.195492935180664062e+01 -1.002620410919189453e+01 -1.841812252998352051e+00 -9.747352451086044312e-02 -5.817857384681701660e-01 -6.427563428878784180e-01
1.935000000000000000e+03 7.044369506835937500e+01 -4.676442146301269531e+00 -1.578721284866333008e+00 1.149625396728515625e+01 2.975259780883789062e+00 -4.089657366275787354e-01
1.936000000000000000e+03 6.896911621093750000e+01 -2.199197769165039062e+01 -9.961187839508056641e-01 8.454158782958984375e+00 2.237411975860595703e+00 2.762396335601806641e-01
1.937000000000000000e+03 6.798601531982421875e+01 -2.116120147705078125e+01 -7.463947534561157227e-01 7.999440670013427734e+00 2.175913810729980469e+00 7.690730094909667969e-01
1.938000000000000000e+03 6.903474426269531250e+01 -3.965117692947387695e+00 -1.837124824523925781e+00 9.706266403198242188e+00 2.360742568969726562e+00 -2.109175682067871094e+00
1.939000000000000000e+03 6.758183288574218750e+01 -4.514939785003662109e+00 -1.488100290298461914e+00 8.240164756774902344e+00 2.025619506835937500e+00 -3.599761962890625000e+00
1.940000000000000000e+03 7.512088012695312500e+01 2.864035034179687500e+01 4.264444857835769653e-02 5.989047527313232422e+00 1.809507489204406738e+00 -2.080894857645034790e-01
1.941000000000000000e+03 4.153343200683593750e+01 -1.344681739807128906e+01 -1.517506599426269531e+00 4.976546019315719604e-02 -4.403223395347595215e-01 -4.927086830139160156e-01
1.942000000000000000e+03 4.293267822265625000e+01 -1.420565128326416016e+01 -1.635910868644714355e+00 1.515371073037385941e-02 -4.862271547317504883e-01 -5.106932520866394043e-01
1.943000000000000000e+03 7.524945068359375000e+01 -2.749705696105957031e+01 -3.343802988529205322e-01 9.116329193115234375e+00 2.634584903717041016e+00 -4.810793101787567139e-01
1.944000000000000000e+03 7.383991241455078125e+01 -2.881264305114746094e+01 -4.587980508804321289e-01 8.622572898864746094e+00 2.449132442474365234e+00 -2.987460494041442871e-01
1.945000000000000000e+03 7.426078033447265625e+01 2.139743614196777344e+01 6.508970260620117188e-02 6.229727268218994141e+00 1.888445019721984863e+00 -3.767003417015075684e-01
1.946000000000000000e+03 7.509529876708984375e+01 2.438882064819335938e+01 5.620640143752098083e-02 6.201340198516845703e+00 1.877264022827148438e+00 -2.873658239841461182e-01
1.947000000000000000e+03 7.059159088134765625e+01 -2.159368705749511719e+01 -9.508623480796813965e-01 9.196711540222167969e+00 2.473754644393920898e+00 -3.523104786872863770e-01
1.948000000000000000e+03 7.549916076660156250e+01 -2.045738983154296875e+01 -3.586724400520324707e-01 8.924035072326660156e+00 2.569608688354492188e+00 -1.416229724884033203e+00
1.949000000000000000e+03 7.420757293701171875e+01 -2.174416732788085938e+01 -5.705978274345397949e-01 9.143370628356933594e+00 2.571831703186035156e+00 -1.213438510894775391e+00
1.950000000000000000e+03 7.540236663818359375e+01 1.856039428710937500e+01 5.893297493457794189e-02 6.576205730438232422e+00 1.990541577339172363e+00 -3.820335566997528076e-01
1.951000000000000000e+03 7.555747222900390625e+01 1.153984928131103516e+01 -1.035941485315561295e-02 7.161321640014648438e+00 2.145288705825805664e+00 -4.787549078464508057e-01
1.952000000000000000e+03 7.412302398681640625e+01 1.426469039916992188e+01 7.120873779058456421e-02 6.598336219787597656e+00 2.000863552093505859e+00 -5.588035583496093750e-01
1.953000000000000000e+03 7.421906280517578125e+01 7.602635860443115234e+00 -1.851970851421356201e-01 7.249536037445068359e+00 2.119301557540893555e+00 -5.644187927246093750e-01
1.954000000000000000e+03 7.420230102539062500e+01 4.855884552001953125e+00 -3.918137848377227783e-01 7.587481975555419922e+00 2.158700466156005859e+00 -4.294959008693695068e-01
1.955000000000000000e+03 7.535317230224609375e+01 -1.402355670928955078e+01 8.988994956016540527e-01 8.650677680969238281e+00 2.864873170852661133e+00 -1.221889972686767578e+00
1.956000000000000000e+03 7.374182128906250000e+01 -1.575512027740478516e+01 4.892319142818450928e-01 1.014984226226806641e+01 3.191722393035888672e+00 -1.566754102706909180e+00
1.957000000000000000e+03 7.394081878662109375e+01 -7.236394286155700684e-01 -9.528344273567199707e-01 8.726719856262207031e+00 2.332165479660034180e+00 3.273723125457763672e-01
1.958000000000000000e+03 7.412376403808593750e+01 2.069414854049682617e+00 -6.971786618232727051e-01 8.077602386474609375e+00 2.214127063751220703e+00 -1.533667445182800293e-01
1.959000000000000000e+03 7.352333068847656250e+01 -8.481888771057128906e+00 1.440272450447082520e+00 1.017501544952392578e+01 3.484586477279663086e+00 9.357700943946838379e-01
1.960000000000000000e+03 7.497353363037109375e+01 2.587254714965820312e+01 4.431897774338722229e-02 6.096077442169189453e+00 1.842118859291076660e+00 -2.526451945304870605e-01
1.961000000000000000e+03 7.428993988037109375e+01 1.028494644165039062e+01 -4.349187761545181274e-02 6.973651885986328125e+00 2.079047918319702148e+00 -5.975688695907592773e-01
1.962000000000000000e+03 7.464379882812500000e+01 -7.240688323974609375e+00 5.805216431617736816e-01 9.122880935668945312e+00 2.911020755767822266e+00 1.332497000694274902e+00
1.963000000000000000e+03 7.222274017333984375e+01 -1.014553260803222656e+01 2.636024236679077148e+00 1.177567100524902344e+01 4.323508262634277344e+00 4.847916960716247559e-01
1.964000000000000000e+03 7.263235473632812500e+01 -1.277608013153076172e+01 2.154210805892944336e+00 1.112382316589355469e+01 3.983410358428955078e+00 -8.582164049148559570e-01
1.965000000000000000e+03 7.461853790283203125e+01 -1.491715908050537109e+01 6.443297863006591797e-01 9.150025367736816406e+00 2.938306331634521484e+00 -1.511018633842468262e+00
1.966000000000000000e+03 7.183535003662109375e+01 -5.821540832519531250e+00 -1.250710636377334595e-01 1.116754722595214844e+01 3.312742710113525391e+00 9.631974101066589355e-01
1.967000000000000000e+03 7.485525512695312500e+01 -6.067698478698730469e+00 2.580907046794891357e-01 8.928409576416015625e+00 2.755950212478637695e+00 1.388061881065368652e+00
1.968000000000000000e+03 7.434035491943359375e+01 -1.725437164306640625e+01 5.117958411574363708e-03 9.499524116516113281e+00 2.851392745971679688e+00 -1.711418151855468750e+00
1.969000000000000000e+03 7.393831634521484375e+01 1.573947048187255859e+01 7.224935293197631836e-02 6.443226337432861328e+00 1.954642772674560547e+00 -5.396208763122558594e-01
1.970000000000000000e+03 7.659976196289062500e+01 2.861178207397460938e+01 2.014291658997535706e-02 6.227419853210449219e+00 1.874268889427185059e+00 -1.501862108707427979e-01
1.971000000000000000e+03 7.411566925048828125e+01 2.955788612365722656e+01 5.627268925309181213e-02 5.859250545501708984e+00 1.774657011032104492e+00 -2.190225869417190552e-01
1.972000000000000000e+03 7.425270080566406250e+01 -2.453755950927734375e+01 -5.330260992050170898e-01 8.952545166015625000e+00 2.525855541229248047e+00 -8.235941529273986816e-01
1.973000000000000000e+03 7.352846527099609375e+01 -2.945652484893798828e+00 -9.498428702354431152e-01 9.368212699890136719e+00 2.525511026382446289e+00 7.659658193588256836e-01
1.974000000000000000e+03 7.376831817626953125e+01 2.515045928955078125e+01 7.852160930633544922e-02 5.957623958587646484e+00 1.810843706130981445e+00 -3.123217225074768066e-01
1.975000000000000000e+03 7.403604888916015625e+01 -2.594151306152343750e+01 -5.540893077850341797e-01 8.872536659240722656e+00 2.495534420013427734e+00 -6.084762811660766602e-01
1.976000000000000000e+03 7.419870758056640625e+01 6.242389678955078125e+00 -2.495706528425216675e-01 7.376809597015380859e+00 2.138171672821044922e+00 -4.835017025470733643e-01
1.977000000000000000e+03 7.546225738525390625e+01 -1.905294036865234375e+01 -1.797687411308288574e-01 8.974339485168457031e+00 2.638371229171752930e+00 -1.490225076675415039e+00
1.978000000000000000e+03 7.425901031494140625e+01 1.290239620208740234e+01 3.414984792470932007e-02 6.719909667968750000e+00 2.026217937469482422e+00 -5.786635875701904297e-01
1.979000000000000000e+03 7.430706024169921875e+01 1.159029769897460938e+01 9.682492353022098541e-03 6.848034858703613281e+00 2.057315111160278320e+00 -5.934119820594787598e-01
1.980000000000000000e+03 7.350209808349609375e+01 -3.266507339477539062e+01 -1.787115782499313354e-01 8.316056251525878906e+00 2.441203355789184570e+00 -5.690862983465194702e-02
1.981000000000000000e+03 7.481400299072265625e+01 -3.265744781494140625e+01 -1.428406536579132080e-01 8.914926528930664062e+00 2.631625652313232422e+00 -1.009908616542816162e-01
1.982000000000000000e+03 7.405362701416015625e+01 1.874555015563964844e+01 8.395456522703170776e-02 6.301843643188476562e+00 1.915739417076110840e+00 -4.486035704612731934e-01
1.983000000000000000e+03 7.377993774414062500e+01 -2.743834686279296875e+01 -4.683118462562561035e-01 8.677930831909179688e+00 2.462885618209838867e+00 -4.251188933849334717e-01
1.984000000000000000e+03 7.298444366455078125e+01 3.098459434509277344e+01 7.934182882308959961e-02 5.654334068298339844e+00 1.720102787017822266e+00 -2.309322804212570190e-01
1.985000000000000000e+03 6.581333637237548828e+00 -2.959782028198242188e+01 -3.672936856746673584e-01 8.926313519477844238e-01 1.576012969017028809e-01 5.804645419120788574e-01
1.986000000000000000e+03 4.748725891113281250e+00 -2.705932426452636719e+01 -3.574379682540893555e-01 4.473303854465484619e-01 2.696772664785385132e-02 8.393579721450805664e-01
1.987000000000000000e+03 6.257753849029541016e+00 -1.131748676300048828e+01 1.723557591438293457e+00 2.267448663711547852e+00 1.197301864624023438e+00 -1.583563923835754395e+00
1.988000000000000000e+03 7.360607910156250000e+01 -3.500374603271484375e+01 -1.544195860624313354e-01 8.289813041687011719e+00 2.440618038177490234e+00 -2.667701058089733124e-02
1.989000000000000000e+03 5.900144958496093750e+01 -5.009915828704833984e+00 -1.679210662841796875e+00 -4.888572171330451965e-02 -5.184289216995239258e-01 -5.988411307334899902e-01
1.990000000000000000e+03 5.620928573608398438e+01 -7.322209835052490234e+00 -2.125736236572265625e+00 -9.492155164480209351e-02 -6.661973595619201660e-01 -5.891668796539306641e-01
1.991000000000000000e+03 5.967590808868408203e+00 -2.283804130554199219e+01 -5.454031229019165039e-01 1.504631161689758301e+00 2.877684235572814941e-01 1.110532641410827637e+00
1.992000000000000000e+03 5.779248237609863281e+00 2.431417465209960938e+01 4.297718871384859085e-03 -4.940307736396789551e-01 -1.469199210405349731e-01 6.217070296406745911e-02
1.993000000000000000e+03 3.961110115051269531e+00 -1.566731166839599609e+01 1.146485924720764160e+00 -7.833279967308044434e-01 1.089473813772201538e-01 8.052875995635986328e-01
1.994000000000000000e+03 6.698060035705566406e+00 1.758183288574218750e+01 9.732835739850997925e-02 -3.281712830066680908e-01 -6.925287842750549316e-02 1.323656141757965088e-01
1.995000000000000000e+03 1.000255966186523438e+01 1.611509323120117188e+01 2.099674046039581299e-01 -2.938586100935935974e-02 5.417446419596672058e-02 1.902448832988739014e-01
1.996000000000000000e+03 9.122032165527343750e+00 1.506704139709472656e+01 2.105439752340316772e-01 -1.059497222304344177e-01 3.137827664613723755e-02 2.178847342729568481e-01
1.997000000000000000e+03 5.416656970977783203e+00 1.868564987182617188e+01 5.277582630515098572e-02 -4.479700922966003418e-01 -1.185582801699638367e-01 9.240702539682388306e-02
1.998000000000000000e+03 4.518112659454345703e+00 -1.996118354797363281e+01 -7.527948170900344849e-02 3.763275742530822754e-01 9.031442552804946899e-02 1.530756473541259766e+00
1.999000000000000000e+03 9.727695465087890625e+00 -2.925756454467773438e+01 -4.785829484462738037e-01 1.481556177139282227e+00 3.008919656276702881e-01 2.527744770050048828e-01
2.000000000000000000e+03 5.974399566650390625e+00 2.567705345153808594e+01 -4.484548117034137249e-04 -5.016540288925170898e-01 -1.506307423114776611e-01 6.329733878374099731e-02
2.001000000000000000e+03 9.980190277099609375e+00 -2.421317481994628906e+01 -4.594931006431579590e-01 2.532155275344848633e+00 6.217986345291137695e-01 -4.914632439613342285e-02
2.002000000000000000e+03 6.719385623931884766e+00 -1.217892932891845703e+01 2.050925731658935547e+00 4.078375816345214844e+00 1.838790416717529297e+00 -1.359808564186096191e+00
2.003000000000000000e+03 6.244284152984619141e+00 3.158693885803222656e+01 2.919701859354972839e-03 -5.627151727676391602e-01 -1.679386347532272339e-01 5.972314625978469849e-02
2.004000000000000000e+03 5.517991065979003906e+00 1.730622482299804688e+01 7.545973360538482666e-02 -4.206168353557586670e-01 -1.035471335053443909e-01 1.192584410309791565e-01
2.005000000000000000e+03 5.539534568786621094e+00 1.438806247711181641e+01 9.164810925722122192e-02 -3.666324913501739502e-01 -8.249530941247940063e-02 1.932809799909591675e-01
2.006000000000000000e+03 5.930300712585449219e+00 -2.132047080993652344e+01 -3.896442651748657227e-01 1.746620774269104004e+00 4.070929586887359619e-01 1.258204936981201172e+00
2.007000000000000000e+03 5.652202606201171875e+00 2.154402732849121094e+01 2.266852371394634247e-02 -4.642511308193206787e-01 -1.324747800827026367e-01 6.403330713510513306e-02
2.008000000000000000e+03 1.369861984252929688e+01 -2.758282852172851562e+01 -2.098414748907089233e-01 1.662747025489807129e+00 4.358716607093811035e-01 -3.886143863201141357e-01
2.009000000000000000e+03 1.183356857299804688e+01 -3.147558975219726562e+01 -4.139080941677093506e-01 1.330881118774414062e+00 2.750919163227081299e-01 6.219199299812316895e-02
2.010000000000000000e+03 7.383888244628906250e+00 -3.344258117675781250e+01 -3.041589856147766113e-01 8.962135910987854004e-01 1.776163727045059204e-01 3.519676625728607178e-01
2.011000000000000000e+03 2.584404945373535156e+01 -1.367793464660644531e+01 -2.946149587631225586e+00 1.121837854385375977e+00 -5.472935438156127930e-01 -7.097164988517761230e-01
2.012000000000000000e+03 2.521071243286132812e+01 -1.251619625091552734e+01 -1.524329781532287598e+00 1.480877161026000977e+00 -1.303580030798912048e-02 -1.073661804199218750e+00
2.013000000000000000e+03 6.299828529357910156e+00 2.860543632507324219e+01 -9.187763789668679237e-04 -5.121607184410095215e-01 -1.539238542318344116e-01 6.872488558292388916e-02
2.014000000000000000e+03 6.044540882110595703e+00 -2.688912773132324219e+01 -4.322729408740997314e-01 9.343400001525878906e-01 1.506201177835464478e-01 7.897543311119079590e-01
2.015000000000000000e+03 4.058907032012939453e+00 1.018147373199462891e+01 2.489366382360458374e-02 -3.245823085308074951e-01 -8.990659564733505249e-02 2.361576706171035767e-01
2.016000000000000000e+03 5.224730014801025391e+00 1.006247043609619141e+01 3.132533654570579529e-02 -2.664207518100738525e-01 -7.052861899137496948e-02 2.733121812343597412e-01
2.017000000000000000e+03 6.338137626647949219e+00 1.103566265106201172e+01 7.007484883069992065e-02 -2.413378059864044189e-01 -5.137889087200164795e-02 2.873748838901519775e-01
2.018000000000000000e+03 5.187825202941894531e+00 -1.347843360900878906e+01 2.451166629791259766e+00 1.455640316009521484e+00 1.172042131423950195e+00 -3.868912756443023682e-01
2.019000000000000000e+03 5.223197460174560547e+00 8.742789268493652344e+00 1.085145282559096813e-03 -2.219125479459762573e-01 -6.624822318553924561e-02 2.832219302654266357e-01
2.020000000000000000e+03 3.797699451446533203e+00 7.388794422149658203e+00 -1.792363449931144714e-02 -2.228036820888519287e-01 -7.221819460391998291e-02 2.279223352670669556e-01
2.021000000000000000e+03 5.430166625976562500e+01 -7.129786491394042969e+00 -1.770266413688659668e+00 1.728691719472408295e-02 -5.258938670158386230e-01 -4.034798145294189453e-01
2.022000000000000000e+03 3.814667510986328125e+01 1.390988540649414062e+01 5.521890521049499512e-01 1.389755725860595703e+00 5.825834274291992188e-01 7.574681639671325684e-01
2.023000000000000000e+03 3.794417190551757812e+01 8.763293266296386719e+00 2.616801261901855469e-01 1.212377429008483887e+00 4.422172605991363525e-01 7.696692943572998047e-01
2.024000000000000000e+03 5.525453948974609375e+01 1.936856746673583984e+00 2.406307011842727661e-01 7.183820605278015137e-01 2.877038419246673584e-01 -6.397912651300430298e-02
2.025000000000000000e+03 4.209476470947265625e+00 -7.389582157135009766e+00 -2.422852069139480591e-01 -9.195873886346817017e-02 -1.002731844782829285e-01 -1.713079810142517090e+00
2.026000000000000000e+03 5.322214126586914062e+00 -7.214306354522705078e+00 -4.833702743053436279e-01 8.776023983955383301e-01 1.182696372270584106e-01 -1.843861222267150879e+00
2.027000000000000000e+03 5.429902076721191406e+00 -8.781212806701660156e+00 8.742384612560272217e-02 1.082525968551635742e+00 3.509849607944488525e-01 -1.914189457893371582e+00
2.028000000000000000e+03 5.808422565460205078e+00 -7.977283477783203125e+00 -4.685161113739013672e-01 1.571147441864013672e+00 3.307893872261047363e-01 -1.664127230644226074e+00
2.029000000000000000e+03 1.142111778259277344e+01 -2.926976203918457031e+01 -4.672649800777435303e-01 1.601395368576049805e+00 3.402391076087951660e-01 7.138983905315399170e-02
2.030000000000000000e+03 5.660766601562500000e+01 -3.627049636840820312e+01 4.124592542648315430e-01 8.859595656394958496e-01 3.895256519317626953e-01 4.056842997670173645e-02
2.031000000000000000e+03 5.890696716308593750e+01 -8.842496871948242188e-01 -2.259150594472885132e-01 7.790731787681579590e-01 1.659474372863769531e-01 -6.519234776496887207e-01
2.032000000000000000e+03 5.977196884155273438e+01 -4.183441162109375000e+00 -1.266057252883911133e+00 1.216350123286247253e-01 -3.433266580104827881e-01 -6.012125611305236816e-01
2.033000000000000000e+03 5.927999114990234375e+01 -3.287837600708007812e+01 1.935867965221405029e-02 1.457144856452941895e+00 4.429510831832885742e-01 2.842628359794616699e-01
2.034000000000000000e+03 9.926986694335937500e+00 -2.214096069335937500e+01 -3.043798506259918213e-01 3.262381076812744141e+00 8.874003291130065918e-01 -3.695560395717620850e-01
2.035000000000000000e+03 2.981161880493164062e+01 9.770772933959960938e+00 3.506110012531280518e-01 1.200039029121398926e+00 4.651950299739837646e-01 9.556264877319335938e-01
2.036000000000000000e+03 2.810933876037597656e+01 1.321402835845947266e+01 -1.791078001260757446e-01 1.111614346504211426e+00 2.797519862651824951e-01 6.396667361259460449e-01
2.037000000000000000e+03 2.928903579711914062e+01 7.223775863647460938e+00 4.826618731021881104e-01 1.319577455520629883e+00 5.406718254089355469e-01 8.180256485939025879e-01
2.038000000000000000e+03 5.968407154083251953e+00 -1.276540946960449219e+01 2.910723447799682617e+00 2.146908521652221680e+00 1.517289638519287109e+00 -9.959459900856018066e-01
2.039000000000000000e+03 4.039492034912109375e+01 9.156255722045898438e+00 1.567976623773574829e-01 1.321340203285217285e+00 4.434413611888885498e-01 5.421887636184692383e-01
2.040000000000000000e+03 4.044189453125000000e+01 7.944041252136230469e+00 1.073348745703697205e-01 1.165108203887939453e+00 3.817329406738281250e-01 4.383207261562347412e-01
2.041000000000000000e+03 6.417131042480468750e+01 -2.584455108642578125e+01 -6.613843441009521484e-01 4.010768413543701172e+00 1.004815220832824707e+00 7.806777358055114746e-01
2.042000000000000000e+03 6.834471893310546875e+01 -2.592656517028808594e+01 -9.222068786621093750e-01 6.817749500274658203e+00 1.768662691116333008e+00 3.381248414516448975e-01
2.043000000000000000e+03 8.148552894592285156e+00 -2.400802612304687500e+01 -6.027777194976806641e-01 2.284796476364135742e+00 5.046055912971496582e-01 5.530244112014770508e-01
2.044000000000000000e+03 1.369600105285644531e+01 1.868036460876464844e+01 8.434651792049407959e-02 3.172777891159057617e-01 1.204872876405715942e-01 2.250361591577529907e-01
2.045000000000000000e+03 1.383503055572509766e+01 1.734102058410644531e+01 2.245111614465713501e-01 4.163536429405212402e-01 1.922594457864761353e-01 2.283432632684707642e-01
2.046000000000000000e+03 4.649685287475585938e+01 2.789398193359375000e+00 3.725969195365905762e-01 1.430550664663314819e-01 1.546956002712249756e-01 1.799634248018264771e-01
2.047000000000000000e+03 5.009222412109375000e+01 1.783150434494018555e+00 2.742386460304260254e-01 2.081857174634933472e-01 1.447273045778274536e-01 2.075463980436325073e-01
2.048000000000000000e+03 6.116766357421875000e+01 -2.674536514282226562e+01 -5.961958765983581543e-01 1.845628023147583008e+00 3.748296499252319336e-01 4.072086215019226074e-01
2.049000000000000000e+03 6.446964263916015625e+01 -2.825840377807617188e+01 -5.859814286231994629e-01 4.153163433074951172e+00 1.070154547691345215e+00 6.802415251731872559e-01
2.050000000000000000e+03 2.900983428955078125e+01 1.691853713989257812e+01 -1.022399589419364929e-01 8.786258101463317871e-01 2.329157590866088867e-01 3.590408563613891602e-01
2.051000000000000000e+03 5.952488327026367188e+01 -2.985451698303222656e+01 -3.637116551399230957e-01 1.238215088844299316e+00 2.623510062694549561e-01 2.810429036617279053e-01
2.052000000000000000e+03 6.318278503417968750e+01 -2.716045188903808594e+01 -6.096706390380859375e-01 3.329912900924682617e+00 8.160727024078369141e-01 6.576642394065856934e-01
2.053000000000000000e+03 3.009323501586914062e+01 -1.243455982208251953e+01 -9.073058366775512695e-01 2.216586470603942871e-01 -2.056941539049148560e-01 -9.046949148178100586e-01
2.054000000000000000e+03 2.753506660461425781e+01 -1.113205432891845703e+01 7.187543511390686035e-01 4.720156192779541016e-01 3.572309911251068115e-01 -1.013900876045227051e+00
2.055000000000000000e+03 1.712381362915039062e+01 1.989638900756835938e+01 2.085701748728752136e-02 3.316935896873474121e-01 1.057651787996292114e-01 4.641952216625213623e-01
2.056000000000000000e+03 1.604870605468750000e+01 2.098739242553710938e+01 2.324297651648521423e-02 2.676388621330261230e-01 8.726455271244049072e-02 3.824640512466430664e-01
2.057000000000000000e+03 6.949733734130859375e+01 -1.895463180541992188e+01 -5.080962777137756348e-01 9.968429565429687500e+00 2.838099956512451172e+00 7.584425806999206543e-02
2.058000000000000000e+03 3.611269760131835938e+01 1.456445503234863281e+01 4.231006801128387451e-01 1.289468526840209961e+00 5.137707591056823730e-01 7.284361720085144043e-01
2.059000000000000000e+03 3.469778442382812500e+01 -1.394711685180664062e+01 -1.638150334358215332e+00 1.369084417819976807e-01 -4.503725469112396240e-01 -5.931851267814636230e-01
2.060000000000000000e+03 1.813300704956054688e+01 2.113780212402343750e+01 7.077167928218841553e-02 2.064496576786041260e-01 8.316640555858612061e-02 4.797693789005279541e-01
2.061000000000000000e+03 5.655988693237304688e+01 4.924058437347412109e+00 4.176409840583801270e-01 1.429435133934020996e+00 5.541228055953979492e-01 -1.371505260467529297e-01
2.062000000000000000e+03 7.997213840484619141e+00 -2.205058097839355469e+01 -5.425585508346557617e-01 2.834566593170166016e+00 6.876024007797241211e-01 6.352635622024536133e-01
2.063000000000000000e+03 5.918233489990234375e+01 -6.673536300659179688e+00 -2.614199638366699219e+00 -2.434438467025756836e-01 -8.572930693626403809e-01 -7.779345512390136719e-01
2.064000000000000000e+03 7.117723846435546875e+01 -1.735532569885253906e+01 -2.661781311035156250e-01 1.127312755584716797e+01 3.302084684371948242e+00 -9.252465963363647461e-01
2.065000000000000000e+03 7.029705810546875000e+01 -1.806371116638183594e+01 -2.372155934572219849e-01 1.092686271667480469e+01 3.206894159317016602e+00 -5.901311710476875305e-02
2.066000000000000000e+03 1.427317619323730469e+01 -2.872718238830566406e+01 -2.229070365428924561e-01 1.510929346084594727e+00 3.864066898822784424e-01 -2.996788918972015381e-01
2.067000000000000000e+03 4.932100677490234375e+01 2.257610130310058594e+01 8.781981468200683594e-01 1.067281365394592285e+00 5.836438536643981934e-01 3.165853023529052734e-02
2.068000000000000000e+03 4.890612411499023438e+01 2.415838432312011719e+01 8.300178647041320801e-01 1.307225584983825684e+00 6.411730647087097168e-01 7.696527987718582153e-02
2.069000000000000000e+03 4.375080108642578125e+01 2.900501251220703125e+01 5.826568007469177246e-01 1.514118909835815430e+00 6.290327310562133789e-01 2.596552670001983643e-01
2.070000000000000000e+03 3.881610870361328125e+01 1.730226135253906250e+01 5.689164400100708008e-01 1.511188745498657227e+00 6.240315437316894531e-01 4.962437152862548828e-01
2.071000000000000000e+03 6.423310279846191406e+00 1.865332603454589844e+01 5.986212193965911865e-02 -3.807641267776489258e-01 -9.627059847116470337e-02 1.072755306959152222e-01
2.072000000000000000e+03 4.550986099243164062e+01 -1.170350742340087891e+01 -1.464761257171630859e+00 8.823134936392307281e-03 -4.367814362049102783e-01 -4.973058402538299561e-01
2.073000000000000000e+03 4.022660064697265625e+01 1.928334808349609375e+01 4.455742835998535156e-01 1.650546789169311523e+00 6.288363337516784668e-01 4.559868276119232178e-01
2.074000000000000000e+03 4.153452682495117188e+01 5.257202148437500000e+00 2.071189433336257935e-01 6.833562254905700684e-01 2.671425342559814453e-01 2.782700061798095703e-01
2.075000000000000000e+03 1.168902492523193359e+01 -7.638114929199218750e+00 1.189587861299514771e-01 1.384016752243041992e+00 4.508926868438720703e-01 2.069802522659301758e+00
2.076000000000000000e+03 1.024603748321533203e+01 -9.068812370300292969e+00 5.767786130309104919e-02 3.872291326522827148e+00 1.178990721702575684e+00 2.005109071731567383e+00
2.077000000000000000e+03 4.273804092407226562e+01 -4.116788482666015625e+01 1.533419489860534668e-01 -3.260298669338226318e-01 -5.180637538433074951e-02 -6.782989203929901123e-02
2.078000000000000000e+03 5.243396377563476562e+01 -4.132956695556640625e+01 5.954423546791076660e-01 8.792769908905029297e-02 2.050110250711441040e-01 -4.003971815109252930e-02
2.079000000000000000e+03 6.963485717773437500e+01 -2.084260177612304688e+01 -8.597607612609863281e-01 9.043437004089355469e+00 2.455102920532226562e+00 -4.281976446509361267e-02
2.080000000000000000e+03 7.165024566650390625e+01 -1.978516006469726562e+01 -6.513496041297912598e-01 9.885598182678222656e+00 2.770274400711059570e+00 -7.672803997993469238e-01
2.081000000000000000e+03 7.219432067871093750e+01 -1.684886550903320312e+01 1.979618221521377563e-01 1.054207897186279297e+01 3.222012281417846680e+00 -1.339182853698730469e+00
2.082000000000000000e+03 6.026902389526367188e+01 1.331182575225830078e+01 6.626588106155395508e-01 3.480570554733276367e+00 1.242968797683715820e+00 -7.664573788642883301e-01
2.083000000000000000e+03 2.996385383605957031e+01 1.933460807800292969e+01 6.633778661489486694e-02 8.587202429771423340e-01 2.775174081325531006e-01 3.075745105743408203e-01
2.084000000000000000e+03 2.691700172424316406e+01 1.910326957702636719e+01 -1.375020667910575867e-02 5.121333003044128418e-01 1.495149284601211548e-01 1.947971284389495850e-01
2.085000000000000000e+03 7.204332733154296875e+01 4.099082183837890625e+01 9.365888684988021851e-02 5.424589633941650391e+00 1.655474543571472168e+00 -2.111577987670898438e-02
2.086000000000000000e+03 2.552216911315917969e+01 1.915475273132324219e+01 -2.810677513480186462e-03 3.075488209724426270e-01 9.142144024372100830e-02 1.820543408393859863e-01
2.087000000000000000e+03 2.430944442749023438e+01 2.150347137451171875e+01 1.634824573993682861e-01 2.237251102924346924e-01 1.161622703075408936e-01 2.393774986267089844e-01
2.088000000000000000e+03 2.318839645385742188e+01 -5.356844425201416016e+00 -2.132365293800830841e-02 4.254038333892822266e+00 1.269814372062683105e+00 1.417340755462646484e+00
2.089000000000000000e+03 1.933533477783203125e+01 -8.237825393676757812e+00 5.352497577667236328e+00 -1.588953137397766113e+00 1.129063248634338379e+00 -1.860417053103446960e-02
2.090000000000000000e+03 2.439827537536621094e+01 -6.997657299041748047e+00 3.689569711685180664e+00 3.285315275192260742e+00 2.092465400695800781e+00 3.036601781845092773e+00
2.091000000000000000e+03 2.487433815002441406e+01 -7.023175716400146484e+00 3.524332523345947266e+00 2.704410076141357422e+00 1.868622779846191406e+00 2.722546339035034180e+00
2.092000000000000000e+03 2.379174232482910156e+01 -6.236143112182617188e+00 1.612556099891662598e+00 4.575533866882324219e+00 1.856426954269409180e+00 2.798013925552368164e+00
2.093000000000000000e+03 1.917636680603027344e+01 -7.544993877410888672e+00 3.784157991409301758e+00 -1.158655047416687012e+00 7.876508831977844238e-01 -6.980450153350830078e-01
2.094000000000000000e+03 1.886208915710449219e+01 -8.810324668884277344e+00 4.858170032501220703e+00 -2.066724538803100586e+00 8.374335765838623047e-01 1.090390920639038086e+00
2.095000000000000000e+03 1.898853111267089844e+01 -7.411353588104248047e+00 3.504324436187744141e+00 -1.147066354751586914e+00 7.071774005889892578e-01 -5.622604489326477051e-01
2.096000000000000000e+03 1.991648864746093750e+01 -9.524893760681152344e+00 5.667551517486572266e+00 -6.304416656494140625e-01 1.511132955551147461e+00 2.813093662261962891e+00
2.097000000000000000e+03 1.972785949707031250e+01 -9.226733207702636719e+00 6.158306121826171875e+00 -1.324449896812438965e+00 1.450156927108764648e+00 2.114058732986450195e+00
2.098000000000000000e+03 2.321645927429199219e+01 -4.745371341705322266e+00 -2.178193777799606323e-01 3.689410448074340820e+00 1.041477322578430176e+00 1.142945766448974609e+00
2.099000000000000000e+03 2.240181350708007812e+01 -4.118042469024658203e+00 -4.557714164257049561e-01 2.780461311340332031e+00 6.974070072174072266e-01 3.931417167186737061e-01
2.100000000000000000e+03 2.530699920654296875e+01 -8.115968704223632812e+00 4.660102844238281250e+00 1.399739384651184082e+00 1.817952752113342285e+00 1.378122806549072266e+00
2.101000000000000000e+03 2.271680450439453125e+01 -3.458011865615844727e+00 -4.613630473613739014e-01 2.608781099319458008e+00 6.442254781723022461e-01 5.690565109252929688e-01
2.102000000000000000e+03 2.260486030578613281e+01 -1.971353650093078613e+00 -4.795812666416168213e-01 1.958425879478454590e+00 4.436533749103546143e-01 5.097908973693847656e-01
2.103000000000000000e+03 2.130385971069335938e+01 -2.072551965713500977e+00 -3.969726562500000000e-01 1.288110017776489258e+00 2.673411965370178223e-01 1.872072219848632812e-01
2.104000000000000000e+03 2.589290237426757812e+01 -7.511153697967529297e+00 3.675152301788330078e+00 1.353681802749633789e+00 1.508650183677673340e+00 1.764301419258117676e+00
2.105000000000000000e+03 5.628605842590332031e+00 6.204216957092285156e+00 -6.956251710653305054e-02 -1.303465366363525391e-01 -5.997271835803985596e-02 2.764210999011993408e-01
2.106000000000000000e+03 1.618175697326660156e+01 -7.213549137115478516e+00 2.075618743896484375e+00 -1.848703742027282715e+00 6.807449460029602051e-02 1.222728133201599121e+00
2.107000000000000000e+03 1.770842552185058594e+01 -1.060832023620605469e+01 1.540616035461425781e+00 -2.581698656082153320e+00 -3.123248219490051270e-01 2.964691162109375000e+00
2.108000000000000000e+03 7.303613662719726562e+00 5.672405242919921875e+00 -1.287863254547119141e-01 -7.658743113279342651e-02 -6.161212548613548279e-02 3.002605736255645752e-01
2.109000000000000000e+03 2.207199668884277344e+01 -1.752894997596740723e+00 -4.474995434284210205e-01 1.594441175460815430e+00 3.440825045108795166e-01 3.533595502376556396e-01
2.110000000000000000e+03 2.185395050048828125e+01 -9.021115899085998535e-01 -4.106908738613128662e-01 1.341389298439025879e+00 2.792095243930816650e-01 3.861667215824127197e-01
2.111000000000000000e+03 1.509927368164062500e+01 -7.361844539642333984e+00 1.722042679786682129e+00 -1.572514176368713379e+00 4.485855624079704285e-02 1.806781172752380371e+00
2.112000000000000000e+03 3.240233421325683594e+00 5.106464385986328125e+00 -4.821037873625755310e-02 -1.384233236312866211e-01 -5.599011108279228210e-02 1.676125526428222656e-01
2.113000000000000000e+03 6.360060691833496094e+00 6.434611797332763672e+00 -7.710414379835128784e-02 -1.162577420473098755e-01 -5.800856649875640869e-02 2.986084222793579102e-01
2.114000000000000000e+03 2.432595443725585938e+01 2.415702342987060547e+00 -3.779484629631042480e-01 1.669379353523254395e+00 3.874292373657226562e-01 7.797042727470397949e-01
2.115000000000000000e+03 1.690367317199707031e+01 -1.004265689849853516e+01 1.919143199920654297e+00 -2.872200250625610352e+00 -2.859171330928802490e-01 2.534423828125000000e+00
2.116000000000000000e+03 1.054091644287109375e+01 -5.534874439239501953e+00 -7.990970015525817871e-01 1.365682601928710938e+00 1.699756830930709839e-01 9.374344348907470703e-01
2.117000000000000000e+03 1.140517902374267578e+01 -6.604616641998291016e+00 -2.965000867843627930e-01 1.176056027412414551e+00 2.638668119907379150e-01 1.493028044700622559e+00
2.118000000000000000e+03 2.510880661010742188e+01 -1.017243480682373047e+01 3.400782823562622070e+00 1.585668921470642090e+00 1.495935559272766113e+00 -1.141836404800415039e+00
2.119000000000000000e+03 2.515293693542480469e+01 -1.185967636108398438e+01 -2.951369881629943848e-01 1.729958653450012207e+00 4.304464757442474365e-01 -1.354686260223388672e+00
2.120000000000000000e+03 1.390464115142822266e+01 -7.627939224243164062e+00 1.140499711036682129e+00 -6.491639018058776855e-01 1.474007666110992432e-01 2.224928379058837891e+00
2.121000000000000000e+03 9.462773323059082031e+00 5.546636581420898438e+00 -1.847308725118637085e-01 -2.663333714008331299e-02 -6.340926140546798706e-02 3.054111599922180176e-01
2.122000000000000000e+03 1.602383613586425781e+01 -8.005360603332519531e+00 2.240750789642333984e+00 -2.179945707321166992e+00 1.824149303138256073e-02 1.638745188713073730e+00
2.123000000000000000e+03 1.573083209991455078e+01 -8.667128562927246094e+00 2.196350097656250000e+00 -2.396871089935302734e+00 -6.015630066394805908e-02 2.055917024612426758e+00
2.124000000000000000e+03 9.197386741638183594e+00 -4.535092830657958984e+00 -1.178244113922119141e+00 1.137506604194641113e+00 -1.222125813364982605e-02 1.249548271298408508e-01
2.125000000000000000e+03 1.028803157806396484e+01 -6.803388595581054688e+00 -6.329503059387207031e-01 1.918721914291381836e+00 3.857314586639404297e-01 1.115954875946044922e+00
2.126000000000000000e+03 8.308825492858886719e+00 -6.127742767333984375e+00 -9.669297337532043457e-01 1.938493490219116211e+00 2.914691269397735596e-01 -1.454935669898986816e-01
2.127000000000000000e+03 6.459701538085937500e+00 -6.508539676666259766e+00 -8.266564011573791504e-01 1.607777833938598633e+00 2.343364357948303223e-01 -1.360591530799865723e+00
2.128000000000000000e+03 1.851395034790039062e+01 -1.080888843536376953e+01 1.640703916549682617e+00 -2.180581569671630859e+00 -1.619632840156555176e-01 3.190661668777465820e+00
2.129000000000000000e+03 2.117187500000000000e+01 -4.456301927566528320e-01 -3.658983409404754639e-01 9.605567455291748047e-01 1.783975213766098022e-01 2.882790565490722656e-01
2.130000000000000000e+03 2.082068061828613281e+01 9.030086398124694824e-01 -3.276307880878448486e-01 6.364696621894836426e-01 9.265166521072387695e-02 3.245844841003417969e-01
2.131000000000000000e+03 3.244026184082031250e+01 -1.277689266204833984e+01 -1.182396173477172852e+00 1.204686239361763000e-01 -3.185782432556152344e-01 -7.328232526779174805e-01
2.132000000000000000e+03 9.088016510009765625e+00 8.789178848266601562e+00 3.648940473794937134e-03 -4.188523814082145691e-02 -1.147088967263698578e-02 3.711452186107635498e-01
2.133000000000000000e+03 7.064627838134765625e+01 -5.941386222839355469e+00 -4.504788219928741455e-01 1.262702178955078125e+01 3.652962923049926758e+00 7.002794742584228516e-01
2.134000000000000000e+03 7.198866271972656250e+01 -7.157509326934814453e+00 8.911045193672180176e-01 1.182286739349365234e+01 3.814191579818725586e+00 1.287099361419677734e+00
2.135000000000000000e+03 1.238550662994384766e+01 -8.602852821350097656e+00 9.604164958000183105e-01 6.947777867317199707e-01 4.965582787990570068e-01 2.745833158493041992e+00
2.136000000000000000e+03 6.895494079589843750e+01 -7.707498669624328613e-01 -1.437082290649414062e+00 7.570958137512207031e+00 1.840162754058837891e+00 -1.749413251876831055e+00
2.137000000000000000e+03 6.584298706054687500e+01 -2.425074577331542969e+00 -9.126355051994323730e-01 4.673180103302001953e+00 1.128163456916809082e+00 -3.137104749679565430e+00
2.138000000000000000e+03 2.132771492004394531e+01 -9.980794191360473633e-01 -3.908493816852569580e-01 1.105077385902404785e+00 2.142683863639831543e-01 2.777537107467651367e-01
2.139000000000000000e+03 7.676215648651123047e+00 -5.202287673950195312e+00 -1.079530954360961914e+00 1.373517274856567383e+00 8.819588273763656616e-02 -4.968290030956268311e-01
2.140000000000000000e+03 1.227419757843017578e+01 5.859429836273193359e+00 -2.448566406965255737e-01 4.728033021092414856e-02 -5.927289277315139771e-02 2.670144736766815186e-01
2.141000000000000000e+03 1.211515998840332031e+01 7.758294105529785156e+00 -1.295204311609268188e-01 1.141733080148696899e-01 -4.604137502610683441e-03 3.080539405345916748e-01
2.142000000000000000e+03 1.046135139465332031e+01 9.489670753479003906e+00 4.551097378134727478e-02 5.220569297671318054e-02 2.931500039994716644e-02 3.784885406494140625e-01
2.143000000000000000e+03 7.263002777099609375e+01 -8.813847541809082031e+00 1.948071241378784180e+00 1.097359180450439453e+01 3.876498699188232422e+00 1.152494788169860840e+00
2.144000000000000000e+03 7.278804779052734375e+01 -1.108400440216064453e+01 2.626448154449462891e+00 1.072252273559570312e+01 4.004691123962402344e+00 -2.620210945606231689e-01
2.145000000000000000e+03 9.201968193054199219e+00 -8.568120956420898438e+00 -5.684369206428527832e-01 3.854289770126342773e+00 9.857558608055114746e-01 6.500738263130187988e-01
2.146000000000000000e+03 2.961487197875976562e+01 1.091436290740966797e+01 1.934238076210021973e-01 1.268666744232177734e+00 4.386271536350250244e-01 9.161027073860168457e-01
2.147000000000000000e+03 2.945262527465820312e+01 1.338612747192382812e+01 -3.869057446718215942e-02 1.169023633003234863e+00 3.390999138355255127e-01 7.555044889450073242e-01
2.148000000000000000e+03 4.354820632934570312e+01 -1.281485176086425781e+01 -1.484704017639160156e+00 2.592711150646209717e-02 -4.376330673694610596e-01 -4.956346452236175537e-01
2.149000000000000000e+03 3.921896743774414062e+01 -1.261860942840576172e+01 -1.325673460960388184e+00 7.258012890815734863e-02 -3.759280145168304443e-01 -4.881317317485809326e-01
2.150000000000000000e+03 4.663890075683593750e+01 -1.117130947113037109e+01 -1.474600434303283691e+00 1.064428128302097321e-02 -4.391868412494659424e-01 -4.913038313388824463e-01
2.151000000000000000e+03 4.899187469482421875e+01 -1.014334392547607422e+01 -1.561147451400756836e+00 -3.334500070195645094e-04 -4.684442579746246338e-01 -4.898626506328582764e-01
2.152000000000000000e+03 1.007001590728759766e+01 1.503840541839599609e+01 2.372081428766250610e-01 -2.149981632828712463e-02 6.471249461174011230e-02 2.214069217443466187e-01
2.153000000000000000e+03 2.066225242614746094e+01 1.702189445495605469e+00 -3.519846498966217041e-01 4.701695442199707031e-01 3.545546159148216248e-02 3.274014592170715332e-01
2.154000000000000000e+03 3.045717239379882812e+01 7.610071182250976562e+00 4.236030578613281250e-01 1.261691331863403320e+00 5.055882930755615234e-01 8.908190131187438965e-01
2.155000000000000000e+03 7.104429626464843750e+01 -2.336906814575195312e+01 -9.751795530319213867e-01 8.746506690979003906e+00 2.331398010253906250e+00 -4.082548320293426514e-01
2.156000000000000000e+03 1.246626472473144531e+01 6.598834514617919922e+00 -2.170092761516571045e-01 8.654725551605224609e-02 -3.913860395550727844e-02 2.716000378131866455e-01
2.157000000000000000e+03 3.229236984252929688e+01 -1.379413223266601562e+01 -1.686194777488708496e+00 1.912083029747009277e-01 -4.484959244728088379e-01 -7.034544944763183594e-01
2.158000000000000000e+03 2.652164459228515625e+01 -8.485458374023437500e+00 3.384151935577392578e+00 6.842420697212219238e-01 1.220518231391906738e+00 6.286974549293518066e-01
2.159000000000000000e+03 2.099862480163574219e+01 1.887709945440292358e-01 -3.580383062362670898e-01 8.006255626678466797e-01 1.327761709690093994e-01 2.974493503570556641e-01
2.160000000000000000e+03 3.103463172912597656e+01 1.007274913787841797e+01 2.988659143447875977e-01 1.223178386688232422e+00 4.566133022308349609e-01 9.282178282737731934e-01
2.161000000000000000e+03 1.482960605621337891e+01 2.026175308227539062e+01 2.852387540042400360e-02 2.893703579902648926e-01 9.536826610565185547e-02 3.279562890529632568e-01
2.162000000000000000e+03 1.347781848907470703e+01 2.001533889770507812e+01 3.638719394803047180e-02 2.460398674011230469e-01 8.472812175750732422e-02 2.469028085470199585e-01
2.163000000000000000e+03 3.349857330322265625e+01 -1.389805316925048828e+01 -1.664478421211242676e+00 1.498955190181732178e-01 -4.543748497962951660e-01 -6.481751799583435059e-01
2.164000000000000000e+03 5.755630111694335938e+01 4.172726631164550781e+00 3.418332934379577637e-01 1.499688029289245605e+00 5.524563789367675781e-01 -3.846358358860015869e-01
2.165000000000000000e+03 5.338846588134765625e+01 -6.237349033355712891e+00 -1.475073814392089844e+00 7.884460687637329102e-02 -4.188687503337860107e-01 -2.460849136114120483e-01
2.166000000000000000e+03 4.954553604125976562e+01 -8.615962028503417969e+00 -1.448140501976013184e+00 4.210586845874786377e-02 -4.218104183673858643e-01 -3.667495846748352051e-01
2.167000000000000000e+03 3.810853576660156250e+01 -1.271740913391113281e+01 -1.309218764305114746e+00 7.531784474849700928e-02 -3.701702654361724854e-01 -5.050184726715087891e-01
2.168000000000000000e+03 3.565546035766601562e+01 1.272356700897216797e+01 3.899810314178466797e-01 1.234311699867248535e+00 4.872878193855285645e-01 8.377408385276794434e-01
2.169000000000000000e+03 4.518724441528320312e+01 1.931172728538513184e+00 2.608873844146728516e-01 1.807966530323028564e-01 1.325052082538604736e-01 2.068638205528259277e-01
2.170000000000000000e+03 3.934776687622070312e+01 -1.372100925445556641e+01 -1.532563328742980957e+00 8.109830319881439209e-02 -4.354394972324371338e-01 -5.067131519317626953e-01
2.171000000000000000e+03 4.030338287353515625e+01 -1.252244663238525391e+01 -1.341685533523559570e+00 6.503918766975402832e-02 -3.829939067363739014e-01 -4.722741842269897461e-01
2.172000000000000000e+03 2.446432876586914062e+01 1.577464103698730469e+00 -4.013588726520538330e-01 1.750741481781005859e+00 4.048147797584533691e-01 8.534347414970397949e-01
2.173000000000000000e+03 5.259182739257812500e+01 2.654882907867431641e+00 3.560764491558074951e-01 4.292986392974853516e-01 2.356125265359878540e-01 1.703067272901535034e-01
2.174000000000000000e+03 5.126452255249023438e+01 -9.060714721679687500e+00 -1.681749939918518066e+00 -5.149672273546457291e-03 -5.060698986053466797e-01 -4.829957485198974609e-01
2.175000000000000000e+03 6.417824745178222656e+00 -1.041341114044189453e+01 8.024121522903442383e-01 3.066744089126586914e+00 1.160746812820434570e+00 -1.551331162452697754e+00
2.176000000000000000e+03 2.749241828918457031e+01 3.776803255081176758e+00 -1.977103576064109802e-02 1.748150587081909180e+00 5.185138583183288574e-01 7.625896930694580078e-01
2.177000000000000000e+03 1.507644462585449219e+01 -9.102650642395019531e+00 1.800345301628112793e+00 -2.149398326873779297e+00 -1.047158837318420410e-01 2.461795330047607422e+00
2.178000000000000000e+03 9.031907081604003906e+00 -2.521011161804199219e+01 -6.094260215759277344e-01 2.205872774124145508e+00 4.789340198040008545e-01 3.082213401794433594e-01
2.179000000000000000e+03 1.287583065032958984e+01 -2.511989784240722656e+01 -1.021639481186866760e-01 2.151560544967651367e+00 6.148189902305603027e-01 -5.933286547660827637e-01
2.180000000000000000e+03 6.510761260986328125e+01 -2.671778297424316406e+01 -7.189276218414306641e-01 4.755416870117187500e+00 1.210946798324584961e+00 6.887031197547912598e-01
2.181000000000000000e+03 1.205449390411376953e+01 -7.019287586212158203e+00 2.325931340456008911e-01 8.032180070877075195e-01 3.107433319091796875e-01 1.973402500152587891e+00
2.182000000000000000e+03 7.021154022216796875e+01 -2.793865776062011719e+01 -7.438947558403015137e-01 7.496170997619628906e+00 2.025682926177978516e+00 4.122088104486465454e-02
2.183000000000000000e+03 6.949642181396484375e+01 -3.401384735107421875e+01 -1.692665964365005493e-01 6.603980541229248047e+00 1.930414199829101562e+00 2.342050522565841675e-01
2.184000000000000000e+03 7.187831115722656250e+01 -8.285459518432617188e+00 2.047362327575683594e+00 1.145558452606201172e+01 4.050883769989013672e+00 9.049076437950134277e-01
2.185000000000000000e+03 7.305390930175781250e+01 -5.671359539031982422e+00 -1.277194768190383911e-01 1.040750694274902344e+01 3.083936214447021484e+00 1.367227196693420410e+00
2.186000000000000000e+03 7.187136840820312500e+01 -3.265401840209960938e+01 -2.389499992132186890e-01 7.663924217224121094e+00 2.227492332458496094e+00 5.957959964871406555e-02
2.187000000000000000e+03 7.328998565673828125e+01 -1.986390876770019531e+01 -6.460661888122558594e-01 9.618040084838867188e+00 2.691592216491699219e+00 -1.328994035720825195e+00
2.188000000000000000e+03 7.731315612792968750e+00 2.851524925231933594e+01 -3.128422657027840614e-03 -4.101232886314392090e-01 -1.239755153656005859e-01 9.011068195104598999e-02
2.189000000000000000e+03 9.924653053283691406e+00 3.227890014648437500e+01 2.449753507971763611e-02 -3.236420452594757080e-01 -8.974335342645645142e-02 9.510004520416259766e-02
2.190000000000000000e+03 7.121321868896484375e+01 1.782850646972656250e+01 1.747318357229232788e-01 5.730369091033935547e+00 1.771530270576477051e+00 -6.096536517143249512e-01
2.191000000000000000e+03 7.256480407714843750e+01 1.549284172058105469e+01 1.185037344694137573e-01 6.152114391326904297e+00 1.881185531616210938e+00 -6.274639964103698730e-01
2.192000000000000000e+03 7.137781524658203125e+01 2.490308189392089844e+01 1.307354569435119629e-01 5.570388317108154297e+00 1.710337042808532715e+00 -4.013533294200897217e-01
2.193000000000000000e+03 7.089597320556640625e+01 9.699084281921386719e+00 -3.492489084601402283e-02 6.120177268981933594e+00 1.825575709342956543e+00 -9.098391532897949219e-01
2.194000000000000000e+03 7.300700378417968750e+01 9.069450378417968750e+00 -1.120511963963508606e-01 6.764709949493408203e+00 1.995797634124755859e+00 -7.226760983467102051e-01
2.195000000000000000e+03 7.474103546142578125e+01 -1.652173614501953125e+01 3.710380494594573975e-01 9.099418640136718750e+00 2.841136932373046875e+00 -1.602375745773315430e+00
2.196000000000000000e+03 7.218728637695312500e+01 -1.929526901245117188e+01 -6.286755204200744629e-01 1.007009506225585938e+01 2.832425832748413086e+00 -1.110153079032897949e+00
2.197000000000000000e+03 7.440397644042968750e+01 -1.910723876953125000e+01 -3.272377550601959229e-01 9.348199844360351562e+00 2.706288814544677734e+00 -1.582938313484191895e+00
2.198000000000000000e+03 7.175200653076171875e+01 5.009768962860107422e+00 -4.989646375179290771e-01 7.017588615417480469e+00 1.955587148666381836e+00 -8.273717761039733887e-01
2.199000000000000000e+03 7.464976501464843750e+01 -9.814354896545410156e+00 1.419906854629516602e+00 9.041600227355957031e+00 3.138452053070068359e+00 4.458464980125427246e-01
2.200000000000000000e+03 7.371636199951171875e+01 -9.581391334533691406e+00 1.822443723678588867e+00 9.707499504089355469e+00 3.458982944488525391e+00 7.571800947189331055e-01
2.201000000000000000e+03 7.437155914306640625e+01 -1.103133296966552734e+01 1.747447013854980469e+00 9.110413551330566406e+00 3.257358312606811523e+00 -5.173875484615564346e-03
2.202000000000000000e+03 7.498059844970703125e+01 -5.040659904479980469e+00 -2.228222787380218506e-01 8.830741882324218750e+00 2.582376003265380859e+00 1.367546677589416504e+00
2.203000000000000000e+03 7.354592132568359375e+01 -1.387665748596191406e+01 1.576815605163574219e+00 1.044241714477539062e+01 3.605769634246826172e+00 -1.274842977523803711e+00
2.204000000000000000e+03 7.445303344726562500e+01 -1.308559799194335938e+01 1.430765390396118164e+00 9.213903427124023438e+00 3.193400621414184570e+00 -9.607995152473449707e-01
2.205000000000000000e+03 7.243910980224609375e+01 -2.990128517150878906e+00 -1.272992849349975586e+00 9.791812896728515625e+00 2.555645942687988281e+00 5.082469582557678223e-01
2.206000000000000000e+03 7.365838623046875000e+01 -1.908880829811096191e+00 -9.809975624084472656e-01 9.013239860534667969e+00 2.409672498703002930e+00 6.396701335906982422e-01
2.207000000000000000e+03 7.184410858154296875e+01 9.221399307250976562e+00 -8.392994850873947144e-02 6.443483352661132812e+00 1.907866001129150391e+00 -8.213643431663513184e-01
2.208000000000000000e+03 8.507778167724609375e+00 1.957587814331054688e+01 7.789687067270278931e-02 -1.919858902692794800e-01 -3.422670438885688782e-02 1.180973947048187256e-01
2.209000000000000000e+03 7.017162322998046875e+00 2.411976814270019531e+01 4.646220710128545761e-03 -3.861908018589019775e-01 -1.144633740186691284e-01 8.069164305925369263e-02
2.210000000000000000e+03 7.417028045654296875e+01 2.012019348144531250e+01 8.596942573785781860e-02 6.264732360839843750e+00 1.905210494995117188e+00 -4.055851101875305176e-01
2.211000000000000000e+03 7.188677978515625000e+01 1.666906738281250000e+01 1.406727135181427002e-01 5.952609539031982422e+00 1.827984571456909180e+00 -6.233089566230773926e-01
2.212000000000000000e+03 7.063735961914062500e+01 2.773094940185546875e+01 1.366370469331741333e-01 5.376045703887939453e+00 1.653804779052734375e+00 -3.482408225536346436e-01
2.213000000000000000e+03 7.168103790283203125e+01 2.942788696289062500e+01 1.045070290565490723e-01 5.497759819030761719e+00 1.680680036544799805e+00 -2.975386381149291992e-01
2.214000000000000000e+03 6.900868988037109375e+01 -2.504863929748535156e+01 -9.690446257591247559e-01 7.480291366577148438e+00 1.953374028205871582e+00 1.754954159259796143e-01
2.215000000000000000e+03 6.687397003173828125e+01 -2.502604866027832031e+01 -8.892654180526733398e-01 6.206586360931396484e+00 1.595196247100830078e+00 6.994776129722595215e-01
2.216000000000000000e+03 6.147339344024658203e+00 2.711596679687500000e+01 -2.476421883329749107e-03 -5.058567523956298828e-01 -1.524999588727951050e-01 6.469410657882690430e-02
2.217000000000000000e+03 5.193424224853515625e+00 -1.163997554779052734e+01 1.239779591560363770e+00 1.301978111267089844e+00 7.625273466110229492e-01 -1.569010853767395020e+00
2.218000000000000000e+03 2.593042373657226562e+01 2.492653369903564453e+00 -2.935233414173126221e-01 1.854507803916931152e+00 4.682953357696533203e-01 8.600787520408630371e-01
2.219000000000000000e+03 5.797579574584960938e+01 -4.154983520507812500e+00 -1.201030015945434570e+00 1.258692294359207153e-01 -3.225482106208801270e-01 -3.417850434780120850e-01
2.220000000000000000e+03 7.232344627380371094e+00 -2.312457847595214844e+01 -5.647576451301574707e-01 2.122914314270019531e+00 4.674469828605651855e-01 8.031968474388122559e-01
2.221000000000000000e+03 7.112900257110595703e+00 -2.436058807373046875e+01 -6.271342635154724121e-01 1.724417805671691895e+00 3.291850686073303223e-01 8.374468684196472168e-01
2.222000000000000000e+03 5.868752002716064453e+00 -2.427338981628417969e+01 -4.920428395271301270e-01 1.098626017570495605e+00 1.819749623537063599e-01 1.002386212348937988e+00
2.223000000000000000e+03 5.760292530059814453e+00 -1.985012626647949219e+01 -1.820772439241409302e-01 1.968552947044372559e+00 5.359426736831665039e-01 1.424800872802734375e+00
2.224000000000000000e+03 7.368096828460693359e+00 1.657470321655273438e+01 1.209844723343849182e-01 -2.702104747295379639e-01 -4.476779699325561523e-02 1.569846570491790771e-01
2.225000000000000000e+03 5.537790298461914062e+00 1.587573814392089844e+01 8.648284524679183960e-02 -3.973681032657623291e-01 -9.326557815074920654e-02 1.525391787290573120e-01
2.226000000000000000e+03 8.589124679565429688e+00 1.705998992919921875e+01 1.436092555522918701e-01 -1.650020778179168701e-01 -6.417849101126194000e-03 1.562183648347854614e-01
2.227000000000000000e+03 6.564087390899658203e+00 1.454048919677734375e+01 1.190261766314506531e-01 -3.061454296112060547e-01 -5.613577738404273987e-02 2.085335999727249146e-01
2.228000000000000000e+03 5.566845417022705078e+00 1.286657810211181641e+01 8.504065126180648804e-02 -3.334227204322814941e-01 -7.451462000608444214e-02 2.328446358442306519e-01
2.229000000000000000e+03 6.584799289703369141e+00 1.979685592651367188e+01 5.725311115384101868e-02 -3.701767325401306152e-01 -9.387709200382232666e-02 9.228102117776870728e-02
2.230000000000000000e+03 5.545847415924072266e+00 2.009244346618652344e+01 3.595531731843948364e-02 -4.604862928390502930e-01 -1.273593008518218994e-01 7.652553915977478027e-02
2.231000000000000000e+03 5.652124404907226562e+00 -9.759462356567382812e+00 4.993164241313934326e-01 1.767947435379028320e+00 6.801791191101074219e-01 -1.979635834693908691e+00
2.232000000000000000e+03 7.264918327331542969e+00 1.505775260925292969e+01 1.463229209184646606e-01 -2.462369799613952637e-01 -2.997422032058238983e-02 2.072161436080932617e-01
2.233000000000000000e+03 4.455853652954101562e+01 3.228423357009887695e+00 3.337535858154296875e-01 2.379966527223587036e-01 1.715250760316848755e-01 1.945051699876785278e-01
2.234000000000000000e+03 4.835082244873046875e+01 1.598018765449523926e+00 2.412480711936950684e-01 1.503363549709320068e-01 1.174753308296203613e-01 2.106895595788955688e-01
2.235000000000000000e+03 7.174488067626953125e+00 -2.094843864440917969e+01 -4.697860479354858398e-01 2.819180965423583984e+00 7.048184871673583984e-01 8.547490239143371582e-01
2.236000000000000000e+03 8.260789871215820312e+00 -3.096675300598144531e+01 -4.071938991546630859e-01 1.130062103271484375e+00 2.168604731559753418e-01 3.902781009674072266e-01
2.237000000000000000e+03 8.120351791381835938e+00 -3.239527130126953125e+01 -3.655665516853332520e-01 9.975817203521728516e-01 1.896045506000518799e-01 3.813427686691284180e-01
2.238000000000000000e+03 7.498073101043701172e+00 2.695549583435058594e+01 -3.180899075232446194e-04 -3.944232463836669922e-01 -1.184223964810371399e-01 8.808667212724685669e-02
2.239000000000000000e+03 5.938240814208984375e+01 -2.515851259231567383e+00 -6.567770838737487793e-01 4.704847931861877441e-01 -5.588768422603607178e-02 -6.531435847282409668e-01
2.240000000000000000e+03 5.838482284545898438e+01 -1.766892552375793457e+00 -3.943603932857513428e-01 4.675634503364562988e-01 2.196091786026954651e-02 -4.796240925788879395e-01
2.241000000000000000e+03 8.789504051208496094e+00 6.990344047546386719e+00 -9.554829448461532593e-02 -4.281030222773551941e-02 -4.150757938623428345e-02 3.444913923740386963e-01
2.242000000000000000e+03 3.473974227905273438e+01 -1.291713047027587891e+01 -1.279757142066955566e+00 9.215407073497772217e-02 -3.562809228897094727e-01 -6.048005819320678711e-01
2.243000000000000000e+03 4.888526916503906250e+00 6.889460563659667969e+00 -4.148232936859130859e-02 -1.721907258033752441e-01 -6.410191953182220459e-02 2.604353129863739014e-01
2.244000000000000000e+03 6.237998485565185547e+00 8.701325416564941406e+00 3.416453953832387924e-03 -1.821978092193603516e-01 -5.363440886139869690e-02 3.158296048641204834e-01
2.245000000000000000e+03 5.705553817749023438e+01 6.020883083343505859e+00 3.879135549068450928e-01 1.842069864273071289e+00 6.689950227737426758e-01 -2.646467387676239014e-01
2.246000000000000000e+03 5.577114105224609375e+01 4.385567188262939453e+00 4.529236853122711182e-01 1.139878630638122559e+00 4.778406918048858643e-01 -6.786145269870758057e-02
2.247000000000000000e+03 9.830312728881835938e+00 1.182134532928466797e+01 1.817181259393692017e-01 -2.291169203817844391e-02 4.764193296432495117e-02 3.365310132503509521e-01
2.248000000000000000e+03 8.045879364013671875e+00 7.926693439483642578e+00 -3.587111458182334900e-02 -7.997969537973403931e-02 -3.475524485111236572e-02 3.544186651706695557e-01
2.249000000000000000e+03 6.689392089843750000e+00 9.311601638793945312e+00 2.139004133641719818e-02 -1.778438240289688110e-01 -4.693613573908805847e-02 3.237652778625488281e-01
2.250000000000000000e+03 3.336389541625976562e+01 1.160018253326416016e+01 3.002790510654449463e-01 1.167665362358093262e+00 4.403833150863647461e-01 9.038579463958740234e-01
2.251000000000000000e+03 3.857437515258789062e+01 1.260816287994384766e+01 4.659660756587982178e-01 1.463376164436340332e+00 5.788026452064514160e-01 7.739673256874084473e-01
2.252000000000000000e+03 1.102783679962158203e+01 1.850403785705566406e+01 1.272524744272232056e-01 5.428409948945045471e-02 5.446097254753112793e-02 1.531125009059906006e-01
2.253000000000000000e+03 1.244735240936279297e+01 1.732809829711914062e+01 1.961052864789962769e-01 2.230172753334045410e-01 1.257367730140686035e-01 1.764815300703048706e-01
2.254000000000000000e+03 5.893128967285156250e+01 6.322602272033691406e+00 3.856093287467956543e-01 2.314177036285400391e+00 8.099359273910522461e-01 -6.465318799018859863e-01
2.255000000000000000e+03 6.583959197998046875e+01 -2.572903823852539062e+01 -8.220638632774353027e-01 5.280333518981933594e+00 1.337480902671813965e+00 7.649088501930236816e-01
2.256000000000000000e+03 4.031517028808593750e+01 6.822535037994384766e+00 1.517376750707626343e-01 9.778445363044738770e-01 3.388746678829193115e-01 4.029453098773956299e-01
2.257000000000000000e+03 4.026868820190429688e+01 5.857074737548828125e+00 1.933038234710693359e-01 8.425016403198242188e-01 3.107416331768035889e-01 4.288806319236755371e-01
2.258000000000000000e+03 5.106352996826171875e+01 8.882390856742858887e-01 1.186719164252281189e-01 2.425288259983062744e-01 1.083602234721183777e-01 1.886765360832214355e-01
2.259000000000000000e+03 7.298114776611328125e+01 -9.727507591247558594e+00 2.267876625061035156e+00 1.055495452880859375e+01 3.846849441528320312e+00 2.506755888462066650e-01
2.260000000000000000e+03 4.262978363037109375e+01 -1.057761096954345703e+01 -1.150343775749206543e+00 5.633797869086265564e-02 -3.282017409801483154e-01 -3.773945569992065430e-01
2.261000000000000000e+03 4.129647827148437500e+01 -1.142893123626708984e+01 -1.206098914146423340e+00 5.961813032627105713e-02 -3.439442217350006104e-01 -4.188466370105743408e-01
2.262000000000000000e+03 4.226880645751953125e+01 -1.232353115081787109e+01 -1.381335139274597168e+00 4.274942725896835327e-02 -4.015757441520690918e-01 -4.668747484683990479e-01
2.263000000000000000e+03 5.346297836303710938e+01 2.414255332946777344e+01 6.944712996482849121e-01 2.056149482727050781e+00 8.251862525939941406e-01 -4.876932203769683838e-01
2.264000000000000000e+03 5.055758285522460938e+01 2.737290573120117188e+01 7.505322694778442383e-01 1.809229493141174316e+00 7.679285407066345215e-01 -1.041243001818656921e-01
2.265000000000000000e+03 2.613812065124511719e+01 -1.271004390716552734e+01 -1.439088344573974609e+00 1.182454943656921387e+00 -7.699001580476760864e-02 -1.170421481132507324e+00
2.266000000000000000e+03 3.916919708251953125e+01 8.987851142883300781e+00 2.018110305070877075e-01 1.266305804252624512e+00 4.404350519180297852e-01 6.465263366699218750e-01
2.267000000000000000e+03 3.905466842651367188e+01 1.015022468566894531e+01 2.803654670715332031e-01 1.379425764083862305e+00 4.979373514652252197e-01 7.551884055137634277e-01
2.268000000000000000e+03 5.976970291137695312e+01 1.029258918762207031e+01 5.240663290023803711e-01 3.125492811203002930e+00 1.094867706298828125e+00 -7.923885583877563477e-01
2.269000000000000000e+03 5.891594314575195312e+01 9.275362968444824219e+00 4.498275816440582275e-01 2.919398069381713867e+00 1.010767698287963867e+00 -6.624094843864440918e-01
2.270000000000000000e+03 3.704714202880859375e+01 1.698719024658203125e+01 4.719748497009277344e-01 1.363768458366394043e+00 5.507230162620544434e-01 5.546103715896606445e-01
2.271000000000000000e+03 3.127604293823242188e+01 -1.263084888458251953e+01 -1.071694254875183105e+00 1.512929946184158325e-01 -2.761203646659851074e-01 -8.055563569068908691e-01
2.272000000000000000e+03 2.626919555664062500e+01 -1.071884918212890625e+01 1.703541278839111328e+00 8.906093835830688477e-01 7.782452106475830078e-01 -1.119814515113830566e+00
2.273000000000000000e+03 6.105520629882812500e+01 9.337234497070312500e+00 4.477761983871459961e-01 3.302909135818481445e+00 1.125205636024475098e+00 -9.284293055534362793e-01
2.274000000000000000e+03 3.698626327514648438e+01 -1.280740261077880859e+01 -1.300152897834777832e+00 7.761337608098983765e-02 -3.667618632316589355e-01 -5.291995406150817871e-01
2.275000000000000000e+03 5.718851852416992188e+01 -6.570572853088378906e+00 -2.118786811828613281e+00 -8.014294505119323730e-02 -6.596788763999938965e-01 -5.334841012954711914e-01
2.276000000000000000e+03 7.309136199951171875e+01 3.416410064697265625e+01 7.751431316137313843e-02 5.581100463867187500e+00 1.697584390640258789e+00 -1.693679690361022949e-01
2.277000000000000000e+03 6.806582641601562500e+01 3.270684051513671875e+01 1.798162162303924561e-01 4.917724609375000000e+00 1.529262185096740723e+00 -2.753626108169555664e-01
2.278000000000000000e+03 5.621783065795898438e+01 -2.471691131591796875e+00 -6.594973802566528320e-01 3.315417766571044922e-01 -9.838669002056121826e-02 -1.520213782787322998e-01
2.279000000000000000e+03 5.423566436767578125e+01 -5.455432891845703125e+00 -1.343529582023620605e+00 1.007362529635429382e-01 -3.728380203247070312e-01 -1.853063553571701050e-01
2.280000000000000000e+03 2.945001983642578125e+01 1.463691425323486328e+01 -9.811309725046157837e-02 1.084594249725341797e+00 2.959443330764770508e-01 6.030423641204833984e-01
2.281000000000000000e+03 4.349088287353515625e+01 3.278547525405883789e+00 2.968533933162689209e-01 3.268603086471557617e-01 1.871141046285629272e-01 2.049754112958908081e-01
2.282000000000000000e+03 6.075344467163085938e+01 -3.124330329895019531e+01 -1.740273237228393555e-01 2.017299175262451172e+00 5.529815554618835449e-01 4.174998700618743896e-01
2.283000000000000000e+03 9.604043960571289062e+00 -3.309116744995117188e+01 -3.879131674766540527e-01 1.123542189598083496e+00 2.206887006759643555e-01 2.411581277847290039e-01
2.284000000000000000e+03 3.983125305175781250e+01 2.101344108581542969e+01 3.778410255908966064e-01 1.572029829025268555e+00 5.849612951278686523e-01 4.494218826293945312e-01
2.285000000000000000e+03 6.409007263183593750e+01 -2.776337385177612305e+00 -1.998079419136047363e-01 1.914914965629577637e+00 5.145320892333984375e-01 -2.710057735443115234e+00
2.286000000000000000e+03 5.997341918945312500e+01 -1.582044720649719238e+00 -2.529278397560119629e-01 7.157574892044067383e-01 1.388488858938217163e-01 -8.449161648750305176e-01
2.287000000000000000e+03 4.374145126342773438e+01 1.993149757385253906e+01 4.610057175159454346e-01 1.701362848281860352e+00 6.487105488777160645e-01 7.167669534683227539e-01
2.288000000000000000e+03 7.029459381103515625e+01 -1.982786369323730469e+01 -7.565654516220092773e-01 9.954103469848632812e+00 2.759261369705200195e+00 -1.852342337369918823e-01
2.289000000000000000e+03 5.820755767822265625e+01 2.249817085266113281e+01 4.092223048210144043e-01 3.259283542633056641e+00 1.100551724433898926e+00 -5.978749394416809082e-01
2.290000000000000000e+03 7.310501098632812500e+01 -2.201992034912109375e+01 -7.747083306312561035e-01 9.260134696960449219e+00 2.545627832412719727e+00 -1.065522909164428711e+00
2.291000000000000000e+03 7.250863647460937500e+01 -2.020703887939453125e+01 -6.204790472984313965e-01 9.489313125610351562e+00 2.660650253295898438e+00 -1.178212642669677734e+00
2.292000000000000000e+03 4.756223297119140625e+01 -4.127049636840820312e+01 3.850156962871551514e-01 -3.457732796669006348e-01 1.177272573113441467e-02 -5.484829097986221313e-02
2.293000000000000000e+03 8.984792709350585938e+00 1.426060295104980469e+01 2.011709511280059814e-01 -1.039451286196708679e-01 2.916774526238441467e-02 2.492069453001022339e-01
2.294000000000000000e+03 4.544916534423828125e+01 2.590844535827636719e+01 6.582218408584594727e-01 1.455890774726867676e+00 6.342337727546691895e-01 3.416651785373687744e-01
2.295000000000000000e+03 4.179774475097656250e+01 2.346564102172851562e+01 4.158770143985748291e-01 1.522069096565246582e+00 5.813838243484497070e-01 4.711143076419830322e-01
2.296000000000000000e+03 3.926615524291992188e+01 6.772448539733886719e+00 1.678913682699203491e-01 1.043022036552429199e+00 3.632740378379821777e-01 5.525743961334228516e-01
2.297000000000000000e+03 6.115354919433593750e+01 1.444116592407226562e+01 6.558294892311096191e-01 3.658984422683715820e+00 1.294444203376770020e+00 -7.799966335296630859e-01
2.298000000000000000e+03 6.071406555175781250e+01 1.654349708557128906e+01 6.576778888702392578e-01 3.665474176406860352e+00 1.296945691108703613e+00 -6.579869389533996582e-01
2.299000000000000000e+03 6.751429557800292969e+00 -3.096346092224121094e+01 -3.572843372821807861e-01 8.791832327842712402e-01 1.565696746110916138e-01 5.203107595443725586e-01
2.300000000000000000e+03 7.404375457763671875e+01 6.735281348228454590e-01 -8.142341375350952148e-01 8.331486701965332031e+00 2.255175828933715820e+00 1.396426409482955933e-01
2.301000000000000000e+03 3.951799011230468750e+01 -3.807595825195312500e+01 -2.447805553674697876e-02 -1.887520551681518555e-01 -6.396903097629547119e-02 -1.084150522947311401e-01
2.302000000000000000e+03 7.287538909912109375e+01 7.744625568389892578e+00 -1.857009232044219971e-01 6.859650135040283203e+00 2.002184867858886719e+00 -7.162544727325439453e-01
2.303000000000000000e+03 2.302810859680175781e+01 -2.757817506790161133e+00 -4.709610939025878906e-01 2.402207612991333008e+00 5.793739557266235352e-01 6.808239221572875977e-01
2.304000000000000000e+03 1.887797737121582031e+01 -8.268934249877929688e+00 4.641757488250732422e+00 -1.929035186767578125e+00 8.138166069984436035e-01 3.650151193141937256e-01
2.305000000000000000e+03 2.361241340637207031e+01 -5.222599983215332031e+00 2.266358882188796997e-01 4.020616531372070312e+00 1.274175763130187988e+00 1.737920284271240234e+00
2.306000000000000000e+03 1.680325317382812500e+01 -7.485721111297607422e+00 2.357461929321289062e+00 -1.948991179466247559e+00 1.225412189960479736e-01 9.633229374885559082e-01
2.307000000000000000e+03 2.589383125305175781e+01 -8.056054115295410156e+00 4.003594398498535156e+00 1.094602942466735840e+00 1.529459118843078613e+00 1.237864136695861816e+00
2.308000000000000000e+03 1.693060302734375000e+01 -8.823155403137207031e+00 2.732170820236206055e+00 -2.630988359451293945e+00 3.035475499927997589e-02 1.725958943367004395e+00
2.309000000000000000e+03 2.282292366027832031e+01 -2.338380098342895508e+00 -4.956847429275512695e-01 2.160606861114501953e+00 4.994766414165496826e-01 5.752704143524169922e-01
2.310000000000000000e+03 2.762544822692871094e+01 -1.194582366943359375e+01 -2.636419534683227539e-01 6.073864102363586426e-01 1.031233295798301697e-01 -1.164785623550415039e+00
2.311000000000000000e+03 2.676702499389648438e+01 -8.979801177978515625e+00 3.008106946945190430e+00 5.498758554458618164e-01 1.067394852638244629e+00 1.747300028800964355e-01
2.312000000000000000e+03 2.242360305786132812e+01 -2.659202218055725098e-01 -4.414526224136352539e-01 1.440014123916625977e+00 2.995684444904327393e-01 5.168344378471374512e-01
2.313000000000000000e+03 5.917180538177490234e+00 5.537924766540527344e+00 -1.022654697299003601e-01 -1.011858806014060974e-01 -6.103540211915969849e-02 2.721898257732391357e-01
2.314000000000000000e+03 1.868200302124023438e+01 -1.009159183502197266e+01 3.165530443191528320e+00 -2.117890834808349609e+00 3.142918646335601807e-01 2.648653984069824219e+00
2.315000000000000000e+03 1.538531875610351562e+01 -8.019317626953125000e+00 1.938355326652526855e+00 -1.887528896331787109e+00 1.524793077260255814e-02 1.958844304084777832e+00
2.316000000000000000e+03 1.934623336791992188e+01 -1.027656459808349609e+01 3.428844690322875977e+00 -1.131279230117797852e+00 6.892696022987365723e-01 3.233926773071289062e+00
2.317000000000000000e+03 7.952469348907470703e+00 6.416018962860107422e+00 -1.110001355409622192e-01 -6.623458117246627808e-02 -5.317041650414466858e-02 3.267618119716644287e-01
2.318000000000000000e+03 8.630284309387207031e+00 5.794476032257080078e+00 -1.575314849615097046e-01 -4.587705433368682861e-02 -6.102256104350090027e-02 3.093799352645874023e-01
2.319000000000000000e+03 1.455247116088867188e+01 -7.598195075988769531e+00 1.532703995704650879e+00 -1.208845496177673340e+00 9.715755283832550049e-02 2.212327003479003906e+00
2.320000000000000000e+03 1.079358291625976562e+01 -6.172236919403076172e+00 -4.778620898723602295e-01 1.368043303489685059e+00 2.670543491840362549e-01 1.209693908691406250e+00
2.321000000000000000e+03 8.650392532348632812e+00 1.112515258789062500e+01 1.206627935171127319e-01 -9.286446869373321533e-02 8.339499123394489288e-03 3.411666154861450195e-01
2.322000000000000000e+03 2.583929634094238281e+01 -1.000458145141601562e+01 2.960905551910400391e+00 9.665333628654479980e-01 1.178231716156005859e+00 -6.835545897483825684e-01
2.323000000000000000e+03 2.553225326538085938e+01 -1.094705963134765625e+01 1.472560524940490723e+00 1.481348156929016113e+00 8.861726522445678711e-01 -1.374820828437805176e+00
2.324000000000000000e+03 9.647342681884765625e+00 -6.327975749969482422e+00 -8.044074177742004395e-01 2.075795173645019531e+00 3.814163506031036377e-01 7.673265933990478516e-01
2.325000000000000000e+03 1.098436546325683594e+01 -7.298275470733642578e+00 -1.611657440662384033e-01 1.779220342636108398e+00 4.854163825511932373e-01 1.746734619140625000e+00
2.326000000000000000e+03 8.130900382995605469e+00 -8.077280044555664062e+00 -6.135942935943603516e-01 3.523461818695068359e+00 8.729602694511413574e-01 -2.200629562139511108e-01
2.327000000000000000e+03 6.799686431884765625e+00 -5.780838012695312500e+00 -9.301878809928894043e-01 1.399820327758789062e+00 1.408897340297698975e-01 -9.884836077690124512e-01
2.328000000000000000e+03 1.077804088592529297e+01 6.113961219787597656e+00 -1.985590904951095581e-01 2.051487751305103302e-02 -5.341326445341110229e-02 3.085977435111999512e-01
2.329000000000000000e+03 9.101531982421875000e+00 6.082600593566894531e+00 -1.600640118122100830e-01 -3.416887670755386353e-02 -5.826986581087112427e-02 3.142714798450469971e-01
2.330000000000000000e+03 2.598735618591308594e+01 -1.178196334838867188e+01 1.371071208268404007e-02 1.209712147712707520e+00 3.670268356800079346e-01 -1.348830223083496094e+00
2.331000000000000000e+03 3.614797973632812500e+01 1.175920772552490234e+01 3.734934329986572266e-01 1.267871618270874023e+00 4.924095273017883301e-01 8.411775827407836914e-01
2.332000000000000000e+03 3.087745094299316406e+01 1.117261886596679688e+01 2.394528836011886597e-01 1.167672276496887207e+00 4.221375286579132080e-01 9.235791563987731934e-01
2.333000000000000000e+03 8.282495498657226562e+00 1.366751003265380859e+01 1.628495156764984131e-01 -1.547078639268875122e-01 2.442495431751012802e-03 2.579424679279327393e-01
2.334000000000000000e+03 1.315250587463378906e+01 -7.607514381408691406e+00 9.518960118293762207e-01 -8.319281786680221558e-02 2.606109678745269775e-01 2.338142156600952148e+00
2.335000000000000000e+03 6.592374801635742188e+00 1.565145397186279297e+01 1.090424358844757080e-01 -3.187229037284851074e-01 -6.290414184331893921e-02 1.719310730695724487e-01
2.336000000000000000e+03 2.733790397644042969e+01 -1.292617607116699219e+01 -1.465990185737609863e+00 7.289755344390869141e-01 -2.211043834686279297e-01 -1.115248203277587891e+00
2.337000000000000000e+03 2.699066352844238281e+01 3.072593450546264648e+00 -1.182268783450126648e-01 1.843633174896240234e+00 5.176218748092651367e-01 8.329612016677856445e-01
2.338000000000000000e+03 2.514401245117187500e+01 1.631027579307556152e+00 -3.879227340221405029e-01 1.841103434562683105e+00 4.359542131423950195e-01 8.774741291999816895e-01
2.339000000000000000e+03 2.248366355895996094e+01 -1.570304036140441895e+00 -4.787519872188568115e-01 1.762022137641906738e+00 3.849810361862182617e-01 4.893683493137359619e-01
2.340000000000000000e+03 2.238627243041992188e+01 3.716685771942138672e-01 -4.255972206592559814e-01 1.289675831794738770e+00 2.592235803604125977e-01 5.391578674316406250e-01
2.341000000000000000e+03 4.115206527709960938e+01 6.342282772064208984e+00 1.751419305801391602e-01 8.379149436950683594e-01 3.039170503616333008e-01 3.066781759262084961e-01
2.342000000000000000e+03 4.070186996459960938e+01 3.589543342590332031e+00 2.191930562257766724e-01 5.997065305709838867e-01 2.456698864698410034e-01 3.753184676170349121e-01
2.343000000000000000e+03 2.156285667419433594e+01 1.010000467300415039e+00 -3.792598247528076172e-01 8.848469257354736328e-01 1.516761332750320435e-01 4.303459227085113525e-01
2.344000000000000000e+03 2.296528816223144531e+01 -3.143848776817321777e-01 -4.624946713447570801e-01 1.645339012145996094e+00 3.548533022403717041e-01 6.398202180862426758e-01
2.345000000000000000e+03 2.284040451049804688e+01 1.230150222778320312e+00 -4.119010269641876221e-01 1.303885102272033691e+00 2.675952017307281494e-01 6.593620181083679199e-01
2.346000000000000000e+03 6.731842041015625000e+00 -8.456004142761230469e+00 -1.637002825736999512e-01 2.392436027526855469e+00 6.686207652091979980e-01 -1.399507403373718262e+00
2.347000000000000000e+03 2.384435081481933594e+01 1.476349592208862305e+00 -4.310168027877807617e-01 1.619553565979003906e+00 3.565610349178314209e-01 7.782762050628662109e-01
2.348000000000000000e+03 4.133738327026367188e+01 -1.243136405944824219e+01 -1.368663072586059570e+00 5.209381878376007080e-02 -3.949707746505737305e-01 -4.735776185989379883e-01
2.349000000000000000e+03 3.912888336181640625e+01 -1.153585529327392578e+01 -1.099909186363220215e+00 5.723180249333381653e-02 -3.128032088279724121e-01 -4.375540316104888916e-01
2.350000000000000000e+03 1.005216217041015625e+01 5.895622253417968750e+00 -1.927508562803268433e-01 -5.642613396048545837e-03 -5.951804295182228088e-02 3.026089072227478027e-01
2.351000000000000000e+03 7.163501739501953125e+01 -2.515944480895996094e+01 -8.439606428146362305e-01 8.486605644226074219e+00 2.292793512344360352e+00 -4.113896489143371582e-01
2.352000000000000000e+03 7.312767791748046875e+01 -2.432056236267089844e+01 -7.246958613395690918e-01 8.913174629211425781e+00 2.456543445587158203e+00 -7.231708168983459473e-01
2.353000000000000000e+03 3.287305450439453125e+01 -1.085475063323974609e+01 -3.424288332462310791e-01 8.966065943241119385e-03 -1.000388339161872864e-01 -5.299510955810546875e-01
2.354000000000000000e+03 3.833136367797851562e+01 5.558393478393554688e+00 2.123755663633346558e-01 9.372286200523376465e-01 3.448812365531921387e-01 6.138086915016174316e-01
2.355000000000000000e+03 9.642379760742187500e+00 1.080341339111328125e+01 1.308671236038208008e-01 -1.906123384833335876e-02 3.354176878929138184e-02 3.667397499084472656e-01
2.356000000000000000e+03 4.600616073608398438e+01 -1.003874111175537109e+01 -1.303103566169738770e+00 4.718418791890144348e-02 -3.767758309841156006e-01 -3.922525048255920410e-01
2.357000000000000000e+03 4.841077423095703125e+01 -9.092803001403808594e+00 -1.395803093910217285e+00 4.695286229252815247e-02 -4.046550691127777100e-01 -3.788071274757385254e-01
2.358000000000000000e+03 5.541291713714599609e+00 7.651518821716308594e+00 -2.621230669319629669e-02 -1.819944530725479126e-01 -6.246202811598777771e-02 2.863840162754058838e-01
2.359000000000000000e+03 7.302431488037109375e+01 1.280659961700439453e+01 6.906135380268096924e-02 6.444419384002685547e+00 1.954044222831726074e+00 -6.638013720512390137e-01
2.360000000000000000e+03 4.474842071533203125e+01 -1.054040050506591797e+01 -1.275529742240905762e+00 4.504850879311561584e-02 -3.691443800926208496e-01 -4.007631540298461914e-01
2.361000000000000000e+03 3.089850997924804688e+01 6.545307636260986328e+00 3.931404054164886475e-01 1.244434952735900879e+00 4.912725985050201416e-01 8.596705198287963867e-01
2.362000000000000000e+03 5.823845672607421875e+01 5.265618324279785156e+00 4.034133255481719971e-01 1.948259353637695312e+00 7.055017948150634766e-01 -5.376726388931274414e-01
2.363000000000000000e+03 3.676182937622070312e+01 -1.066441249847412109e+01 -7.385793924331665039e-01 3.248139470815658569e-02 -2.118294090032577515e-01 -4.086559116840362549e-01
2.364000000000000000e+03 3.648523712158203125e+01 1.074578285217285156e+01 3.673681616783142090e-01 1.219204902648925781e+00 4.759719073772430420e-01 8.600345253944396973e-01
2.365000000000000000e+03 3.731291580200195312e+01 1.221179103851318359e+01 4.418341815471649170e-01 1.294611454010009766e+00 5.209336876869201660e-01 8.263784050941467285e-01
2.366000000000000000e+03 3.667545318603515625e+01 8.499807357788085938e+00 2.938963174819946289e-01 1.151666522026062012e+00 4.336688518524169922e-01 8.202879428863525391e-01
2.367000000000000000e+03 3.782410049438476562e+01 9.901182174682617188e+00 3.172817528247833252e-01 1.247090458869934082e+00 4.693116843700408936e-01 7.904829978942871094e-01
2.368000000000000000e+03 4.372763061523437500e+01 -1.123107242584228516e+01 -1.297613501548767090e+00 4.398283362388610840e-02 -3.760892152786254883e-01 -4.287653863430023193e-01
2.369000000000000000e+03 4.278527832031250000e+01 -9.420192718505859375e+00 -1.000090360641479492e+00 6.453460454940795898e-02 -2.806667387485504150e-01 -3.072721958160400391e-01
2.370000000000000000e+03 6.576249122619628906e+00 5.626036643981933594e+00 -1.140526011586189270e-01 -8.983078598976135254e-02 -6.116501614451408386e-02 2.823248207569122314e-01
2.371000000000000000e+03 1.018386459350585938e+01 8.486925125122070312e+00 -3.261549770832061768e-02 3.667642921209335327e-02 1.218278659507632256e-03 3.660967051982879639e-01
2.372000000000000000e+03 5.158428955078125000e+01 -5.955341815948486328e+00 -1.243026852607727051e+00 1.152999252080917358e-01 -3.383180797100067139e-01 -1.508268713951110840e-01
2.373000000000000000e+03 4.902195739746093750e+01 -7.599377155303955078e+00 -1.263903737068176270e+00 8.005928248167037964e-02 -3.551533222198486328e-01 -2.566807866096496582e-01
2.374000000000000000e+03 7.206939697265625000e+01 -2.393214035034179688e+01 -8.238233923912048340e-01 8.726503372192382812e+00 2.370803833007812500e+00 -6.225473880767822266e-01
2.375000000000000000e+03 7.222963714599609375e+01 -2.121429443359375000e+01 -7.457503676414489746e-01 9.424257278442382812e+00 2.603552103042602539e+00 -8.787602782249450684e-01
2.376000000000000000e+03 7.292479705810546875e+01 3.606818199157714844e+00 -6.296645402908325195e-01 7.572194099426269531e+00 2.082758903503417969e+00 -5.499854087829589844e-01
2.377000000000000000e+03 7.250470733642578125e+01 -4.321694374084472656e-01 -1.212554335594177246e+00 8.677123069763183594e+00 2.239370584487915039e+00 -1.171082258224487305e-01
2.378000000000000000e+03 7.155973052978515625e+01 -4.472051620483398438e+00 -1.194539189338684082e+00 1.092677593231201172e+01 2.919671058654785156e+00 5.919609665870666504e-01
2.379000000000000000e+03 2.826539230346679688e+01 4.312755584716796875e+00 1.300595998764038086e-01 1.632992744445800781e+00 5.289157032966613770e-01 7.552433609962463379e-01
2.380000000000000000e+03 2.908663749694824219e+01 2.582343578338623047e+00 5.669250711798667908e-02 1.582442879676818848e+00 4.917406141757965088e-01 9.287717342376708984e-01
2.381000000000000000e+03 7.054644775390625000e+01 -2.454647445678710938e+01 -9.170447587966918945e-01 8.195154190063476562e+00 2.183432817459106445e+00 -2.230938225984573364e-01
2.382000000000000000e+03 6.921774864196777344e+00 2.169166946411132812e+01 2.819607593119144440e-02 -3.660107553005218506e-01 -1.013444066047668457e-01 8.184809237718582153e-02
2.383000000000000000e+03 7.392615509033203125e+01 2.262378501892089844e+01 8.458326756954193115e-02 6.091253757476806641e+00 1.852751135826110840e+00 -3.578376770019531250e-01
2.384000000000000000e+03 7.286637115478515625e+01 6.358268260955810547e+00 -3.212071061134338379e-01 7.065756320953369141e+00 2.023364782333374023e+00 -7.051328420639038086e-01
2.385000000000000000e+03 7.044068908691406250e+01 3.936183452606201172e+00 -6.607809066772460938e-01 6.825398445129394531e+00 1.849385261535644531e+00 -1.092008352279663086e+00
2.386000000000000000e+03 7.176681518554687500e+01 1.028509330749511719e+01 -1.484681945294141769e-02 6.311035633087158203e+00 1.888856649398803711e+00 -8.113367557525634766e-01
2.387000000000000000e+03 2.715507698059082031e+01 -9.493230819702148438e+00 2.421504974365234375e+00 3.898099660873413086e-01 8.433945178985595703e-01 -2.177092730998992920e-01
2.388000000000000000e+03 7.548491477966308594e+00 -6.007080078125000000e+00 -1.052969217300415039e+00 1.823620200157165527e+00 2.311953008174896240e-01 -6.620526909828186035e-01
2.389000000000000000e+03 7.363360881805419922e+00 -6.837890148162841797e+00 -8.485282063484191895e-01 2.329649925231933594e+00 4.443365633487701416e-01 -7.744588255882263184e-01
2.390000000000000000e+03 1.118584251403808594e+01 8.154663085937500000e+00 -6.528318673372268677e-02 8.064711838960647583e-02 4.609178286045789719e-03 3.489691317081451416e-01
2.391000000000000000e+03 7.694922924041748047e+00 -9.067010879516601562e+00 -2.737847566604614258e-01 4.238111019134521484e+00 1.189297795295715332e+00 -1.004352331161499023e+00
2.392000000000000000e+03 7.244000434875488281e+00 -2.668129920959472656e+01 -5.458946228027343750e-01 1.349175095558166504e+00 2.409841269254684448e-01 6.785847544670104980e-01
2.393000000000000000e+03 8.464698791503906250e+00 1.828787612915039062e+01 1.144989356398582458e-01 -1.858111619949340820e-01 -2.139366604387760162e-02 1.306809633970260620e-01
2.394000000000000000e+03 7.349952697753906250e+00 1.844169425964355469e+01 9.101840853691101074e-02 -2.740319669246673584e-01 -5.490406602621078491e-02 1.219955533742904663e-01
2.395000000000000000e+03 1.299006938934326172e+01 -2.922469711303710938e+01 -3.461219668388366699e-01 1.565172553062438965e+00 3.657151758670806885e-01 -1.610204279422760010e-01
2.396000000000000000e+03 9.863992691040039062e+00 1.722398948669433594e+01 1.688358336687088013e-01 -5.048047751188278198e-02 3.550660610198974609e-02 1.547994464635848999e-01
2.397000000000000000e+03 7.483263969421386719e+00 1.954855537414550781e+01 7.281381636857986450e-02 -2.723047435283660889e-01 -5.984727665781974792e-02 1.016567945480346680e-01
2.398000000000000000e+03 5.703482055664062500e+01 2.907580137252807617e+00 2.945353686809539795e-01 1.151479721069335938e+00 4.338045418262481689e-01 -2.825242578983306885e-01
2.399000000000000000e+03 3.807369613647460938e+01 7.669902801513671875e+00 2.235008478164672852e-01 1.128339767456054688e+00 4.055521786212921143e-01 6.971088051795959473e-01
2.400000000000000000e+03 3.822021865844726562e+01 6.614779472351074219e+00 2.199560403823852539e-01 1.034401774406433105e+00 3.763073384761810303e-01 6.580471396446228027e-01
2.401000000000000000e+03 7.143403625488281250e+01 1.505179119110107422e+01 1.420380622148513794e-01 5.923418045043945312e+00 1.819636940956115723e+00 -7.154108881950378418e-01
2.402000000000000000e+03 7.305912017822265625e+01 1.164221668243408203e+01 1.551343593746423721e-02 6.546621799468994141e+00 1.968640565872192383e+00 -6.932610869407653809e-01
2.403000000000000000e+03 7.176924228668212891e+00 7.174436092376708984e+00 -6.224156543612480164e-02 -1.046160683035850525e-01 -5.005729198455810547e-02 3.303498327732086182e-01
2.404000000000000000e+03 7.056406021118164062e+00 -9.775053024291992188e+00 4.430836439132690430e-01 3.477996110916137695e+00 1.176323890686035156e+00 -1.602710962295532227e+00
2.405000000000000000e+03 8.839179039001464844e+00 1.196712779998779297e+01 1.619797497987747192e-01 -8.570452034473419189e-02 2.288257144391536713e-02 3.269830942153930664e-01
2.406000000000000000e+03 6.240288257598876953e+00 1.009763431549072266e+01 4.603622108697891235e-02 -2.200129628181457520e-01 -5.219301953911781311e-02 3.091131150722503662e-01
2.407000000000000000e+03 1.233546829223632812e+01 1.858597755432128906e+01 1.264081150293350220e-01 2.020359933376312256e-01 9.853323549032211304e-02 1.755413264036178589e-01
2.408000000000000000e+03 1.090536499023437500e+01 1.977599716186523438e+01 7.839793711900711060e-02 3.041375614702701569e-02 3.264350816607475281e-02 1.502426415681838989e-01
2.409000000000000000e+03 5.776118850708007812e+01 -2.556808233261108398e+00 -6.906251907348632812e-01 3.567686080932617188e-01 -1.001569777727127075e-01 -3.323430418968200684e-01
2.410000000000000000e+03 9.860865592956542969e+00 1.289050292968750000e+01 2.160941809415817261e-01 -2.209761552512645721e-02 5.819896981120109558e-02 3.075798749923706055e-01
2.411000000000000000e+03 7.995584011077880859e+00 1.227979850769042969e+01 1.484162360429763794e-01 -1.667217761278152466e-01 -5.491664167493581772e-03 3.007062971591949463e-01
2.412000000000000000e+03 7.915961742401123047e+00 3.022466468811035156e+01 9.229824878275394440e-03 -4.125164449214935303e-01 -1.209859848022460938e-01 8.495472371578216553e-02
2.413000000000000000e+03 1.123665523529052734e+01 2.952199935913085938e+01 1.783356070518493652e-02 -2.087455540895462036e-01 -5.727360025048255920e-02 1.409641206264495850e-01
2.414000000000000000e+03 5.757130432128906250e+01 7.135526180267333984e+00 4.178963005542755127e-01 2.176069498062133789e+00 7.781897187232971191e-01 -3.901352286338806152e-01
2.415000000000000000e+03 5.275934982299804688e+01 1.012980222702026367e+00 1.058301553130149841e-01 3.687850534915924072e-01 1.423845589160919189e-01 1.362470984458923340e-01
2.416000000000000000e+03 4.681485366821289062e+01 1.285129547119140625e+00 1.983636170625686646e-01 1.466571688652038574e-01 1.035062372684478760e-01 2.049587815999984741e-01
2.417000000000000000e+03 7.321464538574218750e+01 2.171098899841308594e+01 1.031940132379531860e-01 5.983121395111083984e+00 1.825894713401794434e+00 -4.170307219028472900e-01
2.418000000000000000e+03 7.116069030761718750e+01 1.934216308593750000e+01 1.698488444089889526e-01 5.680071353912353516e+00 1.754976034164428711e+00 -5.729419589042663574e-01
2.419000000000000000e+03 3.583412933349609375e+01 -1.187143611907958984e+01 -9.956784844398498535e-01 5.712631717324256897e-02 -2.815656363964080811e-01 -5.197809338569641113e-01
2.420000000000000000e+03 3.371989822387695312e+01 -1.191324996948242188e+01 -8.634104728698730469e-01 4.887029901146888733e-02 -2.443620562553405762e-01 -6.170124411582946777e-01
2.421000000000000000e+03 2.769050025939941406e+01 2.664718151092529297e+00 -7.155523449182510376e-02 1.744634389877319336e+00 5.019237399101257324e-01 8.777338862419128418e-01
2.422000000000000000e+03 4.174833679199218750e+01 4.071845054626464844e+00 2.389300912618637085e-01 5.372887253761291504e-01 2.328656464815139771e-01 2.895371615886688232e-01
2.423000000000000000e+03 6.473912048339843750e+01 -1.679102659225463867e+00 -5.199441313743591309e-01 3.377482175827026367e+00 8.572614192962646484e-01 -2.931430578231811523e+00
2.424000000000000000e+03 6.289421463012695312e+01 -1.959051966667175293e+00 -2.550264298915863037e-01 1.368456363677978516e+00 3.340289592742919922e-01 -1.967484593391418457e+00
2.425000000000000000e+03 6.985596179962158203e+00 1.158579730987548828e+01 9.489896148443222046e-02 -2.274944186210632324e-01 -3.977863863110542297e-02 2.933784425258636475e-01
2.426000000000000000e+03 6.976994514465332031e+00 1.041803073883056641e+01 7.695218920707702637e-02 -1.827050149440765381e-01 -3.172584623098373413e-02 3.266220688819885254e-01
2.427000000000000000e+03 7.276955413818359375e+01 -2.950539970397949219e+01 -4.528636634349822998e-01 8.227520942687988281e+00 2.332397222518920898e+00 -1.687149256467819214e-01
2.428000000000000000e+03 6.901544952392578125e+01 -2.950763130187988281e+01 -5.997510552406311035e-01 6.624229907989501953e+00 1.807343602180480957e+00 2.288390398025512695e-01
2.429000000000000000e+03 5.241248703002929688e+01 -1.473196625709533691e+00 -3.232299685478210449e-01 2.230744361877441406e-01 -3.004666045308113098e-02 8.293824642896652222e-02
2.430000000000000000e+03 5.351120758056640625e+01 1.832816362380981445e+00 2.497476935386657715e-01 4.923531115055084229e-01 2.226302474737167358e-01 1.030149832367897034e-01
2.431000000000000000e+03 4.601866912841796875e+01 1.647095322608947754e+00 2.220017760992050171e-01 1.702953875064849854e-01 1.176891475915908813e-01 2.139180600643157959e-01
2.432000000000000000e+03 4.930088043212890625e+01 7.176310420036315918e-01 1.139191836118698120e-01 1.648975461721420288e-01 8.364502340555191040e-02 2.070029079914093018e-01
2.433000000000000000e+03 4.722954559326171875e+01 -9.564251899719238281e+00 -1.351479649543762207e+00 4.879907146096229553e-02 -3.908041715621948242e-01 -3.826395273208618164e-01
2.434000000000000000e+03 2.949817085266113281e+01 1.212906265258789062e+01 7.962699234485626221e-02 1.168788671493530273e+00 3.745246827602386475e-01 8.334212899208068848e-01
2.435000000000000000e+03 7.155049896240234375e+01 -2.872286987304687500e+01 -6.027420759201049805e-01 7.842216014862060547e+00 2.171842098236083984e+00 -1.046371534466743469e-01
2.436000000000000000e+03 7.232637023925781250e+01 -2.713828277587890625e+01 -6.519788503646850586e-01 8.344962120056152344e+00 2.307895183563232422e+00 -3.216466307640075684e-01
2.437000000000000000e+03 6.324473857879638672e+00 -2.823437881469726562e+01 -4.418985843658447266e-01 9.227471947669982910e-01 1.442545652389526367e-01 6.908169984817504883e-01
2.438000000000000000e+03 9.093626022338867188e+00 -2.748819160461425781e+01 -5.709406137466430664e-01 1.725027799606323242e+00 3.462261855602264404e-01 3.492647111415863037e-01
2.439000000000000000e+03 7.287427520751953125e+01 2.043889236450195312e+01 1.102625951170921326e-01 5.988259315490722656e+00 1.829556584358215332e+00 -4.691342115402221680e-01
2.440000000000000000e+03 6.398249816894531250e+01 1.062239456176757812e+01 3.827586770057678223e-01 4.075944900512695312e+00 1.337611079216003418e+00 -1.076440453529357910e+00
2.441000000000000000e+03 7.106256103515625000e+01 -2.650109863281250000e+01 -7.945201396942138672e-01 7.983900070190429688e+00 2.156814098358154297e+00 -1.855156570672988892e-01
2.442000000000000000e+03 6.973023986816406250e+01 2.220027744770050049e-01 -1.275114417076110840e+00 7.547755241394042969e+00 1.881792306900024414e+00 -1.419347286224365234e+00
2.443000000000000000e+03 7.268101501464843750e+01 9.003155231475830078e-01 -1.064453244209289551e+00 8.261364936828613281e+00 2.159073352813720703e+00 -3.628086149692535400e-01
2.444000000000000000e+03 5.422087097167968750e+01 2.643986225128173828e+00 3.052137494087219238e-01 6.658805608749389648e-01 2.913282811641693115e-01 5.493045970797538757e-02
2.445000000000000000e+03 5.618227386474609375e+01 -5.667609214782714844e+00 -1.623347401618957520e+00 3.052869625389575958e-02 -4.778456091880798340e-01 -3.247913122177124023e-01
2.446000000000000000e+03 7.124757385253906250e+01 -3.110755443572998047e+00 -1.659408688545227051e+00 1.002802944183349609e+01 2.510586261749267578e+00 -3.244045376777648926e-01
2.447000000000000000e+03 8.048209190368652344e+00 -2.006567955017089844e+01 -2.372099757194519043e-01 4.047194004058837891e+00 1.142995238304138184e+00 4.969552457332611084e-01
2.448000000000000000e+03 3.847932052612304688e+01 1.904338836669921875e+01 4.529996216297149658e-01 1.503697991371154785e+00 5.870093107223510742e-01 4.349464774131774902e-01
2.449000000000000000e+03 7.000562286376953125e+01 -2.270917510986328125e+01 -9.911746978759765625e-01 8.455060005187988281e+00 2.239165544509887695e+00 -1.612097769975662231e-01
2.450000000000000000e+03 1.101742458343505859e+01 -2.529369354248046875e+01 -4.191533625125885010e-01 2.338158607482910156e+00 5.757015347480773926e-01 -2.235445231199264526e-01
2.451000000000000000e+03 6.737475585937500000e+01 -2.054917573928833008e+00 -1.508596301078796387e+00 6.810276985168457031e+00 1.590504169464111328e+00 -2.777577877044677734e+00
2.452000000000000000e+03 6.645682525634765625e+01 -1.460920572280883789e+00 -1.006397485733032227e+00 5.414038181304931641e+00 1.322292089462280273e+00 -2.969382524490356445e+00
2.453000000000000000e+03 7.331551361083984375e+01 -7.129899978637695312e+00 9.243044257164001465e-01 1.000323677062988281e+01 3.278262376785278320e+00 1.354837298393249512e+00
2.454000000000000000e+03 7.168296051025390625e+01 6.238297462463378906e+00 -3.317960202693939209e-01 6.768270015716552734e+00 1.930942296981811523e+00 -8.175879120826721191e-01
2.455000000000000000e+03 5.946454620361328125e+01 7.436738967895507812e+00 4.041178822517395020e-01 2.654595375061035156e+00 9.176139831542968750e-01 -7.657326459884643555e-01
2.456000000000000000e+03 6.189305877685546875e+01 1.043316078186035156e+01 4.767597615718841553e-01 3.569413661956787109e+00 1.213852047920227051e+00 -9.956215620040893555e-01
2.457000000000000000e+03 9.167456626892089844e+00 2.828174209594726562e+01 3.647903446108102798e-03 -3.077167570590972900e-01 -9.122065454721450806e-02 1.073396801948547363e-01
2.458000000000000000e+03 8.766955375671386719e+00 2.677885818481445312e+01 1.618837704882025719e-04 -3.164577782154083252e-01 -9.488876909017562866e-02 1.102965325117111206e-01
2.459000000000000000e+03 7.800804615020751953e+00 1.436918735504150391e+01 1.630676388740539551e-01 -2.104497551918029785e-01 -1.421463675796985626e-02 2.282368987798690796e-01
2.460000000000000000e+03 9.954943656921386719e+00 1.396964454650878906e+01 2.443710565567016602e-01 -3.649456053972244263e-02 6.236295029520988464e-02 2.639058530330657959e-01
2.461000000000000000e+03 7.160909271240234375e+01 1.403171253204345703e+01 1.181066036224365234e-01 6.030599117279052734e+00 1.844611763954162598e+00 -7.328896522521972656e-01
2.462000000000000000e+03 7.110227966308593750e+01 1.132308483123779297e+01 4.738630726933479309e-02 6.075477600097656250e+00 1.836859226226806641e+00 -8.387616276741027832e-01
2.463000000000000000e+03 2.816464424133300781e+01 1.453850460052490234e+01 -2.218582928180694580e-01 1.005070090293884277e+00 2.349635213613510132e-01 5.383868217468261719e-01
2.464000000000000000e+03 1.644280242919921875e+01 -3.122736740112304688e+01 -2.328229248523712158e-01 1.174003601074218750e+00 2.823542058467864990e-01 -2.744764387607574463e-01
2.465000000000000000e+03 3.063127326965332031e+01 1.619880867004394531e+01 -2.856892999261617661e-03 1.067159533500671387e+00 3.192907869815826416e-01 5.276240110397338867e-01
2.466000000000000000e+03 2.942192840576171875e+01 1.584897804260253906e+01 -9.498347342014312744e-02 1.024888992309570312e+00 2.789716422557830811e-01 5.126696228981018066e-01
2.467000000000000000e+03 2.794472503662109375e+01 2.085272979736328125e+01 1.129712089896202087e-01 6.128992438316345215e-01 2.177611440420150757e-01 2.227634489536285400e-01
2.468000000000000000e+03 7.116802215576171875e+01 -2.059687042236328125e+01 -8.341957926750183105e-01 9.506353378295898438e+00 2.601647138595581055e+00 -7.542526721954345703e-01
2.469000000000000000e+03 1.369690227508544922e+01 -3.104730033874511719e+01 -3.752892017364501953e-01 1.368193268775939941e+00 2.978712320327758789e-01 -9.294690936803817749e-02
2.470000000000000000e+03 1.304435825347900391e+01 -2.680240821838378906e+01 -2.506175041198730469e-01 1.872518181800842285e+00 4.865702092647552490e-01 -3.682519495487213135e-01
2.471000000000000000e+03 5.518199157714843750e+01 -4.706106662750244141e+00 -1.264438867568969727e+00 1.332137435674667358e-01 -3.393675386905670166e-01 -1.745055168867111206e-01
2.472000000000000000e+03 6.050226593017578125e+01 -5.671149492263793945e-01 -9.314720332622528076e-02 1.119578003883361816e+00 3.079292476177215576e-01 -1.105530619621276855e+00
2.473000000000000000e+03 4.242396163940429688e+01 3.398889064788818359e+00 2.570632398128509521e-01 4.345719814300537109e-01 2.074905633926391602e-01 2.588533461093902588e-01
2.474000000000000000e+03 8.160954475402832031e+00 3.581975936889648438e+01 3.672943264245986938e-02 -4.556677937507629395e-01 -1.256815046072006226e-01 5.788749456405639648e-02
2.475000000000000000e+03 8.545081138610839844e+00 -3.475880432128906250e+01 -3.080783486366271973e-01 9.247220754623413086e-01 1.849931180477142334e-01 2.646092772483825684e-01
2.476000000000000000e+03 6.692948818206787109e+00 -3.587785339355468750e+01 -2.293510288000106812e-01 7.940840721130371094e-01 1.694199144840240479e-01 2.583009898662567139e-01
2.477000000000000000e+03 3.907153701782226562e+01 -1.048553562164306641e+01 -9.012077450752258301e-01 4.941521212458610535e-02 -2.555377781391143799e-01 -3.714406192302703857e-01
2.478000000000000000e+03 5.248131179809570312e+01 -6.900640010833740234e+00 -1.504648327827453613e+00 5.728113651275634766e-02 -4.342101514339447021e-01 -2.902284562587738037e-01
2.479000000000000000e+03 5.252926254272460938e+01 -5.431352615356445312e+00 -1.206315159797668457e+00 1.161600202322006226e-01 -3.270465731620788574e-01 -1.308736652135848999e-01
2.480000000000000000e+03 6.243848037719726562e+01 1.352116203308105469e+01 5.679950714111328125e-01 3.844311952590942383e+00 1.323692083358764648e+00 -8.569702506065368652e-01
2.481000000000000000e+03 6.308051300048828125e+01 1.696472930908203125e+01 5.209298729896545410e-01 4.068317413330078125e+00 1.376774191856384277e+00 -7.094317674636840820e-01
2.482000000000000000e+03 3.158732604980468750e+01 7.968392848968505859e+00 3.901158273220062256e-01 1.188375353813171387e+00 4.735473394393920898e-01 9.086850881576538086e-01
2.483000000000000000e+03 3.126719474792480469e+01 9.013374328613281250e+00 3.693720996379852295e-01 1.184038281440734863e+00 4.660230875015258789e-01 9.527957439422607422e-01
2.484000000000000000e+03 7.062496948242187500e+01 -3.035695838928222656e+01 -5.057356357574462891e-01 7.316866874694824219e+00 2.043339252471923828e+00 6.753122806549072266e-02
2.485000000000000000e+03 7.001818084716796875e+01 3.097166824340820312e+01 1.413002610206604004e-01 5.217569828033447266e+00 1.607661008834838867e+00 -2.929271161556243896e-01
2.486000000000000000e+03 9.362804412841796875e+00 2.236578941345214844e+01 1.897412165999412537e-02 -1.608829051256179810e-01 -4.257263615727424622e-02 1.224564462900161743e-01
2.487000000000000000e+03 4.751716232299804688e+01 2.523252487182617188e+01 7.598014473915100098e-01 1.391998648643493652e+00 6.455400586128234863e-01 2.057293057441711426e-01
2.488000000000000000e+03 5.442974090576171875e+01 1.045716524124145508e+00 7.604959607124328613e-02 5.302460193634033203e-01 1.818886846303939819e-01 1.794728264212608337e-02
2.489000000000000000e+03 7.238109588623046875e+01 -1.712507367134094238e+00 -1.355415225028991699e+00 9.199234962463378906e+00 2.353146076202392578e+00 -1.626758836209774017e-02
2.490000000000000000e+03 7.135423278808593750e+01 1.155931472778320312e+00 -1.069428682327270508e+00 7.782806873321533203e+00 2.014013528823852539e+00 -7.767753601074218750e-01
2.491000000000000000e+03 1.701365470886230469e+01 2.217279052734375000e+01 3.990190103650093079e-02 2.250767648220062256e-01 7.949359714984893799e-02 4.155625700950622559e-01
2.492000000000000000e+03 3.664034652709960938e+01 9.661779403686523438e+00 3.188092708587646484e-01 1.229307055473327637e+00 4.644348919391632080e-01 8.565281033515930176e-01
2.493000000000000000e+03 5.585702133178710938e+01 2.419919967651367188e+01 5.309934616088867188e-01 2.688558578491210938e+00 9.658656120300292969e-01 -6.032679080963134766e-01
2.494000000000000000e+03 5.450282287597656250e+01 2.571188926696777344e+01 6.298103332519531250e-01 2.384710073471069336e+00 9.043561220169067383e-01 -4.636125564575195312e-01
2.495000000000000000e+03 5.596733856201171875e+01 1.965408515930175781e+01 4.066040217876434326e-01 2.834100961685180664e+00 9.722114801406860352e-01 -6.344059705734252930e-01
2.496000000000000000e+03 5.914426040649414062e+01 2.426181602478027344e+01 4.162324070930480957e-01 3.420183658599853516e+00 1.150924801826477051e+00 -5.781235098838806152e-01
2.497000000000000000e+03 5.878497314453125000e+01 1.926576232910156250e+01 4.868715107440948486e-01 3.394639253616333008e+00 1.164453148841857910e+00 -5.855993032455444336e-01
2.498000000000000000e+03 2.297357368469238281e+01 -4.271829605102539062e+00 -3.816643953323364258e-01 3.235383510589599609e+00 8.561157584190368652e-01 8.381948471069335938e-01
2.499000000000000000e+03 2.448724937438964844e+01 -6.521274566650390625e+00 2.522673606872558594e+00 3.487231969833374023e+00 1.802971720695495605e+00 2.928452730178833008e+00
2.500000000000000000e+03 2.537867927551269531e+01 -7.009109020233154297e+00 3.456474304199218750e+00 2.128969907760620117e+00 1.675633311271667480e+00 2.504166364669799805e+00
2.501000000000000000e+03 2.289218330383300781e+01 -3.875827789306640625e+00 -4.387963712215423584e-01 2.946505069732666016e+00 7.523126006126403809e-01 7.268480658531188965e-01
2.502000000000000000e+03 2.287025642395019531e+01 -4.621857166290283203e+00 -3.603069186210632324e-01 3.527446746826171875e+00 9.501419067382812500e-01 8.313317298889160156e-01
2.503000000000000000e+03 1.758277702331542969e+01 -8.444592475891113281e+00 3.303249835968017578e+00 -2.417744159698486328e+00 2.656517028808593750e-01 1.180981874465942383e+00
2.504000000000000000e+03 2.361104011535644531e+01 -6.814374446868896484e+00 2.777852058410644531e+00 5.087537288665771484e+00 2.359616756439208984e+00 3.448188543319702148e+00
2.505000000000000000e+03 1.668833541870117188e+01 -8.120287895202636719e+00 2.649149179458618164e+00 -2.358153820037841797e+00 8.729856461286544800e-02 1.456955909729003906e+00
2.506000000000000000e+03 1.832459259033203125e+01 -8.809322357177734375e+00 4.198523998260498047e+00 -2.396341085433959961e+00 5.406548976898193359e-01 1.312445759773254395e+00
2.507000000000000000e+03 2.221591377258300781e+01 -2.183368444442749023e+00 -4.837573468685150146e-01 1.836964249610900879e+00 4.059620499610900879e-01 3.855135738849639893e-01
2.508000000000000000e+03 2.288574790954589844e+01 -1.630935072898864746e+00 -4.899037182331085205e-01 1.942552804946899414e+00 4.357947409152984619e-01 5.963556170463562012e-01
2.509000000000000000e+03 2.308313369750976562e+01 2.897165417671203613e-01 -4.544349610805511475e-01 1.566972494125366211e+00 3.337612748146057129e-01 6.801760196685791016e-01
2.510000000000000000e+03 1.934373092651367188e+01 -9.369462966918945312e+00 5.201747417449951172e+00 -1.614011645317077637e+00 1.076320648193359375e+00 2.194353103637695312e+00
2.511000000000000000e+03 1.881036758422851562e+01 -9.423152923583984375e+00 4.433129310607910156e+00 -2.128919363021850586e+00 6.912630200386047363e-01 2.118771314620971680e+00
2.512000000000000000e+03 2.181960105895996094e+01 -3.495787978172302246e-01 -4.147561192512512207e-01 1.210457205772399902e+00 2.387103438377380371e-01 4.070103764533996582e-01
2.513000000000000000e+03 2.191550254821777344e+01 -1.333860397338867188e+00 -4.551320672035217285e-01 1.455900788307189941e+00 3.002305924892425537e-01 3.454966843128204346e-01
2.514000000000000000e+03 2.643680000305175781e+01 -7.983748912811279297e+00 3.436478137969970703e+00 8.303553462028503418e-01 1.280050039291381836e+00 1.095931649208068848e+00
2.515000000000000000e+03 7.995874881744384766e+00 7.138738155364990234e+00 -7.819106429815292358e-02 -7.077186554670333862e-02 -4.468888044357299805e-02 3.376322090625762939e-01
2.516000000000000000e+03 2.362585830688476562e+01 -1.521216988563537598e+00 -4.625678956508636475e-01 2.119337320327758789e+00 4.970307946205139160e-01 8.155629634857177734e-01
2.517000000000000000e+03 2.885748100280761719e+01 -1.216031074523925781e+01 -5.820684432983398438e-01 3.177128136157989502e-01 -7.930668443441390991e-02 -1.040483951568603516e+00
2.518000000000000000e+03 2.316562652587890625e+01 -1.145147562026977539e+00 -4.821110069751739502e-01 1.915333747863769531e+00 4.299668371677398682e-01 6.677688956260681152e-01
2.519000000000000000e+03 2.653051185607910156e+01 -9.784680366516113281e+00 2.674178123474121094e+00 6.284487843513488770e-01 9.907881021499633789e-01 -4.729706048965454102e-01
2.520000000000000000e+03 9.542021751403808594e+00 6.622225761413574219e+00 -1.442382484674453735e-01 -8.290817029774188995e-03 -4.575872048735618591e-02 3.347041010856628418e-01
2.521000000000000000e+03 9.923698425292968750e+00 7.456011772155761719e+00 -9.463478624820709229e-02 5.176756996661424637e-03 -2.683740854263305664e-02 3.514223694801330566e-01
2.522000000000000000e+03 9.127291679382324219e+00 -6.923897743225097656e+00 -8.839567899703979492e-01 2.643313646316528320e+00 5.278070569038391113e-01 4.184083342552185059e-01
2.523000000000000000e+03 9.012681007385253906e+00 -6.152941226959228516e+00 -9.913790822029113770e-01 1.964115858078002930e+00 2.918210327625274658e-01 5.912655964493751526e-02
2.524000000000000000e+03 8.287297248840332031e+00 1.030139160156250000e+01 8.325404673814773560e-02 -1.125721186399459839e-01 -8.795420639216899872e-03 3.552891314029693604e-01
2.525000000000000000e+03 3.947655105590820312e+01 3.353505611419677734e+00 2.257087677717208862e-01 6.585238575935363770e-01 2.652697861194610596e-01 4.885958731174468994e-01
2.526000000000000000e+03 2.582382202148437500e+01 7.901985049247741699e-01 -3.394798934459686279e-01 1.945039153099060059e+00 4.816677570343017578e-01 1.008632183074951172e+00
2.527000000000000000e+03 2.514676475524902344e+01 8.191211223602294922e-01 -3.786710500717163086e-01 1.897393941879272461e+00 4.556168615818023682e-01 9.503120183944702148e-01
2.528000000000000000e+03 4.022806930541992188e+01 -1.146042728424072266e+01 -1.153039336204528809e+00 6.025903671979904175e-02 -3.278340995311737061e-01 -4.247539043426513672e-01
2.529000000000000000e+03 3.902169799804687500e+01 -9.454216003417968750e+00 -7.060104012489318848e-01 4.434089735150337219e-02 -1.985008418560028076e-01 -2.875027656555175781e-01
2.530000000000000000e+03 7.106723022460937500e+01 -2.283610552549362183e-01 -1.432017087936401367e+00 8.401282310485839844e+00 2.090779542922973633e+00 -8.834974169731140137e-01
2.531000000000000000e+03 7.168854522705078125e+01 3.755336284637451172e+00 -6.454547643661499023e-01 7.196864604949951172e+00 1.965422987937927246e+00 -7.746183872222900391e-01
2.532000000000000000e+03 1.085286712646484375e+01 7.145163059234619141e+00 -1.453838348388671875e-01 4.659502208232879639e-02 -2.963664196431636810e-02 3.259077966213226318e-01
2.533000000000000000e+03 3.076195716857910156e+01 1.486056995391845703e+01 2.852277830243110657e-02 1.138170361518859863e+00 3.500079512596130371e-01 6.662549972534179688e-01
2.534000000000000000e+03 5.202531433105468750e+01 1.137813553214073181e-01 -1.822769828140735626e-02 2.741086781024932861e-01 7.676429301500320435e-02 1.449982225894927979e-01
2.535000000000000000e+03 3.182257080078125000e+01 -1.072223091125488281e+01 -1.037327051162719727e-01 3.803401021286845207e-03 -2.997879125177860260e-02 -5.580434203147888184e-01
2.536000000000000000e+03 3.262918090820312500e+01 -1.180557823181152344e+01 -7.282567024230957031e-01 5.459789186716079712e-02 -2.020976394414901733e-01 -6.618643403053283691e-01
2.537000000000000000e+03 9.724767684936523438e+00 -7.613818645477294922e+00 -5.158734917640686035e-01 2.830651521682739258e+00 6.944333910942077637e-01 9.999310374259948730e-01
2.538000000000000000e+03 2.661822319030761719e+01 1.449043273925781250e+00 -2.551031112670898438e-01 1.894820570945739746e+00 4.919152557849884033e-01 9.893707633018493652e-01
2.539000000000000000e+03 1.239207363128662109e+01 -7.682246685028076172e+00 3.898959159851074219e-01 7.827169299125671387e-01 3.517838716506958008e-01 2.322596788406372070e+00
2.540000000000000000e+03 3.360479354858398438e+01 8.621533393859863281e+00 3.430762887001037598e-01 1.158846139907836914e+00 4.505767226219177246e-01 9.187890291213989258e-01
2.541000000000000000e+03 3.552895355224609375e+01 9.536363601684570312e+00 3.358529210090637207e-01 1.162756919860839844e+00 4.495829641819000244e-01 8.805952072143554688e-01
2.542000000000000000e+03 4.790551376342773438e+01 -8.026252746582031250e+00 -1.220400214195251465e+00 8.177733421325683594e-02 -3.415868580341339111e-01 -2.654568552970886230e-01
2.543000000000000000e+03 4.549855422973632812e+01 -8.888324737548828125e+00 -1.131069898605346680e+00 6.954034417867660522e-02 -3.184588551521301270e-01 -2.953287065029144287e-01
2.544000000000000000e+03 7.054469299316406250e+01 5.110014915466308594e+00 -4.641264081001281738e-01 6.564298629760742188e+00 1.830051779747009277e+00 -1.024544596672058105e+00
2.545000000000000000e+03 9.317481994628906250e+00 9.816948890686035156e+00 5.928442627191543579e-02 -3.126175701618194580e-02 8.406800217926502228e-03 3.674138784408569336e-01
2.546000000000000000e+03 3.029099464416503906e+01 5.090519905090332031e+00 2.920739650726318359e-01 1.363723635673522949e+00 4.967392981052398682e-01 8.100477457046508789e-01
2.547000000000000000e+03 4.747795104980468750e+01 -6.945088863372802734e+00 -1.019540190696716309e+00 9.732206165790557861e-02 -2.766654491424560547e-01 -1.621572971343994141e-01
2.548000000000000000e+03 5.003521728515625000e+01 -7.206723213195800781e+00 -1.306874632835388184e+00 7.671976834535598755e-02 -3.690464496612548828e-01 -2.444534748792648315e-01
2.549000000000000000e+03 2.878702926635742188e+01 3.458346128463745117e+00 6.442405283451080322e-02 1.627168774604797363e+00 5.074778199195861816e-01 8.488460779190063477e-01
2.550000000000000000e+03 3.359576416015625000e+01 -1.287954330444335938e+01 -1.244691252708435059e+00 1.033874899148941040e-01 -3.423911333084106445e-01 -6.541044116020202637e-01
2.551000000000000000e+03 2.927398300170898438e+01 -1.119044876098632812e+01 2.095648944377899170e-01 1.743206530809402466e-01 1.151656657457351685e-01 -8.388537168502807617e-01
2.552000000000000000e+03 7.075100421905517578e+00 8.654667854309082031e+00 2.204844029620289803e-03 -1.428232789039611816e-01 -4.218553006649017334e-02 3.381343781948089600e-01
2.553000000000000000e+03 7.995958328247070312e+00 8.830675125122070312e+00 8.795037865638732910e-03 -1.000502780079841614e-01 -2.737657353281974792e-02 3.523555099964141846e-01
2.554000000000000000e+03 2.699713706970214844e+01 -1.042644023895263672e+01 1.691035985946655273e+00 4.959515333175659180e-01 6.560962200164794922e-01 -7.939250469207763672e-01
2.555000000000000000e+03 2.676803970336914062e+01 -1.148840713500976562e+01 3.033212423324584961e-01 8.129909634590148926e-01 3.348936438560485840e-01 -1.247474908828735352e+00
2.556000000000000000e+03 6.837318420410156250e+01 -2.301411628723144531e+00 -1.624659299850463867e+00 7.858998298645019531e+00 1.870301723480224609e+00 -2.313781738281250000e+00
2.557000000000000000e+03 6.913492584228515625e+01 -2.698576354980468750e+01 -8.432915210723876953e-01 7.112047672271728516e+00 1.880626916885375977e+00 1.607251018285751343e-01
2.558000000000000000e+03 3.690358734130859375e+01 -1.173981094360351562e+01 -1.027899146080017090e+00 5.275841057300567627e-02 -2.925422191619873047e-01 -4.884710907936096191e-01
2.559000000000000000e+03 3.572362899780273438e+01 -1.090919494628906250e+01 -7.004920244216918945e-01 3.095249831676483154e-02 -2.008618563413619995e-01 -4.448892772197723389e-01
2.560000000000000000e+03 3.639146804809570312e+01 2.658579349517822266e+00 2.542556524276733398e-01 8.149704337120056152e-01 3.207678198814392090e-01 7.078977227210998535e-01
2.561000000000000000e+03 7.805080413818359375e+00 1.149411964416503906e+01 1.115364432334899902e-01 -1.690640002489089966e-01 -1.725826784968376160e-02 3.200315833091735840e-01
2.562000000000000000e+03 5.078809356689453125e+01 -6.625633716583251953e+00 -1.257573008537292480e+00 9.376018494367599487e-02 -3.491438329219818115e-01 -1.936608850955963135e-01
2.563000000000000000e+03 4.978868103027343750e+01 -6.271020412445068359e+00 -1.118057727813720703e+00 1.045667901635169983e-01 -3.040472865104675293e-01 -1.399526596069335938e-01
2.564000000000000000e+03 7.022826385498046875e+01 8.770317077636718750e+00 -8.387545496225357056e-02 5.967852592468261719e+00 1.765193104743957520e+00 -1.011552214622497559e+00
2.565000000000000000e+03 6.958521270751953125e+01 1.985997009277343750e+01 2.152665555477142334e-01 5.363419055938720703e+00 1.673605680465698242e+00 -5.891045928001403809e-01
2.566000000000000000e+03 7.076246643066406250e+01 1.602194023132324219e+01 1.852769553661346436e-01 5.754172801971435547e+00 1.781834840774536133e+00 -7.049024105072021484e-01
2.567000000000000000e+03 5.448226547241210938e+01 -3.691867589950561523e+00 -9.140357971191406250e-01 1.734023392200469971e-01 -2.221900522708892822e-01 -7.093842327594757080e-02
2.568000000000000000e+03 4.829153823852539062e+01 -5.424697399139404297e+00 -8.414787054061889648e-01 1.137669607996940613e-01 -2.183135151863098145e-01 -4.980536177754402161e-02
2.569000000000000000e+03 2.833316421508789062e+01 2.509448528289794922e+00 -3.096671961247920990e-02 1.712034583091735840e+00 5.043203830718994141e-01 9.255788922309875488e-01
2.570000000000000000e+03 4.418606948852539062e+01 -9.286607742309570312e+00 -1.080419540405273438e+00 6.482081115245819092e-02 -3.046796023845672607e-01 -3.104270696640014648e-01
2.571000000000000000e+03 5.866040420532226562e+01 3.485672712326049805e+00 3.028880357742309570e-01 1.612758040428161621e+00 5.746937990188598633e-01 -6.319397687911987305e-01
2.572000000000000000e+03 9.870389938354492188e+00 2.623381805419921875e+01 3.169392934069037437e-03 -2.127889543771743774e-01 -6.288586556911468506e-02 1.365481764078140259e-01
2.573000000000000000e+03 7.066340637207031250e+01 1.440966796875000000e+01 1.532573997974395752e-01 5.757182121276855469e+00 1.773131847381591797e+00 -7.855358719825744629e-01
2.574000000000000000e+03 7.117774200439453125e+01 1.300353240966796875e+01 1.075470447540283203e-01 6.023983478546142578e+00 1.839459180831909180e+00 -7.822144031524658203e-01
2.575000000000000000e+03 7.979004859924316406e+00 1.564181232452392578e+01 1.642920523881912231e-01 -2.022986859083175659e-01 -1.140198763459920883e-02 1.970174014568328857e-01
2.576000000000000000e+03 3.203105163574218750e+01 1.651735687255859375e+01 1.129152849316596985e-01 1.123803377151489258e+00 3.710155785083770752e-01 5.556648373603820801e-01
2.577000000000000000e+03 7.157508850097656250e+01 -2.225648689270019531e+01 -8.993170857429504395e-01 8.993782997131347656e+00 2.428339958190917969e+00 -6.884399056434631348e-01
2.578000000000000000e+03 4.434196853637695312e+01 2.142432451248168945e+00 2.580891847610473633e-01 2.388321906328201294e-01 1.490764170885086060e-01 2.157344073057174683e-01
2.579000000000000000e+03 7.262687683105468750e+00 2.054122924804687500e+01 4.385516047477722168e-02 -3.151010274887084961e-01 -8.137375861406326294e-02 9.307818859815597534e-02
2.580000000000000000e+03 8.910679817199707031e+00 1.599315166473388672e+01 1.786980032920837402e-01 -1.365416646003723145e-01 1.264689955860376358e-02 1.833237111568450928e-01
2.581000000000000000e+03 5.689416885375976562e+01 -2.147013098001480103e-01 -8.782393485307693481e-02 6.105046868324279785e-01 1.568042337894439697e-01 -2.918615043163299561e-01
2.582000000000000000e+03 3.524100112915039062e+01 1.683847999572753906e+01 3.554328083992004395e-01 1.265694379806518555e+00 4.863381683826446533e-01 5.721377134323120117e-01
2.583000000000000000e+03 4.757414627075195312e+01 5.619153380393981934e-01 1.151846721768379211e-01 1.423289030790328979e-01 7.725407183170318604e-02 2.125357836484909058e-01
2.584000000000000000e+03 3.501256561279296875e+01 1.364464950561523438e+01 3.450938761234283447e-01 1.233837604522705078e+00 4.736794531345367432e-01 7.818126082420349121e-01
2.585000000000000000e+03 5.803321838378906250e+01 1.807056617736816406e+01 4.872595667839050293e-01 3.406862258911132812e+00 1.168236613273620605e+00 -6.082039475440979004e-01
2.586000000000000000e+03 9.750831604003906250e+00 1.840355300903320312e+01 1.280982941389083862e-01 -6.205439567565917969e-02 1.981317065656185150e-02 1.403358727693557739e-01
2.587000000000000000e+03 7.157504558563232422e+00 7.917189598083496094e+00 -2.586719393730163574e-02 -1.233271360397338867e-01 -4.475829750299453735e-02 3.335098028182983398e-01
2.588000000000000000e+03 7.834981918334960938e+00 2.334675025939941406e+01 7.723019458353519440e-03 -3.105121254920959473e-01 -9.083673357963562012e-02 9.614721685647964478e-02
2.589000000000000000e+03 8.380885124206542969e+00 2.080422019958496094e+01 4.225255548954010010e-02 -2.200856804847717285e-01 -5.334993824362754822e-02 1.093440130352973938e-01
2.590000000000000000e+03 7.063185882568359375e+01 6.202310562133789062e+00 -3.654112219810485840e-01 6.460501194000244141e+00 1.828526973724365234e+00 -1.029133200645446777e+00
2.591000000000000000e+03 6.014349365234375000e+01 8.393295288085937500e+00 4.322094619274139404e-01 2.964092969894409180e+00 1.018890738487243652e+00 -8.540694117546081543e-01
2.592000000000000000e+03 9.015295028686523438e+00 -2.309948158264160156e+01 -5.655434131622314453e-01 2.893886327743530273e+00 6.985028982162475586e-01 1.299909651279449463e-01
2.593000000000000000e+03 3.240022659301757812e+01 9.307288169860839844e+00 3.397339284420013428e-01 1.185065388679504395e+00 4.574398100376129150e-01 9.286412596702575684e-01
2.594000000000000000e+03 3.224138259887695312e+01 1.033352279663085938e+01 3.138337135314941406e-01 1.157638669013977051e+00 4.414417147636413574e-01 9.452624917030334473e-01
2.595000000000000000e+03 7.729065418243408203e+00 -2.796077537536621094e+01 -4.865786135196685791e-01 1.283102750778198242e+00 2.389572411775588989e-01 5.733602643013000488e-01
2.596000000000000000e+03 6.358142852783203125e+01 -7.317966222763061523e-01 -8.025467395782470703e-02 2.481897115707397461e+00 7.204927206039428711e-01 -2.181409120559692383e+00
2.597000000000000000e+03 3.801577377319335938e+01 -1.163274574279785156e+01 -1.061094880104064941e+00 5.830102786421775818e-02 -3.008381426334381104e-01 -4.622144103050231934e-01
2.598000000000000000e+03 8.420439720153808594e+00 1.484720325469970703e+01 1.765816956758499146e-01 -1.776823699474334717e-01 -3.302010300103574991e-04 2.122031599283218384e-01
2.599000000000000000e+03 9.904234886169433594e+00 -3.120131683349609375e+01 -4.514193832874298096e-01 1.271246075630187988e+00 2.459480017423629761e-01 2.757599353790283203e-01
2.600000000000000000e+03 3.675741195678710938e+01 1.881679534912109375e+01 3.962364792823791504e-01 1.358962535858154297e+00 5.265597105026245117e-01 4.472553133964538574e-01
2.601000000000000000e+03 6.548396301269531250e+01 -7.279281020164489746e-01 -5.777142047882080078e-01 4.323450088500976562e+00 1.123720765113830566e+00 -2.613712549209594727e+00
2.602000000000000000e+03 9.560779571533203125e+00 3.007840728759765625e+01 1.134668011218309402e-02 -3.155599236488342285e-01 -9.126397222280502319e-02 1.066654250025749207e-01
2.603000000000000000e+03 5.545801162719726562e+01 -3.167665004730224609e+00 -8.413911461830139160e-01 2.161749154329299927e-01 -1.875648647546768188e-01 -1.300567686557769775e-01
2.604000000000000000e+03 7.150170135498046875e+01 2.093905258178710938e+01 1.508650034666061401e-01 5.697836399078369141e+00 1.754610419273376465e+00 -5.066877603530883789e-01
2.605000000000000000e+03 7.001963806152343750e+01 2.158021545410156250e+01 1.891993880271911621e-01 5.423883914947509766e+00 1.683925032615661621e+00 -5.291639566421508789e-01
2.606000000000000000e+03 3.450244903564453125e+01 9.553979873657226562e+00 3.271272480487823486e-01 1.179146647453308105e+00 4.518821835517883301e-01 9.090998768806457520e-01
2.607000000000000000e+03 3.153734588623046875e+01 1.967206192016601562e+01 1.595612615346908569e-01 1.007947802543640137e+00 3.502527177333831787e-01 3.598679304122924805e-01
2.608000000000000000e+03 6.974015045166015625e+01 2.595721435546875000e+01 1.636870056390762329e-01 5.274997234344482422e+00 1.631605267524719238e+00 -4.165318608283996582e-01
2.609000000000000000e+03 1.522797012329101562e+01 2.532497787475585938e+01 4.669367522001266479e-02 8.969197422266006470e-02 4.091569408774375916e-02 2.929367125034332275e-01
2.610000000000000000e+03 6.731632232666015625e+01 -2.654889297485351562e+01 -8.912441730499267578e-01 6.114757537841796875e+00 1.567054033279418945e+00 4.376201331615447998e-01
2.611000000000000000e+03 6.208436203002929688e+01 1.565325927734375000e+01 5.851856470108032227e-01 3.840831756591796875e+00 1.327805161476135254e+00 -7.338663935661315918e-01
2.612000000000000000e+03 6.160620117187500000e+01 1.791977310180664062e+01 5.069591403007507324e-01 3.849685668945312500e+00 1.306993484497070312e+00 -6.169313788414001465e-01
2.613000000000000000e+03 6.882789611816406250e+01 1.833735656738281250e+01 2.553618252277374268e-01 5.241315841674804688e+00 1.649003267288208008e+00 -6.645593047142028809e-01
2.614000000000000000e+03 6.992100524902343750e+01 1.719401359558105469e+01 2.188359797000885010e-01 5.497901439666748047e+00 1.715021252632141113e+00 -6.786455512046813965e-01
2.615000000000000000e+03 5.619856262207031250e+01 -4.032972812652587891e+00 -1.091399669647216797e+00 1.694821417331695557e-01 -2.765752673149108887e-01 -1.796731799840927124e-01
2.616000000000000000e+03 3.584992980957031250e+01 6.807131290435791016e+00 2.916412949562072754e-01 1.077793598175048828e+00 4.108304679393768311e-01 8.235331773757934570e-01
2.617000000000000000e+03 3.687294769287109375e+01 7.369565486907958984e+00 2.708227634429931641e-01 1.102426767349243164e+00 4.119748473167419434e-01 7.917059659957885742e-01
2.618000000000000000e+03 4.673155593872070312e+01 -8.462846755981445312e+00 -1.170711755752563477e+00 7.458139210939407349e-02 -3.288391232490539551e-01 -2.822875082492828369e-01
2.619000000000000000e+03 5.937005615234375000e+01 4.813448712229728699e-02 1.003517489880323410e-02 1.060131549835205078e+00 3.210500180721282959e-01 -7.551438212394714355e-01
2.620000000000000000e+03 5.625397491455078125e+01 9.379439353942871094e-01 5.611783638596534729e-02 7.214851379394531250e-01 2.332808822393417358e-01 -2.018007487058639526e-01
2.621000000000000000e+03 6.583389282226562500e+01 -3.094169235229492188e+01 -4.267366826534271240e-01 4.975766658782958984e+00 1.364709019660949707e+00 5.187182426452636719e-01
2.622000000000000000e+03 7.004128265380859375e+01 1.058122920989990234e+01 3.899471461772918701e-02 5.824174404144287109e+00 1.758950710296630859e+00 -9.526123404502868652e-01
2.623000000000000000e+03 1.165707588195800781e+01 -3.393032455444335938e+01 -3.983367681503295898e-01 1.142516493797302246e+00 2.232539057731628418e-01 1.201435476541519165e-01
2.624000000000000000e+03 6.338618469238281250e+01 1.467790985107421875e+01 5.340661406517028809e-01 4.069294929504394531e+00 1.381008386611938477e+00 -8.284337520599365234e-01
2.625000000000000000e+03 6.882958221435546875e+01 2.903204536437988281e+01 1.672526895999908447e-01 5.072831153869628906e+00 1.572025060653686523e+00 -3.587300479412078857e-01
2.626000000000000000e+03 3.533281326293945312e+01 5.925310611724853516e+00 2.902316451072692871e-01 1.048240661621093750e+00 4.015417098999023438e-01 8.265084624290466309e-01
2.627000000000000000e+03 3.930735397338867188e+01 5.688118457794189453e+00 2.006317228078842163e-01 8.951200246810913086e-01 3.287255167961120605e-01 5.144026875495910645e-01
2.628000000000000000e+03 3.199246215820312500e+01 6.936805725097656250e+00 3.737774193286895752e-01 1.195535302162170410e+00 4.707938134670257568e-01 8.944734334945678711e-01
2.629000000000000000e+03 3.389770507812500000e+01 -1.096913433074951172e+01 -5.406835079193115234e-01 1.325556542724370956e-02 -1.582283824682235718e-01 -5.133465528488159180e-01
2.630000000000000000e+03 4.631277847290039062e+01 -7.361967563629150391e+00 -9.869645237922668457e-01 9.166182577610015869e-02 -2.685908079147338867e-01 -1.834200024604797363e-01
2.631000000000000000e+03 4.086834716796875000e+01 2.183155298233032227e+00 2.149542123079299927e-01 4.741150140762329102e-01 2.067207694053649902e-01 3.744390010833740234e-01
2.632000000000000000e+03 1.273338222503662109e+01 -2.781758880615234375e+01 -3.303438127040863037e-01 1.722038269042968750e+00 4.175083339214324951e-01 -2.055438607931137085e-01
2.633000000000000000e+03 1.148552322387695312e+01 -2.749852752685546875e+01 -4.368052184581756592e-01 1.862861633300781250e+00 4.278168976306915283e-01 -8.326753228902816772e-02
2.634000000000000000e+03 1.436544513702392578e+01 -3.485496902465820312e+01 -3.592689931392669678e-01 1.105995059013366699e+00 2.240178287029266357e-01 -3.553511202335357666e-02
2.635000000000000000e+03 4.949162292480468750e+01 -1.356159925460815430e+00 -2.299728542566299438e-01 1.578061431646347046e-01 -2.165001630783081055e-02 1.609465777873992920e-01
2.636000000000000000e+03 1.516006946563720703e+01 -3.260430526733398438e+01 -3.301202952861785889e-01 1.163483142852783203e+00 2.500088214874267578e-01 -1.234416291117668152e-01
2.637000000000000000e+03 1.048965263366699219e+01 2.403359603881835938e+01 9.513166733086109161e-04 -1.283614635467529297e-01 -3.822304308414459229e-02 1.545763611793518066e-01
2.638000000000000000e+03 1.178667640686035156e+01 2.422682380676269531e+01 1.017575338482856750e-02 -3.630413487553596497e-02 -7.838514633476734161e-03 1.970402300357818604e-01
2.639000000000000000e+03 1.217678833007812500e+01 1.988284492492675781e+01 5.545033141970634460e-02 1.415452063083648682e-01 5.909866467118263245e-02 1.866614222526550293e-01
2.640000000000000000e+03 9.674434661865234375e+00 1.966848182678222656e+01 7.796224206686019897e-02 -9.006889909505844116e-02 -3.631998552009463310e-03 1.324534118175506592e-01
2.641000000000000000e+03 7.059729766845703125e+01 2.327356529235839844e+01 1.594598591327667236e-01 5.479341030120849609e+00 1.691640257835388184e+00 -4.664853215217590332e-01
2.642000000000000000e+03 4.822420120239257812e+01 2.750030517578125000e+01 7.503633499145507812e-01 1.633978009223937988e+00 7.153024077415466309e-01 9.172743558883666992e-02
2.643000000000000000e+03 4.016872406005859375e+01 2.659811592102050781e+01 4.178612232208251953e-01 1.427135467529296875e+00 5.534989833831787109e-01 3.428508639335632324e-01
2.644000000000000000e+03 4.292139053344726562e+01 2.658290100097656250e+01 5.158877372741699219e-01 1.460486769676208496e+00 5.929123759269714355e-01 3.669946789741516113e-01
2.645000000000000000e+03 7.114237976074218750e+01 -3.649737167358398438e+01 -1.060732305049896240e-01 7.069482803344726562e+00 2.089022874832153320e+00 9.709890186786651611e-02
2.646000000000000000e+03 7.105680084228515625e+01 -3.866528701782226562e+01 5.945720896124839783e-02 7.145907878875732422e+00 2.161609649658203125e+00 4.372368752956390381e-02
2.647000000000000000e+03 2.239380836486816406e+01 2.165126037597656250e+01 1.775927841663360596e-01 9.698271751403808594e-02 8.237265050411224365e-02 3.464766740798950195e-01
2.648000000000000000e+03 1.034715080261230469e+01 -3.647561645507812500e+01 -3.264629244804382324e-01 9.913318157196044922e-01 1.994606554508209229e-01 1.347205638885498047e-01
2.649000000000000000e+03 6.993004608154296875e+01 3.467566299438476562e+01 1.495628058910369873e-01 5.128547668457031250e+00 1.583433151245117188e+00 -2.108097821474075317e-01
2.650000000000000000e+03 8.115621566772460938e+00 -2.943130683898925781e+01 -4.883663952350616455e-01 1.246537208557128906e+00 2.274512648582458496e-01 4.969586431980133057e-01
2.651000000000000000e+03 8.597755432128906250e+00 3.833569717407226562e+01 4.118125885725021362e-02 -4.606496095657348633e-01 -1.258404999971389771e-01 3.751306235790252686e-02
2.652000000000000000e+03 2.497809600830078125e+01 2.060022163391113281e+01 1.213208884000778198e-01 2.554748058319091797e-01 1.130387037992477417e-01 2.187727242708206177e-01
2.653000000000000000e+03 2.026255798339843750e+01 2.142944908142089844e+01 1.383166462182998657e-01 8.444363623857498169e-02 6.682808697223663330e-02 4.556680619716644287e-01
2.654000000000000000e+03 1.433397769927978516e+01 2.149525833129882812e+01 9.802977554500102997e-03 2.019578516483306885e-01 6.352824717760086060e-02 2.969216108322143555e-01
2.655000000000000000e+03 5.804453277587890625e+01 2.094699478149414062e+01 4.276295304298400879e-01 3.195975542068481445e+00 1.087081551551818848e+00 -6.283792257308959961e-01
2.656000000000000000e+03 2.324824714660644531e+01 -1.991301059722900391e+00 -4.715272188186645508e-01 2.188693761825561523e+00 5.151500105857849121e-01 7.323737144470214844e-01
2.657000000000000000e+03 2.355830955505371094e+01 -5.920299530029296875e+00 8.056942820549011230e-01 4.693743228912353516e+00 1.649831175804138184e+00 2.271772146224975586e+00
2.658000000000000000e+03 1.785448265075683594e+01 -8.998494148254394531e+00 3.563583850860595703e+00 -2.540294647216796875e+00 3.069867193698883057e-01 1.587096333503723145e+00
2.659000000000000000e+03 2.413249015808105469e+01 -4.796912193298339844e+00 2.952898740768432617e-01 3.519147396087646484e+00 1.144331216812133789e+00 1.842048287391662598e+00
2.660000000000000000e+03 2.400405120849609375e+01 -5.625855445861816406e+00 9.001582860946655273e-01 4.015920162200927734e+00 1.474823594093322754e+00 2.307559013366699219e+00
2.661000000000000000e+03 2.408456802368164062e+01 -6.542900562286376953e+00 2.471434831619262695e+00 4.071399688720703125e+00 1.962850451469421387e+00 3.059383869171142578e+00
2.662000000000000000e+03 2.514283370971679688e+01 8.753314614295959473e-02 -3.910905122756958008e-01 1.996355175971984863e+00 4.815793931484222412e-01 1.005888581275939941e+00
2.663000000000000000e+03 2.769206237792968750e+01 -9.117683410644531250e+00 2.254240512847900391e+00 3.210608065128326416e-01 7.725903987884521484e-01 4.204162396490573883e-03
2.664000000000000000e+03 2.350769805908203125e+01 -2.462438344955444336e+00 -4.495457708835601807e-01 2.409409284591674805e+00 5.879589915275573730e-01 8.491183519363403320e-01
2.665000000000000000e+03 2.648710250854492188e+01 -6.904696464538574219e+00 2.810889244079589844e+00 1.295011401176452637e+00 1.231770157814025879e+00 1.822767496109008789e+00
2.666000000000000000e+03 2.334786987304687500e+01 -4.328289508819580078e+00 -2.769986987113952637e-01 3.346011877059936523e+00 9.207039475440979004e-01 1.126376271247863770e+00
2.667000000000000000e+03 2.372049331665039062e+01 -4.377122879028320312e+00 -1.117334738373756409e-01 3.384652614593505859e+00 9.818757176399230957e-01 1.382809519767761230e+00
2.668000000000000000e+03 3.078527832031250000e+01 -1.055665588378906250e+01 2.402747571468353271e-01 1.371672749519348145e-02 7.619744539260864258e-02 -5.689586997032165527e-01
2.669000000000000000e+03 2.385395622253417969e+01 7.930144667625427246e-01 -4.470013380050659180e-01 1.712958931922912598e+00 3.797872960567474365e-01 8.132410645484924316e-01
2.670000000000000000e+03 2.324039840698242188e+01 8.727985024452209473e-01 -4.478196799755096436e-01 1.520770192146301270e+00 3.218851387500762939e-01 7.069841623306274414e-01
2.671000000000000000e+03 2.674225234985351562e+01 2.258861780166625977e+00 -2.028256952762603760e-01 1.844172835350036621e+00 4.924041330814361572e-01 9.030523896217346191e-01
2.672000000000000000e+03 8.976954460144042969e+00 7.798702239990234375e+00 -6.076721474528312683e-02 -3.617647662758827209e-02 -2.908310666680335999e-02 3.547745645046234131e-01
2.673000000000000000e+03 7.584042072296142578e+00 9.694521903991699219e+00 4.466196522116661072e-02 -1.350086033344268799e-01 -2.710399217903614044e-02 3.454948067665100098e-01
2.674000000000000000e+03 3.041144371032714844e+01 -1.148058795928955078e+01 -2.826895117759704590e-01 9.744098037481307983e-02 -5.557455867528915405e-02 -7.981922030448913574e-01
2.675000000000000000e+03 2.893160438537597656e+01 -9.960908889770507812e+00 1.136995553970336914e+00 1.097844094038009644e-01 3.740339577198028564e-01 -4.254829287528991699e-01
2.676000000000000000e+03 2.377159690856933594e+01 9.450164437294006348e-02 -4.605921208858489990e-01 1.810506701469421387e+00 4.049743711948394775e-01 8.021708726882934570e-01
2.677000000000000000e+03 2.518063545227050781e+01 -5.804214477539062500e-01 -3.442406356334686279e-01 2.063621997833251953e+00 5.158144235610961914e-01 1.082890033721923828e+00
2.678000000000000000e+03 2.833647155761718750e+01 -1.067041873931884766e+01 8.743392229080200195e-01 2.589847147464752197e-01 3.399971723556518555e-01 -7.701835632324218750e-01
2.679000000000000000e+03 7.201234817504882812e+00 6.433971405029296875e+00 -9.343870729207992554e-02 -9.010336548089981079e-02 -5.506262183189392090e-02 3.142003715038299561e-01
2.680000000000000000e+03 6.318858146667480469e+00 7.196505069732666016e+00 -5.010802671313285828e-02 -1.374809890985488892e-01 -5.627670511603355408e-02 3.029382526874542236e-01
2.681000000000000000e+03 6.927558898925781250e+01 5.308175086975097656e+00 -4.367994964122772217e-01 6.153985023498535156e+00 1.715155601501464844e+00 -1.264021992683410645e+00
2.682000000000000000e+03 3.833880615234375000e+01 4.469637393951416016e+00 2.303088903427124023e-01 8.332432508468627930e-01 3.190656602382659912e-01 5.940341949462890625e-01
2.683000000000000000e+03 2.751819992065429688e+01 1.987168788909912109e+00 -1.347210258245468140e-01 1.821775436401367188e+00 5.061163306236267090e-01 9.508409500122070312e-01
2.684000000000000000e+03 2.978888320922851562e+01 -1.031339645385742188e+01 6.678409576416015625e-01 6.163368374109268188e-02 2.188423871994018555e-01 -5.207035541534423828e-01
2.685000000000000000e+03 3.115948677062988281e+01 -9.658831596374511719e+00 5.323247909545898438e-01 -1.276524364948272705e-02 1.558678597211837769e-01 -2.930002808570861816e-01
2.686000000000000000e+03 2.696917152404785156e+01 -8.338727951049804688e+00 3.009474754333496094e+00 5.764147639274597168e-01 1.075766921043395996e+00 6.654993891716003418e-01
2.687000000000000000e+03 7.113398551940917969e+00 -7.679436683654785156e+00 -7.095287442207336426e-01 2.565262556076049805e+00 5.567201375961303711e-01 -1.268947958946228027e+00
2.688000000000000000e+03 4.708950424194335938e+01 -5.852925777435302734e+00 -8.214426040649414062e-01 1.069817021489143372e-01 -2.143382728099822998e-01 -7.258573174476623535e-02
2.689000000000000000e+03 4.020726394653320312e+01 -1.041482257843017578e+01 -9.628348946571350098e-01 5.290864035487174988e-02 -2.729778587818145752e-01 -3.603182435035705566e-01
2.690000000000000000e+03 3.891499328613281250e+01 -8.404274940490722656e+00 -5.284627676010131836e-01 4.836640879511833191e-02 -1.440289020538330078e-01 -1.966864764690399170e-01
2.691000000000000000e+03 7.025321960449218750e+01 1.233887863159179688e+01 1.221124902367591858e-01 5.757568836212158203e+00 1.763904452323913574e+00 -8.590180873870849609e-01
2.692000000000000000e+03 6.912543487548828125e+01 1.168162345886230469e+01 1.431522667407989502e-01 5.521702766418457031e+00 1.699456572532653809e+00 -9.473894238471984863e-01
2.693000000000000000e+03 7.513491153717041016e+00 1.089147663116455078e+01 8.382160961627960205e-02 -1.696681678295135498e-01 -2.575396746397018433e-02 3.255945742130279541e-01
2.694000000000000000e+03 3.140346908569335938e+01 5.454729557037353516e+00 3.420705199241638184e-01 1.256631612777709961e+00 4.796106219291687012e-01 8.509063720703125000e-01
2.695000000000000000e+03 4.512090301513671875e+01 -7.741983890533447266e+00 -9.399956464767456055e-01 8.134200423955917358e-02 -2.575960755348205566e-01 -2.025738954544067383e-01
2.696000000000000000e+03 4.390188598632812500e+01 -8.036468505859375000e+00 -8.817566633224487305e-01 8.141647279262542725e-02 -2.401020526885986328e-01 -2.080833762884140015e-01
2.697000000000000000e+03 1.017306041717529297e+01 -2.652924346923828125e+01 -5.026240944862365723e-01 1.947406888008117676e+00 4.334348142147064209e-01 1.188828125596046448e-01
2.698000000000000000e+03 4.332904052734375000e+01 2.111856460571289062e+00 2.415052801370620728e-01 2.942048609256744385e-01 1.607130467891693115e-01 2.529349923133850098e-01
2.699000000000000000e+03 3.454625701904296875e+01 1.205572986602783203e+01 3.246831893920898438e-01 1.217262029647827148e+00 4.625835716724395752e-01 8.505393266677856445e-01
2.700000000000000000e+03 3.403340530395507812e+01 7.892367839813232422e+00 3.417194485664367676e-01 1.134832501411437988e+00 4.429655969142913818e-01 9.085452556610107422e-01
2.701000000000000000e+03 3.546734237670898438e+01 1.047604846954345703e+01 3.385346829891204834e-01 1.220977187156677246e+00 4.678535759449005127e-01 8.843007087707519531e-01
2.702000000000000000e+03 5.989625549316406250e+01 2.001159191131591797e+00 2.159225344657897949e-01 1.669210314750671387e+00 5.655398368835449219e-01 -9.346348643302917480e-01
2.703000000000000000e+03 5.134934234619140625e+01 -9.201172590255737305e-01 -1.928691715002059937e-01 2.116456627845764160e-01 5.632946733385324478e-03 1.486512571573257446e-01
2.704000000000000000e+03 5.363958740234375000e+01 2.787508666515350342e-01 -1.587936282157897949e-02 3.882479667663574219e-01 1.117105782032012939e-01 6.177936866879463196e-02
2.705000000000000000e+03 3.316141891479492188e+01 1.258012676239013672e+01 2.517548501491546631e-01 1.207671403884887695e+00 4.378278851509094238e-01 8.530265688896179199e-01
2.706000000000000000e+03 6.959914398193359375e+01 -1.993549942970275879e+00 -1.770501136779785156e+00 8.706110954284667969e+00 2.080682754516601562e+00 -1.679492354393005371e+00
2.707000000000000000e+03 7.152369689941406250e+01 8.116668701171875000e+00 -1.809416860342025757e-01 6.512237071990966797e+00 1.899388670921325684e+00 -8.652698397636413574e-01
2.708000000000000000e+03 6.718598937988281250e+01 -5.957013964653015137e-01 -1.084653615951538086e+00 6.119991302490234375e+00 1.510601282119750977e+00 -2.368645191192626953e+00
2.709000000000000000e+03 6.626520538330078125e+01 7.606291025876998901e-02 -7.594751119613647461e-01 5.100599765777587891e+00 1.302337408065795898e+00 -2.438642978668212891e+00
2.710000000000000000e+03 6.809078216552734375e+01 2.052165222167968750e+01 2.555839419364929199e-01 5.039846897125244141e+00 1.588629245758056641e+00 -5.987602472305297852e-01
2.711000000000000000e+03 3.309818267822265625e+01 7.343789100646972656e+00 3.536862432956695557e-01 1.144210338592529297e+00 4.493689835071563721e-01 9.064622521400451660e-01
2.712000000000000000e+03 3.266250991821289062e+01 8.309492111206054688e+00 3.615756332874298096e-01 1.160775780677795410e+00 4.567054212093353271e-01 9.341629147529602051e-01
2.713000000000000000e+03 5.029442214965820312e+01 -1.739421933889389038e-01 -3.984262049198150635e-02 1.928264647722244263e-01 4.589515551924705505e-02 1.796386241912841797e-01
2.714000000000000000e+03 4.959945297241210938e+01 -5.104697227478027344e+00 -9.126142859458923340e-01 1.265378743410110474e-01 -2.358229309320449829e-01 -4.530991986393928528e-02
2.715000000000000000e+03 5.933014678955078125e+01 4.390820980072021484e+00 3.329576551914215088e-01 2.032696485519409180e+00 7.096962332725524902e-01 -7.793185114860534668e-01
2.716000000000000000e+03 5.812037658691406250e+01 2.436786651611328125e+00 2.429680675268173218e-01 1.322993040084838867e+00 4.697883427143096924e-01 -5.434815287590026855e-01
2.717000000000000000e+03 3.484249877929687500e+01 -1.106860446929931641e+01 -6.671768426895141602e-01 1.616011373698711395e-02 -1.953050196170806885e-01 -4.992776811122894287e-01
2.718000000000000000e+03 3.793669128417968750e+01 -1.057954025268554688e+01 -8.206303715705871582e-01 4.403546452522277832e-02 -2.329784631729125977e-01 -3.832100033760070801e-01
2.719000000000000000e+03 6.977246093750000000e+01 1.514186000823974609e+01 2.133164554834365845e-01 5.522967815399169922e+00 1.720885276794433594e+00 -7.620623111724853516e-01
2.720000000000000000e+03 6.972892761230468750e+01 7.654060363769531250e+00 -1.628274917602539062e-01 5.992551803588867188e+00 1.748917341232299805e+00 -1.075777173042297363e+00
2.721000000000000000e+03 3.214395141601562500e+01 1.373413085937500000e+01 1.770903766155242920e-01 1.190226078033447266e+00 4.101949334144592285e-01 7.870880961418151855e-01
2.722000000000000000e+03 3.079527091979980469e+01 1.234633064270019531e+01 1.370639353990554810e-01 1.211905717849731445e+00 4.046908915042877197e-01 8.678753972053527832e-01
2.723000000000000000e+03 3.478761672973632812e+01 -1.195201015472412109e+01 -9.407126903533935547e-01 5.307836830615997314e-02 -2.662903070449829102e-01 -5.608646273612976074e-01
2.724000000000000000e+03 4.215030288696289062e+01 2.184362888336181641e+00 2.208672910928726196e-01 3.890679180622100830e-01 1.829805672168731689e-01 2.978538274765014648e-01
2.725000000000000000e+03 8.150114059448242188e+00 2.205428886413574219e+01 2.783404290676116943e-02 -2.510944604873657227e-01 -6.697812676429748535e-02 1.053833216428756714e-01
2.726000000000000000e+03 9.553511619567871094e+00 2.098696136474609375e+01 4.606175795197486877e-02 -1.189132407307624817e-01 -2.185544371604919434e-02 1.264333575963973999e-01
2.727000000000000000e+03 8.176675796508789062e+00 -2.612750434875488281e+01 -5.818840861320495605e-01 1.751530170440673828e+00 3.508938252925872803e-01 5.590779781341552734e-01
2.728000000000000000e+03 6.604374694824218750e+01 1.076092433929443359e+01 2.557296156883239746e-01 4.665014266967773438e+00 1.476223230361938477e+00 -1.102823495864868164e+00
2.729000000000000000e+03 6.276742935180664062e+01 1.150257301330566406e+01 4.878183007240295410e-01 3.841829538345336914e+00 1.298894286155700684e+00 -9.673115015029907227e-01
2.730000000000000000e+03 2.119842147827148438e+01 2.543235588073730469e+01 1.962637901306152344e-01 2.065674066543579102e-01 1.208493635058403015e-01 3.191919624805450439e-01
2.731000000000000000e+03 5.439202117919921875e+01 -4.789102077484130859e-01 -1.692888438701629639e-01 3.823308348655700684e-01 6.391260027885437012e-02 1.035071443766355515e-02
2.732000000000000000e+03 5.749713897705078125e+01 -1.066514492034912109e+00 -3.205593526363372803e-01 5.536560416221618652e-01 6.992901116609573364e-02 -3.491739928722381592e-01
2.733000000000000000e+03 7.100312805175781250e+01 7.127784252166748047e+00 -2.444043159484863281e-01 6.436279296875000000e+00 1.857562541961669922e+00 -9.437046647071838379e-01
2.734000000000000000e+03 6.909712219238281250e+01 9.682071685791015625e+00 2.454309351742267609e-02 5.620342254638671875e+00 1.693465590476989746e+00 -1.033496975898742676e+00
2.735000000000000000e+03 1.061910438537597656e+01 2.255125045776367188e+01 1.795571669936180115e-02 -7.691819220781326294e-02 -1.768874377012252808e-02 1.581977903842926025e-01
2.736000000000000000e+03 1.196167182922363281e+01 3.147654533386230469e+01 4.339906573295593262e-02 -1.947777271270751953e-01 -4.541359841823577881e-02 1.341120600700378418e-01
2.737000000000000000e+03 1.060538768768310547e+01 2.775540924072265625e+01 1.392867136746644974e-02 -2.075334638357162476e-01 -5.808143690228462219e-02 1.402411460876464844e-01
2.738000000000000000e+03 4.018413162231445312e+01 -9.363099098205566406e+00 -7.922303080558776855e-01 5.645740032196044922e-02 -2.207318693399429321e-01 -2.863409817218780518e-01
2.739000000000000000e+03 5.090632247924804688e+01 -4.825787544250488281e+00 -9.387670159339904785e-01 1.235793381929397583e-01 -2.445563077926635742e-01 -4.370676353573799133e-02
2.740000000000000000e+03 5.196487426757812500e+01 -3.577827692031860352e+00 -7.545157670974731445e-01 1.582115143537521362e-01 -1.788912862539291382e-01 1.753471046686172485e-02
2.741000000000000000e+03 3.218374633789062500e+01 1.508459758758544922e+01 1.481419354677200317e-01 1.149367332458496094e+00 3.892527818679809570e-01 6.712568402290344238e-01
2.742000000000000000e+03 1.877031135559082031e+01 2.503613471984863281e+01 1.240140125155448914e-01 1.563156545162200928e-01 8.409890532493591309e-02 3.589973449707031250e-01
2.743000000000000000e+03 1.789351081848144531e+01 2.351261329650878906e+01 8.988305926322937012e-02 1.752384305000305176e-01 7.953644543886184692e-02 3.996177613735198975e-01
2.744000000000000000e+03 1.188428878784179688e+01 2.268474006652832031e+01 9.513532742857933044e-03 2.093039080500602722e-02 9.133176878094673157e-03 2.025190740823745728e-01
2.745000000000000000e+03 6.103156661987304688e+01 6.120471477508544922e+00 3.358933627605438232e-01 2.860353946685791016e+00 9.588741660118103027e-01 -1.051015257835388184e+00
2.746000000000000000e+03 6.210538101196289062e+01 6.261185169219970703e+00 2.782945632934570312e-01 3.198777437210083008e+00 1.043121576309204102e+00 -1.165770530700683594e+00
2.747000000000000000e+03 3.026727294921875000e+01 1.763439750671386719e+01 7.286542095243930817e-03 9.627385735511779785e-01 2.910075485706329346e-01 3.993517458438873291e-01
2.748000000000000000e+03 3.822014999389648438e+01 3.274814605712890625e+00 2.345876991748809814e-01 7.408736944198608398e-01 2.926384210586547852e-01 5.908433794975280762e-01
2.749000000000000000e+03 3.246607971191406250e+01 5.897191047668457031e+00 3.402364850044250488e-01 1.176708340644836426e+00 4.550834298133850098e-01 8.800037503242492676e-01
2.750000000000000000e+03 3.719038772583007812e+01 6.356725215911865234e+00 2.438277155160903931e-01 1.021167516708374023e+00 3.794985711574554443e-01 7.211483120918273926e-01
2.751000000000000000e+03 1.461996364593505859e+01 2.387756347656250000e+01 2.559224516153335571e-02 1.152040958404541016e-01 4.223890230059623718e-02 2.920541167259216309e-01
2.752000000000000000e+03 1.208787631988525391e+01 2.691184425354003906e+01 1.989686861634254456e-02 -1.001990586519241333e-01 -2.409065514802932739e-02 1.889154314994812012e-01
2.753000000000000000e+03 6.787358856201171875e+01 -2.815712356567382812e+01 -7.217953205108642578e-01 6.282227993011474609e+00 1.668129801750183105e+00 3.778395354747772217e-01
2.754000000000000000e+03 4.845870971679687500e+01 -3.356653749942779541e-01 -2.630887925624847412e-02 1.449999809265136719e-01 3.560733050107955933e-02 1.870265305042266846e-01
2.755000000000000000e+03 4.667226791381835938e+01 -2.723577916622161865e-01 9.685811586678028107e-03 1.468845009803771973e-01 4.697109386324882507e-02 1.926075518131256104e-01
2.756000000000000000e+03 3.449861145019531250e+01 2.518831062316894531e+01 3.076364398002624512e-01 1.127116084098815918e+00 4.304257631301879883e-01 2.667286396026611328e-01
2.757000000000000000e+03 2.688816261291503906e+01 2.027695083618164062e+01 6.070180237293243408e-02 4.937880039215087891e-01 1.663469374179840088e-01 2.024360895156860352e-01
2.758000000000000000e+03 6.354589462280273438e+01 1.943425941467285156e+01 4.150831401348114014e-01 4.200036525726318359e+00 1.384535908699035645e+00 -6.534290313720703125e-01
2.759000000000000000e+03 6.561309051513671875e+01 1.921145057678222656e+01 3.688058555126190186e-01 4.563493251800537109e+00 1.479689717292785645e+00 -6.589756011962890625e-01
2.760000000000000000e+03 6.748758697509765625e+01 -3.389035415649414062e+01 -1.743418723344802856e-01 5.618705749511718750e+00 1.633309245109558105e+00 3.285379409790039062e-01
2.761000000000000000e+03 6.994274902343750000e+01 -3.214653015136718750e+01 -3.174346983432769775e-01 6.916484832763671875e+00 1.979714989662170410e+00 1.714083403348922729e-01
2.762000000000000000e+03 3.498943710327148438e+01 1.539484786987304688e+01 3.593219816684722900e-01 1.237715601921081543e+00 4.791112840175628662e-01 6.594691872596740723e-01
2.763000000000000000e+03 3.413584136962890625e+01 1.442498016357421875e+01 2.998558878898620605e-01 1.212092518806457520e+00 4.535845518112182617e-01 7.547505497932434082e-01
2.764000000000000000e+03 4.264810562133789062e+01 -8.185355186462402344e+00 -8.071537017822265625e-01 7.637243717908859253e-02 -2.192343920469284058e-01 -2.057107836008071899e-01
2.765000000000000000e+03 4.137724685668945312e+01 -1.041415500640869141e+01 -1.039848566055297852e+00 6.209812313318252563e-02 -2.933251261711120605e-01 -3.598070442676544189e-01
2.766000000000000000e+03 3.622557067871093750e+01 5.943164348602294922e+00 2.712149024009704590e-01 1.026734709739685059e+00 3.893848955631256104e-01 7.860067486763000488e-01
2.767000000000000000e+03 5.691998291015625000e+01 1.883264350891113281e+01 5.055529475212097168e-01 3.146177768707275391e+00 1.095519185066223145e+00 -6.998515129089355469e-01
2.768000000000000000e+03 5.962142181396484375e+01 2.188541030883789062e+01 4.165045917034149170e-01 3.539271116256713867e+00 1.186732769012451172e+00 -5.900552868843078613e-01
2.769000000000000000e+03 1.104967689514160156e+01 2.540058326721191406e+01 1.163402665406465530e-02 -1.182955279946327209e-01 -3.199845179915428162e-02 1.686719506978988647e-01
2.770000000000000000e+03 5.375914001464843750e+01 -1.057242393493652344e+00 -2.706748545169830322e-01 3.043841123580932617e-01 1.011277362704277039e-02 3.403601795434951782e-02
2.771000000000000000e+03 5.418608093261718750e+01 -2.810295581817626953e+00 -7.063781023025512695e-01 2.366567552089691162e-01 -1.409164071083068848e-01 -2.598627842962741852e-02
2.772000000000000000e+03 6.072681045532226562e+01 7.294867515563964844e+00 3.840948045253753662e-01 2.927347898483276367e+00 9.934327602386474609e-01 -9.405266046524047852e-01
2.773000000000000000e+03 6.792559051513671875e+01 2.700977516174316406e+01 2.048975676298141479e-01 4.941828727722167969e+00 1.544017910957336426e+00 -4.090911746025085449e-01
2.774000000000000000e+03 6.899692535400390625e+01 2.412857437133789062e+01 1.951193511486053467e-01 5.173496723175048828e+00 1.610584735870361328e+00 -4.716976881027221680e-01
2.775000000000000000e+03 2.582384109497070312e+01 2.021212005615234375e+01 9.689640253782272339e-02 3.577307164669036865e-01 1.363881379365921021e-01 2.153099030256271362e-01
2.776000000000000000e+03 6.620124816894531250e+01 -2.868184280395507812e+01 -6.595674157142639160e-01 5.311523437500000000e+00 1.395586848258972168e+00 5.061781406402587891e-01
2.777000000000000000e+03 7.155596923828125000e+01 2.472608566284179688e+00 -8.789384961128234863e-01 7.536934375762939453e+00 1.997398734092712402e+00 -7.999109625816345215e-01
2.778000000000000000e+03 7.009118652343750000e+01 1.485292077064514160e+00 -1.080861449241638184e+00 7.386970520019531250e+00 1.891832709312438965e+00 -1.208981275558471680e+00
2.779000000000000000e+03 7.099566650390625000e+01 -1.685604929924011230e+00 -1.591114759445190430e+00 9.053249359130859375e+00 2.238640308380126953e+00 -6.415246129035949707e-01
2.780000000000000000e+03 3.443675231933593750e+01 6.386071205139160156e+00 3.229185640811920166e-01 1.085670709609985352e+00 4.225767850875854492e-01 8.635872006416320801e-01
2.781000000000000000e+03 3.813586044311523438e+01 2.289059638977050781e+01 3.402695953845977783e-01 1.411257505416870117e+00 5.254581570625305176e-01 3.775866627693176270e-01
2.782000000000000000e+03 3.817619705200195312e+01 2.089247894287109375e+01 3.614823520183563232e-01 1.462349057197570801e+00 5.471494197845458984e-01 3.959566652774810791e-01
2.783000000000000000e+03 5.595719909667968750e+01 2.760919761657714844e+01 5.912961363792419434e-01 2.756301879882812500e+00 1.004279375076293945e+00 -4.211926460266113281e-01
2.784000000000000000e+03 5.273632812500000000e+01 2.676290893554687500e+01 7.269521951675415039e-01 2.114088296890258789e+00 8.523121476173400879e-01 -2.944196462631225586e-01
2.785000000000000000e+03 6.036151885986328125e+01 2.299021530151367188e+01 3.858238756656646729e-01 3.698703527450561523e+00 1.225358247756958008e+00 -5.822314620018005371e-01
2.786000000000000000e+03 7.202729034423828125e+01 2.244363975524902344e+01 1.285692155361175537e-01 5.757558822631835938e+00 1.765838384628295898e+00 -4.495244622230529785e-01
2.787000000000000000e+03 4.544403076171875000e+01 3.079388427734375000e+01 6.446759700775146484e-01 1.642504096031188965e+00 6.861540079116821289e-01 1.475292742252349854e-01
2.788000000000000000e+03 6.861915588378906250e+01 -3.572551345825195312e+01 -8.641996979713439941e-02 5.955407619476318359e+00 1.760696291923522949e+00 3.025006651878356934e-01
2.789000000000000000e+03 6.771673583984375000e+01 1.709566879272460938e+01 3.124553561210632324e-01 5.015128135681152344e+00 1.598275065422058105e+00 -7.504379749298095703e-01
2.790000000000000000e+03 6.878913116455078125e+01 1.608920288085937500e+01 2.637053430080413818e-01 5.269226551055908203e+00 1.659879565238952637e+00 -7.624503970146179199e-01
2.791000000000000000e+03 1.076165008544921875e+01 3.482081222534179688e+01 4.749087616801261902e-02 -2.997940778732299805e-01 -7.569095492362976074e-02 8.150701969861984253e-02
2.792000000000000000e+03 6.448489379882812500e+01 3.156204032897949219e+01 3.002309501171112061e-01 4.238300323486328125e+00 1.361559391021728516e+00 -3.283158242702484131e-01
2.793000000000000000e+03 2.408135414123535156e+01 -3.819781303405761719e+00 -1.246695667505264282e-01 3.025590419769287109e+00 8.702762722969055176e-01 1.385393857955932617e+00
2.794000000000000000e+03 2.321333312988281250e+01 -3.202394247055053711e+00 -4.479926228523254395e-01 2.653043270111083984e+00 6.615151762962341309e-01 8.039839863777160645e-01
2.795000000000000000e+03 2.592692947387695312e+01 -6.404350757598876953e+00 2.512936115264892578e+00 1.972680211067199707e+00 1.345684885978698730e+00 2.312727689743041992e+00
2.796000000000000000e+03 2.578102111816406250e+01 -1.199168682098388672e+00 -2.282373905181884766e-01 2.133656024932861328e+00 5.716255903244018555e-01 1.240298867225646973e+00
2.797000000000000000e+03 2.361318016052246094e+01 -4.016299724578857422e+00 -2.642499506473541260e-01 3.184334278106689453e+00 8.760253190994262695e-01 1.177860975265502930e+00
2.798000000000000000e+03 2.495011138916015625e+01 -5.888771057128906250e+00 1.693465709686279297e+00 3.055485963821411133e+00 1.424685478210449219e+00 2.539386749267578125e+00
2.799000000000000000e+03 2.648293113708496094e+01 -7.448704242706298828e+00 3.196729183197021484e+00 1.043247103691101074e+00 1.271992802619934082e+00 1.515035510063171387e+00
2.800000000000000000e+03 2.726375770568847656e+01 -8.712024688720703125e+00 2.717122077941894531e+00 4.093915224075317383e-01 9.379540681838989258e-01 3.392516076564788818e-01
2.801000000000000000e+03 2.768034934997558594e+01 -1.004451084136962891e+01 1.728843450546264648e+00 3.300487995147705078e-01 6.176676750183105469e-01 -5.608910918235778809e-01
2.802000000000000000e+03 2.652999114990234375e+01 6.872403025627136230e-01 -2.440229952335357666e-01 1.915184020996093750e+00 5.013483166694641113e-01 1.068634271621704102e+00
2.803000000000000000e+03 2.703263664245605469e+01 -7.510721206665039062e+00 2.837800502777099609e+00 7.869466543197631836e-01 1.087424159049987793e+00 1.251982927322387695e+00
2.804000000000000000e+03 2.819152450561523438e+01 1.038258075714111328e+00 -5.652344599366188049e-02 1.746271371841430664e+00 5.069243907928466797e-01 1.075852274894714355e+00
2.805000000000000000e+03 2.739276885986328125e+01 1.247742176055908203e+00 -1.510082036256790161e-01 1.827408790588378906e+00 5.029201507568359375e-01 1.034381628036499023e+00
2.806000000000000000e+03 2.980492019653320312e+01 -8.469534873962402344e+00 1.335164666175842285e+00 1.058312430977821350e-01 4.322987496852874756e-01 1.815562248229980469e-01
2.807000000000000000e+03 2.824811935424804688e+01 -9.542252540588378906e+00 1.692693829536437988e+00 1.930027008056640625e-01 5.657089352607727051e-01 -2.441174983978271484e-01
2.808000000000000000e+03 2.474769592285156250e+01 -1.234762072563171387e+00 -3.594279587268829346e-01 2.197599172592163086e+00 5.514513254165649414e-01 1.086806416511535645e+00
2.809000000000000000e+03 2.446525382995605469e+01 4.074532538652420044e-02 -4.233313798904418945e-01 1.925201296806335449e+00 4.505609869956970215e-01 9.188213348388671875e-01
2.810000000000000000e+03 3.495491409301757812e+01 7.381918430328369141e+00 3.112193346023559570e-01 1.106552243232727051e+00 4.253314435482025146e-01 8.686218857765197754e-01
2.811000000000000000e+03 2.578883361816406250e+01 7.607783377170562744e-02 -3.051744699478149414e-01 1.986266255378723145e+00 5.043275356292724609e-01 1.082077860832214355e+00
2.812000000000000000e+03 3.675354385375976562e+01 -9.597862243652343750e+00 -4.919697046279907227e-01 2.501138672232627869e-02 -1.400875002145767212e-01 -2.984296083450317383e-01
2.813000000000000000e+03 5.786349105834960938e+01 -2.361509501934051514e-01 -7.499549537897109985e-02 7.358847260475158691e-01 1.982667744159698486e-01 -4.112893342971801758e-01
2.814000000000000000e+03 5.526499938964843750e+01 1.170705780386924744e-01 -6.100900471210479736e-02 4.759714603424072266e-01 1.244887411594390869e-01 -8.034816384315490723e-02
2.815000000000000000e+03 3.022719573974609375e+01 -9.475537300109863281e+00 8.910366296768188477e-01 2.807296998798847198e-02 2.757328748703002930e-01 -2.278541922569274902e-01
2.816000000000000000e+03 6.368362426757812500e+01 1.258789920806884766e+01 4.790755510330200195e-01 4.074963569641113281e+00 1.366211652755737305e+00 -9.559766054153442383e-01
2.817000000000000000e+03 6.732129669189453125e+01 8.164546966552734375e+00 1.065338589251041412e-02 5.120424747467041016e+00 1.539323449134826660e+00 -1.231301546096801758e+00
2.818000000000000000e+03 6.557432556152343750e+01 8.326728940010070801e-01 -4.411303400993347168e-01 4.454909801483154297e+00 1.204133868217468262e+00 -2.228249549865722656e+00
2.819000000000000000e+03 6.114118957519531250e+01 3.180909395217895508e+00 2.495729625225067139e-01 2.333202600479125977e+00 7.748326659202575684e-01 -1.227048039436340332e+00
2.820000000000000000e+03 6.803614044189453125e+01 7.890641689300537109e-02 -1.127089500427246094e+00 6.488410472869873047e+00 1.608396291732788086e+00 -2.060160398483276367e+00
2.821000000000000000e+03 6.799340057373046875e+01 -1.373476147651672363e+00 -1.432394027709960938e+00 7.138466358184814453e+00 1.711821675300598145e+00 -2.384200572967529297e+00
2.822000000000000000e+03 4.843496322631835938e+01 -2.362781286239624023e+00 -3.555543422698974609e-01 1.374899148941040039e-01 -6.541933119297027588e-02 1.209487915039062500e-01
2.823000000000000000e+03 2.999787330627441406e+01 2.691837072372436523e+00 1.277004629373550415e-01 1.475234866142272949e+00 4.808805882930755615e-01 9.327486753463745117e-01
2.824000000000000000e+03 2.969009971618652344e+01 3.731586694717407227e+00 1.564311087131500244e-01 1.486695289611816406e+00 4.929379224777221680e-01 8.454165458679199219e-01
2.825000000000000000e+03 3.361510467529296875e+01 1.539887714385986328e+01 2.462060898542404175e-01 1.205280542373657227e+00 4.354459941387176514e-01 6.688997745513916016e-01
2.826000000000000000e+03 3.956147003173828125e+01 2.039906263351440430e+00 2.087290287017822266e-01 5.637941956520080566e-01 2.317569702863693237e-01 4.668443202972412109e-01
2.827000000000000000e+03 3.822244262695312500e+01 1.938205361366271973e+00 2.336091399192810059e-01 6.352661252021789551e-01 2.606625854969024658e-01 5.719954371452331543e-01
2.828000000000000000e+03 6.808591461181640625e+01 1.075442218780517578e+01 1.418234705924987793e-01 5.230427265167236328e+00 1.611675262451171875e+00 -1.046812176704406738e+00
2.829000000000000000e+03 6.844377136230468750e+01 7.874422073364257812e+00 -6.779692322015762329e-02 5.500849723815917969e+00 1.629915833473205566e+00 -1.180272817611694336e+00
2.830000000000000000e+03 5.729082489013671875e+01 1.652830719947814941e+00 1.721868216991424561e-01 9.533281326293945312e-01 3.376544713973999023e-01 -3.405596613883972168e-01
2.831000000000000000e+03 6.093340682983398438e+01 5.563356280326843262e-01 9.333052486181259155e-02 1.582447648048400879e+00 5.027334690093994141e-01 -1.169321298599243164e+00
2.832000000000000000e+03 6.587816619873046875e+01 2.146736717224121094e+01 3.104364573955535889e-01 4.624973773956298828e+00 1.480623126029968262e+00 -5.925086736679077148e-01
2.833000000000000000e+03 2.518373107910156250e+01 2.322628021240234375e+01 2.056708931922912598e-01 3.452233374118804932e-01 1.652682721614837646e-01 2.378043383359909058e-01
2.834000000000000000e+03 2.389197921752929688e+01 2.583238220214843750e+01 2.296870648860931396e-01 3.103140294551849365e-01 1.620003283023834229e-01 2.573071122169494629e-01
2.835000000000000000e+03 4.242697143554687500e+01 -4.818568229675292969e+00 -3.500566482543945312e-01 1.247268691658973694e-01 -6.759893149137496948e-02 5.417376011610031128e-02
2.836000000000000000e+03 4.449523162841796875e+01 1.178462147712707520e+00 1.814013868570327759e-01 2.059175968170166016e-01 1.161956936120986938e-01 2.413090020418167114e-01
2.837000000000000000e+03 3.659278106689453125e+01 5.072787284851074219e+00 2.611811757087707520e-01 9.592855572700500488e-01 3.661400377750396729e-01 7.410103082656860352e-01
2.838000000000000000e+03 3.786708831787109375e+01 -8.642107963562011719e+00 -4.455888867378234863e-01 4.217357933521270752e-02 -1.210245862603187561e-01 -2.022624760866165161e-01
2.839000000000000000e+03 3.789980316162109375e+01 -9.573192596435546875e+00 -6.326488256454467773e-01 3.987664356827735901e-02 -1.778316497802734375e-01 -3.007434010505676270e-01
2.840000000000000000e+03 4.666194915771484375e+01 -4.760645866394042969e+00 -6.276810765266418457e-01 1.089425310492515564e-01 -1.556215584278106689e-01 6.794255692511796951e-03
2.841000000000000000e+03 4.367377471923828125e+01 -6.875504016876220703e+00 -7.065758705139160156e-01 9.286883473396301270e-02 -1.841121166944503784e-01 -1.163770034909248352e-01
2.842000000000000000e+03 5.895990753173828125e+01 1.611450433731079102e+00 1.875507086515426636e-01 1.357280373573303223e+00 4.634493291378021240e-01 -6.645123958587646484e-01
2.843000000000000000e+03 5.294858932495117188e+01 -5.323218107223510742e-01 -1.695598363876342773e-01 2.964262962341308594e-01 3.805993869900703430e-02 9.690251946449279785e-02
2.844000000000000000e+03 5.058695220947265625e+01 -3.471564292907714844e+00 -6.472129821777343750e-01 1.542311757802963257e-01 -1.478945463895797729e-01 5.674650892615318298e-02
2.845000000000000000e+03 4.720680999755859375e+01 -3.073892354965209961e+00 -4.115585982799530029e-01 1.213871166110038757e-01 -8.705144375562667847e-02 9.957598149776458740e-02
2.846000000000000000e+03 3.180699729919433594e+01 1.802114868164062500e+01 1.191321536898612976e-01 1.062939882278442383e+00 3.546216189861297607e-01 4.389772117137908936e-01
2.847000000000000000e+03 5.205396652221679688e+01 -4.588549137115478516e+00 -9.664205312728881836e-01 1.571518778800964355e-01 -2.427805960178375244e-01 -3.679577261209487915e-02
2.848000000000000000e+03 5.339732742309570312e+01 -1.864964723587036133e+00 -4.440491199493408203e-01 2.668610811233520508e-01 -5.315641686320304871e-02 4.891959577798843384e-02
2.849000000000000000e+03 3.211717605590820312e+01 1.138639736175537109e+01 2.461188137531280518e-01 1.210241913795471191e+00 4.369082152843475342e-01 9.056212902069091797e-01
2.850000000000000000e+03 3.346825408935546875e+01 1.054324436187744141e+01 3.089131712913513184e-01 1.197930097579956055e+00 4.520529508590698242e-01 9.154945611953735352e-01
2.851000000000000000e+03 3.454731750488281250e+01 1.049517536163330078e+01 3.430438041687011719e-01 1.157174110412597656e+00 4.500654041767120361e-01 8.994818925857543945e-01
2.852000000000000000e+03 6.548881530761718750e+01 7.859435558319091797e+00 1.189362257719039917e-01 4.498858451843261719e+00 1.385338425636291504e+00 -1.294834494590759277e+00
2.853000000000000000e+03 3.348156356811523438e+01 9.516522407531738281e+00 3.412963151931762695e-01 1.146715641021728516e+00 4.464035630226135254e-01 9.374793767929077148e-01
2.854000000000000000e+03 1.200714969635009766e+01 2.124157714843750000e+01 2.729793637990951538e-02 8.183182775974273682e-02 3.273892775177955627e-02 1.980042457580566406e-01
2.855000000000000000e+03 1.519540023803710938e+01 2.205692481994628906e+01 1.593026332557201385e-02 2.100904881954193115e-01 6.780622154474258423e-02 3.382131159305572510e-01
2.856000000000000000e+03 3.600809860229492188e+01 -8.296940803527832031e+00 -1.515180319547653198e-01 2.528749965131282806e-02 -3.786916285753250122e-02 -1.225729510188102722e-01
2.857000000000000000e+03 4.604497909545898438e+01 6.479948163032531738e-01 1.370601356029510498e-01 1.569380909204483032e-01 8.819946646690368652e-02 2.206005156040191650e-01
2.858000000000000000e+03 4.425798797607421875e+01 -4.471092224121093750e+00 -4.302093386650085449e-01 1.270890831947326660e-01 -9.093607962131500244e-02 4.795983061194419861e-02
2.859000000000000000e+03 3.310327529907226562e+01 4.813360214233398438e+00 3.069880902767181396e-01 1.130916118621826172e+00 4.313712716102600098e-01 8.661181330680847168e-01
2.860000000000000000e+03 3.740985107421875000e+01 5.439546108245849609e+00 2.404916435480117798e-01 9.591742157936096191e-01 3.598997592926025391e-01 6.886462569236755371e-01
2.861000000000000000e+03 5.075424194335937500e+01 -2.115227699279785156e+00 -4.002467095851898193e-01 1.669782400131225586e-01 -6.998053938150405884e-02 1.103299781680107117e-01
2.862000000000000000e+03 3.408014297485351562e+01 1.292800426483154297e+01 3.173971772193908691e-01 1.201113343238830566e+00 4.555531740188598633e-01 8.416817188262939453e-01
2.863000000000000000e+03 6.525635528564453125e+01 1.905345559120178223e+00 -3.575747311115264893e-01 4.326928138732910156e+00 1.190806031227111816e+00 -2.081074714660644531e+00
2.864000000000000000e+03 6.314619445800781250e+01 9.595589637756347656e+00 3.767004609107971191e-01 3.845407485961914062e+00 1.266632437705993652e+00 -1.077758669853210449e+00
2.865000000000000000e+03 6.863720703125000000e+01 8.112544417381286621e-01 -1.107291221618652344e+00 6.798420429229736328e+00 1.707338690757751465e+00 -1.752280950546264648e+00
2.866000000000000000e+03 6.887732696533203125e+01 1.835290431976318359e+00 -9.128253459930419922e-01 6.615741252899169922e+00 1.710874795913696289e+00 -1.578155755996704102e+00
2.867000000000000000e+03 4.091001129150390625e+01 7.207798957824707031e-01 1.610877662897109985e-01 3.815947175025939941e-01 1.628047376871109009e-01 3.638296127319335938e-01
2.868000000000000000e+03 1.321824359893798828e+01 2.134425163269042969e+01 1.513013523072004318e-02 1.593609899282455444e-01 5.234733968973159790e-02 2.469560503959655762e-01
2.869000000000000000e+03 6.015858459472656250e+01 5.304141998291015625e+00 3.454205393791198730e-01 2.479099512100219727e+00 8.473559617996215820e-01 -9.110886454582214355e-01
2.870000000000000000e+03 4.916277313232421875e+01 -3.704642057418823242e+00 -6.021730303764343262e-01 1.321342140436172485e-01 -1.410116553306579590e-01 5.900014564394950867e-02
2.871000000000000000e+03 3.736122131347656250e+01 4.576687812805175781e+00 2.396915704011917114e-01 8.911247849464416504e-01 3.392449021339416504e-01 6.708657741546630859e-01
2.872000000000000000e+03 3.699444198608398438e+01 3.585948705673217773e+00 2.501519322395324707e-01 8.356108069419860840e-01 3.257288038730621338e-01 6.808721423149108887e-01
2.873000000000000000e+03 6.894527435302734375e+01 1.397842597961425781e+01 2.222599834203720093e-01 5.373720169067382812e+00 1.678794026374816895e+00 -8.512629866600036621e-01
2.874000000000000000e+03 7.012277984619140625e+01 1.341014480590820312e+01 1.633325219154357910e-01 5.658418655395507812e+00 1.746525406837463379e+00 -8.345456719398498535e-01
2.875000000000000000e+03 4.029666519165039062e+01 2.437533187866210938e+01 4.015585482120513916e-01 1.496678113937377930e+00 5.694710016250610352e-01 4.066442549228668213e-01
2.876000000000000000e+03 3.653162765502929688e+01 2.556558799743652344e+01 3.375007510185241699e-01 1.255679130554199219e+00 4.779539704322814941e-01 2.910313010215759277e-01
2.877000000000000000e+03 3.191665458679199219e+01 2.262086868286132812e+01 2.293619215488433838e-01 9.565383195877075195e-01 3.557700812816619873e-01 2.709554135799407959e-01
2.878000000000000000e+03 6.452333068847656250e+01 2.522974014282226562e-01 -3.234449028968811035e-01 3.540779590606689453e+00 9.652004241943359375e-01 -2.297951459884643555e+00
2.879000000000000000e+03 6.481504821777343750e+01 5.851326465606689453e+00 6.758663803339004517e-02 4.163272857666015625e+00 1.269257903099060059e+00 -1.440001606941223145e+00
2.880000000000000000e+03 6.216664886474609375e+01 1.944911193847656250e+01 4.545145034790039062e-01 3.987226247787475586e+00 1.332522273063659668e+00 -6.296952962875366211e-01
2.881000000000000000e+03 3.561953353881835938e+01 -9.382597923278808594e+00 -3.035078644752502441e-01 6.287371739745140076e-03 -8.916614949703216553e-02 -2.781905829906463623e-01
2.882000000000000000e+03 3.418281936645507812e+01 -1.004863166809082031e+01 -2.572292685508728027e-01 -4.206629469990730286e-03 -7.843077182769775391e-02 -3.659070432186126709e-01
2.883000000000000000e+03 4.594075012207031250e+01 -6.274078845977783203e+00 -7.952575087547302246e-01 9.766376018524169922e-02 -2.092781215906143188e-01 -9.619566798210144043e-02
2.884000000000000000e+03 6.546747589111328125e+01 1.700325202941894531e+01 4.189946949481964111e-01 4.524712085723876953e+00 1.483112096786499023e+00 -7.521865367889404297e-01
2.885000000000000000e+03 6.797473907470703125e+01 -3.149510765075683594e+01 -4.317064285278320312e-01 5.956702232360839844e+00 1.657498717308044434e+00 3.037783801555633545e-01
2.886000000000000000e+03 3.505773162841796875e+01 1.855399322509765625e+01 3.242309987545013428e-01 1.252781152725219727e+00 4.731036424636840820e-01 4.625612497329711914e-01
2.887000000000000000e+03 3.638977050781250000e+01 2.079201507568359375e+01 3.359055221080780029e-01 1.330606579780578613e+00 4.999536275863647461e-01 3.768529593944549561e-01
2.888000000000000000e+03 1.076942157745361328e+01 2.112716865539550781e+01 3.505238890647888184e-02 -1.729319803416728973e-02 5.327757913619279861e-03 1.563087701797485352e-01
2.889000000000000000e+03 2.266166114807128906e+01 2.417244911193847656e+01 2.173916995525360107e-01 2.137794047594070435e-01 1.293513327836990356e-01 3.034095764160156250e-01
2.890000000000000000e+03 4.250979614257812500e+01 -7.016490459442138672e+00 -6.378239989280700684e-01 9.095461666584014893e-02 -1.640608161687850952e-01 -1.136600300669670105e-01
2.891000000000000000e+03 4.142219924926757812e+01 -9.349927902221679688e+00 -8.806557655334472656e-01 6.227557361125946045e-02 -2.455140650272369385e-01 -2.914423942565917969e-01
2.892000000000000000e+03 5.488676834106445312e+01 -2.449864387512207031e+00 -6.241012811660766602e-01 2.603796720504760742e-01 -1.091164872050285339e-01 -4.311976209282875061e-02
2.893000000000000000e+03 6.133022308349609375e+01 -3.440938568115234375e+01 9.286834299564361572e-02 2.488990545272827148e+00 7.745577096939086914e-01 3.533092737197875977e-01
2.894000000000000000e+03 6.512405395507812500e+01 -3.358058166503906250e+01 -1.219538599252700806e-01 4.532702922821044922e+00 1.323224663734436035e+00 3.770843446254730225e-01
2.895000000000000000e+03 3.347450637817382812e+01 6.379534244537353516e+00 3.341426551342010498e-01 1.124287009239196777e+00 4.375289082527160645e-01 8.850812911987304688e-01
2.896000000000000000e+03 6.677913665771484375e+01 3.035479354858398438e+01 2.203074395656585693e-01 4.697018623352050781e+00 1.475197792053222656e+00 -3.256965279579162598e-01
2.897000000000000000e+03 6.318502426147460938e+01 2.620395278930664062e+01 3.352965414524078369e-01 4.106272220611572266e+00 1.332470655441284180e+00 -5.047065019607543945e-01
2.898000000000000000e+03 6.945614624023437500e+01 6.465948104858398438e+00 -2.797745764255523682e-01 6.015452384948730469e+00 1.720703363418579102e+00 -1.157384157180786133e+00
2.899000000000000000e+03 6.069131469726562500e+01 2.006088256835937500e+01 4.295595884323120117e-01 3.743320226669311523e+00 1.251863956451416016e+00 -5.843822956085205078e-01
2.900000000000000000e+03 5.928984069824218750e+01 2.053639793395996094e+01 4.033473134040832520e-01 3.498185396194458008e+00 1.170459866523742676e+00 -5.836655497550964355e-01
2.901000000000000000e+03 6.098218154907226562e+01 2.570568466186523438e+01 3.663919568061828613e-01 3.743932723999023438e+00 1.233097434043884277e+00 -5.300841927528381348e-01
2.902000000000000000e+03 5.763216018676757812e+01 2.584497833251953125e+01 4.676713347434997559e-01 3.093889474868774414e+00 1.068468213081359863e+00 -5.299010872840881348e-01
2.903000000000000000e+03 3.333720779418945312e+01 1.355477523803710938e+01 2.546935975551605225e-01 1.192906975746154785e+00 4.342801570892333984e-01 7.880631089210510254e-01
2.904000000000000000e+03 1.478233242034912109e+01 3.179098892211914062e+01 9.418915957212448120e-02 -4.382132366299629211e-02 1.511035021394491196e-02 1.738178431987762451e-01
2.905000000000000000e+03 1.316455173492431641e+01 3.349713516235351562e+01 6.986410915851593018e-02 -1.588276922702789307e-01 -2.668907493352890015e-02 1.261724978685379028e-01
2.906000000000000000e+03 6.915038299560546875e+01 4.147026062011718750e+00 -5.518895387649536133e-01 6.238515377044677734e+00 1.705987811088562012e+00 -1.313610792160034180e+00
2.907000000000000000e+03 2.091636657714843750e+01 2.823001670837402344e+01 1.924942433834075928e-01 2.237311601638793945e-01 1.248676255345344543e-01 2.669023275375366211e-01
2.908000000000000000e+03 6.778344726562500000e+01 1.493383312225341797e+01 2.997907996177673340e-01 5.044236183166503906e+00 1.603208184242248535e+00 -8.476279973983764648e-01
2.909000000000000000e+03 1.737292480468750000e+01 2.587052345275878906e+01 1.030097380280494690e-01 1.456069052219390869e-01 7.458499073982238770e-02 3.299010097980499268e-01
2.910000000000000000e+03 1.776615142822265625e+01 2.759903144836425781e+01 1.226778328418731689e-01 1.280776411294937134e-01 7.522664219141006470e-02 2.836070954799652100e-01
2.911000000000000000e+03 3.062443733215332031e+01 2.102781105041503906e+01 1.586592942476272583e-01 8.718940615653991699e-01 3.091660141944885254e-01 2.679927647113800049e-01
2.912000000000000000e+03 3.993263244628906250e+01 3.417087173461914062e+01 5.096556544303894043e-01 1.358842134475708008e+00 5.605493187904357910e-01 1.520470380783081055e-01
2.913000000000000000e+03 7.554413604736328125e+01 -3.800434494018554688e+01 -8.679571747779846191e-02 9.354287147521972656e+00 2.780247211456298828e+00 -1.206289529800415039e-01
2.914000000000000000e+03 1.719699287414550781e+01 -3.291363906860351562e+01 -2.452959716320037842e-01 1.027054190635681152e+00 2.345274686813354492e-01 -2.299425005912780762e-01
2.915000000000000000e+03 1.910502433776855469e+01 -3.262009048461914062e+01 -1.711136251688003540e-01 8.558644652366638184e-01 2.054252475500106812e-01 -2.555005848407745361e-01
2.916000000000000000e+03 1.267985916137695312e+01 -4.092753219604492188e+01 -3.164511322975158691e-01 9.235318899154663086e-01 1.821242272853851318e-01 8.176794275641441345e-03
2.917000000000000000e+03 2.456328773498535156e+01 -6.616846919059753418e-01 -4.255872368812561035e-01 2.058921098709106445e+00 4.900001287460327148e-01 9.729430675506591797e-01
2.918000000000000000e+03 2.362053871154785156e+01 -5.587985992431640625e+00 4.590527117252349854e-01 4.367512702941894531e+00 1.447969675064086914e+00 2.040960550308227539e+00
2.919000000000000000e+03 2.600467872619628906e+01 -5.785004615783691406e+00 1.815607905387878418e+00 2.143701076507568359e+00 1.187792658805847168e+00 2.246042490005493164e+00
2.920000000000000000e+03 2.750160598754882812e+01 -7.717401027679443359e+00 2.551062822341918945e+00 5.781136155128479004e-01 9.387529492378234863e-01 9.394772648811340332e-01
2.921000000000000000e+03 2.440671157836914062e+01 -5.636164188385009766e+00 1.160900712013244629e+00 3.647034406661987305e+00 1.442380547523498535e+00 2.458335638046264648e+00
2.922000000000000000e+03 2.386455917358398438e+01 -3.398021697998046875e+00 -3.128943145275115967e-01 2.834891319274902344e+00 7.565991282463073730e-01 1.143424272537231445e+00
2.923000000000000000e+03 2.368460273742675781e+01 -2.957643747329711914e+00 -3.812664449214935303e-01 2.660458326339721680e+00 6.837575435638427734e-01 1.000813126564025879e+00
2.924000000000000000e+03 2.402101516723632812e+01 -9.871571660041809082e-01 -4.476700425148010254e-01 2.067681074142456055e+00 4.860032796859741211e-01 8.941044807434082031e-01
2.925000000000000000e+03 2.443837928771972656e+01 -2.123152971267700195e+00 -3.262157440185546875e-01 2.411861658096313477e+00 6.256937384605407715e-01 1.142948389053344727e+00
2.926000000000000000e+03 2.726609230041503906e+01 5.108519792556762695e-01 -1.589167565107345581e-01 1.878884434700012207e+00 5.159903168678283691e-01 1.124614000320434570e+00
2.927000000000000000e+03 2.644148063659667969e+01 -7.148221135139465332e-03 -2.424180060625076294e-01 1.983195424079895020e+00 5.222332477569580078e-01 1.146347045898437500e+00
2.928000000000000000e+03 2.940862655639648438e+01 -9.234058380126953125e+00 1.297524452209472656e+00 7.604338973760604858e-02 4.120703339576721191e-01 -1.219020187854766846e-01
2.929000000000000000e+03 3.061256790161132812e+01 -8.654079437255859375e+00 1.000125050544738770e+00 4.190921783447265625e-02 3.126102685928344727e-01 4.356266930699348450e-02
2.930000000000000000e+03 2.907604598999023438e+01 -8.323222160339355469e+00 1.677588224411010742e+00 1.861943453550338745e-01 5.591347813606262207e-01 3.331492841243743896e-01
2.931000000000000000e+03 5.980773544311523438e+01 9.744973778724670410e-01 8.923840522766113281e-02 1.329204916954040527e+00 4.255329966545104980e-01 -9.448027610778808594e-01
2.932000000000000000e+03 2.398904800415039062e+01 -2.289629459381103516e+00 -3.824317455291748047e-01 2.424451828002929688e+00 6.126059889793395996e-01 1.012997984886169434e+00
2.933000000000000000e+03 2.428126525878906250e+01 -3.184279441833496094e+00 -2.404470741748809814e-01 2.760578870773315430e+00 7.560395598411560059e-01 1.267628312110900879e+00
2.934000000000000000e+03 3.215138244628906250e+01 -9.798249244689941406e+00 2.186694443225860596e-01 -2.132419124245643616e-02 5.920357629656791687e-02 -3.389949798583984375e-01
2.935000000000000000e+03 3.150987052917480469e+01 -8.788781166076660156e+00 6.967808604240417480e-01 6.606374401599168777e-03 2.110161632299423218e-01 -5.435842275619506836e-02
2.936000000000000000e+03 4.498406600952148438e+01 1.438896656036376953e-01 7.826290279626846313e-02 1.788025200366973877e-01 7.711962610483169556e-02 2.140573114156723022e-01
2.937000000000000000e+03 4.340270614624023438e+01 8.692128658294677734e-01 1.579277664422988892e-01 2.584789991378784180e-01 1.249220371246337891e-01 2.561983764171600342e-01
2.938000000000000000e+03 3.355490112304687500e+01 1.677009010314941406e+01 2.230477631092071533e-01 1.174301147460937500e+00 4.192046523094177246e-01 5.659478306770324707e-01
2.939000000000000000e+03 3.395749282836914062e+01 5.550621986389160156e+00 3.124473094940185547e-01 1.085293889045715332e+00 4.193223416805267334e-01 8.638988733291625977e-01
2.940000000000000000e+03 3.317141723632812500e+01 -9.919404983520507812e+00 -5.286841094493865967e-02 -1.694781333208084106e-02 -2.094486728310585022e-02 -3.619118034839630127e-01
2.941000000000000000e+03 3.515961074829101562e+01 -1.028019714355468750e+01 -4.709688127040863037e-01 4.759591072797775269e-03 -1.398627609014511108e-01 -3.910615742206573486e-01
2.942000000000000000e+03 4.011254882812500000e+01 -8.259945869445800781e+00 -6.037164330482482910e-01 6.265919655561447144e-02 -1.623171567916870117e-01 -1.934059262275695801e-01
2.943000000000000000e+03 2.830341529846191406e+01 1.793293118476867676e+00 -3.430533036589622498e-02 1.696672081947326660e+00 4.987100064754486084e-01 9.892059564590454102e-01
2.944000000000000000e+03 3.105159568786621094e+01 2.833600282669067383e+00 1.922596544027328491e-01 1.335262179374694824e+00 4.582565724849700928e-01 9.187685251235961914e-01
2.945000000000000000e+03 3.196954917907714844e+01 4.268237113952636719e+00 2.741988897323608398e-01 1.219828367233276367e+00 4.482081830501556396e-01 8.709146976470947266e-01
2.946000000000000000e+03 3.075290107727050781e+01 3.987337589263916016e+00 2.319667339324951172e-01 1.364321589469909668e+00 4.788864850997924805e-01 8.656687736511230469e-01
2.947000000000000000e+03 4.640890121459960938e+01 -1.996375083923339844e+00 -2.146968543529510498e-01 1.349154859781265259e-01 -2.393440902233123779e-02 1.522625088691711426e-01
2.948000000000000000e+03 5.206808853149414062e+01 -2.503972530364990234e+00 -5.534355044364929199e-01 1.865315884351730347e-01 -1.100711748003959656e-01 7.830163091421127319e-02
2.949000000000000000e+03 6.395744323730468750e+01 1.561265707015991211e+00 -6.461606174707412720e-02 3.286482572555541992e+00 9.665599465370178223e-01 -1.946854233741760254e+00
2.950000000000000000e+03 6.337462615966796875e+01 7.038777351379394531e+00 2.401227205991744995e-01 3.739324331283569336e+00 1.193834185600280762e+00 -1.268694758415222168e+00
2.951000000000000000e+03 3.358594512939453125e+01 2.811982631683349609e+00 2.745810747146606445e-01 1.042939901351928711e+00 3.952562808990478516e-01 8.656668066978454590e-01
2.952000000000000000e+03 3.445170593261718750e+01 8.662948608398437500e+00 3.364215791225433350e-01 1.128480434417724609e+00 4.394706189632415771e-01 9.085832238197326660e-01
2.953000000000000000e+03 6.186255264282226562e+01 5.388636112213134766e+00 2.795745432376861572e-01 2.995149850845336914e+00 9.824173450469970703e-01 -1.192054748535156250e+00
2.954000000000000000e+03 6.207588195800781250e+01 7.362929821014404297e+00 3.314727842807769775e-01 3.355043888092041016e+00 1.105955004692077637e+00 -1.142471432685852051e+00
2.955000000000000000e+03 3.950141906738281250e+01 -3.232327222824096680e+00 5.260739009827375412e-03 2.332481890916824341e-01 7.155267894268035889e-02 2.742304205894470215e-01
2.956000000000000000e+03 1.319653320312500000e+01 2.433850288391113281e+01 1.473389100283384323e-02 3.084447421133518219e-02 1.367350947111845016e-02 2.375959306955337524e-01
2.957000000000000000e+03 1.587506484985351562e+01 2.313024520874023438e+01 3.685641661286354065e-02 1.788539141416549683e-01 6.471309810876846313e-02 3.502954244613647461e-01
2.958000000000000000e+03 5.827386474609375000e+01 7.266997694969177246e-01 2.802056446671485901e-02 9.814814329147338867e-01 3.028506040573120117e-01 -5.362575054168701172e-01
2.959000000000000000e+03 3.486400222778320312e+01 4.929546833038330078e+00 2.965708971023559570e-01 1.031873703002929688e+00 3.985334038734436035e-01 8.248549103736877441e-01
2.960000000000000000e+03 4.372304534912109375e+01 -4.620906710624694824e-01 4.044470191001892090e-02 2.048427909612655640e-01 7.358624786138534546e-02 2.394471913576126099e-01
2.961000000000000000e+03 6.583802795410156250e+01 1.273698329925537109e+01 3.569687902927398682e-01 4.603608131408691406e+00 1.488173127174377441e+00 -9.801760911941528320e-01
2.962000000000000000e+03 6.287062454223632812e+01 2.060517311096191406e+01 4.057446122169494629e-01 4.098139762878417969e+00 1.351165294647216797e+00 -5.945212244987487793e-01
2.963000000000000000e+03 6.241005325317382812e+01 8.534755706787109375e+00 3.632107377052307129e-01 3.522066593170166016e+00 1.165583252906799316e+00 -1.112901449203491211e+00
2.964000000000000000e+03 6.811455535888671875e+01 8.923646926879882812e+00 1.686998456716537476e-02 5.357932567596435547e+00 1.612440705299377441e+00 -1.146067857742309570e+00
2.965000000000000000e+03 4.784580612182617188e+01 -4.239405155181884766e+00 -6.299414038658142090e-01 1.223323494195938110e-01 -1.522827148437500000e-01 2.917693182826042175e-02
2.966000000000000000e+03 1.425487804412841797e+01 2.261608695983886719e+01 1.564154960215091705e-02 1.395942568778991699e-01 4.657074436545372009e-02 2.885562777519226074e-01
2.967000000000000000e+03 6.463375854492187500e+01 1.369696807861328125e+01 4.462665021419525146e-01 4.329061508178710938e+00 1.432598471641540527e+00 -9.084437489509582520e-01
2.968000000000000000e+03 4.144631958007812500e+01 -4.696365833282470703e+00 -2.685936689376831055e-01 1.345892250537872314e-01 -4.020133987069129944e-02 8.682727068662643433e-02
2.969000000000000000e+03 4.242602157592773438e+01 -5.892123222351074219e+00 -4.785707592964172363e-01 1.100024357438087463e-01 -1.105704978108406067e-01 -1.906955055892467499e-02
2.970000000000000000e+03 5.541077804565429688e+01 -1.693435311317443848e+00 -4.236124157905578613e-01 3.162831664085388184e-01 -3.219877183437347412e-02 -9.624511748552322388e-02
2.971000000000000000e+03 5.455960464477539062e+01 -1.306851625442504883e+00 -3.591310977935791016e-01 3.567759096622467041e-01 -7.065567187964916229e-04 -2.172506228089332581e-02
2.972000000000000000e+03 7.029867553710937500e+01 2.720685005187988281e+00 -8.267275094985961914e-01 7.007355690002441406e+00 1.854188561439514160e+00 -1.108172416687011719e+00
2.973000000000000000e+03 6.515987396240234375e+01 9.756450653076171875e+00 2.687856853008270264e-01 4.402652263641357422e+00 1.401431441307067871e+00 -1.159297347068786621e+00
2.974000000000000000e+03 1.311549472808837891e+01 2.274300575256347656e+01 1.033211220055818558e-02 9.256131947040557861e-02 3.086802922189235687e-02 2.446222752332687378e-01
2.975000000000000000e+03 6.761470031738281250e+01 1.919887542724609375e+01 2.996749281883239746e-01 4.976750373840332031e+00 1.582927584648132324e+00 -6.606024503707885742e-01
2.976000000000000000e+03 4.610198974609375000e+01 -3.694188833236694336e+00 -4.525865912437438965e-01 1.224878057837486267e-01 -9.902963787317276001e-02 6.971243023872375488e-02
2.977000000000000000e+03 6.637305450439453125e+01 4.473315238952636719e+00 -2.325256317853927612e-01 4.876399040222167969e+00 1.393162012100219727e+00 -1.616387009620666504e+00
2.978000000000000000e+03 6.773341369628906250e+01 3.163290262222290039e+00 -5.577391982078552246e-01 5.709778785705566406e+00 1.545611858367919922e+00 -1.648413658142089844e+00
2.979000000000000000e+03 6.838834381103515625e+01 2.225712966918945312e+01 2.384879887104034424e-01 5.085872173309326172e+00 1.597308039665222168e+00 -5.449841618537902832e-01
2.980000000000000000e+03 6.561611938476562500e+01 1.481466484069824219e+01 4.121140837669372559e-01 4.549901962280273438e+00 1.488604784011840820e+00 -8.624531626701354980e-01
2.981000000000000000e+03 2.870769119262695312e+01 2.553132438659667969e+01 2.503455281257629395e-01 6.563649177551269531e-01 2.720131278038024902e-01 2.107839882373809814e-01
2.982000000000000000e+03 4.557208633422851562e+01 -5.220015525817871094e+00 -6.173376441001892090e-01 1.106253415346145630e-01 -1.520136892795562744e-01 -1.583664491772651672e-02
2.983000000000000000e+03 1.290886211395263672e+01 2.871149635314941406e+01 4.147405177354812622e-02 -9.585524350404739380e-02 -1.631435751914978027e-02 1.853660345077514648e-01
2.984000000000000000e+03 6.726242065429687500e+01 2.499538612365722656e+01 2.412712424993515015e-01 4.850121021270751953e+00 1.527417659759521484e+00 -4.834773838520050049e-01
2.985000000000000000e+03 6.251508331298828125e+01 2.921664476394653320e+00 1.480985283851623535e-01 2.841895818710327148e+00 8.969982862472534180e-01 -1.504008412361145020e+00
2.986000000000000000e+03 6.253209304809570312e+01 1.509390592575073242e+00 6.640762835741043091e-02 2.553048372268676758e+00 7.858368158340454102e-01 -1.635767698287963867e+00
2.987000000000000000e+03 6.663929748535156250e+01 1.593991947174072266e+01 3.575390577316284180e-01 4.797180175781250000e+00 1.546415686607360840e+00 -7.929988503456115723e-01
2.988000000000000000e+03 6.438242340087890625e+01 1.585608005523681641e+01 4.687672257423400879e-01 4.313223838806152344e+00 1.434597253799438477e+00 -7.856439352035522461e-01
2.989000000000000000e+03 6.658382415771484375e+01 9.811682701110839844e-01 -7.375493049621582031e-01 5.366089820861816406e+00 1.388562202453613281e+00 -2.168343782424926758e+00
2.990000000000000000e+03 6.172323608398437500e+01 2.371339225769042969e+01 3.749422729015350342e-01 3.900926589965820312e+00 1.282760620117187500e+00 -5.616917610168457031e-01
2.991000000000000000e+03 6.588935852050781250e+01 2.798527336120605469e+01 2.648769319057464600e-01 4.555491447448730469e+00 1.446110606193542480e+00 -4.247635900974273682e-01
2.992000000000000000e+03 2.646779632568359375e+01 2.252881622314453125e+01 1.846244335174560547e-01 4.603166878223419189e-01 1.934823244810104370e-01 2.171431034803390503e-01
2.993000000000000000e+03 2.478841400146484375e+01 2.788722991943359375e+01 2.537688314914703369e-01 4.014732241630554199e-01 1.965726166963577271e-01 2.245559394359588623e-01
2.994000000000000000e+03 5.958280944824218750e+01 2.773225975036621094e+01 4.298056364059448242e-01 3.542734146118164062e+00 1.191761970520019531e+00 -4.757781624794006348e-01
2.995000000000000000e+03 1.987943840026855469e+01 -3.454179763793945312e+01 -1.973833888769149780e-01 7.455850839614868164e-01 1.644604951143264771e-01 -2.007144391536712646e-01
2.996000000000000000e+03 6.383924102783203125e+01 -3.630880737304687500e+01 1.632638126611709595e-01 3.764462232589721680e+00 1.178317785263061523e+00 2.736569344997406006e-01
2.997000000000000000e+03 5.772050476074218750e+01 2.968177986145019531e+01 5.012368559837341309e-01 3.156612396240234375e+00 1.097354769706726074e+00 -3.590591549873352051e-01
2.998000000000000000e+03 2.458710861206054688e+01 -4.845998764038085938e+00 5.195037126541137695e-01 3.331879138946533203e+00 1.155414819717407227e+00 2.040470838546752930e+00
2.999000000000000000e+03 2.727547645568847656e+01 -8.088380813598632812e+00 2.761954545974731445e+00 5.165572762489318848e-01 9.835535287857055664e-01 7.780823111534118652e-01
3.000000000000000000e+03 2.813234519958496094e+01 -8.665602684020996094e+00 2.114770650863647461e+00 2.549198269844055176e-01 7.109071612358093262e-01 2.817806899547576904e-01
3.001000000000000000e+03 2.635027122497558594e+01 -6.271579265594482422e-01 -1.995866000652313232e-01 2.024793148040771484e+00 5.475619435310363770e-01 1.222118735313415527e+00
3.002000000000000000e+03 2.414988899230957031e+01 -2.758031129837036133e+00 -3.435094952583312988e-01 2.607716798782348633e+00 6.792622208595275879e-01 1.130913138389587402e+00
3.003000000000000000e+03 2.473243331909179688e+01 -1.734415650367736816e+00 -3.313678801059722900e-01 2.331886768341064453e+00 6.001557111740112305e-01 1.157033205032348633e+00
3.004000000000000000e+03 2.435837364196777344e+01 -1.433883666992187500e+00 -4.102711081504821777e-01 2.220904588699340820e+00 5.431900620460510254e-01 9.997254610061645508e-01
3.005000000000000000e+03 3.096109962463378906e+01 -7.844850063323974609e+00 1.039758443832397461e+00 9.683040529489517212e-02 3.409766256809234619e-01 2.746581137180328369e-01
3.006000000000000000e+03 2.692927742004394531e+01 -7.853056788444519043e-01 -1.039040833711624146e-01 1.970637559890747070e+00 5.600200295448303223e-01 1.289169311523437500e+00
3.007000000000000000e+03 2.468554496765136719e+01 -3.097818851470947266e+00 -1.423292309045791626e-01 2.670096635818481445e+00 7.583302259445190430e-01 1.414886236190795898e+00
3.008000000000000000e+03 2.585987854003906250e+01 -1.837772607803344727e+00 -1.316224634647369385e-01 2.217788696289062500e+00 6.258498430252075195e-01 1.372261524200439453e+00
3.009000000000000000e+03 3.454478073120117188e+01 -9.120996475219726562e+00 -8.065526187419891357e-02 -2.951431786641478539e-03 -2.508200705051422119e-02 -2.295260429382324219e-01
3.010000000000000000e+03 3.349602508544921875e+01 -8.996820449829101562e+00 1.529508084058761597e-01 -2.833538921549916267e-03 4.503517970442771912e-02 -1.729743778705596924e-01
3.011000000000000000e+03 3.493920135498046875e+01 -7.058355808258056641e+00 2.046119123697280884e-01 8.724545687437057495e-02 8.755721151828765869e-02 1.238067820668220520e-01
3.012000000000000000e+03 3.696849060058593750e+01 -8.633052825927734375e+00 -3.233173489570617676e-01 3.602649271488189697e-02 -8.618725836277008057e-02 -1.828800141811370850e-01
3.013000000000000000e+03 4.136936569213867188e+01 -8.220693588256835938e+00 -7.115300893783569336e-01 7.054766267538070679e-02 -1.922947317361831665e-01 -2.002052515745162964e-01
3.014000000000000000e+03 3.011181259155273438e+01 1.591525793075561523e+00 1.287696808576583862e-01 1.441026806831359863e+00 4.709389507770538330e-01 1.014320015907287598e+00
3.015000000000000000e+03 2.915163993835449219e+01 1.689582705497741699e+00 3.916057199239730835e-02 1.606327414512634277e+00 4.936464130878448486e-01 1.018359184265136719e+00
3.016000000000000000e+03 3.247821426391601562e+01 -8.897632598876953125e+00 4.138485789299011230e-01 -8.670002222061157227e-03 1.215535700321197510e-01 -1.178189441561698914e-01
3.017000000000000000e+03 6.903072357177734375e+01 2.975136280059814453e+00 -7.662692070007324219e-01 6.480261802673339844e+00 1.714197754859924316e+00 -1.448313474655151367e+00
3.018000000000000000e+03 6.779689025878906250e+01 4.344569206237792969e+00 -4.494123756885528564e-01 5.651712417602539062e+00 1.560690045356750488e+00 -1.530706405639648438e+00
3.019000000000000000e+03 4.452530670166015625e+01 -5.546564102172851562e+00 -5.911503434181213379e-01 1.068854257464408875e-01 -1.452794671058654785e-01 -3.116161935031414032e-02
3.020000000000000000e+03 4.232065963745117188e+01 -7.203185558319091797e-01 4.557456448674201965e-02 2.499895393848419189e-01 8.866923302412033081e-02 2.690559923648834229e-01
3.021000000000000000e+03 2.711338615417480469e+01 -1.773943454027175903e-01 -1.290354132652282715e-01 1.905149936676025391e+00 5.328343510627746582e-01 1.207991480827331543e+00
3.022000000000000000e+03 4.561351013183593750e+01 -9.639505743980407715e-01 -4.289916530251502991e-02 1.517462134361267090e-01 3.265411779284477234e-02 2.028986811637878418e-01
3.023000000000000000e+03 4.093389892578125000e+01 -6.812928915023803711e-01 9.835847467184066772e-02 3.082882165908813477e-01 1.219940036535263062e-01 3.337180912494659424e-01
3.024000000000000000e+03 3.668848037719726562e+01 -7.333103179931640625e+00 -7.930646091699600220e-02 6.241805106401443481e-02 -5.066522397100925446e-03 -1.183009892702102661e-02
3.025000000000000000e+03 3.227525329589843750e+01 2.982233047485351562e+00 2.507984936237335205e-01 1.187778592109680176e+00 4.315731227397918701e-01 9.022048711776733398e-01
3.026000000000000000e+03 3.731068038940429688e+01 -8.919901251792907715e-01 2.299957275390625000e-01 4.863960444927215576e-01 2.149175256490707397e-01 5.550864338874816895e-01
3.027000000000000000e+03 3.963029861450195312e+01 6.699792146682739258e-01 1.870048344135284424e-01 4.588935375213623047e-01 1.937695145606994629e-01 4.445187747478485107e-01
3.028000000000000000e+03 6.113511657714843750e+01 1.809081792831420898e+00 1.769860833883285522e-01 1.926228404045104980e+00 6.309643387794494629e-01 -1.249310016632080078e+00
3.029000000000000000e+03 4.442593002319335938e+01 -1.698483586311340332e+00 -1.008816063404083252e-01 1.663469821214675903e-01 1.963961496949195862e-02 1.896213144063949585e-01
3.030000000000000000e+03 3.528913879394531250e+01 3.298936128616333008e+00 2.727909088134765625e-01 9.289231896400451660e-01 3.605142235755920410e-01 7.875154018402099609e-01
3.031000000000000000e+03 4.345026397705078125e+01 -2.752905130386352539e+00 -1.780094504356384277e-01 1.660650372505187988e-01 -3.583324840292334557e-03 1.655413508415222168e-01
3.032000000000000000e+03 6.763333129882812500e+01 9.745404124259948730e-01 -8.537244796752929688e-01 5.985919952392578125e+00 1.539658665657043457e+00 -1.973981618881225586e+00
3.033000000000000000e+03 6.257421112060546875e+01 4.068005561828613281e+00 1.670741438865661621e-01 3.032621860504150391e+00 9.599087834358215332e-01 -1.426256537437438965e+00
3.034000000000000000e+03 6.627246856689453125e+01 8.899859428405761719e+00 1.297836899757385254e-01 4.761344909667968750e+00 1.467338562011718750e+00 -1.224271297454833984e+00
3.035000000000000000e+03 6.792123413085937500e+01 5.538739204406738281e+00 -2.805764377117156982e-01 5.544320583343505859e+00 1.579123258590698242e+00 -1.376741409301757812e+00
3.036000000000000000e+03 6.803401947021484375e+01 1.280324935913085938e+01 2.357119321823120117e-01 5.168376922607421875e+00 1.621226549148559570e+00 -9.420083761215209961e-01
3.037000000000000000e+03 6.681592559814453125e+01 1.381280422210693359e+01 3.257406055927276611e-01 4.851064205169677734e+00 1.553041458129882812e+00 -9.023084044456481934e-01
3.038000000000000000e+03 3.117845916748046875e+01 1.630522727966308594e+00 1.968065053224563599e-01 1.298130869865417480e+00 4.484812319278717041e-01 9.893036484718322754e-01
3.039000000000000000e+03 6.488714599609375000e+01 1.167073535919189453e+01 3.773384988307952881e-01 4.360016345977783203e+00 1.421206474304199219e+00 -1.030698657035827637e+00
3.040000000000000000e+03 6.436128234863281250e+01 8.791251182556152344e+00 2.628443539142608643e-01 4.096983432769775391e+00 1.307948350906372070e+00 -1.201142787933349609e+00
3.041000000000000000e+03 6.380702209472656250e+01 2.935547590255737305e+00 -3.104005567729473114e-02 3.495621919631958008e+00 1.039374589920043945e+00 -1.704153537750244141e+00
3.042000000000000000e+03 4.218285751342773438e+01 7.493107914924621582e-01 1.576943546533584595e-01 3.144301474094390869e-01 1.416373550891876221e-01 3.081561028957366943e-01
3.043000000000000000e+03 3.470737075805664062e+01 2.033165931701660156e+01 2.913835346698760986e-01 1.219808816909790039e+00 4.533577263355255127e-01 3.830637931823730469e-01
3.044000000000000000e+03 3.339640808105468750e+01 1.831009674072265625e+01 2.264048159122467041e-01 1.145241737365722656e+00 4.114939570426940918e-01 4.642710685729980469e-01
3.045000000000000000e+03 6.430858612060546875e+01 1.816049575805664062e+01 4.414556920528411865e-01 4.318856239318847656e+00 1.428093552589416504e+00 -6.804683804512023926e-01
3.046000000000000000e+03 6.660023498535156250e+01 1.811386489868164062e+01 3.465422391891479492e-01 4.792706966400146484e+00 1.541774749755859375e+00 -6.881756186485290527e-01
3.047000000000000000e+03 6.678380584716796875e+01 2.026634788513183594e+01 3.094894886016845703e-01 4.808394432067871094e+00 1.535365223884582520e+00 -6.106730103492736816e-01
3.048000000000000000e+03 3.590252685546875000e+01 4.269569396972656250e+00 2.684630453586578369e-01 9.556859731674194336e-01 3.672446906566619873e-01 7.696176767349243164e-01
3.049000000000000000e+03 3.410720443725585938e+01 3.934659481048583984e+00 2.828881442546844482e-01 1.045574307441711426e+00 3.985387384891510010e-01 8.453484177589416504e-01
3.050000000000000000e+03 3.176431655883789062e+01 2.575553321838378906e+01 2.774398922920227051e-01 9.070038199424743652e-01 3.553331196308135986e-01 2.312888205051422119e-01
3.051000000000000000e+03 6.648020935058593750e+01 2.064154148101806641e+00 -5.118300914764404297e-01 5.111171722412109375e+00 1.379802465438842773e+00 -1.946396946907043457e+00
3.052000000000000000e+03 2.753398895263671875e+01 2.372839927673339844e+01 2.084480971097946167e-01 5.478103160858154297e-01 2.268775254487991333e-01 2.121400684118270874e-01
3.053000000000000000e+03 2.681554794311523438e+01 2.685576820373535156e+01 2.551207244396209717e-01 5.075397491455078125e-01 2.287981510162353516e-01 2.116317152976989746e-01
3.054000000000000000e+03 6.670456695556640625e+01 2.304947280883789062e+01 2.721185088157653809e-01 4.771882057189941406e+00 1.513200163841247559e+00 -5.440371632575988770e-01
3.055000000000000000e+03 2.014797019958496094e+01 3.056379699707031250e+01 1.951087564229965210e-01 2.021366804838180542e-01 1.191736310720443726e-01 2.267048805952072144e-01
3.056000000000000000e+03 1.616103363037109375e+01 2.687456893920898438e+01 8.299551904201507568e-02 9.135442972183227539e-02 5.230498686432838440e-02 2.822265625000000000e-01
3.057000000000000000e+03 6.467496490478515625e+01 2.228433418273925781e+01 3.383357822895050049e-01 4.403106689453125000e+00 1.422432780265808105e+00 -5.762353539466857910e-01
3.058000000000000000e+03 1.469488239288330078e+01 2.791546630859375000e+01 5.919211730360984802e-02 1.103102974593639374e-02 2.106694504618644714e-02 2.353581339120864868e-01
3.059000000000000000e+03 1.953958320617675781e+01 3.357725524902343750e+01 1.874014437198638916e-01 1.680891960859298706e-01 1.066471934318542480e-01 1.610081791877746582e-01
3.060000000000000000e+03 5.971580886840820312e+01 3.158313751220703125e+01 4.371935129165649414e-01 3.572268724441528320e+00 1.202838659286499023e+00 -3.427381813526153564e-01
3.061000000000000000e+03 3.853848266601562500e+01 2.511983299255371094e+01 3.653084039688110352e-01 1.369957685470581055e+00 5.205798745155334473e-01 3.373971283435821533e-01
3.062000000000000000e+03 6.476690673828125000e+01 2.032630729675292969e+01 3.713393211364746094e-01 4.417858123779296875e+00 1.436759233474731445e+00 -6.330507993698120117e-01
3.063000000000000000e+03 3.671992874145507812e+01 3.286867904663085938e+01 4.465386569499969482e-01 1.178689241409301758e+00 4.875683486461639404e-01 1.699941605329513550e-01
3.064000000000000000e+03 3.870427322387695312e+01 2.955000495910644531e+01 4.478882253170013428e-01 1.316381692886352539e+00 5.292810201644897461e-01 2.576258480548858643e-01
3.065000000000000000e+03 2.658587455749511719e+01 -5.450825691223144531e+00 1.621200323104858398e+00 1.863000869750976562e+00 1.045260429382324219e+00 2.085179805755615234e+00
3.066000000000000000e+03 2.593424224853515625e+01 -2.520386457443237305e+00 3.571768105030059814e-02 2.280079364776611328e+00 6.947391629219055176e-01 1.514463543891906738e+00
3.067000000000000000e+03 2.418936538696289062e+01 -4.298742771148681641e+00 2.393652126193046570e-02 3.279713153839111328e+00 9.910948872566223145e-01 1.607423424720764160e+00
3.068000000000000000e+03 2.469151878356933594e+01 -4.312290191650390625e+00 2.844150960445404053e-01 3.066429853439331055e+00 1.005253553390502930e+00 1.810571551322937012e+00
3.069000000000000000e+03 2.445675659179687500e+01 -5.271054267883300781e+00 7.633315920829772949e-01 3.497834920883178711e+00 1.278349995613098145e+00 2.193201780319213867e+00
3.070000000000000000e+03 2.765656852722167969e+01 -8.361377716064453125e+00 2.481799364089965820e+00 4.064019918441772461e-01 8.664603829383850098e-01 5.150083899497985840e-01
3.071000000000000000e+03 3.020186233520507812e+01 -7.732456207275390625e+00 1.294177770614624023e+00 1.549358516931533813e-01 4.347341060638427734e-01 4.015797674655914307e-01
3.072000000000000000e+03 2.524757194519042969e+01 -1.212798833847045898e+00 -3.175243139266967773e-01 2.171171426773071289e+00 5.560941696166992188e-01 1.164487719535827637e+00
3.073000000000000000e+03 2.525798797607421875e+01 -1.857393503189086914e+00 -2.199527621269226074e-01 2.301611661911010742e+00 6.244976520538330078e-01 1.276569128036499023e+00
3.074000000000000000e+03 2.871891784667968750e+01 -8.959398269653320312e+00 1.693182349205017090e+00 1.530117392539978027e-01 5.538582205772399902e-01 3.969251364469528198e-02
3.075000000000000000e+03 2.974290466308593750e+01 -7.390621185302734375e+00 1.475206375122070312e+00 2.654145658016204834e-01 5.221862792968750000e-01 6.085315942764282227e-01
3.076000000000000000e+03 2.628131103515625000e+01 -1.177597403526306152e+00 -1.708590388298034668e-01 2.101115465164184570e+00 5.790769457817077637e-01 1.298234939575195312e+00
3.077000000000000000e+03 3.211436843872070312e+01 -7.050275325775146484e+00 7.874353528022766113e-01 1.444884389638900757e-01 2.795771360397338867e-01 3.751851022243499756e-01
3.078000000000000000e+03 3.276984024047851562e+01 -8.011734962463378906e+00 5.289241075515747070e-01 2.947434782981872559e-02 1.675195246934890747e-01 7.109799981117248535e-02
3.079000000000000000e+03 3.182839775085449219e+01 -7.931382656097412109e+00 7.719786763191223145e-01 6.099744513630867004e-02 2.498928308486938477e-01 1.682613492012023926e-01
3.080000000000000000e+03 3.965964508056640625e+01 -6.823720335960388184e-01 1.396286338567733765e-01 3.712778389453887939e-01 1.532719433307647705e-01 3.999794423580169678e-01
3.081000000000000000e+03 4.277323150634765625e+01 -3.856523275375366211e+00 -2.652415335178375244e-01 1.435693353414535522e-01 -3.650166094303131104e-02 1.140519976615905762e-01
3.082000000000000000e+03 3.378260040283203125e+01 -8.078963279724121094e+00 3.035216033458709717e-01 2.927180938422679901e-02 9.983802586793899536e-02 1.328753307461738586e-02
3.083000000000000000e+03 6.713206481933593750e+01 9.850942611694335938e+00 1.474849432706832886e-01 5.026201725006103516e+00 1.552106022834777832e+00 -1.119100689888000488e+00
3.084000000000000000e+03 3.594557571411132812e+01 -5.527956485748291016e+00 2.021098881959915161e-01 1.668667197227478027e-01 1.106929779052734375e-01 2.756580114364624023e-01
3.085000000000000000e+03 3.601007080078125000e+01 -6.616367340087890625e+00 9.685003012418746948e-02 1.026343032717704773e-01 5.984529852867126465e-02 1.248271614313125610e-01
3.086000000000000000e+03 4.129233551025390625e+01 -7.065848827362060547e+00 -5.389893651008605957e-01 8.516809344291687012e-02 -1.361463814973831177e-01 -9.560930728912353516e-02
3.087000000000000000e+03 3.337923812866210938e+01 1.634829759597778320e+00 2.721668481826782227e-01 1.017184734344482422e+00 3.868054747581481934e-01 8.889782428741455078e-01
3.088000000000000000e+03 3.999891281127929688e+01 -7.086674213409423828e+00 -4.177281260490417480e-01 8.210910856723785400e-02 -1.006857007741928101e-01 -7.390826940536499023e-02
3.089000000000000000e+03 3.864636230468750000e+01 -7.319939613342285156e+00 -3.054635822772979736e-01 6.545963138341903687e-02 -7.200118899345397949e-02 -6.748653203248977661e-02
3.090000000000000000e+03 6.136161422729492188e+01 4.448383808135986328e+00 2.570315897464752197e-01 2.648968935012817383e+00 8.718001246452331543e-01 -1.198013782501220703e+00
3.091000000000000000e+03 4.534922790527343750e+01 -2.702134609222412109e+00 -2.646659314632415771e-01 1.310306489467620850e-01 -4.009058699011802673e-02 1.340717375278472900e-01
3.092000000000000000e+03 3.836694335937500000e+01 5.706402063369750977e-01 2.121104151010513306e-01 5.303885340690612793e-01 2.227496802806854248e-01 5.265476107597351074e-01
3.093000000000000000e+03 2.802106094360351562e+01 2.826467156410217285e-01 -3.973767161369323730e-02 1.761445283889770508e+00 5.165122747421264648e-01 1.166993141174316406e+00
3.094000000000000000e+03 6.700163269042968750e+01 1.176665973663330078e+01 2.524225413799285889e-01 4.935959339141845703e+00 1.556514501571655273e+00 -1.016270756721496582e+00
3.095000000000000000e+03 3.826428985595703125e+01 -6.317063808441162109e+00 -1.566564738750457764e-01 1.126072257757186890e-01 -1.321477536112070084e-02 5.674609914422035217e-02
3.096000000000000000e+03 3.359023284912109375e+01 2.158607101440429688e+01 2.486653327941894531e-01 1.117641210556030273e+00 4.098919630050659180e-01 3.185167610645294189e-01
3.097000000000000000e+03 3.587917709350585938e+01 1.770427465438842773e+00 2.721091508865356445e-01 7.854556441307067871e-01 3.172694444656372070e-01 7.369481921195983887e-01
3.098000000000000000e+03 4.174719619750976562e+01 -3.486611843109130859e+00 -1.699868887662887573e-01 1.750366836786270142e-01 1.514938427135348320e-03 1.706722378730773926e-01
3.099000000000000000e+03 6.508619689941406250e+01 3.126952886581420898e+00 -1.644323170185089111e-01 4.162527084350585938e+00 1.199428439140319824e+00 -1.831254601478576660e+00
3.100000000000000000e+03 6.490700531005859375e+01 4.450270652770996094e+00 -7.420685142278671265e-02 4.173349857330322266e+00 1.229742884635925293e+00 -1.626447916030883789e+00
3.101000000000000000e+03 4.332713699340820312e+01 -4.666329860687255859e+00 -3.923169970512390137e-01 1.285157352685928345e-01 -7.914037257432937622e-02 5.144108831882476807e-02
3.102000000000000000e+03 4.448712921142578125e+01 -3.491342544555664062e+00 -3.242608606815338135e-01 1.299943029880523682e-01 -5.827996507287025452e-02 1.003136560320854187e-01
3.103000000000000000e+03 6.367141342163085938e+01 7.937467098236083984e+00 2.623344659805297852e-01 3.939650774002075195e+00 1.260595560073852539e+00 -1.206459045410156250e+00
3.104000000000000000e+03 4.084057617187500000e+01 -2.026620388031005859e+00 1.774137653410434723e-02 2.552409172058105469e-01 8.189468830823898315e-02 2.835318744182586670e-01
3.105000000000000000e+03 1.369239044189453125e+01 2.609384346008300781e+01 3.225366771221160889e-02 6.513555068522691727e-03 1.163016725331544876e-02 2.366251349449157715e-01
3.106000000000000000e+03 3.312664794921875000e+01 1.998874092102050781e+01 2.164965122938156128e-01 1.099265694618225098e+00 3.947286605834960938e-01 3.693679869174957275e-01
3.107000000000000000e+03 6.768129730224609375e+01 2.037814140319824219e+00 -7.572826743125915527e-01 5.877891063690185547e+00 1.536182522773742676e+00 -1.832677006721496582e+00
3.108000000000000000e+03 6.640879821777343750e+01 3.224062681198120117e+00 -4.173727929592132568e-01 5.011224269866943359e+00 1.378155350685119629e+00 -1.802789092063903809e+00
3.109000000000000000e+03 6.453207397460937500e+01 7.102300167083740234e+00 1.445140242576599121e-01 4.152390003204345703e+00 1.289071202278137207e+00 -1.346470355987548828e+00
3.110000000000000000e+03 3.696854019165039062e+01 1.689375758171081543e+00 2.523964643478393555e-01 7.102472186088562012e-01 2.887931168079376221e-01 6.561350226402282715e-01
3.111000000000000000e+03 6.365144729614257812e+01 4.164899826049804688e+00 8.910474926233291626e-02 3.542718887329101562e+00 1.089547038078308105e+00 -1.508471727371215820e+00
3.112000000000000000e+03 6.348505401611328125e+01 2.243443107604980469e+01 3.716636300086975098e-01 4.193348884582519531e+00 1.369503736495971680e+00 -5.747296810150146484e-01
3.113000000000000000e+03 1.962726211547851562e+01 2.679940795898437500e+01 1.634624451398849487e-01 1.766747832298278809e-01 1.020411700010299683e-01 3.098063766956329346e-01
3.114000000000000000e+03 1.755894851684570312e+01 3.000873184204101562e+01 1.314041763544082642e-01 1.050963997840881348e-01 7.095017284154891968e-02 2.325810492038726807e-01
3.115000000000000000e+03 3.009357261657714844e+01 2.748182106018066406e+01 2.860594987869262695e-01 7.556542754173278809e-01 3.125141263008117676e-01 2.004857361316680908e-01
3.116000000000000000e+03 2.574763679504394531e+01 2.486526679992675781e+01 2.368058860301971436e-01 4.105604887008666992e-01 1.942099183797836304e-01 2.328914850950241089e-01
3.117000000000000000e+03 2.706217384338378906e+01 -6.701143264770507812e+00 2.450864076614379883e+00 1.078655004501342773e+00 1.058855772018432617e+00 1.654032945632934570e+00
3.118000000000000000e+03 2.548598670959472656e+01 -5.748564720153808594e+00 1.738783121109008789e+00 2.577950000762939453e+00 1.295019865036010742e+00 2.430485963821411133e+00
3.119000000000000000e+03 2.526340866088867188e+01 -2.535691976547241211e+00 -1.217469424009323120e-01 2.438719749450683594e+00 6.950918436050415039e-01 1.414548873901367188e+00
3.120000000000000000e+03 2.736533355712890625e+01 -7.050708770751953125e+00 2.488526821136474609e+00 8.448572158813476562e-01 1.000015139579772949e+00 1.391667008399963379e+00
3.121000000000000000e+03 2.822798156738281250e+01 -7.548000812530517578e+00 2.126066684722900391e+00 4.492996931076049805e-01 7.726098895072937012e-01 8.384376764297485352e-01
3.122000000000000000e+03 2.692725372314453125e+01 -6.275750160217285156e+00 2.198918819427490234e+00 1.343667507171630859e+00 1.062775850296020508e+00 1.855399608612060547e+00
3.123000000000000000e+03 2.465834808349609375e+01 -2.588144779205322266e+00 -2.443408071994781494e-01 2.533878564834594727e+00 6.868613362312316895e-01 1.280664801597595215e+00
3.124000000000000000e+03 2.502445220947265625e+01 -4.992619514465332031e+00 8.995487093925476074e-01 3.011414527893066406e+00 1.173288941383361816e+00 2.209057569503784180e+00
3.125000000000000000e+03 2.753841781616210938e+01 -1.983414053916931152e+00 2.016034573316574097e-01 1.849803686141967773e+00 6.154221296310424805e-01 1.489651560783386230e+00
3.126000000000000000e+03 2.779526138305664062e+01 -7.309070110321044922e+00 2.333990097045898438e+00 6.005639433860778809e-01 8.803661465644836426e-01 1.091540813446044922e+00
3.127000000000000000e+03 2.845231437683105469e+01 -8.182965278625488281e+00 2.040145635604858398e+00 2.776706814765930176e-01 6.953448653221130371e-01 4.844937622547149658e-01
3.128000000000000000e+03 3.040959739685058594e+01 -7.052611351013183594e+00 1.239826202392578125e+00 2.475797384977340698e-01 4.462217688560485840e-01 6.139112114906311035e-01
3.129000000000000000e+03 2.877180099487304688e+01 2.252739295363426208e-02 6.679959595203399658e-02 1.633702874183654785e+00 5.101507306098937988e-01 1.187027931213378906e+00
3.130000000000000000e+03 3.228187942504882812e+01 1.742050528526306152e+00 2.460868507623672485e-01 1.137091398239135742e+00 4.149534702301025391e-01 9.409483671188354492e-01
3.131000000000000000e+03 2.734956932067871094e+01 -6.082926273345947266e+00 1.992621541023254395e+00 1.174943089485168457e+00 9.502694010734558105e-01 1.713979601860046387e+00
3.132000000000000000e+03 2.846215820312500000e+01 -2.071811676025390625e+00 3.374431133270263672e-01 1.603092551231384277e+00 5.821606516838073730e-01 1.447320699691772461e+00
3.133000000000000000e+03 3.304174804687500000e+01 -7.119217395782470703e+00 5.546545386314392090e-01 1.077673286199569702e-01 1.987265497446060181e-01 2.540665268898010254e-01
3.134000000000000000e+03 3.011863136291503906e+01 -6.638406515121459961e-01 2.563443183898925781e-01 1.364753365516662598e+00 4.863293170928955078e-01 1.197617530822753906e+00
3.135000000000000000e+03 3.396609497070312500e+01 -7.213734149932861328e+00 3.703652620315551758e-01 6.840769946575164795e-02 1.316318809986114502e-01 1.508954912424087524e-01
3.136000000000000000e+03 3.489413833618164062e+01 -8.101881027221679688e+00 5.223599821329116821e-02 3.712059929966926575e-02 2.680697850883007050e-02 -5.126018449664115906e-02
3.137000000000000000e+03 3.627631759643554688e+01 -3.334955930709838867e+00 2.557354867458343506e-01 3.434131741523742676e-01 1.797446012496948242e-01 4.837217330932617188e-01
3.138000000000000000e+03 2.989945030212402344e+01 5.749609470367431641e-01 1.431740820407867432e-01 1.456945657730102539e+00 4.800359010696411133e-01 1.103149533271789551e+00
3.139000000000000000e+03 2.902235794067382812e+01 8.342843651771545410e-01 4.712669923901557922e-02 1.601708889007568359e+00 4.946506917476654053e-01 1.091923952102661133e+00
3.140000000000000000e+03 6.676060485839843750e+01 7.086956501007080078e+00 -1.636079326272010803e-02 4.911792755126953125e+00 1.468629479408264160e+00 -1.346004009246826172e+00
3.141000000000000000e+03 6.334472274780273438e+01 5.949537754058837891e+00 1.800520569086074829e-01 3.598914861679077148e+00 1.133689999580383301e+00 -1.350200295448303223e+00
3.142000000000000000e+03 4.217322921752929688e+01 -2.181348562240600586e+00 -5.521826073527336121e-02 2.027747780084609985e-01 4.426695778965950012e-02 2.253507077693939209e-01
3.143000000000000000e+03 3.961928558349609375e+01 -1.984685063362121582e+00 8.448418229818344116e-02 2.931912541389465332e-01 1.133026331663131714e-01 3.488295972347259521e-01
3.144000000000000000e+03 3.140098762512207031e+01 5.130061507225036621e-01 2.435448020696640015e-01 1.213694810867309570e+00 4.371718764305114746e-01 1.038615226745605469e+00
3.145000000000000000e+03 3.813670730590820312e+01 -5.381431102752685547e+00 -3.306363150477409363e-02 1.632925719022750854e-01 3.906868025660514832e-02 1.679890751838684082e-01
3.146000000000000000e+03 3.709509277343750000e+01 -5.439849376678466797e+00 4.607616737484931946e-02 1.590994298458099365e-01 6.155268102884292603e-02 2.027741074562072754e-01
3.147000000000000000e+03 3.231536102294921875e+01 6.580191254615783691e-01 2.746741175651550293e-01 1.086796641349792480e+00 4.084412157535552979e-01 9.705511331558227539e-01
3.148000000000000000e+03 4.009720611572265625e+01 -5.839034080505371094e+00 -2.872345447540283203e-01 1.147253885865211487e-01 -5.175274610519409180e-02 3.544556722044944763e-02
3.149000000000000000e+03 3.839544677734375000e+01 -3.224140882492065430e+00 9.312651306390762329e-02 2.614962160587310791e-01 1.063868179917335510e-01 3.406245410442352295e-01
3.150000000000000000e+03 4.130229568481445312e+01 -5.897802829742431641e+00 -3.968743383884429932e-01 1.044844388961791992e-01 -8.771697431802749634e-02 -3.833989612758159637e-03
3.151000000000000000e+03 6.641521453857421875e+01 5.804522037506103516e+00 -1.267543137073516846e-01 4.891928672790527344e+00 1.429552197456359863e+00 -1.480564475059509277e+00
3.152000000000000000e+03 3.479696273803710938e+01 2.317732810974121094e+00 2.734405994415283203e-01 9.107758998870849609e-01 3.552649617195129395e-01 8.068062067031860352e-01
3.153000000000000000e+03 3.845296096801757812e+01 -7.488772273063659668e-01 1.875844448804855347e-01 4.292907416820526123e-01 1.850625574588775635e-01 4.815663993358612061e-01
3.154000000000000000e+03 3.712769699096679688e+01 3.899165987968444824e-01 2.450484931468963623e-01 5.950853824615478516e-01 2.520401477813720703e-01 6.160355210304260254e-01
3.155000000000000000e+03 3.631542205810546875e+01 2.302002716064453125e+01 3.055075407028198242e-01 1.291017413139343262e+00 4.789575040340423584e-01 3.285596370697021484e-01
3.156000000000000000e+03 6.395202636718750000e+01 2.131142997741699219e+01 3.609874546527862549e-01 4.277356147766113281e+00 1.391503095626831055e+00 -6.085200309753417969e-01
3.157000000000000000e+03 3.827257919311523438e+01 -4.354239463806152344e+00 1.835488341748714447e-02 2.020991295576095581e-01 6.613620370626449585e-02 2.476484775543212891e-01
3.158000000000000000e+03 1.533192825317382812e+01 2.987317657470703125e+01 8.718706667423248291e-02 1.619367860257625580e-02 3.101422265172004700e-02 2.181486487388610840e-01
3.159000000000000000e+03 3.036740112304687500e+01 2.404918861389160156e+01 2.328289449214935303e-01 7.970784306526184082e-01 3.089722096920013428e-01 2.251517623662948608e-01
3.160000000000000000e+03 6.535806274414062500e+01 2.576036834716796875e+01 2.848972678184509277e-01 4.507020950317382812e+00 1.437575459480285645e+00 -4.916954040527343750e-01
3.161000000000000000e+03 2.277692222595214844e+01 2.852098846435546875e+01 2.290117293596267700e-01 2.985165119171142578e-01 1.582584679126739502e-01 2.365032285451889038e-01
3.162000000000000000e+03 2.645701217651367188e+01 -5.877270221710205078e+00 1.948408722877502441e+00 1.780482053756713867e+00 1.118667244911193848e+00 2.115961313247680664e+00
3.163000000000000000e+03 2.782546806335449219e+01 -6.636328220367431641e+00 2.080636262893676758e+00 8.297867774963378906e-01 8.731269240379333496e-01 1.411157608032226562e+00
3.164000000000000000e+03 2.449594688415527344e+01 -3.529685974121093750e+00 -8.893837034702301025e-02 2.855053663253784180e+00 8.298345804214477539e-01 1.454284667968750000e+00
3.165000000000000000e+03 2.488730430603027344e+01 -3.750670194625854492e+00 8.168404549360275269e-02 2.853869438171386719e+00 8.806660175323486328e-01 1.668589711189270020e+00
3.166000000000000000e+03 2.665150260925292969e+01 -3.080744266510009766e+00 3.394453823566436768e-01 2.114616870880126953e+00 7.362186908721923828e-01 1.689790368080139160e+00
3.167000000000000000e+03 2.514196014404296875e+01 -4.432498931884765625e+00 5.120285749435424805e-01 2.851335763931274414e+00 1.009009242057800293e+00 1.963688611984252930e+00
3.168000000000000000e+03 2.754909515380859375e+01 -6.360183238983154297e+00 2.057680606842041016e+00 1.012385725975036621e+00 9.210199117660522461e-01 1.573147416114807129e+00
3.169000000000000000e+03 2.672772979736328125e+01 -2.013998746871948242e+00 5.612548813223838806e-02 2.063167095184326172e+00 6.357877254486083984e-01 1.473341464996337891e+00
3.170000000000000000e+03 2.865989112854003906e+01 -7.748795032501220703e+00 1.913985252380371094e+00 3.215048611164093018e-01 6.706470251083374023e-01 6.503327488899230957e-01
3.171000000000000000e+03 2.795244026184082031e+01 -7.957711696624755859e+00 2.304414033889770508e+00 3.953772187232971191e-01 8.099373579025268555e-01 7.025828361511230469e-01
3.172000000000000000e+03 2.948759078979492188e+01 -2.638203203678131104e-01 1.648207604885101318e-01 1.490278363227844238e+00 4.965297281742095947e-01 1.197697520256042480e+00
3.173000000000000000e+03 2.671699142456054688e+01 -1.295044660568237305e+00 -5.670323222875595093e-02 2.007807731628417969e+00 5.853313207626342773e-01 1.354619503021240234e+00
3.174000000000000000e+03 2.894075775146484375e+01 -7.402736186981201172e+00 1.775167226791381836e+00 3.670530617237091064e-01 6.426661014556884766e-01 7.611473798751831055e-01
3.175000000000000000e+03 3.122630882263183594e+01 -7.016556262969970703e+00 1.023236989974975586e+00 1.950269639492034912e-01 3.654791712760925293e-01 5.031036138534545898e-01
3.176000000000000000e+03 3.265614700317382812e+01 -5.198770523071289062e+00 6.797714233398437500e-01 3.563148975372314453e-01 3.108259141445159912e-01 6.705548167228698730e-01
3.177000000000000000e+03 2.847163772583007812e+01 -7.866084575653076172e-01 1.231292337179183960e-01 1.661992549896240234e+00 5.355365276336669922e-01 1.299029588699340820e+00
3.178000000000000000e+03 3.443825531005859375e+01 1.315042972564697266e+00 2.860585451126098633e-01 8.815048336982727051e-01 3.502690196037292480e-01 8.242536783218383789e-01
3.179000000000000000e+03 3.433184051513671875e+01 -6.413578033447265625e+00 3.616603314876556396e-01 1.441871076822280884e-01 1.517542302608489990e-01 2.834286987781524658e-01
3.180000000000000000e+03 3.477589035034179688e+01 -5.467583179473876953e+00 3.628071546554565430e-01 2.194866985082626343e-01 1.746881604194641113e-01 3.828977644443511963e-01
3.181000000000000000e+03 3.064536094665527344e+01 1.158129982650279999e-02 2.310296148061752319e-01 1.303862571716308594e+00 4.604676663875579834e-01 1.105436086654663086e+00
3.182000000000000000e+03 2.926009368896484375e+01 -2.417213678359985352e+00 4.830145239830017090e-01 1.371992945671081543e+00 5.565022230148315430e-01 1.401238679885864258e+00
3.183000000000000000e+03 3.932256317138671875e+01 -4.427184581756591797e+00 -8.020275831222534180e-02 1.747055947780609131e-01 2.835085429251194000e-02 1.915394365787506104e-01
3.184000000000000000e+03 3.846390151977539062e+01 -2.018734931945800781e+00 1.425008326768875122e-01 3.417093455791473389e-01 1.452630609273910522e-01 4.143859446048736572e-01
3.185000000000000000e+03 3.904909515380859375e+01 -5.570749282836914062e+00 -1.650938093662261963e-01 1.209925711154937744e-01 -1.323037222027778625e-02 9.171865880489349365e-02
3.186000000000000000e+03 4.062540435791015625e+01 -3.312600851058959961e+00 -7.773020118474960327e-02 2.018478512763977051e-01 3.723529726266860962e-02 2.209789901971817017e-01
3.187000000000000000e+03 3.506011962890625000e+01 -2.229914069175720215e-02 3.043476343154907227e-01 7.197148799896240234e-01 3.072187602519989014e-01 7.691931128501892090e-01
3.188000000000000000e+03 3.479559707641601562e+01 -2.252006292343139648e+00 3.618534207344055176e-01 5.620657205581665039e-01 2.771757245063781738e-01 7.165499925613403320e-01
3.189000000000000000e+03 4.037942504882812500e+01 -4.567332744598388672e+00 -1.762455999851226807e-01 1.593915820121765137e-01 -5.056208465248346329e-03 1.360989511013031006e-01
3.190000000000000000e+03 6.296544265747070312e+01 4.965113639831542969e+00 1.579526215791702271e-01 3.342077255249023438e+00 1.050009012222290039e+00 -1.395174503326416016e+00
3.191000000000000000e+03 2.553689193725585938e+01 3.028365516662597656e+01 2.711291611194610596e-01 4.608243703842163086e-01 2.195860594511032104e-01 1.906122118234634399e-01
3.192000000000000000e+03 2.559122085571289062e+01 -3.422505140304565430e+00 1.666419953107833862e-01 2.525750637054443359e+00 8.077178001403808594e-01 1.686749935150146484e+00
3.193000000000000000e+03 2.817594528198242188e+01 -6.898328781127929688e+00 2.056481838226318359e+00 6.417759656906127930e-01 8.094773292541503906e-01 1.191326975822448730e+00
3.194000000000000000e+03 2.516257095336914062e+01 -3.180825948715209961e+00 5.997681058943271637e-03 2.579251527786254883e+00 7.755748033523559570e-01 1.539826869964599609e+00
3.195000000000000000e+03 2.691327285766601562e+01 -5.483103752136230469e+00 1.672227621078491211e+00 1.643308281898498535e+00 9.946607947349548340e-01 1.998421669006347656e+00
3.196000000000000000e+03 2.567651367187500000e+01 -4.093914031982421875e+00 5.100772380828857422e-01 2.543726682662963867e+00 9.161411523818969727e-01 1.901160836219787598e+00
3.197000000000000000e+03 2.916983604431152344e+01 -7.760193824768066406e+00 1.688161015510559082e+00 2.573579549789428711e-01 5.836557149887084961e-01 5.532962679862976074e-01
3.198000000000000000e+03 2.804944419860839844e+01 -1.479877591133117676e+00 1.673016101121902466e-01 1.744035840034484863e+00 5.734012126922607422e-01 1.397588729858398438e+00
3.199000000000000000e+03 2.966096496582031250e+01 -6.035172462463378906e+00 1.343259096145629883e+00 5.491659641265869141e-01 5.677275061607360840e-01 1.040491700172424316e+00
3.200000000000000000e+03 2.894914627075195312e+01 -6.749217033386230469e+00 1.735611438751220703e+00 5.207226276397705078e-01 6.769002079963684082e-01 1.034209370613098145e+00
3.201000000000000000e+03 2.713501930236816406e+01 -1.587766051292419434e+00 4.182248190045356750e-02 1.953811287879943848e+00 5.986901521682739258e-01 1.413573145866394043e+00
3.202000000000000000e+03 2.638209533691406250e+01 -1.664684176445007324e+00 -5.236122384667396545e-02 2.109872102737426758e+00 6.172532439231872559e-01 1.399832010269165039e+00
3.203000000000000000e+03 3.044268798828125000e+01 -6.313683509826660156e+00 1.196842312812805176e+00 3.834776580333709717e-01 4.740959703922271729e-01 8.162183165550231934e-01
3.204000000000000000e+03 3.139612960815429688e+01 -6.132812500000000000e+00 9.551464915275573730e-01 3.207226395606994629e-01 3.827607333660125732e-01 6.930021643638610840e-01
3.205000000000000000e+03 3.237797927856445312e+01 -6.142482280731201172e+00 7.460459470748901367e-01 2.500417828559875488e-01 2.988263070583343506e-01 5.499005317687988281e-01
3.206000000000000000e+03 3.171468925476074219e+01 -3.703431487083435059e-01 3.178696036338806152e-01 1.099697589874267578e+00 4.252701699733734131e-01 1.059222102165222168e+00
3.207000000000000000e+03 3.438165283203125000e+01 -3.181220531463623047e+00 4.138051271438598633e-01 4.829470217227935791e-01 2.690256536006927490e-01 6.949346661567687988e-01
3.208000000000000000e+03 2.915321350097656250e+01 -1.048318505287170410e+00 2.249090969562530518e-01 1.522960424423217773e+00 5.243608355522155762e-01 1.293981432914733887e+00
3.209000000000000000e+03 3.544561767578125000e+01 8.662511110305786133e-01 2.782575488090515137e-01 7.672730684280395508e-01 3.136591911315917969e-01 7.533435821533203125e-01
3.210000000000000000e+03 3.234097671508789062e+01 -2.547168135643005371e-01 3.179449737071990967e-01 1.011371374130249023e+00 3.987949192523956299e-01 9.926794767379760742e-01
3.211000000000000000e+03 3.504121398925781250e+01 -4.376256465911865234e+00 3.454565703868865967e-01 3.118309676647186279e-01 1.971862614154815674e-01 4.994571208953857422e-01
3.212000000000000000e+03 3.719612121582031250e+01 -4.378966331481933594e+00 1.373326778411865234e-01 2.226318567991256714e-01 1.079893559217453003e-01 3.136208355426788330e-01
3.213000000000000000e+03 3.731434631347656250e+01 -3.273983001708984375e+00 1.698201149702072144e-01 3.023120760917663574e-01 1.416396647691726685e-01 4.099908471107482910e-01
3.214000000000000000e+03 3.113699531555175781e+01 -7.680537700653076172e-01 3.294909298419952393e-01 1.150194764137268066e+00 4.439057111740112305e-01 1.111238956451416016e+00
3.215000000000000000e+03 3.399397277832031250e+01 -4.236877441406250000e+00 4.748857021331787109e-01 3.914017975330352783e-01 2.598862349987030029e-01 6.300729513168334961e-01
3.216000000000000000e+03 3.368889999389648438e+01 -5.277799606323242188e+00 5.336861610412597656e-01 2.802096903324127197e-01 2.441687583923339844e-01 5.343954563140869141e-01
3.217000000000000000e+03 3.384748840332031250e+01 -6.489393115043640137e-01 3.433488905429840088e-01 7.945311069488525391e-01 3.413639962673187256e-01 8.657975792884826660e-01
3.218000000000000000e+03 3.736977386474609375e+01 -2.111928939819335938e+00 2.078192383050918579e-01 3.874893188476562500e-01 1.785925626754760742e-01 4.900295436382293701e-01
3.219000000000000000e+03 3.622710418701171875e+01 -1.121676445007324219e+00 2.737700939178466797e-01 5.464445948600769043e-01 2.460644096136093140e-01 6.361536979675292969e-01
3.220000000000000000e+03 3.323027038574218750e+01 5.742177367210388184e-01 2.941363751888275146e-01 9.610896706581115723e-01 3.765678107738494873e-01 9.124222993850708008e-01
3.221000000000000000e+03 6.357023620605468750e+01 2.876753044128417969e+01 3.319306075572967529e-01 4.148492336273193359e+00 1.344126820564270020e+00 -4.436659812927246094e-01
3.222000000000000000e+03 3.306914520263671875e+01 2.421284484863281250e+01 2.695346176624298096e-01 1.020800948143005371e+00 3.871006667613983154e-01 2.551090419292449951e-01
3.223000000000000000e+03 3.449994659423828125e+01 2.326478004455566406e+01 2.853639721870422363e-01 1.164378881454467773e+00 4.349228739738464355e-01 3.009376525878906250e-01
3.224000000000000000e+03 2.824413108825683594e+01 -6.233459472656250000e+00 1.794410109519958496e+00 8.269763588905334473e-01 7.864159345626831055e-01 1.374925017356872559e+00
3.225000000000000000e+03 2.928328514099121094e+01 -6.344610691070556641e+00 1.552249312400817871e+00 5.558681488037109375e-01 6.324352622032165527e-01 1.066447973251342773e+00
3.226000000000000000e+03 2.971638488769531250e+01 -6.474041461944580078e+00 1.441607832908630371e+00 4.353133440017700195e-01 5.630763173103332520e-01 9.211639761924743652e-01
3.227000000000000000e+03 2.654705429077148438e+01 -2.490051031112670898e+00 1.292127072811126709e-01 2.125096797943115234e+00 6.762928366661071777e-01 1.552823781967163086e+00
3.228000000000000000e+03 2.705641174316406250e+01 -2.355013370513916016e+00 2.110371440649032593e-01 1.986129522323608398e+00 6.591500043869018555e-01 1.561993479728698730e+00
3.229000000000000000e+03 2.863152885437011719e+01 -5.841405391693115234e+00 1.568254470825195312e+00 8.315863609313964844e-01 7.199522852897644043e-01 1.370643734931945801e+00
3.230000000000000000e+03 2.895513534545898438e+01 -6.095616340637207031e+00 1.566488146781921387e+00 6.902620792388916016e-01 6.770250201225280762e-01 1.204618096351623535e+00
3.231000000000000000e+03 2.651338005065917969e+01 -4.475835800170898438e+00 9.552688598632812500e-01 2.056284904479980469e+00 9.034661650657653809e-01 1.954000711441040039e+00
3.232000000000000000e+03 3.163856887817382812e+01 -5.175313472747802734e+00 8.536908626556396484e-01 4.543352127075195312e-01 3.924078345298767090e-01 8.410610556602478027e-01
3.233000000000000000e+03 3.611194610595703125e+01 -4.416060924530029297e+00 2.424254119396209717e-01 2.599542140960693359e-01 1.507138907909393311e-01 4.016636013984680176e-01
3.234000000000000000e+03 2.974805450439453125e+01 -1.235761642456054688e+00 3.079513013362884521e-01 1.364519953727722168e+00 5.017414093017578125e-01 1.260144472122192383e+00
3.235000000000000000e+03 3.601312637329101562e+01 3.103136271238327026e-02 2.752708494663238525e-01 6.613616943359375000e-01 2.809897661209106445e-01 6.907250285148620605e-01
3.236000000000000000e+03 3.347646713256835938e+01 -1.586835861206054688e+00 3.921763300895690918e-01 7.453549504280090332e-01 3.412593901157379150e-01 8.822894692420959473e-01
3.237000000000000000e+03 3.635767745971679688e+01 -2.243863582611083984e+00 2.673676609992980957e-01 4.299249053001403809e-01 2.091877758502960205e-01 5.616937875747680664e-01
3.238000000000000000e+03 3.241674423217773438e+01 -2.296254873275756836e+00 4.655569195747375488e-01 8.000825643539428711e-01 3.796918392181396484e-01 9.758350253105163574e-01
3.239000000000000000e+03 3.059288406372070312e+01 -1.225098371505737305e+00 3.494129776954650879e-01 1.205428838729858398e+00 4.664525389671325684e-01 1.170992136001586914e+00
3.240000000000000000e+03 3.077622032165527344e+01 -5.030379295349121094e+00 9.765110015869140625e-01 5.826434493064880371e-01 4.677463471889495850e-01 1.009123444557189941e+00
3.241000000000000000e+03 3.417293167114257812e+01 -1.901719450950622559e+00 3.864533007144927979e-01 6.214599013328552246e-01 3.023739755153656006e-01 7.919591069221496582e-01
3.242000000000000000e+03 3.115131759643554688e+01 -2.470116138458251953e+00 5.312162041664123535e-01 9.722499847412109375e-01 4.510398507118225098e-01 1.146426796913146973e+00
3.243000000000000000e+03 3.293139266967773438e+01 -4.180891036987304688e+00 6.016080975532531738e-01 4.752067625522613525e-01 3.230444490909576416e-01 7.780526876449584961e-01
3.244000000000000000e+03 6.202246856689453125e+01 3.228024291992187500e+01 3.717883825302124023e-01 3.922782421112060547e+00 1.288371205329895020e+00 -3.569939732551574707e-01
3.245000000000000000e+03 3.353287887573242188e+01 2.723956680297851562e+01 3.148448169231414795e-01 1.034376978874206543e+00 4.047665297985076904e-01 2.287202328443527222e-01
3.246000000000000000e+03 2.551930236816406250e+01 -5.060931205749511719e+00 1.094603300094604492e+00 2.654473781585693359e+00 1.124723196029663086e+00 2.208085298538208008e+00
3.247000000000000000e+03 2.553785514831542969e+01 -4.508518695831298828e+00 6.875703930854797363e-01 2.643841266632080078e+00 9.994235038757324219e-01 2.023301124572753906e+00
3.248000000000000000e+03 2.760494613647460938e+01 -4.444490432739257812e+00 1.088976502418518066e+00 1.580489516258239746e+00 8.008397817611694336e-01 1.807528972625732422e+00
3.249000000000000000e+03 2.531650543212890625e+01 -3.918986797332763672e+00 3.122648894786834717e-01 2.684724807739257812e+00 8.990969061851501465e-01 1.792477846145629883e+00
3.250000000000000000e+03 2.597033882141113281e+01 -3.683809280395507812e+00 4.208244979381561279e-01 2.384641647338867188e+00 8.416398167610168457e-01 1.810692310333251953e+00
3.251000000000000000e+03 2.935326576232910156e+01 -5.713085651397705078e+00 1.331918358802795410e+00 6.924175620079040527e-01 6.073007583618164062e-01 1.195655226707458496e+00
3.252000000000000000e+03 3.025098991394042969e+01 -5.685410499572753906e+00 1.148074984550476074e+00 5.317489504814147949e-01 5.039471387863159180e-01 9.962539076805114746e-01
3.253000000000000000e+03 2.683232307434082031e+01 -3.666045427322387695e+00 5.873458981513977051e-01 2.031972408294677734e+00 7.857954502105712891e-01 1.793578624725341797e+00
3.254000000000000000e+03 2.604043579101562500e+01 -3.169416666030883789e+00 2.140823155641555786e-01 2.345733165740966797e+00 7.679446339607238770e-01 1.681838512420654297e+00
3.255000000000000000e+03 2.910432815551757812e+01 -3.228873491287231445e+00 6.681917309761047363e-01 1.281458616256713867e+00 5.848951339721679688e-01 1.447381734848022461e+00
3.256000000000000000e+03 2.908734321594238281e+01 -1.801785230636596680e+00 3.436772823333740234e-01 1.475161671638488770e+00 5.456516742706298828e-01 1.371405363082885742e+00
3.257000000000000000e+03 3.190321540832519531e+01 -4.176172733306884766e+00 7.127173542976379395e-01 5.970954895019531250e-01 3.929438591003417969e-01 9.370966553688049316e-01
3.258000000000000000e+03 3.370010375976562500e+01 -2.797653913497924805e+00 4.615865945816040039e-01 5.751349925994873047e-01 3.110164701938629150e-01 7.984936833381652832e-01
3.259000000000000000e+03 3.311837005615234375e+01 -2.461323499679565430e+00 4.698748290538787842e-01 6.966276168823242188e-01 3.499507308006286621e-01 8.973374366760253906e-01
3.260000000000000000e+03 2.787095260620117188e+01 -2.505491971969604492e+00 3.600921630859375000e-01 1.753521680831909180e+00 6.340841650962829590e-01 1.546609997749328613e+00
3.261000000000000000e+03 3.210492324829101562e+01 -9.920212626457214355e-01 3.756258487701416016e-01 9.729140996932983398e-01 4.045619666576385498e-01 1.025218129158020020e+00
3.262000000000000000e+03 3.154205322265625000e+01 -1.491658926010131836e+00 4.098549485206604004e-01 9.978135824203491211e-01 4.223005771636962891e-01 1.082865476608276367e+00
3.263000000000000000e+03 3.533230972290039062e+01 -1.544265627861022949e+00 3.130590021610260010e-01 5.814767479896545410e-01 2.683607339859008789e-01 6.947743296623229980e-01
3.264000000000000000e+03 3.305509185791015625e+01 -4.057343304157257080e-01 3.295638561248779297e-01 9.172865152359008789e-01 3.740551173686981201e-01 9.342860579490661621e-01
3.265000000000000000e+03 3.099216842651367188e+01 -4.182720661163330078e+00 7.945461273193359375e-01 7.104873061180114746e-01 4.515100121498107910e-01 1.075408458709716797e+00
3.266000000000000000e+03 3.399492263793945312e+01 3.129850006103515625e+01 3.942936062812805176e-01 1.035527229309082031e+00 4.289462268352508545e-01 1.870041042566299438e-01
3.267000000000000000e+03 6.131076431274414062e+01 2.975664329528808594e+01 3.786262273788452148e-01 3.788459777832031250e+00 1.250125765800476074e+00 -4.294292032718658447e-01
3.268000000000000000e+03 2.668775177001953125e+01 -4.868976593017578125e+00 1.180428385734558105e+00 1.946458578109741211e+00 9.380660653114318848e-01 1.999123454093933105e+00
3.269000000000000000e+03 2.630884742736816406e+01 -4.009730339050292969e+00 6.459339857101440430e-01 2.264125108718872070e+00 8.730177283287048340e-01 1.915611743927001953e+00
3.270000000000000000e+03 2.685482978820800781e+01 -5.173785686492919922e+00 1.436169266700744629e+00 1.779444575309753418e+00 9.646841287612915039e-01 2.004685163497924805e+00
3.271000000000000000e+03 2.806213378906250000e+01 -4.175174713134765625e+00 9.473520517349243164e-01 1.445665478706359863e+00 7.179052829742431641e-01 1.671206235885620117e+00
3.272000000000000000e+03 2.966483497619628906e+01 -4.509324073791503906e+00 1.000672698020935059e+00 9.157292842864990234e-01 5.749205946922302246e-01 1.309984683990478516e+00
3.273000000000000000e+03 2.832235908508300781e+01 -5.590651988983154297e+00 1.527907848358154297e+00 1.004405379295349121e+00 7.596939802169799805e-01 1.510266184806823730e+00
3.274000000000000000e+03 2.860869598388671875e+01 -5.228024482727050781e+00 1.338558435440063477e+00 1.010399580001831055e+00 7.046874165534973145e-01 1.491203784942626953e+00
3.275000000000000000e+03 2.773098945617675781e+01 -5.323448657989501953e+00 1.494940280914306641e+00 1.289686918258666992e+00 8.353881239891052246e-01 1.728852987289428711e+00
3.276000000000000000e+03 3.014155197143554688e+01 -3.682850837707519531e+00 7.796010375022888184e-01 9.614199399948120117e-01 5.223063230514526367e-01 1.273667097091674805e+00
3.277000000000000000e+03 2.930865669250488281e+01 -4.984843730926513672e+00 1.149567484855651855e+00 8.935811519622802734e-01 6.129446029663085938e-01 1.344149589538574219e+00
3.278000000000000000e+03 3.173636054992675781e+01 -2.242429733276367188e+00 4.861053526401519775e-01 8.800445795059204102e-01 4.098449945449829102e-01 1.057851552963256836e+00
3.279000000000000000e+03 3.300686264038085938e+01 -3.264113426208496094e+00 5.238668322563171387e-01 5.944188833236694336e-01 3.354857265949249268e-01 8.478836417198181152e-01
3.280000000000000000e+03 3.149440002441406250e+01 -2.969740867614746094e+00 5.922203063964843750e-01 8.237680792808532715e-01 4.247964918613433838e-01 1.070118427276611328e+00
3.281000000000000000e+03 2.965852928161621094e+01 -1.768005728721618652e+00 3.762674629688262939e-01 1.337762832641601562e+00 5.142090916633605957e-01 1.290939927101135254e+00
3.282000000000000000e+03 3.215013885498046875e+01 -3.231525659561157227e+00 5.906829237937927246e-01 6.934964656829833984e-01 3.852538168430328369e-01 9.730998277664184570e-01
3.283000000000000000e+03 5.831681060791015625e+01 3.428879547119140625e+01 4.882718622684478760e-01 3.308940410614013672e+00 1.139163613319396973e+00 -2.201079726219177246e-01
3.284000000000000000e+03 2.819451522827148438e+01 -5.223964691162109375e+00 1.411275386810302734e+00 1.134877204895019531e+00 7.638458013534545898e-01 1.595630764961242676e+00
3.285000000000000000e+03 2.604059219360351562e+01 -4.838640213012695312e+00 1.099477767944335938e+00 2.330783128738403320e+00 1.029078245162963867e+00 2.125340223312377930e+00
3.286000000000000000e+03 2.713386154174804688e+01 -4.616694927215576172e+00 1.104963898658752441e+00 1.738820314407348633e+00 8.531352877616882324e-01 1.870770573616027832e+00
3.287000000000000000e+03 2.823113059997558594e+01 -4.697611808776855469e+00 1.152165770530700684e+00 1.281487345695495605e+00 7.300959229469299316e-01 1.634757876396179199e+00
3.288000000000000000e+03 2.875164794921875000e+01 -2.720361471176147461e+00 5.227710008621215820e-01 1.453252077102661133e+00 5.928069353103637695e-01 1.477952480316162109e+00
3.289000000000000000e+03 2.957341957092285156e+01 -2.811768293380737305e+00 5.696413516998291016e-01 1.236379861831665039e+00 5.418063402175903320e-01 1.356710553169250488e+00
3.290000000000000000e+03 3.021377182006835938e+01 -4.248259067535400391e+00 9.024489521980285645e-01 8.497143983840942383e-01 5.256490111351013184e-01 1.227552175521850586e+00
3.291000000000000000e+03 2.749937057495117188e+01 -3.436607837677001953e+00 6.042839288711547852e-01 1.777580738067626953e+00 7.145594358444213867e-01 1.697781443595886230e+00
3.292000000000000000e+03 2.727577209472656250e+01 -2.851588964462280273e+00 3.754045367240905762e-01 1.886778712272644043e+00 6.786549687385559082e-01 1.616019368171691895e+00
3.293000000000000000e+03 2.757206535339355469e+01 -3.997996330261230469e+00 8.192304372787475586e-01 1.668842077255249023e+00 7.464217543601989746e-01 1.728936553001403809e+00
3.294000000000000000e+03 6.564971160888671875e+01 3.469617080688476562e+01 2.659099698066711426e-01 4.480957508087158203e+00 1.424060225486755371e+00 -2.038887888193130493e-01
3.295000000000000000e+03 2.915155029296875000e+01 -4.145617008209228516e+00 9.514588713645935059e-01 1.108951926231384277e+00 6.181232333183288574e-01 1.456661939620971680e+00
3.296000000000000000e+03 2.770370674133300781e+01 -4.861526966094970703e+00 1.243288040161132812e+00 1.466475486755371094e+00 8.129290938377380371e-01 1.777262568473815918e+00
3.297000000000000000e+03 3.032094764709472656e+01 -2.198915004730224609e+00 4.744973778724670410e-01 1.163221359252929688e+00 4.913156032562255859e-01 1.238620162010192871e+00
3.298000000000000000e+03 4.743527984619140625e+01 2.948276519775390625e+01 6.944449543952941895e-01 1.701601028442382812e+00 7.188137769699096680e-01 7.780949771404266357e-02
3.299000000000000000e+03 4.907324981689453125e+01 3.155454635620117188e+01 6.741086840629577637e-01 1.950743079185485840e+00 7.874555587768554688e-01 -7.672705687582492828e-03
3.300000000000000000e+03 2.879625129699707031e+01 -4.719297409057617188e+00 1.139749050140380859e+00 1.087377071380615234e+00 6.681378483772277832e-01 1.495496630668640137e+00
3.301000000000000000e+03 2.857286834716796875e+01 -3.710276126861572266e+00 7.972457408905029297e-01 1.378002166748046875e+00 6.525743603706359863e-01 1.564363837242126465e+00
3.302000000000000000e+03 2.975786018371582031e+01 -2.325265884399414062e+00 4.768445491790771484e-01 1.261411547660827637e+00 5.214768052101135254e-01 1.324205040931701660e+00
3.303000000000000000e+03 4.339623260498046875e+01 3.505293273925781250e+01 5.928756594657897949e-01 1.596748828887939453e+00 6.568873524665832520e-01 1.105450317263603210e-01
3.304000000000000000e+03 3.168840789794921875e+01 -4.086444091796875000e+01 -3.573571890592575073e-02 2.638167329132556915e-02 -2.806214150041341782e-03 -2.404171414673328400e-02
3.305000000000000000e+03 2.799505233764648438e+01 2.908888816833496094e+01 2.899293601512908936e-01 6.142279505729675293e-01 2.712471783161163330e-01 1.889857798814773560e-01
3.306000000000000000e+03 2.289316749572753906e+01 3.375747299194335938e+01 2.488561570644378662e-01 3.390935659408569336e-01 1.763849109411239624e-01 1.585873067378997803e-01
3.307000000000000000e+03 1.214143562316894531e+01 3.758918380737304688e+01 7.304695993661880493e-02 -2.278406172990798950e-01 -4.643809795379638672e-02 6.144077330827713013e-02
3.308000000000000000e+03 8.055875778198242188e+00 4.106322860717773438e+01 2.638417296111583710e-02 -5.128603577613830566e-01 -1.459428519010543823e-01 1.294752396643161774e-02
3.309000000000000000e+03 3.182697868347167969e+01 2.945682334899902344e+01 3.319081962108612061e-01 8.904644250869750977e-01 3.667117953300476074e-01 1.992270201444625854e-01
3.310000000000000000e+03 5.335918426513671875e+01 3.326404953002929688e+01 6.211739778518676758e-01 2.526224374771118164e+00 9.442195296287536621e-01 -1.695332229137420654e-01
3.311000000000000000e+03 4.292873764038085938e+01 3.801008224487304688e+01 5.897395014762878418e-01 1.584670186042785645e+00 6.523228883743286133e-01 6.267951428890228271e-02
3.312000000000000000e+03 4.694387435913085938e+01 3.516527175903320312e+01 6.554433107376098633e-01 1.869150996208190918e+00 7.573783397674560547e-01 4.646841809153556824e-02
3.313000000000000000e+03 1.751196289062500000e+01 -3.531967163085937500e+01 -2.793855667114257812e-01 8.990977406501770020e-01 1.859136521816253662e-01 -1.415104717016220093e-01
3.314000000000000000e+03 2.871528244018554688e+01 -3.727797698974609375e+01 -8.006337285041809082e-02 1.442742943763732910e-01 1.926327683031558990e-02 -4.435445740818977356e-02
3.315000000000000000e+03 5.774777603149414062e+01 -3.448516464233398438e+01 1.460907459259033203e-01 1.043113946914672852e+00 3.567613959312438965e-01 1.824107766151428223e-01
3.316000000000000000e+03 1.514495182037353516e+01 3.558343505859375000e+01 1.093650460243225098e-01 -5.521250143647193909e-02 1.624576374888420105e-02 1.087487414479255676e-01
3.317000000000000000e+03 2.223830223083496094e+01 2.686082077026367188e+01 2.194322645664215088e-01 2.540477514266967773e-01 1.420440077781677246e-01 2.817997932434082031e-01
3.318000000000000000e+03 2.201090812683105469e+01 -3.831418609619140625e+01 -1.952184289693832397e-01 5.768828988075256348e-01 1.144993379712104797e-01 -9.963092952966690063e-02
3.319000000000000000e+03 5.932870864868164062e+01 -3.592714691162109375e+01 2.857354283332824707e-01 1.799411296844482422e+00 6.255440115928649902e-01 2.413642108440399170e-01
3.320000000000000000e+03 6.822107696533203125e+01 3.717771530151367188e+01 1.927515417337417603e-01 4.838786125183105469e+00 1.509461402893066406e+00 -1.472699642181396484e-01
3.321000000000000000e+03 2.233144378662109375e+01 -4.114192962646484375e+01 -1.992982327938079834e-01 5.667391419410705566e-01 1.102322712540626526e-01 -4.588153585791587830e-02
3.322000000000000000e+03 6.206038665771484375e+01 3.570474243164062500e+01 3.669429719448089600e-01 3.920880794525146484e+00 1.286347150802612305e+00 -2.240530103445053101e-01
3.323000000000000000e+03 2.286351585388183594e+01 3.706996917724609375e+01 2.520062923431396484e-01 3.425338566303253174e-01 1.783620417118072510e-01 9.644453972578048706e-02
3.324000000000000000e+03 5.144934463500976562e+01 3.760290145874023438e+01 6.305014491081237793e-01 2.401967763900756836e+00 9.097407460212707520e-01 -3.635002672672271729e-02
3.325000000000000000e+03 5.737357711791992188e+01 -3.177244377136230469e+01 -1.618447452783584595e-01 6.752434968948364258e-01 1.540196239948272705e-01 1.145133525133132935e-01
3.326000000000000000e+03 2.740859985351562500e+01 3.642372512817382812e+01 3.272361159324645996e-01 6.097788214683532715e-01 2.811044752597808838e-01 9.572105854749679565e-02
3.327000000000000000e+03 3.287415313720703125e+01 4.040415573120117188e+01 4.179513454437255859e-01 9.150986671447753906e-01 3.999150097370147705e-01 3.517111390829086304e-02
3.328000000000000000e+03 2.173181533813476562e+01 -3.994244575500488281e+00 -4.019220769405364990e-01 2.059907197952270508e+00 4.973955154418945312e-01 9.703161567449569702e-02
3.329000000000000000e+03 2.199266052246093750e+01 -5.424763202667236328e+00 -2.941300570964813232e-01 3.284796953201293945e+00 8.972001075744628906e-01 4.927034303545951843e-02
3.330000000000000000e+03 2.213693046569824219e+01 -5.559679985046386719e+00 -3.212914764881134033e-01 3.730314254760742188e+00 1.022706866264343262e+00 1.754559427499771118e-01
3.331000000000000000e+03 2.239555931091308594e+01 -5.278937816619873047e+00 -3.213520050048828125e-01 3.689717531204223633e+00 1.010509729385375977e+00 4.607643485069274902e-01
3.332000000000000000e+03 2.250752067565917969e+01 -6.257099628448486328e+00 -4.109506681561470032e-02 5.472224235534667969e+00 1.629338741302490234e+00 1.011578559875488281e+00
3.333000000000000000e+03 2.263407707214355469e+01 -6.388299942016601562e+00 2.003681361675262451e-01 5.797803401947021484e+00 1.799451470375061035e+00 1.415264129638671875e+00
3.334000000000000000e+03 2.311423492431640625e+01 -6.101288318634033203e+00 5.042727589607238770e-01 5.201195240020751953e+00 1.711640477180480957e+00 2.001033067703247070e+00
3.335000000000000000e+03 2.304925727844238281e+01 -6.876303672790527344e+00 1.864220142364501953e+00 6.528111934661865234e+00 2.517699718475341797e+00 3.276450634002685547e+00
3.336000000000000000e+03 2.333761787414550781e+01 -6.693966388702392578e+00 2.032184123992919922e+00 5.821120262145996094e+00 2.355991363525390625e+00 3.289805650711059570e+00
3.337000000000000000e+03 2.314413452148437500e+01 -7.060215950012207031e+00 2.671511173248291016e+00 6.521136760711669922e+00 2.757794380187988281e+00 3.664752006530761719e+00
3.338000000000000000e+03 1.879689407348632812e+01 -7.285938739776611328e+00 3.095248937606811523e+00 -1.281808495521545410e+00 5.440321564674377441e-01 -3.594969213008880615e-01
3.339000000000000000e+03 1.936220359802246094e+01 -7.915428161621093750e+00 4.722057819366455078e+00 -1.375358223915100098e+00 1.004009842872619629e+00 -4.633803367614746094e-01
3.340000000000000000e+03 1.953705596923828125e+01 -8.450731277465820312e+00 5.899398326873779297e+00 -1.573195815086364746e+00 1.297860741615295410e+00 2.623869776725769043e-01
3.341000000000000000e+03 1.996815872192382812e+01 -9.037854194641113281e+00 7.054411411285400391e+00 -9.968503713607788086e-01 1.817268252372741699e+00 1.802978396415710449e+00
3.342000000000000000e+03 2.040000724792480469e+01 -9.393622398376464844e+00 6.556620597839355469e+00 9.429031014442443848e-01 2.249857187271118164e+00 3.114627599716186523e+00
3.343000000000000000e+03 2.051277732849121094e+01 -9.090185165405273438e+00 9.300354957580566406e+00 3.418470323085784912e-01 2.892660617828369141e+00 2.995711326599121094e+00
3.344000000000000000e+03 2.378824234008789062e+01 -7.278275489807128906e+00 4.590106487274169922e+00 4.112732410430908203e+00 2.610851764678955078e+00 3.368497133255004883e+00
3.345000000000000000e+03 6.723006439208984375e+01 -5.721605777740478516e+00 -2.725765705108642578e+00 9.665869712829589844e+00 2.082031250000000000e+00 -4.453376293182373047e+00
3.346000000000000000e+03 4.354004669189453125e+01 7.753937721252441406e+00 9.155812114477157593e-02 7.287479639053344727e-01 2.460918277502059937e-01 -7.053469866514205933e-02
3.347000000000000000e+03 5.608968353271484375e+01 1.569918823242187500e+01 1.039527297019958496e+00 3.701461315155029297e+00 1.422296643257141113e+00 -9.275807142257690430e-01
3.348000000000000000e+03 3.503869247436523438e+01 -3.954930114746093750e+01 -5.243123322725296021e-02 -6.079374626278877258e-02 -3.396749496459960938e-02 -2.380506694316864014e-02
3.349000000000000000e+03 1.899769592285156250e+01 -7.839692115783691406e+00 4.138728141784667969e+00 -1.501976728439331055e+00 7.910253405570983887e-01 -2.551572322845458984e-01
3.350000000000000000e+03 2.291217613220214844e+01 -5.988011837005615234e+00 1.945400536060333252e-01 5.105763435363769531e+00 1.590091109275817871e+00 1.578567504882812500e+00
3.351000000000000000e+03 2.295819282531738281e+01 -5.120324134826660156e+00 -1.995280086994171143e-01 4.011200428009033203e+00 1.143501758575439453e+00 1.091141819953918457e+00
3.352000000000000000e+03 6.529098510742187500e+01 -3.510675430297851562e+00 -7.828208208084106445e-01 3.541328191757202148e+00 8.275522589683532715e-01 -3.880026340484619141e+00
3.353000000000000000e+03 2.275042915344238281e+01 -1.120911121368408203e+01 3.015403449535369873e-01 4.166454315185546875e+00 1.340398430824279785e+00 -1.747110188007354736e-01
3.354000000000000000e+03 2.533020973205566406e+01 -7.562017917633056641e+00 4.357207775115966797e+00 1.680949687957763672e+00 1.811447262763977051e+00 2.072784900665283203e+00
3.355000000000000000e+03 2.037925910949707031e+01 3.460522890090942383e+00 -5.337252616882324219e-01 2.910435199737548828e-02 -1.513862758874893188e-01 2.252015620470046997e-01
3.356000000000000000e+03 2.505608558654785156e+01 1.686551856994628906e+01 -2.577151954174041748e-01 2.264076918363571167e-01 -9.392246603965759277e-03 1.293270587921142578e-01
3.357000000000000000e+03 5.639352416992187500e+01 1.288851070404052734e+01 3.905513286590576172e-01 3.788875341415405273e+00 1.253828048706054688e+00 -5.735723376274108887e-01
3.358000000000000000e+03 2.374299430847167969e+01 -6.521683692932128906e+00 2.041244745254516602e+00 4.726392269134521484e+00 2.030291080474853516e+00 3.099246978759765625e+00
3.359000000000000000e+03 4.213743591308593750e+01 -1.558132266998291016e+01 -1.786360740661621094e+00 2.303736843168735504e-02 -5.289970040321350098e-01 -4.888724982738494873e-01
3.360000000000000000e+03 3.101330041885375977e+00 3.727390670776367188e+01 1.564103551208972931e-02 -8.785168528556823730e-01 -2.588627338409423828e-01 -3.776622470468282700e-03
3.361000000000000000e+03 7.785089111328125000e+01 -3.726981353759765625e+01 -2.019150648266077042e-03 1.025397205352783203e+01 3.075585842132568359e+00 5.656671151518821716e-02
3.362000000000000000e+03 7.739575958251953125e+01 2.905948066711425781e+01 7.616784423589706421e-03 6.303960800170898438e+00 1.893473267555236816e+00 -1.079273745417594910e-01
3.363000000000000000e+03 2.494908142089843750e+01 -6.469415664672851562e+00 2.643806219100952148e+00 2.856141090393066406e+00 1.649984240531921387e+00 2.743186473846435547e+00
3.364000000000000000e+03 2.543440437316894531e+01 -6.420925140380859375e+00 2.573104619979858398e+00 2.387322187423706055e+00 1.488127946853637695e+00 2.501235246658325195e+00
3.365000000000000000e+03 2.254000282287597656e+01 -3.030730009078979492e+00 -4.920856654644012451e-01 2.305716991424560547e+00 5.440894365310668945e-01 4.709880352020263672e-01
3.366000000000000000e+03 2.080526161193847656e+01 -1.309603595733642578e+01 -4.194476604461669922e+00 3.063457608222961426e-01 -1.166439294815063477e+00 2.665515422821044922e+00
3.367000000000000000e+03 2.186770057678222656e+01 -1.365988254547119141e+01 -5.134692668914794922e+00 8.008577823638916016e-01 -1.300150513648986816e+00 1.739824175834655762e+00
3.368000000000000000e+03 4.318170166015625000e+01 2.422469520568847656e+01 4.776116013526916504e-01 1.474659204483032227e+00 5.856812000274658203e-01 4.937943816184997559e-01
3.369000000000000000e+03 4.556735610961914062e+01 3.075849771499633789e+00 3.404403924942016602e-01 1.873571127653121948e-01 1.583392620086669922e-01 1.788025051355361938e-01
3.370000000000000000e+03 2.139647483825683594e+01 -2.450112104415893555e+00 -4.218106865882873535e-01 1.398656964302062988e+00 2.930538952350616455e-01 1.635276228189468384e-01
3.371000000000000000e+03 2.971906852722167969e+01 -3.476252365112304688e+01 -7.935620099306106567e-02 3.768007084727287292e-02 -1.250283792614936829e-02 -2.208184637129306793e-02
3.372000000000000000e+03 2.013728904724121094e+01 2.394413566589355469e+01 1.644746661186218262e-01 1.530192941427230835e-01 9.524818509817123413e-02 3.829321861267089844e-01
3.373000000000000000e+03 2.837951660156250000e+01 1.579855537414550781e+01 -2.239191830158233643e-01 9.100211858749389648e-01 2.058305889368057251e-01 4.029286503791809082e-01
3.374000000000000000e+03 2.415529632568359375e+01 -1.345407581329345703e+01 -3.480162620544433594e+00 1.654036164283752441e+00 -5.478379130363464355e-01 -2.660791277885437012e-01
3.375000000000000000e+03 5.034422683715820312e+01 3.447328186035156250e+01 6.638690233230590820e-01 2.219240903854370117e+00 8.649329543113708496e-01 -5.444087833166122437e-02
3.376000000000000000e+03 4.472060680389404297e+00 -1.419111061096191406e+01 1.808763623237609863e+00 -1.152229234576225281e-01 5.080621838569641113e-01 1.701106131076812744e-01
3.377000000000000000e+03 1.826238632202148438e+01 -9.312942504882812500e+00 3.761202096939086914e+00 -2.459401845932006836e+00 3.905400931835174561e-01 1.887673139572143555e+00
3.378000000000000000e+03 1.956697082519531250e+01 -9.813455581665039062e+00 4.526808738708496094e+00 -1.084100127220153809e+00 1.032812595367431641e+00 2.724195480346679688e+00
3.379000000000000000e+03 2.306297492980957031e+01 -5.774791717529296875e+00 1.456049680709838867e-01 4.791625976562500000e+00 1.481169342994689941e+00 1.563362836837768555e+00
3.380000000000000000e+03 2.329315757751464844e+01 -5.627486228942871094e+00 2.833586037158966064e-01 4.565549373626708984e+00 1.454672336578369141e+00 1.767105221748352051e+00
3.381000000000000000e+03 2.327018165588378906e+01 -5.883689880371093750e+00 4.808552861213684082e-01 4.914257526397705078e+00 1.618533849716186523e+00 2.016902446746826172e+00
3.382000000000000000e+03 4.653814315795898438e+01 3.264977645874023438e+01 6.515560746192932129e-01 1.784722328186035156e+00 7.308834791183471680e-01 8.172988146543502808e-02
3.383000000000000000e+03 5.041594696044921875e+01 2.480583000183105469e+01 8.305165767669677734e-01 1.522058844566345215e+00 7.057726383209228516e-01 -1.065218523144721985e-01
3.384000000000000000e+03 5.481451416015625000e+01 4.361926555633544922e+00 4.600267112255096436e-01 8.920025825500488281e-01 4.056087732315063477e-01 5.212135612964630127e-02
3.385000000000000000e+03 1.949990272521972656e+01 -1.189023780822753906e+01 -1.081377625465393066e+00 -5.964852571487426758e-01 -5.033589005470275879e-01 3.373119592666625977e+00
3.386000000000000000e+03 2.225857925415039062e+01 2.553189039230346680e+00 -3.899618387222290039e-01 8.917547464370727539e-01 1.505378633737564087e-01 5.915597081184387207e-01
3.387000000000000000e+03 2.271327018737792969e+01 1.793754339218139648e+00 -4.128675758838653564e-01 1.178240060806274414e+00 2.296117395162582397e-01 6.535962820053100586e-01
3.388000000000000000e+03 3.698007583618164062e+00 -1.455819320678710938e+01 1.175538182258605957e+00 -1.237903475761413574e+00 -1.870958879590034485e-02 3.358839750289916992e-01
3.389000000000000000e+03 5.728145599365234375e+00 -1.844816017150878906e+01 3.548523783683776855e-01 1.896977305412292480e+00 6.755489110946655273e-01 1.524292349815368652e+00
3.390000000000000000e+03 1.522883605957031250e+01 2.336943387985229492e+00 -4.393616616725921631e-01 -9.652747213840484619e-02 -1.607667356729507446e-01 7.242018729448318481e-02
3.391000000000000000e+03 2.590801811218261719e+01 -6.970302104949951172e+00 3.210724353790283203e+00 1.632184863090515137e+00 1.452872753143310547e+00 2.110658884048461914e+00
3.392000000000000000e+03 6.218104839324951172e+00 -7.309928417205810547e+00 -5.228397250175476074e-01 1.650091409683227539e+00 3.381755053997039795e-01 -1.358682394027709961e+00
3.393000000000000000e+03 1.740439033508300781e+01 -9.445717811584472656e+00 2.825519800186157227e+00 -2.709361791610717773e+00 3.484739363193511963e-02 2.098701238632202148e+00
3.394000000000000000e+03 2.365016746520996094e+01 -4.805473327636718750e+00 -7.423567585647106171e-03 3.698602676391601562e+00 1.107353806495666504e+00 1.531521677970886230e+00
3.395000000000000000e+03 2.405796051025390625e+01 -5.225547313690185547e+00 4.818731248378753662e-01 3.755422592163085938e+00 1.271188735961914062e+00 2.045977115631103516e+00
3.396000000000000000e+03 2.808716392517089844e+01 3.145460605621337891e+00 8.933452889323234558e-03 1.696214556694030762e+00 5.115444064140319824e-01 8.602308034896850586e-01
3.397000000000000000e+03 3.078460121154785156e+01 1.358786296844482422e+01 7.437478750944137573e-02 1.149499058723449707e+00 3.671621680259704590e-01 7.546264529228210449e-01
3.398000000000000000e+03 1.363456535339355469e+01 3.045162010192871094e+01 5.501976236701011658e-02 -9.822008013725280762e-02 -1.296009588986635208e-02 1.776175796985626221e-01
3.399000000000000000e+03 7.157028198242187500e+01 -3.453527832031250000e+01 -1.429390758275985718e-01 7.404396057128906250e+00 2.178436994552612305e+00 8.621591329574584961e-02
3.400000000000000000e+03 7.171115875244140625e+01 -1.840065193176269531e+01 -2.511019706726074219e-01 1.024660873413085938e+01 2.998651981353759766e+00 -9.805575013160705566e-01
3.401000000000000000e+03 1.846840476989746094e+01 4.152699410915374756e-01 -2.781823873519897461e-01 -8.975490927696228027e-03 -8.614736050367355347e-02 9.969603270292282104e-02
3.402000000000000000e+03 4.609181594848632812e+01 2.788614845275878906e+01 6.639693975448608398e-01 1.514259457588195801e+00 6.534686684608459473e-01 2.380792200565338135e-01
3.403000000000000000e+03 7.002577972412109375e+01 -3.389975070953369141e+00 -1.972640752792358398e+00 1.006860542297363281e+01 2.428789377212524414e+00 -1.065791606903076172e+00
3.404000000000000000e+03 2.316726684570312500e+01 1.916878461837768555e+00 -3.940171003341674805e-01 1.363621234893798828e+00 2.908812463283538818e-01 7.429279088973999023e-01
3.405000000000000000e+03 2.330666351318359375e+01 1.393045067787170410e+00 -4.328905940055847168e-01 1.495708107948303223e+00 3.188452422618865967e-01 7.665114402770996094e-01
3.406000000000000000e+03 5.711893081665039062e+01 -4.921110153198242188e+00 -1.491450309753417969e+00 6.256869435310363770e-02 -4.286645054817199707e-01 -3.506694436073303223e-01
3.407000000000000000e+03 2.389113426208496094e+01 -5.963834762573242188e+00 1.233430981636047363e+00 4.295393466949462891e+00 1.658647298812866211e+00 2.605671644210815430e+00
3.408000000000000000e+03 2.408638954162597656e+01 -6.178150177001953125e+00 1.653643488883972168e+00 4.103646278381347656e+00 1.727186918258666992e+00 2.778152942657470703e+00
3.409000000000000000e+03 7.532123565673828125e+01 3.059341621398925781e+01 4.559063538908958435e-02 5.955331325531005859e+00 1.800276637077331543e+00 -1.722775846719741821e-01
3.410000000000000000e+03 8.389563560485839844e+00 -5.282983303070068359e+00 -1.118635654449462891e+00 1.487185120582580566e+00 1.105648428201675415e-01 -2.493970096111297607e-01
3.411000000000000000e+03 7.630035400390625000e+01 -3.631058120727539062e+01 -1.271316856145858765e-01 9.670014381408691406e+00 2.862864732742309570e+00 -5.743972584605216980e-02
3.412000000000000000e+03 2.689935874938964844e+01 -7.959015369415283203e+00 3.073152780532836914e+00 7.091996669769287109e-01 1.134705662727355957e+00 9.844412803649902344e-01
3.413000000000000000e+03 2.643277168273925781e+01 -6.380434513092041016e+00 2.379825115203857422e+00 1.575754642486572266e+00 1.186673879623413086e+00 2.042040586471557617e+00
3.414000000000000000e+03 2.339733695983886719e+01 -3.642402410507202148e+00 -3.469474613666534424e-01 2.935811758041381836e+00 7.766593098640441895e-01 9.840068817138671875e-01
3.415000000000000000e+03 2.838039207458496094e+01 1.924176216125488281e+01 2.565481700003147125e-02 7.040532827377319336e-01 2.189124375581741333e-01 2.554270327091217041e-01
3.416000000000000000e+03 7.552291870117187500e+01 -1.285265541076660156e+01 1.057659864425659180e+00 8.337606430053710938e+00 2.818579673767089844e+00 -7.179274559020996094e-01
3.417000000000000000e+03 5.408064842224121094e+00 3.516416168212890625e+01 2.634759806096553802e-02 -6.561000347137451172e-01 -1.889257282018661499e-01 4.357594624161720276e-02
3.418000000000000000e+03 2.284063339233398438e+01 2.314464330673217773e+00 -3.716141581535339355e-01 1.160388588905334473e+00 2.366323322057723999e-01 6.758944392204284668e-01
3.419000000000000000e+03 1.175089836120605469e+01 2.899827718734741211e+00 -4.046449959278106689e-01 -4.726237058639526367e-02 -1.355722099542617798e-01 1.712409704923629761e-01
3.420000000000000000e+03 2.582709074020385742e+00 4.056586742401123047e+00 -4.016504809260368347e-02 -9.752260893583297729e-02 -4.130629822611808777e-02 1.109574213624000549e-01
3.421000000000000000e+03 6.078316116333007812e+01 -2.880906677246093750e+01 -4.752197563648223877e-01 1.806551098823547363e+00 3.993993997573852539e-01 3.979625403881072998e-01
3.422000000000000000e+03 6.193597030639648438e+01 -2.962152481079101562e+01 -3.594607114791870117e-01 2.598805427551269531e+00 6.718034148216247559e-01 5.452265143394470215e-01
3.423000000000000000e+03 1.516467094421386719e+01 -2.998653030395507812e+01 -2.169368267059326172e-01 1.302457571029663086e+00 3.256562352180480957e-01 -2.975090742111206055e-01
3.424000000000000000e+03 5.704664230346679688e+01 -3.305007934570312500e+00 -9.047226309776306152e-01 2.063923776149749756e-01 -2.094990760087966919e-01 -2.927592098712921143e-01
3.425000000000000000e+03 7.428388977050781250e+01 -1.807407951354980469e+01 -1.188554316759109497e-01 9.597765922546386719e+00 2.843673229217529297e+00 -1.641333699226379395e+00
3.426000000000000000e+03 7.508125305175781250e+01 -1.790821456909179688e+01 -3.187569230794906616e-02 8.834765434265136719e+00 2.640866994857788086e+00 -1.629670977592468262e+00
3.427000000000000000e+03 2.478540229797363281e+01 -5.446820259094238281e+00 1.186078786849975586e+00 3.242404937744140625e+00 1.328545093536376953e+00 2.408272743225097656e+00
3.428000000000000000e+03 2.447034072875976562e+01 -6.050784587860107422e+00 1.773565530776977539e+00 3.613910913467407227e+00 1.616242885589599609e+00 2.727808713912963867e+00
3.429000000000000000e+03 3.204548263549804688e+01 1.250022697448730469e+01 2.144133299589157104e-01 1.169852375984191895e+00 4.152797162532806396e-01 8.606826663017272949e-01
3.430000000000000000e+03 2.448948669433593750e+01 7.997268438339233398e-01 -4.403442740440368652e-01 1.831481933593750000e+00 4.173412919044494629e-01 8.671695590019226074e-01
3.431000000000000000e+03 1.308781623840332031e+01 3.161175251007080078e+00 -4.223673343658447266e-01 -3.244914114475250244e-02 -1.364449411630630493e-01 1.523694545030593872e-01
3.432000000000000000e+03 1.209045028686523438e+01 -2.617257881164550781e+01 -3.083587288856506348e-01 2.018511772155761719e+00 5.130459666252136230e-01 -2.991934716701507568e-01
3.433000000000000000e+03 5.531177520751953125e+00 -6.266191005706787109e+00 -6.101244091987609863e-01 7.483665347099304199e-01 4.147262871265411377e-02 -1.463703274726867676e+00
3.434000000000000000e+03 7.282981872558593750e+01 -1.901771163940429688e+01 -3.844780325889587402e-01 9.784143447875976562e+00 2.819899797439575195e+00 -1.293060660362243652e+00
3.435000000000000000e+03 6.504694366455078125e+01 2.379860687255859375e+01 3.052571117877960205e-01 4.446528434753417969e+00 1.425535678863525391e+00 -5.345892310142517090e-01
3.436000000000000000e+03 5.157834243774414062e+01 -7.529463768005371094e+00 -1.518435001373291016e+00 6.397819519042968750e-02 -4.363370239734649658e-01 -3.203801810741424561e-01
3.437000000000000000e+03 5.981419372558593750e+01 3.237794876098632812e+00 2.757397294044494629e-01 1.912139773368835449e+00 6.563638448715209961e-01 -8.795469999313354492e-01
3.438000000000000000e+03 5.799552917480468750e+01 -3.028873443603515625e+01 -3.334097564220428467e-01 7.333644032478332520e-01 1.199864000082015991e-01 1.103853583335876465e-01
3.439000000000000000e+03 2.688887214660644531e+01 -5.860742092132568359e+00 1.907043457031250000e+00 1.522769331932067871e+00 1.028943777084350586e+00 1.945066094398498535e+00
3.440000000000000000e+03 2.728167915344238281e+01 -5.768025875091552734e+00 1.800906658172607422e+00 1.363450765609741211e+00 9.493072032928466797e-01 1.832018733024597168e+00
3.441000000000000000e+03 2.229483413696289062e+01 -1.112741470336914062e+00 -4.582884013652801514e-01 1.581333279609680176e+00 3.369134366512298584e-01 4.576382339000701904e-01
3.442000000000000000e+03 6.220300674438476562e+01 2.196165657043457031e+01 3.731982707977294922e-01 4.004292011260986328e+00 1.313247084617614746e+00 -5.934140086174011230e-01
3.443000000000000000e+03 5.327082061767578125e+01 -3.770951747894287109e+00 -9.082709550857543945e-01 1.747868210077285767e-01 -2.200452387332916260e-01 -2.335329912602901459e-02
3.444000000000000000e+03 5.315081787109375000e+01 -4.744162559509277344e+00 -1.096129059791564941e+00 1.369357556104660034e-01 -2.877579927444458008e-01 -9.446024149656295776e-02
3.445000000000000000e+03 5.322254562377929688e+01 -2.765178442001342773e+00 -6.359816789627075195e-01 2.084259390830993652e-01 -1.282667219638824463e-01 2.115823514759540558e-02
3.446000000000000000e+03 5.687935256958007812e+01 -1.743638992309570312e+00 -4.410047531127929688e-01 3.778864443302154541e-01 -1.893549226224422455e-02 -2.777889668941497803e-01
3.447000000000000000e+03 3.509065628051757812e+01 1.124932479858398438e+01 3.501894772052764893e-01 1.199834108352661133e+00 4.650070965290069580e-01 8.943495154380798340e-01
3.448000000000000000e+03 1.171827888488769531e+01 6.910000801086425781e+00 -1.775283813476562500e-01 6.599892675876617432e-02 -3.345883637666702271e-02 3.041124045848846436e-01
3.449000000000000000e+03 7.121619701385498047e+00 -2.555127525329589844e+01 -5.444264411926269531e-01 1.523976206779479980e+00 2.938649356365203857e-01 7.402586936950683594e-01
3.450000000000000000e+03 2.539192390441894531e+01 2.203328514099121094e+01 1.749889850616455078e-01 3.220953345298767090e-01 1.491252928972244263e-01 2.273609191179275513e-01
3.451000000000000000e+03 7.408412933349609375e+01 -5.309509277343750000e+00 -4.391849040985107422e-02 9.392814636230468750e+00 2.804668664932250977e+00 1.431082725524902344e+00
3.452000000000000000e+03 7.424881744384765625e+01 -2.034854507446289062e+01 -4.684668481349945068e-01 9.344703674316406250e+00 2.662871122360229492e+00 -1.307250976562500000e+00
3.453000000000000000e+03 7.246375274658203125e+01 -2.284551620483398438e+01 -8.462085723876953125e-01 9.113452911376953125e+00 2.480173110961914062e+00 -7.593974471092224121e-01
3.454000000000000000e+03 2.749644660949707031e+01 -1.070669889450073242e+00 2.300025150179862976e-02 1.859537482261657715e+00 5.647613406181335449e-01 1.340769648551940918e+00
3.455000000000000000e+03 5.285936355590820312e+00 5.610329151153564453e+00 -8.069380372762680054e-02 -1.229150742292404175e-01 -6.108266487717628479e-02 2.533056735992431641e-01
3.456000000000000000e+03 2.856504631042480469e+01 -7.152723789215087891e+00 1.917895913124084473e+00 4.759686887264251709e-01 7.181593775749206543e-01 9.641466736793518066e-01
3.457000000000000000e+03 2.724551582336425781e+01 -5.005630493164062500e+00 1.343946337699890137e+00 1.622283935546875000e+00 8.898690938949584961e-01 1.914714813232421875e+00
3.458000000000000000e+03 2.627005577087402344e+01 -5.240247249603271484e+00 1.435205817222595215e+00 2.099399328231811523e+00 1.060381531715393066e+00 2.148362159729003906e+00
3.459000000000000000e+03 2.729386901855468750e+01 -5.392316818237304688e+00 1.596925735473632812e+00 1.484444737434387207e+00 9.244111180305480957e-01 1.880377531051635742e+00
3.460000000000000000e+03 6.617238616943359375e+01 -2.695537185668945312e+01 -7.894358038902282715e-01 5.489880561828613281e+00 1.410133481025695801e+00 6.634449362754821777e-01
3.461000000000000000e+03 7.447287750244140625e+01 -2.674742937088012695e+00 -7.826269268989562988e-01 9.029447555541992188e+00 2.474046230316162109e+00 9.701665043830871582e-01
3.462000000000000000e+03 7.478296661376953125e+01 -3.890173673629760742e+00 -3.760460019111633301e-01 8.817630767822265625e+00 2.532475471496582031e+00 1.230079650878906250e+00
3.463000000000000000e+03 2.405130004882812500e+01 -1.829749464988708496e+00 -4.275896847248077393e-01 2.288992881774902344e+00 5.584209561347961426e-01 9.621952772140502930e-01
3.464000000000000000e+03 7.341637134552001953e+00 2.543739891052246094e+01 1.003964804112911224e-03 -3.814287483692169189e-01 -1.141274347901344299e-01 8.599006384611129761e-02
3.465000000000000000e+03 3.544900894165039062e+01 8.461313247680664062e+00 3.168694078922271729e-01 1.151473402976989746e+00 4.405028522014617920e-01 8.777731657028198242e-01
3.466000000000000000e+03 8.687811851501464844e+00 1.282814979553222656e+01 1.846877932548522949e-01 -1.236939728260040283e-01 1.829814724624156952e-02 2.968408763408660889e-01
3.467000000000000000e+03 7.263595581054687500e+00 1.371680927276611328e+01 1.409575939178466797e-01 -2.444813102483749390e-01 -3.105711191892623901e-02 2.458272427320480347e-01
3.468000000000000000e+03 2.267917633056640625e+01 -7.693676352500915527e-01 -4.625603556632995605e-01 1.635009407997131348e+00 3.517347276210784912e-01 5.532190203666687012e-01
3.469000000000000000e+03 2.857183647155761719e+01 -6.493653774261474609e+00 1.791330218315124512e+00 6.610242128372192383e-01 7.357063293457031250e-01 1.221820950508117676e+00
3.470000000000000000e+03 2.578622245788574219e+01 2.110039138793945312e+01 1.399497538805007935e-01 3.558188974857330322e-01 1.487306058406829834e-01 2.229035198688507080e-01
3.471000000000000000e+03 6.799401092529296875e+01 -2.468815422058105469e+01 -9.802905917167663574e-01 6.890024662017822266e+00 1.772920250892639160e+00 4.217787683010101318e-01
3.472000000000000000e+03 6.816073608398437500e+01 6.716332912445068359e+00 -1.940448582172393799e-01 5.580121040344238281e+00 1.615822911262512207e+00 -1.280366420745849609e+00
3.473000000000000000e+03 2.794645309448242188e+01 -5.959911823272705078e+00 1.760177016258239746e+00 1.004306674003601074e+00 8.293451070785522461e-01 1.548362851142883301e+00
3.474000000000000000e+03 4.227935409545898438e+01 -1.150589179992675781e+01 -1.271919012069702148e+00 4.849596694111824036e-02 -3.670268952846527100e-01 -4.353337287902832031e-01
3.475000000000000000e+03 4.302083206176757812e+01 -1.196059417724609375e+01 -1.355716109275817871e+00 3.564750775694847107e-02 -3.960205614566802979e-01 -4.573256373405456543e-01
3.476000000000000000e+03 2.591001319885253906e+01 -4.375265121459960938e+00 7.343349456787109375e-01 2.461784124374389648e+00 9.588357210159301758e-01 2.010797977447509766e+00
3.477000000000000000e+03 2.353407287597656250e+01 -5.788642764091491699e-01 -4.672879576683044434e-01 1.855495572090148926e+00 4.164622724056243896e-01 7.653688788414001465e-01
3.478000000000000000e+03 2.576868629455566406e+01 -5.732038021087646484e-01 -2.977286875247955322e-01 2.071066141128540039e+00 5.320011973381042480e-01 1.149831414222717285e+00
3.479000000000000000e+03 7.279036712646484375e+01 -2.564437675476074219e+01 -6.770690083503723145e-01 8.626037597656250000e+00 2.384690523147583008e+00 -5.464479923248291016e-01
3.480000000000000000e+03 2.939277648925781250e+01 -6.995471477508544922e+00 1.603566288948059082e+00 3.853288292884826660e-01 5.966685414314270020e-01 8.350424170494079590e-01
3.481000000000000000e+03 2.763333511352539062e+01 -5.766463279724121094e+00 1.736790060997009277e+00 1.171565055847167969e+00 8.725065588951110840e-01 1.677066922187805176e+00
3.482000000000000000e+03 3.414649581909179688e+01 3.255737721920013428e-01 3.013318479061126709e-01 8.481242656707763672e-01 3.448368310928344727e-01 8.455579876899719238e-01
3.483000000000000000e+03 3.468894195556640625e+01 -9.847764968872070312e-01 3.303568363189697266e-01 6.828387379646301270e-01 3.039586544036865234e-01 7.766838669776916504e-01
3.484000000000000000e+03 7.332602691650390625e+01 -2.313063240051269531e+01 -6.601656079292297363e-01 8.982572555541992188e+00 2.496721982955932617e+00 -9.505196213722229004e-01
3.485000000000000000e+03 6.315176963806152344e+00 7.903523445129394531e+00 -2.003523521125316620e-02 -1.664958000183105469e-01 -5.595931038260459900e-02 3.149869441986083984e-01
3.486000000000000000e+03 5.605212020874023438e+01 -8.714647889137268066e-01 -2.675594091415405273e-01 4.984476864337921143e-01 6.926648318767547607e-02 -1.368405520915985107e-01
3.487000000000000000e+03 5.424482727050781250e+01 -2.085010290145874023e+00 -4.998192787170410156e-01 2.664332985877990723e-01 -7.001579552888870239e-02 -9.499002248048782349e-03
3.488000000000000000e+03 7.280284881591796875e+01 1.408753967285156250e+01 8.478698879480361938e-02 6.320615291595458984e+00 1.921620726585388184e+00 -6.538671851158142090e-01
3.489000000000000000e+03 2.700502777099609375e+01 -4.181258678436279297e+00 8.607517480850219727e-01 1.902442574501037598e+00 8.289583325386047363e-01 1.861435770988464355e+00
3.490000000000000000e+03 6.788579463958740234e+00 2.296837615966796875e+01 9.382972493767738342e-03 -3.924222886562347412e-01 -1.149117946624755859e-01 7.368787378072738647e-02
3.491000000000000000e+03 2.898441696166992188e+01 -5.437677860260009766e+00 1.329595327377319336e+00 8.729488849639892578e-01 6.607632637023925781e-01 1.356792569160461426e+00
3.492000000000000000e+03 3.273737335205078125e+01 -1.343157529830932617e+00 3.946002125740051270e-01 8.626323342323303223e-01 3.771697580814361572e-01 9.651417136192321777e-01
3.493000000000000000e+03 2.816844749450683594e+01 -3.119106054306030273e+00 5.825486779212951660e-01 1.583626031875610352e+00 6.498524546623229980e-01 1.580142855644226074e+00
3.494000000000000000e+03 3.548405838012695312e+01 -2.369093179702758789e+00 3.176213502883911133e-01 4.857131838798522949e-01 2.410003691911697388e-01 6.301762461662292480e-01
3.495000000000000000e+03 3.529507827758789062e+01 -3.332623481750488281e+00 3.408858776092529297e-01 3.989849388599395752e-01 2.219612449407577515e-01 5.757384896278381348e-01
3.496000000000000000e+03 4.349055862426757812e+01 -5.768156528472900391e+00 -5.536096692085266113e-01 1.091921180486679077e-01 -1.333252638578414917e-01 -3.148626536130905151e-02
3.497000000000000000e+03 2.955316925048828125e+01 -3.611598253250122070e+00 7.723499536514282227e-01 1.125372648239135742e+00 5.693168044090270996e-01 1.383156657218933105e+00
3.498000000000000000e+03 3.091527938842773438e+01 -1.855088353157043457e+00 4.468923509120941162e-01 1.078094244003295898e+00 4.574959576129913330e-01 1.168220520019531250e+00
3.499000000000000000e+03 3.012079811096191406e+01 -1.612875223159790039e+00 3.710327148437500000e-01 1.272012948989868164e+00 4.929136931896209717e-01 1.240887045860290527e+00
3.500000000000000000e+03 2.977770805358886719e+01 -5.296735763549804688e+00 1.151543736457824707e+00 7.152068018913269043e-01 5.600251555442810059e-01 1.179082036018371582e+00
3.501000000000000000e+03 3.013496208190917969e+01 -4.799657821655273438e+00 1.025198936462402344e+00 7.468100786209106445e-01 5.316026806831359863e-01 1.179695844650268555e+00
3.502000000000000000e+03 2.996228790283203125e+01 -3.174454212188720703e+00 6.362516880035400391e-01 1.102161049842834473e+00 5.215238332748413086e-01 1.305928826332092285e+00
3.503000000000000000e+03 3.055595016479492188e+01 -2.826336145401000977e+00 5.764405727386474609e-01 1.044471263885498047e+00 4.862735569477081299e-01 1.229362964630126953e+00
3.504000000000000000e+03 3.087382507324218750e+01 -3.442226409912109375e+00 6.873849630355834961e-01 8.498780131340026855e-01 4.611788988113403320e-01 1.143454074859619141e+00
3.505000000000000000e+03 1.109428310394287109e+01 -9.500241279602050781e-01 -1.972107172012329102e+00 -2.387819625437259674e-02 -5.987956523895263672e-01 4.253730177879333496e-01
3.506000000000000000e+03 1.165381717681884766e+01 -7.241671085357666016e-01 -2.145501852035522461e+00 -7.281862944364547729e-02 -6.654961705207824707e-01 5.737795829772949219e-01
3.507000000000000000e+03 1.027435588836669922e+01 -1.351947069168090820e+00 -1.878285050392150879e+00 2.201105356216430664e-01 -4.974523484706878662e-01 3.136504888534545898e-01
3.508000000000000000e+03 1.030054473876953125e+01 -8.435348272323608398e-01 -1.998163700103759766e+00 1.422595828771591187e-01 -5.567712783813476562e-01 2.622651159763336182e-01
3.509000000000000000e+03 1.209442901611328125e+01 -1.691910147666931152e+00 -1.708906412124633789e+00 6.241030059754848480e-03 -5.107995867729187012e-01 6.340911984443664551e-01
3.510000000000000000e+03 1.235916519165039062e+01 -9.953780174255371094e-01 -1.942403674125671387e+00 -1.452362239360809326e-01 -6.262919902801513672e-01 5.836533904075622559e-01
3.511000000000000000e+03 1.103997993469238281e+01 -4.984331727027893066e-01 -2.198209762573242188e+00 -1.520213484764099121e-01 -7.050693631172180176e-01 4.788565039634704590e-01
3.512000000000000000e+03 1.033364486694335938e+01 -3.521796166896820068e-01 -1.957182884216308594e+00 4.305185750126838684e-02 -5.742393136024475098e-01 3.582156002521514893e-01
3.513000000000000000e+03 1.116429042816162109e+01 -1.513366341590881348e+00 -1.764068245887756348e+00 5.365672335028648376e-02 -5.131234526634216309e-01 4.379426836967468262e-01
3.514000000000000000e+03 8.929869651794433594e+00 -3.257387280464172363e-01 -2.218488216400146484e+00 1.884314976632595062e-02 -6.598935723304748535e-01 -1.268268655985593796e-02
3.515000000000000000e+03 9.405135154724121094e+00 -1.207431554794311523e+00 -1.871544361114501953e+00 2.097886651754379272e-01 -4.985266923904418945e-01 1.342798024415969849e-01
3.516000000000000000e+03 9.509044647216796875e+00 -6.957387328147888184e-01 -2.006555795669555664e+00 1.652048528194427490e-01 -5.524052977561950684e-01 2.375794500112533569e-01
3.517000000000000000e+03 8.311937332153320312e+00 -6.852564215660095215e-01 -2.072384834289550781e+00 6.349261850118637085e-02 -6.026676893234252930e-01 -1.709479838609695435e-02
3.518000000000000000e+03 7.644789695739746094e+00 -4.091947972774505615e-01 -2.194901704788208008e+00 -1.652041077613830566e-02 -6.634266376495361328e-01 -1.090821772813796997e-01
3.519000000000000000e+03 6.843236923217773438e+00 -3.888793289661407471e-01 -1.997724771499633789e+00 4.682851210236549377e-02 -5.852688550949096680e-01 -1.010331511497497559e-01
3.520000000000000000e+03 5.179682731628417969e+00 -3.839172124862670898e-01 -1.395040154457092285e+00 2.519607730209827423e-02 -4.109532237052917480e-01 -1.579435318708419800e-01
3.521000000000000000e+03 4.313897609710693359e+00 -3.908450603485107422e-01 -1.049114346504211426e+00 -3.565448895096778870e-02 -3.254306614398956299e-01 -1.919839829206466675e-01
3.522000000000000000e+03 2.978018999099731445e+00 -6.541122794151306152e-01 -5.400283336639404297e-01 -3.429429139941930771e-03 -1.630373150110244751e-01 -2.351983338594436646e-01
3.523000000000000000e+03 1.116362333297729492e+00 -3.878802657127380371e-01 -3.981584310531616211e-02 -2.277824282646179199e-02 -1.877822540700435638e-02 -3.065312840044498444e-02
3.524000000000000000e+03 3.952576816082000732e-01 -5.600912570953369141e-01 9.432017104700207710e-04 1.719949184916913509e-03 7.989452569745481014e-04 1.402260386385023594e-03
3.525000000000000000e+03 6.959925889968872070e-01 -1.127880215644836426e+00 -3.487828373908996582e-02 -6.533116847276687622e-02 -3.006283566355705261e-02 -5.799082294106483459e-02
3.526000000000000000e+03 8.588925361633300781e+00 -1.222332477569580078e+00 -1.899695277214050293e+00 1.943095475435256958e-01 -5.116157531738281250e-01 1.834863051772117615e-02
3.527000000000000000e+03 7.880912780761718750e+00 -1.224491596221923828e+00 -1.836984515190124512e+00 1.062460094690322876e-01 -5.192215442657470703e-01 -1.624119579792022705e-01
3.528000000000000000e+03 7.163526535034179688e+00 -1.149194836616516113e+00 -1.689370751380920410e+00 1.303077787160873413e-01 -4.677188992500305176e-01 -2.312311381101608276e-01
3.529000000000000000e+03 6.369585514068603516e+00 -1.128879308700561523e+00 -1.592873096466064453e+00 4.234139993786811829e-02 -4.651595056056976318e-01 -3.859464228153228760e-01
3.530000000000000000e+03 5.550294876098632812e+00 -1.121867775917053223e+00 -1.328845381736755371e+00 4.915338382124900818e-02 -3.839076161384582520e-01 -4.046626687049865723e-01
3.531000000000000000e+03 4.721254825592041016e+00 -1.123917222023010254e+00 -1.105975031852722168e+00 -2.618062123656272888e-02 -3.396466970443725586e-01 -4.765166938304901123e-01
3.532000000000000000e+03 3.863081216812133789e+00 -1.130845069885253906e+00 -7.620570063591003418e-01 -4.771383851766586304e-02 -2.429312467575073242e-01 -4.295965731143951416e-01
3.533000000000000000e+03 2.967671394348144531e+00 -1.180732727050781250e+00 -5.224424004554748535e-01 -8.386626839637756348e-02 -1.818926036357879639e-01 -4.209245145320892334e-01
3.534000000000000000e+03 2.120916366577148438e+00 -1.226537704467773438e+00 -2.651726007461547852e-01 -1.198307722806930542e-01 -1.155010163784027100e-01 -2.698270678520202637e-01
3.535000000000000000e+03 9.597342491149902344e+00 -2.483072280883789062e-01 -2.012092828750610352e+00 4.245244339108467102e-02 -5.908921360969543457e-01 9.455809742212295532e-02
3.536000000000000000e+03 3.571783065795898438e+00 -3.039060533046722412e-01 -6.645221114158630371e-01 -3.608363494277000427e-02 -2.101817280054092407e-01 -1.126982942223548889e-01
3.537000000000000000e+03 2.233603715896606445e+00 -7.216347455978393555e-01 -2.865243554115295410e-01 -4.717440158128738403e-02 -1.001096218824386597e-01 -1.994483619928359985e-01
3.538000000000000000e+03 1.673935413360595703e+00 -5.692175030708312988e-01 -1.145257130265235901e-01 -2.764838375151157379e-02 -4.265222698450088501e-02 -7.463950663805007935e-02
3.539000000000000000e+03 1.373850703239440918e+00 -1.189781188964843750e+00 -1.404347121715545654e-01 -1.085416004061698914e-01 -7.469289749860763550e-02 -1.630090624094009399e-01
3.540000000000000000e+03 6.016335010528564453e+00 -3.818677961826324463e-01 -1.767278552055358887e+00 -1.925203762948513031e-02 -5.359591841697692871e-01 -1.794826537370681763e-01
3.541000000000000000e+03 2.176476955413818359e+00 -2.550970613956451416e-01 -1.844451576471328735e-01 5.963572300970554352e-03 -5.354447662830352783e-02 -5.152083560824394226e-02
3.542000000000000000e+03 2.899653196334838867e+00 -2.333795428276062012e-01 -3.425359427928924561e-01 2.386582549661397934e-03 -1.020448133349418640e-01 -3.880272060632705688e-02
3.543000000000000000e+03 2.183415794372558594e+01 -8.129010200500488281e+00 1.714319229125976562e+01 1.234097099304199219e+01 8.845248222351074219e+00 -1.328129005432128906e+01
3.544000000000000000e+03 2.182057380676269531e+01 -8.142957687377929688e+00 2.809750366210937500e+01 7.273648262023925781e+00 1.061134624481201172e+01 -1.162988853454589844e+01
3.545000000000000000e+03 2.180996704101562500e+01 -8.159282684326171875e+00 3.452524948120117188e+01 5.858903884887695312e+00 1.211524581909179688e+01 -8.630837440490722656e+00
3.546000000000000000e+03 2.180274009704589844e+01 -8.177360534667968750e+00 3.964205932617187500e+01 5.633838653564453125e+00 1.358276939392089844e+01 -4.202962398529052734e+00
3.547000000000000000e+03 2.179917144775390625e+01 -8.196498870849609375e+00 4.240549468994140625e+01 6.813158988952636719e+00 1.476559638977050781e+01 3.453871607780456543e-01
3.548000000000000000e+03 2.179939842224121094e+01 -8.215966224670410156e+00 4.321212768554687500e+01 9.413294792175292969e+00 1.578762722015380859e+01 5.127797126770019531e+00
3.549000000000000000e+03 2.180340957641601562e+01 -8.235016822814941406e+00 4.213724899291992188e+01 1.311938858032226562e+01 1.657699203491210938e+01 9.036547660827636719e+00
3.550000000000000000e+03 2.181105232238769531e+01 -8.252922058105468750e+00 3.941843414306640625e+01 1.740791893005371094e+01 1.704790687561035156e+01 1.185936927795410156e+01
3.551000000000000000e+03 2.182203483581542969e+01 -8.268997192382812500e+00 3.608908462524414062e+01 2.250623703002929688e+01 1.757859611511230469e+01 1.306197547912597656e+01
3.552000000000000000e+03 2.183593750000000000e+01 -8.282626152038574219e+00 3.197818756103515625e+01 2.646242523193359375e+01 1.753218460083007812e+01 1.296916007995605469e+01
3.553000000000000000e+03 2.185222816467285156e+01 -8.293287277221679688e+00 2.903573226928710938e+01 3.018379211425781250e+01 1.776585769653320312e+01 1.130844497680664062e+01
3.554000000000000000e+03 2.187028121948242188e+01 -8.300573348999023438e+00 2.643775367736816406e+01 3.262389373779296875e+01 1.771849441528320312e+01 8.703953742980957031e+00
3.555000000000000000e+03 2.188940811157226562e+01 -8.304204940795898438e+00 2.483104896545410156e+01 3.353592681884765625e+01 1.751009368896484375e+01 5.835807800292968750e+00
3.556000000000000000e+03 2.190887641906738281e+01 -8.304043769836425781e+00 2.494202804565429688e+01 3.349213409423828125e+01 1.753024864196777344e+01 2.875322818756103516e+00
3.557000000000000000e+03 2.192794036865234375e+01 -8.300095558166503906e+00 2.601366233825683594e+01 3.231668090820312500e+01 1.749910354614257812e+01 2.586856782436370850e-01
3.558000000000000000e+03 2.194587135314941406e+01 -8.292510986328125000e+00 2.752802085876464844e+01 3.005914115905761719e+01 1.727614974975585938e+01 -1.763508915901184082e+00
3.559000000000000000e+03 2.196198081970214844e+01 -8.281580924987792969e+00 3.018103790283203125e+01 2.795351219177246094e+01 1.744036483764648438e+01 -2.582304239273071289e+00
3.560000000000000000e+03 2.197565650939941406e+01 -8.267723083496093750e+00 3.311510848999023438e+01 2.501248550415039062e+01 1.743827819824218750e+01 -2.535153865814208984e+00
3.561000000000000000e+03 2.198637199401855469e+01 -8.251468658447265625e+00 3.576959991455078125e+01 2.241822624206542969e+01 1.745634841918945312e+01 -1.388130068778991699e+00
3.562000000000000000e+03 2.199371719360351562e+01 -8.233439445495605469e+00 3.800762939453125000e+01 2.040584182739257812e+01 1.752404212951660156e+01 8.599017262458801270e-01
3.563000000000000000e+03 2.199741172790527344e+01 -8.214323997497558594e+00 3.926732635498046875e+01 1.912550354003906250e+01 1.751784896850585938e+01 4.017437934875488281e+00
3.564000000000000000e+03 2.199731445312500000e+01 -8.194855690002441406e+00 3.924765396118164062e+01 1.919219779968261719e+01 1.753195571899414062e+01 7.719260692596435547e+00
3.565000000000000000e+03 2.199342918395996094e+01 -8.175778388977050781e+00 3.729628372192382812e+01 1.976170539855957031e+01 1.711739730834960938e+01 1.141934680938720703e+01
3.566000000000000000e+03 2.198590469360351562e+01 -8.157823562622070312e+00 3.420066452026367188e+01 2.231544113159179688e+01 1.695483207702636719e+01 1.437848281860351562e+01
3.567000000000000000e+03 2.197502708435058594e+01 -8.141676902770996094e+00 2.923315048217773438e+01 2.509343910217285156e+01 1.629797744750976562e+01 1.645733642578125000e+01
3.568000000000000000e+03 2.196121406555175781e+01 -8.127956390380859375e+00 2.345025634765625000e+01 2.812946319580078125e+01 1.547391605377197266e+01 1.702326965332031250e+01
3.569000000000000000e+03 2.194499588012695312e+01 -8.117187500000000000e+00 1.767338371276855469e+01 3.077029991149902344e+01 1.453310489654541016e+01 1.599346733093261719e+01
3.570000000000000000e+03 2.192699050903320312e+01 -8.109782218933105469e+00 1.174441719055175781e+01 3.248908615112304688e+01 1.327005004882812500e+01 1.343169689178466797e+01
3.571000000000000000e+03 2.190788841247558594e+01 -8.106024742126464844e+00 6.813382625579833984e+00 3.259300994873046875e+01 1.182191753387451172e+01 1.003452396392822266e+01
3.572000000000000000e+03 2.188841819763183594e+01 -8.106058120727539062e+00 3.146643400192260742e+00 3.113747787475585938e+01 1.028523635864257812e+01 5.531053543090820312e+00
3.573000000000000000e+03 2.186932945251464844e+01 -8.109880447387695312e+00 7.482551932334899902e-01 2.775957298278808594e+01 8.552348136901855469e+00 1.094526648521423340e+00
3.574000000000000000e+03 2.185134887695312500e+01 -8.117346763610839844e+00 2.361395597457885742e+00 2.059751892089843750e+01 6.887674331665039062e+00 -5.112805366516113281e+00
