# el_label, x, y, sXX, sYY, sZZ, sXY
1.000000000000000000e+00 1.261436557769775391e+01 -6.874769926071166992e-01 3.240750074386596680e+00 -1.235590338706970215e+00 6.015478968620300293e-01 -3.152624845504760742e+00
2.000000000000000000e+00 1.241730499267578125e+01 -6.594706177711486816e-01 6.712696552276611328e+00 9.772226810455322266e-01 2.306975841522216797e+00 -3.189124763011932373e-01
3.000000000000000000e+00 1.222024440765380859e+01 -6.314642429351806641e-01 4.479864120483398438e+00 -4.564070999622344971e-01 1.207037091255187988e+00 -9.057489633560180664e-01
4.000000000000000000e+00 1.202318382263183594e+01 -6.034578084945678711e-01 3.792587280273437500e+00 4.108051359653472900e-01 1.261017680168151855e+00 -3.745777606964111328e-01
5.000000000000000000e+00 1.261184310913085938e+01 -7.458304762840270996e-01 1.669858169555664062e+01 -1.827717423439025879e+00 4.461258888244628906e+00 -1.906028628349304199e+00
6.000000000000000000e+00 1.241310119628906250e+01 -7.567264437675476074e-01 9.517315864562988281e+00 -9.473617374897003174e-02 2.826773881912231445e+00 -3.656797707080841064e-01
7.000000000000000000e+00 1.221435832977294922e+01 -7.676223516464233398e-01 9.015095710754394531e+00 3.187914490699768066e-01 2.800166130065917969e+00 4.550455510616302490e-01
8.000000000000000000e+00 1.201561641693115234e+01 -7.785182595252990723e-01 7.123155117034912109e+00 -4.445759057998657227e-01 2.003573656082153320e+00 1.282241493463516235e-01
9.000000000000000000e+00 1.262073040008544922e+01 -8.035584688186645508e-01 2.290937423706054688e+01 -7.564080953598022461e-01 6.645889759063720703e+00 3.736682415008544922e+00
1.000000000000000000e+01 1.242791175842285156e+01 -8.529397249221801758e-01 1.529560947418212891e+01 1.557032167911529541e-01 4.635393619537353516e+00 1.937354564666748047e+00
1.100000000000000000e+01 1.223509407043457031e+01 -9.023209214210510254e-01 1.159587955474853516e+01 1.977830529212951660e-01 3.538098812103271484e+00 1.960137844085693359e+00
1.200000000000000000e+01 1.204227638244628906e+01 -9.517021775245666504e-01 1.031691455841064453e+01 4.325920641422271729e-01 3.224852085113525391e+00 2.061678886413574219e+00
1.300000000000000000e+01 1.264068603515625000e+01 -8.584516048431396484e-01 2.606163978576660156e+01 3.365583419799804688e+00 8.828166961669921875e+00 8.980916976928710938e+00
1.400000000000000000e+01 1.246117115020751953e+01 -9.444282054901123047e-01 1.777759552001953125e+01 1.657211303710937500e+00 5.830441951751708984e+00 5.781474113464355469e+00
1.500000000000000000e+01 1.228165817260742188e+01 -1.030404925346374512e+00 1.442735290527343750e+01 1.780897140502929688e+00 4.862474918365478516e+00 4.570548534393310547e+00
1.600000000000000000e+01 1.210214424133300781e+01 -1.116381525993347168e+00 1.190819931030273438e+01 1.070865511894226074e+00 3.893719434738159180e+00 4.166264057159423828e+00
1.700000000000000000e+01 1.267094707489013672e+01 -9.084089994430541992e-01 2.541263771057128906e+01 8.668051719665527344e+00 1.022420692443847656e+01 1.360729408264160156e+01
1.800000000000000000e+01 1.251160717010498047e+01 -1.027690649032592773e+00 1.887974166870117188e+01 5.527041435241699219e+00 7.322034835815429688e+00 9.100945472717285156e+00
1.900000000000000000e+01 1.235226726531982422e+01 -1.146972179412841797e+00 1.500420856475830078e+01 4.028402805328369141e+00 5.709783554077148438e+00 7.508859157562255859e+00
2.000000000000000000e+01 1.219292831420898438e+01 -1.266253829002380371e+00 1.287725734710693359e+01 3.667937994003295898e+00 4.963558673858642578e+00 6.518808841705322266e+00
2.100000000000000000e+01 1.271035575866699219e+01 -9.515187740325927734e-01 2.351209259033203125e+01 1.554505062103271484e+01 1.171714305877685547e+01 1.613442611694335938e+01
2.200000000000000000e+01 1.257728862762451172e+01 -1.099540233612060547e+00 1.763751602172851562e+01 1.010768985748291016e+01 8.323561668395996094e+00 1.166385173797607422e+01
2.300000000000000000e+01 1.244422054290771484e+01 -1.247561693191528320e+00 1.475745296478271484e+01 7.927684783935546875e+00 6.805541038513183594e+00 9.549908638000488281e+00
2.400000000000000000e+01 1.231115341186523438e+01 -1.395583152770996094e+00 1.242123222351074219e+01 6.507089138031005859e+00 5.678496360778808594e+00 8.629755020141601562e+00
2.500000000000000000e+01 1.275740337371826172e+01 -9.861310124397277832e-01 2.019497299194335938e+01 2.233476257324218750e+01 1.275892066955566406e+01 1.661954116821289062e+01
2.600000000000000000e+01 1.265570163726806641e+01 -1.157227277755737305e+00 1.597940349578857422e+01 1.540401172637939453e+01 9.415024757385253906e+00 1.268287467956542969e+01
2.700000000000000000e+01 1.255399894714355469e+01 -1.328323483467102051e+00 1.305531501770019531e+01 1.227395725250244141e+01 7.598781585693359375e+00 1.058980178833007812e+01
2.800000000000000000e+01 1.245229625701904297e+01 -1.499419808387756348e+00 1.157796764373779297e+01 1.014190578460693359e+01 6.515962123870849609e+00 9.383966445922851562e+00
2.900000000000000000e+01 1.281028938293457031e+01 -1.010921001434326172e+00 1.744306755065917969e+01 2.856638526916503906e+01 1.380283546447753906e+01 1.499910736083984375e+01
3.000000000000000000e+01 1.274384498596191406e+01 -1.198543906211853027e+00 1.378557205200195312e+01 2.019620895385742188e+01 1.019453430175781250e+01 1.216840839385986328e+01
3.100000000000000000e+01 1.267739963531494141e+01 -1.386166930198669434e+00 1.135684394836425781e+01 1.673645973205566406e+01 8.427990913391113281e+00 1.048268795013427734e+01
3.200000000000000000e+01 1.261095523834228516e+01 -1.573789834976196289e+00 9.836620330810546875e+00 1.429525089263916016e+01 7.239561557769775391e+00 8.939718246459960938e+00
3.300000000000000000e+01 1.286699008941650391e+01 -1.024940133094787598e+00 1.537891674041748047e+01 3.304546356201171875e+01 1.452731418609619141e+01 1.197075176239013672e+01
3.400000000000000000e+01 1.283834552764892578e+01 -1.221909046173095703e+00 1.229784393310546875e+01 2.439350318908691406e+01 1.100740432739257812e+01 1.022586727142333984e+01
3.500000000000000000e+01 1.280970096588134766e+01 -1.418878078460693359e+00 9.908420562744140625e+00 2.002762603759765625e+01 8.980813980102539062e+00 9.255493164062500000e+00
3.600000000000000000e+01 1.278105640411376953e+01 -1.615847110748291016e+00 8.210371971130371094e+00 1.828508949279785156e+01 7.948638439178466797e+00 8.166377067565917969e+00
3.700000000000000000e+01 1.292533493041992188e+01 -1.027651667594909668e+00 1.504419231414794922e+01 3.576083374023437500e+01 1.524150848388671875e+01 8.099676132202148438e+00
3.800000000000000000e+01 1.293558692932128906e+01 -1.226428389549255371e+00 1.143948650360107422e+01 2.712144660949707031e+01 1.156828022003173828e+01 7.551409721374511719e+00
3.900000000000000000e+01 1.294583988189697266e+01 -1.425205111503601074e+00 9.490212440490722656e+00 2.246656990051269531e+01 9.587034225463867188e+00 6.846207618713378906e+00
4.000000000000000000e+01 1.295609188079833984e+01 -1.623981833457946777e+00 7.704461097717285156e+00 1.959173393249511719e+01 8.188858032226562500e+00 7.026965141296386719e+00
4.100000000000000000e+01 1.298309135437011719e+01 -1.018952012062072754e+00 1.604736137390136719e+01 3.655533599853515625e+01 1.578080940246582031e+01 4.337920665740966797e+00
4.200000000000000000e+01 1.303184795379638672e+01 -1.211928844451904297e+00 1.187110424041748047e+01 2.831994438171386719e+01 1.205731391906738281e+01 4.473600864410400391e+00
4.300000000000000000e+01 1.308060455322265625e+01 -1.404905796051025391e+00 9.787501335144042969e+00 2.371176910400390625e+01 1.004978084564208984e+01 4.225944995880126953e+00
4.400000000000000000e+01 1.312936115264892578e+01 -1.597882628440856934e+00 8.637718200683593750e+00 1.963453865051269531e+01 8.481677055358886719e+00 4.086504459381103516e+00
4.500000000000000000e+01 1.303804969787597656e+01 -9.991739392280578613e-01 1.805413246154785156e+01 3.569659805297851562e+01 1.612521934509277344e+01 1.259221792221069336e+00
4.600000000000000000e+01 1.312344360351562500e+01 -1.178965568542480469e+00 1.350559329986572266e+01 2.823684883117675781e+01 1.252273273468017578e+01 1.718549609184265137e+00
4.700000000000000000e+01 1.320883846282958984e+01 -1.358757138252258301e+00 1.095523643493652344e+01 2.343480873107910156e+01 1.031701374053955078e+01 1.695190429687500000e+00
4.800000000000000000e+01 1.329423332214355469e+01 -1.538548588752746582e+00 9.660602569580078125e+00 2.041680526733398438e+01 9.023221969604492188e+00 1.135367274284362793e+00
4.900000000000000000e+01 1.308810424804687500e+01 -9.690745472908020020e-01 2.106797981262207031e+01 3.397772979736328125e+01 1.651371383666992188e+01 -6.330786943435668945e-01
5.000000000000000000e+01 1.320686912536621094e+01 -1.128799915313720703e+00 1.560655498504638672e+01 2.683739280700683594e+01 1.273318386077880859e+01 -3.276595473289489746e-01
5.100000000000000000e+01 1.332563400268554688e+01 -1.288525223731994629e+00 1.310723304748535156e+01 2.251549720764160156e+01 1.068681907653808594e+01 -2.103882133960723877e-01
5.200000000000000000e+01 1.344439888000488281e+01 -1.448250412940979004e+00 1.080677223205566406e+01 1.996312522888183594e+01 9.230969429016113281e+00 -2.299565225839614868e-01
5.300000000000000000e+01 1.313134098052978516e+01 -9.298057556152343750e-01 2.386812591552734375e+01 3.158271217346191406e+01 1.663525199890136719e+01 -1.372498273849487305e+00
5.400000000000000000e+01 1.327893161773681641e+01 -1.063351869583129883e+00 1.838807868957519531e+01 2.497112655639648438e+01 1.300776195526123047e+01 -1.197371721267700195e+00
5.500000000000000000e+01 1.342652130126953125e+01 -1.196897864341735840e+00 1.517809391021728516e+01 2.088473701477050781e+01 1.081884956359863281e+01 -1.134333610534667969e+00
5.600000000000000000e+01 1.357411098480224609e+01 -1.330443978309631348e+00 1.327014255523681641e+01 1.818878936767578125e+01 9.437679290771484375e+00 -6.338704228401184082e-01
5.700000000000000000e+01 1.316610622406005859e+01 -8.828703761100769043e-01 2.660046958923339844e+01 2.943439292907714844e+01 1.681045913696289062e+01 -8.290221095085144043e-01
5.800000000000000000e+01 1.333687210083007812e+01 -9.851261973381042480e-01 2.070998001098632812e+01 2.280261802673339844e+01 1.305377960205078125e+01 -9.960089921951293945e-01
5.900000000000000000e+01 1.350763797760009766e+01 -1.087382078170776367e+00 1.742624092102050781e+01 1.914344215393066406e+01 1.097090530395507812e+01 -7.853368520736694336e-01
6.000000000000000000e+01 1.367840385437011719e+01 -1.189637899398803711e+00 1.538494300842285156e+01 1.621533966064453125e+01 9.480084419250488281e+00 -7.771056890487670898e-01
6.100000000000000000e+01 1.319106674194335938e+01 -8.300647735595703125e-01 2.830922698974609375e+01 2.747976303100585938e+01 1.673669624328613281e+01 5.629576444625854492e-01
6.200000000000000000e+01 1.337847328186035156e+01 -8.971168994903564453e-01 2.260518646240234375e+01 2.124366760253906250e+01 1.315465641021728516e+01 3.702537119388580322e-01
6.300000000000000000e+01 1.356588077545166016e+01 -9.641689062118530273e-01 1.899274253845214844e+01 1.741737747192382812e+01 1.092303657531738281e+01 3.207292854785919189e-01
6.400000000000000000e+01 1.375328731536865234e+01 -1.031221032142639160e+00 1.662957191467285156e+01 1.507469367980957031e+01 9.511280059814453125e+00 2.127887457609176636e-01
6.500000000000000000e+01 1.320526981353759766e+01 -7.734096646308898926e-01 2.928151321411132812e+01 2.664249801635742188e+01 1.677720260620117188e+01 2.802210807800292969e+00
6.600000000000000000e+01 1.340214443206787109e+01 -8.026916980743408203e-01 2.315511131286621094e+01 2.008766555786132812e+01 1.297283363342285156e+01 2.305383920669555664e+00
6.700000000000000000e+01 1.359902000427246094e+01 -8.319736719131469727e-01 1.980294799804687500e+01 1.675199317932128906e+01 1.096648216247558594e+01 2.080507993698120117e+00
6.800000000000000000e+01 1.379589557647705078e+01 -8.612557053565979004e-01 1.716356849670410156e+01 1.408445453643798828e+01 9.374406814575195312e+00 1.976960420608520508e+00
6.900000000000000000e+01 1.320816993713378906e+01 -7.150733470916748047e-01 2.868776130676269531e+01 2.618512725830078125e+01 1.646186637878417969e+01 5.177796840667724609e+00
7.000000000000000000e+01 1.340697860717773438e+01 -7.054644823074340820e-01 2.275013732910156250e+01 2.044527816772460938e+01 1.295862483978271484e+01 4.650819301605224609e+00
7.100000000000000000e+01 1.360578727722167969e+01 -6.958556771278381348e-01 1.902375411987304688e+01 1.657154655456542969e+01 1.067858982086181641e+01 3.921931028366088867e+00
7.200000000000000000e+01 1.380459690093994141e+01 -6.862468123435974121e-01 1.723888587951660156e+01 1.420862293243408203e+01 9.434252738952636719e+00 3.607892751693725586e+00
7.300000000000000000e+01 1.319965744018554688e+01 -6.572886705398559570e-01 2.702006340026855469e+01 2.748524665832519531e+01 1.635159301757812500e+01 7.627800941467285156e+00
7.400000000000000000e+01 1.339279079437255859e+01 -6.091567277908325195e-01 2.075227165222167969e+01 2.112152099609375000e+01 1.256213855743408203e+01 6.513057231903076172e+00
7.500000000000000000e+01 1.358592414855957031e+01 -5.610247254371643066e-01 1.748423767089843750e+01 1.788285827636718750e+01 1.061012840270996094e+01 5.746712684631347656e+00
7.600000000000000000e+01 1.377905750274658203e+01 -5.128927826881408691e-01 1.513156604766845703e+01 1.502940177917480469e+01 9.048290252685546875e+00 4.665195465087890625e+00
7.700000000000000000e+01 1.318005752563476562e+01 -6.022671461105346680e-01 2.385729408264160156e+01 2.901263046264648438e+01 1.586097717285156250e+01 9.364555358886718750e+00
7.800000000000000000e+01 1.336012363433837891e+01 -5.174542069435119629e-01 1.782160758972167969e+01 2.332611656188964844e+01 1.234431743621826172e+01 7.775916099548339844e+00
7.900000000000000000e+01 1.354019069671630859e+01 -4.326412081718444824e-01 1.481395435333251953e+01 1.913928604125976562e+01 1.018597221374511719e+01 6.576146602630615234e+00
8.000000000000000000e+01 1.372025775909423828e+01 -3.478282690048217773e-01 1.248669624328613281e+01 1.712468528747558594e+01 8.883414268493652344e+00 5.998649120330810547e+00
8.100000000000000000e+01 1.315011978149414062e+01 -5.521146059036254883e-01 1.969674873352050781e+01 3.182946014404296875e+01 1.545786285400390625e+01 1.003695392608642578e+01
8.200000000000000000e+01 1.331022834777832031e+01 -4.338666200637817383e-01 1.424817180633544922e+01 2.524576950073242188e+01 1.184818172454833984e+01 7.854559898376464844e+00
8.300000000000000000e+01 1.347033691406250000e+01 -3.156186044216156006e-01 1.141858768463134766e+01 2.144069480895996094e+01 9.857784271240234375e+00 6.599688053131103516e+00
8.400000000000000000e+01 1.363044452667236328e+01 -1.973706185817718506e-01 1.000472259521484375e+01 1.824034500122070312e+01 8.473520278930664062e+00 5.972229957580566406e+00
8.500000000000000000e+01 1.311099052429199219e+01 -5.087504982948303223e-01 1.507012462615966797e+01 3.442560577392578125e+01 1.484871864318847656e+01 9.206476211547851562e+00
8.600000000000000000e+01 1.324501228332519531e+01 -3.615930676460266113e-01 1.038673305511474609e+01 2.738107872009277344e+01 1.133034324645996094e+01 6.665384769439697266e+00
8.700000000000000000e+01 1.337903499603271484e+01 -2.144356369972229004e-01 8.341283798217773438e+00 2.299333572387695312e+01 9.400385856628417969e+00 5.613606929779052734e+00
8.800000000000000000e+01 1.351305770874023438e+01 -6.727821379899978638e-02 6.694161415100097656e+00 2.006745147705078125e+01 8.028483390808105469e+00 4.680175781250000000e+00
8.900000000000000000e+01 1.306416702270507812e+01 -4.738343954086303711e-01 1.042769432067871094e+01 3.675885009765625000e+01 1.415596389770507812e+01 6.699381828308105469e+00
9.000000000000000000e+01 1.316697406768798828e+01 -3.033995926380157471e-01 7.162673950195312500e+00 2.844726181030273438e+01 1.068298053741455078e+01 4.353523731231689453e+00
9.100000000000000000e+01 1.326978111267089844e+01 -1.329647600650787354e-01 5.446250915527343750e+00 2.396739196777343750e+01 8.824092864990234375e+00 3.467496156692504883e+00
9.200000000000000000e+01 1.337258815765380859e+01 3.747005015611648560e-02 4.462399959564208984e+00 2.116723251342773438e+01 7.688889980316162109e+00 3.238135814666748047e+00
9.300000000000000000e+01 1.301144218444824219e+01 -4.487026631832122803e-01 6.735607624053955078e+00 3.745598983764648438e+01 1.325747966766357422e+01 2.929813623428344727e+00
9.400000000000000000e+01 1.307909870147705078e+01 -2.615133821964263916e-01 4.777289390563964844e+00 2.851803207397460938e+01 9.988596916198730469e+00 1.032613396644592285e+00
9.500000000000000000e+01 1.314675617218017578e+01 -7.432407140731811523e-02 3.487097263336181641e+00 2.357904434204101562e+01 8.119842529296875000e+00 8.335664868354797363e-01
9.600000000000000000e+01 1.321441268920898438e+01 1.128652244806289673e-01 3.223741531372070312e+00 2.055632972717285156e+01 7.134021759033203125e+00 7.649961113929748535e-01
9.700000000000000000e+01 1.295483303070068359e+01 -4.343171417713165283e-01 4.766954898834228516e+00 3.648853302001953125e+01 1.237664699554443359e+01 -1.895104527473449707e+00
9.800000000000000000e+01 1.298475074768066406e+01 -2.375375032424926758e-01 3.350516319274902344e+00 2.675222206115722656e+01 9.030821800231933594e+00 -2.342112064361572266e+00
9.900000000000000000e+01 1.301466846466064453e+01 -4.075786471366882324e-02 2.845535039901733398e+00 2.203466606140136719e+01 7.464060306549072266e+00 -2.270764589309692383e+00
1.000000000000000000e+02 1.304458522796630859e+01 1.560217738151550293e-01 2.230767726898193359e+00 1.851407432556152344e+01 6.223453044891357422e+00 -2.122006893157958984e+00
1.010000000000000000e+02 1.289650630950927734e+01 -4.312283992767333984e-01 4.110237121582031250e+00 3.297458648681640625e+01 1.112544727325439453e+01 -6.422963142395019531e+00
1.020000000000000000e+02 1.288753890991210938e+01 -2.323895990848541260e-01 3.591280460357666016e+00 2.361392784118652344e+01 8.161562919616699219e+00 -5.612196922302246094e+00
1.030000000000000000e+02 1.287857246398925781e+01 -3.355079889297485352e-02 2.724737405776977539e+00 1.891679000854492188e+01 6.492457866668701172e+00 -4.831172943115234375e+00
1.040000000000000000e+02 1.286960601806640625e+01 1.652880162000656128e-01 2.254845380783081055e+00 1.625149536132812500e+01 5.551902294158935547e+00 -4.643408298492431641e+00
1.050000000000000000e+02 1.283869457244873047e+01 -4.395546615123748779e-01 5.550797939300537109e+00 2.752702331542968750e+01 9.923346519470214844e+00 -1.011007499694824219e+01
1.060000000000000000e+02 1.279118633270263672e+01 -2.462666779756546021e-01 4.269870281219482422e+00 1.890695190429687500e+01 6.953046798706054688e+00 -7.717080116271972656e+00
1.070000000000000000e+02 1.274367809295654297e+01 -5.297869816422462463e-02 3.730143308639526367e+00 1.506257534027099609e+01 5.637815475463867188e+00 -6.674386024475097656e+00
1.080000000000000000e+02 1.269616985321044922e+01 1.403092890977859497e-01 2.720843076705932617e+00 1.290761852264404297e+01 4.688538551330566406e+00 -5.719765186309814453e+00
1.090000000000000000e+02 1.278361034393310547e+01 -4.589772224426269531e-01 7.366697788238525391e+00 2.042747688293457031e+01 8.338252067565917969e+00 -1.178931713104248047e+01
1.100000000000000000e+02 1.269937896728515625e+01 -2.786376178264617920e-01 5.842495918273925781e+00 1.345214557647705078e+01 5.788392543792724609e+00 -8.572471618652343750e+00
1.110000000000000000e+02 1.261514759063720703e+01 -9.829801321029663086e-02 4.506013393402099609e+00 1.061354160308837891e+01 4.535866260528564453e+00 -6.893816947937011719e+00
1.120000000000000000e+02 1.253091621398925781e+01 8.204158395528793335e-02 3.936824798583984375e+00 9.108717918395996094e+00 3.913662672042846680e+00 -5.999806880950927734e+00
1.130000000000000000e+02 1.273336124420166016e+01 -4.887527823448181152e-01 9.605613708496093750e+00 1.262224388122558594e+01 6.668357372283935547e+00 -1.130832862854003906e+01
1.140000000000000000e+02 1.261563014984130859e+01 -3.282635211944580078e-01 6.495231628417968750e+00 7.903128623962402344e+00 4.319508075714111328e+00 -7.512955188751220703e+00
1.150000000000000000e+02 1.249790000915527344e+01 -1.677742749452590942e-01 5.387835979461669922e+00 6.331441402435302734e+00 3.515783309936523438e+00 -5.946914672851562500e+00
1.160000000000000000e+02 1.238016986846923828e+01 -7.285049185156822205e-03 4.187263965606689453e+00 5.573591709136962891e+00 2.928256750106811523e+00 -5.012113571166992188e+00
1.170000000000000000e+02 1.268987083435058594e+01 -5.277417302131652832e-01 9.724272727966308594e+00 5.332280635833740234e+00 4.516965866088867188e+00 -8.365656852722167969e+00
1.180000000000000000e+02 1.254314708709716797e+01 -3.932451009750366211e-01 6.548509120941162109e+00 3.031111955642700195e+00 2.873886346817016602e+00 -5.038919448852539062e+00
1.190000000000000000e+02 1.239642333984375000e+01 -2.587485015392303467e-01 4.537724971771240234e+00 3.080448389053344727e+00 2.285451889038085938e+00 -3.717754364013671875e+00
1.200000000000000000e+02 1.224969863891601562e+01 -1.242518946528434753e-01 3.903057336807250977e+00 2.928500890731811523e+00 2.049467563629150391e+00 -3.519643068313598633e+00
1.210000000000000000e+02 1.265480422973632812e+01 -5.744518637657165527e-01 7.827364921569824219e+00 -1.226490259170532227e+00 1.980262279510498047e+00 -3.305140495300292969e+00
1.220000000000000000e+02 1.248470211029052734e+01 -4.710953831672668457e-01 3.265595197677612305e+00 6.174524426460266113e-01 1.164914250373840332e+00 -1.440936207771301270e+00
1.230000000000000000e+02 1.231459999084472656e+01 -3.677388727664947510e-01 3.079849720001220703e+00 1.418577790260314941e+00 1.349528312683105469e+00 -2.028656005859375000e+00
1.240000000000000000e+02 1.214449787139892578e+01 -2.643823623657226562e-01 2.389734029769897461e+00 6.703229546546936035e-01 9.180170893669128418e-01 -1.493142604827880859e+00
1.250000000000000000e+02 1.262950229644775391e+01 -6.270955801010131836e-01 -2.824447631835937500e+00 -3.399174690246582031e+00 -1.867086648941040039e+00 2.754653692245483398e+00
1.260000000000000000e+02 1.244253253936767578e+01 -5.588348507881164551e-01 3.870094120502471924e-01 9.119204282760620117e-01 3.896789550781250000e-01 -3.925390541553497314e-01
1.270000000000000000e+02 1.225556278228759766e+01 -4.905741214752197266e-01 8.199229836463928223e-02 -3.123905062675476074e-01 -6.911946088075637817e-02 3.379877889528870583e-03
1.280000000000000000e+02 1.206859302520751953e+01 -4.223134219646453857e-01 2.409445121884346008e-03 1.431415081024169922e-01 4.366528615355491638e-02 -6.521586328744888306e-02
1.290000000000000000e+02 7.829921722412109375e+00 -7.533687949180603027e-01 6.740673631429672241e-02 9.800857305526733398e-02 4.962459206581115723e-02 3.250309526920318604e-01
1.300000000000000000e+02 9.728212356567382812e+00 -7.770062685012817383e-01 1.381174087524414062e+00 -2.453607972711324692e-03 4.136161506175994873e-01 4.660941064357757568e-01
1.310000000000000000e+02 9.398120880126953125e+00 -9.024546742439270020e-01 1.501795291900634766e+00 -4.291984252631664276e-03 4.492509961128234863e-01 6.473982334136962891e-01
1.320000000000000000e+02 9.717799186706542969e+00 -3.540026843547821045e-01 5.276909470558166504e-01 1.959568709135055542e-01 2.170943468809127808e-01 1.766123622655868530e-01
1.330000000000000000e+02 9.656286239624023438e+00 -1.327588409185409546e-01 -1.815056204795837402e-01 2.687987871468067169e-02 -4.638772085309028625e-02 1.051233708858489990e-02
1.340000000000000000e+02 7.014411926269531250e+00 -7.554016709327697754e-01 -3.244465291500091553e-01 1.091412547975778580e-02 -9.405972063541412354e-02 1.548904031515121460e-01
1.350000000000000000e+02 6.190936088562011719e+00 -7.554240226745605469e-01 -5.135709047317504883e-01 9.343802183866500854e-02 -1.260398626327514648e-01 9.805013239383697510e-02
1.360000000000000000e+02 5.398923397064208984e+00 -2.639180123805999756e-01 -9.773838520050048828e-01 3.421334922313690186e-02 -2.829511463642120361e-01 -1.619379222393035889e-02
1.370000000000000000e+02 4.541661739349365234e+00 -7.542797923088073730e-01 -5.822606086730957031e-01 5.673180893063545227e-02 -1.576586365699768066e-01 -9.155303239822387695e-02
1.380000000000000000e+02 3.722485065460205078e+00 -7.538456320762634277e-01 -5.044003129005432129e-01 -4.798969719558954239e-03 -1.527597904205322266e-01 -1.887176334857940674e-01
1.390000000000000000e+02 2.925825595855712891e+00 -7.533973455429077148e-01 -3.577051162719726562e-01 1.006720680743455887e-02 -1.042913720011711121e-01 -1.625523865222930908e-01
1.400000000000000000e+02 1.113378047943115234e+00 -3.907890617847442627e-01 -8.947596698999404907e-02 -1.428021490573883057e-02 -3.112685494124889374e-02 -5.380872637033462524e-02
1.410000000000000000e+02 3.942982256412506104e-01 -5.612195730209350586e-01 -5.258491728454828262e-03 -1.904592476785182953e-02 -7.291324902325868607e-03 -9.994490072131156921e-03
1.420000000000000000e+02 6.930083632469177246e-01 -1.130789041519165039e+00 -6.137338466942310333e-03 -9.300257265567779541e-02 -2.974197268486022949e-02 -8.256994187831878662e-02
1.430000000000000000e+02 9.235486984252929688e+00 -1.196437478065490723e+00 1.781523227691650391e+00 -3.412386029958724976e-02 5.242198109626770020e-01 8.555877208709716797e-01
1.440000000000000000e+02 8.600282669067382812e+00 -1.238557457923889160e+00 1.231014728546142578e+00 1.814472228288650513e-01 4.237385988235473633e-01 8.335667848587036133e-01
1.450000000000000000e+02 7.789863109588623047e+00 -1.250280857086181641e+00 5.455464124679565430e-01 1.018138080835342407e-01 1.942080557346343994e-01 5.476314425468444824e-01
1.460000000000000000e+02 6.972671508789062500e+00 -1.251490235328674316e+00 1.374191641807556152e-01 2.011905461549758911e-01 1.015829145908355713e-01 4.176623821258544922e-01
1.470000000000000000e+02 6.153009891510009766e+00 -1.251307964324951172e+00 -1.743068397045135498e-01 1.087135970592498779e-01 -1.967797242105007172e-02 1.282827258110046387e-01
1.480000000000000000e+02 5.332817554473876953e+00 -1.251066446304321289e+00 -2.948349714279174805e-01 1.519104093313217163e-01 -4.287737235426902771e-02 4.370326921343803406e-02
1.490000000000000000e+02 4.512991905212402344e+00 -1.251022696495056152e+00 -3.728052377700805664e-01 6.316820532083511353e-02 -9.289111196994781494e-02 -1.702206581830978394e-01
1.500000000000000000e+02 3.695334911346435547e+00 -1.251716613769531250e+00 -3.206277787685394287e-01 6.172992661595344543e-02 -7.766935229301452637e-02 -1.851463913917541504e-01
1.510000000000000000e+02 2.886153936386108398e+00 -1.253020882606506348e+00 -2.788453102111816406e-01 -2.095579542219638824e-02 -8.994033187627792358e-02 -2.892408072948455811e-01
1.520000000000000000e+02 2.101504087448120117e+00 -1.243252873420715332e+00 -1.616609245538711548e-01 -4.439458250999450684e-02 -6.181665137410163879e-02 -1.995860040187835693e-01
1.530000000000000000e+02 2.176601886749267578e+00 -2.597689926624298096e-01 -2.755993604660034180e-01 -2.102593425661325455e-03 -8.331058919429779053e-02 -4.838965833187103271e-02
1.540000000000000000e+02 9.235727310180664062e+00 -6.637488603591918945e-01 7.519692778587341309e-01 6.882210075855255127e-02 2.462374120950698853e-01 3.972138166427612305e-01
1.550000000000000000e+02 9.707329750061035156e+00 -5.729643702507019043e-01 9.818421006202697754e-01 -8.532067388296127319e-02 2.689564228057861328e-01 2.324625253677368164e-01
1.560000000000000000e+02 9.271919250488281250e+00 -3.164783120155334473e-01 6.714220624417066574e-03 -1.883354783058166504e-01 -5.448637530207633972e-02 4.834809154272079468e-02
1.570000000000000000e+02 9.526432991027832031e+00 -1.388131976127624512e+00 2.307401180267333984e+00 6.337922066450119019e-02 7.112340927124023438e-01 1.186185359954833984e+00
1.580000000000000000e+02 9.660920143127441406e+00 -1.173843026161193848e+00 2.460387229919433594e+00 -4.624064266681671143e-02 7.242439389228820801e-01 8.944726586341857910e-01
1.590000000000000000e+02 8.679335594177246094e+00 -2.622974812984466553e-01 -3.146561384201049805e-01 6.925190240144729614e-02 -7.362127304077148438e-02 1.204391717910766602e-01
1.600000000000000000e+02 8.611701965332031250e+00 -7.408549785614013672e-01 4.782726466655731201e-01 -2.993018366396427155e-02 1.345027387142181396e-01 3.302260935306549072e-01
1.610000000000000000e+02 9.710314750671386719e+00 -9.709966778755187988e-01 1.966814279556274414e+00 -5.178851261734962463e-02 5.745077133178710938e-01 6.607478260993957520e-01
1.620000000000000000e+02 4.569006919860839844e+00 -2.632571458816528320e-01 -8.781623840332031250e-01 -1.385550573468208313e-02 -2.676053643226623535e-01 -6.032406538724899292e-02
1.630000000000000000e+02 3.741971731185913086e+00 -2.621290385723114014e-01 -6.923853754997253418e-01 1.648754812777042389e-02 -2.027693539857864380e-01 -5.963061377406120300e-02
1.640000000000000000e+02 2.214316129684448242e+00 -7.430219054222106934e-01 -2.618834972381591797e-01 -4.165983200073242188e-02 -9.106300026178359985e-02 -1.952100396156311035e-01
1.650000000000000000e+02 1.664996981620788574e+00 -5.761379599571228027e-01 -1.435099244117736816e-01 -5.914880894124507904e-03 -4.482743889093399048e-02 -8.450175821781158447e-02
1.660000000000000000e+02 7.882459163665771484e+00 -2.630879282951354980e-01 -6.388202309608459473e-01 -4.083675146102905273e-02 -2.038971036672592163e-01 5.293736234307289124e-02
1.670000000000000000e+02 7.058625698089599609e+00 -2.639114856719970703e-01 -8.478693366050720215e-01 4.764145612716674805e-02 -2.400683611631393433e-01 5.672216042876243591e-02
1.680000000000000000e+02 6.229294776916503906e+00 -2.641160786151885986e-01 -9.777398109436035156e-01 -1.981466449797153473e-02 -2.992663383483886719e-01 -4.188229213468730450e-04
1.690000000000000000e+02 5.365888118743896484e+00 -7.549844384193420410e-01 -6.131514906883239746e-01 1.624858379364013672e-02 -1.790708601474761963e-01 -5.731783062219619751e-02
1.700000000000000000e+02 1.366018414497375488e+00 -1.195997595787048340e+00 -1.209494173526763916e-01 -8.240006864070892334e-02 -6.100484728813171387e-02 -1.900646239519119263e-01
1.710000000000000000e+02 2.928977489471435547e+00 -2.603764832019805908e-01 -4.791781008243560791e-01 -1.195650454610586166e-02 -1.473403871059417725e-01 -7.515309005975723267e-02
1.720000000000000000e+02 1.227327251434326172e+01 5.806514024734497070e-01 2.396462202072143555e+00 6.699960231781005859e+00 2.728926897048950195e+00 -4.632381916046142578e+00
1.730000000000000000e+02 1.241032695770263672e+01 8.357972502708435059e-01 1.465439438819885254e+00 7.809884071350097656e+00 2.782597064971923828e+00 -4.211412906646728516e+00
1.740000000000000000e+02 1.403164100646972656e+01 5.815402255393564701e-04 8.691629409790039062e+00 1.339463520050048828e+01 6.625879287719726562e+00 5.078791618347167969e+00
1.750000000000000000e+02 1.370171451568603516e+01 -1.470773100852966309e+00 1.107627773284912109e+01 1.605747604370117188e+01 8.140126228332519531e+00 4.809293895959854126e-02
1.760000000000000000e+02 1.331944274902343750e+01 -1.717679142951965332e+00 8.307211875915527344e+00 1.841092300415039062e+01 8.015440940856933594e+00 1.393141984939575195e+00
1.770000000000000000e+02 1.230249118804931641e+01 -1.987990617752075195e+00 7.946980953216552734e+00 8.692785263061523438e+00 4.991930007934570312e+00 8.431612968444824219e+00
1.780000000000000000e+02 1.162988758087158203e+01 -5.499023199081420898e-01 2.577005386352539062e+00 1.736460328102111816e-01 8.251954317092895508e-01 -2.321259230375289917e-01
1.790000000000000000e+02 1.122138214111328125e+01 -4.867831468582153320e-01 1.755543231964111328e+00 5.587110295891761780e-02 5.434243083000183105e-01 -6.526298820972442627e-02
1.800000000000000000e+02 1.009359169006347656e+01 -1.532830297946929932e-01 1.002860162407159805e-02 -1.377935428172349930e-02 -1.125225680880248547e-03 1.385890096426010132e-01
1.810000000000000000e+02 1.392632770538330078e+01 -4.805120825767517090e-01 1.429218578338623047e+01 1.353970336914062500e+01 8.349567413330078125e+00 4.304174423217773438e+00
1.820000000000000000e+02 1.018055629730224609e+01 7.236552834510803223e-01 -3.337153196334838867e-01 1.985240876674652100e-01 -4.055736958980560303e-02 -6.405349373817443848e-01
1.830000000000000000e+02 1.196370887756347656e+01 -1.597608625888824463e-01 1.894246935844421387e+00 7.982195019721984863e-01 8.077399134635925293e-01 -1.456625223159790039e+00
1.840000000000000000e+02 1.186717319488525391e+01 1.478869616985321045e-01 2.352561473846435547e+00 1.867668986320495605e+00 1.266069173812866211e+00 -2.423939466476440430e+00
1.850000000000000000e+02 1.176326942443847656e+01 -5.775881931185722351e-02 1.440325260162353516e+00 6.677426695823669434e-01 6.324203610420227051e-01 -1.251830339431762695e+00
1.860000000000000000e+02 1.416676139831542969e+01 -1.035920977592468262e+00 1.261720085144042969e+01 1.110404491424560547e+01 7.116374015808105469e+00 1.361553072929382324e+00
1.870000000000000000e+02 1.300144195556640625e+01 6.552467942237854004e-01 8.000249266624450684e-01 1.408396434783935547e+01 4.465196609497070312e+00 -2.855724096298217773e+00
1.880000000000000000e+02 1.221488571166992188e+01 1.855133771896362305e-01 3.331009864807128906e+00 4.685495853424072266e+00 2.404951810836791992e+00 -4.429622173309326172e+00
1.890000000000000000e+02 1.182660961151123047e+01 -5.766695737838745117e-01 3.046131849288940430e+00 -2.260858267545700073e-01 8.460138440132141113e-01 -4.524577260017395020e-01
1.900000000000000000e+02 1.143146705627441406e+01 -5.194447636604309082e-01 2.128958463668823242e+00 -1.652339100837707520e-01 5.891173481941223145e-01 -2.102958112955093384e-01
1.910000000000000000e+02 1.381450557708740234e+01 -1.331552267074584961e+00 1.447155094146728516e+01 1.390850162506103516e+01 8.514016151428222656e+00 -7.379862070083618164e-01
1.920000000000000000e+02 1.111485958099365234e+01 -1.675358772277832031e+00 6.743352413177490234e+00 1.008267998695373535e+00 2.325486183166503906e+00 3.689416408538818359e+00
1.930000000000000000e+02 1.030019474029541016e+01 -1.512971758842468262e+00 3.774293422698974609e+00 5.113463401794433594e-01 1.285691857337951660e+00 1.976541638374328613e+00
1.940000000000000000e+02 9.925158500671386719e+00 -1.424113273620605469e+00 3.270122051239013672e+00 4.550390243530273438e-01 1.117548346519470215e+00 1.650618433952331543e+00
1.950000000000000000e+02 1.119269180297851562e+01 -7.813856005668640137e-01 3.913104534149169922e+00 -3.420343697071075439e-01 1.071321010589599609e+00 4.879980981349945068e-01
1.960000000000000000e+02 1.026748180389404297e+01 -6.118654608726501465e-01 1.442250967025756836e+00 -1.443888545036315918e-01 3.893586099147796631e-01 2.452971935272216797e-01
1.970000000000000000e+02 1.007427215576171875e+01 -3.682022988796234131e-01 5.502493381500244141e-01 -2.815410792827606201e-01 8.061247318983078003e-02 -3.476475179195404053e-02
1.980000000000000000e+02 1.249541473388671875e+01 -1.979172468185424805e+00 7.843143939971923828e+00 1.076588726043701172e+01 5.582709312438964844e+00 7.889714241027832031e+00
1.990000000000000000e+02 1.194648265838623047e+01 -1.645454645156860352e+00 9.799716949462890625e+00 4.011689662933349609e+00 4.143422126770019531e+00 6.642524719238281250e+00
2.000000000000000000e+02 1.138732337951660156e+01 -1.434697389602661133e+00 7.713418483734130859e+00 8.555773496627807617e-01 2.570698738098144531e+00 3.475885152816772461e+00
2.010000000000000000e+02 1.163826560974121094e+01 -1.085764646530151367e+00 7.909681320190429688e+00 4.027150571346282959e-01 2.493718862533569336e+00 2.123637437820434570e+00
2.020000000000000000e+02 1.011388778686523438e+01 -1.479190587997436523e+00 3.482524633407592773e+00 2.725274488329887390e-02 1.052933216094970703e+00 1.641173958778381348e+00
2.030000000000000000e+02 1.026886749267578125e+01 1.369100213050842285e+00 2.220408320426940918e-01 1.192429900169372559e+00 4.243412017822265625e-01 -1.305848598480224609e+00
2.040000000000000000e+02 1.061507034301757812e+01 1.052482366561889648e+00 4.260185360908508301e-01 1.028146266937255859e+00 4.362494647502899170e-01 -1.466125488281250000e+00
2.050000000000000000e+02 1.046091079711914062e+01 1.319764971733093262e+00 5.080432891845703125e-01 1.228828310966491699e+00 5.210614800453186035e-01 -1.560760259628295898e+00
2.060000000000000000e+02 1.161562061309814453e+01 1.001416444778442383e+00 1.473982214927673340e+00 3.306203842163085938e+00 1.434055805206298828e+00 -3.119710922241210938e+00
2.070000000000000000e+02 1.246502017974853516e+01 -1.766226530075073242e+00 8.893405914306640625e+00 1.104693508148193359e+01 5.982102394104003906e+00 8.444811820983886719e+00
2.080000000000000000e+02 1.306758117675781250e+01 -1.811463594436645508e+00 7.200326442718505859e+00 1.617920684814453125e+01 7.013859748840332031e+00 5.247019767761230469e+00
2.090000000000000000e+02 1.214550018310546875e+01 -1.548657774925231934e+00 1.081017112731933594e+01 5.705887794494628906e+00 4.954817771911621094e+00 7.711831092834472656e+00
2.100000000000000000e+02 1.192312622070312500e+01 -1.206153750419616699e+00 1.061005878448486328e+01 1.351421475410461426e+00 3.588443994522094727e+00 3.977038621902465820e+00
2.110000000000000000e+02 1.229495239257812500e+01 -1.685110926628112793e+00 9.882987022399902344e+00 8.092797279357910156e+00 5.392735004425048828e+00 8.652819633483886719e+00
2.120000000000000000e+02 1.181621265411376953e+01 -7.939071059226989746e-01 6.238648891448974609e+00 2.138816863298416138e-01 1.935759186744689941e+00 4.911569952964782715e-01
2.130000000000000000e+02 1.101163291931152344e+01 -4.275547266006469727e-01 1.401558876037597656e+00 -2.169027626514434814e-01 3.553968071937561035e-01 -4.009988903999328613e-02
2.140000000000000000e+02 1.150634956359863281e+01 -1.781364560127258301e+00 7.747331619262695312e+00 2.267771720886230469e+00 3.004531145095825195e+00 5.216314792633056641e+00
2.150000000000000000e+02 1.184744834899902344e+01 -1.009606957435607910e+00 8.902243614196777344e+00 -1.232349574565887451e-01 2.633702754974365234e+00 1.925502538681030273e+00
2.160000000000000000e+02 1.353374958038330078e+01 -1.629118323326110840e+00 9.511806488037109375e+00 1.858792686462402344e+01 8.429919242858886719e+00 -3.643240407109260559e-02
2.170000000000000000e+02 1.314242267608642578e+01 -1.738435149192810059e+00 7.588881492614746094e+00 1.644294166564941406e+01 7.209547042846679688e+00 4.297896385192871094e+00
2.180000000000000000e+02 1.360915946960449219e+01 -1.851251602172851562e+00 7.525026798248291016e+00 1.604423904418945312e+01 7.070779323577880859e+00 4.704987704753875732e-01
2.190000000000000000e+02 1.385749530792236328e+01 -1.565294504165649414e+00 1.071946144104003906e+01 1.360705471038818359e+01 7.297954559326171875e+00 2.409789524972438812e-02
2.200000000000000000e+02 1.392338275909423828e+01 -1.028781890869140625e+00 1.467647171020507812e+01 1.357725334167480469e+01 8.476117134094238281e+00 1.876231431961059570e-01
2.210000000000000000e+02 1.425689697265625000e+01 -6.946296095848083496e-01 1.386263465881347656e+01 1.020846748352050781e+01 7.221330642700195312e+00 2.883020639419555664e+00
2.220000000000000000e+02 1.394446372985839844e+01 -8.737351894378662109e-01 1.631764984130859375e+01 1.309924888610839844e+01 8.825069427490234375e+00 2.370148897171020508e+00
2.230000000000000000e+02 1.282681465148925781e+01 4.092275500297546387e-01 1.502518415451049805e+00 1.377574825286865234e+01 4.583479881286621094e+00 -4.199469089508056641e+00
2.240000000000000000e+02 1.359906387329101562e+01 4.101779162883758545e-01 2.902344465255737305e+00 1.646102523803710938e+01 5.809010982513427734e+00 2.069996356964111328e+00
2.250000000000000000e+02 1.325074100494384766e+01 3.303463459014892578e-01 2.376125812530517578e+00 1.716974639892578125e+01 5.863761425018310547e+00 -2.476990409195423126e-02
2.260000000000000000e+02 1.261205196380615234e+01 3.809657096862792969e-01 2.289561748504638672e+00 1.088534259796142578e+01 3.952471494674682617e+00 -5.171085834503173828e+00
2.270000000000000000e+02 1.207668685913085938e+01 1.723459362983703613e-02 2.988993406295776367e+00 2.131557464599609375e+00 1.536165237426757812e+00 -2.966257095336914062e+00
2.280000000000000000e+02 1.376590442657470703e+01 -1.205123737454414368e-01 9.327674865722656250e+00 1.735018730163574219e+01 8.003358840942382812e+00 6.318641662597656250e+00
2.290000000000000000e+02 1.350405406951904297e+01 2.031011879444122314e-01 3.993802309036254883e+00 1.882293319702148438e+01 6.845020771026611328e+00 3.058562040328979492e+00
2.300000000000000000e+02 1.395899009704589844e+01 -6.804611682891845703e-01 1.601548576354980469e+01 1.250303745269775391e+01 8.555557250976562500e+00 3.227797746658325195e+00
2.310000000000000000e+02 1.367787647247314453e+01 3.625191748142242432e-02 6.987081050872802734e+00 1.724118614196777344e+01 7.268480300903320312e+00 4.117259025573730469e+00
2.320000000000000000e+02 1.321569633483886719e+01 6.019639968872070312e-01 1.290576934814453125e+00 1.470700931549072266e+01 4.799275875091552734e+00 -1.430325388908386230e+00
2.330000000000000000e+02 1.040705013275146484e+01 8.876042366027832031e-01 3.851367905735969543e-02 5.521878004074096680e-01 1.772104352712631226e-01 -9.757981300354003906e-01
2.340000000000000000e+02 1.031445503234863281e+01 5.714520812034606934e-01 -4.523311555385589600e-01 1.465780436992645264e-01 -9.172593802213668823e-02 -4.801235795021057129e-01
2.350000000000000000e+02 1.096119213104248047e+01 1.505288928747177124e-01 -3.844060897827148438e-01 1.850132197141647339e-01 -5.981786176562309265e-02 -2.944415211677551270e-01
2.360000000000000000e+02 1.164789676666259766e+01 2.677805423736572266e-01 1.686178088188171387e+00 1.498233199119567871e+00 9.553233981132507324e-01 -2.053952217102050781e+00
2.370000000000000000e+02 1.181611824035644531e+01 9.483343362808227539e-01 1.628494977951049805e+00 4.195852756500244141e+00 1.747304320335388184e+00 -3.579771995544433594e+00
2.380000000000000000e+02 1.222581958770751953e+01 8.553485870361328125e-01 1.499159216880798340e+00 6.549466609954833984e+00 2.414587736129760742e+00 -4.156342029571533203e+00
2.390000000000000000e+02 1.179028511047363281e+01 6.811315417289733887e-01 1.979774117469787598e+00 3.329393148422241211e+00 1.592750191688537598e+00 -3.245340824127197266e+00
2.400000000000000000e+02 1.258903408050537109e+01 7.760472297668457031e-01 1.162069559097290039e+00 1.007660961151123047e+01 3.371603727340698242e+00 -4.326929569244384766e+00
2.410000000000000000e+02 1.279023265838623047e+01 7.001281976699829102e-01 1.128681182861328125e+00 1.192066287994384766e+01 3.914803266525268555e+00 -3.922799348831176758e+00
2.420000000000000000e+02 1.303868675231933594e+01 3.834015727043151855e-01 1.520711898803710938e+00 1.601034927368164062e+01 5.259318351745605469e+00 -2.733060598373413086e+00
2.430000000000000000e+02 1.081911754608154297e+01 -3.464285731315612793e-01 9.813938140869140625e-01 1.530739367008209229e-01 3.403403460979461670e-01 1.491624414920806885e-01
2.440000000000000000e+02 1.028946495056152344e+01 -1.774887144565582275e-01 1.253436356782913208e-01 -2.610416114330291748e-01 -4.070938751101493835e-02 -6.072324886918067932e-02
2.450000000000000000e+02 1.037292957305908203e+01 -3.193259835243225098e-01 3.899762332439422607e-01 3.989773988723754883e-02 1.289621889591217041e-01 5.056364834308624268e-02
2.460000000000000000e+02 1.070725154876708984e+01 -3.121133148670196533e-02 -1.426533579826354980e+00 -4.564398527145385742e-02 -4.416532516479492188e-01 2.525349259376525879e-01
2.470000000000000000e+02 1.128939247131347656e+01 -1.796708852052688599e-01 -8.268879055976867676e-01 6.378378719091415405e-02 -2.289312332868576050e-01 1.036920994520187378e-01
2.480000000000000000e+02 1.168427467346191406e+01 -2.864345014095306396e-01 -4.204134345054626465e-01 6.508447229862213135e-02 -1.065986901521682739e-01 -3.653931245207786560e-02
2.490000000000000000e+02 1.031435775756835938e+01 6.730536371469497681e-02 -1.832858800888061523e+00 -4.751790314912796021e-02 -5.641130208969116211e-01 3.328644335269927979e-01
2.500000000000000000e+02 1.132871341705322266e+01 8.154867589473724365e-02 4.516897797584533691e-01 4.790271818637847900e-01 2.792150974273681641e-01 -7.287254929542541504e-01
2.510000000000000000e+02 1.170138835906982422e+01 -1.840333223342895508e+00 8.242606163024902344e+00 3.218716621398925781e+00 3.438396930694580078e+00 5.847954273223876953e+00
2.520000000000000000e+02 1.091281604766845703e+01 -1.620582103729248047e+00 6.029421806335449219e+00 4.686950147151947021e-01 1.949434995651245117e+00 2.946094751358032227e+00
2.530000000000000000e+02 1.097061252593994141e+01 -1.351401686668395996e+00 5.576385974884033203e+00 4.008710086345672607e-01 1.793177127838134766e+00 2.299225091934204102e+00
2.540000000000000000e+02 1.086619472503662109e+01 -6.816298961639404297e-01 2.646513462066650391e+00 -3.744149580597877502e-02 7.827215790748596191e-01 3.198248445987701416e-01
2.550000000000000000e+02 1.212305450439453125e+01 -1.923746466636657715e+00 8.478764533996582031e+00 6.983179092407226562e+00 4.638582706451416016e+00 7.571783542633056641e+00
2.560000000000000000e+02 1.063492584228515625e+01 -2.731065452098846436e-01 4.569788873195648193e-01 -1.647304892539978027e-01 8.767452090978622437e-02 -2.286672033369541168e-02
2.570000000000000000e+02 1.003674125671386719e+01 -1.038442134857177734e+00 2.630483627319335938e+00 -2.777080051600933075e-02 7.808138132095336914e-01 8.083944916725158691e-01
2.580000000000000000e+02 1.005648708343505859e+01 -5.807868242263793945e-01 1.413819670677185059e+00 4.324783012270927429e-02 4.371202588081359863e-01 1.717529296875000000e-01
2.590000000000000000e+02 1.011572647094726562e+01 1.057031005620956421e-01 -2.306300401687622070e+00 -2.092977017164230347e-01 -7.546793818473815918e-01 2.128832787275314331e-01
2.600000000000000000e+02 1.043225479125976562e+01 1.104870080947875977e+00 2.482863068580627441e-01 9.113546013832092285e-01 3.478922843933105469e-01 -1.257335305213928223e+00
2.610000000000000000e+02 1.015046405792236328e+01 5.381754636764526367e-01 -8.413466215133666992e-01 2.538454346358776093e-02 -2.447886317968368530e-01 -2.616130709648132324e-01
2.620000000000000000e+02 1.117922687530517578e+01 8.511502742767333984e-01 1.065521717071533203e+00 1.663659214973449707e+00 8.187543153762817383e-01 -2.080943822860717773e+00
2.630000000000000000e+02 1.239818668365478516e+01 3.072730600833892822e-01 2.847582101821899414e+00 7.396919250488281250e+00 3.073350429534912109e+00 -5.133938312530517578e+00
2.640000000000000000e+02 1.084235000610351562e+01 1.215782761573791504e+00 7.582613825798034668e-01 1.519692897796630859e+00 6.833862662315368652e-01 -1.925142884254455566e+00
2.650000000000000000e+02 1.103358840942382812e+01 1.160967946052551270e+00 9.408525228500366211e-01 1.908204317092895508e+00 8.547170162200927734e-01 -2.178512811660766602e+00
2.660000000000000000e+02 1.157855510711669922e+01 7.351037263870239258e-01 1.607579588890075684e+00 2.541058301925659180e+00 1.244591355323791504e+00 -2.786420106887817383e+00
2.670000000000000000e+02 1.137797164916992188e+01 7.856283783912658691e-01 1.409632682800292969e+00 2.084868907928466797e+00 1.048350453376770020e+00 -2.449193954467773438e+00
2.680000000000000000e+02 1.187925243377685547e+01 -3.538396954536437988e-01 -1.942543983459472656e-01 -4.234284162521362305e-02 -7.097917050123214722e-02 -6.971868127584457397e-02
2.690000000000000000e+02 1.055978584289550781e+01 2.884437441825866699e-01 -7.893724441528320312e-01 1.173803210258483887e-01 -2.015976458787918091e-01 -2.437854111194610596e-01
2.700000000000000000e+02 1.084018039703369141e+01 4.531363248825073242e-01 6.947846710681915283e-02 4.641003310680389404e-01 1.600736379623413086e-01 -8.272172808647155762e-01
2.710000000000000000e+02 1.049189090728759766e+01 -1.514737129211425781e+00 4.554351329803466797e+00 8.730374276638031006e-02 1.392496585845947266e+00 2.098907470703125000e+00
2.720000000000000000e+02 1.202997207641601562e+01 -1.378871321678161621e+00 1.104962348937988281e+01 2.669784545898437500e+00 4.115822315216064453e+00 6.002743244171142578e+00
2.730000000000000000e+02 1.117625236511230469e+01 -1.401922225952148438e+00 6.616304874420166016e+00 2.667951881885528564e-01 2.064929962158203125e+00 2.609042644500732422e+00
2.740000000000000000e+02 9.959615707397460938e+00 -1.226607799530029297e+00 2.724120855331420898e+00 1.765385121107101440e-01 8.701978325843811035e-01 1.169656038284301758e+00
2.750000000000000000e+02 1.158929824829101562e+01 -1.515933871269226074e+00 8.579365730285644531e+00 1.491528272628784180e+00 3.021268367767333984e+00 4.249705791473388672e+00
2.760000000000000000e+02 1.034850883483886719e+01 3.227150142192840576e-01 -1.128514289855957031e+00 6.851359456777572632e-02 -3.180001974105834961e-01 -2.458336949348449707e-01
2.770000000000000000e+02 1.046884536743164062e+01 6.810138821601867676e-01 -1.965585350990295410e-01 3.992322683334350586e-01 6.080211699008941650e-02 -7.772168517112731934e-01
2.780000000000000000e+02 1.091980457305908203e+01 6.837334632873535156e-01 5.309979319572448730e-01 9.610296487808227539e-01 4.476082623004913330e-01 -1.400270223617553711e+00
2.790000000000000000e+02 1.056840705871582031e+01 8.463171720504760742e-01 2.459854781627655029e-01 7.320095300674438477e-01 2.933984994888305664e-01 -1.149166703224182129e+00
2.800000000000000000e+02 1.053558444976806641e+01 -7.150695919990539551e-01 2.384619235992431641e+00 -2.644695108756422997e-03 7.145923972129821777e-01 4.699199497699737549e-01
2.810000000000000000e+02 1.052283096313476562e+01 -1.079626202583312988e+00 3.646148204803466797e+00 -1.817476004362106323e-02 1.088392019271850586e+00 1.136551141738891602e+00
2.820000000000000000e+02 1.103803062438964844e+01 3.738794624805450439e-01 4.042311012744903564e-01 6.310827136039733887e-01 3.105941414833068848e-01 -9.554752111434936523e-01
2.830000000000000000e+02 1.111737537384033203e+01 6.021880507469177246e-01 7.939507365226745605e-01 1.054642438888549805e+00 5.545779466629028320e-01 -1.540231227874755859e+00
2.840000000000000000e+02 1.140365314483642578e+01 -8.138937950134277344e-01 4.665094375610351562e+00 2.707856893539428711e-02 1.407651901245117188e+00 4.931194484233856201e-01
2.850000000000000000e+02 1.024333381652832031e+01 1.154559373855590820e+00 1.655086874961853027e-01 8.255487084388732910e-01 2.973172068595886230e-01 -1.053154945373535156e+00
2.860000000000000000e+02 1.022189140319824219e+01 9.280598163604736328e-01 -1.619132757186889648e-01 4.609598219394683838e-01 8.971396088600158691e-02 -7.574439644813537598e-01
2.870000000000000000e+02 1.014253425598144531e+01 3.277199268341064453e-01 -1.267899870872497559e+00 -1.649602651596069336e-01 -4.298580288887023926e-01 -1.459679305553436279e-01
2.880000000000000000e+02 1.065163040161132812e+01 1.269306421279907227e+00 6.651789546012878418e-01 1.393886566162109375e+00 6.177196502685546875e-01 -1.760880112648010254e+00
2.890000000000000000e+02 1.122647190093994141e+01 1.106019973754882812e+00 1.197054624557495117e+00 2.313402652740478516e+00 1.053137183189392090e+00 -2.488594532012939453e+00
2.900000000000000000e+02 1.098514366149902344e+01 9.203551411628723145e-01 8.749656677246093750e-01 1.371116399765014648e+00 6.738246083259582520e-01 -1.801376342773437500e+00
2.910000000000000000e+02 1.142037677764892578e+01 1.052630186080932617e+00 1.258925080299377441e+00 2.690828084945678711e+00 1.184925913810729980e+00 -2.745632410049438477e+00
2.920000000000000000e+02 1.175057888031005859e+01 4.487662613391876221e-01 2.157835960388183594e+00 2.535485982894897461e+00 1.407996654510498047e+00 -2.865140438079833984e+00
2.930000000000000000e+02 1.203017807006835938e+01 6.061964631080627441e-01 2.277388572692871094e+00 4.672300338745117188e+00 2.084906578063964844e+00 -3.973834037780761719e+00
2.940000000000000000e+02 1.046003532409667969e+01 -2.059970945119857788e-01 2.504251003265380859e-01 2.717708051204681396e-01 1.566587686538696289e-01 4.391001537442207336e-02
2.950000000000000000e+02 1.007460689544677734e+01 -8.179089426994323730e-01 1.962766289710998535e+00 -8.676441758871078491e-02 5.628005266189575195e-01 5.530595183372497559e-01
2.960000000000000000e+02 1.027612590789794922e+01 -4.420901536941528320e-01 1.088727474212646484e+00 3.338050842285156250e-02 3.366324007511138916e-01 2.369564771652221680e-01
2.970000000000000000e+02 1.041500759124755859e+01 -5.561407804489135742e-01 1.338865041732788086e+00 4.364813491702079773e-02 4.147539436817169189e-01 1.005191057920455933e-01
2.980000000000000000e+02 1.022031307220458984e+01 -1.179350614547729492e+00 3.342967987060546875e+00 1.281198561191558838e-01 1.041326403617858887e+00 1.264066815376281738e+00
2.990000000000000000e+02 1.038899135589599609e+01 -1.245002746582031250e+00 3.615442514419555664e+00 1.319777518510818481e-01 1.124226093292236328e+00 1.355222702026367188e+00
3.000000000000000000e+02 1.013468551635742188e+01 -1.306049704551696777e+00 3.463188409805297852e+00 1.001989766955375671e-01 1.069016218185424805e+00 1.527053713798522949e+00
3.010000000000000000e+02 1.053435230255126953e+01 -4.313659071922302246e-01 1.263427257537841797e+00 8.459988981485366821e-02 4.044081270694732666e-01 2.119586914777755737e-01
3.020000000000000000e+02 1.100666522979736328e+01 -8.398171067237854004e-01 3.634628772735595703e+00 -5.040011182427406311e-02 1.075268626213073730e+00 4.019200205802917480e-01
3.030000000000000000e+02 1.161315345764160156e+01 -8.108232617378234863e-01 5.362751483917236328e+00 -3.349004387855529785e-01 1.508355379104614258e+00 3.847194015979766846e-01
3.040000000000000000e+02 1.069966220855712891e+01 -1.549148917198181152e+00 5.120959281921386719e+00 5.688624382019042969e-01 1.706946492195129395e+00 2.499326944351196289e+00
3.050000000000000000e+02 1.202288627624511719e+01 8.947267532348632812e-01 1.721829771995544434e+00 5.494736671447753906e+00 2.164969921112060547e+00 -3.973487615585327148e+00
3.060000000000000000e+02 1.248328876495361328e+01 6.266251802444458008e-01 1.760662555694580078e+00 9.044607162475585938e+00 3.241580963134765625e+00 -4.719338893890380859e+00
3.070000000000000000e+02 1.051106262207031250e+01 2.236602455377578735e-02 -1.624518156051635742e+00 -5.256174132227897644e-02 -5.031239986419677734e-01 2.862752974033355713e-01
3.080000000000000000e+02 1.090169906616210938e+01 -8.585876226425170898e-02 -1.238625407218933105e+00 2.108050510287284851e-02 -3.652634620666503906e-01 1.950908303260803223e-01
3.090000000000000000e+02 1.109529876708984375e+01 -1.375752836465835571e-01 -1.027109742164611816e+00 -5.531693994998931885e-02 -3.247280120849609375e-01 1.323718875646591187e-01
3.100000000000000000e+02 1.114438629150390625e+01 8.802285045385360718e-02 -2.065991163253784180e-01 2.233000397682189941e-01 5.010277498513460159e-03 -3.703095316886901855e-01
3.110000000000000000e+02 1.148582363128662109e+01 -2.252366095781326294e-01 -6.441250443458557129e-01 2.017197012901306152e-02 -1.871859282255172729e-01 9.831836447119712830e-03
3.120000000000000000e+02 1.154216098785400391e+01 4.844839870929718018e-02 9.685425758361816406e-01 6.189311146736145020e-01 4.762420952320098877e-01 -1.002118587493896484e+00
3.130000000000000000e+02 1.075594711303710938e+01 -1.258037090301513672e+00 4.631173133850097656e+00 7.025609165430068970e-02 1.410428762435913086e+00 1.628883242607116699e+00
3.140000000000000000e+02 1.131234741210937500e+01 -1.724874019622802734e+00 7.279953002929687500e+00 1.455257177352905273e+00 2.620563030242919922e+00 4.313264369964599609e+00
3.150000000000000000e+02 1.187036228179931641e+01 -1.479272723197937012e+00 1.026590156555175781e+01 2.832160472869873047e+00 3.929418563842773438e+00 5.660123825073242188e+00
3.160000000000000000e+02 1.191224575042724609e+01 -1.877651095390319824e+00 8.665029525756835938e+00 4.860435962677001953e+00 4.057639598846435547e+00 7.166061878204345703e+00
3.170000000000000000e+02 1.173616695404052734e+01 -1.318822145462036133e+00 9.243668556213378906e+00 9.609516859054565430e-01 3.061386108398437500e+00 3.955729484558105469e+00
3.180000000000000000e+02 1.288539600372314453e+01 -1.777379870414733887e+00 7.095416545867919922e+00 1.807030677795410156e+01 7.549716949462890625e+00 7.600800991058349609e+00
3.190000000000000000e+02 1.197991180419921875e+01 3.533237278461456299e-01 2.632557630538940430e+00 3.487902402877807617e+00 1.836138010025024414e+00 -3.577728986740112305e+00
3.200000000000000000e+02 1.386587047576904297e+01 -5.838643386960029602e-02 9.001726150512695312e+00 1.563888359069824219e+01 7.392182826995849609e+00 5.457981586456298828e+00
3.210000000000000000e+02 1.386098194122314453e+01 -2.940158247947692871e-01 1.084548091888427734e+01 1.538393974304199219e+01 7.868825912475585938e+00 4.973748207092285156e+00
3.220000000000000000e+02 1.397293758392333984e+01 -2.735668122768402100e-01 1.020819377899169922e+01 1.408153438568115234e+01 7.286918640136718750e+00 5.046718120574951172e+00
3.230000000000000000e+02 1.408455944061279297e+01 -6.813434362411499023e-01 1.569798660278320312e+01 1.180505943298339844e+01 8.250913619995117188e+00 3.484971046447753906e+00
3.240000000000000000e+02 1.397323513031005859e+01 -1.188804149627685547e+00 1.460016632080078125e+01 1.370110416412353516e+01 8.490381240844726562e+00 -8.530935049057006836e-01
3.250000000000000000e+02 1.323565959930419922e+01 -1.915094375610351562e+00 6.506125926971435547e+00 1.577267265319824219e+01 6.683639526367187500e+00 3.406936168670654297e+00
3.260000000000000000e+02 1.299680709838867188e+01 -1.755180716514587402e+00 7.376860618591308594e+00 1.890147590637207031e+01 7.883501052856445312e+00 6.868369579315185547e+00
3.270000000000000000e+02 1.410084819793701172e+01 -1.357895612716674805e+00 1.275652694702148438e+01 1.208446025848388672e+01 7.452296257019042969e+00 -7.069573402404785156e-01
3.280000000000000000e+02 1.141254138946533203e+01 -1.124767780303955078e+00 6.829371929168701172e+00 -6.950302422046661377e-02 2.027960538864135742e+00 1.914089918136596680e+00
3.290000000000000000e+02 1.103234672546386719e+01 -1.131982684135437012e+00 5.165478229522705078e+00 3.097474807873368263e-03 1.550572752952575684e+00 1.512086033821105957e+00
3.300000000000000000e+02 1.113167953491210938e+01 -9.748136401176452637e-01 5.082300662994384766e+00 -1.304882764816284180e-01 1.485543727874755859e+00 9.476062059402465820e-01
3.310000000000000000e+02 1.073551082611083984e+01 7.624009847640991211e-01 3.799607753753662109e-01 7.954996228218078613e-01 3.526381254196166992e-01 -1.236922264099121094e+00
3.320000000000000000e+02 1.079818248748779297e+01 9.880894422531127930e-01 6.618931889533996582e-01 1.220468044281005859e+00 5.647084116935729980e-01 -1.656698346138000488e+00
3.330000000000000000e+02 1.133373832702636719e+01 5.030027627944946289e-01 1.148766517639160156e+00 1.316390991210937500e+00 7.395472526550292969e-01 -1.751954436302185059e+00
3.340000000000000000e+02 1.069449138641357422e+01 -5.515776872634887695e-01 1.693209528923034668e+00 -1.064631044864654541e-01 4.760239422321319580e-01 8.011967688798904419e-02
3.350000000000000000e+02 1.086508083343505859e+01 -1.032317519187927246e+00 4.262784957885742188e+00 -3.971487283706665039e-02 1.266921043395996094e+00 1.118854880332946777e+00
3.360000000000000000e+02 1.069146442413330078e+01 -8.861463665962219238e-01 3.349725246429443359e+00 -1.594219803810119629e-01 9.570909738540649414e-01 5.985738039016723633e-01
3.370000000000000000e+02 1.404294395446777344e+01 -9.069420695304870605e-01 1.457672119140625000e+01 1.235188961029052734e+01 8.078583717346191406e+00 2.146219253540039062e+00
3.380000000000000000e+02 1.414413738250732422e+01 -3.406465351581573486e-01 1.093805408477783203e+01 1.193160915374755859e+01 6.860898971557617188e+00 4.113172054290771484e+00
3.390000000000000000e+02 1.403641128540039062e+01 -4.528884887695312500e-01 1.339436721801757812e+01 1.229656219482421875e+01 7.707279205322265625e+00 3.603785514831542969e+00
3.400000000000000000e+02 1.288846969604492188e+01 -1.982817411422729492e+00 6.311851501464843750e+00 1.562789630889892578e+01 6.581924438476562500e+00 6.240364074707031250e+00
3.410000000000000000e+02 1.034623813629150391e+01 -8.316525220870971680e-01 2.454954147338867188e+00 5.021255090832710266e-02 7.515500187873840332e-01 5.351696014404296875e-01
3.420000000000000000e+02 1.176460933685302734e+01 -1.621452689170837402e+00 9.196627616882324219e+00 2.693501710891723633e+00 3.567038774490356445e+00 5.827266216278076172e+00
3.430000000000000000e+02 1.064149951934814453e+01 5.381443500518798828e-01 -1.660873144865036011e-01 4.414018988609313965e-01 8.259437233209609985e-02 -7.581551074981689453e-01
3.440000000000000000e+02 1.123956012725830078e+01 2.752675116062164307e-01 6.920837163925170898e-01 6.308959722518920898e-01 3.968939185142517090e-01 -1.097082257270812988e+00
3.450000000000000000e+02 1.154886531829833984e+01 4.677918255329132080e-01 1.656719088554382324e+00 1.701208710670471191e+00 1.007378339767456055e+00 -2.166366577148437500e+00
3.460000000000000000e+02 1.076567649841308594e+01 2.163756340742111206e-01 -5.715970993041992188e-01 2.101217359304428101e-01 -1.084426119923591614e-01 -2.716022729873657227e-01
3.470000000000000000e+02 1.027260494232177734e+01 -1.328481435775756836e+00 3.794342994689941406e+00 1.019710153341293335e-01 1.168894171714782715e+00 1.546277165412902832e+00
3.480000000000000000e+02 1.120589637756347656e+01 -1.144837021827697754e+00 5.855451583862304688e+00 3.184096515178680420e-01 1.852158427238464355e+00 1.774494886398315430e+00
3.490000000000000000e+02 4.731106185913085938e+01 1.887055778503417969e+01 1.165161848068237305e+00 4.358958303928375244e-01 4.803172945976257324e-01 5.954455733299255371e-01
3.500000000000000000e+02 4.485211181640625000e+01 1.752128028869628906e+01 1.646982908248901367e+00 1.582744598388671875e+00 9.689182639122009277e-01 1.419195771217346191e+00
3.510000000000000000e+02 3.807822418212890625e+01 1.567503452301025391e+01 8.151559829711914062e-01 1.892892956733703613e+00 8.124147057533264160e-01 1.105947494506835938e+00
3.520000000000000000e+02 2.703470420837402344e+01 1.755794143676757812e+01 -6.137313246726989746e-01 1.715583801269531250e+00 3.305557668209075928e-01 2.928303480148315430e-01
3.530000000000000000e+02 2.402477455139160156e+01 1.596314239501953125e+01 -1.132076144218444824e+00 2.201891243457794189e-01 -2.735660970211029053e-01 2.535849511623382568e-01
3.540000000000000000e+02 2.347669410705566406e+01 1.491337871551513672e+01 -1.354204773902893066e+00 -5.125306248664855957e-01 -5.600206255912780762e-01 8.110688924789428711e-01
3.550000000000000000e+02 2.534454536437988281e+01 1.313024234771728516e+01 -3.509337604045867920e-01 1.790920615196228027e+00 4.319960772991180420e-01 2.034775465726852417e-01
3.560000000000000000e+02 2.589455413818359375e+01 1.105799293518066406e+01 1.996636539697647095e-01 3.795641422271728516e+00 1.198591470718383789e+00 5.769503116607666016e-01
3.570000000000000000e+02 2.575567436218261719e+01 8.544807434082031250e+00 1.768831133842468262e+00 7.091576099395751953e+00 2.658122062683105469e+00 2.287416458129882812e+00
3.580000000000000000e+02 2.610310363769531250e+01 7.276270866394042969e+00 3.461090087890625000e+00 5.890494346618652344e+00 2.805475234985351562e+00 2.747395038604736328e+00
3.590000000000000000e+02 2.496160697937011719e+01 6.706809997558593750e+00 4.322216033935546875e+00 6.736670017242431641e+00 3.317665815353393555e+00 4.313900947570800781e+00
3.600000000000000000e+02 2.402088737487792969e+01 5.894121646881103516e+00 5.883819103240966797e+00 4.892622470855712891e+00 3.232932567596435547e+00 4.832221031188964844e+00
3.610000000000000000e+02 2.197027778625488281e+01 4.554594993591308594e+00 5.442131042480468750e+00 1.744397878646850586e+00 2.155958652496337891e+00 3.162200450897216797e+00
3.620000000000000000e+02 1.495391082763671875e+01 -2.139685392379760742e+00 7.824322700500488281e+00 7.771628379821777344e+00 4.678785324096679688e+00 -2.688125073909759521e-01
3.630000000000000000e+02 1.367166042327880859e+01 -2.631722688674926758e+00 4.800299167633056641e+00 1.281796741485595703e+01 5.285480022430419922e+00 2.195282936096191406e+00
3.640000000000000000e+02 1.213590335845947266e+01 -1.056890678405761719e+01 -3.699878215789794922e+00 7.106464505195617676e-01 -8.967695236206054688e-01 6.309131622314453125e+00
3.650000000000000000e+02 1.226726627349853516e+01 -1.159682559967041016e+01 -1.041629505157470703e+01 -1.334679126739501953e+00 -3.525292158126831055e+00 2.221547126770019531e+00
3.660000000000000000e+02 1.368640327453613281e+01 -1.182568740844726562e+01 -1.165991401672363281e+01 -1.471508622169494629e+00 -3.939426660537719727e+00 3.752128362655639648e+00
3.670000000000000000e+02 1.744404792785644531e+01 -1.178724002838134766e+01 -7.029743671417236328e+00 -2.125445902347564697e-01 -2.172686576843261719e+00 1.691394329071044922e+00
3.680000000000000000e+02 2.276694107055664062e+01 -1.604518318176269531e+01 -4.735731601715087891e+00 -5.205863118171691895e-01 -1.576895356178283691e+00 1.779716730117797852e+00
3.690000000000000000e+02 2.669073677062988281e+01 -1.733893966674804688e+01 -4.182645797729492188e+00 -1.928964406251907349e-01 -1.312662720680236816e+00 1.027737140655517578e+00
3.700000000000000000e+02 3.073336982727050781e+01 -1.822627067565917969e+01 -3.612857103347778320e+00 -6.195207824930548668e-04 -1.084043025970458984e+00 4.721254408359527588e-01
3.710000000000000000e+02 3.263973236083984375e+01 -1.593728733062744141e+01 -3.173373699188232422e+00 3.214290738105773926e-01 -8.555834293365478516e-01 8.869920857250690460e-03
3.720000000000000000e+02 3.371439743041992188e+01 -1.731006050109863281e+01 -3.236903667449951172e+00 2.129867225885391235e-01 -9.071750640869140625e-01 2.315116859972476959e-02
3.730000000000000000e+02 3.894984817504882812e+01 -1.852802658081054688e+01 -2.870368480682373047e+00 3.375233337283134460e-02 -8.509848713874816895e-01 -2.606937885284423828e-01
3.740000000000000000e+02 4.425401306152343750e+01 -1.744973945617675781e+01 -2.826751947402954102e+00 -2.497686594724655151e-01 -9.229561686515808105e-01 -8.570024371147155762e-01
3.750000000000000000e+02 5.423971176147460938e+01 -1.295925712585449219e+01 -2.765566349029541016e+00 -8.279438018798828125e-01 -1.078052997589111328e+00 -1.573699712753295898e+00
3.760000000000000000e+02 5.803437805175781250e+01 -9.101524353027343750e+00 -3.382196187973022461e+00 -9.029906988143920898e-01 -1.285556077957153320e+00 -1.709222912788391113e+00
3.770000000000000000e+02 6.818183135986328125e+01 -7.269834518432617188e+00 2.736875772476196289e+00 1.566917705535888672e+01 5.521815776824951172e+00 -4.421866893768310547e+00
3.780000000000000000e+02 6.847035217285156250e+01 -4.566503524780273438e+00 -2.183654308319091797e+00 1.072456264495849609e+01 2.562272310256958008e+00 -3.179934024810791016e+00
3.790000000000000000e+02 7.939141082763671875e+01 -5.487762451171875000e+00 -4.582375660538673401e-02 5.860916137695312500e+00 1.744527697563171387e+00 3.330284357070922852e-01
3.800000000000000000e+02 7.815132141113281250e+01 -2.549214363098144531e+00 -7.274682819843292236e-02 7.605391502380371094e+00 2.259793519973754883e+00 6.884418129920959473e-01
3.810000000000000000e+02 7.936054229736328125e+01 2.867199659347534180e+00 -3.810004889965057373e-02 8.588690757751464844e+00 2.565177202224731445e+00 5.083188042044639587e-02
3.820000000000000000e+02 7.806575012207031250e+01 4.405291080474853516e+00 -8.664906024932861328e-02 8.254026412963867188e+00 2.450213193893432617e+00 -3.869950398802757263e-02
3.830000000000000000e+02 7.936067962646484375e+01 8.450463294982910156e+00 6.625675450777634978e-05 8.254420280456542969e+00 2.476346015930175781e+00 -7.631919533014297485e-02
3.840000000000000000e+02 7.306376647949218750e+01 1.725950431823730469e+01 1.129707917571067810e-01 5.908352375030517578e+00 1.806396961212158203e+00 -6.982455253601074219e-01
3.850000000000000000e+02 6.180395507812500000e+01 2.154962348937988281e+01 5.569181442260742188e-01 3.776198625564575195e+00 1.299934983253479004e+00 -7.210624814033508301e-01
3.860000000000000000e+02 5.295634460449218750e+01 3.003357315063476562e+01 8.190287351608276367e-01 2.501460313796997070e+00 9.961467385292053223e-01 -2.210494875907897949e-01
3.870000000000000000e+02 4.723662948608398438e+01 4.081816864013671875e+01 7.001507282257080078e-01 2.333295822143554688e+00 9.100339412689208984e-01 9.055392816662788391e-03
3.880000000000000000e+02 3.763704681396484375e+01 4.045326232910156250e+01 5.682188868522644043e-01 1.830797910690307617e+00 7.197050452232360840e-01 4.228445515036582947e-02
3.890000000000000000e+02 4.253936767578125000e+01 4.079166412353515625e+01 6.566833853721618652e-01 2.067166805267333984e+00 8.171550035476684570e-01 1.962362974882125854e-02
3.900000000000000000e+02 3.864667129516601562e+01 3.667614746093750000e+01 5.717971920967102051e-01 1.871968746185302734e+00 7.331297993659973145e-01 1.105514466762542725e-01
3.910000000000000000e+02 3.716942596435546875e+01 3.211952590942382812e+01 5.062681436538696289e-01 1.853657722473144531e+00 7.079777717590332031e-01 2.228078693151473999e-01
3.920000000000000000e+02 4.009889221191406250e+01 2.231561660766601562e+01 5.754046440124511719e-01 1.979701757431030273e+00 7.665319442749023438e-01 6.016165018081665039e-01
3.930000000000000000e+02 3.784962463378906250e+01 2.598664283752441406e+01 4.577674269676208496e-01 1.921576023101806641e+00 7.138030529022216797e-01 4.260936081409454346e-01
3.940000000000000000e+02 4.137688827514648438e+01 2.130577468872070312e+01 6.490346789360046387e-01 2.027136564254760742e+00 8.028513193130493164e-01 7.043604254722595215e-01
3.950000000000000000e+02 4.367875671386718750e+01 2.162343215942382812e+01 7.502135038375854492e-01 1.872744083404541016e+00 7.868872880935668945e-01 7.495098114013671875e-01
3.960000000000000000e+02 4.657741165161132812e+01 3.154894638061523438e+01 7.700771093368530273e-01 2.091427326202392578e+00 8.584513664245605469e-01 1.181412264704704285e-01
3.970000000000000000e+02 4.325948715209960938e+01 2.955401992797851562e+01 6.910200715065002441e-01 1.958323121070861816e+00 7.948029637336730957e-01 2.829153835773468018e-01
3.980000000000000000e+02 3.425404357910156250e+01 3.186202239990234375e+01 4.313069581985473633e-01 1.722257614135742188e+00 6.460693478584289551e-01 2.109093815088272095e-01
3.990000000000000000e+02 5.350765991210937500e+01 1.749773597717285156e+01 1.302953958511352539e+00 1.510945200920104980e+00 8.441697359085083008e-01 -1.309513688087463379e+00
4.000000000000000000e+02 5.436726760864257812e+01 1.889224433898925781e+01 8.501649498939514160e-01 2.474917411804199219e+00 9.975247383117675781e-01 -1.144148468971252441e+00
4.010000000000000000e+02 5.516969299316406250e+01 2.484543609619140625e+01 7.964399456977844238e-01 2.590250968933105469e+00 1.016007304191589355e+00 -5.661955475807189941e-01
4.020000000000000000e+02 5.403625488281250000e+01 2.226621055603027344e+01 9.118598103523254395e-01 2.198694229125976562e+00 9.331662058830261230e-01 -7.369178533554077148e-01
4.030000000000000000e+02 4.807518386840820312e+01 2.311370277404785156e+01 1.116969347000122070e+00 1.294917583465576172e+00 7.235660552978515625e-01 2.976530492305755615e-01
4.040000000000000000e+02 4.861742782592773438e+01 2.818086242675781250e+01 9.229546189308166504e-01 1.993906378746032715e+00 8.750582933425903320e-01 3.985478356480598450e-02
4.050000000000000000e+02 4.980896377563476562e+01 3.102923583984375000e+01 8.188235759735107422e-01 2.262352705001831055e+00 9.243529438972473145e-01 -4.819314926862716675e-02
4.060000000000000000e+02 5.752515792846679688e+01 1.512119770050048828e+01 9.524888396263122559e-01 3.220357179641723633e+00 1.251853823661804199e+00 -8.702253699302673340e-01
4.070000000000000000e+02 6.052649307250976562e+01 1.169163894653320312e+01 5.414669513702392578e-01 3.274741411209106445e+00 1.144862532615661621e+00 -1.106767416000366211e+00
4.080000000000000000e+02 7.259024047851562500e+01 4.803602695465087891e+00 -5.180208683013916016e-01 7.145826816558837891e+00 1.988341808319091797e+00 -8.083440065383911133e-01
4.090000000000000000e+02 7.308359527587890625e+01 1.036322402954101562e+01 -3.836874291300773621e-02 6.481094360351562500e+00 1.932817697525024414e+00 -8.365296721458435059e-01
4.100000000000000000e+02 7.280828094482421875e+01 1.184431362152099609e+01 2.078241668641567230e-02 6.249072551727294922e+00 1.880956530570983887e+00 -8.718034625053405762e-01
4.110000000000000000e+02 5.551871871948242188e+01 1.451324939727783203e+01 7.470311522483825684e-01 4.415076255798339844e+00 1.548632264137268066e+00 -1.086120128631591797e+00
4.120000000000000000e+02 5.541642761230468750e+01 1.331346893310546875e+01 4.813349619507789612e-02 3.823894023895263672e+00 1.161608219146728516e+00 -3.121999502182006836e-01
4.130000000000000000e+02 5.623263931274414062e+01 1.118825149536132812e+01 2.090036571025848389e-01 2.895845651626586914e+00 9.314547777175903320e-01 -2.725799381732940674e-01
4.140000000000000000e+02 5.725709533691406250e+01 1.218219661712646484e+01 4.828172922134399414e-01 3.063677072525024414e+00 1.063948273658752441e+00 -8.063625097274780273e-01
4.150000000000000000e+02 6.195505142211914062e+01 5.951189517974853516e+00 3.098536133766174316e-01 2.876752853393554688e+00 9.559819102287292480e-01 -1.474116802215576172e+00
4.160000000000000000e+02 6.691325378417968750e+01 -7.022006511688232422e+00 3.402949571609497070e+00 8.565751075744628906e+00 3.590610265731811523e+00 -5.536906719207763672e+00
4.170000000000000000e+02 5.535786819458007812e+01 1.009166240692138672e+01 2.030341476202011108e-01 2.145792245864868164e+00 7.046478986740112305e-01 2.125957161188125610e-01
4.180000000000000000e+02 5.354544448852539062e+01 7.753799438476562500e+00 6.021170616149902344e-01 4.597547054290771484e-01 3.185615241527557373e-01 3.368707001209259033e-01
4.190000000000000000e+02 5.225136566162109375e+01 7.041229248046875000e+00 1.053922533988952637e+00 1.838847547769546509e-01 3.713422119617462158e-01 3.414857685565948486e-01
4.200000000000000000e+02 5.096375274658203125e+01 6.504353523254394531e+00 1.631577610969543457e+00 1.423036158084869385e-01 5.321643948554992676e-01 2.630182206630706787e-01
4.210000000000000000e+02 4.960911178588867188e+01 4.314856052398681641e+00 1.155735492706298828e+00 2.931258380413055420e-01 4.346584081649780273e-01 -1.659832745790481567e-01
4.220000000000000000e+02 4.972335815429687500e+01 6.151661872863769531e+00 1.955064415931701660e+00 1.190449744462966919e-01 6.222327947616577148e-01 4.536351189017295837e-02
4.230000000000000000e+02 4.514367294311523438e+01 7.990678310394287109e+00 6.233095526695251465e-01 3.392772376537322998e-01 2.887760400772094727e-01 -4.708996415138244629e-01
4.240000000000000000e+02 4.267418289184570312e+01 7.397470951080322266e+00 9.618031382560729980e-01 5.909627676010131836e-01 4.658297598361968994e-01 -2.224153429269790649e-01
4.250000000000000000e+02 3.894789886474609375e+01 6.787167549133300781e+00 1.139179348945617676e+00 8.958333730697631836e-01 6.105038523674011230e-01 4.031411409378051758e-01
4.260000000000000000e+02 2.649025154113769531e+01 4.466972351074218750e+00 3.451301097869873047e+00 3.175389051437377930e+00 1.988007068634033203e+00 1.633121371269226074e+00
4.270000000000000000e+02 4.283908462524414062e+01 1.187195968627929688e+01 1.664819866418838501e-01 1.909994244575500488e+00 6.229428648948669434e-01 1.206612810492515564e-01
4.280000000000000000e+02 4.153644180297851562e+01 1.185674476623535156e+01 3.663326501846313477e-01 1.860306143760681152e+00 6.679916381835937500e-01 6.022720932960510254e-01
4.290000000000000000e+02 4.286940383911132812e+01 1.455181884765625000e+01 7.441346645355224609e-01 3.133505821228027344e+00 1.163292169570922852e+00 1.091922760009765625e+00
4.300000000000000000e+02 4.249933242797851562e+01 1.589270210266113281e+01 1.176782369613647461e+00 2.701764822006225586e+00 1.163564085960388184e+00 1.170634031295776367e+00
4.310000000000000000e+02 4.378297424316406250e+01 1.662729644775390625e+01 1.501286387443542480e+00 2.697418689727783203e+00 1.259611487388610840e+00 1.548487305641174316e+00
4.320000000000000000e+02 4.100716018676757812e+01 1.543425464630126953e+01 9.900958538055419922e-01 2.060784101486206055e+00 9.152639508247375488e-01 9.683064818382263184e-01
4.330000000000000000e+02 4.524485015869140625e+01 1.961879539489746094e+01 9.742204546928405762e-01 1.508016943931579590e+00 7.446712255477905273e-01 1.022038340568542480e+00
4.340000000000000000e+02 6.831507110595703125e+01 -8.658290863037109375e+00 4.701393604278564453e+00 2.275076484680175781e+01 8.235648155212402344e+00 -5.695986747741699219e+00
4.350000000000000000e+02 7.016516876220703125e+01 -1.093349552154541016e+01 3.275821208953857422e+00 1.683025932312011719e+01 6.031824111938476562e+00 -6.318623423576354980e-01
4.360000000000000000e+02 6.766810607910156250e+01 -1.470277786254882812e+01 1.858269095420837402e+00 1.343167209625244141e+01 4.586982250213623047e+00 4.791630744934082031e+00
4.370000000000000000e+02 6.696038818359375000e+01 -1.588990974426269531e+01 2.155587911605834961e+00 1.078188419342041016e+01 3.881241559982299805e+00 4.165488243103027344e+00
4.380000000000000000e+02 6.701190185546875000e+01 -1.801774024963378906e+01 5.281175374984741211e-01 8.798868179321289062e+00 2.798095703125000000e+00 2.220186233520507812e+00
4.390000000000000000e+02 6.620449066162109375e+01 -1.707553291320800781e+01 1.967759847640991211e+00 7.617053031921386719e+00 2.875443935394287109e+00 3.778025627136230469e+00
4.400000000000000000e+02 6.170459365844726562e+01 -2.253922080993652344e+01 -2.625449299812316895e-01 6.468595266342163086e-01 1.152943745255470276e-01 1.001937985420227051e-01
4.410000000000000000e+02 5.855232620239257812e+01 -2.539155578613281250e+01 -1.489840269088745117e+00 -5.600042343139648438e-01 -6.149533390998840332e-01 -8.924881815910339355e-01
4.420000000000000000e+02 5.759796142578125000e+01 -2.905801963806152344e+01 -8.521639704704284668e-01 1.996963024139404297e-01 -1.957402974367141724e-01 -2.567114531993865967e-01
4.430000000000000000e+02 4.990689468383789062e+01 -3.015670776367187500e+01 -1.615280389785766602e+00 -3.590435087680816650e-01 -5.922971963882446289e-01 -7.366105318069458008e-01
4.440000000000000000e+02 4.859974288940429688e+01 -3.064789199829101562e+01 -1.443436026573181152e+00 -2.877776324748992920e-01 -5.193640589714050293e-01 -5.902297496795654297e-01
4.450000000000000000e+02 4.728794097900390625e+01 -3.111493110656738281e+01 -1.180115461349487305e+00 -1.884384602308273315e-01 -4.105661809444427490e-01 -4.532836675643920898e-01
4.460000000000000000e+02 4.300875473022460938e+01 -3.223742675781250000e+01 -7.012506127357482910e-01 -1.212696284055709839e-01 -2.467560768127441406e-01 -2.150357514619827271e-01
4.470000000000000000e+02 4.278228378295898438e+01 -3.850116729736328125e+01 -1.299423128366470337e-01 -3.562000095844268799e-01 -1.458427011966705322e-01 -1.608216017484664917e-01
4.480000000000000000e+02 4.801433944702148438e+01 -3.882872390747070312e+01 1.287061423063278198e-01 -4.567303061485290527e-01 -9.840724617242813110e-02 -2.472698241472244263e-01
4.490000000000000000e+02 5.221823883056640625e+01 -3.878345108032226562e+01 3.899207711219787598e-01 -8.828861266374588013e-02 9.048964828252792358e-02 -1.325369328260421753e-01
4.500000000000000000e+02 5.657857131958007812e+01 -3.856708526611328125e+01 4.869046807289123535e-01 7.750937938690185547e-01 3.785995543003082275e-01 -3.205646947026252747e-02
4.510000000000000000e+02 6.212167739868164062e+01 -4.094818878173828125e+01 4.318043589591979980e-01 3.036518096923828125e+00 1.040496706962585449e+00 4.815748333930969238e-02
4.520000000000000000e+02 6.713214874267578125e+01 -4.092748641967773438e+01 2.114846259355545044e-01 5.289056301116943359e+00 1.650162339210510254e+00 1.007774174213409424e-01
4.530000000000000000e+02 7.799504852294921875e+01 -4.166384124755859375e+01 2.181827127933502197e-01 1.094192504882812500e+01 3.348032474517822266e+00 6.134542077779769897e-02
4.540000000000000000e+02 7.786026000976562500e+01 -3.724748229980468750e+01 -5.407803109847009182e-04 1.090376758575439453e+01 3.270968198776245117e+00 6.827066093683242798e-02
4.550000000000000000e+02 7.924407958984375000e+01 -3.337561416625976562e+01 -1.876532798632979393e-03 1.160805416107177734e+01 3.481853485107421875e+00 -2.195864357054233551e-02
4.560000000000000000e+02 7.790316772460937500e+01 -3.045744705200195312e+01 -6.935307383537292480e-02 1.078864192962646484e+01 3.215786695480346680e+00 -1.468148231506347656e-01
4.570000000000000000e+02 7.934157562255859375e+01 -2.642931938171386719e+01 -4.765997454524040222e-02 1.100553035736083984e+01 3.287360906600952148e+00 -1.627671122550964355e-01
4.580000000000000000e+02 6.696867370605468750e+01 -2.231421089172363281e+01 -9.529752135276794434e-01 6.849897384643554688e+00 1.769076704978942871e+00 8.181918859481811523e-01
4.590000000000000000e+02 6.874018096923828125e+01 -2.214780426025390625e+01 -1.120466709136962891e+00 8.369311332702636719e+00 2.174653530120849609e+00 2.254893779754638672e-01
4.600000000000000000e+02 6.249600219726562500e+01 -2.358196449279785156e+01 -5.804875493049621582e-01 1.851266622543334961e+00 3.812337517738342285e-01 4.416116774082183838e-01
4.610000000000000000e+02 4.199013519287109375e+01 -3.485176849365234375e+01 -4.267033040523529053e-01 -2.094526141881942749e-01 -1.908467710018157959e-01 -2.171197682619094849e-01
4.620000000000000000e+02 3.843931198120117188e+01 -3.283902740478515625e+01 -5.060355663299560547e-01 -4.426828399300575256e-02 -1.650911569595336914e-01 -3.836985677480697632e-02
4.630000000000000000e+02 2.855627632141113281e+01 -3.124871444702148438e+01 -8.591944575309753418e-01 -1.700548082590103149e-01 -3.087747693061828613e-01 3.697503805160522461e-01
4.640000000000000000e+02 2.720402908325195312e+01 -3.066246032714843750e+01 -8.643742799758911133e-01 -2.525964081287384033e-01 -3.350912034511566162e-01 3.968372344970703125e-01
4.650000000000000000e+02 1.781120109558105469e+01 -2.664503097534179688e+01 -3.439540863037109375e-01 8.445008993148803711e-01 1.501640379428863525e-01 -3.015800118446350098e-01
4.660000000000000000e+02 1.872208404541015625e+01 -2.551870536804199219e+01 -2.122350931167602539e-01 2.846158146858215332e-01 2.171421982347965240e-02 2.037086058408021927e-03
4.670000000000000000e+02 1.568605327606201172e+01 -2.248229217529296875e+01 4.903326928615570068e-01 1.134427309036254883e+00 4.874280095100402832e-01 -8.832362294197082520e-01
4.680000000000000000e+02 1.469100761413574219e+01 -2.148509216308593750e+01 9.080774784088134766e-01 1.786311030387878418e+00 8.083165287971496582e-01 -1.172008037567138672e+00
4.690000000000000000e+02 1.089554595947265625e+01 -1.932517051696777344e+01 7.036285996437072754e-01 7.104677677154541016e+00 2.342491865158081055e+00 -2.432079315185546875e+00
4.700000000000000000e+02 1.379423904418945312e+01 -2.439636421203613281e+01 -2.731506824493408203e-01 2.759758472442626953e+00 7.459823489189147949e-01 -9.026212692260742188e-01
4.710000000000000000e+02 6.113002300262451172e+00 -3.379340362548828125e+01 -2.406515032052993774e-01 4.065762519836425781e+00 1.147533297538757324e+00 2.177440077066421509e-01
4.720000000000000000e+02 7.997091770172119141e+00 -4.093529891967773438e+01 -8.526298403739929199e-02 3.583366632461547852e+00 1.049431085586547852e+00 3.479859977960586548e-02
4.730000000000000000e+02 7.837606430053710938e+00 -3.804175567626953125e+01 -1.270513534545898438e-01 3.598802089691162109e+00 1.041525244712829590e+00 5.446527525782585144e-02
4.740000000000000000e+02 2.201294898986816406e+01 -3.840854263305664062e+01 6.522095762193202972e-03 5.421943664550781250e-01 1.646149456501007080e-01 -1.944178342819213867e-02
4.750000000000000000e+02 1.754052162170410156e+01 -4.113127136230468750e+01 -1.612686365842819214e-02 1.421175241470336914e+00 4.215145111083984375e-01 -1.681394875049591064e-03
4.760000000000000000e+02 1.912619400024414062e+01 -3.023917388916015625e+01 -3.590038120746612549e-01 8.683922290802001953e-01 1.528165191411972046e-01 -1.549697369337081909e-01
4.770000000000000000e+02 1.488563728332519531e+01 -3.074485778808593750e+01 -4.466030895709991455e-01 2.186703920364379883e+00 5.220302939414978027e-01 -3.480509519577026367e-01
4.780000000000000000e+02 7.064894676208496094e+00 -3.166760635375976562e+01 -4.223645627498626709e-01 4.050531864166259766e+00 1.088450193405151367e+00 3.010775148868560791e-01
4.790000000000000000e+02 2.314995574951171875e+01 -3.083418846130371094e+01 -4.813109934329986572e-01 -2.700502285733819008e-03 -1.452034413814544678e-01 1.642337143421173096e-01
4.800000000000000000e+02 2.102354049682617188e+01 -2.732365226745605469e+01 -6.677902340888977051e-01 -6.980880349874496460e-02 -2.212797105312347412e-01 3.006984293460845947e-01
4.810000000000000000e+02 1.981621932983398438e+01 -2.649115943908691406e+01 -5.014473199844360352e-01 8.445565472356975079e-04 -1.501808315515518188e-01 1.530273854732513428e-01
4.820000000000000000e+02 1.175790691375732422e+01 -1.844221687316894531e+01 2.347955465316772461e+00 4.823256492614746094e+00 2.151363611221313477e+00 -3.593830347061157227e+00
4.830000000000000000e+02 9.960691452026367188e+00 -1.624303245544433594e+01 3.061189889907836914e+00 1.357486629486083984e+01 4.990817070007324219e+00 -5.980035781860351562e+00
4.840000000000000000e+02 1.611959934234619141e+00 -1.061624622344970703e+01 8.103619515895843506e-02 -1.533602714538574219e+00 -4.357699751853942871e-01 -7.814869880676269531e-01
4.850000000000000000e+02 5.966192483901977539e-01 -1.765464210510253906e+01 -4.054412990808486938e-02 -2.519017934799194336e+00 -7.678686380386352539e-01 4.863779246807098389e-01
4.860000000000000000e+02 1.787342905998229980e+00 -1.742742729187011719e+01 1.757800579071044922e-01 -4.649506509304046631e-01 -8.675117045640945435e-02 1.342511773109436035e+00
4.870000000000000000e+02 6.638132929801940918e-01 -2.331844902038574219e+01 -1.159157603979110718e-01 2.084646224975585938e+00 5.906191468238830566e-01 4.254305362701416016e-01
4.880000000000000000e+02 6.657397747039794922e-01 -2.474100112915039062e+01 3.171978518366813660e-02 2.895463705062866211e+00 8.781550526618957520e-01 3.559558391571044922e-01
4.890000000000000000e+02 7.590101957321166992e-01 -3.180706977844238281e+01 -4.530336335301399231e-02 4.884113788604736328e+00 1.451643228530883789e+00 9.168300032615661621e-02
4.900000000000000000e+02 2.822072267532348633e+00 -3.827074432373046875e+01 -1.032912060618400574e-01 4.826748371124267578e+00 1.417037248611450195e+00 -1.419126056134700775e-02
4.910000000000000000e+02 8.948050737380981445e-01 -3.740621566772460938e+01 -4.864194244146347046e-02 5.155424594879150391e+00 1.532034754753112793e+00 -9.870935231447219849e-03
4.920000000000000000e+02 9.289758682250976562e+00 -1.501951313018798828e+01 3.336651086807250977e+00 2.325337028503417969e+01 7.977006435394287109e+00 -3.197008132934570312e+00
4.930000000000000000e+02 9.337256431579589844e+00 -1.279070377349853516e+01 4.658771991729736328e+00 2.231674766540527344e+01 8.092656135559082031e+00 4.612259387969970703e+00
4.940000000000000000e+02 9.814602851867675781e+00 -1.155505752563476562e+01 -4.235651195049285889e-01 1.322198295593261719e+01 3.839525461196899414e+00 5.661663532257080078e+00
4.950000000000000000e+02 1.095622539520263672e+01 -1.173711395263671875e+01 -8.124869465827941895e-01 4.828148365020751953e+00 1.204698443412780762e+00 4.804217815399169922e+00
4.960000000000000000e+02 1.900439834594726562e+01 -1.425331592559814453e+01 -7.157267093658447266e+00 -1.202142596244812012e+00 -2.507822990417480469e+00 2.819235563278198242e+00
4.970000000000000000e+02 1.833001708984375000e+01 1.647344779968261719e+01 -1.520633846521377563e-01 3.419327139854431152e-01 5.696079879999160767e-02 7.126190662384033203e-01
4.980000000000000000e+02 1.707113838195800781e+01 2.129595947265625000e+01 -3.184730112552642822e-01 1.812719583511352539e+00 4.482739567756652832e-01 1.066365480422973633e+00
4.990000000000000000e+02 7.235002994537353516e+00 3.205175781250000000e+01 -1.027194708585739136e-01 1.239227056503295898e+00 3.409522771835327148e-01 -3.592970594763755798e-02
5.000000000000000000e+02 7.810363173484802246e-01 3.324431228637695312e+01 -3.484939690679311752e-03 9.100655913352966309e-01 2.719741761684417725e-01 -1.162179466336965561e-02
5.010000000000000000e+02 2.255565881729125977e+00 3.023381042480468750e+01 -2.521231397986412048e-02 9.152932167053222656e-01 2.670242786407470703e-01 -7.196047157049179077e-02
5.020000000000000000e+02 6.884731054306030273e-01 2.756018066406250000e+01 -5.611695349216461182e-03 7.035753726959228516e-01 2.093891054391860962e-01 -4.743508994579315186e-02
5.030000000000000000e+02 2.036108255386352539e+00 2.596964073181152344e+01 -2.994793094694614410e-02 7.114695310592651367e-01 2.044564783573150635e-01 -1.657583117485046387e-01
5.040000000000000000e+02 1.401319980621337891e+01 1.617829322814941406e+01 1.149548664689064026e-01 4.562449932098388672e+00 1.403221368789672852e+00 6.304193735122680664e-01
5.050000000000000000e+02 1.560640144348144531e+01 1.598014450073242188e+01 9.712001085281372070e-01 3.865198850631713867e+00 1.450919628143310547e+00 1.587011218070983887e+00
5.060000000000000000e+02 1.540720272064208984e+01 1.472521209716796875e+01 1.646666169166564941e+00 4.993640422821044922e+00 1.992092013359069824e+00 2.401169538497924805e+00
5.070000000000000000e+02 1.704916000366210938e+01 1.610352325439453125e+01 1.299484014511108398e+00 2.159470796585083008e+00 1.037686467170715332e+00 1.646724820137023926e+00
5.080000000000000000e+02 1.825003623962402344e+01 1.762546730041503906e+01 -7.293266057968139648e-02 1.072639822959899902e+00 2.999121546745300293e-01 1.621211886405944824e+00
5.090000000000000000e+02 2.448030090332031250e+01 1.403484249114990234e+01 -7.734525799751281738e-01 5.574282258749008179e-02 -2.153129279613494873e-01 4.371135532855987549e-01
5.100000000000000000e+02 2.143152618408203125e+01 1.751036643981933594e+01 -7.513288855552673340e-01 -2.820233702659606934e-01 -3.100056946277618408e-01 5.945191383361816406e-01
5.110000000000000000e+02 1.971670150756835938e+01 1.655796241760253906e+01 -1.580897927284240723e+00 -1.088128685951232910e-01 -5.069132447242736816e-01 5.850021243095397949e-01
5.120000000000000000e+02 2.375418281555175781e+01 4.400193691253662109e+00 4.185255050659179688e+00 3.816087484359741211e+00 2.400402784347534180e+00 3.042737483978271484e+00
5.130000000000000000e+02 2.009444427490234375e+01 4.027094364166259766e+00 2.723397970199584961e+00 8.363661170005798340e-01 1.067929267883300781e+00 2.278395175933837891e+00
5.140000000000000000e+02 1.892546844482421875e+01 4.076720237731933594e+00 -1.486235857009887695e+00 -9.957787394523620605e-01 -7.446044087409973145e-01 2.391913652420043945e+00
5.150000000000000000e+02 1.788050842285156250e+01 1.548285841941833496e+00 4.746038436889648438e+00 9.591752290725708008e-01 1.711564183235168457e+00 3.141580820083618164e+00
5.160000000000000000e+02 1.782907867431640625e+01 3.910472154617309570e+00 -1.413767695426940918e+00 -1.091541767120361328e+00 -7.515928745269775391e-01 2.087926626205444336e+00
5.170000000000000000e+02 1.685515213012695312e+01 3.343641757965087891e+00 6.353853344917297363e-01 1.647469282150268555e+00 6.848564147949218750e-01 1.333416104316711426e+00
5.180000000000000000e+02 1.447039127349853516e+01 8.685358166694641113e-01 3.724144220352172852e+00 1.088819885253906250e+01 4.383702754974365234e+00 3.060987710952758789e+00
5.190000000000000000e+02 1.721680068969726562e+01 4.951946735382080078e+00 -3.558232784271240234e+00 -1.161765098571777344e+00 -1.415999293327331543e+00 2.210779428482055664e+00
5.200000000000000000e+02 4.761379063129425049e-01 6.355544090270996094e+00 4.103407263755798340e-03 -1.144682049751281738e+00 -3.421736061573028564e-01 8.746583014726638794e-02
5.210000000000000000e+02 1.159947514533996582e+00 2.127313137054443359e+00 -5.475322529673576355e-02 -2.034549713134765625e-01 -7.746245712041854858e-02 1.906177848577499390e-01
5.220000000000000000e+02 1.481665420532226562e+01 7.915732383728027344e+00 6.898877024650573730e-01 7.659668922424316406e+00 2.504867076873779297e+00 -1.482575654983520508e+00
5.230000000000000000e+02 1.438241004943847656e+01 9.754689216613769531e+00 3.963594436645507812e-01 9.047969818115234375e+00 2.833298683166503906e+00 -3.513405025005340576e-01
5.240000000000000000e+02 1.439102840423583984e+01 1.101952075958251953e+01 2.908817827701568604e-01 8.848618507385253906e+00 2.741849899291992188e+00 4.817182719707489014e-01
5.250000000000000000e+02 1.450606822967529297e+01 1.234474182128906250e+01 1.011973738670349121e+00 9.012980461120605469e+00 3.007486343383789062e+00 1.445397257804870605e+00
5.260000000000000000e+02 5.824338912963867188e+00 1.861598849296569824e+00 -5.212122797966003418e-01 5.217052251100540161e-02 -1.407125294208526611e-01 3.758096396923065186e-01
5.270000000000000000e+02 1.563335800170898438e+01 -2.717016637325286865e-01 8.430348396301269531e+00 5.179720401763916016e+00 4.083020687103271484e+00 2.805860996246337891e+00
5.280000000000000000e+02 1.508764839172363281e+01 -1.236366510391235352e+00 1.064509296417236328e+01 6.915864467620849609e+00 5.268287181854248047e+00 8.729180693626403809e-01
5.290000000000000000e+02 3.724573373794555664e+00 -2.001515626907348633e+00 -1.634229421615600586e-01 1.292118281126022339e-01 -1.026333402842283249e-02 -2.487499266862869263e-01
5.300000000000000000e+02 5.391514301300048828e-01 -1.066266155242919922e+01 -5.071862414479255676e-02 -3.523917436599731445e+00 -1.072390794754028320e+00 -2.772333323955535889e-01
5.310000000000000000e+02 2.709956169128417969e+01 -4.103479766845703125e+01 1.816486008465290070e-02 -2.526329085230827332e-02 -2.129528904333710670e-03 4.857217147946357727e-02
5.320000000000000000e+02 2.504761123657226562e+01 -3.116866874694824219e+01 -5.961775183677673340e-01 -1.138631552457809448e-01 -2.130122035741806030e-01 2.594693303108215332e-01
5.330000000000000000e+02 3.035813522338867188e+01 -3.634426116943359375e+01 -2.278833240270614624e-01 -2.147220671176910400e-01 -1.327816098928451538e-01 1.682249009609222412e-01
5.340000000000000000e+02 2.962942123413085938e+01 -3.316273498535156250e+01 -4.989970624446868896e-01 -1.608445346355438232e-01 -1.979524791240692139e-01 2.783322036266326904e-01
5.350000000000000000e+02 3.685237503051757812e+01 -3.711343765258789062e+01 -3.015013337135314941e-01 -2.073637694120407104e-01 -1.526595354080200195e-01 2.630961500108242035e-02
5.360000000000000000e+02 3.705381774902343750e+01 -3.262026596069335938e+01 -4.750274121761322021e-01 -5.392934661358594894e-03 -1.441261023283004761e-01 5.483932327479124069e-03
5.370000000000000000e+02 7.806075286865234375e+01 -2.353844070434570312e+01 -9.688552469015121460e-02 9.880113601684570312e+00 2.934968471527099609e+00 -6.597274541854858398e-01
5.380000000000000000e+02 7.933774566650390625e+01 -2.223198127746582031e+01 1.067074853926897049e-02 9.666023254394531250e+00 2.903007984161376953e+00 -3.306139111518859863e-01
5.390000000000000000e+02 7.798404693603515625e+01 -1.630590438842773438e+01 9.759371727705001831e-02 7.326849460601806641e+00 2.227332830429077148e+00 -1.108569860458374023e+00
5.400000000000000000e+02 7.823601531982421875e+01 -9.500838279724121094e+00 2.261268794536590576e-01 5.721136569976806641e+00 1.784178972244262695e+00 3.121127188205718994e-01
5.410000000000000000e+02 7.939020538330078125e+01 -1.243648433685302734e+01 1.098763123154640198e-01 4.361722946166992188e+00 1.341479778289794922e+00 -1.699759811162948608e-01
5.420000000000000000e+02 6.857072448730468750e+01 -9.972661972045898438e+00 1.369608283042907715e+00 2.518074989318847656e+01 7.965107440948486328e+00 -2.385558843612670898e+00
5.430000000000000000e+02 7.808241271972656250e+01 1.142020034790039062e+01 -1.006381865590810776e-02 7.517972946166992188e+00 2.252372741699218750e+00 -2.787966430187225342e-01
5.440000000000000000e+02 7.936672973632812500e+01 1.681154251098632812e+01 1.331867184489965439e-02 7.022785186767578125e+00 2.110831260681152344e+00 -8.193121850490570068e-02
5.450000000000000000e+02 7.238336944580078125e+01 2.344171524047851562e+01 1.622963249683380127e-01 5.411100387573242188e+00 1.672019004821777344e+00 -5.074274539947509766e-01
5.460000000000000000e+02 6.203043746948242188e+01 2.756759262084960938e+01 4.813857972621917725e-01 3.798610210418701172e+00 1.283998727798461914e+00 -5.414448976516723633e-01
5.470000000000000000e+02 5.756478118896484375e+01 3.502993774414062500e+01 5.958255529403686523e-01 3.287876129150390625e+00 1.165110468864440918e+00 -2.110299915075302124e-01
5.480000000000000000e+02 5.168487548828125000e+01 4.051654052734375000e+01 6.878229975700378418e-01 2.708951950073242188e+00 1.019032478332519531e+00 -1.350779458880424500e-02
5.490000000000000000e+02 7.808853149414062500e+01 1.974280929565429688e+01 4.863830748945474625e-03 6.498109340667724609e+00 1.950891971588134766e+00 -2.054011374711990356e-01
5.500000000000000000e+02 7.933671569824218750e+01 2.376345634460449219e+01 -3.351278603076934814e-03 6.256610393524169922e+00 1.875977754592895508e+00 -5.258040130138397217e-02
5.510000000000000000e+02 7.317143249511718750e+01 3.087507820129394531e+01 9.696751832962036133e-02 5.237608432769775391e+00 1.600372791290283203e+00 -2.670649290084838867e-01
5.520000000000000000e+02 6.295109939575195312e+01 4.083869552612304688e+01 3.992055356502532959e-01 3.938599586486816406e+00 1.301341533660888672e+00 -4.972998052835464478e-02
5.530000000000000000e+02 5.855944824218750000e+01 4.038928985595703125e+01 5.455726981163024902e-01 3.384179830551147461e+00 1.178925752639770508e+00 -5.512764304876327515e-02
5.540000000000000000e+02 7.668713378906250000e+01 2.259055900573730469e+01 4.128997027873992920e-02 6.059401512145996094e+00 1.830207467079162598e+00 -2.885421514511108398e-01
5.550000000000000000e+02 7.933132934570312500e+01 2.930926895141601562e+01 -3.264234634116292000e-03 5.877616882324218750e+00 1.762305736541748047e+00 -3.398993611335754395e-02
5.560000000000000000e+02 6.775251770019531250e+01 3.803275299072265625e+01 2.369588464498519897e-01 4.522577285766601562e+00 1.427860856056213379e+00 -1.383678466081619263e-01
5.570000000000000000e+02 7.932210540771484375e+01 3.207319259643554688e+01 -8.277169399661943316e-05 5.743885040283203125e+00 1.723140597343444824e+00 -2.622968703508377075e-02
5.580000000000000000e+02 7.906104278564453125e+01 3.754323577880859375e+01 9.258450940251350403e-03 5.557343482971191406e+00 1.669980525970458984e+00 -1.740067452192306519e-02
5.590000000000000000e+02 7.156430053710937500e+01 3.792908096313476562e+01 1.213609650731086731e-01 4.957018852233886719e+00 1.523513913154602051e+00 -1.157472357153892517e-01
5.600000000000000000e+02 7.732775115966796875e+01 3.717107391357421875e+01 1.233809255063533783e-02 5.443811893463134766e+00 1.636845111846923828e+00 -6.520831584930419922e-02
5.610000000000000000e+02 3.257944869995117188e+01 4.039144897460937500e+01 4.783529639244079590e-01 1.663857936859130859e+00 6.426632404327392578e-01 4.074285924434661865e-02
5.620000000000000000e+02 2.717614555358886719e+01 2.620492553710937500e+01 2.255521714687347412e-01 1.377474904060363770e+00 4.809081256389617920e-01 2.643898129463195801e-01
5.630000000000000000e+02 2.820436668395996094e+01 2.257929229736328125e+01 3.913018479943275452e-02 1.470424056053161621e+00 4.528662860393524170e-01 2.684382796287536621e-01
5.640000000000000000e+02 1.755443191528320312e+01 4.036370086669921875e+01 1.299034804105758667e-01 1.350683450698852539e+00 4.441760778427124023e-01 5.344515293836593628e-02
5.650000000000000000e+02 2.268131637573242188e+01 4.046017074584960938e+01 2.512788176536560059e-01 1.409307360649108887e+00 4.981758594512939453e-01 5.393899977207183838e-02
5.660000000000000000e+02 2.425222587585449219e+01 3.111130523681640625e+01 2.595593631267547607e-01 1.361543297767639160e+00 4.863307774066925049e-01 2.755716741085052490e-01
5.670000000000000000e+02 2.071893119812011719e+01 2.203870582580566406e+01 1.032979711890220642e-01 8.132246136665344238e-01 2.749567627906799316e-01 8.135961890220642090e-01
5.680000000000000000e+02 2.160687065124511719e+01 2.328963661193847656e+01 1.424449533224105835e-01 9.438318610191345215e-01 3.258830308914184570e-01 6.046552062034606934e-01
5.690000000000000000e+02 1.760917663574218750e+01 3.654460144042968750e+01 1.001333072781562805e-01 1.372723937034606934e+00 4.418571889400482178e-01 1.401419043540954590e-01
5.700000000000000000e+02 1.550694465637207031e+01 3.260982513427734375e+01 -1.747207343578338623e-02 1.442360639572143555e+00 4.274665713310241699e-01 2.381251305341720581e-01
5.710000000000000000e+02 1.758587265014648438e+01 2.269840812683105469e+01 -2.033863365650177002e-01 1.637819409370422363e+00 4.303299188613891602e-01 9.365428686141967773e-01
5.720000000000000000e+02 1.253220558166503906e+01 4.073540496826171875e+01 3.561241924762725830e-02 1.283828496932983398e+00 3.958322703838348389e-01 2.355188876390457153e-02
5.730000000000000000e+02 8.405870437622070312e+00 3.831003952026367188e+01 -7.808197755366563797e-03 1.194628119468688965e+00 3.560459613800048828e-01 9.796612896025180817e-03
5.740000000000000000e+02 1.995115399360656738e+00 4.164257431030273438e+01 -1.228542160242795944e-02 9.875836372375488281e-01 2.925894558429718018e-01 -3.521069651469588280e-03
5.750000000000000000e+02 4.262801647186279297e+00 3.782349395751953125e+01 -2.628822112455964088e-03 1.041246652603149414e+00 3.115853667259216309e-01 1.967886462807655334e-03
5.760000000000000000e+02 6.601593494415283203e-01 2.049067497253417969e+01 -1.139907259494066238e-02 -1.466743946075439453e-01 -4.742204025387763977e-02 -1.158265992999076843e-01
5.770000000000000000e+02 1.897681951522827148e+00 1.600027465820312500e+01 2.257533185184001923e-02 -4.128125309944152832e-01 -1.170711591839790344e-01 -2.934914529323577881e-01
5.780000000000000000e+02 1.170524215698242188e+01 1.230713367462158203e+01 1.249508857727050781e+00 4.415561676025390625e+00 1.699521183967590332e+00 -2.134204655885696411e-02
5.790000000000000000e+02 1.237663173675537109e+01 1.521442127227783203e+01 5.397527217864990234e-01 4.268159389495849609e+00 1.442373633384704590e+00 -1.396185904741287231e-01
5.800000000000000000e+02 6.166046261787414551e-01 1.482278823852539062e+01 1.006570761092007160e-03 -1.163266301155090332e+00 -3.486779332160949707e-01 -9.232345223426818848e-02
5.810000000000000000e+02 1.602589368820190430e+00 8.967210769653320312e+00 5.673705413937568665e-02 -9.290752410888671875e-01 -2.617014646530151367e-01 9.876723587512969971e-02
5.820000000000000000e+02 1.329118728637695312e+01 1.006488132476806641e+01 7.985550165176391602e-01 6.763051033020019531e+00 2.268481731414794922e+00 3.965368866920471191e-02
5.830000000000000000e+02 6.071263504028320312e+01 1.687246704101562500e+01 8.158416152000427246e-01 3.515390872955322266e+00 1.299369692802429199e+00 -8.905690908432006836e-01
5.840000000000000000e+02 6.085294342041015625e+01 1.920116996765136719e+01 6.509285569190979004e-01 3.605422019958496094e+00 1.276905179023742676e+00 -7.876760363578796387e-01
5.850000000000000000e+02 7.272458648681640625e+01 1.865873718261718750e+01 1.480522751808166504e-01 5.741675853729248047e+00 1.766918420791625977e+00 -6.622806191444396973e-01
5.860000000000000000e+02 4.967636108398437500e+01 1.928032684326171875e+01 1.009111642837524414e+00 3.266849815845489502e-01 4.007389843463897705e-01 -2.035992778837680817e-02
5.870000000000000000e+02 5.098645019531250000e+01 1.885380363464355469e+01 9.403760433197021484e-01 3.206737041473388672e-01 3.783149123191833496e-01 -4.334832429885864258e-01
5.880000000000000000e+02 4.720264434814453125e+01 2.150069999694824219e+01 1.144070863723754883e+00 1.180486798286437988e+00 6.973673105239868164e-01 6.075990796089172363e-01
5.890000000000000000e+02 7.457872390747070312e+00 2.553602981567382812e+01 -2.697093784809112549e-01 1.474941968917846680e+00 3.615697622299194336e-01 -2.277363985776901245e-01
5.900000000000000000e+02 8.221975326538085938e+00 2.398011207580566406e+01 -3.452600836753845215e-01 1.717344880104064941e+00 4.116254448890686035e-01 -2.409946620464324951e-01
5.910000000000000000e+02 2.813103675842285156e+01 1.573560810089111328e+01 -5.837167501449584961e-01 2.243131160736083984e+00 4.978243410587310791e-01 7.394913434982299805e-01
5.920000000000000000e+02 2.787578392028808594e+01 1.212333583831787109e+01 2.081553190946578979e-01 3.011749029159545898e+00 9.659712910652160645e-01 1.495531082153320312e+00
5.930000000000000000e+02 3.868630599975585938e+01 1.175597953796386719e+01 8.402091860771179199e-01 1.622703671455383301e+00 7.388738393783569336e-01 1.041887521743774414e+00
5.940000000000000000e+02 3.893234634399414062e+01 1.055126571655273438e+01 8.573933839797973633e-01 1.552967309951782227e+00 7.231082320213317871e-01 9.092929959297180176e-01
5.950000000000000000e+02 4.043584823608398438e+01 1.652937316894531250e+01 1.030995130538940430e+00 2.078657388687133789e+00 9.328957796096801758e-01 9.442865848541259766e-01
5.960000000000000000e+02 5.463180923461914062e+01 8.809795379638671875e+00 3.574185073375701904e-01 1.075078368186950684e+00 4.297490715980529785e-01 3.392809927463531494e-01
5.970000000000000000e+02 5.428993225097656250e+01 4.965665817260742188e+00 8.896709680557250977e-01 5.095336437225341797e-01 4.197613894939422607e-01 -1.260373145341873169e-01
5.980000000000000000e+02 6.346992874145507812e+01 -6.951826095581054688e+00 -5.450276374816894531e+00 -1.413786053657531738e+00 -2.059218645095825195e+00 -2.537493705749511719e+00
5.990000000000000000e+02 6.716278076171875000e+01 -5.630740642547607422e+00 -2.662497997283935547e+00 9.790119171142578125e+00 2.138286352157592773e+00 -4.851357460021972656e+00
6.000000000000000000e+02 6.281539535522460938e+01 -5.056173324584960938e+00 -1.476168870925903320e+00 -6.333134770393371582e-01 -6.328447461128234863e-01 -1.947658419609069824e+00
6.010000000000000000e+02 6.118001174926757812e+01 1.293592739105224609e+01 6.377265453338623047e-01 3.435621500015258789e+00 1.222004413604736328e+00 -1.139492630958557129e+00
6.020000000000000000e+02 2.738466644287109375e+01 1.086113834381103516e+01 4.731115698814392090e-01 3.576461315155029297e+00 1.214871883392333984e+00 1.617601871490478516e+00
6.030000000000000000e+02 5.892228698730468750e+01 -9.955382347106933594e+00 -3.735766410827636719e+00 -1.361078023910522461e+00 -1.529053330421447754e+00 -2.236741304397583008e+00
6.040000000000000000e+02 5.814738082885742188e+01 -5.892821311950683594e+00 -2.125349521636962891e+00 -4.255770444869995117e-01 -7.652779817581176758e-01 -8.918711543083190918e-01
6.050000000000000000e+02 5.304042053222656250e+01 3.754274845123291016e+00 8.529893159866333008e-01 2.801913321018218994e-01 3.399541974067687988e-01 -2.034838497638702393e-01
6.060000000000000000e+02 5.528347778320312500e+01 -6.421383380889892578e+00 -2.025238275527954102e+00 -2.193477302789688110e-01 -6.733757853507995605e-01 -7.629183530807495117e-01
6.070000000000000000e+02 4.820848464965820312e+01 -5.978276252746582031e+00 -1.230940341949462891e+00 1.235845386981964111e-01 -3.322067260742187500e-01 -5.051323175430297852e-01
6.080000000000000000e+02 5.061011123657226562e+01 -5.376309394836425781e+00 -1.257439255714416504e+00 4.796510189771652222e-02 -3.628422319889068604e-01 -4.853733181953430176e-01
6.090000000000000000e+02 4.562108993530273438e+01 -5.647588729858398438e+00 -1.007048726081848145e+00 1.948636174201965332e-01 -2.436555474996566772e-01 -4.799006581306457520e-01
6.100000000000000000e+02 4.228330230712890625e+01 -1.458648777008056641e+01 -2.468313217163085938e+00 1.382143646478652954e-01 -6.990296840667724609e-01 -6.696702241897583008e-01
6.110000000000000000e+02 4.245910263061523438e+01 -1.562780094146728516e+01 -2.571143865585327148e+00 6.987307965755462646e-02 -7.503812313079833984e-01 -6.356861591339111328e-01
6.120000000000000000e+02 4.406657028198242188e+01 -1.385985565185546875e+01 -2.366536617279052734e+00 3.464040160179138184e-02 -6.995688676834106445e-01 -7.540462613105773926e-01
6.130000000000000000e+02 5.033264923095703125e+01 -1.226995754241943359e+01 -2.458483695983886719e+00 -2.772998213768005371e-01 -8.207350373268127441e-01 -1.099267244338989258e+00
6.140000000000000000e+02 5.061820983886718750e+01 -1.498656272888183594e+01 -2.484263181686401367e+00 -5.359077453613281250e-01 -9.060513377189636230e-01 -1.241334080696105957e+00
6.150000000000000000e+02 4.461655044555664062e+01 -5.275925636291503906e+00 -8.391209244728088379e-01 2.307271063327789307e-01 -1.825181543827056885e-01 -4.482415616512298584e-01
6.160000000000000000e+02 4.598997116088867188e+01 7.038619518280029297e+00 1.341042637825012207e+00 4.316307306289672852e-01 5.318019986152648926e-01 -5.724661350250244141e-01
6.170000000000000000e+02 2.917682456970214844e+01 -1.405634021759033203e+01 -3.281480312347412109e+00 4.653788208961486816e-01 -8.448304533958435059e-01 9.330447763204574585e-02
6.180000000000000000e+02 2.210240936279296875e+01 -4.644934535026550293e-01 3.587715864181518555e+00 1.024850130081176758e+00 1.383769869804382324e+00 2.268329381942749023e+00
6.190000000000000000e+02 2.198561668395996094e+01 -1.420515894889831543e+00 3.587562799453735352e+00 8.354953527450561523e-01 1.326917409896850586e+00 1.690685033798217773e+00
6.200000000000000000e+02 3.676604461669921875e+01 -5.772191524505615234e+00 -5.774565935134887695e-01 5.293172001838684082e-01 -1.444182451814413071e-02 -5.037243962287902832e-01
6.210000000000000000e+02 3.995017242431640625e+01 -1.346275138854980469e+01 -2.338392734527587891e+00 2.992881834506988525e-01 -6.117313504219055176e-01 -5.882826447486877441e-01
6.220000000000000000e+02 3.893518447875976562e+01 -1.728621101379394531e+01 -2.777612447738647461e+00 1.195205971598625183e-01 -7.974275350570678711e-01 -4.351854324340820312e-01
6.230000000000000000e+02 2.217064666748046875e+01 -1.445028400421142578e+01 -5.231037139892578125e+00 -1.122116371989250183e-01 -1.602974653244018555e+00 1.478768110275268555e+00
6.240000000000000000e+02 2.515392112731933594e+01 -1.436136722564697266e+01 -4.179924964904785156e+00 2.795863449573516846e-01 -1.170101642608642578e+00 7.342472672462463379e-01
6.250000000000000000e+02 2.739844512939453125e+01 -2.752080440521240234e+00 1.203227758407592773e+00 1.085149884223937988e+00 6.865133047103881836e-01 1.413687318563461304e-01
6.260000000000000000e+02 2.873171997070312500e+01 5.455031394958496094e+00 3.082999467849731445e+00 2.235046863555908203e+00 1.595413923263549805e+00 1.285001277923583984e+00
6.270000000000000000e+02 2.620689773559570312e+01 -9.859017133712768555e-01 1.978307604789733887e+00 1.469895362854003906e+00 1.034460902214050293e+00 7.578213810920715332e-01
6.280000000000000000e+02 1.424426078796386719e+01 -3.040175676345825195e+00 4.382878303527832031e+00 9.900705337524414062e+00 4.285075187683105469e+00 7.059110999107360840e-01
6.290000000000000000e+02 1.648675727844238281e+01 -1.292300033569335938e+01 -8.733856201171875000e+00 -1.555087685585021973e+00 -3.086683273315429688e+00 3.512495040893554688e+00
6.300000000000000000e+02 2.943369483947753906e+01 -1.281603622436523438e+01 -2.932355880737304688e+00 5.878643989562988281e-01 -7.033474445343017578e-01 -1.146862208843231201e-01
6.310000000000000000e+02 3.631409454345703125e+01 -1.271724319458007812e+01 -2.334886074066162109e+00 4.507927596569061279e-01 -5.652279853820800781e-01 -4.801582098007202148e-01
6.320000000000000000e+02 6.071842193603515625e+01 -2.355625534057617188e+01 -7.029534578323364258e-01 5.916725471615791321e-02 -1.931358575820922852e-01 -3.066650331020355225e-01
6.330000000000000000e+02 6.268295669555664062e+01 -3.237006378173828125e+01 -1.683522760868072510e-01 3.007595539093017578e+00 8.517729640007019043e-01 3.388542234897613525e-01
6.340000000000000000e+02 6.128431701660156250e+01 -3.430697631835937500e+01 2.852316014468669891e-02 2.363557100296020508e+00 7.176240682601928711e-01 2.942259013652801514e-01
6.350000000000000000e+02 6.367715835571289062e+01 -3.023002052307128906e+01 -5.148322582244873047e-01 3.655709505081176758e+00 9.422631859779357910e-01 4.392195343971252441e-01
6.360000000000000000e+02 7.216361236572265625e+01 -3.087244796752929688e+01 -3.960928916931152344e-01 8.200346946716308594e+00 2.341276168823242188e+00 1.377193111693486571e-04
6.370000000000000000e+02 7.360162353515625000e+01 -3.118240928649902344e+01 -2.991182208061218262e-01 8.823255538940429688e+00 2.557240962982177734e+00 -1.435002237558364868e-01
6.380000000000000000e+02 7.183096313476562500e+01 -4.113644027709960938e+01 8.039760589599609375e-02 7.876343250274658203e+00 2.387022256851196289e+00 -1.263023074716329575e-02
6.390000000000000000e+02 5.619088745117187500e+01 -2.692863464355468750e+01 -1.856208205223083496e+00 -6.181775927543640137e-01 -7.423157095909118652e-01 -1.049674987792968750e+00
6.400000000000000000e+02 5.689244842529296875e+01 -2.799777603149414062e+01 -1.285295963287353516e+00 -2.449721097946166992e-01 -4.590804278850555420e-01 -6.018121838569641113e-01
6.410000000000000000e+02 5.722471237182617188e+01 -4.121577072143554688e+01 5.627189874649047852e-01 1.014351963996887207e+00 4.731212854385375977e-01 1.654977165162563324e-02
6.420000000000000000e+02 7.131949663162231445e-01 -3.039128875732421875e+01 2.056761458516120911e-02 4.685595035552978516e+00 1.411848902702331543e+00 1.239847987890243530e-01
6.430000000000000000e+02 1.183744144439697266e+01 -2.435473442077636719e+01 -6.302912235260009766e-01 3.987354516983032227e+00 1.007118940353393555e+00 -7.101757526397705078e-01
6.440000000000000000e+02 3.728733062744140625e+01 -7.623127937316894531e+00 -1.112820625305175781e+00 4.963344037532806396e-01 -1.849458664655685425e-01 -5.656226277351379395e-01
6.450000000000000000e+02 3.924636077880859375e+01 5.380763530731201172e+00 1.166040658950805664e+00 7.062441706657409668e-01 5.616854429244995117e-01 2.506065070629119873e-01
6.460000000000000000e+02 6.206148529052734375e+01 -2.403696179389953613e-01 4.423794895410537720e-02 1.543351173400878906e+00 4.762767255306243896e-01 -2.018697977066040039e+00
6.470000000000000000e+02 7.172113037109375000e+01 2.476661491394042969e+01 1.643433868885040283e-01 5.270834922790527344e+00 1.630553483963012695e+00 -4.974684715270996094e-01
6.480000000000000000e+02 6.265811920166015625e+01 2.556559753417968750e+01 4.905083179473876953e-01 3.905482530593872070e+00 1.318797230720520020e+00 -6.023399233818054199e-01
6.490000000000000000e+02 7.125273895263671875e+01 3.064346885681152344e+01 1.487426757812500000e-01 5.016569137573242188e+00 1.549593567848205566e+00 -3.274500668048858643e-01
6.500000000000000000e+02 6.333443450927734375e+01 3.083011817932128906e+01 4.090207219123840332e-01 3.993228435516357422e+00 1.320674777030944824e+00 -4.111446738243103027e-01
6.510000000000000000e+02 5.492967605590820312e+01 3.281621932983398438e+01 7.008324265480041504e-01 2.855684041976928711e+00 1.066954970359802246e+00 -2.137449830770492554e-01
6.520000000000000000e+02 2.763821411132812500e+01 3.342349243164062500e+01 3.407326340675354004e-01 1.486340403556823730e+00 5.481219291687011719e-01 1.858106702566146851e-01
6.530000000000000000e+02 2.217988014221191406e+01 3.257914352416992188e+01 2.210972309112548828e-01 1.363404870033264160e+00 4.753506183624267578e-01 2.661316990852355957e-01
6.540000000000000000e+02 5.601714706420898438e+01 1.581997585296630859e+01 1.262655377388000488e+00 3.689979076385498047e+00 1.485790371894836426e+00 -1.127159833908081055e+00
6.550000000000000000e+02 4.780325317382812500e+01 6.234906196594238281e+00 2.120332479476928711e+00 3.067598342895507812e-01 7.281276583671569824e-01 -3.264505863189697266e-01
6.560000000000000000e+02 4.301450347900390625e+01 9.371530532836914062e+00 4.272399246692657471e-01 8.568837046623229980e-01 3.852370977401733398e-01 -2.043460756540298462e-01
6.570000000000000000e+02 6.939056396484375000e+01 -1.272624874114990234e+01 2.722585916519165039e+00 1.924003601074218750e+01 6.588786602020263672e+00 9.684717655181884766e-01
6.580000000000000000e+02 6.783791351318359375e+01 -1.689535713195800781e+01 6.528195738792419434e-01 1.058266258239746094e+01 3.370644569396972656e+00 2.420432806015014648e+00
6.590000000000000000e+02 6.537763977050781250e+01 -1.822816276550292969e+01 1.673987984657287598e+00 5.274116516113281250e+00 2.084431409835815430e+00 2.778885364532470703e+00
6.600000000000000000e+02 6.448599243164062500e+01 -1.933449363708496094e+01 1.058653354644775391e+00 3.213084936141967773e+00 1.281521558761596680e+00 1.946558952331542969e+00
6.610000000000000000e+02 6.263967895507812500e+01 -2.148045539855957031e+01 1.174531504511833191e-01 1.232636094093322754e+00 4.050267636775970459e-01 5.973850488662719727e-01
6.620000000000000000e+02 5.966445922851562500e+01 -2.450657272338867188e+01 -1.097959876060485840e+00 -3.061226010322570801e-01 -4.212247729301452637e-01 -6.646315455436706543e-01
6.630000000000000000e+02 5.738842773437500000e+01 -2.619335556030273438e+01 -1.745276570320129395e+00 -6.111650466918945312e-01 -7.069324851036071777e-01 -1.022760272026062012e+00
6.640000000000000000e+02 5.499290084838867188e+01 -2.765038871765136719e+01 -1.921471834182739258e+00 -5.997592210769653320e-01 -7.563692927360534668e-01 -1.062465667724609375e+00
6.650000000000000000e+02 5.253104782104492188e+01 -2.903213310241699219e+01 -1.747230648994445801e+00 -5.191549658775329590e-01 -6.799156665802001953e-01 -9.344431161880493164e-01
6.660000000000000000e+02 4.590241622924804688e+01 -3.153404426574707031e+01 -9.812654852867126465e-01 -1.440883576869964600e-01 -3.376061618328094482e-01 -3.605355918407440186e-01
6.670000000000000000e+02 3.997924041748046875e+01 -3.286861419677734375e+01 -5.515088438987731934e-01 -5.428524315357208252e-02 -1.817382276058197021e-01 -9.318045526742935181e-02
6.680000000000000000e+02 3.571061706542968750e+01 -3.264091110229492188e+01 -4.897323846817016602e-01 -6.267527490854263306e-02 -1.657222956418991089e-01 6.150007620453834534e-02
6.690000000000000000e+02 3.279999542236328125e+01 -3.215307617187500000e+01 -5.966495871543884277e-01 -8.254380524158477783e-02 -2.037580311298370361e-01 1.388241201639175415e-01
6.700000000000000000e+02 3.142187309265136719e+01 -3.184678268432617188e+01 -6.928416490554809570e-01 -4.079271852970123291e-02 -2.200902998447418213e-01 2.118693441152572632e-01
6.710000000000000000e+02 2.999759101867675781e+01 -3.160389900207519531e+01 -8.088088631629943848e-01 -1.622759103775024414e-01 -2.913254201412200928e-01 2.654532194137573242e-01
6.720000000000000000e+02 2.478197288513183594e+01 -2.918893623352050781e+01 -8.636954426765441895e-01 -2.466202378273010254e-01 -3.330947160720825195e-01 3.998425900936126709e-01
6.730000000000000000e+02 2.230077934265136719e+01 -2.798068428039550781e+01 -7.605627775192260742e-01 -1.706666350364685059e-01 -2.793688178062438965e-01 3.428071439266204834e-01
6.740000000000000000e+02 2.356614303588867188e+01 -2.855936813354492188e+01 -8.127894401550292969e-01 -1.694817692041397095e-01 -2.946813702583312988e-01 4.312248528003692627e-01
6.750000000000000000e+02 1.369928932189941406e+01 -2.048552894592285156e+01 1.223824501037597656e+00 2.307760238647460938e+00 1.059475421905517578e+00 -1.848755359649658203e+00
6.760000000000000000e+02 1.272270584106445312e+01 -1.947048568725585938e+01 1.855450987815856934e+00 3.567523002624511719e+00 1.626892209053039551e+00 -2.329094409942626953e+00
6.770000000000000000e+02 1.082003879547119141e+01 -1.737831497192382812e+01 3.311263322830200195e+00 8.567956924438476562e+00 3.563766002655029297e+00 -4.480448722839355469e+00
6.780000000000000000e+02 1.667756080627441406e+01 -1.083361625671386719e+01 -6.118166446685791016e+00 -1.161405816674232483e-01 -1.870292067527770996e+00 1.315350651741027832e+00
6.790000000000000000e+02 1.774714279174804688e+01 -1.363798522949218750e+01 -7.440835952758789062e+00 -1.157879114151000977e+00 -2.579614639282226562e+00 3.128422737121582031e+00
6.800000000000000000e+02 2.026023101806640625e+01 -1.486362075805664062e+01 -6.291708946228027344e+00 -1.115699052810668945e+00 -2.222222566604614258e+00 2.619598388671875000e+00
6.810000000000000000e+02 2.150774765014648438e+01 -1.547950839996337891e+01 -5.293246269226074219e+00 -8.291311860084533691e-01 -1.836713194847106934e+00 2.202628612518310547e+00
6.820000000000000000e+02 2.405519104003906250e+01 -1.653116607666015625e+01 -4.569778919219970703e+00 -3.903771936893463135e-01 -1.488046884536743164e+00 1.463600516319274902e+00
6.830000000000000000e+02 2.937733078002929688e+01 -1.798929023742675781e+01 -3.685313463211059570e+00 -2.358246408402919769e-02 -1.112668752670288086e+00 6.609184741973876953e-01
6.840000000000000000e+02 3.210080718994140625e+01 -1.841294670104980469e+01 -3.512298583984375000e+00 -4.821229958906769753e-04 -1.053834199905395508e+00 3.520376980304718018e-01
6.850000000000000000e+02 3.347031021118164062e+01 -1.857079887390136719e+01 -3.228844404220581055e+00 8.217188715934753418e-02 -9.440017938613891602e-01 2.014728337526321411e-01
6.860000000000000000e+02 3.758107376098632812e+01 -1.859553146362304688e+01 -3.100965499877929688e+00 1.283109467476606369e-02 -9.264402985572814941e-01 -1.867919266223907471e-01
6.870000000000000000e+02 3.502214431762695312e+01 -1.738728904724121094e+01 -3.106054306030273438e+00 1.970620006322860718e-01 -8.726977109909057617e-01 -4.937758296728134155e-02
6.880000000000000000e+02 4.030274963378906250e+01 -1.840704536437988281e+01 -2.606219291687011719e+00 3.455723449587821960e-02 -7.714985609054565430e-01 -4.011099934577941895e-01
6.890000000000000000e+02 4.555829238891601562e+01 -1.704089164733886719e+01 -2.852147579193115234e+00 -2.683247327804565430e-01 -9.361416697502136230e-01 -8.607354164123535156e-01
6.900000000000000000e+02 4.392034912109375000e+01 -1.638353157043457031e+01 -2.639662504196166992e+00 -1.268195211887359619e-01 -8.299446105957031250e-01 -7.223824262619018555e-01
6.910000000000000000e+02 4.685648727416992188e+01 -1.662795639038085938e+01 -2.573363304138183594e+00 -2.215582132339477539e-01 -8.384764790534973145e-01 -8.949780464172363281e-01
6.920000000000000000e+02 4.812611007690429688e+01 -1.613348388671875000e+01 -2.518037319183349609e+00 -3.480583131313323975e-01 -8.598286509513854980e-01 -1.021840691566467285e+00
6.930000000000000000e+02 5.225603485107421875e+01 -1.265440559387207031e+01 -2.596342802047729492e+00 -5.599613785743713379e-01 -9.468912482261657715e-01 -1.291689872741699219e+00
6.940000000000000000e+02 5.303448867797851562e+01 -1.364289283752441406e+01 -2.802293777465820312e+00 -8.152528405189514160e-01 -1.085263967514038086e+00 -1.502039313316345215e+00
6.950000000000000000e+02 5.542234420776367188e+01 -1.223710536956787109e+01 -2.835662126541137695e+00 -9.802026748657226562e-01 -1.144759416580200195e+00 -1.718736410140991211e+00
6.960000000000000000e+02 5.775547409057617188e+01 -1.071720314025878906e+01 -3.402989387512207031e+00 -1.281789541244506836e+00 -1.405433654785156250e+00 -2.072998285293579102e+00
6.970000000000000000e+02 6.124391555786132812e+01 -8.439771652221679688e+00 -4.493677616119384766e+00 -1.462898015975952148e+00 -1.786972761154174805e+00 -2.534116983413696289e+00
6.980000000000000000e+02 6.423593902587890625e+01 -5.985538482666015625e+00 -3.333140611648559570e+00 -7.111465334892272949e-01 -1.213286161422729492e+00 -2.421651601791381836e+00
6.990000000000000000e+02 2.236742973327636719e+01 1.569875717163085938e+01 -1.947100400924682617e+00 -6.007753610610961914e-01 -7.643627524375915527e-01 9.539208412170410156e-01
7.000000000000000000e+02 2.136118698120117188e+01 3.697738170623779297e+00 4.025251865386962891e+00 1.687042593955993652e+00 1.713688254356384277e+00 2.953302145004272461e+00
7.010000000000000000e+02 1.488697719573974609e+01 1.359814262390136719e+01 1.496468067169189453e+00 7.487152099609375000e+00 2.695086002349853516e+00 2.516977310180664062e+00
7.020000000000000000e+02 1.033282279968261719e+01 1.677628517150878906e+00 5.170028209686279297e-01 1.496197938919067383e+00 6.039602160453796387e-01 -1.701014161109924316e+00
7.030000000000000000e+02 8.913759231567382812e+00 1.806649565696716309e+00 -1.197246685624122620e-01 4.706312417984008789e-01 1.052719727158546448e-01 -4.537355005741119385e-01
7.040000000000000000e+02 8.025801658630371094e+00 2.452661275863647461e+00 -6.665592640638351440e-02 4.885167181491851807e-01 1.265582442283630371e-01 -1.690055429935455322e-01
7.050000000000000000e+02 7.382259845733642578e+00 1.823315143585205078e+00 -5.084645152091979980e-01 1.558608412742614746e-01 -1.057811006903648376e-01 1.623312532901763916e-01
7.060000000000000000e+02 5.046329021453857422e+00 1.888312816619873047e+00 -4.640152454376220703e-01 3.651785477995872498e-02 -1.282492130994796753e-01 4.114381670951843262e-01
7.070000000000000000e+02 2.145549297332763672e+00 4.360244750976562500e+00 1.028022170066833496e-02 -3.816630840301513672e-01 -1.114148572087287903e-01 3.918717801570892334e-01
7.080000000000000000e+02 4.274590969085693359e+00 1.918319106101989746e+00 -3.826855421066284180e-01 -2.519237995147705078e-02 -1.223633736371994019e-01 4.319542646408081055e-01
7.090000000000000000e+02 3.504220247268676758e+00 1.952213287353515625e+00 -3.115340769290924072e-01 -5.078953504562377930e-02 -1.086970865726470947e-01 4.019735455513000488e-01
7.100000000000000000e+02 1.940462589263916016e+00 2.064289808273315430e+00 -1.162700653076171875e-01 -1.693854928016662598e-01 -8.569666743278503418e-02 2.885030806064605713e-01
7.110000000000000000e+02 1.149239826202392578e+01 1.398344874382019043e+00 1.126386761665344238e+00 3.566626310348510742e+00 1.407903909683227539e+00 -3.066308736801147461e+00
7.120000000000000000e+02 1.169712829589843750e+01 1.313905715942382812e+00 1.170593500137329102e+00 4.236956119537353516e+00 1.622264862060546875e+00 -3.347183465957641602e+00
7.130000000000000000e+02 1.203616428375244141e+01 1.459999084472656250e+00 8.300678730010986328e-01 5.992936611175537109e+00 2.046901464462280273e+00 -3.573047399520874023e+00
7.140000000000000000e+02 1.283251667022705078e+01 9.855381250381469727e-01 4.187966883182525635e-01 1.114388179779052734e+01 3.468803405761718750e+00 -3.217704534530639648e+00
7.150000000000000000e+02 1.138378334045410156e+01 -2.236420869827270508e+00 6.654376506805419922e+00 3.205512523651123047e+00 2.957966804504394531e+00 5.912093639373779297e+00
7.160000000000000000e+02 1.105516433715820312e+01 -1.947022199630737305e+00 6.292864322662353516e+00 1.481198310852050781e+00 2.332218647003173828e+00 4.236906528472900391e+00
7.170000000000000000e+02 1.153270816802978516e+01 -2.298412322998046875e+00 6.475740432739257812e+00 4.065711498260498047e+00 3.162435770034790039e+00 6.152473449707031250e+00
7.180000000000000000e+02 1.031255340576171875e+01 -1.813193678855895996e+00 4.586652278900146484e+00 3.098224401473999023e-01 1.468942403793334961e+00 2.526650190353393555e+00
7.190000000000000000e+02 9.845718383789062500e+00 -1.795084714889526367e+00 3.517912626266479492e+00 2.737290859222412109e-01 1.137492537498474121e+00 2.098027467727661133e+00
7.200000000000000000e+02 9.340587615966796875e+00 -1.814337730407714844e+00 2.672215223312377930e+00 4.269270002841949463e-01 9.297426939010620117e-01 1.834220767021179199e+00
7.210000000000000000e+02 8.568405151367187500e+00 -1.822561621665954590e+00 1.695859193801879883e+00 3.089932501316070557e-01 6.014557480812072754e-01 1.316863298416137695e+00
7.220000000000000000e+02 6.971920490264892578e+00 -1.825091004371643066e+00 4.892194271087646484e-01 3.014021813869476318e-01 2.371864765882492065e-01 5.993039608001708984e-01
7.230000000000000000e+02 6.169106006622314453e+00 -1.858143806457519531e+00 1.865603029727935791e-01 3.536355495452880859e-01 1.620587557554244995e-01 3.979925811290740967e-01
7.240000000000000000e+02 5.360680580139160156e+00 -1.900959968566894531e+00 -2.880198135972023010e-02 2.592431306838989258e-01 6.913234293460845947e-02 8.052047342061996460e-02
7.250000000000000000e+02 4.545115470886230469e+00 -1.949720263481140137e+00 -1.126041710376739502e-01 2.354261726140975952e-01 3.684660047292709351e-02 -5.561352148652076721e-02
7.260000000000000000e+02 2.899534225463867188e+00 -2.054061651229858398e+00 -1.338715553283691406e-01 3.357297927141189575e-02 -3.008957020938396454e-02 -2.831937670707702637e-01
7.270000000000000000e+02 3.022839546203613281e+00 -3.158457040786743164e+00 -4.230645671486854553e-02 1.683763265609741211e-01 3.782096132636070251e-02 -3.179284334182739258e-01
7.280000000000000000e+02 2.070403575897216797e+00 -2.108412265777587891e+00 -9.745910018682479858e-02 -9.884873032569885254e-02 -5.889235064387321472e-02 -3.198378384113311768e-01
7.290000000000000000e+02 1.242007493972778320e+00 -2.158365488052368164e+00 -2.380914054811000824e-02 -1.990459710359573364e-01 -6.685653328895568848e-02 -2.111044377088546753e-01
7.300000000000000000e+02 4.142305254936218262e-01 -2.193422317504882812e+00 -3.758953884243965149e-02 -2.737751007080078125e-01 -9.340938925743103027e-02 -9.179186075925827026e-02
7.310000000000000000e+02 2.014844655990600586e+00 -4.167723464965820312e+01 7.591800391674041748e-02 4.997798919677734375e+00 1.522115111351013184e+00 -2.168871648609638214e-02
7.320000000000000000e+02 5.181048393249511719e+00 -3.868541336059570312e+01 -1.251994520425796509e-01 4.253523349761962891e+00 1.238497257232666016e+00 1.767704784870147705e-01
7.330000000000000000e+02 1.020419597625732422e+00 -3.876507568359375000e+01 -4.678114783018827438e-03 5.103440284729003906e+00 1.529628634452819824e+00 -4.345647990703582764e-02
7.340000000000000000e+02 8.501149415969848633e-01 -3.463246917724609375e+01 -3.963464125990867615e-02 5.103086471557617188e+00 1.519035577774047852e+00 4.055929929018020630e-02
7.350000000000000000e+02 8.094177246093750000e-01 -3.322071456909179688e+01 1.285059191286563873e-02 5.016785144805908203e+00 1.508890748023986816e+00 6.897043436765670776e-02
7.360000000000000000e+02 6.829929947853088379e-01 -2.897703552246093750e+01 -6.482975184917449951e-02 4.415206909179687500e+00 1.305113196372985840e+00 1.576467007398605347e-01
7.370000000000000000e+02 6.698687076568603516e-01 -2.756780815124511719e+01 2.499756589531898499e-02 4.039899826049804688e+00 1.219469189643859863e+00 2.125761061906814575e-01
7.380000000000000000e+02 6.661483049392700195e-01 -2.615724372863769531e+01 -9.466898441314697266e-02 3.546808481216430664e+00 1.035641908645629883e+00 2.713336348533630371e-01
7.390000000000000000e+02 6.581646800041198730e-01 -2.189374923706054688e+01 5.902428552508354187e-02 1.093226432800292969e+00 3.456752300262451172e-01 5.155701041221618652e-01
7.400000000000000000e+02 6.463345885276794434e-01 -2.047315216064453125e+01 -1.054325476288795471e-01 -3.501945361495018005e-02 -4.213560000061988831e-02 5.367996692657470703e-01
7.410000000000000000e+02 1.944545865058898926e+00 -2.024238395690917969e+01 -1.716410182416439056e-02 1.242877483367919922e+00 3.677139878273010254e-01 1.467903614044189453e+00
7.420000000000000000e+02 5.709828138351440430e-01 -1.625543212890625000e+01 1.129150092601776123e-01 -3.628745079040527344e+00 -1.054749011993408203e+00 4.265944361686706543e-01
7.430000000000000000e+02 5.553424358367919922e-01 -1.485842037200927734e+01 8.511236310005187988e-02 -4.393485069274902344e+00 -1.292511820793151855e+00 1.681206524372100830e-01
7.440000000000000000e+02 5.505198836326599121e-01 -1.346108436584472656e+01 6.288509815931320190e-02 -4.566267013549804688e+00 -1.351014614105224609e+00 -2.138592489063739777e-02
7.450000000000000000e+02 1.645354747772216797e+00 -1.335193061828613281e+01 4.056654870510101318e-01 -1.974393844604492188e+00 -4.706185162067413330e-01 -2.024632692337036133e-01
7.460000000000000000e+02 5.343616008758544922e-01 -9.257637023925781250e+00 5.635908991098403931e-02 -2.742804288864135742e+00 -8.059335947036743164e-01 -2.774548232555389404e-01
7.470000000000000000e+02 5.344184041023254395e-01 -7.843691349029541016e+00 -9.107667952775955200e-02 -2.022493362426757812e+00 -6.340709924697875977e-01 -2.293737828731536865e-01
7.480000000000000000e+02 3.858989715576171875e+00 -3.007901906967163086e+00 -3.182847285643219948e-04 3.623364269733428955e-01 1.086054369807243347e-01 -1.144717559218406677e-01
7.490000000000000000e+02 4.087357521057128906e+00 -4.052805423736572266e+00 1.135227736085653305e-03 7.137514948844909668e-01 2.144660055637359619e-01 -3.233007341623306274e-02
7.500000000000000000e+02 6.734874725341796875e+01 -3.787995910644531250e+01 1.512676179409027100e-01 5.457351207733154297e+00 1.682585716247558594e+00 1.870523542165756226e-01
7.510000000000000000e+02 4.841955184936523438e+01 -3.670374298095703125e+01 1.895486377179622650e-02 -3.931035697460174561e-01 -1.122446134686470032e-01 -3.533815741539001465e-01
7.520000000000000000e+02 3.082691192626953125e+01 -3.816843414306640625e+01 -1.336859017610549927e-01 -2.111586928367614746e-01 -1.034533753991127014e-01 1.283957809209823608e-01
7.530000000000000000e+02 1.270270919799804688e+01 -4.093904495239257812e+01 -9.141349792480468750e-02 2.597292423248291016e+00 7.517637014389038086e-01 -3.856227174401283264e-02
7.540000000000000000e+02 7.595140075683593750e+01 4.053408050537109375e+01 3.587820753455162048e-02 5.375217914581298828e+00 1.623328804969787598e+00 -1.393384183757007122e-03
7.550000000000000000e+02 7.808731842041015625e+01 4.175890350341796875e+01 6.111669912934303284e-02 5.452491760253906250e+00 1.654082536697387695e+00 -1.704984903335571289e-02
7.560000000000000000e+02 7.881071472167968750e+01 3.893061447143554688e+01 -2.128731645643711090e-02 5.526046752929687500e+00 1.651427865028381348e+00 -2.798958867788314819e-02
7.570000000000000000e+02 7.773961639404296875e+01 3.603275680541992188e+01 1.215446647256612778e-02 5.528326988220214844e+00 1.662144422531127930e+00 -5.329842492938041687e-02
7.580000000000000000e+02 7.928053283691406250e+01 3.482687377929687500e+01 -2.159775758627802134e-04 5.640290260314941406e+00 1.692022204399108887e+00 -2.361927367746829987e-02
7.590000000000000000e+02 7.792281341552734375e+01 3.347988891601562500e+01 5.749430973082780838e-03 5.598881244659423828e+00 1.681389093399047852e+00 -7.113222032785415649e-02
7.600000000000000000e+02 7.930989837646484375e+01 3.345574188232421875e+01 1.436209422536194324e-03 5.690097332000732422e+00 1.707460045814514160e+00 -2.464412525296211243e-02
7.610000000000000000e+02 7.932756805419921875e+01 3.069215202331542969e+01 5.541803315281867981e-03 5.806555271148681641e+00 1.743629097938537598e+00 -3.191469609737396240e-02
7.620000000000000000e+02 7.660085296630859375e+01 2.808278846740722656e+01 3.200785070657730103e-02 5.700640201568603516e+00 1.719794392585754395e+00 -1.914305239915847778e-01
7.630000000000000000e+02 7.933436584472656250e+01 2.653471565246582031e+01 -2.744533354416489601e-03 6.045650959014892578e+00 1.812871932983398438e+00 -4.270491749048233032e-02
7.640000000000000000e+02 7.653314208984375000e+01 2.538298606872558594e+01 3.873138129711151123e-02 5.860667705535888672e+00 1.769819736480712891e+00 -2.369633466005325317e-01
7.650000000000000000e+02 7.933390045166015625e+01 2.515069580078125000e+01 7.802807725965976715e-03 6.145998001098632812e+00 1.846140265464782715e+00 -4.876930639147758484e-02
7.660000000000000000e+02 7.935621643066406250e+01 2.098386192321777344e+01 -7.004013750702142715e-03 6.520874500274658203e+00 1.954161167144775391e+00 -6.240695714950561523e-02
7.670000000000000000e+02 7.936332702636718750e+01 1.959191894531250000e+01 1.289484370499849319e-02 6.674270153045654297e+00 2.006149530410766602e+00 -7.107443362474441528e-02
7.680000000000000000e+02 7.936664581298828125e+01 1.820152664184570312e+01 -8.350224234163761139e-03 6.841265678405761719e+00 2.049874544143676758e+00 -7.380049675703048706e-02
7.690000000000000000e+02 7.936360931396484375e+01 1.402834987640380859e+01 1.299740653485059738e-02 7.418346405029296875e+00 2.229403257369995117e+00 -9.057917445898056030e-02
7.700000000000000000e+02 7.936266326904296875e+01 1.263428020477294922e+01 -1.030160393565893173e-02 7.629424095153808594e+00 2.285736799240112305e+00 -9.091586619615554810e-02
7.710000000000000000e+02 7.936235046386718750e+01 1.124102210998535156e+01 9.295495226979255676e-03 7.844873428344726562e+00 2.356250762939453125e+00 -9.215021133422851562e-02
7.720000000000000000e+02 7.935932159423828125e+01 7.053214073181152344e+00 -1.229245867580175400e-02 8.424824714660644531e+00 2.523759603500366211e+00 -6.224410608410835266e-02
7.730000000000000000e+02 7.935760498046875000e+01 5.656039237976074219e+00 -1.490992214530706406e-02 8.548469543457031250e+00 2.560067892074584961e+00 -3.150171041488647461e-02
7.740000000000000000e+02 7.935779571533203125e+01 4.261570453643798828e+00 -9.884282015264034271e-03 8.612613677978515625e+00 2.580818653106689453e+00 -6.105177570134401321e-03
7.750000000000000000e+02 7.936968231201171875e+01 8.599609136581420898e-02 -6.148683652281761169e-02 8.191411972045898438e+00 2.438977718353271484e+00 1.733078509569168091e-01
7.760000000000000000e+02 7.937345123291015625e+01 -1.306065678596496582e+00 1.188209559768438339e-02 7.782924175262451172e+00 2.338441848754882812e+00 2.183296829462051392e-01
7.770000000000000000e+02 7.817123413085937500e+01 -3.939876794815063477e+00 -9.835611283779144287e-02 7.223228454589843750e+00 2.137461662292480469e+00 8.166961073875427246e-01
7.780000000000000000e+02 7.938475799560546875e+01 -4.092120170593261719e+00 4.008043557405471802e-02 6.572659969329833984e+00 1.983822107315063477e+00 3.123575448989868164e-01
7.790000000000000000e+02 7.939893341064453125e+01 -8.275603294372558594e+00 -2.033458650112152100e-02 4.580865859985351562e+00 1.368159294128417969e+00 2.395956516265869141e-01
7.800000000000000000e+02 7.822290802001953125e+01 -1.086204528808593750e+01 3.091984093189239502e-01 5.660738468170166016e+00 1.790981054306030273e+00 -5.130648612976074219e-02
7.810000000000000000e+02 7.940164184570312500e+01 -1.105192089080810547e+01 2.934912452474236488e-03 4.126193523406982422e+00 1.238738536834716797e+00 -2.289698645472526550e-02
7.820000000000000000e+02 7.934770965576171875e+01 -1.519877815246582031e+01 4.811612516641616821e-02 5.631926536560058594e+00 1.704012870788574219e+00 -3.787597715854644775e-01
7.830000000000000000e+02 7.796724700927734375e+01 -1.775354957580566406e+01 -1.896390877664089203e-02 7.945504188537597656e+00 2.377962112426757812e+00 -1.174816489219665527e+00
7.840000000000000000e+02 7.931768035888671875e+01 -1.799338150024414062e+01 -1.656989194452762604e-02 7.365965366363525391e+00 2.204818725585937500e+00 -4.470968544483184814e-01
7.850000000000000000e+02 7.934626007080078125e+01 -2.363451576232910156e+01 -6.332033127546310425e-02 1.023117065429687500e+01 3.050355195999145508e+00 -2.649959921836853027e-01
7.860000000000000000e+02 7.805757141113281250e+01 -2.494095230102539062e+01 -1.307733356952667236e-01 1.020759391784667969e+01 3.023046016693115234e+00 -5.198772549629211426e-01
7.870000000000000000e+02 7.934732818603515625e+01 -2.503462219238281250e+01 8.282450959086418152e-03 1.067084598541259766e+01 3.203738689422607422e+00 -2.106133699417114258e-01
7.880000000000000000e+02 7.931885528564453125e+01 -2.920743942260742188e+01 -3.278065100312232971e-02 1.140769577026367188e+01 3.412474393844604492e+00 -8.917729556560516357e-02
7.890000000000000000e+02 7.782868194580078125e+01 -3.183325386047363281e+01 -2.389526553452014923e-02 1.079663658142089844e+01 3.231822490692138672e+00 -1.024196669459342957e-01
7.900000000000000000e+02 7.927551269531250000e+01 -3.198661041259765625e+01 -2.427105046808719635e-02 1.158197402954101562e+01 3.467310905456542969e+00 -4.444593563675880432e-02
7.910000000000000000e+02 7.923467254638671875e+01 -3.612238311767578125e+01 1.137938257306814194e-02 1.152922916412353516e+01 3.462182521820068359e+00 2.576563507318496704e-02
7.920000000000000000e+02 7.924005889892578125e+01 -3.748476409912109375e+01 -5.184590443968772888e-02 1.141126632690429688e+01 3.407826185226440430e+00 7.403778284788131714e-02
7.930000000000000000e+02 7.909812164306640625e+01 -3.881323242187500000e+01 1.790063828229904175e-02 1.124435615539550781e+01 3.378676891326904297e+00 9.005775302648544312e-02
7.940000000000000000e+02 7.873120880126953125e+01 -4.014678192138671875e+01 -1.002597808837890625e-01 1.103817653656005859e+01 3.281374931335449219e+00 1.745703220367431641e-01
7.950000000000000000e+02 4.818583011627197266e+00 4.040145874023437500e+01 -7.752094417810440063e-03 1.063818573951721191e+00 3.168199360370635986e-01 6.328967399895191193e-03
7.960000000000000000e+02 2.760889053344726562e+01 4.061071014404296875e+01 3.755790889263153076e-01 1.506872534751892090e+00 5.647354722023010254e-01 3.786065429449081421e-02
7.970000000000000000e+02 4.681663131713867188e+01 3.750603866577148438e+01 7.207219600677490234e-01 2.300383329391479492e+00 9.063315987586975098e-01 2.133056335151195526e-02
7.980000000000000000e+02 3.855430185794830322e-01 2.181752681732177734e+00 -1.174391340464353561e-02 -1.927276849746704102e-01 -6.134147942066192627e-02 6.290911883115768433e-02
7.990000000000000000e+02 2.742678642272949219e+00 2.993668079376220703e+00 -9.262259304523468018e-02 -1.877843737602233887e-01 -8.412209153175354004e-02 4.321020543575286865e-01
8.000000000000000000e+02 4.264320373535156250e+00 6.277033805847167969e+00 2.319921404123306274e-01 1.317084431648254395e-01 1.091101765632629395e-01 3.395080566406250000e-01
8.010000000000000000e+02 3.244709491729736328e+00 4.583800315856933594e+00 5.094094946980476379e-02 -1.824872195720672607e-01 -3.946388140320777893e-02 4.601522684097290039e-01
8.020000000000000000e+02 5.377686619758605957e-01 9.178352355957031250e+00 6.626154296100139618e-03 -1.487943053245544434e+00 -4.443950653076171875e-01 3.331708535552024841e-02
8.030000000000000000e+02 5.831525921821594238e-01 1.199945354461669922e+01 8.407745510339736938e-03 -1.481877684593200684e+00 -4.420409798622131348e-01 -3.464083746075630188e-02
8.040000000000000000e+02 1.742863535881042480e+00 1.177883434295654297e+01 7.404512912034988403e-02 -8.533338904380798340e-01 -2.337866276502609253e-01 -8.662506192922592163e-02
8.050000000000000000e+02 6.303815245628356934e-01 1.623322105407714844e+01 1.567260362207889557e-02 -9.275490045547485352e-01 -2.735629081726074219e-01 -1.144317314028739929e-01
8.060000000000000000e+02 1.932246446609497070e+00 1.742688560485839844e+01 1.776330173015594482e-02 -2.193386554718017578e-01 -6.047260761260986328e-02 -3.262308835983276367e-01
8.070000000000000000e+02 6.426790952682495117e-01 1.764948654174804688e+01 -6.820053327828645706e-03 -6.673206686973571777e-01 -2.022422105073928833e-01 -1.201118007302284241e-01
8.080000000000000000e+02 6.666117310523986816e-01 2.190803337097167969e+01 -2.175880596041679382e-03 8.465869724750518799e-02 2.474484592676162720e-02 -1.029606610536575317e-01
8.090000000000000000e+02 6.719093918800354004e-01 2.332159042358398438e+01 -9.515811689198017120e-03 2.859004735946655273e-01 8.291539549827575684e-02 -8.947052061557769775e-02
8.100000000000000000e+02 2.024277925491333008e+00 2.314637756347656250e+01 -3.132275491952896118e-02 4.861827194690704346e-01 1.364579945802688599e-01 -2.423803806304931641e-01
8.110000000000000000e+02 6.748334765434265137e-01 2.473351860046386719e+01 -5.992047954350709915e-03 4.553255736827850342e-01 1.348000615835189819e-01 -7.390778511762619019e-02
8.120000000000000000e+02 7.121348977088928223e-01 2.897841644287109375e+01 -6.547706667333841324e-03 7.855894565582275391e-01 2.337125241756439209e-01 -3.476658463478088379e-02
8.130000000000000000e+02 7.500779628753662109e-01 3.040466308593750000e+01 -3.223136300221085548e-03 8.435002565383911133e-01 2.520831227302551270e-01 -2.584706619381904602e-02
8.140000000000000000e+02 3.523774862289428711e+00 2.857943153381347656e+01 -6.532428413629531860e-02 9.635876417160034180e-01 2.694790065288543701e-01 -1.459078043699264526e-01
8.150000000000000000e+02 7.822979092597961426e-01 3.182890892028808594e+01 -4.490910563617944717e-03 8.836115598678588867e-01 2.637361884117126465e-01 -1.850920543074607849e-02
8.160000000000000000e+02 7.065245509147644043e-01 3.604541397094726562e+01 -2.293830271810293198e-03 9.425542950630187988e-01 2.820781469345092773e-01 -6.081991363316774368e-03
8.170000000000000000e+02 2.013800621032714844e+00 3.716799926757812500e+01 -3.602589480578899384e-03 9.833468794822692871e-01 2.939232885837554932e-01 -1.145777478814125061e-02
8.180000000000000000e+02 8.686836957931518555e-01 3.875119400024414062e+01 -2.049459610134363174e-03 9.691975116729736328e-01 2.901444137096405029e-01 -6.663574837148189545e-03
8.190000000000000000e+02 1.244118452072143555e+00 4.009645843505859375e+01 4.875344689935445786e-03 9.821628928184509277e-01 2.961114645004272461e-01 -1.035332493484020233e-02
8.200000000000000000e+02 1.371462535858154297e+01 8.397170901298522949e-01 2.015457868576049805e+00 1.364195060729980469e+01 4.697222709655761719e+00 1.384298086166381836e+00
8.210000000000000000e+02 9.300291061401367188e+00 3.145530939102172852e+00 1.587562710046768188e-01 1.641011953353881836e+00 5.399304628372192383e-01 -9.969330430030822754e-01
8.220000000000000000e+02 1.108251094818115234e+01 1.450568795204162598e+00 8.505078554153442383e-01 2.472531795501708984e+00 9.969119429588317871e-01 -2.460680484771728516e+00
8.230000000000000000e+02 1.127984619140625000e+01 1.425501465797424316e+00 9.485777616500854492e-01 2.995892524719238281e+00 1.183341145515441895e+00 -2.760560274124145508e+00
8.240000000000000000e+02 1.187797260284423828e+01 1.232911705970764160e+00 1.155632138252258301e+00 4.963962554931640625e+00 1.835878491401672363e+00 -3.564197778701782227e+00
8.250000000000000000e+02 1.186429500579833984e+01 1.633486390113830566e+00 7.198660373687744141e-01 5.297113895416259766e+00 1.805094003677368164e+00 -3.356121063232421875e+00
8.260000000000000000e+02 1.228642940521240234e+01 1.178314208984375000e+00 1.065364837646484375e+00 7.167488098144531250e+00 2.469855785369873047e+00 -3.921412706375122070e+00
8.270000000000000000e+02 1.562136459350585938e+01 5.086205005645751953e+00 -2.887283086776733398e+00 3.921482563018798828e+00 3.102598190307617188e-01 -8.027633652091026306e-03
8.280000000000000000e+02 1.087202548980712891e+01 1.535025835037231445e+00 7.502729892730712891e-01 2.139412641525268555e+00 8.669056892395019531e-01 -2.175771713256835938e+00
8.290000000000000000e+02 9.418555259704589844e+00 2.430502414703369141e+00 2.463368177413940430e-01 1.241827368736267090e+00 4.464492797851562500e-01 -9.978622198104858398e-01
8.300000000000000000e+02 1.039353942871093750e+01 -2.183935165405273438e+00 4.653522968292236328e+00 1.303187847137451172e+00 1.787013292312622070e+00 3.588564634323120117e+00
8.310000000000000000e+02 1.200468444824218750e+01 -2.246517658233642578e+00 6.705743789672851562e+00 6.333795070648193359e+00 3.911861658096313477e+00 7.296212673187255859e+00
8.320000000000000000e+02 1.086071491241455078e+01 -1.902034401893615723e+00 5.901516914367675781e+00 1.164967060089111328e+00 2.119945287704467773e+00 3.771877527236938477e+00
8.330000000000000000e+02 1.009518051147460938e+01 -1.808551907539367676e+00 3.992800712585449219e+00 5.807604789733886719e-01 1.372068405151367188e+00 2.376726627349853516e+00
8.340000000000000000e+02 1.101161003112792969e+01 -2.212749958038330078e+00 5.864978790283203125e+00 2.251520156860351562e+00 2.434949636459350586e+00 4.809857368469238281e+00
8.350000000000000000e+02 1.067597675323486328e+01 -1.838762879371643066e+00 5.554990768432617188e+00 7.344093918800354004e-01 1.886819958686828613e+00 3.290937900543212891e+00
8.360000000000000000e+02 1.222690773010253906e+01 -2.360049486160278320e+00 6.159025192260742188e+00 8.411604881286621094e+00 4.371189117431640625e+00 7.175545692443847656e+00
8.370000000000000000e+02 1.249808692932128906e+01 -2.443254470825195312e+00 5.171646595001220703e+00 1.053360557556152344e+01 4.711575508117675781e+00 7.315705299377441406e+00
8.380000000000000000e+02 1.460620498657226562e+01 -2.592015027999877930e+00 6.353368759155273438e+00 8.704231262207031250e+00 4.517280101776123047e+00 5.842151492834091187e-02
8.390000000000000000e+02 1.298674964904785156e+01 -2.475907802581787109e+00 4.803184986114501953e+00 1.276195526123046875e+01 5.269541740417480469e+00 4.885758399963378906e+00
8.400000000000000000e+02 1.459968185424804688e+01 1.495600193738937378e-01 7.808139324188232422e+00 1.009133625030517578e+01 5.369842529296875000e+00 4.264530658721923828e+00
8.410000000000000000e+02 1.480287837982177734e+01 -5.540245175361633301e-01 1.131931400299072266e+01 8.012391090393066406e+00 5.799511432647705078e+00 2.791974306106567383e+00
8.420000000000000000e+02 1.445274257659912109e+01 -1.678732752799987793e+00 1.039086818695068359e+01 1.002116489410400391e+01 6.123610019683837891e+00 -3.832585513591766357e-01
8.430000000000000000e+02 1.398556423187255859e+01 -2.173611402511596680e+00 6.874339580535888672e+00 1.304742813110351562e+01 5.976530551910400391e+00 3.983653187751770020e-01
8.440000000000000000e+02 1.544898319244384766e+01 -1.846376180648803711e+00 8.451234817504882812e+00 5.954600811004638672e+00 4.321750640869140625e+00 9.105774015188217163e-02
8.450000000000000000e+02 1.524277305603027344e+01 -2.971985101699829102e+00 5.555872917175292969e+00 6.700493812561035156e+00 3.676909923553466797e+00 -5.416076630353927612e-02
8.460000000000000000e+02 1.631380462646484375e+01 5.852189540863037109e+00 -2.179325342178344727e+00 5.949025750160217285e-01 -4.753268063068389893e-01 1.016177535057067871e+00
8.470000000000000000e+02 8.754218101501464844e+00 2.440325498580932617e+00 8.149402588605880737e-02 8.534694314002990723e-01 2.804890275001525879e-01 -5.657847523689270020e-01
8.480000000000000000e+02 9.606744766235351562e+00 1.814754486083984375e+00 1.421899348497390747e-01 8.654973506927490234e-01 3.023062050342559814e-01 -9.679844379425048828e-01
8.490000000000000000e+02 6.603941440582275391e+00 1.839829802513122559e+00 -5.453878641128540039e-01 1.358410120010375977e-01 -1.228640526533126831e-01 2.804939448833465576e-01
8.500000000000000000e+02 5.744955062866210938e+00 2.592107534408569336e+00 -2.422235310077667236e-01 1.466278731822967529e-01 -2.867869846522808075e-02 3.789688944816589355e-01
8.510000000000000000e+02 1.496795058250427246e+00 7.573848247528076172e+00 5.092431604862213135e-02 -8.911511898040771484e-01 -2.520680725574493408e-01 1.811768114566802979e-01
8.520000000000000000e+02 4.246105194091796875e+00 3.726326704025268555e+00 2.407882828265428543e-03 -1.733976416289806366e-02 -4.479564260691404343e-03 4.866659045219421387e-01
8.530000000000000000e+02 1.178174138069152832e+00 3.402440786361694336e+00 -2.193237468600273132e-02 -3.967847526073455811e-01 -1.256151348352432251e-01 2.554684579372406006e-01
8.540000000000000000e+02 2.724792957305908203e+00 2.000671863555908203e+00 -1.986952573060989380e-01 -1.147427707910537720e-01 -9.403140842914581299e-02 3.582754135131835938e-01
8.550000000000000000e+02 7.272852897644042969e+00 2.479501008987426758e+00 -1.764614433050155640e-01 3.431237936019897461e-01 4.999870434403419495e-02 8.842837810516357422e-02
8.560000000000000000e+02 8.156347274780273438e+00 1.812394738197326660e+00 -3.569389581680297852e-01 2.911368608474731445e-01 -1.974062994122505188e-02 -8.141590654850006104e-02
8.570000000000000000e+02 6.511286735534667969e+00 2.525632381439208984e+00 -2.333698421716690063e-01 2.022291123867034912e-01 -9.342221543192863464e-03 2.791284322738647461e-01
8.580000000000000000e+02 4.980847358703613281e+00 2.680614471435546875e+00 -2.167291790246963501e-01 4.408425837755203247e-02 -5.179347470402717590e-02 4.588647484779357910e-01
8.590000000000000000e+02 4.680315971374511719e+00 -2.846008539199829102e+00 5.366729572415351868e-02 4.739243090152740479e-01 1.582774817943572998e-01 3.561714291572570801e-02
8.600000000000000000e+02 7.769189834594726562e+00 -1.807229876518249512e+00 9.838338494300842285e-01 3.960318267345428467e-01 4.139597117900848389e-01 1.003928661346435547e+00
8.610000000000000000e+02 1.588846325874328613e+00 -9.237183570861816406e+00 -1.119639948010444641e-01 -1.145643115043640137e+00 -3.772821128368377686e-01 -7.094706892967224121e-01
8.620000000000000000e+02 5.333212614059448242e-01 -6.416971206665039062e+00 4.993444681167602539e-02 -1.466331005096435547e+00 -4.249189794063568115e-01 -1.664803326129913330e-01
8.630000000000000000e+02 2.409428119659423828e+00 -4.538317203521728516e+00 -4.380692914128303528e-02 1.911546848714351654e-02 -7.407438475638628006e-03 -4.089080691337585449e-01
8.640000000000000000e+02 4.414735138416290283e-01 -3.585401058197021484e+00 3.418781608343124390e-02 -6.079490184783935547e-01 -1.721283644437789917e-01 -9.703066945075988770e-02
8.650000000000000000e+02 7.764909744262695312e+00 -2.430788516998291016e+00 1.253612518310546875e+00 6.293739080429077148e-01 5.648959279060363770e-01 1.373735070228576660e+00
8.660000000000000000e+02 6.265271663665771484e+00 -2.577592372894287109e+00 4.328554868698120117e-01 5.923977494239807129e-01 3.075759708881378174e-01 6.253853440284729004e-01
8.670000000000000000e+02 5.484346866607666016e+00 -2.699870347976684570e+00 2.186592519283294678e-01 6.132498383522033691e-01 2.495727241039276123e-01 3.960550427436828613e-01
8.680000000000000000e+02 2.007489967346191406e+01 2.747684478759765625e+00 2.724118471145629883e+00 6.285263299942016602e-01 1.005793452262878418e+00 4.093064785003662109e+00
8.690000000000000000e+02 2.712311363220214844e+01 8.627223014831542969e+00 2.423022270202636719e+00 3.607395410537719727e+00 1.809125304222106934e+00 2.447275876998901367e+00
8.700000000000000000e+02 2.715655136108398438e+01 9.719254493713378906e+00 1.332254528999328613e+00 4.332984924316406250e+00 1.699571847915649414e+00 2.262617588043212891e+00
8.710000000000000000e+02 1.362403678894042969e+01 1.390166854858398438e+01 1.203097462654113770e+00 5.627636909484863281e+00 2.049220323562622070e+00 4.985995888710021973e-01
8.720000000000000000e+02 1.679470443725585938e+01 1.872377395629882812e+01 -3.811067342758178711e-01 2.267661094665527344e+00 5.659662485122680664e-01 1.381990194320678711e+00
8.730000000000000000e+02 2.109728050231933594e+01 1.627755355834960938e+01 -2.090801477432250977e+00 -4.133826494216918945e-01 -7.512552142143249512e-01 7.589842081069946289e-01
8.740000000000000000e+02 1.981280517578125000e+01 1.778086090087890625e+01 -4.136643409729003906e-01 -4.111786186695098877e-02 -1.364346593618392944e-01 9.494197368621826172e-01
8.750000000000000000e+02 1.545402908325195312e+01 6.849758148193359375e+00 -7.469368577003479004e-01 3.231734991073608398e+00 7.454394102096557617e-01 -8.194245696067810059e-01
8.760000000000000000e+02 1.245849895477294922e+01 1.546806931495666504e+00 2.847477495670318604e-01 7.848316192626953125e+00 2.439919233322143555e+00 -3.454860925674438477e+00
8.770000000000000000e+02 2.210564231872558594e+01 1.884579658508300781e+01 -2.453249245882034302e-01 1.199203655123710632e-01 -3.762136772274971008e-02 4.644452333450317383e-01
8.780000000000000000e+02 2.577742195129394531e+01 5.551814079284667969e+00 3.834152698516845703e+00 4.134126663208007812e+00 2.390483617782592773e+00 2.043471574783325195e+00
8.790000000000000000e+02 2.297202491760253906e+01 5.177303314208984375e+00 6.712586879730224609e+00 3.209121465682983398e+00 2.976512432098388672e+00 3.945535421371459961e+00
8.800000000000000000e+02 2.474301147460937500e+01 4.976206302642822266e+00 4.223754882812500000e+00 4.512271881103515625e+00 2.620807886123657227e+00 2.847479104995727539e+00
8.810000000000000000e+02 1.549897670745849609e+01 1.737782478332519531e+01 -2.694103121757507324e-01 3.374105453491210938e+00 9.314085245132446289e-01 1.038593053817749023e+00
8.820000000000000000e+02 1.386599826812744141e+01 1.502303409576416016e+01 5.809720158576965332e-01 5.190890789031982422e+00 1.731558799743652344e+00 4.806246459484100342e-01
8.830000000000000000e+02 2.580630302429199219e+01 9.787961006164550781e+00 8.466482907533645630e-02 5.129879474639892578e+00 1.564363360404968262e+00 8.505780696868896484e-01
8.840000000000000000e+02 1.335682678222656250e+01 1.107313823699951172e+01 9.392656087875366211e-01 7.129876613616943359e+00 2.420742511749267578e+00 3.781941235065460205e-01
8.850000000000000000e+02 1.206954669952392578e+01 1.319540691375732422e+01 1.110688686370849609e+00 4.591330528259277344e+00 1.710605859756469727e+00 -8.233899623155593872e-02
8.860000000000000000e+02 2.511159896850585938e+01 1.519641590118408203e+01 -1.060226440429687500e+00 1.215053081512451172e+00 4.644799232482910156e-02 1.629752516746520996e-01
8.870000000000000000e+02 2.285624122619628906e+01 1.678202819824218750e+01 -1.126644015312194824e+00 -1.275600045919418335e-01 -3.762612044811248779e-01 2.810759246349334717e-01
8.880000000000000000e+02 2.740581512451171875e+01 7.557145595550537109e+00 3.024412870407104492e+00 3.317720413208007812e+00 1.902639865875244141e+00 2.008898496627807617e+00
8.890000000000000000e+02 1.311142158508300781e+01 1.253751158714294434e+00 9.279573336243629456e-03 1.172843647003173828e+01 3.521314859390258789e+00 -2.237136602401733398e+00
8.900000000000000000e+02 1.409460735321044922e+01 4.167744159698486328e+00 -1.936825394630432129e+00 6.711931705474853516e+00 1.432531833648681641e+00 -8.334166407585144043e-01
8.910000000000000000e+02 2.265589904785156250e+01 2.881498575210571289e+00 3.644214868545532227e+00 2.600300550460815430e+00 1.873354673385620117e+00 3.284270524978637695e+00
8.920000000000000000e+02 1.343979930877685547e+01 7.910645484924316406e+00 1.248860284686088562e-01 6.110794544219970703e+00 1.870704174041748047e+00 1.488052755594253540e-01
8.930000000000000000e+02 8.215911865234375000e+00 -1.187658596038818359e+01 1.570392698049545288e-01 1.213040351867675781e+01 3.686232805252075195e+00 -1.478555798530578613e+00
8.940000000000000000e+02 7.487602710723876953e+00 -1.273620033264160156e+01 3.743119478225708008e+00 1.016308307647705078e+01 4.171860694885253906e+00 -4.238156676292419434e-01
8.950000000000000000e+02 6.871051788330078125e+01 -1.131858444213867188e+01 1.671026110649108887e+00 2.344053077697753906e+01 7.533467292785644531e+00 7.195801734924316406e-01
8.960000000000000000e+02 5.546022796630859375e+01 1.218821334838867188e+01 9.687150269746780396e-02 3.097448348999023438e+00 9.582959413528442383e-01 -4.841630160808563232e-02
8.970000000000000000e+02 5.684907531738281250e+01 1.942459678649902344e+01 7.602099776268005371e-01 3.021917819976806641e+00 1.134638309478759766e+00 -8.464726209640502930e-01
8.980000000000000000e+02 1.017058277130126953e+01 -1.031534957885742188e+01 -4.872941493988037109e+00 8.651338577270507812e+00 1.133519291877746582e+00 5.756035804748535156e+00
8.990000000000000000e+02 6.338135910034179688e+01 -4.009972572326660156e+00 -9.067418575286865234e-01 1.888369917869567871e-01 -2.153714597225189209e-01 -2.535536527633666992e+00
9.000000000000000000e+02 6.566442108154296875e+01 -6.605231285095214844e+00 -2.277775049209594727e+00 4.057886898517608643e-01 -5.615959167480468750e-01 -2.854521751403808594e+00
9.010000000000000000e+02 4.265846633911132812e+01 8.293676376342773438e+00 6.701518297195434570e-01 7.786714434623718262e-01 4.346469640731811523e-01 -1.627065837383270264e-01
9.020000000000000000e+02 4.306058120727539062e+01 1.058081722259521484e+01 1.664776355028152466e-01 1.173577666282653809e+00 4.020165801048278809e-01 -1.600175201892852783e-01
9.030000000000000000e+02 4.608238983154296875e+01 1.823730850219726562e+01 1.434070229530334473e+00 8.686913847923278809e-01 6.908285021781921387e-01 9.577304124832153320e-01
9.040000000000000000e+02 7.675244903564453125e+01 -3.741358947753906250e+01 -1.192921698093414307e-01 1.060743808746337891e+01 3.146443605422973633e+00 1.599013805389404297e-01
9.050000000000000000e+02 7.922018432617187500e+01 -3.475282669067382812e+01 -3.271966055035591125e-02 1.158804416656494141e+01 3.466597318649291992e+00 1.255665253847837448e-02
9.060000000000000000e+02 7.933180999755859375e+01 -2.781914138793945312e+01 5.359775386750698090e-03 1.124282741546630859e+01 3.374456167221069336e+00 -1.217479631304740906e-01
9.070000000000000000e+02 7.793804168701171875e+01 3.212644577026367188e+01 1.158833689987659454e-02 5.652113914489746094e+00 1.699110746383666992e+00 -8.327837288379669189e-02
9.080000000000000000e+02 7.921803283691406250e+01 3.618539047241210938e+01 -1.222514314576983452e-03 5.593579292297363281e+00 1.677707076072692871e+00 -2.479717880487442017e-02
9.090000000000000000e+02 7.932493591308593750e+01 -2.082564926147460938e+01 -6.045433878898620605e-02 8.993906021118164062e+00 2.680035591125488281e+00 -3.768411278724670410e-01
9.100000000000000000e+02 7.799263000488281250e+01 -2.770819854736328125e+01 -1.009262725710868835e-01 1.061191082000732422e+01 3.153295278549194336e+00 -3.037779629230499268e-01
9.110000000000000000e+02 7.802989196777343750e+01 -2.633101081848144531e+01 -7.195290923118591309e-02 1.043592071533203125e+01 3.109190225601196289e+00 -3.951150774955749512e-01
9.120000000000000000e+02 7.930076599121093750e+01 -3.059668731689453125e+01 6.169471424072980881e-03 1.151440143585205078e+01 3.456171035766601562e+00 -6.557945907115936279e-02
9.130000000000000000e+02 7.757772827148437500e+01 -3.459605789184570312e+01 -5.170609429478645325e-02 1.076248455047607422e+01 3.213233470916748047e+00 3.715949365869164467e-03
9.140000000000000000e+02 7.771826171875000000e+01 -3.321117782592773438e+01 -8.258884400129318237e-02 1.077437496185302734e+01 3.207535982131958008e+00 -4.594726487994194031e-02
9.150000000000000000e+02 7.341676330566406250e+01 -3.661448669433593750e+01 -6.075982004404067993e-02 8.631538391113281250e+00 2.571233749389648438e+00 1.579191721975803375e-02
9.160000000000000000e+02 7.758477783203125000e+01 -3.828220748901367188e+01 -1.083819493651390076e-01 1.075186824798583984e+01 3.193045854568481445e+00 1.826310455799102783e-01
9.170000000000000000e+02 7.669077301025390625e+01 -3.927041625976562500e+01 -4.458700492978096008e-02 1.068718147277832031e+01 3.192778348922729492e+00 7.479060441255569458e-02
9.180000000000000000e+02 7.808883666992187500e+01 1.420869827270507812e+01 -9.047574130818247795e-04 7.148385047912597656e+00 2.144244194030761719e+00 -2.657782733440399170e-01
9.190000000000000000e+02 7.936521911621093750e+01 1.542074584960937500e+01 -9.346376173198223114e-03 7.214743614196777344e+00 2.161619186401367188e+00 -8.370931446552276611e-02
9.200000000000000000e+02 7.806495666503906250e+01 2.112617683410644531e+01 2.136011980473995209e-02 6.357180595397949219e+00 1.913562178611755371e+00 -1.929350495338439941e-01
9.210000000000000000e+02 7.934590148925781250e+01 2.237444114685058594e+01 9.997687302529811859e-03 6.382527828216552734e+00 1.917757630348205566e+00 -6.087775900959968567e-02
9.220000000000000000e+02 7.794338226318359375e+01 3.076631546020507812e+01 7.852124981582164764e-03 5.706333160400390625e+00 1.714255571365356445e+00 -9.097252786159515381e-02
9.230000000000000000e+02 7.798260498046875000e+01 2.801618576049804688e+01 6.285543087869882584e-03 5.841870784759521484e+00 1.754446864128112793e+00 -1.158742383122444153e-01
9.240000000000000000e+02 7.933393096923828125e+01 2.792131042480468750e+01 7.128790020942687988e-03 5.956911563873291016e+00 1.789212107658386230e+00 -3.859008103609085083e-02
9.250000000000000000e+02 7.797258758544921875e+01 2.527700614929199219e+01 9.709888137876987457e-03 6.010825634002685547e+00 1.806160569190979004e+00 -1.459218412637710571e-01
9.260000000000000000e+02 7.798861694335937500e+01 2.389710235595703125e+01 1.865145005285739899e-02 6.116074562072753906e+00 1.840417861938476562e+00 -1.642428040504455566e-01
9.270000000000000000e+02 7.809712982177734375e+01 1.836487007141113281e+01 2.167623117566108704e-02 6.646680355072021484e+00 2.000506877899169922e+00 -2.234713435173034668e-01
9.280000000000000000e+02 7.809385681152343750e+01 1.559990978240966797e+01 1.846831850707530975e-02 6.972195625305175781e+00 2.097199201583862305e+00 -2.545707821846008301e-01
9.290000000000000000e+02 7.809745788574218750e+01 1.698574447631835938e+01 2.944052219390869141e-03 6.803413867950439453e+00 2.041907310485839844e+00 -2.385482937097549438e-01
9.300000000000000000e+02 7.808421325683593750e+01 1.281326484680175781e+01 1.317724213004112244e-02 7.330667972564697266e+00 2.203153610229492188e+00 -2.739225327968597412e-01
9.310000000000000000e+02 7.679204559326171875e+01 1.158283996582031250e+01 4.519055597484111786e-03 7.197971343994140625e+00 2.160747051239013672e+00 -4.361590445041656494e-01
9.320000000000000000e+02 7.807777404785156250e+01 8.619969367980957031e+00 -3.119129873812198639e-02 7.880259037017822266e+00 2.354720354080200195e+00 -2.488370090723037720e-01
9.330000000000000000e+02 7.936149597167968750e+01 9.846452713012695312e+00 -1.141308248043060303e-02 8.057184219360351562e+00 2.413731336593627930e+00 -8.771403133869171143e-02
9.340000000000000000e+02 7.939553833007812500e+01 -6.882929801940917969e+00 7.263784110546112061e-02 5.168204307556152344e+00 1.572252631187438965e+00 2.864296138286590576e-01
9.350000000000000000e+02 7.811506652832031250e+01 2.323330640792846680e-01 -1.164065673947334290e-01 8.140738487243652344e+00 2.407299518585205078e+00 3.629438877105712891e-01
9.360000000000000000e+02 7.936543273925781250e+01 1.475471496582031250e+00 -3.727354807779192924e-03 8.458663940429687500e+00 2.536480903625488281e+00 9.183953702449798584e-02
9.370000000000000000e+02 7.677743530273437500e+01 7.343381881713867188e+00 -9.991604089736938477e-02 7.706874847412109375e+00 2.282087564468383789e+00 -3.600548505783081055e-01
9.380000000000000000e+02 7.931536102294921875e+01 -1.941115760803222656e+01 9.011830203235149384e-03 8.218392372131347656e+00 2.468221426010131836e+00 -4.419792294502258301e-01
9.390000000000000000e+02 7.937116241455078125e+01 -1.381739521026611328e+01 2.043563872575759888e-02 4.902280330657958984e+00 1.476814746856689453e+00 -3.015791475772857666e-01
9.400000000000000000e+02 7.796463012695312500e+01 2.939615440368652344e+01 1.239854469895362854e-02 5.767529964447021484e+00 1.733978629112243652e+00 -1.050466448068618774e-01
9.410000000000000000e+02 7.867532348632812500e+01 4.032862472534179688e+01 -1.468601264059543610e-02 5.485361576080322266e+00 1.641202688217163086e+00 -4.682064056396484375e-02
9.420000000000000000e+02 7.808112335205078125e+01 1.002349281311035156e+01 -5.957145243883132935e-03 7.701092720031738281e+00 2.308540582656860352e+00 -2.650021910667419434e-01
9.430000000000000000e+02 7.688206481933593750e+01 3.181860446929931641e-01 -3.402831256389617920e-01 8.203511238098144531e+00 2.358968257904052734e+00 4.663901627063751221e-01
9.440000000000000000e+02 7.807805633544921875e+01 3.006678581237792969e+00 -9.566237777471542358e-02 8.293235778808593750e+00 2.459271907806396484e+00 5.291833356022834778e-02
9.450000000000000000e+02 7.813159942626953125e+01 -1.156630039215087891e+00 -1.609862297773361206e-01 7.925073146820068359e+00 2.329226016998291016e+00 5.668963193893432617e-01
9.460000000000000000e+02 7.937867736816406250e+01 -2.698995113372802734e+00 -6.852294504642486572e-02 7.233729839324951172e+00 2.149562120437622070e+00 2.950080931186676025e-01
9.470000000000000000e+02 7.822213745117187500e+01 -8.127185821533203125e+00 1.901133805513381958e-01 5.959730148315429688e+00 1.844953060150146484e+00 5.840947628021240234e-01
9.480000000000000000e+02 7.819392395019531250e+01 -5.337827682495117188e+00 5.608357116580009460e-02 6.758606433868408203e+00 2.044406890869140625e+00 8.240355253219604492e-01
9.490000000000000000e+02 7.940357208251953125e+01 -9.665069580078125000e+00 1.199859231710433960e-01 4.201340198516845703e+00 1.296397805213928223e+00 1.037568375468254089e-01
9.500000000000000000e+02 7.810696411132812500e+01 -1.356295299530029297e+01 2.637734711170196533e-01 6.241410255432128906e+00 1.951555132865905762e+00 -7.066874504089355469e-01
9.510000000000000000e+02 7.817388153076171875e+01 -1.221587944030761719e+01 2.374171018600463867e-01 5.894104957580566406e+00 1.839456558227539062e+00 -4.205243587493896484e-01
9.520000000000000000e+02 7.932915496826171875e+01 -1.658768844604492188e+01 2.525182813405990601e-02 6.483818531036376953e+00 1.952720999717712402e+00 -4.503221511840820312e-01
9.530000000000000000e+02 7.799917602539062500e+01 -2.070165824890136719e+01 -8.386290818452835083e-02 9.018612861633300781e+00 2.680424928665161133e+00 -9.700405001640319824e-01
9.540000000000000000e+02 7.796586608886718750e+01 -1.923679161071777344e+01 -8.934751898050308228e-02 8.513340950012207031e+00 2.527198076248168945e+00 -1.064134836196899414e+00
9.550000000000000000e+02 4.572220230102539062e+01 3.838475227355957031e+00 1.097715377807617188e+00 2.874277234077453613e-01 4.155429303646087646e-01 -9.024418890476226807e-02
9.560000000000000000e+02 4.521522521972656250e+01 5.095125675201416016e+00 1.181414365768432617e+00 2.109805196523666382e-01 4.177184700965881348e-01 -1.087369248270988464e-01
9.570000000000000000e+02 6.960612487792968750e+01 -8.435378074645996094e+00 3.212664842605590820e+00 1.546346950531005859e+01 5.602840423583984375e+00 -4.062041938304901123e-01
9.580000000000000000e+02 6.831523132324218750e+01 -5.844917297363281250e+00 -1.734546661376953125e+00 1.193447780609130859e+01 3.059979200363159180e+00 -2.405830621719360352e+00
9.590000000000000000e+02 4.879837036132812500e+01 5.567790985107421875e+00 1.852249860763549805e+00 1.968511939048767090e-01 6.147303581237792969e-01 -2.154042422771453857e-01
9.600000000000000000e+02 5.159626770019531250e+01 5.450352668762207031e+00 1.300341606140136719e+00 1.256691366434097290e-01 4.278032481670379639e-01 -5.319521203637123108e-02
9.610000000000000000e+02 1.310177230834960938e+01 -9.984889030456542969e+00 -4.024069786071777344e+00 -2.338105589151382446e-01 -1.277364134788513184e+00 4.236942291259765625e+00
9.620000000000000000e+02 7.051228332519531250e+01 -1.414767837524414062e+01 1.535948038101196289e+00 1.341882610321044922e+01 4.486432075500488281e+00 -6.553156971931457520e-01
9.630000000000000000e+02 6.833859252929687500e+01 -1.356162548065185547e+01 2.221147298812866211e+00 1.908205032348632812e+01 6.390959739685058594e+00 3.781672000885009766e+00
9.640000000000000000e+02 5.060921859741210938e+01 2.114746093750000000e+01 1.265116691589355469e+00 9.836297035217285156e-01 6.746239066123962402e-01 -2.983721494674682617e-01
9.650000000000000000e+02 4.843168258666992188e+01 2.018681526184082031e+01 1.151691675186157227e+00 6.105965971946716309e-01 5.286864638328552246e-01 2.939734160900115967e-01
9.660000000000000000e+02 5.192410278320312500e+01 2.048780059814453125e+01 1.131777882575988770e+00 1.295521259307861328e+00 7.281897664070129395e-01 -7.205408215522766113e-01
9.670000000000000000e+02 5.227989959716796875e+01 1.825111579895019531e+01 1.137865185737609863e+00 8.580769896507263184e-01 5.987826585769653320e-01 -7.605137825012207031e-01
9.680000000000000000e+02 6.212073135375976562e+01 -5.954788684844970703e+00 -2.494644165039062500e+00 -7.070632576942443848e-01 -9.605122804641723633e-01 -1.313074111938476562e+00
9.690000000000000000e+02 4.163179016113281250e+01 -1.817348670959472656e+01 -2.585033416748046875e+00 -5.794867873191833496e-02 -7.928946018218994141e-01 -5.843650698661804199e-01
9.700000000000000000e+02 4.021086120605468750e+01 -1.715865325927734375e+01 -2.744844913482666016e+00 1.320426762104034424e-01 -7.838406562805175781e-01 -5.138908028602600098e-01
9.710000000000000000e+02 3.483775329589843750e+01 -1.864438629150390625e+01 -3.151130676269531250e+00 6.733531504869461060e-02 -9.251385927200317383e-01 1.489219628274440765e-02
9.720000000000000000e+02 2.024020767211914062e+01 -2.882450294494628906e+01 -4.514472484588623047e-01 3.115306794643402100e-01 -4.197497293353080750e-02 -2.285979688167572021e-02
9.730000000000000000e+02 4.280134963989257812e+01 1.323787021636962891e+01 1.693750321865081787e-01 2.611112117767333984e+00 8.341461420059204102e-01 4.836845993995666504e-01
9.740000000000000000e+02 4.149822235107421875e+01 1.311761760711669922e+01 6.155702471733093262e-01 2.198109865188598633e+00 8.441039919853210449e-01 9.683985114097595215e-01
9.750000000000000000e+02 4.137125015258789062e+01 1.430136871337890625e+01 9.116990566253662109e-01 2.051611900329589844e+00 8.889932632446289062e-01 1.069861888885498047e+00
9.760000000000000000e+02 5.315596771240234375e+01 1.965468978881835938e+01 9.962642192840576172e-01 1.564432859420776367e+00 7.682091593742370605e-01 -1.017286658287048340e+00
9.770000000000000000e+02 5.464955139160156250e+01 1.662752723693847656e+01 1.402489423751831055e+00 3.095486402511596680e+00 1.349392771720886230e+00 -1.572903752326965332e+00
9.780000000000000000e+02 5.412350082397460938e+01 6.418651580810546875e+00 8.364171981811523438e-01 5.539485216140747070e-01 4.171097278594970703e-01 1.471119225025177002e-01
9.790000000000000000e+02 5.557775115966796875e+01 6.484404563903808594e+00 6.364265084266662598e-01 1.063226938247680664e+00 5.098960399627685547e-01 -4.485253244638442993e-02
9.800000000000000000e+02 3.424257659912109375e+01 -3.257756423950195312e+01 -5.363031029701232910e-01 -1.521023269742727280e-02 -1.654540002346038818e-01 1.046734973788261414e-01
9.810000000000000000e+02 2.095870971679687500e+01 -1.386489582061767578e+01 -5.705368995666503906e+00 -3.084787428379058838e-01 -1.804154276847839355e+00 1.561227440834045410e+00
9.820000000000000000e+02 3.107785224914550781e+01 -1.698499298095703125e+01 -3.451913118362426758e+00 1.549174040555953979e-01 -9.890987277030944824e-01 3.217289447784423828e-01
9.830000000000000000e+02 3.390795898437500000e+01 -1.607673263549804688e+01 -3.040722608566284180e+00 3.046641051769256592e-01 -8.208175301551818848e-01 -9.156359732151031494e-02
9.840000000000000000e+02 5.699889659881591797e+00 -1.757367897033691406e+01 6.956868767738342285e-01 6.184222221374511719e+00 2.063972711563110352e+00 2.378208875656127930e+00
9.850000000000000000e+02 9.976241111755371094e+00 -1.825305175781250000e+01 7.741487026214599609e-01 9.064652442932128906e+00 2.951640367507934570e+00 -2.748304605484008789e+00
9.860000000000000000e+02 1.512417602539062500e+01 -1.229804039001464844e+01 -1.052155208587646484e+01 -1.672326922416687012e+00 -3.658163785934448242e+00 3.870187997817993164e+00
9.870000000000000000e+02 1.540208816528320312e+01 -1.107708263397216797e+01 -7.365035533905029297e+00 -8.713768124580383301e-01 -2.470923662185668945e+00 2.066053152084350586e+00
9.880000000000000000e+02 1.183121395111083984e+01 -2.037933158874511719e+01 6.046545505523681641e-01 4.704174518585205078e+00 1.592648744583129883e+00 -2.203957080841064453e+00
9.890000000000000000e+02 4.633687591552734375e+01 2.026417732238769531e+01 1.124544978141784668e+00 1.172979354858398438e+00 6.892573237419128418e-01 8.304549455642700195e-01
9.900000000000000000e+02 5.925828552246093750e+01 -2.646952819824218750e+01 -1.083832263946533203e+00 2.247675210237503052e-01 -2.577194273471832275e-01 -3.106803297996520996e-01
9.910000000000000000e+02 3.632621765136718750e+01 -1.740342521667480469e+01 -2.985454797744750977e+00 1.287377476692199707e-01 -8.570151329040527344e-01 -1.673488616943359375e-01
9.920000000000000000e+02 5.055384063720703125e+01 -3.144040107727050781e+01 -1.012207269668579102e+00 -4.532515406608581543e-01 -4.396376609802246094e-01 -6.397037506103515625e-01
9.930000000000000000e+02 5.123731231689453125e+01 -2.964587783813476562e+01 -1.723634004592895508e+00 -4.748207032680511475e-01 -6.595364212989807129e-01 -8.387167453765869141e-01
9.940000000000000000e+02 4.269209289550781250e+01 -1.672516441345214844e+01 -2.671384811401367188e+00 -1.305525656789541245e-02 -8.053320050239562988e-01 -6.626257300376892090e-01
9.950000000000000000e+02 4.294817733764648438e+01 -1.784580230712890625e+01 -2.659033298492431641e+00 -1.514691412448883057e-01 -8.431507349014282227e-01 -7.429481744766235352e-01
9.960000000000000000e+02 4.446285629272460938e+01 -3.189103507995605469e+01 -8.418555259704589844e-01 -1.082619354128837585e-01 -2.850352525711059570e-01 -3.155248463153839111e-01
9.970000000000000000e+02 4.824526977539062500e+01 -3.263703536987304688e+01 -7.865681648254394531e-01 -3.849249780178070068e-01 -3.514479398727416992e-01 -5.517207384109497070e-01
9.980000000000000000e+02 4.668412399291992188e+01 -3.329111099243164062e+01 -6.448767781257629395e-01 -3.004246354103088379e-01 -2.835904061794281006e-01 -4.944362044334411621e-01
9.990000000000000000e+02 4.275029754638671875e+01 2.027392005920410156e+01 7.517705559730529785e-01 1.950855016708374023e+00 8.107876777648925781e-01 7.760691046714782715e-01
1.000000000000000000e+03 4.393503189086914062e+01 1.895679283142089844e+01 8.785755634307861328e-01 2.073893308639526367e+00 8.857406377792358398e-01 1.004429221153259277e+00
1.001000000000000000e+03 2.597142601013183594e+01 -2.991482162475585938e+01 -8.293417692184448242e-01 -1.729751527309417725e-01 -3.006950616836547852e-01 4.458781778812408447e-01
1.002000000000000000e+03 2.622591018676757812e+01 -3.233061218261718750e+01 -4.728244543075561523e-01 -1.020543426275253296e-01 -1.724636405706405640e-01 2.624089419841766357e-01
1.003000000000000000e+03 4.990130996704101562e+01 -1.392228889465332031e+01 -2.543725490570068359e+00 -3.593709766864776611e-01 -8.709289431571960449e-01 -1.175664067268371582e+00
1.004000000000000000e+03 5.182966232299804688e+01 -1.432799148559570312e+01 -2.611562252044677734e+00 -7.053714394569396973e-01 -9.950801134109497070e-01 -1.399726748466491699e+00
1.005000000000000000e+03 3.109882354736328125e+01 -3.315361022949218750e+01 -5.429420471191406250e-01 -1.790974885225296021e-01 -2.166118621826171875e-01 2.323464602231979370e-01
1.006000000000000000e+03 6.782964324951171875e+01 -1.902830696105957031e+01 -3.647013604640960693e-01 8.887107849121093750e+00 2.556721925735473633e+00 1.234011292457580566e+00
1.007000000000000000e+03 5.377952575683593750e+01 -2.835113716125488281e+01 -1.827328205108642578e+00 -5.528054237365722656e-01 -7.140401005744934082e-01 -1.001600265502929688e+00
1.008000000000000000e+03 6.983462524414062500e+01 -9.696033477783203125e+00 4.139253616333007812e+00 1.748140335083007812e+01 6.486196994781494141e+00 -1.288047194480895996e+00
1.009000000000000000e+03 3.239266204833984375e+01 -1.717145538330078125e+01 -3.288093328475952148e+00 1.806319206953048706e-01 -9.322383999824523926e-01 1.362549215555191040e-01
1.010000000000000000e+03 4.633031082153320312e+01 -1.552599525451660156e+01 -2.581737518310546875e+00 -2.004532665014266968e-01 -8.346571922302246094e-01 -9.643406867980957031e-01
1.011000000000000000e+03 3.226842880249023438e+01 -3.348561477661132812e+01 -5.203898549079895020e-01 -7.668105512857437134e-02 -1.791212707757949829e-01 2.086072117090225220e-01
1.012000000000000000e+03 2.885084724426269531e+01 -1.527283287048339844e+01 -3.581439971923828125e+00 3.195404708385467529e-01 -9.785698652267456055e-01 3.380224704742431641e-01
1.013000000000000000e+03 5.688420867919921875e+01 1.396873092651367188e+01 8.786191940307617188e-01 3.170187950134277344e+00 1.214642167091369629e+00 -1.027752518653869629e+00
1.014000000000000000e+03 5.632174301147460938e+01 1.292910575866699219e+01 3.452323973178863525e-01 3.590851783752441406e+00 1.180825233459472656e+00 -7.947797775268554688e-01
1.015000000000000000e+03 6.867394256591796875e+01 -1.583536529541015625e+01 4.120832681655883789e-01 1.398620510101318359e+01 4.319486618041992188e+00 1.802552938461303711e+00
1.016000000000000000e+03 4.424550247192382812e+01 8.888900756835937500e+00 4.593171179294586182e-01 4.776564836502075195e-01 2.810920774936676025e-01 -3.466575443744659424e-01
1.017000000000000000e+03 6.124475479125976562e+01 -6.774977684020996094e+00 -3.732105970382690430e+00 -7.371976375579833984e-01 -1.340791106224060059e+00 -1.497539043426513672e+00
1.018000000000000000e+03 6.237833023071289062e+01 -7.673171520233154297e+00 -5.104069232940673828e+00 -1.540895819664001465e+00 -1.993489623069763184e+00 -2.712835788726806641e+00
1.019000000000000000e+03 5.458380508422851562e+01 -1.128791236877441406e+01 -2.838499784469604492e+00 -6.495430469512939453e-01 -1.046412825584411621e+00 -1.502414464950561523e+00
1.020000000000000000e+03 6.616438293457031250e+01 -1.915960502624511719e+01 2.998101711273193359e-01 6.511131763458251953e+00 2.043282508850097656e+00 2.050811052322387695e+00
1.021000000000000000e+03 5.037541580200195312e+01 3.146062135696411133e+00 8.951381444931030273e-01 2.017607837915420532e-01 3.290696740150451660e-01 -2.171903699636459351e-01
1.022000000000000000e+03 2.339053916931152344e+01 -1.497572040557861328e+01 -4.783914566040039062e+00 -6.156564131379127502e-02 -1.453644037246704102e+00 1.345856189727783203e+00
1.023000000000000000e+03 4.413168334960937500e+01 7.136460781097412109e+00 1.114024996757507324e+00 3.645593225955963135e-01 4.435752928256988525e-01 -4.402065873146057129e-01
1.024000000000000000e+03 4.152754592895507812e+01 -3.263047790527343750e+01 -6.105864048004150391e-01 -5.756048858165740967e-02 -2.004440724849700928e-01 -1.426935940980911255e-01
1.025000000000000000e+03 4.354519653320312500e+01 -3.392347717285156250e+01 -5.255630016326904297e-01 -2.042810618877410889e-01 -2.189532071352005005e-01 -2.900184392929077148e-01
1.026000000000000000e+03 5.198256301879882812e+01 -3.107114601135253906e+01 -1.029025673866271973e+00 -4.758310914039611816e-01 -4.514570236206054688e-01 -6.642175912857055664e-01
1.027000000000000000e+03 3.995359039306640625e+01 -3.533308792114257812e+01 -3.936897516250610352e-01 -1.690929979085922241e-01 -1.688348203897476196e-01 -1.214161738753318787e-01
1.028000000000000000e+03 1.775333404541015625e+01 -1.006600856781005859e+01 -4.438841342926025391e+00 3.568393290042877197e-01 -1.224600553512573242e+00 6.093032360076904297e-01
1.029000000000000000e+03 6.333871459960937500e+01 -2.466679954528808594e+01 -7.711049318313598633e-01 3.048881530761718750e+00 6.833330392837524414e-01 5.884068608283996582e-01
1.030000000000000000e+03 6.344455337524414062e+01 -2.250300216674804688e+01 -3.327138125896453857e-01 2.702659368515014648e+00 7.109836339950561523e-01 7.542636394500732422e-01
1.031000000000000000e+03 2.803120613098144531e+01 -1.767904663085937500e+01 -3.980459690093994141e+00 -1.315462589263916016e-01 -1.233601808547973633e+00 8.608248233795166016e-01
1.032000000000000000e+03 2.635285949707031250e+01 -1.470262718200683594e+01 -3.919631719589233398e+00 2.717549204826354980e-01 -1.094363093376159668e+00 6.018288135528564453e-01
1.033000000000000000e+03 4.752167129516601562e+01 -1.502943134307861328e+01 -2.534249305725097656e+00 -1.897740513086318970e-01 -8.172070384025573730e-01 -9.875145554542541504e-01
1.034000000000000000e+03 4.513302612304687500e+01 -1.597638893127441406e+01 -2.548629522323608398e+00 -2.048419713973999023e-01 -8.260414600372314453e-01 -8.525898456573486328e-01
1.035000000000000000e+03 6.008668518066406250e+01 -9.196966171264648438e+00 -4.120965957641601562e+00 -1.427718877792358398e+00 -1.664605379104614258e+00 -2.382641077041625977e+00
1.036000000000000000e+03 5.807729721069335938e+01 -2.727644920349121094e+01 -1.177123665809631348e+00 -1.072656363248825073e-01 -3.853167891502380371e-01 -4.573528170585632324e-01
1.037000000000000000e+03 2.308284187316894531e+01 -2.970561408996582031e+01 -6.075881123542785645e-01 -1.037985533475875854e-01 -2.134160101413726807e-01 2.357198894023895264e-01
1.038000000000000000e+03 3.763433074951171875e+01 -1.736742210388183594e+01 -2.874444484710693359e+00 1.037701517343521118e-01 -8.312022686004638672e-01 -2.993112802505493164e-01
1.039000000000000000e+03 3.620780181884765625e+01 -1.863974952697753906e+01 -3.172055721282958984e+00 3.874638304114341736e-02 -9.399927854537963867e-01 -1.121488586068153381e-01
1.040000000000000000e+03 6.356165695190429688e+01 -2.040945434570312500e+01 5.543992519378662109e-01 2.090741634368896484e+00 7.935422658920288086e-01 1.120124340057373047e+00
1.041000000000000000e+03 2.536406898498535156e+01 -1.696012878417968750e+01 -4.364587306976318359e+00 -2.651959359645843506e-01 -1.388934969902038574e+00 1.236868381500244141e+00
1.042000000000000000e+03 2.588316726684570312e+01 -1.582445430755615234e+01 -4.188219070434570312e+00 2.530653215944766998e-02 -1.248873710632324219e+00 9.131221175193786621e-01
1.043000000000000000e+03 5.153369140625000000e+01 -7.407157421112060547e+00 -1.838259100914001465e+00 -5.908452719449996948e-02 -5.692030787467956543e-01 -7.009105682373046875e-01
1.044000000000000000e+03 5.490071487426757812e+01 -9.652400016784667969e+00 -2.760550498962402344e+00 -4.749158918857574463e-01 -9.706399440765380859e-01 -1.283374786376953125e+00
1.045000000000000000e+03 2.171670341491699219e+01 -2.947166252136230469e+01 -5.039848089218139648e-01 1.446433514356613159e-01 -1.078024432063102722e-01 1.454799622297286987e-01
1.046000000000000000e+03 6.528127288818359375e+01 -2.029397392272949219e+01 7.200453430414199829e-02 5.054512500762939453e+00 1.537955164909362793e+00 1.615534543991088867e+00
1.047000000000000000e+03 2.410203742980957031e+01 -3.022620010375976562e+01 -6.214452981948852539e-01 -1.103072091937065125e-01 -2.195257544517517090e-01 2.976070344448089600e-01
1.048000000000000000e+03 3.631611633300781250e+01 -3.408590316772460938e+01 -4.523787796497344971e-01 -8.374358713626861572e-02 -1.608367115259170532e-01 5.398553609848022461e-02
1.049000000000000000e+03 4.937964630126953125e+01 -1.558024311065673828e+01 -2.541087150573730469e+00 -4.546355903148651123e-01 -8.987168073654174805e-01 -1.130548238754272461e+00
1.050000000000000000e+03 3.349258041381835938e+01 -3.432976531982421875e+01 -4.369685053825378418e-01 -1.305202692747116089e-01 -1.702466309070587158e-01 1.471722275018692017e-01
1.051000000000000000e+03 6.953839874267578125e+01 -1.491066074371337891e+01 5.552472472190856934e-01 1.413139343261718750e+01 4.405992507934570312e+00 -2.003147751092910767e-01
1.052000000000000000e+03 5.658891296386718750e+01 -1.147999095916748047e+01 -3.099180698394775391e+00 -1.165506958961486816e+00 -1.279406309127807617e+00 -1.910980105400085449e+00
1.053000000000000000e+03 5.574128723144531250e+01 -1.057274341583251953e+01 -2.978663444519042969e+00 -7.418397665023803711e-01 -1.116150975227355957e+00 -1.554169058799743652e+00
1.054000000000000000e+03 5.339566040039062500e+01 -3.039921951293945312e+01 -1.113377332687377930e+00 -4.324294924736022949e-01 -4.637420475482940674e-01 -6.836653947830200195e-01
1.055000000000000000e+03 1.769444465637207031e+01 -2.450063896179199219e+01 -2.928006229922175407e-03 4.617934823036193848e-01 1.376596391201019287e-01 -2.811340987682342529e-01
1.056000000000000000e+03 1.894286537170410156e+01 -2.775079727172851562e+01 -4.109364449977874756e-01 6.635832190513610840e-01 7.579402625560760498e-02 -1.305942982435226440e-01
1.057000000000000000e+03 5.465018463134765625e+01 -2.957340240478515625e+01 -1.174504756927490234e+00 -3.767625093460083008e-01 -4.653801918029785156e-01 -7.014488577842712402e-01
1.058000000000000000e+03 6.436990356445312500e+01 -2.140680694580078125e+01 -1.219210848212242126e-01 3.590466022491455078e+00 1.040563464164733887e+00 1.236203312873840332e+00
1.059000000000000000e+03 4.940254592895507812e+01 -3.191142845153808594e+01 -9.035171866416931152e-01 -4.020661711692810059e-01 -3.916750252246856689e-01 -5.930992960929870605e-01
1.060000000000000000e+03 2.977357482910156250e+01 -1.675277328491210938e+01 -3.654712438583374023e+00 1.769676059484481812e-01 -1.043323397636413574e+00 4.356311261653900146e-01
1.061000000000000000e+03 5.915138244628906250e+01 -8.346773147583007812e+00 -3.587059020996093750e+00 -9.161394238471984863e-01 -1.350959539413452148e+00 -1.743509769439697266e+00
1.062000000000000000e+03 5.107926177978515625e+01 -1.330559062957763672e+01 -2.595046520233154297e+00 -4.273384213447570801e-01 -9.067155122756958008e-01 -1.209259271621704102e+00
1.063000000000000000e+03 2.716445922851562500e+01 -1.616609191894531250e+01 -3.971307754516601562e+00 6.153619661927223206e-02 -1.172931432723999023e+00 7.463053464889526367e-01
1.064000000000000000e+03 1.376306819915771484e+01 -2.243753814697265625e+01 2.517824769020080566e-01 2.660963773727416992e+00 8.738238811492919922e-01 -1.329580664634704590e+00
1.065000000000000000e+03 1.474671840667724609e+01 -2.345054817199707031e+01 1.383589655160903931e-01 2.189042806625366211e+00 6.982205510139465332e-01 -8.984784483909606934e-01
1.066000000000000000e+03 1.668573760986328125e+01 -2.348601341247558594e+01 2.827049493789672852e-01 8.637374043464660645e-01 3.439327180385589600e-01 -4.727567136287689209e-01
1.067000000000000000e+03 1.676251983642578125e+01 -2.554356765747070312e+01 -1.705686748027801514e-01 1.261698961257934570e+00 3.273390829563140869e-01 -3.987436592578887939e-01
1.068000000000000000e+03 1.574488162994384766e+01 -2.447853088378906250e+01 -5.443914234638214111e-02 1.544310808181762695e+00 4.469615221023559570e-01 -7.081788182258605957e-01
1.069000000000000000e+03 1.328004002571105957e+00 -4.014731216430664062e+01 -1.991499960422515869e-02 5.033256530761718750e+00 1.504002451896667480e+00 -6.164012849330902100e-02
1.070000000000000000e+03 3.094974756240844727e+00 3.728646087646484375e+01 -1.825526356697082520e-03 1.005512475967407227e+00 3.011060655117034912e-01 -1.648633182048797607e-02
1.071000000000000000e+03 7.448564767837524414e-01 3.465147781372070312e+01 -8.302662899950519204e-05 9.283403754234313965e-01 2.784771919250488281e-01 -8.493289351463317871e-03
1.072000000000000000e+03 6.789569854736328125e-01 2.614701461791992188e+01 -6.943000946193933487e-03 5.936562418937683105e-01 1.760139614343643188e-01 -6.007801368832588196e-02
1.073000000000000000e+03 2.129705905914306641e+00 2.878661918640136719e+01 -2.728979662060737610e-02 8.607175946235656738e-01 2.500283420085906982e-01 -9.945533424615859985e-02
1.074000000000000000e+03 7.156699895858764648e-01 3.741609954833984375e+01 2.605688758194446564e-03 9.560298919677734375e-01 2.875906527042388916e-01 -6.988365203142166138e-03
1.075000000000000000e+03 8.704704642295837402e-01 -3.602985382080078125e+01 1.491849590092897415e-02 5.149130344390869141e+00 1.549214720726013184e+00 2.606749534606933594e-02
1.076000000000000000e+03 2.434262990951538086e+00 -3.300519561767578125e+01 -1.003293097019195557e-01 4.639130115509033203e+00 1.361640334129333496e+00 1.992113739252090454e-01
1.077000000000000000e+03 3.430935144424438477e+00 2.720071983337402344e+01 -6.842788308858871460e-02 9.223919510841369629e-01 2.561892271041870117e-01 -1.851814836263656616e-01
1.078000000000000000e+03 3.391087770462036133e+00 2.442251968383789062e+01 -7.903943955898284912e-02 8.212860822677612305e-01 2.226739823818206787e-01 -2.962407469749450684e-01
1.079000000000000000e+03 2.393301486968994141e+00 3.170099067687988281e+01 -1.958302594721317291e-02 9.490325450897216797e-01 2.788348495960235596e-01 -4.947130754590034485e-02
1.080000000000000000e+03 2.405336380004882812e+00 3.315753555297851562e+01 -1.410640310496091843e-02 9.679961204528808594e-01 2.861669063568115234e-01 -3.494381532073020935e-02
1.081000000000000000e+03 2.318521976470947266e+00 3.819276428222656250e+01 2.729782368987798691e-03 9.950502514839172363e-01 2.993339896202087402e-01 -1.424132194370031357e-02
1.082000000000000000e+03 3.214103221893310547e+00 3.918039321899414062e+01 -1.353955129161477089e-03 9.988825917243957520e-01 2.992585897445678711e-01 -7.509274873882532120e-03
1.083000000000000000e+03 2.119832277297973633e+00 -3.018768882751464844e+01 -1.231472641229629517e-01 4.439328193664550781e+00 1.294854283332824707e+00 3.359500169754028320e-01
1.084000000000000000e+03 2.007831573486328125e+00 -2.740129470825195312e+01 -1.738142073154449463e-01 3.978499889373779297e+00 1.141405701637268066e+00 5.772929787635803223e-01
1.085000000000000000e+03 1.977264523506164551e+00 -2.168890190124511719e+01 -1.981291770935058594e-01 2.031962156295776367e+00 5.501498579978942871e-01 1.328497290611267090e+00
1.086000000000000000e+03 2.588414907455444336e+00 -3.714801406860351562e+01 -6.499959528446197510e-02 4.808355331420898438e+00 1.423006772994995117e+00 3.560503199696540833e-02
1.087000000000000000e+03 5.058518052101135254e-01 7.767873287200927734e+00 1.409658882766962051e-02 -1.359771132469177246e+00 -4.037023782730102539e-01 5.905059352517127991e-02
1.088000000000000000e+03 6.530780196189880371e-01 1.907063674926757812e+01 7.197377737611532211e-03 -4.024657011032104492e-01 -1.185804903507232666e-01 -1.232763081789016724e-01
1.089000000000000000e+03 6.008748412132263184e-01 1.341177749633789062e+01 2.010246366262435913e-02 -1.353678941726684570e+00 -4.000729322433471680e-01 -7.138280570507049561e-02
1.090000000000000000e+03 3.446737527847290039e+00 -3.943519592285156250e+01 -1.626346632838249207e-02 4.873114585876464844e+00 1.457055330276489258e+00 2.033816464245319366e-02
1.091000000000000000e+03 4.140083789825439453e+00 -3.740353393554687500e+01 -1.539363116025924683e-01 4.425666332244873047e+00 1.281519055366516113e+00 1.348888874053955078e-01
1.092000000000000000e+03 2.589531421661376953e+00 -3.444461059570312500e+01 -4.277135431766510010e-02 4.696938514709472656e+00 1.396250128746032715e+00 1.444585174322128296e-01
1.093000000000000000e+03 2.263451576232910156e+00 -3.159243202209472656e+01 -4.093331098556518555e-02 4.554401397705078125e+00 1.354040503501892090e+00 2.598156034946441650e-01
1.094000000000000000e+03 3.350796461105346680e+00 -2.726786804199218750e+01 -2.610450088977813721e-01 4.070119380950927734e+00 1.142722368240356445e+00 7.848924398422241211e-01
1.095000000000000000e+03 1.990859508514404297e+00 -2.314146041870117188e+01 -1.155684813857078552e-01 2.662089824676513672e+00 7.639564275741577148e-01 1.139497995376586914e+00
1.096000000000000000e+03 1.999387025833129883e+00 -2.600265693664550781e+01 -1.000451147556304932e-01 3.624145030975341797e+00 1.057229995727539062e+00 7.247828245162963867e-01
1.097000000000000000e+03 3.257091283798217773e+00 -2.000533103942871094e+01 -1.790953427553176880e-01 2.815417528152465820e+00 7.908965945243835449e-01 1.973240137100219727e+00
1.098000000000000000e+03 6.244295239448547363e-01 -1.906020355224609375e+01 9.965023398399353027e-02 -1.269334077835083008e+00 -3.509051799774169922e-01 5.828452706336975098e-01
1.099000000000000000e+03 1.878860473632812500e+00 -1.881900215148925781e+01 -1.159224472939968109e-02 4.291904866695404053e-01 1.252794712781906128e-01 1.421180486679077148e+00
1.100000000000000000e+03 1.698937773704528809e+00 -1.606565284729003906e+01 2.898551523685455322e-01 -1.251416683197021484e+00 -2.884684801101684570e-01 9.097906351089477539e-01
1.101000000000000000e+03 5.458943843841552734e-01 -1.206358528137207031e+01 9.269556403160095215e-02 -4.224186420440673828e+00 -1.239447355270385742e+00 -2.197473049163818359e-01
1.102000000000000000e+03 1.639580488204956055e+00 -1.198810482025146484e+01 1.846132129430770874e-01 -1.791723251342773438e+00 -4.821330010890960693e-01 -5.491427183151245117e-01
1.103000000000000000e+03 1.613497734069824219e+00 -6.358473777770996094e+00 -1.059675142168998718e-01 -5.247920155525207520e-01 -1.892278641462326050e-01 -4.668098688125610352e-01
1.104000000000000000e+03 1.315450429916381836e+00 -3.487910032272338867e+00 -2.683154679834842682e-02 -3.731133937835693359e-01 -1.199834793806076050e-01 -3.044646084308624268e-01
1.105000000000000000e+03 4.968588054180145264e-01 -4.992384433746337891e+00 -6.346265971660614014e-02 -1.011261224746704102e+00 -3.224171400070190430e-01 -1.528293490409851074e-01
1.106000000000000000e+03 4.350465536117553711e-01 4.946707248687744141e+00 5.008656997233629227e-03 -8.541447520256042480e-01 -2.547408342361450195e-01 9.968516230583190918e-02
1.107000000000000000e+03 3.536609649658203125e+00 3.801876306533813477e+00 -9.535574354231357574e-03 -1.114690154790878296e-01 -3.630137816071510315e-02 4.719936251640319824e-01
1.108000000000000000e+03 1.682440161705017090e+00 1.037041378021240234e+01 6.198941171169281006e-02 -9.191001057624816895e-01 -2.571332156658172607e-01 1.826307922601699829e-02
1.109000000000000000e+03 5.630713105201721191e-01 1.058857345581054688e+01 1.941545493900775909e-02 -1.527818083763122559e+00 -4.525207877159118652e-01 -2.793269930407404900e-03
1.110000000000000000e+03 1.800078272819519043e+00 1.318861770629882812e+01 5.203663557767868042e-02 -7.413403987884521484e-01 -2.067911326885223389e-01 -1.680282950401306152e-01
1.111000000000000000e+03 1.983762264251708984e+00 2.030409622192382812e+01 -1.647478155791759491e-02 1.690481603145599365e-01 4.577201232314109802e-02 -3.109731376171112061e-01
1.112000000000000000e+03 1.960812807083129883e+00 1.886756706237792969e+01 -1.396099291741847992e-02 -1.480366196483373642e-02 -8.629396557807922363e-03 -3.300565779209136963e-01
1.113000000000000000e+03 2.028868913650512695e+00 2.455903434753417969e+01 -3.601801767945289612e-02 6.075804829597473145e-01 1.714687347412109375e-01 -2.048939466476440430e-01
1.114000000000000000e+03 2.426037979125976562e+01 -1.145913887023925781e+01 -3.432778358459472656e+00 6.179184913635253906e-01 -8.444579839706420898e-01 4.047614708542823792e-02
1.115000000000000000e+03 1.066622161865234375e+01 1.555831432342529297e+00 6.418592929840087891e-01 1.756971478462219238e+00 7.196492552757263184e-01 -1.869753122329711914e+00
1.116000000000000000e+03 1.265544033050537109e+01 1.232825279235839844e+00 3.915144801139831543e-01 9.153372764587402344e+00 2.863466024398803711e+00 -3.421930789947509766e+00
1.117000000000000000e+03 1.049310207366943359e+01 1.557310700416564941e+00 5.932300090789794922e-01 1.386454582214355469e+00 5.939053893089294434e-01 -1.742382049560546875e+00
1.118000000000000000e+03 1.181103897094726562e+01 -2.158629655838012695e+00 7.084831714630126953e+00 5.165860176086425781e+00 3.675207376480102539e+00 6.748351097106933594e+00
1.119000000000000000e+03 1.058901023864746094e+01 -2.049670219421386719e+00 5.216384410858154297e+00 1.084243416786193848e+00 1.890188455581665039e+00 3.706315040588378906e+00
1.120000000000000000e+03 1.143288135528564453e+01 2.003905534744262695e+00 5.369510650634765625e-01 4.028225898742675781e+00 1.369553089141845703e+00 -2.894804716110229492e+00
1.121000000000000000e+03 1.247202682495117188e+01 1.082883119583129883e+00 9.441748857498168945e-01 8.446169853210449219e+00 2.817103385925292969e+00 -4.080120563507080078e+00
1.122000000000000000e+03 1.445394515991210938e+01 1.617173194885253906e+00 1.161089062690734863e+00 9.386481285095214844e+00 3.164271116256713867e+00 1.182713150978088379e+00
1.123000000000000000e+03 1.466002559661865234e+01 6.412136077880859375e+00 -2.029704332351684570e+00 5.876154422760009766e+00 1.153934955596923828e+00 -1.211222484707832336e-01
1.124000000000000000e+03 1.371463394165039062e+01 -3.188299894332885742e+00 3.331247091293334961e+00 1.035777664184570312e+01 4.106707096099853516e+00 2.827128171920776367e+00
1.125000000000000000e+03 3.498235940933227539e+00 2.864606857299804688e+00 -1.294419616460800171e-01 -9.946148097515106201e-02 -6.867103278636932373e-02 4.776716828346252441e-01
1.126000000000000000e+03 4.233973979949951172e+00 2.779111385345458984e+00 -1.883426308631896973e-01 -1.360344421118497849e-02 -6.058382242918014526e-02 4.709284603595733643e-01
1.127000000000000000e+03 4.988716602325439453e+00 3.496039390563964844e+00 -3.024503029882907867e-02 1.324422061443328857e-01 3.065915033221244812e-02 4.385074973106384277e-01
1.128000000000000000e+03 5.724184036254882812e+00 3.325991868972778320e+00 -3.288513794541358948e-02 2.161278724670410156e-01 5.497281998395919800e-02 3.655782043933868408e-01
1.129000000000000000e+03 1.963453650474548340e+00 3.201643228530883789e+00 -5.141581222414970398e-02 -3.035662472248077393e-01 -1.064946204423904419e-01 3.573662340641021729e-01
1.130000000000000000e+03 7.185288429260253906e+00 3.158026933670043945e+00 2.643783949315547943e-02 4.996050298213958740e-01 1.578128635883331299e-01 5.174331739544868469e-02
1.131000000000000000e+03 8.612928390502929688e+00 3.130708694458007812e+00 1.402155607938766479e-01 1.111101746559143066e+00 3.753951787948608398e-01 -5.549632906913757324e-01
1.132000000000000000e+03 9.992893218994140625e+00 2.099184751510620117e+00 3.364157080650329590e-01 1.429639697074890137e+00 5.298166275024414062e-01 -1.360776424407958984e+00
1.133000000000000000e+03 4.908027172088623047e+00 -3.723827838897705078e+00 1.236507445573806763e-01 9.440960288047790527e-01 3.203240334987640381e-01 3.522659838199615479e-01
1.134000000000000000e+03 2.173748970031738281e+00 -3.325643062591552734e+00 -2.011600136756896973e-02 -9.606253355741500854e-02 -3.485356271266937256e-02 -3.326919078826904297e-01
1.135000000000000000e+03 3.604597091674804688e+00 -8.012808799743652344e+00 -4.542459249496459961e-01 1.659314513206481934e+00 3.615205585956573486e-01 -6.119525432586669922e-01
1.136000000000000000e+03 5.676945686340332031e+00 -3.484627962112426758e+00 2.787615358829498291e-01 9.628713130950927734e-01 3.724898397922515869e-01 6.100337505340576172e-01
1.137000000000000000e+03 1.504744768142700195e+00 -4.878106117248535156e+00 -1.166575681418180466e-02 -4.375154078006744385e-01 -1.347543597221374512e-01 -3.201636373996734619e-01
1.138000000000000000e+03 7.027728080749511719e+00 -2.483518600463867188e+00 7.922634482383728027e-01 6.945298314094543457e-01 4.460379779338836670e-01 1.073975443840026855e+00
1.139000000000000000e+03 7.117609977722167969e+00 -3.156371116638183594e+00 8.699482679367065430e-01 1.070180535316467285e+00 5.820386409759521484e-01 1.422479748725891113e+00
1.140000000000000000e+03 6.411456108093261719e+00 -3.298290014266967773e+00 5.395933389663696289e-01 1.108366608619689941e+00 4.943879842758178711e-01 1.088811159133911133e+00
1.141000000000000000e+03 8.463713645935058594e+00 -2.452533483505249023e+00 1.978650331497192383e+00 7.571677565574645996e-01 8.207454085350036621e-01 2.005852699279785156e+00
1.142000000000000000e+03 3.928887248039245605e-01 3.554164886474609375e+00 -6.871492136269807816e-03 -5.024231076240539551e-01 -1.527883857488632202e-01 9.880655258893966675e-02
1.143000000000000000e+03 1.543477249145507812e+01 4.091323614120483398e-01 6.698060989379882812e+00 6.283729076385498047e+00 3.894536972045898438e+00 3.334888696670532227e+00
1.144000000000000000e+03 1.866719818115234375e+01 1.966382980346679688e+00 3.880995512008666992e+00 4.622812569141387939e-01 1.302983045578002930e+00 3.662493467330932617e+00
1.145000000000000000e+03 1.550006294250488281e+01 -2.420489788055419922e+00 6.898028373718261719e+00 6.032833576202392578e+00 3.879258394241333008e+00 -1.567082852125167847e-02
1.146000000000000000e+03 1.592102050781250000e+01 -9.640076160430908203e-01 9.132688522338867188e+00 4.243277549743652344e+00 4.012789726257324219e+00 1.739179253578186035e+00
1.147000000000000000e+03 1.126919841766357422e+01 1.659638214111328125e+01 1.043599471449851990e-01 3.450829744338989258e+00 1.066556930541992188e+00 -3.846533894538879395e-01
1.148000000000000000e+03 4.012015914916992188e+01 -1.592148494720458984e+01 -2.643077135086059570e+00 1.846351921558380127e-01 -7.375325560569763184e-01 -5.479493737220764160e-01
1.149000000000000000e+03 4.145663070678710938e+01 -1.697747039794921875e+01 -2.668819665908813477e+00 8.366391807794570923e-02 -7.755467295646667480e-01 -5.724788904190063477e-01
1.150000000000000000e+03 3.012186622619628906e+01 -1.552724170684814453e+01 -3.402994871139526367e+00 3.135676085948944092e-01 -9.268282055854797363e-01 2.147355973720550537e-01
1.151000000000000000e+03 3.137766075134277344e+01 -1.575086307525634766e+01 -3.279139518737792969e+00 3.274641036987304688e-01 -8.855026364326477051e-01 8.923046290874481201e-02
1.152000000000000000e+03 1.278951644897460938e+01 -2.141706848144531250e+01 4.570971429347991943e-01 3.797497987747192383e+00 1.276378512382507324e+00 -1.582346081733703613e+00
1.153000000000000000e+03 2.984757041931152344e+01 6.025956153869628906e+00 2.806683063507080078e+00 1.994496583938598633e+00 1.440353989601135254e+00 1.352366447448730469e+00
1.154000000000000000e+03 2.686215400695800781e+01 6.049155712127685547e+00 3.732943296432495117e+00 3.443855047225952148e+00 2.153039455413818359e+00 1.948210716247558594e+00
1.155000000000000000e+03 5.055867385864257812e+01 4.893439769744873047e+00 1.277069926261901855e+00 2.034453749656677246e-01 4.441545903682708740e-01 -1.765036433935165405e-01
1.156000000000000000e+03 5.135994720458984375e+01 3.786056041717529297e+00 9.887536764144897461e-01 1.933047771453857422e-01 3.546175360679626465e-01 -1.908932626247406006e-01
1.157000000000000000e+03 2.922440719604492188e+01 1.163595581054687500e+01 6.309232711791992188e-01 2.785055398941040039e+00 1.024793624877929688e+00 1.792208433151245117e+00
1.158000000000000000e+03 2.870591545104980469e+01 1.052395439147949219e+01 1.207381010055541992e+00 3.005141973495483398e+00 1.263756871223449707e+00 2.127728223800659180e+00
1.159000000000000000e+03 4.689036941528320312e+01 -1.393840599060058594e+01 -2.433197498321533203e+00 -1.251252591609954834e-01 -7.674968242645263672e-01 -9.624682068824768066e-01
1.160000000000000000e+03 4.918944168090820312e+01 -1.285861015319824219e+01 -2.439635992050170898e+00 -2.051399946212768555e-01 -7.934327721595764160e-01 -1.036815881729125977e+00
1.161000000000000000e+03 3.525187301635742188e+01 -1.496844768524169922e+01 -2.771205425262451172e+00 3.627913892269134521e-01 -7.225242257118225098e-01 -2.856050729751586914e-01
1.162000000000000000e+03 2.619990921020507812e+01 1.458102989196777344e+01 -9.737378358840942383e-01 2.094336748123168945e+00 3.361796438694000244e-01 6.101819276809692383e-01
1.163000000000000000e+03 2.645225143432617188e+01 1.250071239471435547e+01 -7.893916964530944824e-02 2.922319173812866211e+00 8.530139923095703125e-01 7.789682745933532715e-01
1.164000000000000000e+03 1.411520481109619141e+01 7.267416954040527344e+00 -9.697247743606567383e-01 6.107184886932373047e+00 1.541237950325012207e+00 2.848161756992340088e-01
1.165000000000000000e+03 5.135358428955078125e+01 -3.619600677490234375e+01 9.418760240077972412e-02 -2.731380164623260498e-01 -5.368512868881225586e-02 -2.951673567295074463e-01
1.166000000000000000e+03 5.071424102783203125e+01 -1.061929416656494141e+01 -2.326101303100585938e+00 -1.822230517864227295e-01 -7.524972558021545410e-01 -9.900310039520263672e-01
1.167000000000000000e+03 4.511796569824218750e+01 -1.335813808441162109e+01 -2.336268186569213867e+00 1.340922247618436813e-02 -6.968576312065124512e-01 -8.222253322601318359e-01
1.168000000000000000e+03 2.462623596191406250e+01 -1.543241596221923828e+01 -4.397566795349121094e+00 -1.364598236978054047e-02 -1.323363780975341797e+00 1.129017353057861328e+00
1.169000000000000000e+03 2.398644638061523438e+01 -1.393839645385742188e+01 -4.428091049194335938e+00 2.767752408981323242e-01 -1.245394706726074219e+00 8.279684782028198242e-01
1.170000000000000000e+03 2.846557998657226562e+01 -1.647516632080078125e+01 -3.769373178482055664e+00 1.277225613594055176e-01 -1.092495203018188477e+00 5.517327785491943359e-01
1.171000000000000000e+03 6.427628326416015625e+01 -2.352317810058593750e+01 -6.838728189468383789e-01 3.781454086303710938e+00 9.292744398117065430e-01 8.348826169967651367e-01
1.172000000000000000e+03 6.519442749023437500e+01 -2.240004730224609375e+01 -6.190748214721679688e-01 4.900520801544189453e+00 1.284433722496032715e+00 1.030214428901672363e+00
1.173000000000000000e+03 3.762454986572265625e+01 -1.492438030242919922e+01 -2.628072977066040039e+00 3.075919151306152344e-01 -6.961442828178405762e-01 -4.361883103847503662e-01
1.174000000000000000e+03 2.463022994995117188e+01 -3.359345626831054688e+01 -2.689259350299835205e-01 6.544573605060577393e-02 -6.104406341910362244e-02 1.072728782892227173e-01
1.175000000000000000e+03 2.380663681030273438e+01 -3.206498718261718750e+01 -3.846477866172790527e-01 2.327638305723667145e-02 -1.084114238619804382e-01 1.188255101442337036e-01
1.176000000000000000e+03 5.576221847534179688e+01 -3.074098014831542969e+01 -7.048272490501403809e-01 -4.046766832470893860e-02 -2.235884666442871094e-01 -3.399739861488342285e-01
1.177000000000000000e+03 4.347626495361328125e+01 5.497217655181884766e+00 1.081776618957519531e+00 3.522284626960754395e-01 4.302015304565429688e-01 -1.539255529642105103e-01
1.178000000000000000e+03 4.470605850219726562e+01 6.186085224151611328e+00 1.293199658393859863e+00 1.496589034795761108e-01 4.328575432300567627e-01 -2.243093997240066528e-01
1.179000000000000000e+03 9.222742080688476562e+00 -9.882290840148925781e+00 -3.514071464538574219e+00 1.040299892425537109e+01 2.066678047180175781e+00 4.899587631225585938e+00
1.180000000000000000e+03 8.498370170593261719e+00 -1.382433319091796875e+01 5.641337871551513672e+00 2.014492034912109375e+01 7.735877513885498047e+00 1.022988438606262207e+00
1.181000000000000000e+03 7.441852092742919922e+00 -1.473538494110107422e+01 4.414369583129882812e+00 1.085073375701904297e+01 4.579531192779541016e+00 8.376004099845886230e-01
1.182000000000000000e+03 2.758796501159667969e+01 -1.499748039245605469e+01 -3.730948686599731445e+00 2.941450178623199463e-01 -1.031041145324707031e+00 4.401962459087371826e-01
1.183000000000000000e+03 7.607124328613281250e+01 -1.043072605133056641e+01 1.040246367454528809e+00 7.809407234191894531e+00 2.654896020889282227e+00 5.132761597633361816e-02
1.184000000000000000e+03 7.133880615234375000e+01 -1.051467323303222656e+01 3.599891185760498047e+00 1.335811996459960938e+01 5.087403297424316406e+00 -7.352638244628906250e-01
1.185000000000000000e+03 1.114501762390136719e+01 -8.874694824218750000e+00 -3.018055200576782227e+00 5.142265319824218750e+00 6.372630000114440918e-01 6.116684913635253906e+00
1.186000000000000000e+03 1.246914196014404297e+01 1.114585685729980469e+01 1.097727656364440918e+00 5.390478134155273438e+00 1.946461796760559082e+00 1.087435707449913025e-01
1.187000000000000000e+03 5.805832672119140625e+01 1.324828624725341797e+01 6.785652637481689453e-01 3.221624851226806641e+00 1.170057058334350586e+00 -9.202482104301452637e-01
1.188000000000000000e+03 5.342473220825195312e+01 -1.198239707946777344e+01 -2.703941822052001953e+00 -6.414300203323364258e-01 -1.003611564636230469e+00 -1.429703474044799805e+00
1.189000000000000000e+03 7.766101074218750000e+01 -3.598087692260742188e+01 -8.326639980077743530e-02 1.080539703369140625e+01 3.216639280319213867e+00 7.124056667089462280e-02
1.190000000000000000e+03 7.378333282470703125e+01 -3.846056365966796875e+01 -5.431907996535301208e-02 8.669301986694335938e+00 2.584494829177856445e+00 -4.593977332115173340e-02
1.191000000000000000e+03 7.482581329345703125e+01 -3.260507202148437500e+01 -1.510470658540725708e-01 9.400590896606445312e+00 2.774863004684448242e+00 -9.551471471786499023e-02
1.192000000000000000e+03 7.557141113281250000e+01 -2.210369873046875000e+01 -4.229503273963928223e-01 9.545945167541503906e+00 2.736898422241210938e+00 -1.237515211105346680e+00
1.193000000000000000e+03 7.795315551757812500e+01 -2.908155250549316406e+01 -5.291100218892097473e-02 1.072730255126953125e+01 3.202317476272583008e+00 -2.148257642984390259e-01
1.194000000000000000e+03 7.553966522216796875e+01 1.451171875000000000e+01 3.048951737582683563e-02 6.611465454101562500e+00 1.992586493492126465e+00 -5.573710799217224121e-01
1.195000000000000000e+03 7.682153320312500000e+01 1.576260757446289062e+01 1.857177354395389557e-02 6.720754623413085938e+00 2.021797895431518555e+00 -4.006992280483245850e-01
1.196000000000000000e+03 7.783396911621093750e+01 3.479426193237304688e+01 5.450681783258914948e-03 5.555719375610351562e+00 1.668351054191589355e+00 -6.566381454467773438e-02
1.197000000000000000e+03 7.647530364990234375e+01 3.222480010986328125e+01 1.983103714883327484e-02 5.542318344116210938e+00 1.668644785881042480e+00 -1.295070648193359375e-01
1.198000000000000000e+03 7.803699493408203125e+01 -2.212947463989257812e+01 -1.342758536338806152e-01 9.498311996459960938e+00 2.809210777282714844e+00 -8.090699315071105957e-01
1.199000000000000000e+03 7.682846832275390625e+01 -2.346873092651367188e+01 -2.729832530021667480e-01 9.703366279602050781e+00 2.829114913940429688e+00 -9.153809547424316406e-01
1.200000000000000000e+03 7.651390075683593750e+01 -3.027989387512207031e+01 -1.264281570911407471e-01 1.014821147918701172e+01 3.006534814834594727e+00 -2.083539664745330811e-01
1.201000000000000000e+03 7.509316253662109375e+01 -3.661686706542968750e+01 -1.219037920236587524e-01 9.422316551208496094e+00 2.790123701095581055e+00 -6.247367709875106812e-02
1.202000000000000000e+03 7.658337402343750000e+01 -2.892613601684570312e+01 -1.912007927894592285e-01 1.012277603149414062e+01 2.979472398757934570e+00 -3.207467794418334961e-01
1.203000000000000000e+03 7.673026275634765625e+01 -2.621180915832519531e+01 -2.328271269798278809e-01 9.997651100158691406e+00 2.929447174072265625e+00 -5.620681047439575195e-01
1.204000000000000000e+03 7.664420318603515625e+01 -2.757100868225097656e+01 -1.714319884777069092e-01 1.006377124786376953e+01 2.967701673507690430e+00 -4.315192699432373047e-01
1.205000000000000000e+03 7.681018829345703125e+01 -2.484494209289550781e+01 -2.446404099464416504e-01 9.867584228515625000e+00 2.886883258819580078e+00 -7.235496640205383301e-01
1.206000000000000000e+03 7.639855957031250000e+01 -3.162104797363281250e+01 -1.157351061701774597e-01 1.010743904113769531e+01 2.997511386871337891e+00 -1.176214888691902161e-01
1.207000000000000000e+03 7.588946533203125000e+01 -3.425934219360351562e+01 -1.571497768163681030e-01 9.867612838745117188e+00 2.913138866424560547e+00 -5.286952108144760132e-02
1.208000000000000000e+03 7.385738372802734375e+01 -2.991078948974609375e+01 -3.025517165660858154e-01 8.979999542236328125e+00 2.603234291076660156e+00 -2.210604995489120483e-01
1.209000000000000000e+03 7.506626129150390625e+01 -4.047033309936523438e+01 9.649869054555892944e-02 9.600895881652832031e+00 2.909218549728393555e+00 -1.091668307781219482e-01
1.210000000000000000e+03 7.802706909179687500e+01 2.251118659973144531e+01 6.454834248870611191e-03 6.228907108306884766e+00 1.870608687400817871e+00 -1.732935458421707153e-01
1.211000000000000000e+03 7.680719757080078125e+01 1.986156654357910156e+01 4.199390485882759094e-02 6.306772708892822266e+00 1.904630064964294434e+00 -3.279684185981750488e-01
1.212000000000000000e+03 7.533774566650390625e+01 2.258565902709960938e+01 6.603618711233139038e-02 5.879568576812744141e+00 1.783681392669677734e+00 -3.747922480106353760e-01
1.213000000000000000e+03 7.676943206787109375e+01 2.121822357177734375e+01 2.591698803007602692e-02 6.185066223144531250e+00 1.863294959068298340e+00 -3.026346564292907715e-01
1.214000000000000000e+03 7.679777526855468750e+01 1.297701740264892578e+01 5.516760051250457764e-03 7.038526058197021484e+00 2.113212823867797852e+00 -4.369294047355651855e-01
1.215000000000000000e+03 7.552368927001953125e+01 8.886131286621093750e+00 -8.861851692199707031e-02 7.218669891357421875e+00 2.139015436172485352e+00 -5.677424073219299316e-01
1.216000000000000000e+03 7.681171417236328125e+01 1.437137889862060547e+01 2.748768217861652374e-02 6.875481605529785156e+00 2.070890665054321289e+00 -4.200678169727325439e-01
1.217000000000000000e+03 7.658815765380859375e+01 2.398567390441894531e+01 3.318191319704055786e-02 5.943280696868896484e+00 1.792938828468322754e+00 -2.580633461475372314e-01
1.218000000000000000e+03 7.797939300537109375e+01 2.664352416992187500e+01 1.649332232773303986e-02 5.923040866851806641e+00 1.781860232353210449e+00 -1.296077221632003784e-01
1.219000000000000000e+03 7.678647613525390625e+01 -2.207993507385253906e+01 -2.529785633087158203e-01 9.447748184204101562e+00 2.758430957794189453e+00 -1.120253086090087891e+00
1.220000000000000000e+03 7.580426025390625000e+01 -2.423232078552246094e+00 -4.342242479324340820e-01 8.451602935791015625e+00 2.405213832855224609e+00 9.356106519699096680e-01
1.221000000000000000e+03 7.709294891357421875e+01 -8.027332305908203125e+00 3.213179111480712891e-01 7.065005302429199219e+00 2.215897083282470703e+00 7.901762723922729492e-01
1.222000000000000000e+03 7.806443023681640625e+01 5.804470539093017578e+00 -6.008017435669898987e-02 8.169657707214355469e+00 2.432873249053955078e+00 -1.479562073945999146e-01
1.223000000000000000e+03 7.678939056396484375e+01 3.096292972564697266e+00 -2.522562146186828613e-01 8.099633216857910156e+00 2.354213237762451172e+00 3.035167045891284943e-02
1.224000000000000000e+03 7.332433319091796875e+01 -1.816232299804687500e+01 -3.911632299423217773e-01 1.017038726806640625e+01 2.933767080307006836e+00 -1.661032080650329590e+00
1.225000000000000000e+03 7.673134613037109375e+01 -2.064800643920898438e+01 -2.285926342010498047e-01 9.233770370483398438e+00 2.701553344726562500e+00 -1.289119482040405273e+00
1.226000000000000000e+03 7.610264587402343750e+01 -9.315699577331542969e+00 9.035384058952331543e-01 7.869233608245849609e+00 2.631831645965576172e+00 4.790126085281372070e-01
1.227000000000000000e+03 7.802820587158203125e+01 -1.491805934906005859e+01 1.393892019987106323e-01 6.769603729248046875e+00 2.072697877883911133e+00 -9.978092908859252930e-01
1.228000000000000000e+03 7.632942962646484375e+01 3.474945068359375000e+01 1.952722482383251190e-02 5.443438529968261719e+00 1.638889670372009277e+00 -1.014135405421257019e-01
1.229000000000000000e+03 7.807102966308593750e+01 7.211601734161376953e+00 -3.950127214193344116e-02 8.035545349121093750e+00 2.398813247680664062e+00 -1.957573592662811279e-01
1.230000000000000000e+03 7.675913238525390625e+01 5.921252727508544922e+00 -1.377386599779129028e-01 7.848404407501220703e+00 2.313199758529663086e+00 -2.528011798858642578e-01
1.231000000000000000e+03 7.695876312255859375e+01 -2.456364870071411133e+00 -2.846575677394866943e-01 8.040812492370605469e+00 2.326846599578857422e+00 9.313722252845764160e-01
1.232000000000000000e+03 7.712992858886718750e+01 -9.372376441955566406e+00 5.624246001243591309e-01 6.866700172424316406e+00 2.228737592697143555e+00 4.747755229473114014e-01
1.233000000000000000e+03 7.655747222900390625e+01 3.352139282226562500e+01 2.159103564918041229e-02 5.505418300628662109e+00 1.658102869987487793e+00 -1.192289292812347412e-01
1.234000000000000000e+03 7.355069732666015625e+01 3.474608993530273438e+01 7.483999431133270264e-02 5.182042598724365234e+00 1.577064752578735352e+00 -1.604432612657546997e-01
1.235000000000000000e+03 7.646989440917968750e+01 3.084220123291015625e+01 2.633464336395263672e-02 5.582622051239013672e+00 1.682687044143676758e+00 -1.457300484180450439e-01
1.236000000000000000e+03 7.681433105468750000e+01 1.851036453247070312e+01 2.662964724004268646e-02 6.436560153961181641e+00 1.938956856727600098e+00 -3.542335033416748047e-01
1.237000000000000000e+03 7.679351043701171875e+01 1.018134880065917969e+01 -3.048014454543590546e-02 7.369077682495117188e+00 2.201579332351684570e+00 -4.370581507682800293e-01
1.238000000000000000e+03 7.821037292480468750e+01 -6.736508846282958984e+00 4.544084519147872925e-02 6.327362537384033203e+00 1.911841034889221191e+00 7.611764669418334961e-01
1.239000000000000000e+03 7.809797668457031250e+01 1.614605665206909180e+00 -1.430308073759078979e-01 8.258259773254394531e+00 2.434568643569946289e+00 2.273993939161300659e-01
1.240000000000000000e+03 7.691844940185546875e+01 -1.065635085105895996e+00 -2.943022251129150391e-01 8.150238990783691406e+00 2.356781005859375000e+00 6.657017469406127930e-01
1.241000000000000000e+03 7.662850189208984375e+01 -1.602251243591308594e+01 1.636743545532226562e-01 8.262512207031250000e+00 2.527856111526489258e+00 -1.562711834907531738e+00
1.242000000000000000e+03 7.675804138183593750e+01 4.506198406219482422e+00 -1.890445053577423096e-01 7.990788459777832031e+00 2.340523242950439453e+00 -1.637157052755355835e-01
1.243000000000000000e+03 7.704299163818359375e+01 -5.237362384796142578e+00 -2.477206848561763763e-02 7.581150531768798828e+00 2.266913652420043945e+00 1.133197903633117676e+00
1.244000000000000000e+03 7.700050354003906250e+01 -3.844318389892578125e+00 -1.156942173838615417e-01 7.810287952423095703e+00 2.308377981185913086e+00 1.055671811103820801e+00
1.245000000000000000e+03 7.571752929687500000e+01 -1.160503864288330078e+01 1.107599616050720215e+00 8.302058219909667969e+00 2.822897434234619141e+00 -5.307701826095581055e-01
1.246000000000000000e+03 7.684090423583984375e+01 -1.325284290313720703e+01 6.089161634445190430e-01 7.405445098876953125e+00 2.404308319091796875e+00 -9.487614035606384277e-01
1.247000000000000000e+03 7.709922790527343750e+01 -1.066903018951416016e+01 6.679118275642395020e-01 6.935845375061035156e+00 2.281127214431762695e+00 -6.318572163581848145e-02
1.248000000000000000e+03 7.665561676025390625e+01 -1.911154365539550781e+01 -1.765686273574829102e-01 8.878233909606933594e+00 2.610499620437622070e+00 -1.503888249397277832e+00
1.249000000000000000e+03 3.889546585083007812e+01 -1.604344749450683594e+01 -2.708416461944580078e+00 2.135478854179382324e-01 -7.484605908393859863e-01 -4.738524258136749268e-01
1.250000000000000000e+03 6.088548660278320312e+01 -5.114250659942626953e+00 -1.896734952926635742e+00 -5.443015098571777344e-01 -7.323109507560729980e-01 -1.373549818992614746e+00
1.251000000000000000e+03 5.667757797241210938e+01 9.225049972534179688e+00 2.374832034111022949e-01 2.250148057937622070e+00 7.462894320487976074e-01 -3.631671667098999023e-01
1.252000000000000000e+03 1.633385467529296875e+01 4.282786369323730469e+00 -1.679898500442504883e+00 2.776443481445312500e+00 3.289635181427001953e-01 2.818517982959747314e-01
1.253000000000000000e+03 5.689436721801757812e+01 -9.842976570129394531e+00 -3.170368671417236328e+00 -8.478198051452636719e-01 -1.205456495285034180e+00 -1.642724633216857910e+00
1.254000000000000000e+03 5.376255798339843750e+01 -1.033767604827880859e+01 -2.643779754638671875e+00 -4.497050344944000244e-01 -9.280454516410827637e-01 -1.254587650299072266e+00
1.255000000000000000e+03 8.156069755554199219e+00 -1.598747253417968750e+01 2.477117300033569336e+00 1.252144241333007812e+01 4.499567985534667969e+00 1.557742118835449219e+00
1.256000000000000000e+03 1.479564857482910156e+01 -2.542014694213867188e+01 -2.856195271015167236e-01 2.338294029235839844e+00 6.158023476600646973e-01 -6.539154052734375000e-01
1.257000000000000000e+03 5.999905776977539062e+01 -2.761990356445312500e+01 -7.913831472396850586e-01 9.403091669082641602e-01 4.467780515551567078e-02 3.458623960614204407e-02
1.258000000000000000e+03 6.023218154907226562e+01 -7.574356079101562500e+00 -3.760852575302124023e+00 -8.755867481231689453e-01 -1.390931844711303711e+00 -1.746217250823974609e+00
1.259000000000000000e+03 5.576685333251953125e+01 -2.874609184265136719e+01 -1.237847089767456055e+00 -3.297126293182373047e-01 -4.702679216861724854e-01 -6.554766893386840820e-01
1.260000000000000000e+03 5.879040527343750000e+01 -2.845581436157226562e+01 -8.604205250740051270e-01 4.393223524093627930e-01 -1.263294517993927002e-01 -7.330681383609771729e-02
1.261000000000000000e+03 1.185126876831054688e+01 -2.235215950012207031e+01 -2.601087987422943115e-01 4.359108448028564453e+00 1.229699850082397461e+00 -1.283861875534057617e+00
1.262000000000000000e+03 1.193511962890625000e+01 2.148320674896240234e+00 7.111971825361251831e-02 5.793343067169189453e+00 1.759338855743408203e+00 -3.085603237152099609e+00
1.263000000000000000e+03 1.295417213439941406e+01 2.629835844039916992e+00 -9.018931388854980469e-01 7.941181659698486328e+00 2.111786603927612305e+00 -2.019527673721313477e+00
1.264000000000000000e+03 2.102036476135253906e+00 3.593568038940429688e+01 -1.524242106825113297e-03 9.815931320190429688e-01 2.940206527709960938e-01 -1.694613881409168243e-02
1.265000000000000000e+03 3.728474378585815430e+00 3.000869369506835938e+01 -5.989994108676910400e-02 1.010289072990417480e+00 2.851167321205139160e-01 -1.101759970188140869e-01
1.266000000000000000e+03 2.060831069946289062e+00 2.737246704101562500e+01 -3.176987543702125549e-02 7.927294373512268066e-01 2.282878607511520386e-01 -1.294038891792297363e-01
1.267000000000000000e+03 2.262994050979614258e+00 3.457796096801757812e+01 -6.771721411496400833e-03 9.777088165283203125e-01 2.912811338901519775e-01 -2.213478088378906250e-02
1.268000000000000000e+03 3.439706087112426758e+00 3.607142639160156250e+01 -3.279018681496381760e-03 1.020734548568725586e+00 3.052366673946380615e-01 -1.175707299262285233e-02
1.269000000000000000e+03 4.239290237426757812e+00 3.320909118652343750e+01 -4.068021103739738464e-02 1.067015290260314941e+00 3.079005181789398193e-01 -4.532532393932342529e-02
1.270000000000000000e+03 4.154779434204101562e+00 3.156497955322265625e+01 -5.497704446315765381e-02 1.056136608123779297e+00 3.003478646278381348e-01 -7.353620976209640503e-02
1.271000000000000000e+03 4.612759113311767578e+00 -3.593434143066406250e+01 -1.054119393229484558e-01 4.314239501953125000e+00 1.262648224830627441e+00 1.473384052515029907e-01
1.272000000000000000e+03 4.376682281494140625e+00 -3.422753524780273438e+01 -1.808762997388839722e-01 4.326506614685058594e+00 1.243689060211181641e+00 2.130398750305175781e-01
1.273000000000000000e+03 3.472417116165161133e+00 -2.994804191589355469e+01 -1.789051294326782227e-01 4.298495292663574219e+00 1.235877037048339844e+00 4.782075583934783936e-01
1.274000000000000000e+03 2.036908864974975586e+00 -2.878984069824218750e+01 -6.801912188529968262e-02 4.237358093261718750e+00 1.250801682472229004e+00 4.339705109596252441e-01
1.275000000000000000e+03 2.007305860519409180e+00 2.173029708862304688e+01 -3.612772375345230103e-02 3.403609693050384521e-01 9.126996994018554688e-02 -2.842791378498077393e-01
1.276000000000000000e+03 3.398485183715820312e+00 2.299444580078125000e+01 -8.504195511341094971e-02 7.370197772979736328e-01 1.955933421850204468e-01 -3.577655851840972900e-01
1.277000000000000000e+03 2.748322010040283203e+00 -1.192833805084228516e+01 4.363552927970886230e-01 3.715466856956481934e-01 2.423706054687500000e-01 -8.485283255577087402e-01
1.278000000000000000e+03 1.586230874061584473e+00 -7.832173347473144531e+00 -5.252188071608543396e-02 -8.439006805419921875e-01 -2.689267694950103760e-01 -5.859217643737792969e-01
1.279000000000000000e+03 3.227958440780639648e+00 1.719995689392089844e+01 2.690422907471656799e-02 2.519297897815704346e-01 8.365020900964736938e-02 -4.691042006015777588e-01
1.280000000000000000e+03 2.882846832275390625e+00 1.152995967864990234e+01 1.531760543584823608e-01 -3.068029284477233887e-01 -4.608806222677230835e-02 -1.011138856410980225e-01
1.281000000000000000e+03 4.432515621185302734e+00 -1.819181060791015625e+01 3.461396396160125732e-01 4.262969970703125000e+00 1.382732868194580078e+00 2.122897386550903320e+00
1.282000000000000000e+03 1.649104118347167969e+00 -1.471056079864501953e+01 4.317235648632049561e-01 -1.769360184669494629e+00 -4.012909829616546631e-01 5.058600306510925293e-01
1.283000000000000000e+03 3.795432090759277344e+00 -1.176300621032714844e+01 6.908758282661437988e-01 2.443516492843627930e+00 9.403176903724670410e-01 -7.567633986473083496e-01
1.284000000000000000e+03 4.518794059753417969e+00 -4.954174518585205078e+00 -1.341951042413711548e-01 1.347856760025024414e+00 3.640985190868377686e-01 2.284023165702819824e-01
1.285000000000000000e+03 2.463939666748046875e+00 7.356448650360107422e+00 1.087351813912391663e-01 -4.975304007530212402e-01 -1.166385635733604431e-01 2.453517913818359375e-01
1.286000000000000000e+03 1.425151228904724121e+00 6.159097194671630859e+00 4.326815903186798096e-02 -7.622038722038269043e-01 -2.156807035207748413e-01 2.501517236232757568e-01
1.287000000000000000e+03 1.853437781333923340e+00 1.459404468536376953e+01 5.208584293723106384e-02 -5.902305245399475098e-01 -1.614434123039245605e-01 -2.472205311059951782e-01
1.288000000000000000e+03 3.180998325347900391e+00 1.574341487884521484e+01 8.865147829055786133e-02 9.064105153083801270e-02 5.378775671124458313e-02 -4.227134883403778076e-01
1.289000000000000000e+03 2.660694599151611328e+00 8.711933135986328125e+00 1.326072663068771362e-01 -4.595336914062500000e-01 -9.807793051004409790e-02 1.596798598766326904e-01
1.290000000000000000e+03 2.609325170516967773e+00 -7.896138668060302734e+00 -2.558451890945434570e-01 4.533180296421051025e-01 5.924184620380401611e-02 -7.339697480201721191e-01
1.291000000000000000e+03 3.361248731613159180e+00 -2.861332893371582031e+01 -2.851788103580474854e-01 4.205772876739501953e+00 1.176178216934204102e+00 6.354551315307617188e-01
1.292000000000000000e+03 3.299346446990966797e+00 -2.150994300842285156e+01 -2.887952625751495361e-01 3.172264337539672852e+00 8.650407195091247559e-01 1.820478558540344238e+00
1.293000000000000000e+03 2.791997671127319336e+00 -1.584444904327392578e+01 6.370389461517333984e-01 8.305101990699768066e-01 4.402647316455841064e-01 1.298930048942565918e+00
1.294000000000000000e+03 3.315624475479125977e+00 -2.299866867065429688e+01 -4.488936364650726318e-01 3.512890815734863281e+00 9.191991686820983887e-01 1.542055845260620117e+00
1.295000000000000000e+03 2.654445886611938477e+00 -3.586437606811523438e+01 -8.192048221826553345e-02 4.761805534362792969e+00 1.403965473175048828e+00 9.129529446363449097e-02
1.296000000000000000e+03 2.671060562133789062e+00 -1.058100032806396484e+01 4.993645474314689636e-02 4.361626505851745605e-01 1.458297371864318848e-01 -9.004027843475341797e-01
1.297000000000000000e+03 2.623487234115600586e+00 -9.247087478637695312e+00 -1.194589957594871521e-01 3.171663284301757812e-01 5.931219831109046936e-02 -9.195867776870727539e-01
1.298000000000000000e+03 3.367940902709960938e+00 2.156329917907714844e+01 -6.805804371833801270e-02 6.428809762001037598e-01 1.724468767642974854e-01 -4.016361832618713379e-01
1.299000000000000000e+03 4.041604995727539062e+00 -3.269489669799804688e+01 -1.345960348844528198e-01 4.353376388549804688e+00 1.265634059906005859e+00 2.913618385791778564e-01
1.300000000000000000e+03 5.585125923156738281e+00 -3.223422622680664062e+01 -3.038965761661529541e-01 4.182354450225830078e+00 1.163537263870239258e+00 3.372196853160858154e-01
1.301000000000000000e+03 1.995884060859680176e+00 -2.458218765258789062e+01 -2.332467436790466309e-01 3.217375755310058594e+00 8.952386975288391113e-01 9.306849837303161621e-01
1.302000000000000000e+03 3.336865663528442383e+00 -2.588222122192382812e+01 -3.937290310859680176e-01 3.932365417480468750e+00 1.061590909957885742e+00 1.027396082878112793e+00
1.303000000000000000e+03 4.676929473876953125e+00 -2.579772949218750000e+01 -5.584567189216613770e-01 4.255856037139892578e+00 1.109219789505004883e+00 1.070265293121337891e+00
1.304000000000000000e+03 2.685122013092041016e+00 -1.457236576080322266e+01 9.993101954460144043e-01 2.874284386634826660e-01 3.860215842723846436e-01 5.786668062210083008e-01
1.305000000000000000e+03 2.728062152862548828e+00 -1.327381896972656250e+01 9.763289690017700195e-01 2.700589597225189209e-01 3.739163875579833984e-01 -2.115413099527359009e-01
1.306000000000000000e+03 2.786088943481445312e+00 1.012148475646972656e+01 1.586155444383621216e-01 -3.909476995468139648e-01 -6.969964504241943359e-02 1.670758053660392761e-02
1.307000000000000000e+03 4.159913539886474609e+00 1.261871719360351562e+01 2.608434855937957764e-01 3.072236776351928711e-01 1.704201549291610718e-01 -2.613873183727264404e-01
1.308000000000000000e+03 2.991037368774414062e+00 1.293198394775390625e+01 1.512975245714187622e-01 -1.900449246168136597e-01 -1.162422168999910355e-02 -2.388590276241302490e-01
1.309000000000000000e+03 3.269437551498413086e+00 1.866984176635742188e+01 -1.287849899381399155e-02 3.923230469226837158e-01 1.138333678245544434e-01 -4.739772379398345947e-01
1.310000000000000000e+03 6.610644531250000000e+01 -2.128301048278808594e+01 -5.497416257858276367e-01 5.964851856231689453e+00 1.624533057212829590e+00 1.245991230010986328e+00
1.311000000000000000e+03 5.712350845336914062e+01 -8.230605125427246094e+00 -2.950995683670043945e+00 -5.778550505638122559e-01 -1.058655261993408203e+00 -1.287353515625000000e+00
1.312000000000000000e+03 5.602633666992187500e+01 -8.950016021728515625e+00 -2.856427669525146484e+00 -5.305284857749938965e-01 -1.016086816787719727e+00 -1.284823536872863770e+00
1.313000000000000000e+03 1.580605792999267578e+01 -2.650818061828613281e+01 -3.695310056209564209e-01 1.772136926651000977e+00 4.207817614078521729e-01 -5.560705065727233887e-01
1.314000000000000000e+03 3.127641868591308594e+01 -3.432334899902343750e+01 -4.139332473278045654e-01 -1.723196059465408325e-01 -1.758758574724197388e-01 2.079065889120101929e-01
1.315000000000000000e+03 3.325066757202148438e+01 -3.729307937622070312e+01 -2.267497628927230835e-01 -2.130141109228134155e-01 -1.319291591644287109e-01 1.095010191202163696e-01
1.316000000000000000e+03 1.281904506683349609e+01 1.187021160125732422e+01 1.239684820175170898e+00 6.115590572357177734e+00 2.206582546234130859e+00 3.787243068218231201e-01
1.317000000000000000e+03 4.338562393188476562e+01 -3.646960830688476562e+01 -2.915123701095581055e-01 -3.090219795703887939e-01 -1.801602989435195923e-01 -2.465536743402481079e-01
1.318000000000000000e+03 4.501193618774414062e+01 -3.357002639770507812e+01 -5.601546168327331543e-01 -2.497604638338088989e-01 -2.429745197296142578e-01 -3.689524829387664795e-01
1.319000000000000000e+03 5.443482971191406250e+01 -3.182992172241210938e+01 -5.166187882423400879e-01 -1.204371079802513123e-01 -1.911167651414871216e-01 -4.297802150249481201e-01
1.320000000000000000e+03 4.773785400390625000e+01 -3.496728897094726562e+01 -2.496338486671447754e-01 -3.783551156520843506e-01 -1.883966922760009766e-01 -4.480271935462951660e-01
1.321000000000000000e+03 5.666999816894531250e+01 -2.974032211303710938e+01 -7.838261127471923828e-01 -1.198282279074192047e-02 -2.387426793575286865e-01 -3.689674139022827148e-01
1.322000000000000000e+03 6.148609161376953125e+01 -2.461765861511230469e+01 -7.988010644912719727e-01 1.298970699310302734e+00 1.500508934259414673e-01 1.523335725069046021e-01
1.323000000000000000e+03 3.498718261718750000e+01 -3.564622116088867188e+01 -3.750696480274200439e-01 -1.273533105850219727e-01 -1.507268846035003662e-01 9.687442332506179810e-02
1.324000000000000000e+03 5.262333679199218750e+01 -1.100316333770751953e+01 -2.556664466857910156e+00 -3.937646448612213135e-01 -8.851287364959716797e-01 -1.191224455833435059e+00
1.325000000000000000e+03 4.470240783691406250e+01 -3.506000137329101562e+01 -3.726303279399871826e-01 -2.960895299911499023e-01 -2.006159573793411255e-01 -3.378599882125854492e-01
1.326000000000000000e+03 2.313249397277832031e+01 3.707768917083740234e+00 3.766037940979003906e+00 3.366711139678955078e+00 2.139824628829956055e+00 3.053885698318481445e+00
1.327000000000000000e+03 6.952294158935546875e+01 -1.699061012268066406e+01 -9.568094462156295776e-02 1.155850791931152344e+01 3.438848257064819336e+00 -7.804583758115768433e-02
1.328000000000000000e+03 7.045452880859375000e+01 -1.617459106445312500e+01 4.879727959632873535e-01 1.220288753509521484e+01 3.807257890701293945e+00 -3.035013377666473389e-01
1.329000000000000000e+03 2.118679809570312500e+01 -3.325695419311523438e+01 -2.209581583738327026e-01 5.054087042808532715e-01 8.533515781164169312e-02 -3.920818492770195007e-02
1.330000000000000000e+03 3.790922164916992188e+01 -3.493521499633789062e+01 -4.085199236869812012e-01 -1.201706975698471069e-01 -1.586071848869323730e-01 -2.913634665310382843e-02
1.331000000000000000e+03 2.131560134887695312e+01 1.715810894966125488e+00 3.325064659118652344e+00 1.325395107269287109e+00 1.395137906074523926e+00 3.689913272857666016e+00
1.332000000000000000e+03 1.000179576873779297e+01 -2.023200416564941406e+01 -3.403695821762084961e-01 7.055636882781982422e+00 2.014580249786376953e+00 -1.273663520812988281e+00
1.333000000000000000e+03 1.858254051208496094e+01 -1.256323719024658203e+01 -6.806584358215332031e+00 -3.786004185676574707e-01 -2.155555486679077148e+00 2.005324125289916992e+00
1.334000000000000000e+03 9.151056289672851562e+00 -1.918301582336425781e+01 -5.464674830436706543e-01 9.510582923889160156e+00 2.689234495162963867e+00 -7.697751522064208984e-01
1.335000000000000000e+03 6.698582458496093750e+01 -2.014997482299804688e+01 -5.091594457626342773e-01 7.620563983917236328e+00 2.133421421051025391e+00 1.294364809989929199e+00
1.336000000000000000e+03 1.409477615356445312e+01 -1.071384239196777344e+01 -6.837544441223144531e+00 -1.198413848876953125e+00 -2.410787343978881836e+00 2.784278392791748047e+00
1.337000000000000000e+03 4.800198745727539062e+01 4.929636478424072266e+00 1.273177385330200195e+00 4.021135270595550537e-01 5.025872588157653809e-01 -2.330312281847000122e-01
1.338000000000000000e+03 2.774479675292968750e+01 -3.513174057006835938e+01 -2.293069511651992798e-01 -1.136702597141265869e-01 -1.028931662440299988e-01 1.621666103601455688e-01
1.339000000000000000e+03 2.784892082214355469e+01 -3.306164550781250000e+01 -4.464238286018371582e-01 -2.155798971652984619e-01 -1.986011266708374023e-01 2.371984720230102539e-01
1.340000000000000000e+03 4.130797576904296875e+01 -1.579206657409667969e+01 -2.627297163009643555e+00 1.468623429536819458e-01 -7.441304326057434082e-01 -6.029798984527587891e-01
1.341000000000000000e+03 1.955603981018066406e+01 1.910363388061523438e+01 -7.268768548965454102e-02 5.217717289924621582e-01 1.347251981496810913e-01 1.227833509445190430e+00
1.342000000000000000e+03 2.800818634033203125e+01 6.495880126953125000e+00 3.337983369827270508e+00 3.047377347946166992e+00 1.915608286857604980e+00 1.725414276123046875e+00
1.343000000000000000e+03 2.844329071044921875e+01 7.845402717590332031e+00 2.592458724975585938e+00 2.942528724670410156e+00 1.660496234893798828e+00 2.051547288894653320e+00
1.344000000000000000e+03 4.970296859741210938e+01 -3.416399002075195312e+01 -3.348674178123474121e-01 -4.296341836452484131e-01 -2.293504774570465088e-01 -4.837439656257629395e-01
1.345000000000000000e+03 2.283547592163085938e+01 -1.343337726593017578e+01 -4.739595413208007812e+00 2.356742471456527710e-01 -1.351176381111145020e+00 8.789409995079040527e-01
1.346000000000000000e+03 2.357652854919433594e+01 1.799917030334472656e+01 -5.817195773124694824e-01 3.097128570079803467e-01 -8.160200715065002441e-02 1.345719695091247559e-01
1.347000000000000000e+03 9.009222984313964844e+00 -1.717664909362792969e+01 7.061185836791992188e-01 1.313894557952880859e+01 4.153519153594970703e+00 -1.227258920669555664e+00
1.348000000000000000e+03 2.426407051086425781e+01 3.534238338470458984e+00 3.442393302917480469e+00 3.576423406600952148e+00 2.105644941329956055e+00 2.630248785018920898e+00
1.349000000000000000e+03 4.162948226928710938e+01 1.718928146362304688e+01 1.113000273704528809e+00 2.105933904647827148e+00 9.656803011894226074e-01 8.843677639961242676e-01
1.350000000000000000e+03 5.558830261230468750e+01 3.649547338485717773e+00 6.634821891784667969e-01 6.282988786697387695e-01 3.875343203544616699e-01 -3.849245309829711914e-01
1.351000000000000000e+03 5.278493499755859375e+01 5.969505786895751953e+00 1.143088817596435547e+00 1.651305705308914185e-01 3.924658298492431641e-01 9.235466271638870239e-02
1.352000000000000000e+03 2.467732620239257812e+01 1.706157684326171875e+01 -8.741838932037353516e-01 8.564370870590209961e-01 -5.324044730514287949e-03 2.321389690041542053e-02
1.353000000000000000e+03 3.922591018676757812e+01 1.355088138580322266e+01 8.392728567123413086e-01 1.813681244850158691e+00 7.958862185478210449e-01 1.138489842414855957e+00
1.354000000000000000e+03 4.158626937866210938e+01 1.061722755432128906e+01 4.305577576160430908e-01 1.588319778442382812e+00 6.056632399559020996e-01 3.860677778720855713e-01
1.355000000000000000e+03 1.572546100616455078e+01 -2.860667800903320312e+01 -4.650316536426544189e-01 1.920391798019409180e+00 4.366080164909362793e-01 -4.486682713031768799e-01
1.356000000000000000e+03 5.569625091552734375e+01 1.813403129577636719e+01 7.033830881118774414e-01 3.000425100326538086e+00 1.111142396926879883e+00 -8.507700562477111816e-01
1.357000000000000000e+03 5.254418182373046875e+01 2.208979415893554688e+01 1.033038973808288574e+00 1.727356433868408203e+00 8.281186223030090332e-01 -6.216197609901428223e-01
1.358000000000000000e+03 4.693759536743164062e+01 4.466521739959716797e+00 1.191859483718872070e+00 2.933006882667541504e-01 4.455480575561523438e-01 -8.795730024576187134e-02
1.359000000000000000e+03 1.090795326232910156e+01 -2.129664421081542969e+01 -3.560708165168762207e-01 5.968204498291015625e+00 1.683640122413635254e+00 -1.319320201873779297e+00
1.360000000000000000e+03 1.548320484161376953e+01 1.872223854064941406e+01 -4.988214671611785889e-01 2.982667922973632812e+00 7.451539635658264160e-01 1.111086606979370117e+00
1.361000000000000000e+03 1.686420249938964844e+01 1.745173645019531250e+01 -3.205209970474243164e-01 2.625296354293823242e+00 6.914325952529907227e-01 1.571071147918701172e+00
1.362000000000000000e+03 4.939344024658203125e+01 2.203301811218261719e+01 1.207759976387023926e+00 1.093573093414306641e+00 6.903999447822570801e-01 5.231035128235816956e-02
1.363000000000000000e+03 4.014664077758789062e+01 1.403738594055175781e+01 8.432940840721130371e-01 1.955585479736328125e+00 8.396638631820678711e-01 1.025311946868896484e+00
1.364000000000000000e+03 1.975779914855957031e+01 -1.323715305328369141e+01 -6.040550231933593750e+00 -4.677436053752899170e-01 -1.952488183975219727e+00 1.798190832138061523e+00
1.365000000000000000e+03 5.446690368652343750e+01 2.046576309204101562e+01 7.576560378074645996e-01 2.440758943557739258e+00 9.595244526863098145e-01 -9.226887226104736328e-01
1.366000000000000000e+03 1.256449794769287109e+01 1.636555671691894531e+01 1.144697293639183044e-01 3.997730970382690430e+00 1.233660221099853516e+00 -7.503748685121536255e-02
1.367000000000000000e+03 1.386562728881835938e+01 -9.215188026428222656e+00 -3.265677452087402344e+00 6.175484657287597656e-01 -7.944386601448059082e-01 3.607124328613281250e+00
1.368000000000000000e+03 5.702623367309570312e+01 1.719918441772460938e+01 9.399059414863586426e-01 3.144611597061157227e+00 1.225355267524719238e+00 -7.442385554313659668e-01
1.369000000000000000e+03 1.949235534667968750e+01 -1.156492710113525391e+01 -5.269974231719970703e+00 2.148320078849792480e-01 -1.516542673110961914e+00 7.417289018630981445e-01
1.370000000000000000e+03 5.749852371215820312e+01 1.032089805603027344e+01 3.655006885528564453e-01 2.586321115493774414e+00 8.855465650558471680e-01 -6.271213889122009277e-01
1.371000000000000000e+03 4.157223892211914062e+01 9.438882827758789062e+00 5.016766786575317383e-01 1.277655243873596191e+00 5.337995886802673340e-01 1.628758609294891357e-01
1.372000000000000000e+03 4.276037979125976562e+01 1.801377868652343750e+01 9.361414313316345215e-01 2.152006626129150391e+00 9.264444112777709961e-01 8.038611412048339844e-01
1.373000000000000000e+03 4.165831375122070312e+01 1.920129966735839844e+01 8.035217523574829102e-01 2.097862005233764648e+00 8.704151511192321777e-01 8.144378662109375000e-01
1.374000000000000000e+03 1.816864204406738281e+01 2.829710006713867188e+00 3.059565782546997070e+00 -3.922953009605407715e-01 8.001810908317565918e-01 2.691330432891845703e+00
1.375000000000000000e+03 2.032614707946777344e+01 1.526731014251708984e+00 4.228380680084228516e+00 6.023614406585693359e-01 1.449222683906555176e+00 3.648454189300537109e+00
1.376000000000000000e+03 7.159603881835937500e+01 -1.345237255096435547e+01 2.259517908096313477e+00 1.339323329925537109e+01 4.695825576782226562e+00 -1.128128170967102051e+00
1.377000000000000000e+03 7.074092864990234375e+01 -1.217407321929931641e+01 2.699806928634643555e+00 1.485927295684814453e+01 5.267724037170410156e+00 -8.235852122306823730e-01
1.378000000000000000e+03 4.011220932006835938e+01 1.188681030273437500e+01 6.904263496398925781e-01 1.805116176605224609e+00 7.486627697944641113e-01 9.296796321868896484e-01
1.379000000000000000e+03 4.020964431762695312e+01 1.063092327117919922e+01 6.318506598472595215e-01 1.553015351295471191e+00 6.554597616195678711e-01 6.700483560562133789e-01
1.380000000000000000e+03 5.557889556884765625e+01 4.992374897003173828e+00 7.197889089584350586e-01 7.549240589141845703e-01 4.424138665199279785e-01 -2.520958185195922852e-01
1.381000000000000000e+03 4.871520233154296875e+01 -1.449479293823242188e+01 -2.482214212417602539e+00 -2.909392118453979492e-01 -8.319460153579711914e-01 -1.070826172828674316e+00
1.382000000000000000e+03 6.948961639404296875e+01 -7.159986972808837891e+00 1.060320496559143066e+00 1.568745803833007812e+01 5.024333477020263672e+00 -2.673040926456451416e-01
1.383000000000000000e+03 1.229630088806152344e+01 1.413764572143554688e+01 8.306601047515869141e-01 4.498852729797363281e+00 1.598853826522827148e+00 -1.107085421681404114e-01
1.384000000000000000e+03 6.596537017822265625e+01 -5.270658969879150391e+00 -4.281982481479644775e-01 4.330893993377685547e+00 1.170808792114257812e+00 -5.837403774261474609e+00
1.385000000000000000e+03 5.839682388305664062e+01 1.640469360351562500e+01 1.026064395904541016e+00 3.301128149032592773e+00 1.298157811164855957e+00 -8.670968413352966309e-01
1.386000000000000000e+03 7.255287170410156250e+01 -3.978548288345336914e+00 -8.968268632888793945e-01 1.021108150482177734e+01 2.794276475906372070e+00 6.164430975914001465e-01
1.387000000000000000e+03 6.947127532958984375e+01 -4.694309234619140625e+00 -2.113461256027221680e+00 1.165390300750732422e+01 2.862132549285888672e+00 -1.433930277824401855e+00
1.388000000000000000e+03 4.749419212341308594e+00 -4.058021545410156250e+01 2.815071260556578636e-03 4.502412319183349609e+00 1.351568222045898438e+00 9.734714031219482422e-02
1.389000000000000000e+03 2.169548416137695312e+01 -1.286346244812011719e+01 -4.958085536956787109e+00 1.878907829523086548e-01 -1.431058406829833984e+00 9.013690948486328125e-01
1.390000000000000000e+03 2.056989097595214844e+01 -1.223938179016113281e+01 -5.263681888580322266e+00 1.909247785806655884e-01 -1.521827101707458496e+00 9.180148243904113770e-01
1.391000000000000000e+03 6.628218078613281250e+01 -3.998882293701171875e+00 -1.529731750488281250e+00 5.784168243408203125e+00 1.276330947875976562e+00 -4.118800163269042969e+00
1.392000000000000000e+03 1.052509784698486328e+01 -2.540982246398925781e+00 4.649311542510986328e+00 1.705476045608520508e+00 1.906436324119567871e+00 4.384462833404541016e+00
1.393000000000000000e+03 1.013045787811279297e+01 -2.256930351257324219e+00 4.196689605712890625e+00 8.859197497367858887e-01 1.524782776832580566e+00 3.317636966705322266e+00
1.394000000000000000e+03 1.225195693969726562e+01 1.688236594200134277e+00 4.559988081455230713e-01 6.961981773376464844e+00 2.225394248962402344e+00 -3.449184417724609375e+00
1.395000000000000000e+03 1.079143905639648438e+01 -2.182454347610473633e+00 5.512735843658447266e+00 1.551008939743041992e+00 2.119123458862304688e+00 4.190877914428710938e+00
1.396000000000000000e+03 1.398301601409912109e+01 3.596604108810424805e+00 -1.739960789680480957e+00 7.337878227233886719e+00 1.679375290870666504e+00 -8.814108371734619141e-01
1.397000000000000000e+03 1.078625106811523438e+01 -2.509201526641845703e+00 5.041970729827880859e+00 2.405649662017822266e+00 2.234286069869995117e+00 4.865436553955078125e+00
1.398000000000000000e+03 8.982692718505859375e+00 -2.659606218338012695e+00 2.438950061798095703e+00 1.033232808113098145e+00 1.041654944419860840e+00 2.554838180541992188e+00
1.399000000000000000e+03 1.308484745025634766e+01 -3.063306808471679688e+00 3.378416538238525391e+00 1.042350578308105469e+01 4.140576839447021484e+00 4.435154914855957031e+00
1.400000000000000000e+03 1.379287052154541016e+01 1.461981773376464844e+00 6.865843534469604492e-01 1.100924491882324219e+01 3.508748769760131836e+00 3.914523720741271973e-01
1.401000000000000000e+03 1.556303787231445312e+01 3.714693307876586914e+00 -1.089640736579895020e+00 4.761184215545654297e+00 1.101462960243225098e+00 2.562735080718994141e-01
1.402000000000000000e+03 7.780042648315429688e+00 -3.076911211013793945e+00 1.345313906669616699e+00 1.203852295875549316e+00 7.647498250007629395e-01 2.019787549972534180e+00
1.403000000000000000e+03 7.782351970672607422e+00 3.842968463897705078e+00 1.693515926599502563e-01 9.874934554100036621e-01 3.470534980297088623e-01 -2.058744281530380249e-01
1.404000000000000000e+03 1.261206722259521484e+01 -2.977370500564575195e+00 3.712658882141113281e+00 1.016672611236572266e+01 4.163815498352050781e+00 5.730549812316894531e+00
1.405000000000000000e+03 1.207117652893066406e+01 -2.773107290267944336e+00 4.845322132110595703e+00 7.303667068481445312e+00 3.644696712493896484e+00 6.940443992614746094e+00
1.406000000000000000e+03 3.743609428405761719e+00 5.294657230377197266e+00 1.217090487480163574e-01 -1.005748882889747620e-01 6.340248975902795792e-03 4.222770035266876221e-01
1.407000000000000000e+03 7.904898166656494141e+00 3.129645347595214844e+00 8.949843049049377441e-02 7.736183404922485352e-01 2.589350342750549316e-01 -2.326410859823226929e-01
1.408000000000000000e+03 5.115758419036865234e+00 4.268306255340576172e+00 1.133569031953811646e-01 2.115442454814910889e-01 9.747034311294555664e-02 3.964225649833679199e-01
1.409000000000000000e+03 4.443523406982421875e+00 4.668141365051269531e+00 1.066886857151985168e-01 9.737840294837951660e-02 6.122012808918952942e-02 4.381007552146911621e-01
1.410000000000000000e+03 8.449172973632812500e+00 3.865885972976684570e+00 1.775956898927688599e-01 1.403066158294677734e+00 4.741985499858856201e-01 -5.143156647682189941e-01
1.411000000000000000e+03 7.110423088073730469e+00 3.860740661621093750e+00 1.508077085018157959e-01 7.124833464622497559e-01 2.589873075485229492e-01 6.957298144698143005e-03
1.412000000000000000e+03 6.459007263183593750e+00 3.219598770141601562e+00 -1.696199737489223480e-02 3.591531217098236084e-01 1.026573404669761658e-01 2.250584065914154053e-01
1.413000000000000000e+03 1.310879826545715332e+00 4.744407653808593750e+00 1.640830934047698975e-02 -5.956283807754516602e-01 -1.737660318613052368e-01 2.879311442375183105e-01
1.414000000000000000e+03 2.871397256851196289e+00 3.920271158218383789e+00 -5.796778015792369843e-03 -2.370827645063400269e-01 -7.286386191844940186e-02 4.499309957027435303e-01
1.415000000000000000e+03 3.675730228424072266e+00 -6.815698146820068359e+00 -3.720867037773132324e-01 1.516439080238342285e+00 3.433057069778442383e-01 -3.523426353931427002e-01
1.416000000000000000e+03 6.605237960815429688e+00 -4.011965274810791016e+00 4.374055862426757812e-01 1.593182802200317383e+00 6.091765165328979492e-01 1.373337030410766602e+00
1.417000000000000000e+03 5.238088607788085938e+00 -4.533771991729736328e+00 1.635511964559555054e-02 1.407806634902954102e+00 4.272485375404357910e-01 5.493015646934509277e-01
1.418000000000000000e+03 5.935284137725830078e+00 -4.246557712554931641e+00 2.220775038003921509e-01 1.602733373641967773e+00 5.474432706832885742e-01 1.038961648941040039e+00
1.419000000000000000e+03 3.232274532318115234e+00 -4.258124828338623047e+00 -2.941421791911125183e-02 4.895766675472259521e-01 1.380487382411956787e-01 -1.988102048635482788e-01
1.420000000000000000e+03 2.687384128570556641e+00 -6.504374027252197266e+00 -1.733463555574417114e-01 3.914172053337097168e-01 6.542126089334487915e-02 -4.817861020565032959e-01
1.421000000000000000e+03 1.530582141876220703e+01 1.107760667800903320e+00 4.593693256378173828e+00 6.822352886199951172e+00 3.424813747406005859e+00 3.135803699493408203e+00
1.422000000000000000e+03 1.633843994140625000e+01 -4.948318004608154297e-03 7.329839706420898438e+00 3.617630004882812500e+00 3.284240961074829102e+00 2.774912595748901367e+00
1.423000000000000000e+03 1.484549140930175781e+01 -3.519427537918090820e+00 3.817491531372070312e+00 7.493216991424560547e+00 3.393212556838989258e+00 7.114912271499633789e-01
1.424000000000000000e+03 1.027479934692382812e+01 2.598271608352661133e+00 3.123681247234344482e-01 2.276304721832275391e+00 7.766018509864807129e-01 -1.744871735572814941e+00
1.425000000000000000e+03 1.598999118804931641e+01 -3.305268287658691406e+00 4.930244445800781250e+00 4.716016769409179688e+00 2.893878459930419922e+00 7.395374029874801636e-02
1.426000000000000000e+03 1.861006355285644531e+01 2.578485310077667236e-01 5.602330684661865234e+00 7.040027379989624023e-01 1.891899943351745605e+00 2.974559783935546875e+00
1.427000000000000000e+03 1.064341163635253906e+01 -9.436143875122070312e+00 -3.080687522888183594e+00 6.020483016967773438e+00 8.819385766983032227e-01 6.684716224670410156e+00
1.428000000000000000e+03 1.112027359008789062e+01 -1.067257881164550781e+01 -5.053247451782226562e+00 5.411868572235107422e+00 1.075863987207412720e-01 7.601406574249267578e+00
1.429000000000000000e+03 3.882743835449218750e+01 -1.481299877166748047e+01 -2.559628248214721680e+00 2.809000015258789062e-01 -6.836184263229370117e-01 -5.130225419998168945e-01
1.430000000000000000e+03 1.479572677612304688e+01 5.500804424285888672e+00 -2.714277505874633789e+00 5.491632938385009766e+00 8.332065939903259277e-01 -3.168362379074096680e-01
1.431000000000000000e+03 8.172425270080566406e+00 5.346230030059814453e+00 1.899218559265136719e-01 1.767532825469970703e+00 5.872364044189453125e-01 -2.924751043319702148e-01
1.432000000000000000e+03 3.923950195312500000e+01 1.606120300292968750e+01 8.830092549324035645e-01 1.905370950698852539e+00 8.365140557289123535e-01 1.003871440887451172e+00
1.433000000000000000e+03 3.973321533203125000e+01 1.502122497558593750e+01 9.070629477500915527e-01 1.932847261428833008e+00 8.519730567932128906e-01 1.090973615646362305e+00
1.434000000000000000e+03 7.931031703948974609e+00 -1.026881504058837891e+01 -1.665243029594421387e+00 9.314970970153808594e+00 2.294918298721313477e+00 6.675531864166259766e-01
1.435000000000000000e+03 8.796406745910644531e+00 -1.092930221557617188e+01 -2.935908317565917969e+00 1.473375320434570312e+01 3.539353370666503906e+00 1.848999977111816406e+00
1.436000000000000000e+03 1.152610301971435547e+01 1.141368007659912109e+01 1.112663745880126953e+00 4.622524261474609375e+00 1.720556378364562988e+00 1.104189231991767883e-01
1.437000000000000000e+03 5.791619491577148438e+01 8.505109786987304688e+00 3.723455369472503662e-01 2.247720479965209961e+00 7.860198020935058594e-01 -5.989370942115783691e-01
1.438000000000000000e+03 5.594857025146484375e+01 7.960440635681152344e+00 3.655908405780792236e-01 1.589035153388977051e+00 5.863878130912780762e-01 -3.416823223233222961e-02
1.439000000000000000e+03 1.448771286010742188e+01 4.753670692443847656e+00 -2.763568639755249023e+00 6.019316196441650391e+00 9.767242074012756348e-01 -6.440835595130920410e-01
1.440000000000000000e+03 4.465329742431640625e+01 -1.491099834442138672e+01 -2.494089603424072266e+00 -6.819994002580642700e-02 -7.686868309974670410e-01 -8.034659624099731445e-01
1.441000000000000000e+03 4.003952026367187500e+01 -1.468391132354736328e+01 -2.528445959091186523e+00 2.534568905830383301e-01 -6.824967265129089355e-01 -5.733791589736938477e-01
1.442000000000000000e+03 3.516216659545898438e+01 -1.615702819824218750e+01 -2.954828023910522461e+00 2.752637863159179688e-01 -8.038693070411682129e-01 -1.865947842597961426e-01
1.443000000000000000e+03 3.041792297363281250e+01 -1.429148387908935547e+01 -3.157918691635131836e+00 4.645623266696929932e-01 -8.080069422721862793e-01 2.996325725689530373e-03
1.444000000000000000e+03 6.009976577758789062e+01 -5.942115783691406250e+00 -2.351051807403564453e+00 -6.113752126693725586e-01 -8.887281417846679688e-01 -1.094825148582458496e+00
1.445000000000000000e+03 5.875699615478515625e+01 -3.659621715545654297e+00 -1.048757433891296387e+00 -1.890734434127807617e-01 -3.713492751121520996e-01 -9.330385327339172363e-01
1.446000000000000000e+03 5.147941589355468750e+01 -1.164810180664062500e+01 -2.515546321868896484e+00 -3.328922986984252930e-01 -8.545315861701965332e-01 -1.146153330802917480e+00
1.447000000000000000e+03 4.847967529296875000e+01 -1.179448699951171875e+01 -2.300326347351074219e+00 -7.987014204263687134e-02 -7.140589356422424316e-01 -9.454564452171325684e-01
1.448000000000000000e+03 3.405585479736328125e+01 -1.487288570404052734e+01 -2.867981433868408203e+00 3.927715718746185303e-01 -7.425629496574401855e-01 -2.104299515485763550e-01
1.449000000000000000e+03 3.640784072875976562e+01 -1.617578506469726562e+01 -2.847165107727050781e+00 2.449231594800949097e-01 -7.806726098060607910e-01 -2.748158574104309082e-01
1.450000000000000000e+03 1.103139400482177734e+01 1.554210758209228516e+01 4.036601483821868896e-01 3.482428073883056641e+00 1.165826439857482910e+00 -4.492284655570983887e-01
1.451000000000000000e+03 2.246745491027832031e+01 -1.186833763122558594e+01 -4.196340560913085938e+00 4.918670654296875000e-01 -1.111342072486877441e+00 3.593357503414154053e-01
1.452000000000000000e+03 4.736268997192382812e+01 -1.234298324584960938e+01 -2.294344425201416016e+00 -5.214573815464973450e-02 -7.039470076560974121e-01 -9.147115349769592285e-01
1.453000000000000000e+03 4.804146194458007812e+01 -1.341236972808837891e+01 -2.443326473236083984e+00 -1.350487023591995239e-01 -7.735125422477722168e-01 -1.003616929054260254e+00
1.454000000000000000e+03 6.387382030487060547e+00 -1.554468822479248047e+01 2.594319581985473633e+00 8.306312561035156250e+00 3.270189762115478516e+00 1.925175309181213379e+00
1.455000000000000000e+03 4.575586318969726562e+01 -1.443825817108154297e+01 -2.438074827194213867e+00 -9.693344682455062866e-02 -7.605025172233581543e-01 -8.712818026542663574e-01
1.456000000000000000e+03 4.122111511230468750e+01 -1.459632301330566406e+01 -2.482848167419433594e+00 1.808423250913619995e-01 -6.906017661094665527e-01 -6.129525899887084961e-01
1.457000000000000000e+03 4.996202850341796875e+01 -9.559318542480468750e+00 -2.115461111068725586e+00 -6.212488189339637756e-02 -6.532757878303527832e-01 -8.475075364112854004e-01
1.458000000000000000e+03 4.127659606933593750e+01 -1.335769081115722656e+01 -2.313578367233276367e+00 2.383255958557128906e-01 -6.225758790969848633e-01 -6.442986726760864258e-01
1.459000000000000000e+03 3.643979644775390625e+01 -1.498141574859619141e+01 -2.692326545715332031e+00 3.279132246971130371e-01 -7.093239426612854004e-01 -3.726806044578552246e-01
1.460000000000000000e+03 3.765234756469726562e+01 -1.613524627685546875e+01 -2.756695747375488281e+00 2.180055230855941772e-01 -7.616070508956909180e-01 -3.891041874885559082e-01
1.461000000000000000e+03 5.407744598388671875e+01 -8.719137191772460938e+00 -2.451216220855712891e+00 -3.016628921031951904e-01 -8.258637189865112305e-01 -1.031004667282104492e+00
1.462000000000000000e+03 3.164394378662109375e+01 -1.451121520996093750e+01 -3.046146392822265625e+00 4.351659417152404785e-01 -7.832941412925720215e-01 -6.613775342702865601e-02
1.463000000000000000e+03 1.403211975097656250e+01 8.715899467468261719e+00 7.627171874046325684e-01 7.906171321868896484e+00 2.600666522979736328e+00 -5.537693500518798828e-01
1.464000000000000000e+03 2.113876533508300781e+01 2.666688919067382812e+00 3.065067291259765625e+00 1.742367386817932129e+00 1.442230343818664551e+00 3.499012470245361328e+00
1.465000000000000000e+03 1.548083591461181641e+01 -1.008448410034179688e+01 -4.746971130371093750e+00 -1.263961195945739746e-01 -1.462010145187377930e+00 1.482168555259704590e+00
1.466000000000000000e+03 2.701343154907226562e+01 -1.242165565490722656e+01 -3.227637052536010742e+00 5.859248042106628418e-01 -7.925136685371398926e-01 3.668924048542976379e-02
1.467000000000000000e+03 6.605136871337890625e+01 -2.339568710327148438e+01 -8.940630555152893066e-01 5.638098239898681641e+00 1.423210620880126953e+00 8.249245882034301758e-01
1.468000000000000000e+03 6.040174484252929688e+01 -2.557818222045898438e+01 -9.861444830894470215e-01 6.869785189628601074e-01 -8.974979072809219360e-02 -1.090008839964866638e-01
1.469000000000000000e+03 6.197094345092773438e+01 -2.802904129028320312e+01 -6.657993197441101074e-01 2.401566267013549805e+00 5.207300782203674316e-01 3.636948466300964355e-01
1.470000000000000000e+03 1.506180858612060547e+01 4.355517864227294922e+00 -2.026568174362182617e+00 5.738010406494140625e+00 1.113432645797729492e+00 -3.550119996070861816e-01
1.471000000000000000e+03 1.521565246582031250e+01 1.846336364746093750e+00 1.725287079811096191e+00 7.311594963073730469e+00 2.711064577102661133e+00 1.999274253845214844e+00
1.472000000000000000e+03 3.285624313354492188e+01 -1.471045303344726562e+01 -2.943300724029541016e+00 4.198148846626281738e-01 -7.570457458496093750e-01 -1.484151631593704224e-01
1.473000000000000000e+03 5.222071838378906250e+01 4.451080322265625000e+00 1.049425840377807617e+00 1.542814671993255615e-01 3.611122071743011475e-01 -1.486983746290206909e-01
1.474000000000000000e+03 2.221974754333496094e+01 -3.584967041015625000e+01 -7.824667543172836304e-02 5.041478872299194336e-01 1.277703642845153809e-01 -3.403222188353538513e-02
1.475000000000000000e+03 2.524280166625976562e+01 -3.567075347900390625e+01 -1.181043982505798340e-01 3.050234913825988770e-02 -2.628061547875404358e-02 1.075912266969680786e-01
1.476000000000000000e+03 7.549918365478515625e+01 1.312481307983398438e+01 3.183230385184288025e-02 6.740483760833740234e+00 2.031694889068603516e+00 -5.733699798583984375e-01
1.477000000000000000e+03 7.574519348144531250e+01 -1.039365768432617188e+00 -5.624727606773376465e-01 8.443201065063476562e+00 2.364218473434448242e+00 7.058813571929931641e-01
1.478000000000000000e+03 7.366326904296875000e+01 -1.020604991912841797e+01 2.046518325805664062e+00 1.039119338989257812e+01 3.731313467025756836e+00 4.469035565853118896e-02
1.479000000000000000e+03 7.546731567382812500e+01 -1.603495216369628906e+01 3.254381418228149414e-01 9.074918746948242188e+00 2.820106983184814453e+00 -1.658005952835083008e+00
1.480000000000000000e+03 7.666361236572265625e+01 -1.459550285339355469e+01 4.726979732513427734e-01 7.879884719848632812e+00 2.505774736404418945e+00 -1.357036113739013672e+00
1.481000000000000000e+03 7.707350158691406250e+01 -6.634379863739013672e+00 2.329988032579421997e-01 7.271830081939697266e+00 2.251448631286621094e+00 1.035818457603454590e+00
1.482000000000000000e+03 7.599604797363281250e+01 -6.574308395385742188e+00 2.865850627422332764e-01 8.162150382995605469e+00 2.534620523452758789e+00 1.201760172843933105e+00
1.483000000000000000e+03 7.586903381347656250e+01 -3.805835247039794922e+00 -2.976659536361694336e-01 8.451558113098144531e+00 2.446167707443237305e+00 1.200433969497680664e+00
1.484000000000000000e+03 7.373000335693359375e+01 -1.196802711486816406e+01 1.982531189918518066e+00 1.043171024322509766e+01 3.724272489547729492e+00 -8.540722131729125977e-01
1.485000000000000000e+03 7.696540069580078125e+01 -1.195424175262451172e+01 5.795072913169860840e-01 7.077665328979492188e+00 2.297151803970336914e+00 -4.718073904514312744e-01
1.486000000000000000e+03 7.458071136474609375e+01 -8.841754913330078125e+00 1.410138249397277832e+00 9.142684936523437500e+00 3.165846824645996094e+00 5.952422022819519043e-01
1.487000000000000000e+03 7.599489593505859375e+01 -7.999142646789550781e+00 6.374487280845642090e-01 7.956685543060302734e+00 2.578240156173706055e+00 9.308553934097290039e-01
1.488000000000000000e+03 7.593849945068359375e+01 -5.188707828521728516e+00 2.147662453353404999e-02 8.263422966003417969e+00 2.485469818115234375e+00 1.266906738281250000e+00
1.489000000000000000e+03 7.684004211425781250e+01 1.698230743408203125e+00 -2.862275838851928711e-01 8.178143501281738281e+00 2.367574930191040039e+00 1.912707537412643433e-01
1.490000000000000000e+03 7.560883331298828125e+01 1.714267730712890625e+00 -5.089755058288574219e-01 8.155637741088867188e+00 2.293998718261718750e+00 1.336809098720550537e-01
1.491000000000000000e+03 7.544981384277343750e+01 6.010185718536376953e+00 -2.411643117666244507e-01 7.586637973785400391e+00 2.203642129898071289e+00 -4.429937601089477539e-01
1.492000000000000000e+03 7.543718719482421875e+01 -1.921806335449218750e+01 -2.706533372402191162e-01 9.404269218444824219e+00 2.740084648132324219e+00 -1.629329681396484375e+00
1.493000000000000000e+03 7.312230682373046875e+01 3.271940612792968750e+01 9.234149008989334106e-02 5.180173397064208984e+00 1.581754446029663086e+00 -2.238270938396453857e-01
1.494000000000000000e+03 7.526639556884765625e+01 3.397870254516601562e+01 3.966112807393074036e-02 5.381115436553955078e+00 1.626232862472534180e+00 -1.307880729436874390e-01
1.495000000000000000e+03 7.489286804199218750e+01 3.090270805358886719e+01 5.457596480846405029e-02 5.421640872955322266e+00 1.642865061759948730e+00 -2.052610665559768677e-01
1.496000000000000000e+03 7.549783325195312500e+01 3.127591609954833984e+00 -4.119269847869873047e-01 7.956907749176025391e+00 2.263494253158569336e+00 -1.494778096675872803e-01
1.497000000000000000e+03 7.568811798095703125e+01 3.352105617523193359e-01 -5.401741862297058105e-01 8.316576957702636719e+00 2.332920789718627930e+00 3.508727252483367920e-01
1.498000000000000000e+03 7.543074798583984375e+01 4.567356586456298828e+00 -3.161687552928924561e-01 7.757127761840820312e+00 2.232287645339965820e+00 -2.776912152767181396e-01
1.499000000000000000e+03 7.420230102539062500e+01 3.077530384063720703e+00 -5.923741459846496582e-01 7.822470664978027344e+00 2.169028997421264648e+00 -3.181813657283782959e-01
1.500000000000000000e+03 7.340722656250000000e+01 -1.934505653381347656e+01 -4.820631146430969238e-01 1.003345108032226562e+01 2.865416288375854492e+00 -1.527462363243103027e+00
1.501000000000000000e+03 7.666344451904296875e+01 -1.753707504272460938e+01 -1.099963206797838211e-02 8.571418762207031250e+00 2.568125963211059570e+00 -1.519764542579650879e+00
1.502000000000000000e+03 7.679129028320312500e+01 8.766313552856445312e+00 -5.199167877435684204e-02 7.534577369689941406e+00 2.244775772094726562e+00 -3.979448974132537842e-01
1.503000000000000000e+03 7.549873352050781250e+01 7.449761390686035156e+00 -1.469445526599884033e-01 7.385107040405273438e+00 2.171448707580566406e+00 -5.039187669754028320e-01
1.504000000000000000e+03 7.555982208251953125e+01 1.589620018005371094e+01 5.260127782821655273e-02 6.468728542327880859e+00 1.956398844718933105e+00 -5.326275229454040527e-01
1.505000000000000000e+03 7.551158905029296875e+01 1.031345558166503906e+01 -3.062491305172443390e-02 7.044008731842041016e+00 2.104015111923217773e+00 -5.758328437805175781e-01
1.506000000000000000e+03 7.431523895263671875e+01 8.971969604492187500e+00 -9.709400683641433716e-02 6.911405086517333984e+00 2.044293403625488281e+00 -7.002095580101013184e-01
1.507000000000000000e+03 7.681989288330078125e+01 1.714548301696777344e+01 3.630987927317619324e-02 6.575324535369873047e+00 1.983490228652954102e+00 -3.782867789268493652e-01
1.508000000000000000e+03 7.552961730957031250e+01 1.728234863281250000e+01 5.451386794447898865e-02 6.325566768646240234e+00 1.914024233818054199e+00 -5.023483037948608398e-01
1.509000000000000000e+03 7.550030517578125000e+01 1.996085739135742188e+01 5.065746977925300598e-02 6.115152835845947266e+00 1.849743127822875977e+00 -4.369589090347290039e-01
1.510000000000000000e+03 7.425271606445312500e+01 1.735134315490722656e+01 9.821696579456329346e-02 6.102022647857666016e+00 1.860071897506713867e+00 -6.039879918098449707e-01
1.511000000000000000e+03 7.520746612548828125e+01 -2.876276969909667969e+01 -2.984457015991210938e-01 9.580938339233398438e+00 2.784747838973999023e+00 -3.614199161529541016e-01
1.512000000000000000e+03 7.462086486816406250e+01 -2.349194908142089844e+01 -6.030629873275756836e-01 9.519492149353027344e+00 2.674928903579711914e+00 -1.013551592826843262e+00
1.513000000000000000e+03 7.547599792480468750e+01 2.125418472290039062e+01 6.892885267734527588e-02 5.990429878234863281e+00 1.817807674407958984e+00 -4.140152931213378906e-01
1.514000000000000000e+03 7.562916564941406250e+01 -2.472725677490234375e+01 -4.265789687633514404e-01 9.626713752746582031e+00 2.760040283203125000e+00 -8.196311593055725098e-01
1.515000000000000000e+03 7.544048309326171875e+01 -2.604382133483886719e+01 -3.695159256458282471e-01 9.599870681762695312e+00 2.769106388092041016e+00 -6.581639647483825684e-01
1.516000000000000000e+03 7.566753387451171875e+01 -2.343376350402832031e+01 -4.393127262592315674e-01 9.566549301147460938e+00 2.738170862197875977e+00 -1.042175531387329102e+00
1.517000000000000000e+03 7.260149383544921875e+01 2.701624488830566406e+01 1.193544119596481323e-01 5.302874565124511719e+00 1.626668691635131836e+00 -3.886968791484832764e-01
1.518000000000000000e+03 7.370431518554687500e+01 2.382060050964355469e+01 1.021507754921913147e-01 5.583797454833984375e+00 1.705784440040588379e+00 -4.480501711368560791e-01
1.519000000000000000e+03 7.657249450683593750e+01 2.673752212524414062e+01 2.623472362756729126e-02 5.781030178070068359e+00 1.742179393768310547e+00 -2.153274267911911011e-01
1.520000000000000000e+03 7.510189819335937500e+01 2.688900947570800781e+01 6.510484963655471802e-02 5.596888065338134766e+00 1.698597908020019531e+00 -2.921342253684997559e-01
1.521000000000000000e+03 7.653652954101562500e+01 2.945441436767578125e+01 2.977689355611801147e-02 5.635101318359375000e+00 1.699463486671447754e+00 -1.632906943559646606e-01
1.522000000000000000e+03 7.523976898193359375e+01 2.809934616088867188e+01 5.680315941572189331e-02 5.560566425323486328e+00 1.685210943222045898e+00 -2.407066971063613892e-01
1.523000000000000000e+03 7.499494171142578125e+01 -3.138025283813476562e+01 -1.539202034473419189e-01 9.479045867919921875e+00 2.797537803649902344e+00 -1.639737486839294434e-01
1.524000000000000000e+03 7.621109008789062500e+01 -3.294836807250976562e+01 -8.055783808231353760e-02 1.002353477478027344e+01 2.982893228530883789e+00 -9.827052801847457886e-02
1.525000000000000000e+03 7.514733886718750000e+01 -3.008511161804199219e+01 -2.779908776283264160e-01 9.520135879516601562e+00 2.772643566131591797e+00 -2.273851633071899414e-01
1.526000000000000000e+03 7.503730773925781250e+01 2.942832183837890625e+01 5.561668053269386292e-02 5.499990940093994141e+00 1.666682362556457520e+00 -2.284609526395797729e-01
1.527000000000000000e+03 1.385057067871093750e+01 -2.634048080444335938e+01 -5.167813301086425781e-01 2.720055580139160156e+00 6.609823107719421387e-01 -6.080299019813537598e-01
1.528000000000000000e+03 2.967338323593139648e+00 -1.715111732482910156e+01 4.855703413486480713e-01 1.502171277999877930e+00 5.963224768638610840e-01 1.650760769844055176e+00
1.529000000000000000e+03 4.840373992919921875e+00 -1.508155727386474609e+01 2.051152706146240234e+00 4.750822544097900391e+00 2.040592432022094727e+00 1.349849104881286621e+00
1.530000000000000000e+03 4.770397186279296875e+00 2.139975547790527344e+01 -1.336269676685333252e-01 9.936950206756591797e-01 2.580204308032989502e-01 -4.871464073657989502e-01
1.531000000000000000e+03 3.145218849182128906e+00 -1.853799438476562500e+01 1.293930560350418091e-01 2.167106151580810547e+00 6.889497637748718262e-01 2.042038202285766602e+00
1.532000000000000000e+03 4.132368564605712891e+00 -1.678409194946289062e+01 8.271307945251464844e-01 3.484668731689453125e+00 1.293539881706237793e+00 2.062488555908203125e+00
1.533000000000000000e+03 4.609876632690429688e+00 -2.137902259826660156e+01 -5.860255956649780273e-01 4.460764408111572266e+00 1.162421703338623047e+00 1.919773340225219727e+00
1.534000000000000000e+03 3.308331489562988281e+00 2.012550926208496094e+01 -5.707771703600883484e-02 5.333881974220275879e-01 1.428931504487991333e-01 -4.492874741554260254e-01
1.535000000000000000e+03 4.808306217193603516e+00 2.289064216613769531e+01 -1.417465806007385254e-01 1.049066066741943359e+00 2.721958458423614502e-01 -4.154525697231292725e-01
1.536000000000000000e+03 4.661417961120605469e+00 -2.852833938598632812e+01 -4.003739655017852783e-01 4.277509212493896484e+00 1.163140535354614258e+00 6.904364824295043945e-01
1.537000000000000000e+03 3.323107957839965820e+00 -2.445657348632812500e+01 -3.529988229274749756e-01 3.699810981750488281e+00 1.004043579101562500e+00 1.251668930053710938e+00
1.538000000000000000e+03 4.638126373291015625e+00 -2.289463233947753906e+01 -6.310436725616455078e-01 4.317100048065185547e+00 1.105816841125488281e+00 1.638425588607788086e+00
1.539000000000000000e+03 4.753917694091796875e+00 2.572682762145996094e+01 -1.345136612653732300e-01 1.068739652633666992e+00 2.802677750587463379e-01 -2.690141201019287109e-01
1.540000000000000000e+03 4.813482761383056641e+00 2.706954765319824219e+01 -1.286132782697677612e-01 1.084771871566772461e+00 2.868475914001464844e-01 -2.129766643047332764e-01
1.541000000000000000e+03 5.033555984497070312e+00 2.971360397338867188e+01 -9.419850260019302368e-02 1.099074125289916992e+00 3.014626801013946533e-01 -1.243800744414329529e-01
1.542000000000000000e+03 4.516417503356933594e+00 1.698933982849121094e+01 6.610914319753646851e-02 7.264825701713562012e-01 2.377775013446807861e-01 -5.620979666709899902e-01
1.543000000000000000e+03 4.576743602752685547e+00 1.848948478698730469e+01 -3.671009466052055359e-02 8.188951611518859863e-01 2.346555292606353760e-01 -5.597116947174072266e-01
1.544000000000000000e+03 4.609823226928710938e+00 1.995202445983886719e+01 -7.609256356954574585e-02 8.888124227523803711e-01 2.438159584999084473e-01 -5.309345722198486328e-01
1.545000000000000000e+03 4.488748073577880859e+00 1.547556877136230469e+01 1.530413627624511719e-01 6.245610117912292480e-01 2.332807183265686035e-01 -5.025166273117065430e-01
1.546000000000000000e+03 3.105882167816162109e+00 1.432922649383544922e+01 1.071725562214851379e-01 -5.068758502602577209e-02 1.694549247622489929e-02 -3.358803093433380127e-01
1.547000000000000000e+03 4.403196811676025391e+00 1.400624561309814453e+01 2.234826087951660156e-01 4.899016618728637695e-01 2.140152752399444580e-01 -4.157171845436096191e-01
1.548000000000000000e+03 5.927007675170898438e+00 -2.432085418701171875e+01 -8.364806175231933594e-01 4.728641986846923828e+00 1.167648434638977051e+00 1.170895218849182129e+00
1.549000000000000000e+03 4.640959262847900391e+00 -2.436691093444824219e+01 -6.760253906250000000e-01 4.342675209045410156e+00 1.099994897842407227e+00 1.369606733322143555e+00
1.550000000000000000e+03 3.396336555480957031e+00 2.582618904113769531e+01 -8.302988857030868530e-02 8.778038620948791504e-01 2.384321838617324829e-01 -2.363011389970779419e-01
1.551000000000000000e+03 6.127601146697998047e+00 2.307298278808593750e+01 -2.203507870435714722e-01 1.329526662826538086e+00 3.327527642250061035e-01 -4.227574169635772705e-01
1.552000000000000000e+03 4.734871864318847656e+00 2.434848594665527344e+01 -1.510688364505767822e-01 1.055650115013122559e+00 2.713744044303894043e-01 -3.373835384845733643e-01
1.553000000000000000e+03 7.100227355957031250e+00 1.079274845123291016e+01 5.745301842689514160e-01 1.626985430717468262e+00 6.604546904563903809e-01 -1.537420600652694702e-01
1.554000000000000000e+03 3.727871894836425781e+00 -1.055311584472656250e+01 5.194224044680595398e-02 2.043579101562500000e+00 6.286564469337463379e-01 -1.099815726280212402e+00
1.555000000000000000e+03 6.658776760101318359e+00 -1.358577919006347656e+01 4.499404907226562500e+00 9.583363533020019531e+00 4.224830627441406250e+00 1.280315220355987549e-01
1.556000000000000000e+03 3.728099346160888672e+00 -3.129621124267578125e+01 -2.073125243186950684e-01 4.360563755035400391e+00 1.245975375175476074e+00 3.740973472595214844e-01
1.557000000000000000e+03 4.722739219665527344e+00 -2.967125892639160156e+01 -3.696680068969726562e-01 4.256796360015869141e+00 1.166138410568237305e+00 5.388327836990356445e-01
1.558000000000000000e+03 6.233289241790771484e+00 2.973967361450195312e+01 -1.302079707384109497e-01 1.221879482269287109e+00 3.275014758110046387e-01 -9.878428280353546143e-02
1.559000000000000000e+03 6.035416603088378906e+00 3.648839950561523438e+01 -1.779854297637939453e-02 1.115687966346740723e+00 3.293668329715728760e-01 -9.317512623965740204e-03
1.560000000000000000e+03 3.952505826950073242e+00 -5.725221633911132812e+00 -2.540046870708465576e-01 1.264012336730957031e+00 3.030022978782653809e-01 -9.975402057170867920e-02
1.561000000000000000e+03 3.986889123916625977e+00 1.125293350219726562e+01 2.613035738468170166e-01 1.720326095819473267e-01 1.300008594989776611e-01 -1.247715279459953308e-01
1.562000000000000000e+03 5.777928352355957031e+00 -1.439693546295166016e+01 3.278343677520751953e+00 6.065359592437744141e+00 2.803110837936401367e+00 9.221513271331787109e-01
1.563000000000000000e+03 3.701526880264282227e+00 -1.346033954620361328e+01 1.745979547500610352e+00 2.163711547851562500e+00 1.172907352447509766e+00 -1.443479955196380615e-01
1.564000000000000000e+03 5.151284694671630859e+00 -3.086900138854980469e+01 -2.809288501739501953e-01 4.206876754760742188e+00 1.177784442901611328e+00 4.445819854736328125e-01
1.565000000000000000e+03 3.736582040786743164e+00 8.388390541076660156e+00 2.279262095689773560e-01 -1.634834334254264832e-03 6.788741052150726318e-02 1.716698855161666870e-01
1.566000000000000000e+03 4.899553298950195312e+00 2.840694999694824219e+01 -1.062591373920440674e-01 1.093563437461853027e+00 2.961912751197814941e-01 -1.593601554632186890e-01
1.567000000000000000e+03 3.811619520187377930e+00 3.472352600097656250e+01 -1.785463467240333557e-02 1.049582242965698242e+00 3.095182776451110840e-01 -2.066108584403991699e-02
1.568000000000000000e+03 6.286553382873535156e+00 3.392127990722656250e+01 -5.684501305222511292e-02 1.165223360061645508e+00 3.325135111808776855e-01 -2.027403190732002258e-02
1.569000000000000000e+03 5.241393566131591797e+00 3.527191162109375000e+01 -1.746515184640884399e-02 1.097470283508300781e+00 3.240015208721160889e-01 -1.129501499235630035e-02
1.570000000000000000e+03 3.057637214660644531e+00 -5.300345897674560547e+00 -1.620213091373443604e-01 5.465882420539855957e-01 1.153700873255729675e-01 -2.998957037925720215e-01
1.571000000000000000e+03 6.516503906250000000e+01 -2.450303459167480469e+01 -8.963717818260192871e-01 4.807523250579833984e+00 1.173345446586608887e+00 7.524806857109069824e-01
1.572000000000000000e+03 1.735742378234863281e+01 2.397212505340576172e+00 2.595779180526733398e+00 9.491950869560241699e-01 1.063492298126220703e+00 2.433016061782836914e+00
1.573000000000000000e+03 5.516504287719726562e+01 -8.038565635681152344e+00 -2.495034456253051758e+00 -3.281730115413665771e-01 -8.469622135162353516e-01 -1.014828562736511230e+00
1.574000000000000000e+03 5.818161010742187500e+01 -7.490917205810546875e+00 -2.974819183349609375e+00 -5.917634963989257812e-01 -1.069974780082702637e+00 -1.260460615158081055e+00
1.575000000000000000e+03 4.316717529296875000e+01 -1.436068248748779297e+01 -2.430568218231201172e+00 8.036648482084274292e-02 -7.050604820251464844e-01 -7.086016535758972168e-01
1.576000000000000000e+03 5.296395111083984375e+01 -9.374715805053710938e+00 -2.409510374069213867e+00 -2.580243051052093506e-01 -8.002603650093078613e-01 -1.024696469306945801e+00
1.577000000000000000e+03 5.267546463012695312e+01 -3.279309082031250000e+01 -4.508309364318847656e-01 -3.445915281772613525e-01 -2.386267334222793579e-01 -4.763077497482299805e-01
1.578000000000000000e+03 6.959920883178710938e+00 -1.682050895690917969e+01 1.509905457496643066e+00 9.263880729675292969e+00 3.232136011123657227e+00 1.537979125976562500e+00
1.579000000000000000e+03 5.584386062622070312e+01 -3.321627426147460938e+01 -1.210468113422393799e-01 3.383321464061737061e-01 6.518559902906417847e-02 -1.428162902593612671e-01
1.580000000000000000e+03 5.313954162597656250e+01 4.848335266113281250e+00 1.001545786857604980e+00 2.749119102954864502e-01 3.829373121261596680e-01 -8.085005730390548706e-02
1.581000000000000000e+03 6.213982772827148438e+01 -3.241018056869506836e+00 -5.050231814384460449e-01 2.851957082748413086e-01 -6.594824045896530151e-02 -1.842438459396362305e+00
1.582000000000000000e+03 9.047569274902343750e+00 -2.114433479309082031e+01 -9.810858368873596191e-01 7.247091770172119141e+00 1.879801869392395020e+00 -1.362350434064865112e-01
1.583000000000000000e+03 1.120287895202636719e+01 1.385180950164794922e+01 8.422178626060485840e-01 3.771795034408569336e+00 1.384203910827636719e+00 -3.363924622535705566e-01
1.584000000000000000e+03 1.868230819702148438e+01 -9.201816558837890625e+00 -2.837498426437377930e+00 6.992005109786987305e-01 -6.414893865585327148e-01 5.848695710301399231e-02
1.585000000000000000e+03 1.852354621887207031e+01 -1.083663558959960938e+01 -4.855823516845703125e+00 2.711781263351440430e-01 -1.375393629074096680e+00 7.077347040176391602e-01
1.586000000000000000e+03 2.175103187561035156e+01 -3.108097457885742188e+01 -3.662674129009246826e-01 2.358125895261764526e-01 -3.913644701242446899e-02 3.520827367901802063e-02
1.587000000000000000e+03 2.238721466064453125e+01 -3.253475189208984375e+01 -2.784717082977294922e-01 2.495879977941513062e-01 -8.665110915899276733e-03 9.990071877837181091e-03
1.588000000000000000e+03 1.788004875183105469e+01 -2.896341705322265625e+01 -4.082129001617431641e-01 1.067276835441589355e+00 1.977191865444183350e-01 -3.197733461856842041e-01
1.589000000000000000e+03 4.303717803955078125e+01 6.497669219970703125e+00 1.064859986305236816e+00 4.150483012199401855e-01 4.439724683761596680e-01 -1.259999722242355347e-01
1.590000000000000000e+03 4.394692611694335938e+01 4.388263225555419922e+00 1.124130725860595703e+00 2.432059198617935181e-01 4.102009832859039307e-01 -1.199072748422622681e-01
1.591000000000000000e+03 1.136402511596679688e+01 1.057446098327636719e+01 9.571262598037719727e-01 4.434650421142578125e+00 1.617532968521118164e+00 -8.753495290875434875e-03
1.592000000000000000e+03 1.231233692169189453e+01 1.032028865814208984e+01 9.731416702270507812e-01 5.434525489807128906e+00 1.922300219535827637e+00 2.504536211490631104e-01
1.593000000000000000e+03 5.840577316284179688e+01 1.137812423706054688e+01 4.681478142738342285e-01 3.005871534347534180e+00 1.042205810546875000e+00 -8.487985730171203613e-01
1.594000000000000000e+03 3.209185409545898438e+01 -3.559850692749023438e+01 -3.349046707153320312e-01 -1.641871631145477295e-01 -1.497275531291961670e-01 1.878315210342407227e-01
1.595000000000000000e+03 4.151146697998046875e+01 8.284466743469238281e+00 7.495370507240295410e-01 9.316285252571105957e-01 5.043496489524841309e-01 1.405261084437370300e-02
1.596000000000000000e+03 6.231214523315429688e+01 -2.577517509460449219e+01 -8.342911005020141602e-01 2.215531826019287109e+00 4.143722057342529297e-01 4.323921501636505127e-01
1.597000000000000000e+03 5.731380462646484375e+01 -3.171644973754882812e+01 -3.224991261959075928e-01 4.813025891780853271e-01 4.764104261994361877e-02 -2.517218701541423798e-02
1.598000000000000000e+03 4.522251892089843750e+01 -3.779927444458007812e+01 -6.195416674017906189e-02 -4.178686141967773438e-01 -1.439468264579772949e-01 -2.188947945833206177e-01
1.599000000000000000e+03 4.633123397827148438e+01 -3.606966018676757812e+01 -1.740023940801620483e-01 -4.145730435848236084e-01 -1.765726357698440552e-01 -3.619327843189239502e-01
1.600000000000000000e+03 2.140727615356445312e+01 -1.125804996490478516e+01 -4.129063606262207031e+00 4.878366887569427490e-01 -1.092368125915527344e+00 2.364020794630050659e-01
1.601000000000000000e+03 4.514812850952148438e+01 2.101231193542480469e+01 9.318487048149108887e-01 1.639272570610046387e+00 7.713363766670227051e-01 8.581402301788330078e-01
1.602000000000000000e+03 3.825447082519531250e+01 -4.097013092041015625e+01 -1.564188003540039062e-01 -3.127833604812622070e-01 -1.407606601715087891e-01 6.144162267446517944e-03
1.603000000000000000e+03 2.734934616088867188e+01 1.407497024536132812e+01 -6.197656989097595215e-01 2.320907354354858398e+00 5.103424787521362305e-01 1.018933057785034180e+00
1.604000000000000000e+03 5.077105331420898438e+01 -3.286985397338867188e+01 -5.246251225471496582e-01 -4.534818232059478760e-01 -2.934320867061614990e-01 -5.373040437698364258e-01
1.605000000000000000e+03 6.510489654541015625e+01 -3.507544040679931641e+00 -6.613294482231140137e-01 3.236319541931152344e+00 7.724969983100891113e-01 -4.251543521881103516e+00
1.606000000000000000e+03 6.468041229248046875e+01 -4.732317924499511719e+00 -3.038204908370971680e-01 9.036139249801635742e-01 1.799380332231521606e-01 -3.558108329772949219e+00
1.607000000000000000e+03 7.096368408203125000e+01 -9.392002105712890625e+00 3.348283767700195312e+00 1.345159816741943359e+01 5.039964675903320312e+00 4.023297131061553955e-01
1.608000000000000000e+03 7.076713562011718750e+01 -8.237916946411132812e+00 2.258317470550537109e+00 1.436330795288085938e+01 4.986487865447998047e+00 3.817183971405029297e-01
1.609000000000000000e+03 5.399975585937500000e+01 -3.482804870605468750e+01 7.882859557867050171e-02 2.101660706102848053e-02 2.995356172323226929e-02 -2.755426168441772461e-01
1.610000000000000000e+03 7.241295623779296875e+01 -1.823792648315429688e+01 -4.684314429759979248e-01 1.063486862182617188e+01 3.049931049346923828e+00 -1.333863973617553711e+00
1.611000000000000000e+03 7.152224731445312500e+01 -1.550627994537353516e+01 5.181513428688049316e-01 1.236601543426513672e+01 3.865250110626220703e+00 -1.207766413688659668e+00
1.612000000000000000e+03 6.946885681152343750e+01 -5.873711109161376953e+00 -7.314406037330627441e-01 1.341861152648925781e+01 3.806151390075683594e+00 -1.266070365905761719e+00
1.613000000000000000e+03 6.767897796630859375e+01 -3.137854814529418945e+00 -1.960818529129028320e+00 8.070298194885253906e+00 1.832844018936157227e+00 -3.341835975646972656e+00
1.614000000000000000e+03 6.013022422790527344e+00 -2.571994781494140625e+01 -7.873933911323547363e-01 4.579371452331542969e+00 1.137593507766723633e+00 1.045938968658447266e+00
1.615000000000000000e+03 9.951818466186523438e+00 -2.222486877441406250e+01 -8.440814614295959473e-01 5.782388210296630859e+00 1.481491923332214355e+00 -5.077896714210510254e-01
1.616000000000000000e+03 5.881609725952148438e+01 1.437713241577148438e+01 8.595604300498962402e-01 3.231793880462646484e+00 1.227406263351440430e+00 -1.022314906120300293e+00
1.617000000000000000e+03 6.866239929199218750e+01 -1.796067810058593750e+01 -3.855175971984863281e-01 1.101119518280029297e+01 3.187703132629394531e+00 9.436520338058471680e-01
1.618000000000000000e+03 7.329602813720703125e+01 -1.691024398803710938e+01 1.668295860290527344e-01 1.057351398468017578e+01 3.222103118896484375e+00 -1.626796364784240723e+00
1.619000000000000000e+03 6.154999160766601562e+01 -4.226936340332031250e+00 -1.304036498069763184e+00 -1.213329434394836426e-01 -4.276108443737030029e-01 -1.486814975738525391e+00
1.620000000000000000e+03 6.038642883300781250e+01 -3.484536886215209961e+00 -8.288532495498657227e-01 -1.292421072721481323e-01 -2.874286174774169922e-01 -1.253773689270019531e+00
1.621000000000000000e+03 6.866504669189453125e+01 -2.003445243835449219e+01 -9.128730297088623047e-01 9.382253646850585938e+00 2.540814161300659180e+00 4.882584214210510254e-01
1.622000000000000000e+03 7.447885894775390625e+01 3.701422882080078125e+01 5.180286243557929993e-02 5.256301879882812500e+00 1.592431545257568359e+00 -9.274365752935409546e-02
1.623000000000000000e+03 1.462047386169433594e+01 -9.754058837890625000e+00 -3.670315980911254883e+00 -3.191444650292396545e-02 -1.110669136047363281e+00 2.571891546249389648e+00
1.624000000000000000e+03 7.090548706054687500e+01 -1.900867080688476562e+01 -7.772817611694335938e-01 1.038033580780029297e+01 2.880916118621826172e+00 -9.178805947303771973e-01
1.625000000000000000e+03 5.139037322998046875e+01 2.260401535034179688e+01 1.120803356170654297e+00 1.515424966812133789e+00 7.908685207366943359e-01 -4.171079993247985840e-01
1.626000000000000000e+03 4.582874298095703125e+01 2.248345184326171875e+01 9.259311556816101074e-01 1.561772227287292480e+00 7.463110089302062988e-01 6.337522268295288086e-01
1.627000000000000000e+03 2.286679840087890625e+01 1.131057858467102051e+00 3.167790651321411133e+00 1.912248015403747559e+00 1.524011611938476562e+00 2.793085813522338867e+00
1.628000000000000000e+03 2.373893547058105469e+01 1.875166654586791992e+00 2.950534582138061523e+00 2.721598148345947266e+00 1.701639771461486816e+00 2.381267786026000977e+00
1.629000000000000000e+03 2.908404541015625000e+01 6.995368957519531250e+00 2.842792749404907227e+00 2.213372468948364258e+00 1.516849517822265625e+00 1.708851575851440430e+00
1.630000000000000000e+03 8.292862892150878906e+00 -1.823710823059082031e+01 -2.737412229180335999e-02 9.886458396911621094e+00 2.957725286483764648e+00 7.509797215461730957e-01
1.631000000000000000e+03 2.678421783447265625e+01 1.603994560241699219e+01 -8.326533436775207520e-01 1.778792142868041992e+00 2.838416099548339844e-01 4.495031237602233887e-01
1.632000000000000000e+03 2.435942649841308594e+01 1.936238861083984375e+01 -2.775961458683013916e-01 7.474869489669799805e-01 1.409672349691390991e-01 1.300449222326278687e-01
1.633000000000000000e+03 2.674864578247070312e+01 -1.358097076416015625e+01 -3.609901189804077148e+00 4.621568620204925537e-01 -9.443233013153076172e-01 2.846577465534210205e-01
1.634000000000000000e+03 2.561935615539550781e+01 -1.331938743591308594e+01 -3.780347108840942383e+00 4.719315171241760254e-01 -9.925246834754943848e-01 3.758781850337982178e-01
1.635000000000000000e+03 5.923353958129882812e+01 1.247464084625244141e+01 6.389308571815490723e-01 3.125594377517700195e+00 1.129357576370239258e+00 -1.052563190460205078e+00
1.636000000000000000e+03 2.302804374694824219e+01 2.015334320068359375e+01 -3.289623185992240906e-02 5.024595260620117188e-01 1.408689916133880615e-01 3.660110235214233398e-01
1.637000000000000000e+03 2.182609939575195312e+01 2.106517791748046875e+01 7.660990953445434570e-02 5.797755718231201172e-01 1.969156414270401001e-01 6.009039282798767090e-01
1.638000000000000000e+03 7.190443420410156250e+01 -1.161756420135498047e+01 2.717290878295898438e+00 1.302091026306152344e+01 4.721460342407226562e+00 -8.118504881858825684e-01
1.639000000000000000e+03 2.351904296875000000e+01 -1.243312549591064453e+01 -4.080566406250000000e+00 4.807928204536437988e-01 -1.079931974411010742e+00 3.881345093250274658e-01
1.640000000000000000e+03 2.570911216735839844e+01 1.758062934875488281e+01 -6.712518930435180664e-01 1.176387548446655273e+00 1.515406966209411621e-01 1.332987993955612183e-01
1.641000000000000000e+03 1.681476211547851562e+01 -2.770119667053222656e+01 -3.744169771671295166e-01 1.481605768203735352e+00 3.321566581726074219e-01 -3.537620604038238525e-01
1.642000000000000000e+03 1.655826187133789062e+01 -3.012355613708496094e+01 -3.955346047878265381e-01 1.666880488395690918e+00 3.814037740230560303e-01 -3.144055902957916260e-01
1.643000000000000000e+03 6.864703178405761719e+00 1.833664131164550781e+01 -5.854513868689537048e-02 1.602242231369018555e+00 4.631091356277465820e-01 -6.205292344093322754e-01
1.644000000000000000e+03 7.259615325927734375e+01 -1.473368549346923828e+01 9.439190626144409180e-01 1.121311473846435547e+01 3.647110223770141602e+00 -1.633390188217163086e+00
1.645000000000000000e+03 5.566826629638671875e+01 2.282487869262695312e+01 7.525969743728637695e-01 2.709360122680664062e+00 1.038587093353271484e+00 -7.250524163246154785e-01
1.646000000000000000e+03 5.032345199584960938e+01 2.362592315673828125e+01 1.133347034454345703e+00 1.518066525459289551e+00 7.954240441322326660e-01 -1.696081012487411499e-01
1.647000000000000000e+03 4.018828964233398438e+01 1.305001735687255859e+01 7.691345214843750000e-01 1.795904874801635742e+00 7.695118188858032227e-01 9.900308847427368164e-01
1.648000000000000000e+03 3.822608184814453125e+01 1.295418643951416016e+01 8.519383072853088379e-01 1.767208456993103027e+00 7.857440710067749023e-01 1.113742351531982422e+00
1.649000000000000000e+03 7.188381958007812500e+01 -9.106630325317382812e+00 2.797548294067382812e+00 1.247295093536376953e+01 4.581149578094482422e+00 1.093750074505805969e-01
1.650000000000000000e+03 3.088493347167968750e+01 9.399456024169921875e+00 1.713471889495849609e+00 2.084050655364990234e+00 1.139256834983825684e+00 1.851212263107299805e+00
1.651000000000000000e+03 2.838314628601074219e+01 9.528434753417968750e+00 1.815019011497497559e+00 2.783686876296997070e+00 1.379611730575561523e+00 2.056522607803344727e+00
1.652000000000000000e+03 4.861228179931640625e+01 3.728741168975830078e+00 1.090893864631652832e+00 2.746719121932983398e-01 4.096697270870208740e-01 -1.473679542541503906e-01
1.653000000000000000e+03 4.930127716064453125e+01 2.543905496597290039e+00 7.430024743080139160e-01 2.487113773822784424e-01 2.975141704082489014e-01 -2.117287069559097290e-01
1.654000000000000000e+03 2.846536445617675781e+01 1.757439041137695312e+01 -4.696931838989257812e-01 1.947857141494750977e+00 4.434491991996765137e-01 5.401414632797241211e-01
1.655000000000000000e+03 1.484227466583251953e+01 -2.737763786315917969e+01 -4.604447185993194580e-01 2.341573715209960938e+00 5.643386840820312500e-01 -4.892771244049072266e-01
1.656000000000000000e+03 2.083110618591308594e+01 1.988009262084960938e+01 2.232880517840385437e-02 3.073561191558837891e-01 9.890548139810562134e-02 8.319823145866394043e-01
1.657000000000000000e+03 1.812356567382812500e+01 1.881590843200683594e+01 -3.047451078891754150e-01 1.374154567718505859e+00 3.208228349685668945e-01 1.486618757247924805e+00
1.658000000000000000e+03 1.121158504486083984e+01 1.720338582992553711e+00 8.633131980895996094e-01 3.140982389450073242e+00 1.201288700103759766e+00 -2.763355731964111328e+00
1.659000000000000000e+03 1.288627815246582031e+01 1.250769495964050293e+00 3.485962748527526855e-01 1.067002296447753906e+01 3.305585861206054688e+00 -2.638338804244995117e+00
1.660000000000000000e+03 1.291579532623291016e+01 1.501928448677062988e+00 6.409846246242523193e-02 9.759396553039550781e+00 2.947048425674438477e+00 -2.733165264129638672e+00
1.661000000000000000e+03 1.368554592132568359e+01 2.117103338241577148e+00 -4.652730822563171387e-01 9.472819328308105469e+00 2.702264070510864258e+00 -7.166602611541748047e-01
1.662000000000000000e+03 1.166244602203369141e+01 1.794637322425842285e+00 6.099510788917541504e-01 4.555926799774169922e+00 1.549763441085815430e+00 -3.137323379516601562e+00
1.663000000000000000e+03 1.066814422607421875e+01 2.151402950286865234e+00 4.547963440418243408e-01 2.418890714645385742e+00 8.621060848236083984e-01 -2.077152252197265625e+00
1.664000000000000000e+03 1.118780899047851562e+01 2.234785795211791992e+00 3.435773551464080811e-01 3.562365293502807617e+00 1.171782732009887695e+00 -2.618048429489135742e+00
1.665000000000000000e+03 1.484228897094726562e+01 3.280091524124145508e+00 -1.067473888397216797e+00 6.820897102355957031e+00 1.726027011871337891e+00 1.384185999631881714e-01
1.666000000000000000e+03 1.307132434844970703e+01 -3.655034065246582031e+00 2.460925579071044922e+00 8.999496459960937500e+00 3.438126564025878906e+00 4.479421138763427734e+00
1.667000000000000000e+03 9.387180328369140625e+00 -2.396670818328857422e+00 2.921850442886352539e+00 8.181015253067016602e-01 1.121985554695129395e+00 2.622175455093383789e+00
1.668000000000000000e+03 8.850525856018066406e+00 -3.114951133728027344e+00 2.135355949401855469e+00 1.449959635734558105e+00 1.075594663619995117e+00 2.957552433013916016e+00
1.669000000000000000e+03 8.369434356689453125e+00 -3.071354866027832031e+00 1.732111692428588867e+00 1.293610453605651855e+00 9.077166318893432617e-01 2.467147111892700195e+00
1.670000000000000000e+03 8.770941734313964844e+00 5.372239589691162109e+00 1.130880787968635559e-01 2.219532728195190430e+00 6.997862458229064941e-01 -4.143140614032745361e-01
1.671000000000000000e+03 1.434309196472167969e+01 2.328417062759399414e+00 -1.840464174747467041e-01 8.541895866394042969e+00 2.507354974746704102e+00 3.715993165969848633e-01
1.672000000000000000e+03 9.229534149169921875e+00 -3.062936067581176758e+00 2.703269243240356445e+00 1.445220351219177246e+00 1.244546890258789062e+00 3.329566717147827148e+00
1.673000000000000000e+03 9.949790954589843750e+00 -2.797468185424804688e+00 3.598473072052001953e+00 1.525705218315124512e+00 1.537253499031066895e+00 3.890299320220947266e+00
1.674000000000000000e+03 8.896338462829589844e+00 4.675034523010253906e+00 8.240535855293273926e-02 2.113470315933227539e+00 6.587626934051513672e-01 -6.240499615669250488e-01
1.675000000000000000e+03 7.243202686309814453e+00 -3.824653148651123047e+00 7.484923601150512695e-01 1.778773188591003418e+00 7.581796646118164062e-01 1.981051921844482422e+00
1.676000000000000000e+03 8.395440101623535156e+00 -3.689391374588012695e+00 1.499636769294738770e+00 1.926975131034851074e+00 1.027983546257019043e+00 2.984128952026367188e+00
1.677000000000000000e+03 5.773571968078613281e+00 4.027370452880859375e+00 1.044166088104248047e-01 3.550960421562194824e-01 1.378537863492965698e-01 3.105891942977905273e-01
1.678000000000000000e+03 6.442351341247558594e+00 3.912881374359130859e+00 1.227869838476181030e-01 4.903438091278076172e-01 1.839392334222793579e-01 1.951998472213745117e-01
1.679000000000000000e+03 5.854154586791992188e+00 4.651596069335937500e+00 1.918335556983947754e-01 4.639404416084289551e-01 1.967322081327438354e-01 2.760725319385528564e-01
1.680000000000000000e+03 1.934881401062011719e+01 1.060735225677490234e+00 4.756309986114501953e+00 5.525746941566467285e-01 1.592665433883666992e+00 3.340457201004028320e+00
1.681000000000000000e+03 1.618824195861816406e+01 -1.726058363914489746e+00 8.247671127319335938e+00 4.080190658569335938e+00 3.698358535766601562e+00 5.006762742996215820e-01
1.682000000000000000e+03 1.670670127868652344e+01 1.767784357070922852e+00 3.792473316192626953e+00 2.854355812072753906e+00 1.994048714637756348e+00 2.447180032730102539e+00
1.683000000000000000e+03 1.673215866088867188e+01 -6.753252148628234863e-01 7.703531742095947266e+00 2.861625432968139648e+00 3.169547319412231445e+00 2.022667169570922852e+00
1.684000000000000000e+03 9.079538345336914062e+00 3.937817096710205078e+00 1.391479372978210449e-01 1.928899288177490234e+00 6.204141974449157715e-01 -8.029760122299194336e-01
1.685000000000000000e+03 7.660044193267822266e+00 4.585854530334472656e+00 2.206655889749526978e-01 1.202978372573852539e+00 4.270932078361511230e-01 -1.849564462900161743e-01
1.686000000000000000e+03 4.872478008270263672e+00 5.443592071533203125e+00 2.206215858459472656e-01 2.659450769424438477e-01 1.459700018167495728e-01 3.432946503162384033e-01
1.687000000000000000e+03 4.672585487365722656e+00 -6.144113063812255859e+00 -4.209602773189544678e-01 2.209583997726440430e+00 5.365871191024780273e-01 2.196151018142700195e-01
1.688000000000000000e+03 7.029374122619628906e+00 4.594696521759033203e+00 2.166099697351455688e-01 8.850350379943847656e-01 3.304935097694396973e-01 2.033100463449954987e-02
1.689000000000000000e+03 1.374563598632812500e+01 -3.828948974609375000e+00 2.282205343246459961e+00 8.905114173889160156e+00 3.356195688247680664e+00 2.924000024795532227e+00
1.690000000000000000e+03 6.244993686676025391e+00 -4.994948863983154297e+00 -4.366145282983779907e-02 2.257795095443725586e+00 6.642400622367858887e-01 1.303335189819335938e+00
1.691000000000000000e+03 1.223406124114990234e+01 -8.295291900634765625e+00 -2.319654941558837891e+00 3.998049497604370117e+00 5.035183429718017578e-01 5.593908786773681641e+00
1.692000000000000000e+03 5.029999256134033203e+00 -5.590359687805175781e+00 -3.350926935672760010e-01 2.004529953002929688e+00 5.008311867713928223e-01 4.622254669666290283e-01
1.693000000000000000e+03 5.608803272247314453e+00 -5.275697231292724609e+00 -1.770933121442794800e-01 2.202658891677856445e+00 6.076696515083312988e-01 9.269668459892272949e-01
1.694000000000000000e+03 9.908620834350585938e+00 3.302840232849121094e+00 1.394825130701065063e-01 2.306309223175048828e+00 7.337374687194824219e-01 -1.375833034515380859e+00
1.695000000000000000e+03 1.178888320922851562e+01 8.726512908935546875e+00 4.984912872314453125e-01 4.912542819976806641e+00 1.623310208320617676e+00 1.659590452909469604e-01
1.696000000000000000e+03 1.649394798278808594e+01 -8.711747169494628906e+00 -2.647592306137084961e+00 9.380626082420349121e-01 -5.128588676452636719e-01 9.867987036705017090e-01
1.697000000000000000e+03 1.713018417358398438e+01 -9.325865745544433594e+00 -3.411424636840820312e+00 4.533587992191314697e-01 -8.874197602272033691e-01 6.275813579559326172e-01
1.698000000000000000e+03 1.584796047210693359e+01 -9.366362571716308594e+00 -3.213193416595458984e+00 4.321248233318328857e-01 -8.343206048011779785e-01 1.555209636688232422e+00
1.699000000000000000e+03 1.593824481964111328e+01 2.897220373153686523e+00 4.168570637702941895e-01 4.609106063842773438e+00 1.507789015769958496e+00 1.297388553619384766e+00
1.700000000000000000e+03 1.724625396728515625e+01 1.122005939483642578e+00 5.258647918701171875e+00 1.571418762207031250e+00 2.049020051956176758e+00 2.846462011337280273e+00
1.701000000000000000e+03 7.024943351745605469e+00 -8.881661415100097656e+00 -2.015307426452636719e+00 7.339264392852783203e+00 1.597187042236328125e+00 7.308712005615234375e-01
1.702000000000000000e+03 1.349424076080322266e+01 6.720870971679687500e+00 -1.438740849494934082e+00 6.242783546447753906e+00 1.441212892532348633e+00 -7.324603199958801270e-02
1.703000000000000000e+03 2.079625129699707031e+01 4.424813091754913330e-01 4.266208648681640625e+00 7.602522969245910645e-01 1.507938385009765625e+00 3.005733251571655273e+00
1.704000000000000000e+03 5.278487205505371094e+00 -1.624595260620117188e+01 1.710484147071838379e+00 5.393040180206298828e+00 2.131057262420654297e+00 1.790090441703796387e+00
1.705000000000000000e+03 8.289741516113281250e+00 4.608140945434570312e+00 1.824906468391418457e-01 1.605184793472290039e+00 5.363026261329650879e-01 -3.838572204113006592e-01
1.706000000000000000e+03 2.039920425415039062e+01 -1.060301971435546875e+01 -3.874755620956420898e+00 4.830679595470428467e-01 -1.017506361007690430e+00 2.028323113918304443e-01
1.707000000000000000e+03 6.148871994018554688e+01 -1.428184986114501953e+00 -7.634810358285903931e-02 8.683460354804992676e-01 2.375993728637695312e-01 -1.727438449859619141e+00
1.708000000000000000e+03 6.094993209838867188e+01 -2.516592741012573242e+00 -5.082399845123291016e-01 3.122568428516387939e-01 -5.879494920372962952e-02 -1.523629784584045410e+00
1.709000000000000000e+03 2.599453163146972656e+01 2.949392318725585938e+00 2.955075502395629883e+00 2.904427289962768555e+00 1.757850885391235352e+00 1.575791835784912109e+00
1.710000000000000000e+03 2.538647079467773438e+01 3.980088472366333008e+00 3.293267965316772461e+00 3.410196542739868164e+00 2.011039257049560547e+00 1.762843251228332520e+00
1.711000000000000000e+03 1.208469676971435547e+01 9.504825592041015625e+00 7.412558794021606445e-01 5.294963359832763672e+00 1.810865759849548340e+00 9.624806791543960571e-02
1.712000000000000000e+03 5.060922622680664062e+00 1.094744968414306641e+01 3.917870819568634033e-01 6.274007558822631836e-01 3.057563602924346924e-01 -1.087303906679153442e-01
1.713000000000000000e+03 6.119768142700195312e+00 1.063845729827880859e+01 4.842898249626159668e-01 1.085231900215148926e+00 4.708565175533294678e-01 -1.314083635807037354e-01
1.714000000000000000e+03 4.959077072143554688e+01 -1.121897697448730469e+01 -2.313726902008056641e+00 -1.310087591409683228e-01 -7.334207296371459961e-01 -9.628999829292297363e-01
1.715000000000000000e+03 4.884563064575195312e+01 -1.014897632598876953e+01 -2.107398509979248047e+00 -2.242695167660713196e-02 -6.389476060867309570e-01 -8.441330194473266602e-01
1.716000000000000000e+03 4.750162887573242188e+01 3.155126810073852539e+00 9.152534604072570801e-01 2.861503362655639648e-01 3.604211211204528809e-01 -1.524067968130111694e-01
1.717000000000000000e+03 3.902984237670898438e+01 9.373578071594238281e+00 8.920561671257019043e-01 1.328594565391540527e+00 6.661952137947082520e-01 6.849588155746459961e-01
1.718000000000000000e+03 5.968581390380859375e+01 1.560138797760009766e+01 8.500181436538696289e-01 3.307975292205810547e+00 1.247398018836975098e+00 -9.311388134956359863e-01
1.719000000000000000e+03 1.044215965270996094e+01 1.469091796875000000e+01 5.830243229866027832e-01 3.289516448974609375e+00 1.161762237548828125e+00 -4.460377693176269531e-01
1.720000000000000000e+03 1.023243808746337891e+01 1.328341388702392578e+01 8.706527948379516602e-01 3.277137756347656250e+00 1.244337201118469238e+00 -3.293896317481994629e-01
1.721000000000000000e+03 1.257312107086181641e+01 -9.080148696899414062e+00 -2.354557037353515625e+00 2.211285591125488281e+00 -4.298140481114387512e-02 5.982870578765869141e+00
1.722000000000000000e+03 1.789301300048828125e+01 7.156978249549865723e-01 5.720459461212158203e+00 1.228865742683410645e+00 2.084797620773315430e+00 3.123920679092407227e+00
1.723000000000000000e+03 3.188798522949218750e+01 -1.325358867645263672e+01 -2.751127958297729492e+00 5.310423970222473145e-01 -6.660256385803222656e-01 -2.304346561431884766e-01
1.724000000000000000e+03 2.977923393249511719e+01 -1.036145591735839844e+01 -2.097773075103759766e+00 7.038401961326599121e-01 -4.181798398494720459e-01 -3.996090292930603027e-01
1.725000000000000000e+03 5.832614135742187500e+01 2.005830955505371094e+01 6.530668139457702637e-01 3.235694408416748047e+00 1.166628360748291016e+00 -7.129470705986022949e-01
1.726000000000000000e+03 5.115742874145507812e+01 2.026604652404785156e+00 6.027622222900390625e-01 1.796186268329620361e-01 2.347142547369003296e-01 -2.576574385166168213e-01
1.727000000000000000e+03 5.424724197387695312e+01 3.578443527221679688e+00 7.354096174240112305e-01 3.756511211395263672e-01 3.333182334899902344e-01 -2.737766802310943604e-01
1.728000000000000000e+03 7.305622100830078125e+00 -1.097657871246337891e+01 -4.318927824497222900e-01 9.783000946044921875e+00 2.805332660675048828e+00 4.983496963977813721e-01
1.729000000000000000e+03 5.220941543579101562e+01 -8.395308494567871094e+00 -2.127828121185302734e+00 -1.426699459552764893e-01 -6.811494231224060059e-01 -8.467839956283569336e-01
1.730000000000000000e+03 2.296844720840454102e+00 6.100779056549072266e+00 9.992861747741699219e-02 -4.814068973064422607e-01 -1.144434884190559387e-01 3.478912115097045898e-01
1.731000000000000000e+03 2.588684082031250000e+00 5.193460941314697266e+00 5.610182508826255798e-02 -3.768470585346221924e-01 -9.622357040643692017e-02 3.944764733314514160e-01
1.732000000000000000e+03 5.109589767456054688e+01 -8.979902267456054688e+00 -2.119032144546508789e+00 -1.013540625572204590e-01 -6.661158800125122070e-01 -8.517723083496093750e-01
1.733000000000000000e+03 4.227417373657226562e+01 2.242033004760742188e+01 6.795268654823303223e-01 1.933779597282409668e+00 7.839919328689575195e-01 6.612917184829711914e-01
1.734000000000000000e+03 2.404473876953125000e+01 -9.919692993164062500e+00 -2.471548080444335938e+00 6.979064941406250000e-01 -5.320924520492553711e-01 -2.641080617904663086e-01
1.735000000000000000e+03 2.455413436889648438e+01 -1.293894481658935547e+01 -3.974375486373901367e+00 4.824517071247100830e-01 -1.047577142715454102e+00 4.192016124725341797e-01
1.736000000000000000e+03 1.329259109497070312e+01 -8.583074569702148438e+00 -2.138788461685180664e+00 1.514308214187622070e+00 -1.873440593481063843e-01 4.407573699951171875e+00
1.737000000000000000e+03 7.068328857421875000e+01 -7.026043891906738281e+00 1.264180064201354980e+00 1.287836551666259766e+01 4.242763996124267578e+00 4.206123054027557373e-01
1.738000000000000000e+03 7.486362457275390625e+01 -5.194478511810302734e+00 -6.782316416501998901e-02 9.080130577087402344e+00 2.703692197799682617e+00 1.332238674163818359e+00
1.739000000000000000e+03 3.530749130249023438e+01 -1.383619308471679688e+01 -2.578651428222656250e+00 4.272033572196960449e-01 -6.454343795776367188e-01 -3.772562444210052490e-01
1.740000000000000000e+03 7.091021728515625000e+01 -2.631020164489746094e+01 -8.897975683212280273e-01 8.218161582946777344e+00 2.198509216308593750e+00 -2.384724915027618408e-01
1.741000000000000000e+03 6.965480804443359375e+01 -2.298183059692382812e+01 -1.135907053947448730e+00 8.404264450073242188e+00 2.180507183074951172e+00 -1.565725058317184448e-01
1.742000000000000000e+03 5.328602218627929688e+01 -7.777811050415039062e+00 -2.133448123931884766e+00 -1.615564674139022827e-01 -6.885013580322265625e-01 -8.273490071296691895e-01
1.743000000000000000e+03 6.662245178222656250e+01 -2.795345544815063477e+00 -1.094137787818908691e+00 5.859939575195312500e+00 1.429740428924560547e+00 -3.842010736465454102e+00
1.744000000000000000e+03 5.184227752685546875e+01 -1.000518035888671875e+01 -2.367848873138427734e+00 -2.258508652448654175e-01 -7.781099081039428711e-01 -1.014524340629577637e+00
1.745000000000000000e+03 6.784288787841796875e+01 -2.116779518127441406e+01 -9.067559838294982910e-01 7.862542629241943359e+00 2.086735963821411133e+00 6.755827665328979492e-01
1.746000000000000000e+03 6.871613311767578125e+01 -3.393444061279296875e+00 -1.814408659934997559e+00 9.123656272888183594e+00 2.192774295806884766e+00 -2.446911811828613281e+00
1.747000000000000000e+03 6.740384674072265625e+01 -4.341503620147705078e+00 -1.349200606346130371e+00 7.911581993103027344e+00 1.968714356422424316e+00 -3.975456953048706055e+00
1.748000000000000000e+03 7.491289520263671875e+01 3.244823074340820312e+01 5.100893974304199219e-02 5.373127937316894531e+00 1.627241015434265137e+00 -1.688996404409408569e-01
1.749000000000000000e+03 7.401815032958984375e+01 2.770272636413574219e+01 9.064741432666778564e-02 5.449351310729980469e+00 1.661999702453613281e+00 -3.194095492362976074e-01
1.750000000000000000e+03 7.526461029052734375e+01 -2.740713119506835938e+01 -3.406187295913696289e-01 9.601298332214355469e+00 2.778203725814819336e+00 -5.068976283073425293e-01
1.751000000000000000e+03 7.380795288085937500e+01 -2.869706344604492188e+01 -5.064989924430847168e-01 9.029132843017578125e+00 2.556790113449096680e+00 -3.233874142169952393e-01
1.752000000000000000e+03 7.421288299560546875e+01 2.124032402038574219e+01 9.919880330562591553e-02 5.806778430938720703e+00 1.771793127059936523e+00 -4.758183360099792480e-01
1.753000000000000000e+03 7.513791656494140625e+01 2.398963165283203125e+01 7.152762264013290405e-02 5.771112918853759766e+00 1.752792119979858398e+00 -3.587350845336914062e-01
1.754000000000000000e+03 7.027742004394531250e+01 -1.992413902282714844e+01 -9.389417171478271484e-01 1.009900760650634766e+01 2.748019695281982422e+00 -3.199131488800048828e-01
1.755000000000000000e+03 7.550774383544921875e+01 -2.069583129882812500e+01 -4.063064455986022949e-01 9.388561248779296875e+00 2.694676637649536133e+00 -1.485156178474426270e+00
1.756000000000000000e+03 7.426219177246093750e+01 -2.079829406738281250e+01 -6.026008725166320801e-01 9.690729141235351562e+00 2.726438283920288086e+00 -1.386703252792358398e+00
1.757000000000000000e+03 7.548940277099609375e+01 1.864887428283691406e+01 7.107161730527877808e-02 6.211606502532958984e+00 1.884803414344787598e+00 -4.635747969150543213e-01
1.758000000000000000e+03 7.549057769775390625e+01 1.172599124908447266e+01 -2.801011549308896065e-03 6.892082214355468750e+00 2.066784381866455078e+00 -5.933578610420227051e-01
1.759000000000000000e+03 7.427942657470703125e+01 1.464874935150146484e+01 6.089469790458679199e-02 6.331984519958496094e+00 1.917863726615905762e+00 -6.793313026428222656e-01
1.760000000000000000e+03 7.426310729980468750e+01 7.551241874694824219e+00 -2.013303935527801514e-01 7.104442119598388672e+00 2.070933580398559570e+00 -6.892002820968627930e-01
1.761000000000000000e+03 7.405298614501953125e+01 4.602769374847412109e+00 -4.609320461750030518e-01 7.538149833679199219e+00 2.123165369033813477e+00 -5.462363958358764648e-01
1.762000000000000000e+03 7.557450866699218750e+01 -1.719182395935058594e+01 -1.029497981071472168e-01 9.107564926147460938e+00 2.701384544372558594e+00 -1.801128268241882324e+00
1.763000000000000000e+03 7.538275146484375000e+01 -1.405203533172607422e+01 8.648613095283508301e-01 8.937293052673339844e+00 2.940646171569824219e+00 -1.458513259887695312e+00
1.764000000000000000e+03 7.373106384277343750e+01 -1.577818584442138672e+01 4.035339653491973877e-01 1.047462654113769531e+01 3.263448238372802734e+00 -1.799582958221435547e+00
1.765000000000000000e+03 7.460474395751953125e+01 -1.058699846267700195e+00 -7.937153577804565430e-01 8.692518234252929688e+00 2.369640827178955078e+00 4.858546257019042969e-01
1.766000000000000000e+03 7.443460083007812500e+01 1.649689078330993652e+00 -7.137585282325744629e-01 8.164312362670898438e+00 2.235166072845458984e+00 -1.102853491902351379e-01
1.767000000000000000e+03 7.494240570068359375e+01 2.550792694091796875e+01 6.635423749685287476e-02 5.652305603027343750e+00 1.715597867965698242e+00 -3.298510611057281494e-01
1.768000000000000000e+03 7.329840850830078125e+01 -8.096020698547363281e+00 1.444143533706665039e+00 1.053118896484375000e+01 3.592599868774414062e+00 8.830393552780151367e-01
1.769000000000000000e+03 7.328221130371093750e+01 2.535446166992187500e+01 1.234291493892669678e-01 5.453063011169433594e+00 1.672947645187377930e+00 -4.090070426464080811e-01
1.770000000000000000e+03 7.426217651367187500e+01 1.039411544799804688e+01 -3.973205015063285828e-02 6.738710403442382812e+00 2.009693384170532227e+00 -7.278433442115783691e-01
1.771000000000000000e+03 7.496972656250000000e+01 -6.545564651489257812e+00 4.441407322883605957e-01 8.844616889953613281e+00 2.786627292633056641e+00 1.303483605384826660e+00
1.772000000000000000e+03 7.267239379882812500e+01 -1.273815059661865234e+01 2.179488182067871094e+00 1.137064838409423828e+01 4.065041065216064453e+00 -1.156344771385192871e+00
1.773000000000000000e+03 7.462814331054687500e+01 -1.493407058715820312e+01 6.037197113037109375e-01 9.469576835632324219e+00 3.021989107131958008e+00 -1.748510479927062988e+00
1.774000000000000000e+03 6.974584197998046875e+01 -3.682177782058715820e+00 -2.009817123413085938e+00 1.062635135650634766e+01 2.584960222244262695e+00 -1.642602920532226562e+00
1.775000000000000000e+03 7.167534637451171875e+01 -5.560439109802246094e+00 -2.130568623542785645e-01 1.142079925537109375e+01 3.362322807312011719e+00 7.154861092567443848e-01
1.776000000000000000e+03 7.396154022216796875e+01 -6.604844093322753906e+00 4.968581199645996094e-01 9.872409820556640625e+00 3.110780477523803711e+00 1.256605386734008789e+00
1.777000000000000000e+03 7.430823516845703125e+01 -1.732640266418457031e+01 -8.739698678255081177e-02 9.851854324340820312e+00 2.929337024688720703e+00 -1.914559006690979004e+00
1.778000000000000000e+03 7.434400939941406250e+01 1.598178577423095703e+01 7.538257539272308350e-02 6.219144821166992188e+00 1.888358235359191895e+00 -6.410428881645202637e-01
1.779000000000000000e+03 7.457329559326171875e+01 -2.454737091064453125e+01 -5.624213814735412598e-01 9.414362907409667969e+00 2.655582427978515625e+00 -8.828644752502441406e-01
1.780000000000000000e+03 7.467397308349609375e+01 -2.436801910400390625e+00 -7.241434454917907715e-01 8.959918022155761719e+00 2.470732450485229492e+00 9.090008139610290527e-01
1.781000000000000000e+03 7.416970062255859375e+01 -2.575048255920410156e+01 -5.811032652854919434e-01 9.297805786132812500e+00 2.615010738372802734e+00 -6.662400960922241211e-01
1.782000000000000000e+03 7.413617706298828125e+01 6.110816001892089844e+00 -3.053021728992462158e-01 7.267983913421630859e+00 2.088804483413696289e+00 -6.159844994544982910e-01
1.783000000000000000e+03 7.103044128417968750e+01 3.520013427734375000e+01 1.371787637472152710e-01 4.919767379760742188e+00 1.517083883285522461e+00 -2.029280811548233032e-01
1.784000000000000000e+03 7.416090393066406250e+01 1.327514171600341797e+01 3.892327100038528442e-02 6.457375526428222656e+00 1.948889732360839844e+00 -7.119266986846923828e-01
1.785000000000000000e+03 7.416782379150390625e+01 1.183362865447998047e+01 1.428440678864717484e-02 6.573300838470458984e+00 1.976275563240051270e+00 -7.131271958351135254e-01
1.786000000000000000e+03 7.351734924316406250e+01 -3.259832000732421875e+01 -1.891636997461318970e-01 8.723159790039062500e+00 2.560198783874511719e+00 -5.542064085602760315e-02
1.787000000000000000e+03 7.413916015625000000e+01 2.010836601257324219e+01 1.029441729187965393e-01 5.855595111846923828e+00 1.787561774253845215e+00 -5.451174378395080566e-01
1.788000000000000000e+03 7.405868530273437500e+01 1.880134010314941406e+01 9.588707983493804932e-02 5.955023765563964844e+00 1.815273284912109375e+00 -5.852261781692504883e-01
1.789000000000000000e+03 7.377822113037109375e+01 -2.725122451782226562e+01 -4.938619136810302734e-01 9.084118843078613281e+00 2.577076911926269531e+00 -4.837917983531951904e-01
1.790000000000000000e+03 5.731135845184326172e+00 -2.905824279785156250e+01 -5.084619522094726562e-01 4.227400302886962891e+00 1.115681529045104980e+00 6.167625188827514648e-01
1.791000000000000000e+03 4.638039112091064453e+00 -9.287971496582031250e+00 -5.890052318572998047e-01 3.512750148773193359e+00 8.771234750747680664e-01 -6.869863271713256836e-01
1.792000000000000000e+03 4.751165390014648438e+00 -2.722097015380859375e+01 -5.201027393341064453e-01 4.259386539459228516e+00 1.121785163879394531e+00 8.931386470794677734e-01
1.793000000000000000e+03 2.829458045959472656e+01 3.894936561584472656e+00 2.898295879364013672e+00 2.206572294235229492e+00 1.531460404396057129e+00 1.017670035362243652e+00
1.794000000000000000e+03 2.759997940063476562e+01 4.950438499450683594e+00 3.206852197647094727e+00 2.859308004379272461e+00 1.819848060607910156e+00 1.356064677238464355e+00
1.795000000000000000e+03 7.363744354248046875e+01 -3.493114471435546875e+01 -1.649636924266815186e-01 8.716778755187988281e+00 2.565544605255126953e+00 -2.275317534804344177e-02
1.796000000000000000e+03 7.533837890625000000e+01 -3.544108581542968750e+01 -5.477647110819816589e-02 9.661623954772949219e+00 2.882054090499877930e+00 -2.760165743529796600e-02
1.797000000000000000e+03 6.101472377777099609e+00 2.565640640258789062e+01 -2.089594006538391113e-01 1.273628711700439453e+00 3.194008171558380127e-01 -2.686710953712463379e-01
1.798000000000000000e+03 6.019330501556396484e+00 2.436322784423828125e+01 -2.086657881736755371e-01 1.282751917839050293e+00 3.222258388996124268e-01 -3.366904556751251221e-01
1.799000000000000000e+03 5.988411903381347656e+00 -2.283465003967285156e+01 -9.328841567039489746e-01 5.272094249725341797e+00 1.301762938499450684e+00 1.445535421371459961e+00
1.800000000000000000e+03 5.900571441650390625e+01 -5.143099784851074219e+00 -1.888342738151550293e+00 -3.764831721782684326e-01 -6.794477701187133789e-01 -9.878597855567932129e-01
1.801000000000000000e+03 4.579721927642822266e+00 -1.977509117126464844e+01 -2.113854587078094482e-01 4.372892379760742188e+00 1.248452067375183105e+00 2.203364372253417969e+00
1.802000000000000000e+03 3.843095302581787109e+00 -1.555040454864501953e+01 1.419458389282226562e+00 2.523665904998779297e+00 1.182937264442443848e+00 1.311612486839294434e+00
1.803000000000000000e+03 6.529950141906738281e+00 1.599971866607666016e+01 2.108362913131713867e-01 1.498411893844604492e+00 5.127744674682617188e-01 -6.333459615707397461e-01
1.804000000000000000e+03 9.041305541992187500e+00 1.616322517395019531e+01 2.232658714056015015e-01 2.436601877212524414e+00 7.979603409767150879e-01 -5.667297840118408203e-01
1.805000000000000000e+03 7.115709781646728516e+00 -2.431382369995117188e+01 -1.054119706153869629e+00 5.168927669525146484e+00 1.234442353248596191e+00 9.794239401817321777e-01
1.806000000000000000e+03 6.217052459716796875e+00 2.699338150024414062e+01 -1.835872679948806763e-01 1.261117577552795410e+00 3.232590854167938232e-01 -2.021763473749160767e-01
1.807000000000000000e+03 6.282975196838378906e+00 1.752553367614746094e+01 1.462417468428611755e-02 1.351298809051513672e+00 4.097768962383270264e-01 -6.409029364585876465e-01
1.808000000000000000e+03 5.672292232513427734e+00 1.342175483703613281e+01 3.616772592067718506e-01 9.814860820770263672e-01 4.029490053653717041e-01 -4.017304182052612305e-01
1.809000000000000000e+03 6.350379467010498047e+00 1.440062999725341797e+01 3.407881557941436768e-01 1.299172878265380859e+00 4.919883310794830322e-01 -5.228149294853210449e-01
1.810000000000000000e+03 5.624059677124023438e+00 3.095690727233886719e+01 -9.105961769819259644e-02 1.144162416458129883e+00 3.159308433532714844e-01 -8.052121847867965698e-02
1.811000000000000000e+03 4.782197952270507812e+00 -1.180585670471191406e+01 7.521173357963562012e-01 4.477598667144775391e+00 1.568914890289306641e+00 -1.180090069770812988e+00
1.812000000000000000e+03 5.933593273162841797e+00 -2.128375434875488281e+01 -7.995525002479553223e-01 5.497448921203613281e+00 1.409368991851806641e+00 1.733039259910583496e+00
1.813000000000000000e+03 6.738795280456542969e+00 -1.961711120605468750e+01 -4.598927199840545654e-01 7.102481365203857422e+00 1.992776513099670410e+00 1.570735692977905273e+00
1.814000000000000000e+03 1.283249187469482422e+01 -2.535935974121093750e+01 -5.699360966682434082e-01 3.477083921432495117e+00 8.721443414688110352e-01 -6.489623785018920898e-01
1.815000000000000000e+03 1.394600009918212891e+01 -2.815284538269042969e+01 -5.726941823959350586e-01 2.605313062667846680e+00 6.097856760025024414e-01 -4.295913875102996826e-01
1.816000000000000000e+03 6.690670967102050781e+00 2.203383255004882812e+01 -2.390800118446350098e-01 1.475565314292907715e+00 3.709456026554107666e-01 -4.719566702842712402e-01
1.817000000000000000e+03 5.774927616119384766e+00 1.848992347717285156e+01 -2.623237296938896179e-02 1.192286968231201172e+00 3.498163819313049316e-01 -6.078631281852722168e-01
1.818000000000000000e+03 6.135647773742675781e+00 2.102591323852539062e+01 -1.696517020463943481e-01 1.333594799041748047e+00 3.491829335689544678e-01 -5.240930318832397461e-01
1.819000000000000000e+03 1.267664241790771484e+01 -3.226501846313476562e+01 -4.608133435249328613e-01 2.870485544204711914e+00 7.229017019271850586e-01 -1.656372845172882080e-01
1.820000000000000000e+03 7.604486942291259766e+00 -3.305892944335937500e+01 -3.460144698619842529e-01 3.895430803298950195e+00 1.064824938774108887e+00 2.134290039539337158e-01
1.821000000000000000e+03 3.648054122924804688e+00 -9.276918411254882812e+00 -2.652936875820159912e-01 2.150462150573730469e+00 5.655505061149597168e-01 -8.850671052932739258e-01
1.822000000000000000e+03 6.098735332489013672e+00 -2.706508445739746094e+01 -6.836524009704589844e-01 4.457531452178955078e+00 1.132163643836975098e+00 8.036895394325256348e-01
1.823000000000000000e+03 6.287967205047607422e+00 2.836452865600585938e+01 -1.644034534692764282e-01 1.247989535331726074e+00 3.250758051872253418e-01 -1.509173959493637085e-01
1.824000000000000000e+03 3.860392332077026367e+00 9.862411499023437500e+00 2.646332979202270508e-01 8.274795860052108765e-02 1.042143702507019043e-01 3.612589836120605469e-02
1.825000000000000000e+03 4.912528514862060547e+00 9.636481285095214844e+00 3.392902612686157227e-01 5.091619491577148438e-01 2.545356452465057373e-01 5.355238914489746094e-03
1.826000000000000000e+03 5.992731094360351562e+00 9.430020332336425781e+00 4.634501338005065918e-01 9.942793250083923340e-01 4.373188316822052002e-01 1.182413380593061447e-02
1.827000000000000000e+03 1.274505996704101562e+01 1.885992050170898438e+01 -4.546835720539093018e-01 3.295821189880371094e+00 8.523412942886352539e-01 1.804421544075012207e-01
1.828000000000000000e+03 9.968396186828613281e+00 1.598236274719238281e+01 2.393685877323150635e-01 2.926364421844482422e+00 9.497199058532714844e-01 -5.453146696090698242e-01
1.829000000000000000e+03 4.816557884216308594e+00 8.229459762573242188e+00 3.485213220119476318e-01 4.139994084835052490e-01 2.287562191486358643e-01 1.748655438423156738e-01
1.830000000000000000e+03 3.433597564697265625e+00 7.004080772399902344e+00 2.036929279565811157e-01 -1.346188783645629883e-01 2.072221413254737854e-02 3.133814930915832520e-01
1.831000000000000000e+03 3.733859634399414062e+01 1.136937332153320312e+01 9.576699733734130859e-01 1.631173610687255859e+00 7.766530513763427734e-01 1.139096736907958984e+00
1.832000000000000000e+03 5.431494140625000000e+01 -7.113009929656982422e+00 -2.091957569122314453e+00 -1.970922648906707764e-01 -6.867149472236633301e-01 -7.972731590270996094e-01
1.833000000000000000e+03 5.620565795898437500e+01 -7.339478492736816406e+00 -2.470262765884399414e+00 -3.617017567157745361e-01 -8.495893478393554688e-01 -9.740816950798034668e-01
1.834000000000000000e+03 5.078415393829345703e+00 -1.340981483459472656e+01 2.928736686706542969e+00 4.943507671356201172e+00 2.361673355102539062e+00 -9.689605236053466797e-02
1.835000000000000000e+03 3.608036518096923828e+00 -1.446329593658447266e+01 1.300128817558288574e+00 2.046814203262329102e+00 1.004082918167114258e+00 7.290180921554565430e-01
1.836000000000000000e+03 4.261182785034179688e+00 -1.264950275421142578e+01 1.321901559829711914e+00 2.966928720474243164e+00 1.286649107933044434e+00 -8.758175969123840332e-01
1.837000000000000000e+03 5.470434570312500000e+01 1.229607224464416504e+00 3.581287562847137451e-01 2.568449676036834717e-01 1.844921112060546875e-01 -4.290516376495361328e-01
1.838000000000000000e+03 4.555562496185302734e+00 -7.027002334594726562e+00 -5.612722635269165039e-01 2.390379905700683594e+00 5.487322807312011719e-01 -2.565748430788516998e-02
1.839000000000000000e+03 4.551094055175781250e+00 -8.095405578613281250e+00 -6.851303577423095703e-01 3.107336759567260742e+00 7.266619205474853516e-01 -2.668667137622833252e-01
1.840000000000000000e+03 1.151726436614990234e+01 -2.981030654907226562e+01 -6.516911387443542480e-01 3.427721023559570312e+00 8.328089714050292969e-01 -1.235491707921028137e-01
1.841000000000000000e+03 1.294844150543212891e+01 -2.731845092773437500e+01 -6.410239338874816895e-01 3.178647041320800781e+00 7.612869143486022949e-01 -4.341420233249664307e-01
1.842000000000000000e+03 5.653882217407226562e+01 -3.616875076293945312e+01 3.224093317985534668e-01 7.288194894790649414e-01 3.153686523437500000e-01 -3.963790088891983032e-02
1.843000000000000000e+03 5.866671752929687500e+01 -1.508053064346313477e+00 -3.120180070400238037e-01 2.554163038730621338e-01 -1.698051393032073975e-02 -9.846641421318054199e-01
1.844000000000000000e+03 5.975086975097656250e+01 -4.350428581237792969e+00 -1.397676706314086914e+00 -2.377530336380004883e-01 -4.906289279460906982e-01 -9.767196178436279297e-01
1.845000000000000000e+03 5.922085571289062500e+01 -3.279346847534179688e+01 -9.454795718193054199e-02 1.280418395996093750e+00 3.557611107826232910e-01 1.790116578340530396e-01
1.846000000000000000e+03 1.088372325897216797e+01 -2.330720520019531250e+01 -7.865640521049499512e-01 5.096827983856201172e+00 1.293079137802124023e+00 -6.583592295646667480e-01
1.847000000000000000e+03 5.764524459838867188e+00 -1.251192760467529297e+01 1.986245512962341309e+00 5.995266437530517578e+00 2.394453763961791992e+00 -9.403555393218994141e-01
1.848000000000000000e+03 7.297823429107666016e+00 -1.804983520507812500e+01 3.237887322902679443e-01 8.625957489013671875e+00 2.684923887252807617e+00 1.503540873527526855e+00
1.849000000000000000e+03 1.281304264068603516e+01 -2.338333320617675781e+01 -2.574640512466430664e-01 3.696501016616821289e+00 1.031711101531982422e+00 -1.019258975982666016e+00
1.850000000000000000e+03 6.428231811523437500e+01 -2.574459838867187500e+01 -8.680151104927062988e-01 3.976703166961669922e+00 9.326064586639404297e-01 6.650983095169067383e-01
1.851000000000000000e+03 6.788942718505859375e+01 -2.341450691223144531e+01 -1.095411658287048340e+00 7.166087627410888672e+00 1.821202754974365234e+00 4.384388625621795654e-01
1.852000000000000000e+03 8.096382141113281250e+00 -2.394888305664062500e+01 -1.074032068252563477e+00 5.402462959289550781e+00 1.298529267311096191e+00 6.108701229095458984e-01
1.853000000000000000e+03 1.412840461730957031e+01 1.877758026123046875e+01 -5.663081407546997070e-01 3.286357641220092773e+00 8.160148859024047852e-01 6.012269258499145508e-01
1.854000000000000000e+03 1.407517623901367188e+01 1.744318199157714844e+01 -1.816228926181793213e-01 3.833332061767578125e+00 1.095512747764587402e+00 6.085808277130126953e-01
1.855000000000000000e+03 4.025409317016601562e+01 9.415722846984863281e+00 7.515356540679931641e-01 1.326581478118896484e+00 6.234351396560668945e-01 4.964754581451416016e-01
1.856000000000000000e+03 4.026140213012695312e+01 8.194027900695800781e+00 8.615415096282958984e-01 1.064778804779052734e+00 5.778960585594177246e-01 3.150514662265777588e-01
1.857000000000000000e+03 2.988965797424316406e+01 1.002411365509033203e+01 1.496117234230041504e+00 2.362004995346069336e+00 1.157436728477478027e+00 1.878942966461181641e+00
1.858000000000000000e+03 2.862975692749023438e+01 1.354504203796386719e+01 -1.464061737060546875e-01 2.655372858047485352e+00 7.526899576187133789e-01 1.322906255722045898e+00
1.859000000000000000e+03 2.909479904174804688e+01 8.344857215881347656e+00 2.392274618148803711e+00 2.301828861236572266e+00 1.408231019973754883e+00 1.950347542762756348e+00
1.860000000000000000e+03 2.822272491455078125e+01 8.646893501281738281e+00 2.182094812393188477e+00 3.267870664596557617e+00 1.634989619255065918e+00 2.021401882171630859e+00
1.861000000000000000e+03 1.948661422729492188e+01 -9.910993576049804688e+00 -3.551329374313354492e+00 5.802513957023620605e-01 -8.913233876228332520e-01 9.716790914535522461e-02
1.862000000000000000e+03 3.863752746582031250e+01 1.457644081115722656e+01 8.616689443588256836e-01 1.832040667533874512e+00 8.081129193305969238e-01 1.098701477050781250e+00
1.863000000000000000e+03 6.117919921875000000e+01 -2.673444175720214844e+01 -8.162647485733032227e-01 1.663545489311218262e+00 2.541842162609100342e-01 2.277619987726211548e-01
1.864000000000000000e+03 6.453952026367187500e+01 -2.824628448486328125e+01 -6.929545998573303223e-01 4.146947383880615234e+00 1.036197781562805176e+00 5.663749575614929199e-01
1.865000000000000000e+03 2.512960052490234375e+01 -1.053368377685546875e+01 -2.689422369003295898e+00 6.944791674613952637e-01 -5.984829664230346680e-01 -2.239521592855453491e-01
1.866000000000000000e+03 2.326544761657714844e+01 -1.088502407073974609e+01 -3.299952745437622070e+00 6.376198530197143555e-01 -7.986999154090881348e-01 -4.953576996922492981e-02
1.867000000000000000e+03 6.070991134643554688e+01 -3.117655563354492188e+01 -2.909013628959655762e-01 1.844601154327392578e+00 4.661099612712860107e-01 3.100589215755462646e-01
1.868000000000000000e+03 6.323741912841796875e+01 -2.710313606262207031e+01 -7.847359776496887207e-01 3.250278472900390625e+00 7.396627664566040039e-01 5.360226631164550781e-01
1.869000000000000000e+03 1.797059440612792969e+01 1.992956352233886719e+01 -2.186194360256195068e-01 1.453158020973205566e+00 3.703615963459014893e-01 1.321023225784301758e+00
1.870000000000000000e+03 6.945382690429687500e+01 -1.898265075683593750e+01 -6.986191868782043457e-01 1.006640911102294922e+01 2.810336828231811523e+00 -5.333903431892395020e-02
1.871000000000000000e+03 3.764006805419921875e+01 1.408202075958251953e+01 8.507353663444519043e-01 1.801886558532714844e+00 7.957865595817565918e-01 1.204467415809631348e+00
1.872000000000000000e+03 1.895785140991210938e+01 2.022373962402343750e+01 -9.700156003236770630e-02 1.062661051750183105e+00 2.896978259086608887e-01 1.182669043540954590e+00
1.873000000000000000e+03 1.816343498229980469e+01 2.091744422912597656e+01 -1.747892946004867554e-01 1.472239255905151367e+00 3.892349898815155029e-01 1.179814696311950684e+00
1.874000000000000000e+03 2.794034576416015625e+01 -1.381590747833251953e+01 -3.441100597381591797e+00 4.637243747711181641e-01 -8.932128548622131348e-01 2.057847231626510620e-01
1.875000000000000000e+03 5.729962539672851562e+01 7.401881217956542969e+00 4.452842772006988525e-01 1.869561195373535156e+00 6.944536566734313965e-01 -4.966260194778442383e-01
1.876000000000000000e+03 7.189353466033935547e+00 -2.086310958862304688e+01 -9.085168242454528809e-01 6.797356605529785156e+00 1.766651988029479980e+00 1.130090713500976562e+00
1.877000000000000000e+03 8.258403778076171875e+00 -2.007005691528320312e+01 -7.038164138793945312e-01 7.588960647583007812e+00 2.065543174743652344e+00 6.203302145004272461e-01
1.878000000000000000e+03 5.918555831909179688e+01 -6.730530261993408203e+00 -2.915194272994995117e+00 -5.604112744331359863e-01 -1.042681694030761719e+00 -1.156333208084106445e+00
1.879000000000000000e+03 7.112783813476562500e+01 -1.737508201599121094e+01 -4.065485298633575439e-01 1.150522708892822266e+01 3.329603433609008789e+00 -1.078243970870971680e+00
1.880000000000000000e+03 7.024882507324218750e+01 -1.807266807556152344e+01 -4.280680119991302490e-01 1.110398578643798828e+01 3.202775239944458008e+00 -2.071927636861801147e-01
1.881000000000000000e+03 1.457216548919677734e+01 -2.918704795837402344e+01 -5.053409337997436523e-01 2.335749626159667969e+00 5.491226315498352051e-01 -3.660994768142700195e-01
1.882000000000000000e+03 4.655703735351562500e+01 2.413406753540039062e+01 9.729960560798645020e-01 1.613949894905090332e+00 7.760837674140930176e-01 4.441790282726287842e-01
1.883000000000000000e+03 4.477302932739257812e+01 2.491628265380859375e+01 8.085671067237854004e-01 1.780917525291442871e+00 7.768453955650329590e-01 4.812155067920684814e-01
1.884000000000000000e+03 4.066873168945312500e+01 1.825957489013671875e+01 8.148694634437561035e-01 2.075791120529174805e+00 8.671981692314147949e-01 7.760947346687316895e-01
1.885000000000000000e+03 3.888922882080078125e+01 1.806676483154296875e+01 7.406240105628967285e-01 1.990116953849792480e+00 8.192222714424133301e-01 8.268510103225708008e-01
1.886000000000000000e+03 4.558124542236328125e+01 -1.181398582458496094e+01 -2.150436162948608398e+00 7.152008265256881714e-02 -6.236748099327087402e-01 -7.958735823631286621e-01
1.887000000000000000e+03 4.041823196411132812e+01 2.017098426818847656e+01 6.482545137405395508e-01 2.022302150726318359e+00 8.011670112609863281e-01 6.939570903778076172e-01
1.888000000000000000e+03 3.953610610961914062e+01 1.908183288574218750e+01 7.215055823326110840e-01 2.015094995498657227e+00 8.209801316261291504e-01 7.812071442604064941e-01
1.889000000000000000e+03 5.002344131469726562e+01 1.393702864646911621e+00 5.002324581146240234e-01 1.753282845020294189e-01 2.026682198047637939e-01 -2.272290587425231934e-01
1.890000000000000000e+03 4.158211898803710938e+01 7.160753726959228516e+00 9.495414495468139648e-01 6.947787404060363770e-01 4.932960271835327148e-01 1.319295447319746017e-02
1.891000000000000000e+03 4.266291427612304688e+01 3.774682521820068359e+00 9.933461546897888184e-01 3.133704662322998047e-01 3.920149803161621094e-01 -5.381245911121368408e-02
1.892000000000000000e+03 4.116426086425781250e+01 -1.207534122467041016e+01 -2.113671779632568359e+00 2.815400660037994385e-01 -5.496395230293273926e-01 -6.409193277359008789e-01
1.893000000000000000e+03 4.327976608276367188e+01 -1.283984184265136719e+01 -2.243832111358642578e+00 1.483488678932189941e-01 -6.286450028419494629e-01 -7.121131420135498047e-01
1.894000000000000000e+03 2.819794273376464844e+01 -1.259759616851806641e+01 -3.065406799316406250e+00 5.999481081962585449e-01 -7.396375536918640137e-01 -5.082859843969345093e-02
1.895000000000000000e+03 4.271685409545898438e+01 -4.114401245117187500e+01 -4.865891486406326294e-02 -4.145328402519226074e-01 -1.389575153589248657e-01 -7.631283998489379883e-02
1.896000000000000000e+03 5.241482925415039062e+01 -4.130229568481445312e+01 4.900219142436981201e-01 -4.601291939616203308e-02 1.332027018070220947e-01 -5.767824500799179077e-02
1.897000000000000000e+03 2.378717041015625000e+01 9.789136052131652832e-02 2.846959590911865234e+00 1.738176465034484863e+00 1.375540733337402344e+00 1.923860430717468262e+00
1.898000000000000000e+03 6.954112243652343750e+01 -2.098902702331542969e+01 -1.057269573211669922e+00 9.103752136230468750e+00 2.413944721221923828e+00 -1.469100117683410645e-01
1.899000000000000000e+03 7.169067382812500000e+01 -1.957217025756835938e+01 -8.192445039749145508e-01 1.027030277252197266e+01 2.835317611694335938e+00 -9.776768088340759277e-01
1.900000000000000000e+03 7.215393066406250000e+01 -1.690336418151855469e+01 5.191140994429588318e-02 1.084121417999267578e+01 3.267937660217285156e+00 -1.550394296646118164e+00
1.901000000000000000e+03 6.001513290405273438e+01 1.362365245819091797e+01 7.200518250465393066e-01 3.303653240203857422e+00 1.207111477851867676e+00 -1.044023156166076660e+00
1.902000000000000000e+03 7.222875976562500000e+01 4.093955612182617188e+01 1.044189631938934326e-01 5.007427215576171875e+00 1.533553838729858398e+00 -3.448415175080299377e-02
1.903000000000000000e+03 2.840501976013183594e+01 1.942317390441894531e+01 -2.638473808765411377e-01 1.688296437263488770e+00 4.273347258567810059e-01 3.210971653461456299e-01
1.904000000000000000e+03 2.569986152648925781e+01 1.890376663208007812e+01 -4.527661800384521484e-01 1.145542025566101074e+00 2.078327685594558716e-01 1.179000437259674072e-01
1.905000000000000000e+03 2.511379623413085938e+01 2.074737930297851562e+01 -7.699096202850341797e-02 1.015293598175048828e+00 2.814908027648925781e-01 2.254417538642883301e-01
1.906000000000000000e+03 7.356684112548828125e+01 -1.386660480499267578e+01 1.525883674621582031e+00 1.071800231933593750e+01 3.673165798187255859e+00 -1.537690162658691406e+00
1.907000000000000000e+03 5.698809051513671875e+01 6.176487445831298828e+00 4.970953762531280518e-01 1.480496525764465332e+00 5.932775735855102539e-01 -4.292210340499877930e-01
1.908000000000000000e+03 5.901776123046875000e+01 7.803129673004150391e+00 4.124685525894165039e-01 2.358497381210327148e+00 8.312897682189941406e-01 -8.560194373130798340e-01
1.909000000000000000e+03 5.613524627685546875e+01 2.095859146118164062e+01 7.123628258705139160e-01 2.772703409194946289e+00 1.045519828796386719e+00 -7.776088118553161621e-01
1.910000000000000000e+03 3.066581726074218750e+01 -1.303740501403808594e+01 -2.832127094268798828e+00 5.531017184257507324e-01 -6.837076544761657715e-01 -1.700144112110137939e-01
1.911000000000000000e+03 3.419956588745117188e+01 -1.369934749603271484e+01 -2.637701988220214844e+00 4.689748585224151611e-01 -6.506181359291076660e-01 -3.223751485347747803e-01
1.912000000000000000e+03 1.222604370117187500e+01 2.535740613937377930e+00 -5.150468945503234863e-01 6.513735294342041016e+00 1.799606561660766602e+00 -2.730859041213989258e+00
1.913000000000000000e+03 1.155873203277587891e+01 -3.618352890014648438e+00 3.093814373016357422e+00 5.801089763641357422e+00 2.668471097946166992e+00 6.215399742126464844e+00
1.914000000000000000e+03 1.118908977508544922e+01 -2.695020437240600586e+00 5.310906410217285156e+00 3.650559186935424805e+00 2.688439607620239258e+00 5.827327728271484375e+00
1.915000000000000000e+03 1.353085613250732422e+01 2.774366378784179688e+00 -1.119091272354125977e+00 8.297220230102539062e+00 2.153438806533813477e+00 -1.190066814422607422e+00
1.916000000000000000e+03 7.840761184692382812e+00 -3.726744890213012695e+00 1.115709900856018066e+00 1.772245407104492188e+00 8.663865923881530762e-01 2.443364143371582031e+00
1.917000000000000000e+03 1.145977592468261719e+01 -3.169725656509399414e+00 4.172736644744873047e+00 5.076909065246582031e+00 2.774893522262573242e+00 6.236793994903564453e+00
1.918000000000000000e+03 1.207565498352050781e+01 -4.586781024932861328e+00 1.328896880149841309e+00 6.604334831237792969e+00 2.379969596862792969e+00 5.698881149291992188e+00
1.919000000000000000e+03 1.554886054992675781e+01 -3.906987190246582031e+00 3.584019660949707031e+00 5.379899024963378906e+00 2.689175605773925781e+00 3.416314125061035156e-01
1.920000000000000000e+03 1.228395652770996094e+01 4.131474018096923828e+00 -1.345951199531555176e+00 6.121165752410888672e+00 1.432564258575439453e+00 -1.702610254287719727e+00
1.921000000000000000e+03 9.775566101074218750e+00 -3.419338703155517578e+00 2.885283470153808594e+00 2.227499723434448242e+00 1.533835053443908691e+00 4.338525295257568359e+00
1.922000000000000000e+03 1.239442157745361328e+01 1.996324062347412109e+00 -1.691953390836715698e-01 7.276472091674804688e+00 2.132183074951171875e+00 -3.024250268936157227e+00
1.923000000000000000e+03 1.285651302337646484e+01 1.721270918846130371e+00 -2.665133178234100342e-01 9.217957496643066406e+00 2.685433149337768555e+00 -2.730006217956542969e+00
1.924000000000000000e+03 1.508378887176513672e+01 2.595025777816772461e+00 1.985854953527450562e-01 6.881927967071533203e+00 2.124154090881347656e+00 8.079404234886169434e-01
1.925000000000000000e+03 1.390913391113281250e+01 6.114429473876953125e+00 -2.016993522644042969e+00 6.211183071136474609e+00 1.258256793022155762e+00 -6.673793494701385498e-02
1.926000000000000000e+03 1.292517662048339844e+01 7.235847473144531250e+00 -9.248544573783874512e-01 6.041576862335205078e+00 1.535016655921936035e+00 2.041630744934082031e-01
1.927000000000000000e+03 9.366930961608886719e+00 -3.551273584365844727e+00 2.326524496078491211e+00 2.293119430541992188e+00 1.385893225669860840e+00 3.995386838912963867e+00
1.928000000000000000e+03 8.908270835876464844e+00 -3.641502857208251953e+00 1.920865058898925781e+00 1.953579545021057129e+00 1.162333369255065918e+00 3.429525136947631836e+00
1.929000000000000000e+03 1.453122901916503906e+01 3.839483261108398438e+00 -1.777722597122192383e+00 6.447375774383544922e+00 1.400895953178405762e+00 -3.810155987739562988e-01
1.930000000000000000e+03 1.416732025146484375e+01 2.984338521957397461e+00 -1.008809804916381836e+00 7.755605220794677734e+00 2.024038553237915039e+00 -4.388779997825622559e-01
1.931000000000000000e+03 1.075390243530273438e+01 3.005364179611206055e+00 5.410495027899742126e-02 3.359483242034912109e+00 1.024076461791992188e+00 -2.018088102340698242e+00
1.932000000000000000e+03 1.362779903411865234e+01 5.288676261901855469e+00 -2.185662746429443359e+00 6.408112049102783203e+00 1.266734838485717773e+00 -4.836362898349761963e-01
1.933000000000000000e+03 6.860856056213378906e+00 -4.707124233245849609e+00 2.123872488737106323e-01 2.433469295501708984e+00 7.937569618225097656e-01 1.906631112098693848e+00
1.934000000000000000e+03 1.007799148559570312e+01 -8.666890144348144531e+00 -3.292338132858276367e+00 7.387549877166748047e+00 1.228563547134399414e+00 5.987950801849365234e+00
1.935000000000000000e+03 1.626592826843261719e+01 -2.569172143936157227e+00 6.358792781829833984e+00 4.173228740692138672e+00 3.159606456756591797e+00 1.332134101539850235e-02
1.936000000000000000e+03 5.363326549530029297e+00 4.892424106597900391e+00 1.841449141502380371e-01 3.565390110015869141e-01 1.622051745653152466e-01 3.334114253520965576e-01
1.937000000000000000e+03 6.418039321899414062e+00 4.612318515777587891e+00 2.060022950172424316e-01 6.499490737915039062e-01 2.567854225635528564e-01 1.580233126878738403e-01
1.938000000000000000e+03 5.443799495697021484e+00 5.933906555175781250e+00 2.774764597415924072e-01 5.014382004737854004e-01 2.336743921041488647e-01 2.738607823848724365e-01
1.939000000000000000e+03 7.552511692047119141e+00 5.355679035186767578e+00 2.357953190803527832e-01 1.377669334411621094e+00 4.840393960475921631e-01 -1.061870977282524109e-01
1.940000000000000000e+03 7.468067646026611328e+00 -6.513237953186035156e+00 -9.571372866630554199e-01 4.623378753662109375e+00 1.099872350692749023e+00 2.761439323425292969e+00
1.941000000000000000e+03 1.299805450439453125e+01 -4.248991489410400391e+00 1.604288935661315918e+00 7.863123416900634766e+00 2.840223550796508789e+00 4.551168441772460938e+00
1.942000000000000000e+03 1.449614524841308594e+01 -4.136625289916992188e+00 2.436321735382080078e+00 7.348011493682861328e+00 2.935299873352050781e+00 1.619961738586425781e+00
1.943000000000000000e+03 6.111637115478515625e+00 6.139374256134033203e+00 3.028171360492706299e-01 7.969567179679870605e-01 3.299321532249450684e-01 1.766293942928314209e-01
1.944000000000000000e+03 1.806583786010742188e+01 -5.842880606651306152e-01 6.670150279998779297e+00 1.317279219627380371e+00 2.396228790283203125e+00 2.260580539703369141e+00
1.945000000000000000e+03 1.991683769226074219e+01 1.066393479704856873e-01 4.946061611175537109e+00 5.637105703353881836e-01 1.652931690216064453e+00 2.925695896148681641e+00
1.946000000000000000e+03 6.584640026092529297e+00 -5.744551658630371094e+00 -4.374852776527404785e-01 3.390079736709594727e+00 8.857783675193786621e-01 1.826695084571838379e+00
1.947000000000000000e+03 1.602821922302246094e+01 2.046362161636352539e+00 2.520145654678344727e+00 4.446549415588378906e+00 2.090008497238159180e+00 1.988059759140014648e+00
1.948000000000000000e+03 1.618795394897460938e+01 6.277838349342346191e-01 6.106667995452880859e+00 4.110725402832031250e+00 3.065217971801757812e+00 3.001971006393432617e+00
1.949000000000000000e+03 7.916696548461914062e+00 -4.355164051055908203e+00 7.740725874900817871e-01 2.503183841705322266e+00 9.831768870353698730e-01 2.929744243621826172e+00
1.950000000000000000e+03 1.187518024444580078e+01 6.983993053436279297e+00 -6.887226700782775879e-01 5.318754673004150391e+00 1.389009594917297363e+00 -1.010909900069236755e-01
1.951000000000000000e+03 9.656509399414062500e+00 4.073861122131347656e+00 -1.239076536148786545e-02 2.548491001129150391e+00 7.608301043510437012e-01 -1.092794895172119141e+00
1.952000000000000000e+03 8.717140197753906250e+00 6.015914440155029297e+00 1.292876154184341431e-01 2.330981969833374023e+00 7.380808591842651367e-01 -3.288817405700683594e-01
1.953000000000000000e+03 1.138952255249023438e+01 -5.588126659393310547e+00 2.989995777606964111e-01 5.237990379333496094e+00 1.661097049713134766e+00 5.899047374725341797e+00
1.954000000000000000e+03 1.179066181182861328e+01 -9.215390205383300781e+00 -3.131697177886962891e+00 4.161041259765625000e+00 3.088032603263854980e-01 6.430727958679199219e+00
1.955000000000000000e+03 1.518173885345458984e+01 -8.933134078979492188e+00 -2.992374897003173828e+00 1.078908562660217285e+00 -5.740398764610290527e-01 2.088542222976684570e+00
1.956000000000000000e+03 7.059289550781250000e+01 -5.745653629302978516e+00 -4.521192610263824463e-01 1.273739337921142578e+01 3.685582399368286133e+00 5.011241436004638672e-01
1.957000000000000000e+03 7.183650970458984375e+01 -6.947445869445800781e+00 9.111932516098022461e-01 1.213662815093994141e+01 3.914346456527709961e+00 1.114488482475280762e+00
1.958000000000000000e+03 1.223268127441406250e+01 7.646333217620849609e+00 -2.267476916313171387e-01 5.374304771423339844e+00 1.544267177581787109e+00 2.076145261526107788e-01
1.959000000000000000e+03 1.117240715026855469e+01 9.784435272216796875e+00 8.377567529678344727e-01 4.323897361755371094e+00 1.548496246337890625e+00 1.459411680698394775e-01
1.960000000000000000e+03 6.908477020263671875e+01 -1.016186118125915527e+00 -1.525731921195983887e+00 7.910891532897949219e+00 1.915547847747802734e+00 -2.018584728240966797e+00
1.961000000000000000e+03 6.553855895996093750e+01 -2.322147369384765625e+00 -8.120630979537963867e-01 4.295166969299316406e+00 1.044931173324584961e+00 -3.467817544937133789e+00
1.962000000000000000e+03 9.323784828186035156e+00 -8.851622581481933594e+00 -3.374106407165527344e+00 7.946034908294677734e+00 1.371578574180603027e+00 4.816814899444580078e+00
1.963000000000000000e+03 5.833118915557861328e+00 -1.044535923004150391e+01 -1.163344606757164001e-01 5.765007019042968750e+00 1.694601774215698242e+00 -6.016463637351989746e-01
1.964000000000000000e+03 3.047671508789062500e+01 1.099454307556152344e+01 1.155666470527648926e+00 2.334409475326538086e+00 1.047022819519042969e+00 1.905631780624389648e+00
1.965000000000000000e+03 7.256937408447265625e+01 -8.611646652221679688e+00 1.967652440071105957e+00 1.130420112609863281e+01 3.981555938720703125e+00 9.988035559654235840e-01
1.966000000000000000e+03 7.289749908447265625e+01 -1.099226760864257812e+01 2.646677732467651367e+00 1.081708812713623047e+01 4.039129734039306641e+00 -4.994839131832122803e-01
1.967000000000000000e+03 4.245670700073242188e+01 -1.361450958251953125e+01 -2.321412801742553711e+00 1.594411432743072510e-01 -6.485915184020996094e-01 -6.788175702095031738e-01
1.968000000000000000e+03 3.976530456542968750e+01 -1.227254104614257812e+01 -2.155040502548217773e+00 3.474314510822296143e-01 -5.422827601432800293e-01 -6.033546328544616699e-01
1.969000000000000000e+03 4.807398986816406250e+01 -9.062181472778320312e+00 -1.875707030296325684e+00 5.436759069561958313e-02 -5.464017987251281738e-01 -7.287815213203430176e-01
1.970000000000000000e+03 8.130999565124511719e+00 1.581047821044921875e+01 2.642784714698791504e-01 2.085846185684204102e+00 7.050374150276184082e-01 -6.355439424514770508e-01
1.971000000000000000e+03 7.308268547058105469e+00 1.359981822967529297e+01 5.274884104728698730e-01 1.734288096427917480e+00 6.785329580307006836e-01 -4.523721635341644287e-01
1.972000000000000000e+03 6.521666526794433594e+00 -1.165466690063476562e+01 2.987857162952423096e-01 8.536937713623046875e+00 2.650717020034790039e+00 -1.141174674034118652e+00
1.973000000000000000e+03 1.027425575256347656e+01 1.002541923522949219e+01 7.956872582435607910e-01 3.626539945602416992e+00 1.326668143272399902e+00 -2.585983276367187500e-02
1.974000000000000000e+03 7.105222320556640625e+01 -2.478321075439453125e+01 -9.831794500350952148e-01 8.613867759704589844e+00 2.289206504821777344e+00 -4.216708540916442871e-01
1.975000000000000000e+03 2.716834259033203125e+01 -9.901195526123046875e+00 -2.132967948913574219e+00 7.432309985160827637e-01 -4.169211089611053467e-01 -3.582161962985992432e-01
1.976000000000000000e+03 1.740101242065429688e+01 -1.028412804007530212e-01 6.668006896972656250e+00 1.555286884307861328e+00 2.466988086700439453e+00 2.535498857498168945e+00
1.977000000000000000e+03 1.961518478393554688e+01 -6.714259147644042969e+00 1.846887022256851196e-01 1.006099343299865723e+00 3.572364151477813721e-01 -2.741482853889465332e-01
1.978000000000000000e+03 4.256570434570312500e+01 -1.170549201965332031e+01 -2.062509059906005859e+00 2.206296920776367188e-01 -5.525637865066528320e-01 -6.796325445175170898e-01
1.979000000000000000e+03 4.623462677001953125e+01 -1.286307525634765625e+01 -2.301992654800415039e+00 -8.441626094281673431e-03 -6.931303143501281738e-01 -8.673191070556640625e-01
1.980000000000000000e+03 2.999814796447753906e+01 7.676955223083496094e+00 2.367618322372436523e+00 2.189285993576049805e+00 1.367071270942687988e+00 1.729787349700927734e+00
1.981000000000000000e+03 3.307266235351562500e+01 -1.347497844696044922e+01 -2.696313619613647461e+00 4.919218420982360840e-01 -6.613175868988037109e-01 -2.703260183334350586e-01
1.982000000000000000e+03 3.211405181884765625e+01 -1.198326683044433594e+01 -2.416009187698364258e+00 5.939981937408447266e-01 -5.466032624244689941e-01 -3.573261499404907227e-01
1.983000000000000000e+03 1.682683372497558594e+01 1.999709701538085938e+01 -4.166151881217956543e-01 2.071098327636718750e+00 4.963449537754058838e-01 1.288047671318054199e+00
1.984000000000000000e+03 1.422895717620849609e+01 2.016878700256347656e+01 -5.800828933715820312e-01 2.836069822311401367e+00 6.767960786819458008e-01 6.738789677619934082e-01
1.985000000000000000e+03 3.694020843505859375e+01 1.254813194274902344e+01 8.999304175376892090e-01 1.690479636192321777e+00 7.771230340003967285e-01 1.239369750022888184e+00
1.986000000000000000e+03 5.691119766235351562e+01 4.889342308044433594e+00 5.883314013481140137e-01 1.152651906013488770e+00 5.222949981689453125e-01 -4.701635241508483887e-01
1.987000000000000000e+03 5.348413467407226562e+01 -6.204960823059082031e+00 -1.724107384681701660e+00 -9.178626537322998047e-02 -5.447680950164794922e-01 -6.433518528938293457e-01
1.988000000000000000e+03 5.041252899169921875e+01 -7.921364307403564453e+00 -1.839219689369201660e+00 -1.524589210748672485e-02 -5.563396811485290527e-01 -7.187877297401428223e-01
1.989000000000000000e+03 1.656415748596191406e+01 -3.793328046798706055e+00 4.278238773345947266e+00 3.792497158050537109e+00 2.421220779418945312e+00 -1.628847047686576843e-02
1.990000000000000000e+03 1.451696205139160156e+01 -8.451709747314453125e+00 -2.077111959457397461e+00 1.524781823158264160e+00 -1.656990498304367065e-01 2.729250192642211914e+00
1.991000000000000000e+03 2.510303306579589844e+01 -1.202010536193847656e+01 -3.439280986785888672e+00 6.064593791961669922e-01 -8.498464822769165039e-01 9.766583144664764404e-02
1.992000000000000000e+03 2.205876731872558594e+01 -8.772517204284667969e+00 -1.825402140617370605e+00 6.912754774093627930e-01 -3.402380049228668213e-01 -3.530177772045135498e-01
1.993000000000000000e+03 1.794006919860839844e+01 -8.524435043334960938e+00 -2.245454072952270508e+00 9.010234475135803223e-01 -4.033291935920715332e-01 1.709084808826446533e-01
1.994000000000000000e+03 5.532039165496826172e+00 -9.214823722839355469e+00 -1.107258915901184082e+00 5.295131683349609375e+00 1.256361842155456543e+00 -2.356537729501724243e-01
1.995000000000000000e+03 3.737173461914062500e+01 -1.259845447540283203e+01 -2.264459371566772461e+00 4.276915192604064941e-01 -5.510303378105163574e-01 -5.222188234329223633e-01
1.996000000000000000e+03 3.871049118041992188e+01 -1.361590480804443359e+01 -2.401569366455078125e+00 3.449872434139251709e-01 -6.169746518135070801e-01 -5.409834384918212891e-01
1.997000000000000000e+03 5.307466125488281250e+01 1.752798438072204590e+00 5.080895423889160156e-01 2.024025470018386841e-01 2.131476253271102905e-01 -3.023258447647094727e-01
1.998000000000000000e+03 5.226540374755859375e+01 2.791281938552856445e+00 7.342371940612792969e-01 1.908743381500244141e-01 2.775334417819976807e-01 -2.481161803007125854e-01
1.999000000000000000e+03 1.706154823303222656e+01 -1.574676871299743652e+00 7.413119316101074219e+00 2.332809686660766602e+00 2.923778772354125977e+00 1.105919122695922852e+00
2.000000000000000000e+03 9.876583099365234375e+00 -2.427976417541503906e+01 -9.503831863403320312e-01 4.918422222137451172e+00 1.190411686897277832e+00 -1.328548192977905273e-01
2.001000000000000000e+03 6.540029907226562500e+01 -2.666136741638183594e+01 -9.249925017356872559e-01 4.949409484863281250e+00 1.207325100898742676e+00 6.049630641937255859e-01
2.002000000000000000e+03 2.126134300231933594e+01 -9.671266555786132812e+00 -2.821390867233276367e+00 6.643933653831481934e-01 -6.470992565155029297e-01 -1.957209706306457520e-01
2.003000000000000000e+03 2.037397193908691406e+01 -9.007582664489746094e+00 -2.260499000549316406e+00 6.811899542808532715e-01 -4.737927019596099854e-01 -2.297137081623077393e-01
2.004000000000000000e+03 2.479060173034667969e+01 2.479491233825683594e+00 2.952532529830932617e+00 2.833213806152343750e+00 1.735723972320556641e+00 1.946113109588623047e+00
2.005000000000000000e+03 4.184640502929687500e+01 6.064184188842773438e+00 1.037400364875793457e+00 5.500232577323913574e-01 4.762271046638488770e-01 -4.500482976436614990e-02
2.006000000000000000e+03 4.629417419433593750e+01 2.516861915588378906e+00 7.768905162811279297e-01 2.368906140327453613e-01 3.041343390941619873e-01 -1.029596403241157532e-01
2.007000000000000000e+03 7.012837219238281250e+01 -2.791740226745605469e+01 -8.212974667549133301e-01 7.668726444244384766e+00 2.054228544235229492e+00 2.330771647393703461e-02
2.008000000000000000e+03 6.953022003173828125e+01 -3.392703628540039062e+01 -1.827699840068817139e-01 6.833044528961181641e+00 1.995082378387451172e+00 2.322307229042053223e-01
2.009000000000000000e+03 4.922909164428710938e+01 -8.453775405883789062e+00 -1.851605772972106934e+00 2.873347327113151550e-02 -5.468617081642150879e-01 -7.223743200302124023e-01
2.010000000000000000e+03 7.180670928955078125e+01 -8.141948699951171875e+00 2.152865171432495117e+00 1.172912979125976562e+01 4.164598464965820312e+00 7.494228482246398926e-01
2.011000000000000000e+03 7.273997497558593750e+01 -5.393695831298828125e+00 -2.569859027862548828e-01 1.083367061614990234e+01 3.173005580902099609e+00 1.181077718734741211e+00
2.012000000000000000e+03 7.746099948883056641e+00 2.843620300292968750e+01 -2.107792347669601440e-01 1.393464207649230957e+00 3.548054993152618408e-01 -1.036218181252479553e-01
2.013000000000000000e+03 9.424351692199707031e+00 3.239519882202148438e+01 -1.227103918790817261e-01 1.338946938514709473e+00 3.648709654808044434e-01 2.460589632391929626e-02
2.014000000000000000e+03 7.189340972900390625e+01 -3.258320236206054688e+01 -2.529858052730560303e-01 7.991475105285644531e+00 2.321546792984008789e+00 6.064816936850547791e-02
2.015000000000000000e+03 7.430485534667968750e+01 -3.366616058349609375e+01 -1.584029793739318848e-01 9.021342277526855469e+00 2.658881664276123047e+00 -4.581199958920478821e-02
2.016000000000000000e+03 7.134294128417968750e+01 -2.281657791137695312e+01 -1.082295060157775879e+00 9.061988830566406250e+00 2.393908023834228516e+00 -6.627786755561828613e-01
2.017000000000000000e+03 2.714893341064453125e+01 3.419811487197875977e+00 2.832503795623779297e+00 2.643898725509643555e+00 1.642920732498168945e+00 1.156013250350952148e+00
2.018000000000000000e+03 7.196720123291015625e+01 1.699897766113281250e+01 1.680081635713577271e-01 5.673615455627441406e+00 1.752487182617187500e+00 -7.679073810577392578e-01
2.019000000000000000e+03 7.323725128173828125e+01 1.601169967651367188e+01 1.173719987273216248e-01 6.019921302795410156e+00 1.841187953948974609e+00 -7.040820121765136719e-01
2.020000000000000000e+03 7.355064392089843750e+01 -2.483574628829956055e+00 -9.629962444305419922e-01 9.322085380554199219e+00 2.507726907730102539e+00 5.692530274391174316e-01
2.021000000000000000e+03 7.197801208496093750e+01 1.012888336181640625e+01 -4.599573090672492981e-02 6.253362655639648438e+00 1.862210035324096680e+00 -9.678984880447387695e-01
2.022000000000000000e+03 7.320671081542968750e+01 9.016047477722167969e+00 -1.076636388897895813e-01 6.656005382537841797e+00 1.964502573013305664e+00 -8.402788043022155762e-01
2.023000000000000000e+03 7.473100280761718750e+01 -1.656058120727539062e+01 2.875697314739227295e-01 9.466033935546875000e+00 2.926080942153930664e+00 -1.811679959297180176e+00
2.024000000000000000e+03 7.415521240234375000e+01 -7.819789409637451172e+00 1.234561920166015625e+00 9.582511901855468750e+00 3.245122194290161133e+00 1.128752827644348145e+00
2.025000000000000000e+03 7.434945678710937500e+01 -1.938786125183105469e+01 -4.440633356571197510e-01 9.722009658813476562e+00 2.783383846282958984e+00 -1.694714188575744629e+00
2.026000000000000000e+03 7.122985839843750000e+01 4.817066669464111328e+00 -5.584238171577453613e-01 6.791390895843505859e+00 1.869890093803405762e+00 -1.134975314140319824e+00
2.027000000000000000e+03 7.524287414550781250e+01 -9.796061515808105469e+00 1.237446904182434082e+00 8.705579757690429688e+00 2.982908010482788086e+00 3.715076744556427002e-01
2.028000000000000000e+03 7.376576232910156250e+01 -9.219452857971191406e+00 1.720440030097961426e+00 9.883684158325195312e+00 3.481237411499023438e+00 7.116895914077758789e-01
2.029000000000000000e+03 7.456826019287109375e+01 -1.092095088958740234e+01 1.750258088111877441e+00 9.148803710937500000e+00 3.269718408584594727e+00 -2.112677097320556641e-01
2.030000000000000000e+03 7.475859832763671875e+01 -3.816843986511230469e+00 -4.047344624996185303e-01 8.993453025817871094e+00 2.576615571975708008e+00 1.144195556640625000e+00
2.031000000000000000e+03 7.450204467773437500e+01 -1.308393573760986328e+01 1.405783176422119141e+00 9.465476036071777344e+00 3.261377811431884766e+00 -1.230032682418823242e+00
2.032000000000000000e+03 7.348130798339843750e+01 -1.105340123176574707e+00 -1.083943247795104980e+00 8.972126960754394531e+00 2.366455078125000000e+00 3.049267530441284180e-01
2.033000000000000000e+03 7.056865692138671875e+01 6.001719474792480469e+00 -4.022931456565856934e-01 6.439867019653320312e+00 1.811272263526916504e+00 -1.179155707359313965e+00
2.034000000000000000e+03 7.311824798583984375e+01 -2.049248504638671875e+01 -8.046046495437622070e-01 9.824077606201171875e+00 2.705842018127441406e+00 -1.383793354034423828e+00
2.035000000000000000e+03 8.724449157714843750e+00 2.034480476379394531e+01 -3.009256422519683838e-01 2.123053073883056641e+00 5.466382503509521484e-01 -4.425039589405059814e-01
2.036000000000000000e+03 5.439659118652343750e+00 -8.096772193908691406e+00 -8.718990087509155273e-01 4.003539085388183594e+00 9.394919276237487793e-01 2.013356536626815796e-01
2.037000000000000000e+03 7.090637969970703125e+01 2.632741355895996094e+01 1.888372600078582764e-01 5.098260879516601562e+00 1.586129426956176758e+00 -4.790002703666687012e-01
2.038000000000000000e+03 6.893552398681640625e+01 -2.423650550842285156e+01 -1.159244656562805176e+00 7.677056789398193359e+00 1.955343604087829590e+00 1.136767640709877014e-01
2.039000000000000000e+03 3.157065582275390625e+01 1.017547988891601562e+01 1.406686186790466309e+00 2.042127132415771484e+00 1.034644007682800293e+00 1.721884489059448242e+00
2.040000000000000000e+03 6.692986297607421875e+01 -2.441462516784667969e+01 -1.012956857681274414e+00 6.380214214324951172e+00 1.610177159309387207e+00 5.648627877235412598e-01
2.041000000000000000e+03 7.231073379516601562e+00 -2.310532379150390625e+01 -1.031355142593383789e+00 5.632169246673583984e+00 1.380244255065917969e+00 9.572579860687255859e-01
2.042000000000000000e+03 5.802509307861328125e+01 -4.364663600921630859e+00 -1.363514065742492676e+00 -2.334460616111755371e-01 -4.790880680084228516e-01 -7.505719065666198730e-01
2.043000000000000000e+03 6.240810394287109375e+00 -1.866140556335449219e+01 5.875963345170021057e-02 6.973981857299804688e+00 2.109822511672973633e+00 1.944206357002258301e+00
2.044000000000000000e+03 5.759072303771972656e+00 -1.976849174499511719e+01 -4.134987294673919678e-01 6.089322566986083984e+00 1.702747106552124023e+00 2.095545768737792969e+00
2.045000000000000000e+03 5.673938274383544922e+00 1.666044044494628906e+01 9.434728324413299561e-02 1.114350795745849609e+00 3.626094162464141846e-01 -6.122029423713684082e-01
2.046000000000000000e+03 8.026658058166503906e+00 1.429064655303955078e+01 4.813898503780364990e-01 2.052361488342285156e+00 7.601253986358642578e-01 -5.496702790260314941e-01
2.047000000000000000e+03 5.299265384674072266e+00 1.219668579101562500e+01 3.803687691688537598e-01 7.776477932929992676e-01 3.474049568176269531e-01 -2.805255055427551270e-01
2.048000000000000000e+03 7.247869968414306641e+00 1.511779308319091797e+01 3.425806462764739990e-01 1.735396504402160645e+00 6.233931779861450195e-01 -5.866225361824035645e-01
2.049000000000000000e+03 5.879753589630126953e+00 1.974291038513183594e+01 -1.252458542585372925e-01 1.242501497268676758e+00 3.351767063140869141e-01 -5.801845192909240723e-01
2.050000000000000000e+03 7.655289649963378906e+00 2.693145751953125000e+01 -2.518573105335235596e-01 1.445480585098266602e+00 3.580869734287261963e-01 -1.657899469137191772e-01
2.051000000000000000e+03 9.213456153869628906e+00 -3.036184120178222656e+01 -6.407527923583984375e-01 3.930409908294677734e+00 9.868971109390258789e-01 1.871790289878845215e-01
2.052000000000000000e+03 8.504725456237792969e+00 -3.187755584716796875e+01 -4.694825112819671631e-01 3.768726825714111328e+00 9.897732734680175781e-01 2.529020607471466064e-01
2.053000000000000000e+03 3.335666275024414062e+01 -1.219301891326904297e+01 -2.371220588684082031e+00 5.483909845352172852e-01 -5.468488931655883789e-01 -3.976153433322906494e-01
2.054000000000000000e+03 9.390400886535644531e+00 1.024722862243652344e+01 8.110606074333190918e-01 2.962458848953247070e+00 1.132055878639221191e+00 -8.393973112106323242e-03
2.055000000000000000e+03 5.933438873291015625e+01 -2.856591463088989258e+00 -7.410905957221984863e-01 6.139124557375907898e-02 -2.039097994565963745e-01 -1.024583101272583008e+00
2.056000000000000000e+03 5.841185760498046875e+01 -2.394208908081054688e+00 -5.179120302200317383e-01 3.690502792596817017e-02 -1.443020999431610107e-01 -8.668428063392639160e-01
2.057000000000000000e+03 5.022950172424316406e+00 6.918048381805419922e+00 3.018975257873535156e-01 4.167684912681579590e-01 2.155998051166534424e-01 2.470464557409286499e-01
2.058000000000000000e+03 5.840446472167968750e+00 8.213171958923339844e+00 4.306387305259704590e-01 8.847364783287048340e-01 3.946125507354736328e-01 1.038272380828857422e-01
2.059000000000000000e+03 1.043363571166992188e+01 1.076764488220214844e+01 9.546999335289001465e-01 3.721033573150634766e+00 1.402719974517822266e+00 5.236563459038734436e-02
2.060000000000000000e+03 1.136339950561523438e+01 1.893078041076660156e+01 -3.911603391170501709e-01 3.031750917434692383e+00 7.921772003173828125e-01 -1.961442083120346069e-01
2.061000000000000000e+03 1.267205715179443359e+01 1.757608604431152344e+01 -2.660625576972961426e-01 3.682853937149047852e+00 1.025037407875061035e+00 4.444910585880279541e-02
2.062000000000000000e+03 5.806212615966796875e+01 1.858345031738281250e+01 7.473990321159362793e-01 3.293041706085205078e+00 1.212132215499877930e+00 -7.924447655677795410e-01
2.063000000000000000e+03 2.185320091247558594e+01 6.585187911987304688e-01 3.755875349044799805e+00 1.203027844429016113e+00 1.487671017646789551e+00 2.909748077392578125e+00
2.064000000000000000e+03 8.177662849426269531e+00 9.250658988952636719e+00 5.843490362167358398e-01 2.189312219619750977e+00 8.320984244346618652e-01 -3.336107358336448669e-02
2.065000000000000000e+03 6.993795871734619141e+00 9.058953285217285156e+00 5.399646759033203125e-01 1.525283098220825195e+00 6.195743083953857422e-01 2.376256976276636124e-03
2.066000000000000000e+03 5.904852867126464844e+00 -6.026800632476806641e+00 -5.888098478317260742e-01 3.020855903625488281e+00 7.296137809753417969e-01 9.757522344589233398e-01
2.067000000000000000e+03 6.610992431640625000e+01 -2.535220909118652344e+01 -9.996351003646850586e-01 5.392097473144531250e+00 1.317738652229309082e+00 6.980130672454833984e-01
2.068000000000000000e+03 3.319683837890625000e+01 1.457392597198486328e+01 4.774591028690338135e-01 2.088095188140869141e+00 7.696663141250610352e-01 1.353749752044677734e+00
2.069000000000000000e+03 4.815829849243164062e+01 1.934945464134216309e+00 6.364855766296386719e-01 2.306351810693740845e-01 2.601362466812133789e-01 -1.547798812389373779e-01
2.070000000000000000e+03 7.304886627197265625e+01 -9.529229164123535156e+00 2.393508911132812500e+00 1.066792106628417969e+01 3.918428897857666016e+00 1.176044121384620667e-01
2.071000000000000000e+03 4.444156265258789062e+01 -1.229561328887939453e+01 -2.169887304306030273e+00 1.092174500226974487e-01 -6.182009577751159668e-01 -7.555367350578308105e-01
2.072000000000000000e+03 4.336255264282226562e+01 -1.008767318725585938e+01 -1.812206625938415527e+00 2.196834087371826172e-01 -4.777569770812988281e-01 -6.619539856910705566e-01
2.073000000000000000e+03 5.362643432617187500e+01 2.409180831909179688e+01 9.134826064109802246e-01 2.213659048080444336e+00 9.381424784660339355e-01 -5.191188454627990723e-01
2.074000000000000000e+03 4.741071319580078125e+01 2.600473022460937500e+01 9.611406326293945312e-01 1.721661448478698730e+00 8.048406243324279785e-01 2.308326959609985352e-01
2.075000000000000000e+03 4.668706512451171875e+01 -1.130082511901855469e+01 -2.128022432327270508e+00 5.123981460928916931e-02 -6.230347752571105957e-01 -8.231740593910217285e-01
2.076000000000000000e+03 4.098414993286132812e+01 4.510787487030029297e+00 1.066359639167785645e+00 4.799693226814270020e-01 4.638986885547637939e-01 3.781245276331901550e-02
2.077000000000000000e+03 4.311451339721679688e+01 2.505018949508666992e+00 8.608395457267761230e-01 2.667278647422790527e-01 3.382702171802520752e-01 -9.263785928487777710e-02
2.078000000000000000e+03 4.033398056030273438e+01 6.954885482788085938e+00 9.995489120483398438e-01 8.174484372138977051e-01 5.450991988182067871e-01 1.760594248771667480e-01
2.079000000000000000e+03 3.792740631103515625e+01 9.396231651306152344e+00 1.069122314453125000e+00 1.351401567459106445e+00 7.261571288108825684e-01 8.987340927124023438e-01
2.080000000000000000e+03 3.641565704345703125e+01 -1.383355998992919922e+01 -2.521485805511474609e+00 3.945397436618804932e-01 -6.380838155746459961e-01 -4.207374751567840576e-01
2.081000000000000000e+03 3.533451461791992188e+01 -1.279830646514892578e+01 -2.394781827926635742e+00 4.707567989826202393e-01 -5.772075653076171875e-01 -4.271264970302581787e-01
2.082000000000000000e+03 5.873855590820312500e+01 9.513355255126953125e+00 3.758879601955413818e-01 2.688895463943481445e+00 9.194350242614746094e-01 -8.349972367286682129e-01
2.083000000000000000e+03 2.588017845153808594e+01 -1.135319995880126953e+01 -2.952089309692382812e+00 6.730560660362243652e-01 -6.837099790573120117e-01 -1.092165187001228333e-01
2.084000000000000000e+03 3.755058288574218750e+01 1.692040824890136719e+01 7.018247842788696289e-01 1.929751515388488770e+00 7.894728779792785645e-01 9.780772924423217773e-01
2.085000000000000000e+03 8.009220123291015625e+00 -2.205578994750976562e+01 -1.074420809745788574e+00 6.189304828643798828e+00 1.534465193748474121e+00 7.686631083488464355e-01
2.086000000000000000e+03 6.093257904052734375e+01 9.439850807189941406e+00 4.232861995697021484e-01 3.108034372329711914e+00 1.059396147727966309e+00 -1.151759386062622070e+00
2.087000000000000000e+03 2.223374176025390625e+01 -1.029634571075439453e+01 -3.101734399795532227e+00 6.245922446250915527e-01 -7.431426048278808594e-01 -9.326665103435516357e-02
2.088000000000000000e+03 5.716421127319335938e+01 -5.043404102325439453e+00 -1.699067950248718262e+00 -2.462697476148605347e-01 -5.836012959480285645e-01 -7.602841258049011230e-01
2.089000000000000000e+03 5.826823043823242188e+01 5.930850982666015625e+00 4.903826117515563965e-01 1.783002018928527832e+00 6.820153594017028809e-01 -7.451019287109375000e-01
2.090000000000000000e+03 6.847503662109375000e+01 3.246462249755859375e+01 2.265088856220245361e-01 4.652071952819824219e+00 1.463574290275573730e+00 -3.249868452548980713e-01
2.091000000000000000e+03 5.948741912841796875e+01 -2.983361434936523438e+01 -5.265213251113891602e-01 1.041622638702392578e+00 1.545303761959075928e-01 1.343062520027160645e-01
2.092000000000000000e+03 5.755996704101562500e+01 -2.315274715423583984e+00 -5.814115405082702637e-01 4.624436795711517334e-02 -1.605501472949981689e-01 -7.785589098930358887e-01
2.093000000000000000e+03 5.434380722045898438e+01 -5.475838184356689453e+00 -1.575280547142028809e+00 -1.192536279559135437e-01 -5.083602666854858398e-01 -5.973914861679077148e-01
2.094000000000000000e+03 2.953535461425781250e+01 1.513454151153564453e+01 -2.820170223712921143e-01 2.330616235733032227e+00 6.145797967910766602e-01 1.097154617309570312e+00
2.095000000000000000e+03 3.072230720520019531e+01 1.662516975402832031e+01 -1.501942276954650879e-01 2.193823814392089844e+00 6.130888462066650391e-01 9.127499461174011230e-01
2.096000000000000000e+03 1.002968883514404297e+01 -3.302739334106445312e+01 -4.552123248577117920e-01 3.519187688827514648e+00 9.191926121711730957e-01 7.360088080167770386e-02
2.097000000000000000e+03 3.915090942382812500e+01 2.097174644470214844e+01 5.660753250122070312e-01 2.019259691238403320e+00 7.756004929542541504e-01 6.768064498901367188e-01
2.098000000000000000e+03 6.390126419067382812e+01 -2.871671199798583984e+00 -1.490690112113952637e-01 1.529141902923583984e+00 4.140218794345855713e-01 -3.063236474990844727e+00
2.099000000000000000e+03 5.980500411987304688e+01 -1.913253545761108398e+00 -2.843627333641052246e-01 2.830833494663238525e-01 -3.838176780845969915e-04 -1.176830768585205078e+00
2.100000000000000000e+03 4.428792953491210938e+01 2.320222663879394531e+01 8.044143915176391602e-01 1.780828833580017090e+00 7.755729556083679199e-01 6.366418004035949707e-01
2.101000000000000000e+03 3.753792572021484375e+01 -1.374976825714111328e+01 -2.458249807357788086e+00 3.699927031993865967e-01 -6.264771223068237305e-01 -4.888988435268402100e-01
2.102000000000000000e+03 5.682155990600585938e+01 2.528764724731445312e+01 6.971437931060791016e-01 2.954778671264648438e+00 1.095576763153076172e+00 -5.759311914443969727e-01
2.103000000000000000e+03 7.432231903076171875e+01 -2.225876045227050781e+01 -6.179656386375427246e-01 9.496391296386718750e+00 2.663527727127075195e+00 -1.229863643646240234e+00
2.104000000000000000e+03 7.314641571044921875e+01 -2.291489028930664062e+01 -8.387414216995239258e-01 9.440801620483398438e+00 2.580618143081665039e+00 -1.046329140663146973e+00
2.105000000000000000e+03 3.228263854980468750e+01 -1.071773242950439453e+01 -2.047390460968017578e+00 6.425355076789855957e-01 -4.214564859867095947e-01 -4.410269856452941895e-01
2.106000000000000000e+03 2.962497329711914062e+01 -1.157516002655029297e+01 -2.523855447769165039e+00 6.479534506797790527e-01 -5.627706050872802734e-01 -2.799587845802307129e-01
2.107000000000000000e+03 7.256745147705078125e+01 -1.949917030334472656e+01 -6.135874390602111816e-01 9.940796852111816406e+00 2.798162937164306641e+00 -1.328276157379150391e+00
2.108000000000000000e+03 4.753787994384765625e+01 -4.124274826049804688e+01 2.174336165189743042e-01 -4.533613026142120361e-01 -7.077831029891967773e-02 -6.815831363201141357e-02
2.109000000000000000e+03 5.563592910766601562e+01 2.462691783905029297e+00 5.161937475204467773e-01 4.825159609317779541e-01 2.996129095554351807e-01 -4.546702802181243896e-01
2.110000000000000000e+03 3.899224853515625000e+01 8.147746086120605469e+00 1.022075533866882324e+00 1.137310624122619629e+00 6.478158235549926758e-01 5.645052790641784668e-01
2.111000000000000000e+03 6.089065551757812500e+01 1.480621528625488281e+01 7.655075788497924805e-01 3.475376844406127930e+00 1.272265315055847168e+00 -1.036962628364562988e+00
2.112000000000000000e+03 5.946068191528320312e+01 1.784955024719238281e+01 7.863194942474365234e-01 3.356456518173217773e+00 1.242832779884338379e+00 -7.533132433891296387e-01
2.113000000000000000e+03 7.809397220611572266e+00 -2.924764251708984375e+01 -6.328234672546386719e-01 4.088473796844482422e+00 1.036695122718811035e+00 4.326666593551635742e-01
2.114000000000000000e+03 6.576033115386962891e+00 -3.025965499877929688e+01 -5.012046098709106445e-01 4.184858798980712891e+00 1.105096220970153809e+00 4.506967961788177490e-01
2.115000000000000000e+03 2.777225875854492188e+01 2.400046110153198242e+00 2.588975429534912109e+00 2.119842052459716797e+00 1.412645220756530762e+00 9.253785610198974609e-01
2.116000000000000000e+03 7.453832244873046875e+01 2.987464368343353271e-01 -7.902346253395080566e-01 8.446136474609375000e+00 2.296770572662353516e+00 2.486475855112075806e-01
2.117000000000000000e+03 3.948158645629882812e+01 -3.803152084350585938e+01 -2.408153712749481201e-01 -2.723061144351959229e-01 -1.539364457130432129e-01 -8.169812709093093872e-02
2.118000000000000000e+03 7.149199676513671875e+01 6.929534435272216797e+00 -3.085564374923706055e-01 6.486357688903808594e+00 1.853340387344360352e+00 -1.062683224678039551e+00
2.119000000000000000e+03 7.500730133056640625e+01 -7.853334426879882812e+00 8.302585482597351074e-01 8.881216049194335938e+00 2.913442611694335938e+00 1.020459651947021484e+00
2.120000000000000000e+03 7.379909515380859375e+01 -5.261627674102783203e+00 -1.729532517492771149e-02 9.709027290344238281e+00 2.907519340515136719e+00 1.276884555816650391e+00
2.121000000000000000e+03 7.181686401367187500e+01 2.874980735778808594e+01 1.465067267417907715e-01 5.139457702636718750e+00 1.585789322853088379e+00 -3.689908087253570557e-01
2.122000000000000000e+03 7.348659515380859375e+01 2.920089721679687500e+01 9.129814058542251587e-02 5.320429801940917969e+00 1.623518466949462891e+00 -3.018637597560882568e-01
2.123000000000000000e+03 7.230065155029296875e+01 -2.167583274841308594e+01 -8.622660636901855469e-01 9.560473442077636719e+00 2.609462261199951172e+00 -9.639519453048706055e-01
2.124000000000000000e+03 2.591853141784667969e+01 2.211269950866699219e+01 1.954029500484466553e-02 1.172341942787170410e+00 3.575646579265594482e-01 2.383536398410797119e-01
2.125000000000000000e+03 1.008255195617675781e+01 -2.889009857177734375e+01 -7.438282370567321777e-01 3.792667865753173828e+00 9.146518707275390625e-01 1.154706701636314392e-01
2.126000000000000000e+03 8.755072593688964844e+00 -2.521635246276855469e+01 -1.080512642860412598e+00 5.054922103881835938e+00 1.192322850227355957e+00 3.612637519836425781e-01
2.127000000000000000e+03 1.097553253173828125e+01 1.914657473564147949e+00 6.612250208854675293e-01 2.881368875503540039e+00 1.062778115272521973e+00 -2.521885633468627930e+00
2.128000000000000000e+03 1.255789947509765625e+01 2.372344970703125000e+00 -5.714111328125000000e-01 7.450997829437255859e+00 2.063875913619995117e+00 -2.686823606491088867e+00
2.129000000000000000e+03 1.181145763397216797e+01 -4.090422630310058594e+00 2.193973541259765625e+00 6.139163970947265625e+00 2.499941110610961914e+00 6.033301353454589844e+00
2.130000000000000000e+03 1.079282951354980469e+01 -3.433185338973999023e+00 3.431055545806884766e+00 3.921235084533691406e+00 2.205687284469604492e+00 5.617131233215332031e+00
2.131000000000000000e+03 1.098657417297363281e+01 3.921087026596069336e+00 -4.817500412464141846e-01 4.167855262756347656e+00 1.105831623077392578e+00 -1.718540072441101074e+00
2.132000000000000000e+03 1.608330917358398438e+01 1.308394074440002441e+00 4.495882987976074219e+00 4.617928504943847656e+00 2.734143495559692383e+00 2.853389501571655273e+00
2.133000000000000000e+03 7.404572010040283203e+00 -4.436846733093261719e+00 4.893922507762908936e-01 2.310422897338867188e+00 8.399445414543151855e-01 2.258424043655395508e+00
2.134000000000000000e+03 1.020519828796386719e+01 -4.445697307586669922e+00 1.756163001060485840e+00 3.749365806579589844e+00 1.651658654212951660e+00 5.349236965179443359e+00
2.135000000000000000e+03 1.297273254394531250e+01 6.221833229064941406e+00 -1.619637966156005859e+00 6.133452892303466797e+00 1.354144573211669922e+00 -2.052660435438156128e-01
2.136000000000000000e+03 1.216433525085449219e+01 5.351227760314941406e+00 -1.443603754043579102e+00 5.700142383575439453e+00 1.276961565017700195e+00 -8.338314294815063477e-01
2.137000000000000000e+03 1.032661342620849609e+01 7.532588481903076172e+00 9.828852117061614990e-02 3.839604616165161133e+00 1.181367993354797363e+00 -8.159340173006057739e-02
2.138000000000000000e+03 7.212516307830810547e+00 -5.350744247436523438e+00 -1.483870893716812134e-01 3.191439867019653320e+00 9.129158258438110352e-01 2.365209102630615234e+00
2.139000000000000000e+03 6.310971736907958984e+00 5.336687088012695312e+00 2.644209563732147217e-01 7.500224709510803223e-01 3.043330311775207520e-01 1.723036915063858032e-01
2.140000000000000000e+03 1.126927661895751953e+01 3.396517992019653320e+00 -3.653391599655151367e-01 4.501452922821044922e+00 1.240834116935729980e+00 -2.182819604873657227e+00
2.141000000000000000e+03 1.045069885253906250e+01 3.606198310852050781e+00 -1.044136658310890198e-01 3.308618783950805664e+00 9.612615704536437988e-01 -1.694525718688964844e+00
2.142000000000000000e+03 6.923728942871093750e+00 5.365656852722167969e+00 2.673598825931549072e-01 1.040262341499328613e+00 3.922866880893707275e-01 3.593020886182785034e-02
2.143000000000000000e+03 6.733251571655273438e+00 7.095191001892089844e+00 3.906565308570861816e-01 1.240118861198425293e+00 4.892326295375823975e-01 7.490268349647521973e-02
2.144000000000000000e+03 1.581042098999023438e+01 -8.199683189392089844e+00 -1.770870089530944824e+00 1.484562039375305176e+00 -8.589241653680801392e-02 1.508811354637145996e+00
2.145000000000000000e+03 7.490319252014160156e+00 6.156764984130859375e+00 2.924003899097442627e-01 1.536001443862915039e+00 5.485205650329589844e-01 -5.550405755639076233e-02
2.146000000000000000e+03 1.358008766174316406e+01 -4.476104259490966797e+00 1.500966429710388184e+00 7.484740734100341797e+00 2.695712089538574219e+00 3.454950809478759766e+00
2.147000000000000000e+03 5.283432960510253906e+00 -6.229032993316650391e+00 -4.538908004760742188e-01 2.629895687103271484e+00 6.528014540672302246e-01 6.488446593284606934e-01
2.148000000000000000e+03 6.824616909027099609e+00 -6.487949848175048828e+00 -8.971361517906188965e-01 4.142874717712402344e+00 9.737215042114257812e-01 1.820585846900939941e+00
2.149000000000000000e+03 1.145657634735107422e+01 7.975400447845458984e+00 1.606658548116683960e-01 4.782566547393798828e+00 1.482969760894775391e+00 1.009476706385612488e-01
2.150000000000000000e+03 8.137959480285644531e+00 6.084176063537597656e+00 2.224627733230590820e-01 1.932130336761474609e+00 6.463779211044311523e-01 -1.750390827655792236e-01
2.151000000000000000e+03 1.360777568817138672e+01 4.461839675903320312e+00 -2.323763132095336914e+00 6.690858364105224609e+00 1.310128569602966309e+00 -9.768940210342407227e-01
2.152000000000000000e+03 2.108859062194824219e+01 -5.098494291305541992e-01 4.357565402984619141e+00 7.402083277702331543e-01 1.529332160949707031e+00 2.471063613891601562e+00
2.153000000000000000e+03 1.682424926757812500e+01 4.645615220069885254e-01 6.270708084106445312e+00 2.754378080368041992e+00 2.707525730133056641e+00 2.776486158370971680e+00
2.154000000000000000e+03 1.612735557556152344e+01 -4.243637561798095703e+00 3.301472187042236328e+00 4.409692287445068359e+00 2.313349246978759766e+00 3.458773791790008545e-01
2.155000000000000000e+03 1.867456626892089844e+01 -1.136467337608337402e+00 5.882360935211181641e+00 7.814650535583496094e-01 1.999147772789001465e+00 1.835198402404785156e+00
2.156000000000000000e+03 3.570067596435546875e+01 1.255301475524902344e+01 8.853563666343688965e-01 1.785109043121337891e+00 8.011396527290344238e-01 1.309962272644042969e+00
2.157000000000000000e+03 9.566101074218750000e+00 -5.678908348083496094e+00 6.479570269584655762e-02 4.430795669555664062e+00 1.348677396774291992e+00 5.036905765533447266e+00
2.158000000000000000e+03 8.499114036560058594e+00 1.260593795776367188e+01 7.674111127853393555e-01 2.370593070983886719e+00 9.414013028144836426e-01 -3.124784529209136963e-01
2.159000000000000000e+03 9.575813293457031250e+00 1.409372711181640625e+01 6.377246379852294922e-01 2.848755836486816406e+00 1.045944094657897949e+00 -5.013331174850463867e-01
2.160000000000000000e+03 4.058701705932617188e+01 5.722241401672363281e+00 1.092456221580505371e+00 6.106528639793395996e-01 5.109327435493469238e-01 1.144357174634933472e-01
2.161000000000000000e+03 3.978955459594726562e+01 4.102501392364501953e+00 1.122700095176696777e+00 5.090348720550537109e-01 4.895204901695251465e-01 9.947583824396133423e-02
2.162000000000000000e+03 1.720189666748046875e+01 -2.621374368667602539e+00 5.982936859130859375e+00 2.666416168212890625e+00 2.594805955886840820e+00 2.913305759429931641e-01
2.163000000000000000e+03 7.290956020355224609e+00 -9.603585243225097656e+00 -1.833568215370178223e+00 8.708803176879882812e+00 2.062570571899414062e+00 1.327466368675231934e+00
2.164000000000000000e+03 1.053654384613037109e+01 1.155464553833007812e+01 1.104751110076904297e+00 3.606964588165283203e+00 1.413514733314514160e+00 -1.143198236823081970e-01
2.165000000000000000e+03 1.054646205902099609e+01 1.240444374084472656e+01 1.011520147323608398e+00 3.603223800659179688e+00 1.384423136711120605e+00 -2.243598848581314087e-01
2.166000000000000000e+03 6.402707576751708984e+00 1.167627525329589844e+01 5.297364592552185059e-01 1.285469651222229004e+00 5.445618033409118652e-01 -2.307775318622589111e-01
2.167000000000000000e+03 1.093163204193115234e+01 9.025469779968261719e+00 5.757335424423217773e-01 4.263067722320556641e+00 1.451640248298645020e+00 7.848981022834777832e-02
2.168000000000000000e+03 3.711094665527343750e+01 -1.143637371063232422e+01 -2.031555891036987305e+00 4.589655101299285889e-01 -4.717770814895629883e-01 -5.482637882232666016e-01
2.169000000000000000e+03 1.189167594909667969e+01 -7.584531784057617188e+00 -1.455385327339172363e+00 4.320788860321044922e+00 8.596210479736328125e-01 5.885601997375488281e+00
2.170000000000000000e+03 7.299486541748046875e+01 -2.515910720825195312e+01 -7.575739026069641113e-01 9.057385444641113281e+00 2.489943504333496094e+00 -6.988938450813293457e-01
2.171000000000000000e+03 7.377484893798828125e+01 -2.401454544067382812e+01 -6.733084917068481445e-01 9.342310905456542969e+00 2.600700616836547852e+00 -8.791756629943847656e-01
2.172000000000000000e+03 3.749477386474609375e+01 6.982029914855957031e+00 1.268983125686645508e+00 1.026767253875732422e+00 6.887251138687133789e-01 6.473352909088134766e-01
2.173000000000000000e+03 6.140879631042480469e+00 -6.841425418853759766e+00 -8.243784904479980469e-01 4.000310897827148438e+00 9.527797102928161621e-01 1.308772087097167969e+00
2.174000000000000000e+03 8.238376617431640625e+00 6.815404891967773438e+00 2.881583273410797119e-01 2.162845373153686523e+00 7.353010773658752441e-01 -1.077422946691513062e-01
2.175000000000000000e+03 5.841850280761718750e+01 6.924780845642089844e+00 4.279196858406066895e-01 2.025723695755004883e+00 7.360930442810058594e-01 -7.254270911216735840e-01
2.176000000000000000e+03 5.989001464843750000e+01 7.064765930175781250e+00 4.180712401866912842e-01 2.415711164474487305e+00 8.501347303390502930e-01 -1.081964969635009766e+00
2.177000000000000000e+03 1.574553871154785156e+01 -7.032804965972900391e+00 -4.821767508983612061e-01 2.689569950103759766e+00 6.622179746627807617e-01 1.406209707260131836e+00
2.178000000000000000e+03 1.391783332824707031e+01 -7.958537101745605469e+00 -1.711733937263488770e+00 2.305709123611450195e+00 1.781925410032272339e-01 3.655283927917480469e+00
2.179000000000000000e+03 4.776485061645507812e+01 -1.073755359649658203e+01 -2.115086317062377930e+00 5.591184366494417191e-03 -6.328485012054443359e-01 -8.384424448013305664e-01
2.180000000000000000e+03 3.677988433837890625e+01 -1.016925621032714844e+01 -1.745344281196594238e+00 5.014163255691528320e-01 -3.731783926486968994e-01 -5.576918721199035645e-01
2.181000000000000000e+03 3.354558563232421875e+01 -1.083500766754150391e+01 -2.036429643630981445e+00 5.899057388305664062e-01 -4.339571893215179443e-01 -4.804565608501434326e-01
2.182000000000000000e+03 7.303395843505859375e+01 1.488184261322021484e+01 9.200910478830337524e-02 6.043817520141601562e+00 1.840747952461242676e+00 -7.750026583671569824e-01
2.183000000000000000e+03 3.044324636459350586e+00 5.914104938507080078e+00 1.272914558649063110e-01 -2.599002718925476074e-01 -3.978263959288597107e-02 3.862019181251525879e-01
2.184000000000000000e+03 1.690988540649414062e+01 -6.729165077209472656e+00 1.987028568983078003e-01 2.132107496261596680e+00 6.992430686950683594e-01 4.701465368270874023e-01
2.185000000000000000e+03 1.718362236022949219e+01 -7.955612182617187500e+00 -1.436143994331359863e+00 1.210244059562683105e+00 -6.776997447013854980e-02 4.812367856502532959e-01
2.186000000000000000e+03 3.049095535278320312e+01 8.566167831420898438e+00 2.074836730957031250e+00 1.931315422058105469e+00 1.201845645904541016e+00 1.762227416038513184e+00
2.187000000000000000e+03 5.434041976928710938e+01 2.297729730606079102e+00 5.706229209899902344e-01 3.341265618801116943e-01 2.714248597621917725e-01 -3.509579300880432129e-01
2.188000000000000000e+03 5.813994979858398438e+01 3.488124847412109375e+00 4.963676929473876953e-01 1.226781487464904785e+00 5.169447660446166992e-01 -8.376019597053527832e-01
2.189000000000000000e+03 9.554965972900390625e+00 1.536215305328369141e+01 3.703887462615966797e-01 2.712635993957519531e+00 9.249074459075927734e-01 -5.623205900192260742e-01
2.190000000000000000e+03 8.056859970092773438e+00 1.777479934692382812e+01 -1.660608500242233276e-02 2.031163215637207031e+00 6.043671369552612305e-01 -6.145443320274353027e-01
2.191000000000000000e+03 5.687672805786132812e+01 3.621629953384399414e+00 5.633196234703063965e-01 8.849443197250366211e-01 4.344791769981384277e-01 -5.676161646842956543e-01
2.192000000000000000e+03 1.954960823059082031e+01 -8.308372497558593750e+00 -1.684898734092712402e+00 8.091806769371032715e-01 -2.627154290676116943e-01 -2.311716824769973755e-01
2.193000000000000000e+03 1.872932243347167969e+01 -7.579163074493408203e+00 -7.445990443229675293e-01 1.047015666961669922e+00 9.072497487068176270e-02 -1.797656118869781494e-01
2.194000000000000000e+03 7.310158538818359375e+01 7.699128627777099609e+00 -2.072061151266098022e-01 6.772744655609130859e+00 1.969661593437194824e+00 -8.295260071754455566e-01
2.195000000000000000e+03 4.383172225952148438e+01 -1.122408008575439453e+01 -2.013838768005371094e+00 1.727352440357208252e-01 -5.523310899734497070e-01 -7.041297554969787598e-01
2.196000000000000000e+03 3.772142028808593750e+01 8.309518814086914062e+00 1.135669827461242676e+00 1.191647529602050781e+00 6.981951594352722168e-01 7.402836680412292480e-01
2.197000000000000000e+03 3.781802749633789062e+01 1.034500408172607422e+01 9.852998852729797363e-01 1.461962103843688965e+00 7.341786026954650879e-01 1.007120609283447266e+00
2.198000000000000000e+03 2.120107650756835938e+01 -8.147397041320800781e+00 -1.364416360855102539e+00 7.515324354171752930e-01 -1.838651895523071289e-01 -3.797087967395782471e-01
2.199000000000000000e+03 5.194905090332031250e+01 -5.990052223205566406e+00 -1.541730999946594238e+00 -3.661600500345230103e-02 -4.735040962696075439e-01 -5.698132514953613281e-01
2.200000000000000000e+03 4.854009246826171875e+01 -7.278872013092041016e+00 -1.539274215698242188e+00 8.211141079664230347e-02 -4.371488392353057861e-01 -6.048868894577026367e-01
2.201000000000000000e+03 2.300549316406250000e+01 -9.358337402343750000e+00 -2.242674827575683594e+00 7.120476961135864258e-01 -4.591881036758422852e-01 -3.364967107772827148e-01
2.202000000000000000e+03 2.518638992309570312e+01 -7.876238346099853516e+00 -1.097276926040649414e+00 7.296248674392700195e-01 -1.102956235408782959e-01 -4.116254150867462158e-01
2.203000000000000000e+03 7.220525360107421875e+01 2.498730182647705078e+00 -9.085720777511596680e-01 7.670082569122314453e+00 2.028453111648559570e+00 -7.623578310012817383e-01
2.204000000000000000e+03 7.333724212646484375e+01 1.507512569427490234e+00 -8.709632754325866699e-01 8.119400978088378906e+00 2.174531221389770508e+00 -2.720499336719512939e-01
2.205000000000000000e+03 7.232064819335937500e+01 1.726783663034439087e-01 -1.203003406524658203e+00 8.469319343566894531e+00 2.179894924163818359e+00 -4.304402470588684082e-01
2.206000000000000000e+03 7.142459869384765625e+01 -4.130859851837158203e+00 -1.348515868186950684e+00 1.105717468261718750e+01 2.912597656250000000e+00 2.573076188564300537e-01
2.207000000000000000e+03 8.360007286071777344e+00 -9.491436958312988281e+00 -3.267515420913696289e+00 1.055883407592773438e+01 2.187395334243774414e+00 2.176428794860839844e+00
2.208000000000000000e+03 2.420614814758300781e+01 -7.530956268310546875e+00 -8.602222800254821777e-01 7.266384959220886230e-01 -4.007512703537940979e-02 -4.025816619396209717e-01
2.209000000000000000e+03 2.585935401916503906e+01 -9.482090950012207031e+00 -2.043347597122192383e+00 7.391463518142700195e-01 -3.912604153156280518e-01 -3.510383069515228271e-01
2.210000000000000000e+03 7.000300598144531250e+01 -2.469781112670898438e+01 -1.040817022323608398e+00 8.080337524414062500e+00 2.111856222152709961e+00 -1.304311156272888184e-01
2.211000000000000000e+03 7.263706207275390625e+01 2.220516204833984375e+01 1.353801041841506958e-01 5.508806228637695312e+00 1.693255901336669922e+00 -5.635188221931457520e-01
2.212000000000000000e+03 7.399077606201171875e+01 2.246325683593750000e+01 1.037444844841957092e-01 5.727235317230224609e+00 1.749293923377990723e+00 -4.673888087272644043e-01
2.213000000000000000e+03 1.246789360046386719e+01 -7.338596343994140625e+00 -1.423387289047241211e+00 4.474847793579101562e+00 9.154381155967712402e-01 5.273178577423095703e+00
2.214000000000000000e+03 1.071032142639160156e+01 -8.261508941650390625e+00 -2.320614576339721680e+00 5.347569465637207031e+00 9.080864787101745605e-01 6.370684146881103516e+00
2.215000000000000000e+03 7.277376556396484375e+01 6.321452617645263672e+00 -3.537900149822235107e-01 6.957276821136474609e+00 1.981046080589294434e+00 -8.564130067825317383e-01
2.216000000000000000e+03 7.017156982421875000e+01 2.605930328369140625e+00 -8.729128241539001465e-01 6.977279186248779297e+00 1.831309914588928223e+00 -1.349194645881652832e+00
2.217000000000000000e+03 7.270111083984375000e+01 1.348754882812500000e+01 8.411986380815505981e-02 6.081327915191650391e+00 1.849634289741516113e+00 -8.337287902832031250e-01
2.218000000000000000e+03 7.238768005371093750e+01 3.511124134063720703e+00 -7.172001004219055176e-01 7.473948478698730469e+00 2.027024507522583008e+00 -7.941964864730834961e-01
2.219000000000000000e+03 7.365702819824218750e+01 -3.874010801315307617e+00 -7.063208222389221191e-01 9.756558418273925781e+00 2.715071201324462891e+00 1.060903906822204590e+00
2.220000000000000000e+03 6.217712402343750000e+00 -8.153820037841796875e+00 -1.443571329116821289e+00 5.518829345703125000e+00 1.222577452659606934e+00 6.201398372650146484e-01
2.221000000000000000e+03 7.414463520050048828e+00 -2.567045211791992188e+01 -9.116079211235046387e-01 4.753311157226562500e+00 1.152511000633239746e+00 7.037921547889709473e-01
2.222000000000000000e+03 1.186953163146972656e+01 -2.639893531799316406e+01 -7.434846162796020508e-01 3.635488748550415039e+00 8.676012754440307617e-01 -3.586666285991668701e-01
2.223000000000000000e+03 2.029648399353027344e+01 -6.622093915939331055e-01 4.730572700500488281e+00 5.867811441421508789e-01 1.595206141471862793e+00 2.345144748687744141e+00
2.224000000000000000e+03 2.414769363403320312e+01 -1.528465390205383301e+00 2.386750698089599609e+00 1.274967551231384277e+00 1.098515510559082031e+00 1.175056815147399902e+00
2.225000000000000000e+03 9.173047065734863281e+00 1.717790794372558594e+01 3.983516618609428406e-02 2.480545997619628906e+00 7.561143636703491211e-01 -5.845587849617004395e-01
2.226000000000000000e+03 7.160858154296875000e+00 1.942546653747558594e+01 -1.342627555131912231e-01 1.678890824317932129e+00 4.633884429931640625e-01 -5.834519267082214355e-01
2.227000000000000000e+03 5.781633758544921875e+01 2.165656089782714844e+01 6.721101999282836914e-01 3.188353061676025391e+00 1.158138990402221680e+00 -7.419843673706054688e-01
2.228000000000000000e+03 2.944851112365722656e+01 4.396473884582519531e+00 2.728905916213989258e+00 1.949298143386840820e+00 1.403461217880249023e+00 9.847449660301208496e-01
2.229000000000000000e+03 9.817917823791503906e+00 8.597202301025390625e+00 4.754889905452728271e-01 3.379836320877075195e+00 1.156597614288330078e+00 3.188727889209985733e-03
2.230000000000000000e+03 1.134218025207519531e+01 1.771657562255859375e+01 -1.670543402433395386e-01 3.257905960083007812e+00 9.272554516792297363e-01 -2.680575549602508545e-01
2.231000000000000000e+03 1.018107891082763672e+01 2.323520851135253906e+01 -4.617814421653747559e-01 2.062210321426391602e+00 4.801286756992340088e-01 -1.012850478291511536e-01
2.232000000000000000e+03 7.157074737548828125e+01 1.143344497680664062e+01 2.426013723015785217e-02 6.014045715332031250e+00 1.811491727828979492e+00 -9.765524268150329590e-01
2.233000000000000000e+03 7.665622234344482422e+00 3.010395050048828125e+01 -1.653243005275726318e-01 1.326963663101196289e+00 3.484918177127838135e-01 -6.660091131925582886e-02
2.234000000000000000e+03 1.118594932556152344e+01 3.020213890075683594e+01 -1.898251324892044067e-01 1.488068103790283203e+00 3.894729018211364746e-01 9.115834534168243408e-02
2.235000000000000000e+03 2.664841270446777344e+01 1.928703188896179199e+00 2.526463985443115234e+00 2.336648464202880859e+00 1.458933711051940918e+00 1.132939457893371582e+00
2.236000000000000000e+03 8.719439506530761719e+00 1.104774093627929688e+01 8.443401455879211426e-01 2.532451152801513672e+00 1.013037323951721191e+00 -1.407069563865661621e-01
2.237000000000000000e+03 2.705108833312988281e+01 -1.118600559234619141e+01 -2.720814943313598633e+00 6.916958689689636230e-01 -6.087357401847839355e-01 -2.053188830614089966e-01
2.238000000000000000e+03 2.317935180664062500e+01 -8.341631293296813965e-01 2.996509075164794922e+00 1.259517669677734375e+00 1.276808023452758789e+00 1.781414270401000977e+00
2.239000000000000000e+03 2.473392105102539062e+01 -7.396703958511352539e-01 2.400691509246826172e+00 1.484290838241577148e+00 1.165494680404663086e+00 1.235307693481445312e+00
2.240000000000000000e+03 5.796643447875976562e+01 -3.029952764511108398e+00 -8.228540420532226562e-01 -3.628640249371528625e-02 -2.577421367168426514e-01 -7.444260716438293457e-01
2.241000000000000000e+03 2.039614677429199219e+01 -7.470636367797851562e+00 -6.375151276588439941e-01 8.031387329101562500e-01 4.968707635998725891e-02 -3.903424441814422607e-01
2.242000000000000000e+03 5.192848587036132812e+01 8.787624835968017578e-01 3.318574130535125732e-01 1.433111876249313354e-01 1.425505876541137695e-01 -2.863298356533050537e-01
2.243000000000000000e+03 7.301553344726562500e+01 2.088463401794433594e+01 1.465470939874649048e-01 5.638844013214111328e+00 1.735617399215698242e+00 -5.751867294311523438e-01
2.244000000000000000e+03 7.081258392333984375e+01 1.802375411987304688e+01 2.275864034891128540e-01 5.351544857025146484e+00 1.673739314079284668e+00 -8.139938116073608398e-01
2.245000000000000000e+03 7.780317783355712891e+00 1.238631629943847656e+01 6.302930116653442383e-01 1.941007971763610840e+00 7.713903188705444336e-01 -3.541343212127685547e-01
2.246000000000000000e+03 2.547445297241210938e+01 -1.091003492474555969e-01 2.355324983596801758e+00 1.775209426879882812e+00 1.239160299301147461e+00 1.238934278488159180e+00
2.247000000000000000e+03 2.464000320434570312e+01 8.142315745353698730e-01 2.652458667755126953e+00 2.084430217742919922e+00 1.421066641807556152e+00 1.738371729850769043e+00
2.248000000000000000e+03 6.441792297363281250e+01 -1.713367581367492676e+00 -4.000529050827026367e-01 2.915811538696289062e+00 7.547276020050048828e-01 -3.260924339294433594e+00
2.249000000000000000e+03 6.269632339477539062e+01 -2.149450778961181641e+00 -2.456634044647216797e-01 1.022568941116333008e+00 2.330716401338577271e-01 -2.312722444534301758e+00
2.250000000000000000e+03 7.273848724365234375e+01 -2.939682769775390625e+01 -4.986717700958251953e-01 8.578651428222656250e+00 2.423993825912475586e+00 -1.830402910709381104e-01
2.251000000000000000e+03 6.899613952636718750e+01 -2.951486396789550781e+01 -6.387766003608703613e-01 6.785736083984375000e+00 1.844087958335876465e+00 2.012450546026229858e-01
2.252000000000000000e+03 5.100072860717773438e+01 -2.370396375656127930e+00 -4.955144822597503662e-01 7.087466865777969360e-02 -1.273919492959976196e-01 -3.403585255146026611e-01
2.253000000000000000e+03 3.881578445434570312e+01 1.708224868774414062e+01 8.593000173568725586e-01 1.945230960845947266e+00 8.413593173027038574e-01 9.262768030166625977e-01
2.254000000000000000e+03 4.702091598510742188e+01 -9.712458610534667969e+00 -1.901880979537963867e+00 9.576765447854995728e-02 -5.418339967727661133e-01 -7.397582530975341797e-01
2.255000000000000000e+03 2.558263778686523438e+01 1.411497473716735840e+00 2.601743936538696289e+00 2.346589088439941406e+00 1.484499931335449219e+00 1.509228706359863281e+00
2.256000000000000000e+03 4.885945129394531250e+01 8.022343516349792480e-01 3.674193918704986572e-01 1.928224712610244751e-01 1.680725514888763428e-01 -2.152099758386611938e-01
2.257000000000000000e+03 4.758107376098632812e+01 -1.666291475296020508e+00 -1.717550456523895264e-01 1.661903560161590576e-01 -1.669406308792531490e-03 -2.741917967796325684e-01
2.258000000000000000e+03 7.150489807128906250e+01 -2.861518478393554688e+01 -6.618956327438354492e-01 8.102407455444335938e+00 2.232153654098510742e+00 -1.201163083314895630e-01
2.259000000000000000e+03 7.228800201416015625e+01 -2.681431007385253906e+01 -7.324320673942565918e-01 8.696930885314941406e+00 2.389349460601806641e+00 -3.871210813522338867e-01
2.260000000000000000e+03 2.995898437500000000e+01 1.287943553924560547e+01 3.626244068145751953e-01 2.498331308364868164e+00 8.582866787910461426e-01 1.614994525909423828e+00
2.261000000000000000e+03 6.682408905029296875e+01 2.921070671081542969e+01 2.988106608390808105e-01 4.478450775146484375e+00 1.433178424835205078e+00 -4.566147625446319580e-01
2.262000000000000000e+03 5.972070312500000000e+01 1.052083969116210938e+01 4.699345231056213379e-01 2.987990379333496094e+00 1.037377476692199707e+00 -1.059588670730590820e+00
2.263000000000000000e+03 6.499163818359375000e+01 1.079132175445556641e+01 3.076978623867034912e-01 4.256866455078125000e+00 1.369369268417358398e+00 -1.358138084411621094e+00
2.264000000000000000e+03 2.835948753356933594e+01 -1.136084079742431641e+01 -2.591115713119506836e+00 6.878764629364013672e-01 -5.709717869758605957e-01 -2.508358657360076904e-01
2.265000000000000000e+03 3.102319526672363281e+01 -1.055873394012451172e+01 -2.068422555923461914e+00 6.626916527748107910e-01 -4.217192828655242920e-01 -4.218710362911224365e-01
2.266000000000000000e+03 7.010948944091796875e+01 2.145789265632629395e-01 -1.341408729553222656e+00 7.824521541595458984e+00 1.944933891296386719e+00 -1.401104569435119629e+00
2.267000000000000000e+03 7.342319488525390625e+01 2.292088419198989868e-01 -1.032582879066467285e+00 8.524078369140625000e+00 2.247448682785034180e+00 -1.342336684465408325e-01
2.268000000000000000e+03 5.622822570800781250e+01 -5.728785991668701172e+00 -1.851646423339843750e+00 -2.512753307819366455e-01 -6.308765411376953125e-01 -7.212821841239929199e-01
2.269000000000000000e+03 7.126322937011718750e+01 -2.629019737243652344e+00 -1.674865484237670898e+00 9.998979568481445312e+00 2.497234106063842773e+00 -5.882706046104431152e-01
2.270000000000000000e+03 7.630016326904296875e+00 -1.907277488708496094e+01 -4.257501363754272461e-01 8.079855918884277344e+00 2.296231746673583984e+00 9.732931256294250488e-01
2.271000000000000000e+03 4.445129394531250000e+01 3.151711225509643555e+00 9.289299249649047852e-01 2.143383771181106567e-01 3.429805040359497070e-01 -7.017999887466430664e-02
2.272000000000000000e+03 9.714062690734863281e+00 -2.649981117248535156e+01 -9.170776605606079102e-01 4.337863445281982422e+00 1.026235699653625488e+00 1.377766281366348267e-01
2.273000000000000000e+03 3.978277969360351562e+01 1.748194694519042969e+01 9.042305350303649902e-01 1.976640105247497559e+00 8.642611503601074219e-01 8.395215272903442383e-01
2.274000000000000000e+03 3.825447082519531250e+01 1.971816444396972656e+01 5.614954829216003418e-01 2.001261472702026367e+00 7.688270807266235352e-01 7.265167236328125000e-01
2.275000000000000000e+03 6.698243713378906250e+01 -1.685587882995605469e+00 -1.343793034553527832e+00 6.291162014007568359e+00 1.484210729598999023e+00 -3.093495607376098633e+00
2.276000000000000000e+03 7.293805694580078125e+01 -6.804832935333251953e+00 9.544272422790527344e-01 1.052132034301757812e+01 3.442724227905273438e+00 1.225570678710937500e+00
2.277000000000000000e+03 3.441988754272460938e+01 -1.256556320190429688e+01 -2.377471923828125000e+00 5.154389739036560059e-01 -5.586099028587341309e-01 -4.070476293563842773e-01
2.278000000000000000e+03 6.724926757812500000e+01 -2.575758743286132812e+01 -1.085098385810852051e+00 6.315765380859375000e+00 1.569200158119201660e+00 4.403998553752899170e-01
2.279000000000000000e+03 7.045355987548828125e+01 -2.186719322204589844e+01 -1.087523221969604492e+00 9.233430862426757812e+00 2.443772077560424805e+00 -3.893797993659973145e-01
2.280000000000000000e+03 6.189063262939453125e+01 1.127008628845214844e+01 5.041285753250122070e-01 3.412591457366943359e+00 1.175016045570373535e+00 -1.226206660270690918e+00
2.281000000000000000e+03 8.725902557373046875e+00 -2.783468818664550781e+01 -8.578227162361145020e-01 4.380331516265869141e+00 1.056752681732177734e+00 3.118595182895660400e-01
2.282000000000000000e+03 1.082048320770263672e+01 -2.538499832153320312e+01 -9.109952449798583984e-01 4.491467475891113281e+00 1.074141621589660645e+00 -2.933819890022277832e-01
2.283000000000000000e+03 4.222974395751953125e+01 4.952146053314208984e+00 1.099134325981140137e+00 3.854446709156036377e-01 4.453737139701843262e-01 -4.355486482381820679e-02
2.284000000000000000e+03 9.299201965332031250e+00 2.847324371337890625e+01 -2.463192641735076904e-01 1.504783987998962402e+00 3.775393962860107422e-01 -2.876779250800609589e-02
2.285000000000000000e+03 7.114981079101562500e+01 1.376807308197021484e+01 1.237845197319984436e-01 5.726611614227294922e+00 1.755118846893310547e+00 -9.553237557411193848e-01
2.286000000000000000e+03 1.772107315063476562e+01 -3.146043395996093750e+01 -3.472452759742736816e-01 1.337416052818298340e+00 2.970512211322784424e-01 -2.855432629585266113e-01
2.287000000000000000e+03 6.076462554931640625e+01 -2.878260612487792969e+01 -6.474756002426147461e-01 1.617746591567993164e+00 2.910812795162200928e-01 2.549489140510559082e-01
2.288000000000000000e+03 6.996946716308593750e+01 -3.208740997314453125e+01 -3.457591533660888672e-01 7.160600185394287109e+00 2.044452190399169922e+00 1.624254584312438965e-01
2.289000000000000000e+03 3.118353271484375000e+01 1.911869239807128906e+01 -5.108195915818214417e-02 2.000508308410644531e+00 5.848279595375061035e-01 6.441550254821777344e-01
2.290000000000000000e+03 7.171358489990234375e+01 1.820379829406738281e+01 1.799519360065460205e-01 5.540293216705322266e+00 1.716073513031005859e+00 -7.416236400604248047e-01
2.291000000000000000e+03 1.310191345214843750e+01 -3.050847816467285156e+01 -5.505238771438598633e-01 2.762721538543701172e+00 6.636592745780944824e-01 -1.831044107675552368e-01
2.292000000000000000e+03 5.526869964599609375e+01 -4.770468711853027344e+00 -1.445125699043273926e+00 -1.305806040763854980e-01 -4.727118909358978271e-01 -6.049519181251525879e-01
2.293000000000000000e+03 3.607704162597656250e+01 -1.161709976196289062e+01 -2.092288732528686523e+00 5.047869682312011719e-01 -4.762505292892456055e-01 -5.232391953468322754e-01
2.294000000000000000e+03 6.026045608520507812e+01 -8.129554390907287598e-01 -6.308566778898239136e-02 6.610398292541503906e-01 1.793862432241439819e-01 -1.401978254318237305e+00
2.295000000000000000e+03 5.231488418579101562e+01 2.351898765563964844e+01 1.039693236351013184e+00 1.883138656616210938e+00 8.768495917320251465e-01 -4.895285069942474365e-01
2.296000000000000000e+03 7.835378646850585938e+00 3.578199005126953125e+01 -3.711115196347236633e-02 1.210349202156066895e+00 3.519714176654815674e-01 6.916099227964878082e-03
2.297000000000000000e+03 8.761002540588378906e+00 -3.457652664184570312e+01 -2.970931828022003174e-01 3.591897010803222656e+00 9.884411096572875977e-01 1.121109649538993835e-01
2.298000000000000000e+03 6.808661460876464844e+00 -3.567128753662109375e+01 -2.031958252191543579e-01 3.901428222656250000e+00 1.109469771385192871e+00 1.327173411846160889e-01
2.299000000000000000e+03 5.256025314331054688e+01 -6.855261325836181641e+00 -1.805398702621459961e+00 -8.781313151121139526e-02 -5.679635405540466309e-01 -6.762678027153015137e-01
2.300000000000000000e+03 5.266226959228515625e+01 -5.412590980529785156e+00 -1.402820110321044922e+00 -3.856114670634269714e-02 -4.324143826961517334e-01 -5.415349602699279785e-01
2.301000000000000000e+03 6.200936508178710938e+01 1.406417942047119141e+01 6.521744132041931152e-01 3.615034341812133789e+00 1.280162692070007324e+00 -1.102640867233276367e+00
2.302000000000000000e+03 6.406794738769531250e+01 1.609463500976562500e+01 5.693145394325256348e-01 4.052605152130126953e+00 1.386575937271118164e+00 -1.013780474662780762e+00
2.303000000000000000e+03 3.851037979125976562e+01 -1.245182895660400391e+01 -2.201885223388671875e+00 3.863599598407745361e-01 -5.446575880050659180e-01 -5.634962916374206543e-01
2.304000000000000000e+03 3.946772003173828125e+01 -1.110575675964355469e+01 -1.927755832672119141e+00 3.759503364562988281e-01 -4.655416607856750488e-01 -5.996509194374084473e-01
2.305000000000000000e+03 7.061870574951171875e+01 -3.030290222167968750e+01 -5.445060133934020996e-01 7.562866687774658203e+00 2.105508089065551758e+00 4.682164266705513000e-02
2.306000000000000000e+03 3.149967956542968750e+01 8.541390419006347656e+00 1.909842610359191895e+00 1.838026046752929688e+00 1.124360561370849609e+00 1.582308650016784668e+00
2.307000000000000000e+03 6.996559143066406250e+01 2.809302902221679688e+01 1.972843259572982788e-01 4.920679092407226562e+00 1.535389065742492676e+00 -4.386815726757049561e-01
2.308000000000000000e+03 7.615783691406250000e+00 2.252833747863769531e+01 -3.109868764877319336e-01 1.663040876388549805e+00 4.056161940097808838e-01 -3.873662352561950684e-01
2.309000000000000000e+03 4.271859359741210938e+01 2.740109634399414062e+01 6.722514033317565918e-01 1.923578143119812012e+00 7.787488698959350586e-01 3.837013244628906250e-01
2.310000000000000000e+03 5.435602569580078125e+01 8.051483891904354095e-03 7.392313331365585327e-02 1.419404149055480957e-01 6.475906819105148315e-02 -4.158649444580078125e-01
2.311000000000000000e+03 7.242139434814453125e+01 -2.554087162017822266e+00 -1.314106464385986328e+00 9.798868179321289062e+00 2.545428514480590820e+00 3.012835979461669922e-01
2.312000000000000000e+03 8.839796066284179688e+00 2.521332359313964844e+01 -3.519151210784912109e-01 1.704327225685119629e+00 4.057236313819885254e-01 -1.542376726865768433e-01
2.313000000000000000e+03 2.633013153076171875e+01 2.012717628479003906e+01 -2.052609324455261230e-01 1.229153156280517578e+00 3.071676790714263916e-01 1.655662506818771362e-01
2.314000000000000000e+03 2.391148567199707031e+01 2.146139907836914062e+01 3.821056336164474487e-02 8.432727456092834473e-01 2.644449770450592041e-01 3.032648563385009766e-01
2.315000000000000000e+03 7.391160488128662109e+00 -2.708956527709960938e+01 -8.488611578941345215e-01 4.494275569915771484e+00 1.093624234199523926e+00 6.687741875648498535e-01
2.316000000000000000e+03 6.911791229248046875e+01 3.011349487304687500e+01 2.208629697561264038e-01 4.779631137847900391e+00 1.500148296356201172e+00 -3.946447372436523438e-01
2.317000000000000000e+03 3.701644134521484375e+01 9.785262107849121094e+00 1.114614248275756836e+00 1.432703971862792969e+00 7.641954421997070312e-01 1.035225510597229004e+00
2.318000000000000000e+03 3.644915390014648438e+01 8.772874832153320312e+00 1.286193966865539551e+00 1.302554011344909668e+00 7.766243815422058105e-01 1.025757193565368652e+00
2.319000000000000000e+03 5.726028060913085938e+01 2.708863258361816406e+01 6.808757781982421875e-01 3.062454462051391602e+00 1.122999072074890137e+00 -5.231342911720275879e-01
2.320000000000000000e+03 5.415731048583984375e+01 2.666245841979980469e+01 8.228673934936523438e-01 2.541828870773315430e+00 1.009408831596374512e+00 -4.073011577129364014e-01
2.321000000000000000e+03 2.481740379333496094e+01 2.269619369506835938e+01 9.668055176734924316e-02 1.034796953201293945e+00 3.394432663917541504e-01 3.046494126319885254e-01
2.322000000000000000e+03 3.124725723266601562e+01 1.206557083129882812e+01 7.906628251075744629e-01 2.294449567794799805e+00 9.255337119102478027e-01 1.711266756057739258e+00
2.323000000000000000e+03 4.535979461669921875e+01 -9.444748878479003906e+00 -1.759531974792480469e+00 1.690552383661270142e-01 -4.771430492401123047e-01 -6.797899007797241211e-01
2.324000000000000000e+03 5.371958160400390625e+01 7.444139719009399414e-01 2.687037587165832520e-01 1.988861411809921265e-01 1.402769684791564941e-01 -3.531925678253173828e-01
2.325000000000000000e+03 7.095780944824218750e+01 3.278355789184570312e+01 1.489319503307342529e-01 4.947512149810791016e+00 1.528933167457580566e+00 -2.713105678558349609e-01
2.326000000000000000e+03 7.123886871337890625e+01 -2.074464797973632812e+01 -9.955267906188964844e-01 9.680479049682617188e+00 2.605485439300537109e+00 -9.112123847007751465e-01
2.327000000000000000e+03 2.714176177978515625e+01 2.148230934143066406e+01 -7.344402372837066650e-02 1.367686033248901367e+00 3.882726132869720459e-01 2.266410142183303833e-01
2.328000000000000000e+03 2.698757362365722656e+01 1.906704902648925781e+01 -3.860042095184326172e-01 1.484255909919738770e+00 3.294755220413208008e-01 2.302948236465454102e-01
2.329000000000000000e+03 1.983593368530273438e+01 2.099565696716308594e+01 2.286776527762413025e-02 8.991125226020812988e-01 2.765940725803375244e-01 1.080353379249572754e+00
2.330000000000000000e+03 1.579239749908447266e+01 2.151660156250000000e+01 -4.506106972694396973e-01 2.187887430191040039e+00 5.211830139160156250e-01 9.460716247558593750e-01
2.331000000000000000e+03 1.877827072143554688e+01 2.190052413940429688e+01 -7.468308508396148682e-02 1.264147520065307617e+00 3.568393290042877197e-01 1.009700894355773926e+00
2.332000000000000000e+03 1.610765266418457031e+01 2.457072639465332031e+01 -2.885988950729370117e-01 1.789848446846008301e+00 4.503748714923858643e-01 6.841532588005065918e-01
2.333000000000000000e+03 3.701615524291992188e+01 1.516106033325195312e+01 7.667809724807739258e-01 1.873730063438415527e+00 7.921532988548278809e-01 1.160261273384094238e+00
2.334000000000000000e+03 3.620607376098632812e+01 1.065975856781005859e+01 1.102581858634948730e+00 1.536614656448364258e+00 7.917589545249938965e-01 1.234793663024902344e+00
2.335000000000000000e+03 5.731061172485351562e+01 2.338731002807617188e+01 6.724638938903808594e-01 2.997283220291137695e+00 1.100924134254455566e+00 -6.746920347213745117e-01
2.336000000000000000e+03 5.953556442260742188e+01 2.232572555541992188e+01 6.028929948806762695e-01 3.403299808502197266e+00 1.201857805252075195e+00 -6.818997263908386230e-01
2.337000000000000000e+03 1.217259693145751953e+01 -2.845445442199707031e+01 -6.908378005027770996e-01 3.237177848815917969e+00 7.639020085334777832e-01 -2.021577805280685425e-01
2.338000000000000000e+03 1.093974685668945312e+01 -2.756010055541992188e+01 -8.225340247154235840e-01 3.927850008010864258e+00 9.315947890281677246e-01 -1.273168027400970459e-01
2.339000000000000000e+03 3.880629730224609375e+01 2.299636459350585938e+01 5.125713348388671875e-01 1.992384076118469238e+00 7.514866590499877930e-01 5.728783011436462402e-01
2.340000000000000000e+03 5.910972595214843750e+00 3.830690002441406250e+01 -1.108147110790014267e-02 1.118352770805358887e+00 3.321813941001892090e-01 -3.217777702957391739e-03
2.341000000000000000e+03 1.160544490814208984e+01 3.003052234649658203e+00 -3.315768837928771973e-01 4.921369552612304688e+00 1.376937747001647949e+00 -2.438832044601440430e+00
2.342000000000000000e+03 1.280532836914062500e+01 -4.766674041748046875e+00 9.582223892211914062e-01 6.811681747436523438e+00 2.330971240997314453e+00 4.705504417419433594e+00
2.343000000000000000e+03 9.525912284851074219e+00 -4.076120853424072266e+00 1.969058275222778320e+00 2.782485008239746094e+00 1.425462961196899414e+00 4.455252647399902344e+00
2.344000000000000000e+03 8.471616744995117188e+00 -4.325767993927001953e+00 1.071442246437072754e+00 2.539152145385742188e+00 1.083178281784057617e+00 3.370596170425415039e+00
2.345000000000000000e+03 1.039271545410156250e+01 -5.982718944549560547e+00 -1.333718895912170410e-01 4.856499195098876953e+00 1.416938185691833496e+00 5.566204071044921875e+00
2.346000000000000000e+03 1.136857891082763672e+01 -4.346555709838867188e+00 1.845131516456604004e+00 5.573569297790527344e+00 2.225610256195068359e+00 5.971527576446533203e+00
2.347000000000000000e+03 1.110347175598144531e+01 -3.862849712371826172e+00 2.807699918746948242e+00 4.596605777740478516e+00 2.221291780471801758e+00 5.988546371459960938e+00
2.348000000000000000e+03 1.251371955871582031e+01 -4.304157733917236328e+00 1.659967541694641113e+00 7.384068012237548828e+00 2.713210821151733398e+00 5.380555152893066406e+00
2.349000000000000000e+03 1.135391330718994141e+01 2.587072849273681641e+00 5.326012149453163147e-02 4.233166217803955078e+00 1.285927891731262207e+00 -2.584462881088256836e+00
2.350000000000000000e+03 1.337613105773925781e+01 3.425070285797119141e+00 -1.553526401519775391e+00 7.321014404296875000e+00 1.730246424674987793e+00 -1.325200200080871582e+00
2.351000000000000000e+03 1.254908657073974609e+01 5.760436058044433594e+00 -1.472454667091369629e+00 5.968097686767578125e+00 1.348692893981933594e+00 -6.429887413978576660e-01
2.352000000000000000e+03 1.039665317535400391e+01 -3.706482410430908203e+00 2.850628137588500977e+00 3.310558557510375977e+00 1.848356008529663086e+00 5.322690486907958984e+00
2.353000000000000000e+03 9.778348922729492188e+00 -7.811230659484863281e+00 -2.134874105453491211e+00 6.175090312957763672e+00 1.212064862251281738e+00 5.303864479064941406e+00
2.354000000000000000e+03 1.097548961639404297e+01 6.509544849395751953e+00 -4.622403979301452637e-01 4.469161510467529297e+00 1.202076315879821777e+00 -3.890994787216186523e-01
2.355000000000000000e+03 1.074789714813232422e+01 4.499602794647216797e+00 -4.990532100200653076e-01 4.059948444366455078e+00 1.068268537521362305e+00 -1.410368680953979492e+00
2.356000000000000000e+03 1.248726272583007812e+01 6.645555496215820312e+00 -1.067596912384033203e+00 5.731393337249755859e+00 1.399138927459716797e+00 -1.759816855192184448e-01
2.357000000000000000e+03 1.162032508850097656e+01 6.384491443634033203e+00 -8.110243678092956543e-01 5.060591697692871094e+00 1.274870276451110840e+00 -3.557901978492736816e-01
2.358000000000000000e+03 9.471968650817871094e+00 4.787870407104492188e+00 -4.207169264554977417e-02 2.660706996917724609e+00 7.855905890464782715e-01 -7.762740850448608398e-01
2.359000000000000000e+03 7.718523979187011719e+00 -4.883882999420166016e+00 3.239275515079498291e-01 3.037302255630493164e+00 1.008368968963623047e+00 2.893691301345825195e+00
2.360000000000000000e+03 9.539388656616210938e+00 -7.087357521057128906e+00 -1.616532087326049805e+00 6.054961204528808594e+00 1.331528663635253906e+00 5.285719394683837891e+00
2.361000000000000000e+03 5.379473686218261719e+00 -7.072091102600097656e+00 -8.735921978950500488e-01 3.560110807418823242e+00 8.059556484222412109e-01 4.594344794750213623e-01
2.362000000000000000e+03 1.289074325561523438e+01 5.337114334106445312e+00 -1.831995964050292969e+00 6.199933528900146484e+00 1.310381293296813965e+00 -6.733940243721008301e-01
2.363000000000000000e+03 5.906045913696289062e+00 7.093234062194824219e+00 3.631449341773986816e-01 8.220807909965515137e-01 3.555677235126495361e-01 1.723386943340301514e-01
2.364000000000000000e+03 1.334267330169677734e+01 5.746996402740478516e+00 -1.916975975036621094e+00 6.457311630249023438e+00 1.362100720405578613e+00 -5.140867233276367188e-01
2.365000000000000000e+03 1.445346641540527344e+01 -7.237389564514160156e+00 -8.231161832809448242e-01 3.044178962707519531e+00 6.663188338279724121e-01 2.804659605026245117e+00
2.366000000000000000e+03 1.520790672302246094e+01 -4.533750057220458984e+00 2.311428070068359375e+00 5.644579410552978516e+00 2.386802196502685547e+00 1.022603511810302734e+00
2.367000000000000000e+03 1.560692596435546875e+01 -5.557024955749511719e+00 1.028227329254150391e+00 4.180053234100341797e+00 1.562484145164489746e+00 1.204052567481994629e+00
2.368000000000000000e+03 7.513230323791503906e+00 6.987734794616699219e+00 3.654496669769287109e-01 1.661309242248535156e+00 6.080276966094970703e-01 2.408852102234959602e-03
2.369000000000000000e+03 1.787619781494140625e+01 -5.027974128723144531e+00 2.388520002365112305e+00 2.086657285690307617e+00 1.342553138732910156e+00 -9.114422649145126343e-02
2.370000000000000000e+03 1.064553165435791016e+01 8.280716896057128906e+00 3.487567305564880371e-01 4.005069255828857422e+00 1.306147813796997070e+00 6.260455399751663208e-02
2.371000000000000000e+03 9.529720306396484375e+00 7.894607067108154297e+00 3.472143709659576416e-01 3.120597839355468750e+00 1.040343642234802246e+00 -3.370202332735061646e-02
2.372000000000000000e+03 1.006842803955078125e+01 9.308343887329101562e+00 6.822224259376525879e-01 3.471470832824707031e+00 1.246108055114746094e+00 5.712078884243965149e-02
2.373000000000000000e+03 1.513140678405761719e+01 -7.674440383911132812e+00 -1.378996133804321289e+00 2.276271581649780273e+00 2.691826224327087402e-01 2.182240009307861328e+00
2.374000000000000000e+03 1.545264148712158203e+01 -6.364778041839599609e+00 1.726464331150054932e-01 3.446899652481079102e+00 1.085863828659057617e+00 1.622344017028808594e+00
2.375000000000000000e+03 2.993699264526367188e+01 -9.168586730957031250e+00 -1.646306991577148438e+00 7.238773703575134277e-01 -2.767288684844970703e-01 -4.672222435474395752e-01
2.376000000000000000e+03 9.539159774780273438e+00 1.090552997589111328e+01 9.086213707923889160e-01 2.961025238037109375e+00 1.160894036293029785e+00 -1.454347670078277588e-01
2.377000000000000000e+03 9.604737281799316406e+00 1.157912731170654297e+01 9.240300655364990234e-01 3.030426025390625000e+00 1.186336755752563477e+00 -1.553187966346740723e-01
2.378000000000000000e+03 7.122165679931640625e+01 1.683249771595001221e-01 -1.345593214035034180e+00 8.304088592529296875e+00 2.087548494338989258e+00 -1.003639936447143555e+00
2.379000000000000000e+03 7.236242675781250000e+01 -1.152176141738891602e+00 -1.377372026443481445e+00 9.105843544006347656e+00 2.318541526794433594e+00 -2.799061238765716553e-01
2.380000000000000000e+03 2.037434196472167969e+01 -1.319616675376892090e+00 4.672578334808349609e+00 6.170145273208618164e-01 1.586877822875976562e+00 1.933423519134521484e+00
2.381000000000000000e+03 9.143054008483886719e+00 -7.976599216461181641e+00 -2.374975442886352539e+00 7.004582881927490234e+00 1.388882160186767578e+00 4.927949905395507812e+00
2.382000000000000000e+03 8.509044647216796875e+00 -8.090203285217285156e+00 -2.597944498062133789e+00 7.118196010589599609e+00 1.356075406074523926e+00 3.886498212814331055e+00
2.383000000000000000e+03 2.633288764953613281e+01 4.448573291301727295e-01 2.254139661788940430e+00 1.882793307304382324e+00 1.241079926490783691e+00 1.025404930114746094e+00
2.384000000000000000e+03 1.283196735382080078e+01 -7.950444221496582031e+00 -1.639743208885192871e+00 3.297059297561645508e+00 4.971948266029357910e-01 5.439931869506835938e+00
2.385000000000000000e+03 1.236668682098388672e+01 -5.123804569244384766e+00 6.881580948829650879e-01 6.216585159301757812e+00 2.071423053741455078e+00 5.338783740997314453e+00
2.386000000000000000e+03 2.730076026916503906e+01 9.486737847328186035e-01 2.273837089538574219e+00 1.877247810363769531e+00 1.245325446128845215e+00 8.658887743949890137e-01
2.387000000000000000e+03 2.892032432556152344e+01 2.852608680725097656e+00 2.465543508529663086e+00 1.914503812789916992e+00 1.314014196395874023e+00 7.621705532073974609e-01
2.388000000000000000e+03 8.332810401916503906e+00 9.892502784729003906e+00 6.763839721679687500e-01 2.252137660980224609e+00 8.785564899444580078e-01 -3.050487861037254333e-02
2.389000000000000000e+03 1.817283248901367188e+01 -2.542932987213134766e+00 5.637876987457275391e+00 1.483478784561157227e+00 2.136406660079956055e+00 6.674573421478271484e-01
2.390000000000000000e+03 1.735163497924804688e+01 -4.491866111755371094e+00 2.998621463775634766e+00 2.547479867935180664e+00 1.663830399513244629e+00 8.817212283611297607e-02
2.391000000000000000e+03 1.796566200256347656e+01 -1.485578894615173340e+00 6.452905178070068359e+00 1.464721560478210449e+00 2.375288009643554688e+00 1.487257957458496094e+00
2.392000000000000000e+03 3.915180969238281250e+01 -9.990043640136718750e+00 -1.696107506752014160e+00 4.154118299484252930e-01 -3.842087090015411377e-01 -5.902505517005920410e-01
2.393000000000000000e+03 4.077370452880859375e+01 -1.082342624664306641e+01 -1.878249049186706543e+00 3.354173302650451660e-01 -4.628495275974273682e-01 -6.231105327606201172e-01
2.394000000000000000e+03 4.723548507690429688e+01 -7.968992710113525391e+00 -1.588548898696899414e+00 1.295107454061508179e-01 -4.377114474773406982e-01 -6.311252713203430176e-01
2.395000000000000000e+03 4.602412796020507812e+01 -1.031508064270019531e+01 -1.941554069519042969e+00 1.110451370477676392e-01 -5.491526722908020020e-01 -7.442867159843444824e-01
2.396000000000000000e+03 2.749388313293457031e+01 -8.635290145874023438e+00 -1.473168611526489258e+00 7.713006734848022461e-01 -2.105603814125061035e-01 -4.346803724765777588e-01
2.397000000000000000e+03 3.191358566284179688e+01 1.555677700042724609e+01 1.328568756580352783e-01 2.207296133041381836e+00 7.020459175109863281e-01 1.216870784759521484e+00
2.398000000000000000e+03 4.615916442871093750e+01 -7.114227771759033203e+00 -1.330502629280090332e+00 1.746683418750762939e-01 -3.467502892017364502e-01 -5.488530993461608887e-01
2.399000000000000000e+03 4.985718917846679688e+01 -6.835710048675537109e+00 -1.543474435806274414e+00 5.489731952548027039e-02 -4.465731382369995117e-01 -5.977135300636291504e-01
2.400000000000000000e+03 3.059450340270996094e+01 4.942600727081298828e+00 2.558625698089599609e+00 1.572760105133056641e+00 1.239415764808654785e+00 9.657844901084899902e-01
2.401000000000000000e+03 3.170570945739746094e+01 5.535672664642333984e+00 2.339849472045898438e+00 1.425401329994201660e+00 1.129575252532958984e+00 1.047009348869323730e+00
2.402000000000000000e+03 6.773945808410644531e+00 8.065666198730468750e+00 4.618598222732543945e-01 1.314069509506225586e+00 5.327787995338439941e-01 7.927483320236206055e-02
2.403000000000000000e+03 6.599881744384765625e+01 -1.200487613677978516e+00 -8.126409649848937988e-01 4.868445873260498047e+00 1.216741442680358887e+00 -3.298695564270019531e+00
2.404000000000000000e+03 6.897502136230468750e+01 -2.238133907318115234e+00 -1.925562858581542969e+00 8.786558151245117188e+00 2.058298587799072266e+00 -2.359338045120239258e+00
2.405000000000000000e+03 5.683789062500000000e+01 2.427467107772827148e+00 4.786271154880523682e-01 7.046071887016296387e-01 3.549702763557434082e-01 -6.322715878486633301e-01
2.406000000000000000e+03 5.962902832031250000e+01 4.422068119049072266e+00 4.347610473632812500e-01 1.815457820892333984e+00 6.750656366348266602e-01 -1.078577518463134766e+00
2.407000000000000000e+03 7.210897827148437500e+01 -2.405309295654296875e+01 -9.162501692771911621e-01 9.036336898803710938e+00 2.436025857925415039e+00 -6.213204860687255859e-01
2.408000000000000000e+03 6.897068786621093750e+01 -2.706549263000488281e+01 -9.506357908248901367e-01 7.114476203918457031e+00 1.849152207374572754e+00 1.321583539247512817e-01
2.409000000000000000e+03 7.050904846191406250e+01 -2.372862625122070312e+01 -1.102399826049804688e+00 8.658770561218261719e+00 2.266911268234252930e+00 -3.391903638839721680e-01
2.410000000000000000e+03 2.274877166748046875e+01 -1.817114472389221191e+00 3.003797531127929688e+00 8.201252222061157227e-01 1.147176742553710938e+00 1.333173274993896484e+00
2.411000000000000000e+03 5.432553482055664062e+01 -3.715384960174560547e+00 -9.755905270576477051e-01 -3.989056497812271118e-02 -3.046443164348602295e-01 -4.788030683994293213e-01
2.412000000000000000e+03 4.885319137573242188e+01 -4.051898956298828125e+00 -7.923115491867065430e-01 1.236276701092720032e-01 -2.006051540374755859e-01 -3.898856639862060547e-01
2.413000000000000000e+03 7.122555541992187500e+01 2.524504661560058594e+00 -9.471081495285034180e-01 7.468633174896240234e+00 1.956457495689392090e+00 -1.067068219184875488e+00
2.414000000000000000e+03 7.130186462402343750e+01 3.625821828842163086e+00 -7.016924023628234863e-01 7.078029632568359375e+00 1.912901163101196289e+00 -1.040569305419921875e+00
2.415000000000000000e+03 5.098012924194335938e+01 -6.408698081970214844e+00 -1.547210931777954102e+00 -8.607457391917705536e-03 -4.667455255985260010e-01 -5.887905955314636230e-01
2.416000000000000000e+03 7.046779632568359375e+01 1.075024223327636719e+01 1.355396211147308350e-02 5.765678405761718750e+00 1.733769774436950684e+00 -1.130357503890991211e+00
2.417000000000000000e+03 7.135787200927734375e+01 8.643463134765625000e+00 -1.368755847215652466e-01 6.228271961212158203e+00 1.827418923377990723e+00 -1.074281334877014160e+00
2.418000000000000000e+03 6.984262084960937500e+01 1.814544105529785156e+01 2.571609914302825928e-01 5.198232173919677734e+00 1.636618018150329590e+00 -8.279159665107727051e-01
2.419000000000000000e+03 7.223704528808593750e+01 1.570181369781494141e+01 1.370794624090194702e-01 5.815873146057128906e+00 1.785885810852050781e+00 -8.172420263290405273e-01
2.420000000000000000e+03 3.728235244750976562e+01 3.921191692352294922e+00 1.345774888992309570e+00 7.223196625709533691e-01 6.204283833503723145e-01 3.159611523151397705e-01
2.421000000000000000e+03 2.470120429992675781e+01 -8.937156677246093750e+00 -1.786068916320800781e+00 7.226877212524414062e-01 -3.190143704414367676e-01 -3.992927968502044678e-01
2.422000000000000000e+03 3.506916046142578125e+01 -1.187056541442871094e+01 -2.196612358093261719e+00 5.284147262573242188e-01 -5.004593133926391602e-01 -4.769119918346405029e-01
2.423000000000000000e+03 3.361394882202148438e+01 -9.459117889404296875e+00 -1.596492648124694824e+00 6.372319459915161133e-01 -2.877781987190246582e-01 -5.242339968681335449e-01
2.424000000000000000e+03 1.032796859741210938e+01 2.493588638305664062e+01 -4.028291702270507812e-01 1.883934140205383301e+00 4.443314969539642334e-01 -1.586304232478141785e-02
2.425000000000000000e+03 1.067479324340820312e+01 2.668076515197753906e+01 -3.393464088439941406e-01 1.721161484718322754e+00 4.145445227622985840e-01 5.169235169887542725e-02
2.426000000000000000e+03 1.129775428771972656e+01 -7.911939620971679688e+00 -2.147143363952636719e+00 5.106207847595214844e+00 8.877192735671997070e-01 5.989949226379394531e+00
2.427000000000000000e+03 7.001991271972656250e+01 1.172556304931640625e+01 7.845014333724975586e-02 5.614486217498779297e+00 1.707880854606628418e+00 -1.117680549621582031e+00
2.428000000000000000e+03 4.139005279541015625e+01 3.286905288696289062e+00 9.994381070137023926e-01 3.718131482601165771e-01 4.113753736019134521e-01 -3.032070212066173553e-02
2.429000000000000000e+03 8.729051589965820312e+00 1.208597183227539062e+01 7.602805495262145996e-01 2.481598615646362305e+00 9.725637435913085938e-01 -3.335899412631988525e-01
2.430000000000000000e+03 2.549491310119628906e+01 -1.464633107185363770e+00 2.034900665283203125e+00 1.395670533180236816e+00 1.029171347618103027e+00 8.836666345596313477e-01
2.431000000000000000e+03 2.278639602661132812e+01 -7.896256446838378906e+00 -1.066993474960327148e+00 7.377997040748596191e-01 -9.875815361738204956e-02 -4.229135513305664062e-01
2.432000000000000000e+03 2.630336380004882812e+01 -8.268417358398437500e+00 -1.296029806137084961e+00 7.704411149024963379e-01 -1.576765924692153931e-01 -4.351218938827514648e-01
2.433000000000000000e+03 4.498092269897460938e+01 -1.080480384826660156e+01 -1.974671959877014160e+00 1.482867151498794556e-01 -5.479155778884887695e-01 -7.303502559661865234e-01
2.434000000000000000e+03 2.198263549804687500e+01 -7.322944641113281250e+00 -5.297315716743469238e-01 7.193459868431091309e-01 5.688431486487388611e-02 -4.080389142036437988e-01
2.435000000000000000e+03 7.429252624511718750e+00 2.057277297973632812e+01 -2.372341603040695190e-01 1.753251075744628906e+00 4.548050761222839355e-01 -5.383948683738708496e-01
2.436000000000000000e+03 8.502544403076171875e+00 1.905178260803222656e+01 -1.752179563045501709e-01 2.163808584213256836e+00 5.965772271156311035e-01 -5.606362819671630859e-01
2.437000000000000000e+03 3.300444030761718750e+01 1.684454345703125000e+01 2.147244960069656372e-01 2.087209463119506836e+00 6.905801892280578613e-01 1.018372297286987305e+00
2.438000000000000000e+03 3.614356613159179688e+01 1.449082088470458984e+01 7.614494562149047852e-01 1.872593760490417480e+00 7.902129888534545898e-01 1.253822207450866699e+00
2.439000000000000000e+03 1.015588569641113281e+01 1.681732177734375000e+01 1.490143686532974243e-01 2.953360319137573242e+00 9.307124614715576172e-01 -5.357110500335693359e-01
2.440000000000000000e+03 5.784143829345703125e+01 1.015515327453613281e+00 2.647727727890014648e-01 6.328541040420532227e-01 2.692880630493164062e-01 -8.145290017127990723e-01
2.441000000000000000e+03 5.602431106567382812e+01 6.073848009109497070e-01 1.990394592285156250e-01 3.327771425247192383e-01 1.595449745655059814e-01 -5.883951187133789062e-01
2.442000000000000000e+03 5.072721481323242188e+01 2.062817513942718506e-01 1.942355781793594360e-01 1.366658061742782593e-01 9.927041828632354736e-02 -2.792350649833679199e-01
2.443000000000000000e+03 4.951674270629882812e+01 -2.571472525596618652e-01 1.079075783491134644e-01 1.389589756727218628e-01 7.405996322631835938e-02 -2.495317310094833374e-01
2.444000000000000000e+03 3.488615417480468750e+01 -9.602569580078125000e+00 -1.630488038063049316e+00 5.707318186759948730e-01 -3.179268836975097656e-01 -5.450584292411804199e-01
2.445000000000000000e+03 3.756859588623046875e+01 1.834502220153808594e+01 6.361474990844726562e-01 1.964727401733398438e+00 7.802624702453613281e-01 8.539820313453674316e-01
2.446000000000000000e+03 5.662500000000000000e+01 -2.623965263366699219e+00 -6.548938155174255371e-01 -1.037176139652729034e-02 -1.995796710252761841e-01 -5.976045131683349609e-01
2.447000000000000000e+03 4.769123840332031250e+01 1.167252585291862488e-01 2.447493821382522583e-01 1.933939009904861450e-01 1.314429789781570435e-01 -1.978518813848495483e-01
2.448000000000000000e+03 9.933958053588867188e+00 1.891554450988769531e+01 -2.420220822095870972e-01 2.603159666061401367e+00 7.083413004875183105e-01 -4.266805648803710938e-01
2.449000000000000000e+03 7.014676666259765625e+01 -1.105214357376098633e+00 -1.642158508300781250e+00 8.632458686828613281e+00 2.097090244293212891e+00 -1.492294192314147949e+00
2.450000000000000000e+03 7.521920680999755859e+00 9.803380012512207031e+00 6.574312448501586914e-01 1.767658114433288574e+00 7.275267839431762695e-01 -5.461201444268226624e-02
2.451000000000000000e+03 6.396649169921875000e+01 1.422168827056884766e+01 5.382701158523559570e-01 4.003544330596923828e+00 1.362544417381286621e+00 -1.148005604743957520e+00
2.452000000000000000e+03 6.298629760742187500e+01 1.336929321289062500e+01 5.785244107246398926e-01 3.775882959365844727e+00 1.306322216987609863e+00 -1.186394214630126953e+00
2.453000000000000000e+03 6.806628417968750000e+01 2.712118148803710938e+01 2.867398858070373535e-01 4.667998313903808594e+00 1.486421465873718262e+00 -5.180950164794921875e-01
2.454000000000000000e+03 7.222014617919921875e+01 8.995641708374023438e+00 -1.158997416496276855e-01 6.426725387573242188e+00 1.893247604370117188e+00 -9.255382418632507324e-01
2.455000000000000000e+03 6.075052642822265625e+01 7.618016719818115234e+00 3.848587274551391602e-01 2.807528972625732422e+00 9.577162861824035645e-01 -1.180925130844116211e+00
2.456000000000000000e+03 8.992369651794433594e+00 -2.313600540161132812e+01 -1.108534455299377441e+00 5.862639904022216797e+00 1.426231622695922852e+00 1.456952840089797974e-01
2.457000000000000000e+03 3.823256301879882812e+01 -1.129632282257080078e+01 -1.981519341468811035e+00 4.375984072685241699e-01 -4.631762802600860596e-01 -5.780504941940307617e-01
2.458000000000000000e+03 3.796947479248046875e+01 -1.015070533752441406e+01 -1.719372987747192383e+00 4.578579962253570557e-01 -3.784545063972473145e-01 -5.744058489799499512e-01
2.459000000000000000e+03 6.326097106933593750e+01 -9.989421367645263672e-01 -2.329990826547145844e-02 1.991928935050964355e+00 5.905886888504028320e-01 -2.527800083160400391e+00
2.460000000000000000e+03 2.851089286804199219e+01 -1.013961029052734375e+01 -2.119069576263427734e+00 7.199311852455139160e-01 -4.197415113449096680e-01 -3.712812662124633789e-01
2.461000000000000000e+03 3.259491348266601562e+01 -7.527472496032714844e+00 -1.006705403327941895e+00 6.836875081062316895e-01 -9.690537303686141968e-02 -5.236659049987792969e-01
2.462000000000000000e+03 7.308701992034912109e+00 1.676445198059082031e+01 1.248360872268676758e-01 1.797381401062011719e+00 5.766652226448059082e-01 -6.283520460128784180e-01
2.463000000000000000e+03 8.825646400451660156e+00 1.486901760101318359e+01 4.810737669467926025e-01 2.477538824081420898e+00 8.875837922096252441e-01 -5.657103657722473145e-01
2.464000000000000000e+03 7.101602172851562500e+01 1.536427497863769531e+01 1.832450330257415771e-01 5.592212677001953125e+00 1.732637286186218262e+00 -8.842753171920776367e-01
2.465000000000000000e+03 3.245154190063476562e+01 9.180630683898925781e+00 1.685823917388916016e+00 1.703292965888977051e+00 1.016735076904296875e+00 1.605289697647094727e+00
2.466000000000000000e+03 3.239220046997070312e+01 1.107811164855957031e+01 1.178735852241516113e+00 1.959593892097473145e+00 9.414989352226257324e-01 1.694927930831909180e+00
2.467000000000000000e+03 3.764188003540039062e+01 2.359950256347656250e+01 4.480586349964141846e-01 1.950373411178588867e+00 7.195296287536621094e-01 5.232352018356323242e-01
2.468000000000000000e+03 3.793875503540039062e+01 2.167481422424316406e+01 4.899458587169647217e-01 1.976367831230163574e+00 7.398940920829772949e-01 6.080656051635742188e-01
2.469000000000000000e+03 9.364467620849609375e+00 3.027210998535156250e+01 -1.846518367528915405e-01 1.417288541793823242e+00 3.697910010814666748e-01 -3.351267951074987650e-04
2.470000000000000000e+03 5.572281265258789062e+01 1.456687211990356445e+00 3.843675255775451660e-01 4.290863573551177979e-01 2.440361678600311279e-01 -5.053661465644836426e-01
2.471000000000000000e+03 5.554236602783203125e+01 -3.114616632461547852e+00 -8.232983946800231934e-01 -3.550796210765838623e-02 -2.576419115066528320e-01 -5.569213032722473145e-01
2.472000000000000000e+03 6.941278839111328125e+01 2.032927322387695312e+01 2.751495838165283203e-01 5.040953159332275391e+00 1.594830751419067383e+00 -7.489770054817199707e-01
2.473000000000000000e+03 3.114155387878417969e+01 -9.376924514770507812e+00 -1.682423353195190430e+00 6.923373341560363770e-01 -2.970257997512817383e-01 -4.838880300521850586e-01
2.474000000000000000e+03 6.935066986083984375e+01 2.543185615539550781e+01 2.399004250764846802e-01 4.917413711547851562e+00 1.547194123268127441e+00 -5.625054240226745605e-01
2.475000000000000000e+03 7.033494567871093750e+01 2.390585327148437500e+01 2.242871373891830444e-01 5.104268074035644531e+00 1.598566532135009766e+00 -5.793684720993041992e-01
2.476000000000000000e+03 3.605377960205078125e+01 1.887672233581542969e+01 4.514327645301818848e-01 1.977841258049011230e+00 7.287822365760803223e-01 8.138985633850097656e-01
2.477000000000000000e+03 2.995013046264648438e+01 1.797711563110351562e+01 -2.645379602909088135e-01 2.029796361923217773e+00 5.295775532722473145e-01 6.529240012168884277e-01
2.478000000000000000e+03 6.853210449218750000e+01 -2.574417495727539062e+01 -1.025248765945434570e+00 7.058189868927001953e+00 1.809882402420043945e+00 2.290340512990951538e-01
2.479000000000000000e+03 4.442952346801757812e+01 -8.877319335937500000e+00 -1.605861783027648926e+00 2.120618373155593872e-01 -4.181399941444396973e-01 -6.343039274215698242e-01
2.480000000000000000e+03 8.793482780456542969e+00 1.159232902526855469e+01 8.373008966445922852e-01 2.481960535049438477e+00 9.957783818244934082e-01 -2.385023236274719238e-01
2.481000000000000000e+03 8.098210334777832031e+00 1.178942298889160156e+01 6.897774338722229004e-01 2.072679281234741211e+00 8.287370204925537109e-01 -2.296107411384582520e-01
2.482000000000000000e+03 6.188654708862304688e+01 1.596450138092041016e+01 7.069872617721557617e-01 3.649649858474731445e+00 1.306991100311279297e+00 -9.806029200553894043e-01
2.483000000000000000e+03 6.244806671142578125e+01 2.023905181884765625e+01 5.941548347473144531e-01 3.842610359191894531e+00 1.331029534339904785e+00 -7.746083736419677734e-01
2.484000000000000000e+03 7.083129119873046875e+01 1.679638862609863281e+01 2.051450908184051514e-01 5.442417144775390625e+00 1.694268584251403809e+00 -8.581297993659973145e-01
2.485000000000000000e+03 5.627095413208007812e+01 -4.127720355987548828e+00 -1.204064249992370605e+00 -1.389550119638442993e-01 -4.029057919979095459e-01 -6.077068448066711426e-01
2.486000000000000000e+03 3.471956253051757812e+01 -1.081104755401611328e+01 -1.972493529319763184e+00 5.579238533973693848e-01 -4.243708848953247070e-01 -5.105205774307250977e-01
2.487000000000000000e+03 5.896594238281250000e+01 -4.147475659847259521e-01 2.909044921398162842e-02 5.446557402610778809e-01 1.721238493919372559e-01 -1.047966837882995605e+00
2.488000000000000000e+03 5.668324661254882812e+01 1.310697674751281738e+00 3.026736974716186523e-01 4.736512899398803711e-01 2.328974902629852295e-01 -6.488178372383117676e-01
2.489000000000000000e+03 4.360353851318359375e+01 1.170241713523864746e+00 6.191131472587585449e-01 2.302378565073013306e-01 2.548052966594696045e-01 -1.144205555319786072e-01
2.490000000000000000e+03 9.533989906311035156e+00 1.224926948547363281e+01 9.157088994979858398e-01 2.848823070526123047e+00 1.129359602928161621e+00 -2.666490077972412109e-01
2.491000000000000000e+03 6.583456420898437500e+01 -3.092777633666992188e+01 -4.968143999576568604e-01 4.990604877471923828e+00 1.348137140274047852e+00 4.787031114101409912e-01
2.492000000000000000e+03 3.569875335693359375e+01 6.386683464050292969e+00 1.567144274711608887e+00 1.029207468032836914e+00 7.789055109024047852e-01 7.732268571853637695e-01
2.493000000000000000e+03 7.088938903808593750e+01 9.653096199035644531e+00 -5.946145951747894287e-02 5.999041557312011719e+00 1.781874060630798340e+00 -1.083146333694458008e+00
2.494000000000000000e+03 3.614271545410156250e+01 7.526157855987548828e+00 1.420039415359497070e+00 1.149350047111511230e+00 7.708168625831604004e-01 8.883548378944396973e-01
2.495000000000000000e+03 1.190388774871826172e+01 -3.427648544311523438e+01 -3.592384159564971924e-01 2.821487426757812500e+00 7.386747002601623535e-01 -1.911170035600662231e-02
2.496000000000000000e+03 6.299314498901367188e+01 1.509766197204589844e+01 6.420193314552307129e-01 3.834346771240234375e+00 1.342909812927246094e+00 -1.077091097831726074e+00
2.497000000000000000e+03 6.005757904052734375e+01 2.064948844909667969e+01 6.586845517158508301e-01 3.496532201766967773e+00 1.246564984321594238e+00 -7.440034151077270508e-01
2.498000000000000000e+03 6.191227722167968750e+01 1.806854820251464844e+01 6.742982864379882812e-01 3.709873437881469727e+00 1.315251469612121582e+00 -8.337330222129821777e-01
2.499000000000000000e+03 3.091970634460449219e+01 6.721850872039794922e+00 2.416539430618286133e+00 1.650932550430297852e+00 1.220241546630859375e+00 1.375990629196166992e+00
2.500000000000000000e+03 3.205140686035156250e+01 7.404430866241455078e+00 2.092733383178710938e+00 1.578755140304565430e+00 1.101446628570556641e+00 1.426851034164428711e+00
2.501000000000000000e+03 4.617700576782226562e+01 -8.774170875549316406e+00 -1.693781971931457520e+00 1.464460343122482300e-01 -4.642007946968078613e-01 -6.617872118949890137e-01
2.502000000000000000e+03 6.082471847534179688e+01 6.557481288909912109e+00 3.708910644054412842e-01 2.727680921554565430e+00 9.295715689659118652e-01 -1.222627520561218262e+00
2.503000000000000000e+03 6.191884994506835938e+01 8.164193153381347656e+00 3.540119826793670654e-01 3.206493854522705078e+00 1.068151712417602539e+00 -1.341955542564392090e+00
2.504000000000000000e+03 9.133407592773437500e+00 2.682014465332031250e+01 -3.016609549522399902e-01 1.610447287559509277e+00 3.926359117031097412e-01 -6.842387467622756958e-02
2.505000000000000000e+03 1.440273952484130859e+01 -3.523418045043945312e+01 -2.494209408760070801e-01 2.264130830764770508e+00 6.044129729270935059e-01 -1.547374278306961060e-01
2.506000000000000000e+03 5.148115158081054688e+01 2.489640998840332031e+01 1.027106285095214844e+00 1.914422392845153809e+00 8.824585676193237305e-01 -3.186272382736206055e-01
2.507000000000000000e+03 4.996807479858398438e+01 -1.238478064537048340e+00 -1.384209096431732178e-01 1.247583702206611633e-01 -4.098760895431041718e-03 -2.924573123455047607e-01
2.508000000000000000e+03 1.707119941711425781e+01 -3.314808654785156250e+01 -2.797087132930755615e-01 1.589226603507995605e+00 3.928553760051727295e-01 -2.750405371189117432e-01
2.509000000000000000e+03 3.571434783935546875e+01 1.363195133209228516e+01 8.158208727836608887e-01 1.801641941070556641e+00 7.852388620376586914e-01 1.300203204154968262e+00
2.510000000000000000e+03 3.337475204467773438e+01 1.203486156463623047e+01 9.401850700378417969e-01 1.951973199844360352e+00 8.676475286483764648e-01 1.543946266174316406e+00
2.511000000000000000e+03 1.189141559600830078e+01 2.482545280456542969e+01 -4.465227723121643066e-01 1.994525909423828125e+00 4.644009470939636230e-01 1.695360094308853149e-01
2.512000000000000000e+03 1.283329582214355469e+01 2.022186279296875000e+01 -5.979737639427185059e-01 2.898662805557250977e+00 6.902066469192504883e-01 2.644086182117462158e-01
2.513000000000000000e+03 1.143887138366699219e+01 2.025924491882324219e+01 -4.918556809425354004e-01 2.762875318527221680e+00 6.813058853149414062e-01 -6.657434254884719849e-02
2.514000000000000000e+03 7.138246154785156250e+01 2.261479377746582031e+01 1.922460794448852539e-01 5.289511203765869141e+00 1.644527196884155273e+00 -5.869566202163696289e-01
2.515000000000000000e+03 5.900177764892578125e+01 2.402400207519531250e+01 6.077499985694885254e-01 3.365825176239013672e+00 1.192072510719299316e+00 -6.427168250083923340e-01
2.516000000000000000e+03 5.923519134521484375e+01 6.259529590606689453e+00 4.511381089687347412e-01 2.106256246566772461e+00 7.672182917594909668e-01 -9.359338879585266113e-01
2.517000000000000000e+03 5.828037261962890625e+01 4.741916656494140625e+00 4.711906909942626953e-01 1.543188691139221191e+00 6.043137907981872559e-01 -7.918875217437744141e-01
2.518000000000000000e+03 2.846388626098632812e+01 2.112257766723632812e+01 -1.275460869073867798e-01 1.569669365882873535e+00 4.326369762420654297e-01 2.718938589096069336e-01
2.519000000000000000e+03 4.530600357055664062e+01 2.685360145568847656e+01 8.380153179168701172e-01 1.863036155700683594e+00 8.103154301643371582e-01 3.394314050674438477e-01
2.520000000000000000e+03 4.904152679443359375e+01 2.485673904418945312e+01 1.069985985755920410e+00 1.628105282783508301e+00 8.094273805618286133e-01 7.041732966899871826e-02
2.521000000000000000e+03 4.001753997802734375e+01 2.713545036315917969e+01 5.549753308296203613e-01 1.943984508514404297e+00 7.496879696846008301e-01 4.064997136592864990e-01
2.522000000000000000e+03 4.271836853027343750e+01 2.366741561889648438e+01 6.765512824058532715e-01 1.901477098464965820e+00 7.734085321426391602e-01 5.935697555541992188e-01
2.523000000000000000e+03 7.160243988037109375e+01 -3.445270919799804688e+01 -1.521227508783340454e-01 7.726682662963867188e+00 2.272367954254150391e+00 8.787879347801208496e-02
2.524000000000000000e+03 7.106594848632812500e+01 -3.859166717529296875e+01 6.904872506856918335e-02 7.451599121093750000e+00 2.256194353103637695e+00 4.813777655363082886e-02
2.525000000000000000e+03 1.047989845275878906e+01 -3.650075149536132812e+01 -2.275905460119247437e-01 3.208995342254638672e+00 8.944213986396789551e-01 1.636689156293869019e-02
2.526000000000000000e+03 1.173213100433349609e+01 3.754100799560546875e+01 5.485180765390396118e-03 1.288645386695861816e+00 3.882391750812530518e-01 5.381476879119873047e-02
2.527000000000000000e+03 3.087390899658203125e+01 1.421217060089111328e+01 1.743931770324707031e-01 2.361043691635131836e+00 7.606310248374938965e-01 1.395372390747070312e+00
2.528000000000000000e+03 6.802732086181640625e+01 3.512454223632812500e+01 2.310022115707397461e-01 4.575953006744384766e+00 1.442086577415466309e+00 -2.348042279481887817e-01
2.529000000000000000e+03 6.492166137695312500e+01 3.451948928833007812e+01 3.438692390918731689e-01 4.181478977203369141e+00 1.357604384422302246e+00 -2.743896245956420898e-01
2.530000000000000000e+03 6.757165527343750000e+01 4.102446746826171875e+01 2.416688501834869385e-01 4.488103389739990234e+00 1.418931722640991211e+00 -4.518505558371543884e-02
2.531000000000000000e+03 1.880865478515625000e+01 -3.279856109619140625e+01 -2.360947579145431519e-01 1.130670309066772461e+00 2.683726847171783447e-01 -1.301714330911636353e-01
2.532000000000000000e+03 2.023334503173828125e+01 -3.173578262329101562e+01 -2.921591103076934814e-01 6.277576684951782227e-01 1.006795689463615417e-01 -9.399397671222686768e-02
2.533000000000000000e+03 1.277885532379150391e+01 3.154361724853515625e+00 -1.237927079200744629e+00 7.240174770355224609e+00 1.800674319267272949e+00 -1.990718603134155273e+00
2.534000000000000000e+03 1.117365074157714844e+01 -5.081234931945800781e+00 7.327632308006286621e-01 5.401068210601806641e+00 1.840149402618408203e+00 5.875763893127441406e+00
2.535000000000000000e+03 1.065952014923095703e+01 -4.158237457275390625e+00 2.160059928894042969e+00 4.338340759277343750e+00 1.949520230293273926e+00 5.628542900085449219e+00
2.536000000000000000e+03 9.186426162719726562e+00 -4.744596004486083984e+00 9.801979660987854004e-01 3.303065776824951172e+00 1.284979104995727539e+00 4.309147357940673828e+00
2.537000000000000000e+03 9.858593940734863281e+00 -6.198778152465820312e+00 -6.669594645500183105e-01 5.306422233581542969e+00 1.391838788986206055e+00 5.374676704406738281e+00
2.538000000000000000e+03 1.092776870727539062e+01 -4.609882831573486328e+00 1.633058309555053711e+00 4.676011562347412109e+00 1.892720937728881836e+00 5.857177257537841797e+00
2.539000000000000000e+03 1.213920307159423828e+01 6.126383781433105469e+00 -1.239952683448791504e+00 5.626053333282470703e+00 1.315830230712890625e+00 -4.490343332290649414e-01
2.540000000000000000e+03 1.148145961761474609e+01 5.864561557769775391e+00 -8.945348858833312988e-01 4.978521347045898438e+00 1.225196003913879395e+00 -6.891612410545349121e-01
2.541000000000000000e+03 1.186504840850830078e+01 -5.360970973968505859e+00 3.695377707481384277e-01 5.841184139251708984e+00 1.863216638565063477e+00 5.677021980285644531e+00
2.542000000000000000e+03 1.256504440307617188e+01 -5.732725143432617188e+00 -2.419086359441280365e-02 5.830447673797607422e+00 1.741877079010009766e+00 5.043044090270996094e+00
2.543000000000000000e+03 1.311302757263183594e+01 4.007102012634277344e+00 -1.726338863372802734e+00 6.919495105743408203e+00 1.557946920394897461e+00 -1.453472733497619629e+00
2.544000000000000000e+03 1.112989139556884766e+01 7.236134529113769531e+00 -2.412193566560745239e-01 4.515214920043945312e+00 1.282198667526245117e+00 -5.452194437384605408e-02
2.545000000000000000e+03 9.234249114990234375e+00 6.117057800292968750e+00 1.749014481902122498e-02 2.821684598922729492e+00 8.517524600028991699e-01 -3.630871772766113281e-01
2.546000000000000000e+03 1.020743942260742188e+01 4.270505428314208984e+00 -2.261603176593780518e-01 3.230190992355346680e+00 9.012092351913452148e-01 -1.264544010162353516e+00
2.547000000000000000e+03 7.699395656585693359e+00 -5.821363449096679688e+00 -5.100451707839965820e-01 4.123858928680419922e+00 1.084144115447998047e+00 2.947520971298217773e+00
2.548000000000000000e+03 8.213076591491699219e+00 -6.072036743164062500e+00 -5.421031713485717773e-01 4.422468185424804688e+00 1.164109468460083008e+00 3.681310415267944336e+00
2.549000000000000000e+03 9.341235160827636719e+00 5.462243556976318359e+00 -2.762239053845405579e-02 2.775090694427490234e+00 8.242405056953430176e-01 -6.005471944808959961e-01
2.550000000000000000e+03 9.216718673706054688e+00 7.193929195404052734e+00 2.127581834793090820e-01 2.918078660964965820e+00 9.392510652542114258e-01 -1.381305456161499023e-01
2.551000000000000000e+03 1.246422767639160156e+01 4.941182136535644531e+00 -1.579215049743652344e+00 6.100193023681640625e+00 1.356293439865112305e+00 -1.098455429077148438e+00
2.552000000000000000e+03 1.422456169128417969e+01 -4.796154022216796875e+00 1.307625532150268555e+00 6.623138427734375000e+00 2.379229307174682617e+00 2.615730285644531250e+00
2.553000000000000000e+03 8.244318962097167969e+00 -7.416196823120117188e+00 -1.911427021026611328e+00 6.458182811737060547e+00 1.364026784896850586e+00 3.748037338256835938e+00
2.554000000000000000e+03 1.282620525360107422e+01 -6.211483478546142578e+00 -3.844285905361175537e-01 5.132567405700683594e+00 1.424441576004028320e+00 4.996108055114746094e+00
2.555000000000000000e+03 1.586861991882324219e+01 -4.847739219665527344e+00 2.275174140930175781e+00 4.388528347015380859e+00 1.999110698699951172e+00 6.438635587692260742e-01
2.556000000000000000e+03 6.806604385375976562e+00 6.191655635833740234e+00 3.109523653984069824e-01 1.144772768020629883e+00 4.367175400257110596e-01 7.894694805145263672e-02
2.557000000000000000e+03 1.667544555664062500e+01 -4.406485557556152344e+00 3.218110799789428711e+00 3.314039945602416992e+00 1.959645271301269531e+00 1.775205433368682861e-01
2.558000000000000000e+03 1.642536354064941406e+01 -7.491046428680419922e+00 -1.061912775039672852e+00 1.913456916809082031e+00 2.554632425308227539e-01 9.771617650985717773e-01
2.559000000000000000e+03 7.641057014465332031e+00 7.821549892425537109e+00 4.399481713771820068e-01 1.859788179397583008e+00 6.899209022521972656e-01 2.687989734113216400e-03
2.560000000000000000e+03 8.882551193237304688e+00 6.580630302429199219e+00 1.736943870782852173e-01 2.597013711929321289e+00 8.312124013900756836e-01 -2.253811806440353394e-01
2.561000000000000000e+03 1.806397056579589844e+01 -6.010979175567626953e+00 1.095276236534118652e+00 1.644180417060852051e+00 8.218369483947753906e-01 -3.047478944063186646e-02
2.562000000000000000e+03 1.736422920227050781e+01 -3.666106700897216797e+00 4.376295089721679688e+00 2.605384349822998047e+00 2.094503879547119141e+00 2.238301374018192291e-02
2.563000000000000000e+03 2.895228576660156250e+01 -7.730181217193603516e+00 -1.048231840133666992e+00 7.762959599494934082e-01 -8.158077299594879150e-02 -4.634149968624114990e-01
2.564000000000000000e+03 1.904351997375488281e+01 -5.778252124786376953e+00 1.271350979804992676e+00 1.274503469467163086e+00 7.637563347816467285e-01 -2.425929158926010132e-01
2.565000000000000000e+03 1.832294654846191406e+01 -3.647038221359252930e+00 4.124848842620849609e+00 1.704311728477478027e+00 1.748748183250427246e+00 1.367170959711074829e-01
2.566000000000000000e+03 1.922964668273925781e+01 -4.437222480773925781e-01 5.519015312194824219e+00 6.012266278266906738e-01 1.836072564125061035e+00 2.500681161880493164e+00
2.567000000000000000e+03 1.616699028015136719e+01 -6.444777488708496094e+00 2.466891855001449585e-01 2.883367776870727539e+00 9.390170574188232422e-01 9.025863409042358398e-01
2.568000000000000000e+03 7.872088432312011719e+00 8.600741386413574219e+00 5.622985959053039551e-01 2.009267091751098633e+00 7.714697122573852539e-01 -3.966087475419044495e-03
2.569000000000000000e+03 1.095902347564697266e+01 -7.272995948791503906e+00 -1.386197805404663086e+00 5.043095588684082031e+00 1.097069382667541504e+00 6.092369556427001953e+00
2.570000000000000000e+03 6.867825317382812500e+01 5.950428009033203125e+00 -3.351384401321411133e-01 5.733530521392822266e+00 1.619517564773559570e+00 -1.523874282836914062e+00
2.571000000000000000e+03 7.120192718505859375e+01 1.386208295822143555e+00 -1.121814012527465820e+00 7.770445823669433594e+00 1.994589447975158691e+00 -9.930269122123718262e-01
2.572000000000000000e+03 8.765241622924804688e+00 -6.626543045043945312e+00 -1.179368734359741211e+00 5.556286811828613281e+00 1.313075542449951172e+00 4.522649765014648438e+00
2.573000000000000000e+03 7.561559200286865234e+00 -7.743165016174316406e+00 -1.851370453834533691e+00 6.189898967742919922e+00 1.301558494567871094e+00 2.190235137939453125e+00
2.574000000000000000e+03 9.207040786743164062e+00 9.589789390563964844e+00 6.715798377990722656e-01 2.890130519866943359e+00 1.068513154983520508e+00 -3.568753600120544434e-02
2.575000000000000000e+03 2.056136512756347656e+01 -6.021041870117187500e+00 9.735112786293029785e-01 8.424612879753112793e-01 5.447917580604553223e-01 -3.295377492904663086e-01
2.576000000000000000e+03 1.976010513305664062e+01 -1.041271924972534180e+00 5.061037540435791016e+00 5.651021599769592285e-01 1.687841892242431641e+00 2.100300312042236328e+00
2.577000000000000000e+03 4.509604644775390625e+01 -7.997785091400146484e+00 -1.475800752639770508e+00 2.030085474252700806e-01 -3.818376362323760986e-01 -6.066317558288574219e-01
2.578000000000000000e+03 6.014353942871093750e+01 5.529105186462402344e+00 4.069281518459320068e-01 2.247846603393554688e+00 7.964324355125427246e-01 -1.180702447891235352e+00
2.579000000000000000e+03 6.220077514648437500e+01 1.005567646026611328e+01 4.226204752922058105e-01 3.451255083084106445e+00 1.162162661552429199e+00 -1.294224739074707031e+00
2.580000000000000000e+03 4.694486999511718750e+01 1.249657392501831055e+00 5.183507204055786133e-01 2.306119352579116821e-01 2.246888130903244019e-01 -1.541701406240463257e-01
2.581000000000000000e+03 4.697354888916015625e+01 -4.966306209564208984e+00 -9.311015009880065918e-01 1.672814786434173584e-01 -2.291460037231445312e-01 -4.269410073757171631e-01
2.582000000000000000e+03 4.680697631835937500e+01 -6.028317928314208984e+00 -1.160630583763122559e+00 1.671358942985534668e-01 -2.980484068393707275e-01 -5.022323727607727051e-01
2.583000000000000000e+03 6.902861022949218750e+01 1.133308410644531250e+01 1.038475930690765381e-01 5.329910278320312500e+00 1.630127310752868652e+00 -1.219724774360656738e+00
2.584000000000000000e+03 6.929302978515625000e+01 1.020701503753662109e+01 1.091706752777099609e-02 5.532008647918701172e+00 1.662877798080444336e+00 -1.229475498199462891e+00
2.585000000000000000e+03 7.008483123779296875e+01 -2.502545833587646484e+00 -1.826011300086975098e+00 9.518469810485839844e+00 2.307737588882446289e+00 -1.315496206283569336e+00
2.586000000000000000e+03 3.009188461303710938e+01 3.302240371704101562e+00 2.418713092803955078e+00 1.569703578948974609e+00 1.196524977684020996e+00 6.722590923309326172e-01
2.587000000000000000e+03 3.531103515625000000e+01 9.646595954895019531e+00 1.313559174537658691e+00 1.470409035682678223e+00 8.351904749870300293e-01 1.229897975921630859e+00
2.588000000000000000e+03 4.165399932861328125e+01 -9.245570182800292969e+00 -1.586890339851379395e+00 3.266412913799285889e-01 -3.780747056007385254e-01 -6.024850606918334961e-01
2.589000000000000000e+03 4.308216094970703125e+01 -8.870734214782714844e+00 -1.563800334930419922e+00 2.622233331203460693e-01 -3.904730975627899170e-01 -6.094202995300292969e-01
2.590000000000000000e+03 2.367520141601562500e+01 -8.436879158020019531e+00 -1.454206109046936035e+00 7.165354490280151367e-01 -2.213012129068374634e-01 -4.022327363491058350e-01
2.591000000000000000e+03 2.361733055114746094e+01 -2.494836807250976562e+00 2.367892980575561523e+00 9.674201011657714844e-01 1.000593900680541992e+00 9.331982731819152832e-01
2.592000000000000000e+03 4.208432388305664062e+01 -1.045478057861328125e+01 -1.839996337890625000e+00 2.816897332668304443e-01 -4.674919843673706055e-01 -6.429127454757690430e-01
2.593000000000000000e+03 6.902431964874267578e+00 -8.112445831298828125e+00 -1.616379380226135254e+00 6.329233646392822266e+00 1.413856267929077148e+00 1.673795342445373535e+00
2.594000000000000000e+03 3.788943862915039062e+01 -9.089475631713867188e+00 -1.500224113464355469e+00 4.711057245731353760e-01 -3.087355196475982666e-01 -5.729060173034667969e-01
2.595000000000000000e+03 3.544860076904296875e+01 -8.308199882507324219e+00 -1.290174841880798340e+00 5.763162970542907715e-01 -2.141575813293457031e-01 -5.567998886108398438e-01
2.596000000000000000e+03 3.012370681762695312e+01 -7.978724956512451172e+00 -1.186731457710266113e+00 7.352736592292785645e-01 -1.354373544454574585e-01 -4.919881820678710938e-01
2.597000000000000000e+03 7.208061981201171875e+01 7.987681388854980469e+00 -1.987176835536956787e-01 6.539406299591064453e+00 1.902206659317016602e+00 -9.660786986351013184e-01
2.598000000000000000e+03 6.795930480957031250e+01 -2.015280246734619141e+00 -1.443253517150878906e+00 7.341378211975097656e+00 1.769437432289123535e+00 -2.826359748840332031e+00
2.599000000000000000e+03 5.372588348388671875e+01 -2.547331809997558594e+00 -6.151895523071289062e-01 1.584956049919128418e-02 -1.798020005226135254e-01 -4.369831681251525879e-01
2.600000000000000000e+03 5.330548477172851562e+01 -4.526443958282470703e+00 -1.196132302284240723e+00 -3.903877362608909607e-02 -3.705513477325439453e-01 -4.978049993515014648e-01
2.601000000000000000e+03 6.736160278320312500e+01 -7.015755772590637207e-01 -1.108358979225158691e+00 6.184643745422363281e+00 1.522885322570800781e+00 -2.836328983306884766e+00
2.602000000000000000e+03 6.653003692626953125e+01 -1.596918702125549316e-01 -9.136130809783935547e-01 5.451517105102539062e+00 1.361371278762817383e+00 -2.749946594238281250e+00
2.603000000000000000e+03 6.820991516113281250e+01 1.701061630249023438e+01 3.356584012508392334e-01 4.901546478271484375e+00 1.571161508560180664e+00 -9.330918192863464355e-01
2.604000000000000000e+03 2.203628540039062500e+01 -5.990352153778076172e+00 8.124839067459106445e-01 6.940515637397766113e-01 4.519606530666351318e-01 -2.518903315067291260e-01
2.605000000000000000e+03 4.171138000488281250e+01 1.952744245529174805e+00 8.002346158027648926e-01 3.115412294864654541e-01 3.335327506065368652e-01 -7.197303324937820435e-02
2.606000000000000000e+03 2.663401412963867188e+01 -7.059798240661621094e+00 -6.294993758201599121e-01 7.722837924957275391e-01 4.283531755208969116e-02 -4.007981121540069580e-01
2.607000000000000000e+03 4.989598464965820312e+01 -4.650187492370605469e+00 -1.018025398254394531e+00 6.741768121719360352e-02 -2.851823270320892334e-01 -4.315545260906219482e-01
2.608000000000000000e+03 2.109824562072753906e+01 -2.155913352966308594e+00 3.754788398742675781e+00 6.455903649330139160e-01 1.320113658905029297e+00 1.276175618171691895e+00
2.609000000000000000e+03 2.123381233215332031e+01 -6.706354618072509766e+00 1.350551694631576538e-01 7.675147652626037598e-01 2.707709670066833496e-01 -3.430493175983428955e-01
2.610000000000000000e+03 6.959232330322265625e+01 1.388529205322265625e+01 2.127438187599182129e-01 5.297707080841064453e+00 1.653135299682617188e+00 -1.038853883743286133e+00
2.611000000000000000e+03 7.081182098388671875e+01 1.243894290924072266e+01 9.966569393873214722e-02 5.732529163360595703e+00 1.749658465385437012e+00 -1.022299408912658691e+00
2.612000000000000000e+03 1.017142391204833984e+01 2.168726158142089844e+01 -4.577498435974121094e-01 2.290006399154663086e+00 5.496770143508911133e-01 -1.875378340482711792e-01
2.613000000000000000e+03 7.679480552673339844e+00 2.160715866088867188e+01 -2.858362495899200439e-01 1.729798913002014160e+00 4.331887960433959961e-01 -4.469749927520751953e-01
2.614000000000000000e+03 8.509808540344238281e+00 1.050343894958496094e+01 7.081299424171447754e-01 2.361189842224121094e+00 9.207959771156311035e-01 -1.311537921428680420e-01
2.615000000000000000e+03 6.631636047363281250e+01 1.250335311889648438e+01 3.070363104343414307e-01 4.609599590301513672e+00 1.474990725517272949e+00 -1.269582867622375488e+00
2.616000000000000000e+03 4.500059127807617188e+01 1.819537520408630371e+00 7.068163752555847168e-01 2.449025809764862061e-01 2.855156958103179932e-01 -1.044184044003486633e-01
2.617000000000000000e+03 6.456910705566406250e+01 1.179820775985717773e+00 -2.102420479059219360e-01 3.644952297210693359e+00 1.030413031578063965e+00 -2.422576904296875000e+00
2.618000000000000000e+03 5.622962951660156250e+01 -4.052366018295288086e-01 -2.414610236883163452e-02 2.301644533872604370e-01 6.180550903081893921e-02 -5.790581107139587402e-01
2.619000000000000000e+03 5.750759506225585938e+01 -1.393136620521545410e+00 -2.595748901367187500e-01 1.787432134151458740e-01 -2.424950525164604187e-02 -7.308709025382995605e-01
2.620000000000000000e+03 8.863431930541992188e+00 2.161535835266113281e+01 -3.840729296207427979e-01 2.032763004302978516e+00 4.946070015430450439e-01 -3.468236029148101807e-01
2.621000000000000000e+03 7.045744323730468750e+01 7.914842128753662109e+00 -1.927339285612106323e-01 6.042869091033935547e+00 1.755040526390075684e+00 -1.184713959693908691e+00
2.622000000000000000e+03 6.971814727783203125e+01 9.028214454650878906e+00 -6.305658817291259766e-02 5.721839904785156250e+00 1.697634935379028320e+00 -1.244799971580505371e+00
2.623000000000000000e+03 3.423431777954101562e+01 -7.423340320587158203e+00 -1.029776573181152344e+00 6.252667307853698730e-01 -1.213529631495475769e-01 -5.433470606803894043e-01
2.624000000000000000e+03 3.337630462646484375e+01 -8.268897056579589844e+00 -1.263733386993408203e+00 6.543112397193908691e-01 -1.828266382217407227e-01 -5.409163236618041992e-01
2.625000000000000000e+03 2.871848487854003906e+01 -8.927409172058105469e+00 -1.595870852470397949e+00 7.564578652381896973e-01 -2.518238723278045654e-01 -4.587919116020202637e-01
2.626000000000000000e+03 3.127649688720703125e+01 -8.236618995666503906e+00 -1.273467421531677246e+00 7.137851715087890625e-01 -1.679046899080276489e-01 -5.065512657165527344e-01
2.627000000000000000e+03 1.137870025634765625e+01 3.202598571777343750e+01 -1.295155435800552368e-01 1.422632336616516113e+00 3.879350423812866211e-01 9.249117225408554077e-02
2.628000000000000000e+03 1.096980571746826172e+01 2.841541290283203125e+01 -2.563776075839996338e-01 1.598246693611145020e+00 4.025607407093048096e-01 8.679847419261932373e-02
2.629000000000000000e+03 6.655084228515625000e+01 2.409838294982910156e+01 3.648460507392883301e-01 4.478694438934326172e+00 1.453062176704406738e+00 -6.406684517860412598e-01
2.630000000000000000e+03 6.799935150146484375e+01 2.441453933715820312e+01 3.039043843746185303e-01 4.733301162719726562e+00 1.511161684989929199e+00 -6.053044795989990234e-01
2.631000000000000000e+03 5.167593002319335938e+01 -5.063684463500976562e+00 -1.249912500381469727e+00 -5.424756091088056564e-03 -3.766011595726013184e-01 -4.953776895999908447e-01
2.632000000000000000e+03 5.198372268676757812e+01 -3.925267934799194336e+00 -9.458718299865722656e-01 1.474297232925891876e-02 -2.793386578559875488e-01 -4.266242384910583496e-01
2.633000000000000000e+03 6.496517181396484375e+01 -5.895230770111083984e-01 -4.493579864501953125e-01 3.801567554473876953e+00 1.005662798881530762e+00 -2.891303539276123047e+00
2.634000000000000000e+03 5.453658294677734375e+01 -1.176995635032653809e+00 -2.143805623054504395e-01 7.105313986539840698e-02 -4.299822822213172913e-02 -4.647832810878753662e-01
2.635000000000000000e+03 1.228747940063476562e+01 2.650578880310058594e+01 -3.424934446811676025e-01 1.800678253173828125e+00 4.374554455280303955e-01 2.133888751268386841e-01
2.636000000000000000e+03 3.870737457275390625e+01 3.629232168197631836e+00 1.146041631698608398e+00 5.656278729438781738e-01 5.135008692741394043e-01 1.411677300930023193e-01
2.637000000000000000e+03 3.909681320190429688e+01 2.558770656585693359e+00 1.018502354621887207e+00 4.793065786361694336e-01 4.493426978588104248e-01 2.909266017377376556e-02
2.638000000000000000e+03 2.702316093444824219e+01 -4.868822097778320312e-01 1.965367197990417480e+00 1.538084149360656738e+00 1.051035404205322266e+00 7.047937512397766113e-01
2.639000000000000000e+03 2.792185020446777344e+01 -7.312376052141189575e-03 1.891332745552062988e+00 1.573080420494079590e+00 1.039323925971984863e+00 5.461774468421936035e-01
2.640000000000000000e+03 7.037728118896484375e+01 2.141031074523925781e+01 2.395272701978683472e-01 5.177441120147705078e+00 1.625090599060058594e+00 -6.609536409378051758e-01
2.641000000000000000e+03 7.103029632568359375e+01 1.910136795043945312e+01 2.146422415971755981e-01 5.360626697540283203e+00 1.672580599784851074e+00 -7.389469742774963379e-01
2.642000000000000000e+03 5.935583877563476562e+01 2.167757034301757812e+00 3.718770742416381836e-01 1.253782153129577637e+00 4.876977801322937012e-01 -1.159723997116088867e+00
2.643000000000000000e+03 3.453500366210937500e+01 1.394298171997070312e+01 6.994314193725585938e-01 1.964932918548583984e+00 7.993093132972717285e-01 1.381787657737731934e+00
2.644000000000000000e+03 3.431093597412109375e+01 8.754509925842285156e+00 1.554413914680480957e+00 1.420323491096496582e+00 8.924212455749511719e-01 1.295420169830322266e+00
2.645000000000000000e+03 3.637541198730468750e+01 4.445271492004394531e+00 1.465776085853576660e+00 8.116993904113769531e-01 6.832426190376281738e-01 4.461816251277923584e-01
2.646000000000000000e+03 3.281187057495117188e+01 6.156562328338623047e+00 2.060998439788818359e+00 1.289013028144836426e+00 1.005003452301025391e+00 1.039759993553161621e+00
2.647000000000000000e+03 3.222869110107421875e+01 1.323319244384765625e+01 6.074566841125488281e-01 2.155630350112915039e+00 8.289261460304260254e-01 1.554330110549926758e+00
2.648000000000000000e+03 6.303075408935546875e+01 1.126092338562011719e+01 4.341488778591156006e-01 3.733743906021118164e+00 1.250367879867553711e+00 -1.296877622604370117e+00
2.649000000000000000e+03 4.953360366821289062e+01 -5.718612194061279297e+00 -1.258488535881042480e+00 7.304150611162185669e-02 -3.556340932846069336e-01 -5.088555812835693359e-01
2.650000000000000000e+03 1.337613487243652344e+01 2.464183998107910156e+01 -4.285693764686584473e-01 2.021800279617309570e+00 4.779692888259887695e-01 3.805030286312103271e-01
2.651000000000000000e+03 1.276635074615478516e+01 2.825659561157226562e+01 -2.479238808155059814e-01 1.641674041748046875e+00 4.181250631809234619e-01 2.197476476430892944e-01
2.652000000000000000e+03 2.277882003784179688e+01 2.234666252136230469e+01 1.371798664331436157e-01 8.004696965217590332e-01 2.812948822975158691e-01 4.686463475227355957e-01
2.653000000000000000e+03 2.385447883605957031e+01 2.365610504150390625e+01 1.536806821823120117e-01 1.018801808357238770e+00 3.517447412014007568e-01 3.740686178207397461e-01
2.654000000000000000e+03 6.969837951660156250e+01 -2.593811988830566406e+01 -1.028495907783508301e+00 7.875191688537597656e+00 2.054008722305297852e+00 -4.226104170083999634e-02
2.655000000000000000e+03 6.652207851409912109e+00 -1.003048229217529297e+01 -1.384686350822448730e+00 7.833284378051757812e+00 1.934579491615295410e+00 -3.875874280929565430e-01
2.656000000000000000e+03 3.693176269531250000e+01 5.637269973754882812e+00 1.401314377784729004e+00 8.872463107109069824e-01 6.865682005882263184e-01 5.253384709358215332e-01
2.657000000000000000e+03 6.778774261474609375e+01 -2.827659797668457031e+01 -8.228785991668701172e-01 6.345230102539062500e+00 1.656705498695373535e+00 3.198503553867340088e-01
2.658000000000000000e+03 6.297594833374023438e+01 1.705765342712402344e+01 6.591721773147583008e-01 3.862128734588623047e+00 1.356390237808227539e+00 -9.480590820312500000e-01
2.659000000000000000e+03 6.322764968872070312e+01 1.910594749450683594e+01 5.750027894973754883e-01 3.953968048095703125e+00 1.358691215515136719e+00 -8.459926843643188477e-01
2.660000000000000000e+03 3.521899032592773438e+01 1.519799804687500000e+01 5.883737206459045410e-01 1.960326910018920898e+00 7.646101713180541992e-01 1.226285815238952637e+00
2.661000000000000000e+03 1.085068035125732422e+01 -3.136519813537597656e+01 -5.396826863288879395e-01 3.294104099273681641e+00 8.263264298439025879e-01 4.328244924545288086e-02
2.662000000000000000e+03 3.201882553100585938e+01 1.788690567016601562e+01 5.323633551597595215e-02 2.046751260757446289e+00 6.299962401390075684e-01 8.348941802978515625e-01
2.663000000000000000e+03 3.257498168945312500e+01 2.035655975341796875e+01 9.413072466850280762e-02 1.940771102905273438e+00 6.104705333709716797e-01 6.079239845275878906e-01
2.664000000000000000e+03 4.846668243408203125e+01 -8.641152381896972656e-01 -5.935503169894218445e-03 1.653140187263488770e-01 4.781355336308479309e-02 -2.593629360198974609e-01
2.665000000000000000e+03 4.653047561645507812e+01 -7.670162916183471680e-01 1.012341678142547607e-01 2.029702514410018921e-01 9.126131981611251831e-02 -2.227559983730316162e-01
2.666000000000000000e+03 6.627030944824218750e+01 1.618222236633300781e+01 4.296142458915710449e-01 4.506896495819091797e+00 1.480953216552734375e+00 -1.025293588638305664e+00
2.667000000000000000e+03 6.751199340820312500e+01 -3.380377960205078125e+01 -2.053136527538299561e-01 5.754711151123046875e+00 1.664819240570068359e+00 3.167877197265625000e-01
2.668000000000000000e+03 5.506865692138671875e+01 3.738659918308258057e-01 1.736866086721420288e-01 2.010568529367446899e-01 1.124230399727821350e-01 -4.631736278533935547e-01
2.669000000000000000e+03 5.379396820068359375e+01 -6.386211514472961426e-01 -7.059569656848907471e-02 1.352445185184478760e-01 1.939464546740055084e-02 -4.019644856452941895e-01
2.670000000000000000e+03 3.800178527832031250e+01 2.151722908020019531e+00 1.057972550392150879e+00 5.377812981605529785e-01 4.787261486053466797e-01 3.785608336329460144e-02
2.671000000000000000e+03 3.806660842895507812e+01 4.752960681915283203e+00 1.271394014358520508e+00 7.139583230018615723e-01 5.956057310104370117e-01 3.283542692661285400e-01
2.672000000000000000e+03 3.319720840454101562e+01 8.045065879821777344e+00 1.776915907859802246e+00 1.466192364692687988e+00 9.729324579238891602e-01 1.306554794311523438e+00
2.673000000000000000e+03 5.230961990356445312e+01 -2.605482101440429688e+00 -5.745332241058349609e-01 3.586231172084808350e-02 -1.616012752056121826e-01 -3.827922344207763672e-01
2.674000000000000000e+03 6.897422027587890625e+01 2.283450317382812500e+01 2.749756276607513428e-01 4.899508476257324219e+00 1.552345156669616699e+00 -6.525571942329406738e-01
2.675000000000000000e+03 6.625165557861328125e+01 -2.884390449523925781e+01 -7.112973332405090332e-01 5.311303138732910156e+00 1.380001783370971680e+00 4.499753713607788086e-01
2.676000000000000000e+03 5.543225097656250000e+01 2.849713134765625000e+01 7.453701496124267578e-01 2.808262586593627930e+00 1.066089749336242676e+00 -3.974713385105133057e-01
2.677000000000000000e+03 7.009189605712890625e+01 1.455285668373107910e+00 -1.146601319313049316e+00 7.416105747222900391e+00 1.880851268768310547e+00 -1.454441785812377930e+00
2.678000000000000000e+03 3.391324615478515625e+01 6.810874938964843750e+00 1.837656021118164062e+00 1.255608797073364258e+00 9.279794692993164062e-01 1.092147111892700195e+00
2.679000000000000000e+03 7.125048828125000000e+01 -1.163679838180541992e+00 -1.542385935783386230e+00 8.931361198425292969e+00 2.216692447662353516e+00 -7.481376528739929199e-01
2.680000000000000000e+03 3.405463409423828125e+01 2.295880508422851562e+01 2.502807676792144775e-01 1.882764935493469238e+00 6.399136781692504883e-01 4.725641906261444092e-01
2.681000000000000000e+03 1.485683059692382812e+01 -3.282511520385742188e+01 -3.652667403221130371e-01 2.103681564331054688e+00 5.215244293212890625e-01 -2.104457914829254150e-01
2.682000000000000000e+03 5.283671569824218750e+01 -7.455327361822128296e-02 1.103521957993507385e-01 1.266833394765853882e-01 7.111065834760665894e-02 -3.439944982528686523e-01
2.683000000000000000e+03 3.338222122192382812e+01 9.957959175109863281e+00 1.395956039428710938e+00 1.706669211387634277e+00 9.307875633239746094e-01 1.494989037513732910e+00
2.684000000000000000e+03 6.313956069946289062e+01 8.909525871276855469e+00 3.271856606006622314e-01 3.638306617736816406e+00 1.189647674560546875e+00 -1.391768693923950195e+00
2.685000000000000000e+03 4.601526260375976562e+01 2.902876663208007812e+01 8.096094131469726562e-01 1.972818851470947266e+00 8.347284793853759766e-01 2.090768516063690186e-01
2.686000000000000000e+03 1.989171218872070312e+01 -3.465367507934570312e+01 -1.374451965093612671e-01 8.213259577751159668e-01 2.051642388105392456e-01 -1.125566959381103516e-01
2.687000000000000000e+03 7.116870117187500000e+01 -3.640552520751953125e+01 -1.157923489809036255e-01 7.370012283325195312e+00 2.176265954971313477e+00 1.015420705080032349e-01
2.688000000000000000e+03 6.864182281494140625e+01 -3.562083053588867188e+01 -1.007178872823715210e-01 6.133254051208496094e+00 1.809760808944702148e+00 3.071078360080718994e-01
2.689000000000000000e+03 6.944826507568359375e+01 1.534313201904296875e+01 2.430821210145950317e-01 5.224270343780517578e+00 1.640205740928649902e+00 -9.995577335357666016e-01
2.690000000000000000e+03 2.998743247985839844e+01 1.965239143371582031e+01 -1.596608012914657593e-01 1.851993680000305176e+00 5.076998472213745117e-01 4.620683789253234863e-01
2.691000000000000000e+03 1.018635845184326172e+01 3.483567047119140625e+01 -5.634794011712074280e-02 1.300681948661804199e+00 3.733001947402954102e-01 5.052240192890167236e-02
2.692000000000000000e+03 3.412326049804687500e+01 1.596786308288574219e+01 4.074085056781768799e-01 2.047056198120117188e+00 7.363394498825073242e-01 1.166340470314025879e+00
2.693000000000000000e+03 1.473462867736816406e+01 2.440839958190917969e+01 -4.021802842617034912e-01 1.972459077835083008e+00 4.710836410522460938e-01 5.526817440986633301e-01
2.694000000000000000e+03 1.438254737854003906e+01 2.159994125366210938e+01 -5.617430806159973145e-01 2.445351600646972656e+00 5.650825500488281250e-01 6.339442729949951172e-01
2.695000000000000000e+03 3.519937896728515625e+01 1.730403327941894531e+01 4.529818892478942871e-01 1.988042593002319336e+00 7.323073744773864746e-01 9.865676164627075195e-01
2.696000000000000000e+03 1.028579521179199219e+01 -5.342634201049804688e+00 4.703439474105834961e-01 4.723933219909667969e+00 1.558283209800720215e+00 5.652537822723388672e+00
2.697000000000000000e+03 1.126336097717285156e+01 4.742800235748291016e+00 -8.829863071441650391e-01 4.720805644989013672e+00 1.151345849037170410e+00 -1.296007156372070312e+00
2.698000000000000000e+03 1.185905838012695312e+01 5.696162223815917969e+00 -1.112722039222717285e+00 5.372937202453613281e+00 1.278064489364624023e+00 -7.480092644691467285e-01
2.699000000000000000e+03 1.329443550109863281e+01 -6.535340309143066406e+00 -5.012890696525573730e-01 4.384949207305908203e+00 1.165098071098327637e+00 4.325704097747802734e+00
2.700000000000000000e+03 1.162553691864013672e+01 -4.840881347656250000e+00 1.187579512596130371e+00 5.622625350952148438e+00 2.043061494827270508e+00 5.879767417907714844e+00
2.701000000000000000e+03 1.200303459167480469e+01 4.578438282012939453e+00 -1.365307688713073730e+00 5.649208545684814453e+00 1.285170197486877441e+00 -1.359796881675720215e+00
2.702000000000000000e+03 1.277502536773681641e+01 4.492468357086181641e+00 -1.880350470542907715e+00 6.380554676055908203e+00 1.350061297416687012e+00 -1.233346343040466309e+00
2.703000000000000000e+03 1.161169147491455078e+01 -6.092803955078125000e+00 -3.934729099273681641e-01 5.438066959381103516e+00 1.513378262519836426e+00 5.745145320892333984e+00
2.704000000000000000e+03 9.335745811462402344e+00 -5.248527050018310547e+00 4.248299598693847656e-01 4.127422809600830078e+00 1.365675806999206543e+00 4.698197364807128906e+00
2.705000000000000000e+03 1.205088424682617188e+01 3.364066362380981445e+00 -8.965032696723937988e-01 5.996228694915771484e+00 1.529917597770690918e+00 -2.275948524475097656e+00
2.706000000000000000e+03 1.010783290863037109e+01 -6.867763519287109375e+00 -1.137421131134033203e+00 5.322980880737304688e+00 1.255667924880981445e+00 5.560427665710449219e+00
2.707000000000000000e+03 8.927238464355468750e+00 -7.264415264129638672e+00 -1.718413352966308594e+00 5.882321357727050781e+00 1.249172329902648926e+00 4.445704460144042969e+00
2.708000000000000000e+03 1.150514602661132812e+01 4.244047164916992188e+00 -8.614255785942077637e-01 5.057234287261962891e+00 1.258742570877075195e+00 -1.716370582580566406e+00
2.709000000000000000e+03 1.057011508941650391e+01 5.108796596527099609e+00 -5.255562663078308105e-01 3.939617156982421875e+00 1.024218320846557617e+00 -9.920067787170410156e-01
2.710000000000000000e+03 1.002868556976318359e+01 4.938151836395263672e+00 -2.409424334764480591e-01 3.320656061172485352e+00 9.239140748977661133e-01 -9.641184210777282715e-01
2.711000000000000000e+03 8.134469985961914062e+00 -5.271481037139892578e+00 1.918877065181732178e-01 3.357067823410034180e+00 1.064686655998229980e+00 3.369483947753906250e+00
2.712000000000000000e+03 1.174271106719970703e+01 5.014118671417236328e+00 -1.113954424858093262e+00 5.324850559234619141e+00 1.263268828392028809e+00 -1.189369082450866699e+00
2.713000000000000000e+03 9.936832427978515625e+00 6.864758014678955078e+00 -1.505696680396795273e-02 3.482660770416259766e+00 1.040281176567077637e+00 -2.273087352514266968e-01
2.714000000000000000e+03 7.139939785003662109e+00 -7.096992492675781250e+00 -1.345885872840881348e+00 5.334036350250244141e+00 1.196445107460021973e+00 2.288290262222290039e+00
2.715000000000000000e+03 1.488983058929443359e+01 -5.225579261779785156e+00 1.186567425727844238e+00 5.398229598999023438e+00 1.975439071655273438e+00 1.720655679702758789e+00
2.716000000000000000e+03 1.331628704071044922e+01 -5.094338417053222656e+00 7.090846300125122070e-01 6.438143253326416016e+00 2.144168376922607422e+00 4.182713031768798828e+00
2.717000000000000000e+03 1.177624034881591797e+01 3.781749010086059570e+00 -9.281808137893676758e-01 5.413798809051513672e+00 1.345685362815856934e+00 -1.927742004394531250e+00
2.718000000000000000e+03 1.382235622406005859e+01 -6.895785808563232422e+00 -7.073637247085571289e-01 3.895448207855224609e+00 9.564253091812133789e-01 3.769151926040649414e+00
2.719000000000000000e+03 1.472572517395019531e+01 -6.434620857238769531e+00 -2.219487279653549194e-01 4.025988101959228516e+00 1.141211867332458496e+00 2.354144334793090820e+00
2.720000000000000000e+03 1.196849346160888672e+01 -6.487353324890136719e+00 -6.989467740058898926e-01 5.212638378143310547e+00 1.354107499122619629e+00 5.703752994537353516e+00
2.721000000000000000e+03 8.716814041137695312e+00 8.237230300903320312e+00 4.669661819934844971e-01 2.552554368972778320e+00 9.058561921119689941e-01 -3.443118184804916382e-02
2.722000000000000000e+03 8.984553337097167969e+00 8.916766166687011719e+00 5.903206467628479004e-01 2.683207035064697266e+00 9.820583462715148926e-01 1.476518716663122177e-02
2.723000000000000000e+03 1.073950767517089844e+01 -5.294193267822265625e+00 6.580824851989746094e-01 4.818965911865234375e+00 1.643114447593688965e+00 5.786271572113037109e+00
2.724000000000000000e+03 9.796841621398925781e+00 -5.235126495361328125e+00 5.397142171859741211e-01 4.243133544921875000e+00 1.434854269027709961e+00 5.001111507415771484e+00
2.725000000000000000e+03 9.328554153442382812e+00 -6.455896377563476562e+00 -8.702450394630432129e-01 5.075602054595947266e+00 1.261607050895690918e+00 4.798779010772705078e+00
2.726000000000000000e+03 8.895397186279296875e+00 -5.427116394042968750e+00 1.830032914876937866e-01 3.893630266189575195e+00 1.222990036010742188e+00 4.162105560302734375e+00
2.727000000000000000e+03 1.653739356994628906e+01 -5.044452667236328125e+00 2.034776210784912109e+00 3.335345983505249023e+00 1.611036658287048340e+00 3.308981657028198242e-01
2.728000000000000000e+03 1.636803054809570312e+01 -5.744417190551757812e+00 1.136917352676391602e+00 3.027668714523315430e+00 1.249375820159912109e+00 5.685607194900512695e-01
2.729000000000000000e+03 1.308668518066406250e+01 -5.701246738433837891e+00 2.424196451902389526e-01 5.561621665954589844e+00 1.741212368011474609e+00 4.486069679260253906e+00
2.730000000000000000e+03 1.293198013305664062e+01 -7.029875278472900391e+00 -9.430575966835021973e-01 4.204635620117187500e+00 9.784734249114990234e-01 5.033646583557128906e+00
2.731000000000000000e+03 1.447974872589111328e+01 -5.793567657470703125e+00 4.275528788566589355e-01 4.854092121124267578e+00 1.584493517875671387e+00 2.618876457214355469e+00
2.732000000000000000e+03 1.152055263519287109e+01 -6.949051856994628906e+00 -1.228018164634704590e+00 5.166690826416015625e+00 1.181601881980895996e+00 5.732976913452148438e+00
2.733000000000000000e+03 8.454312324523925781e+00 7.535878658294677734e+00 3.840192258358001709e-01 2.333392143249511719e+00 8.152233958244323730e-01 -5.887329950928688049e-02
2.734000000000000000e+03 2.908221435546875000e+01 -4.083914756774902344e+00 4.335407018661499023e-01 9.204872846603393555e-01 4.062083959579467773e-01 -1.917117089033126831e-01
2.735000000000000000e+03 6.314598560333251953e+00 -9.066496849060058594e+00 -1.055297374725341797e+00 5.812989234924316406e+00 1.427307605743408203e+00 5.281400680541992188e-01
2.736000000000000000e+03 1.913771438598632812e+01 -2.575295209884643555e+00 4.904183387756347656e+00 9.191326498985290527e-01 1.746994853019714355e+00 9.355641007423400879e-01
2.737000000000000000e+03 1.781488227844238281e+01 -7.043444633483886719e+00 -2.756243646144866943e-01 1.519667267799377441e+00 3.732128739356994629e-01 5.921579524874687195e-02
2.738000000000000000e+03 4.114960479736328125e+01 -8.052251815795898438e+00 -1.331237196922302246e+00 3.468956053256988525e-01 -2.953024804592132568e-01 -5.761278867721557617e-01
2.739000000000000000e+03 3.153096771240234375e+01 -7.127449989318847656e+00 -8.658145070075988770e-01 7.225327491760253906e-01 -4.298452287912368774e-02 -4.994371533393859863e-01
2.740000000000000000e+03 1.006210708618164062e+01 2.027730560302734375e+01 -4.075210094451904297e-01 2.455095529556274414e+00 6.142723560333251953e-01 -3.088151812553405762e-01
2.741000000000000000e+03 6.468957519531250000e+01 1.324936866760253906e+01 4.617875814437866211e-01 4.167199611663818359e+00 1.388696193695068359e+00 -1.220063328742980957e+00
2.742000000000000000e+03 6.829676055908203125e+01 8.324577331542968750e+00 -5.743233114480972290e-02 5.333034038543701172e+00 1.582680463790893555e+00 -1.385910749435424805e+00
2.743000000000000000e+03 2.591651535034179688e+01 -2.270118713378906250e+00 1.651354789733886719e+00 1.173802495002746582e+00 8.475471735000610352e-01 4.776383936405181885e-01
2.744000000000000000e+03 3.033465957641601562e+01 -6.761434555053710938e+00 -6.773452758789062500e-01 7.541407346725463867e-01 2.303864993155002594e-02 -4.666821062564849854e-01
2.745000000000000000e+03 1.935220718383789062e+01 -1.708523035049438477e+00 5.274485588073730469e+00 7.649397850036621094e-01 1.811827540397644043e+00 1.575491309165954590e+00
2.746000000000000000e+03 6.542678833007812500e+01 3.700651168823242188e+00 -2.083752751350402832e-01 4.341548919677734375e+00 1.239952087402343750e+00 -2.060964107513427734e+00
2.747000000000000000e+03 6.121735000610351562e+01 4.948120117187500000e+00 3.452883958816528320e-01 2.488443613052368164e+00 8.501195907592773438e-01 -1.397951006889343262e+00
2.748000000000000000e+03 6.815382385253906250e+01 -9.692123532295227051e-01 -1.515373945236206055e+00 7.323745727539062500e+00 1.742511510848999023e+00 -2.533723354339599609e+00
2.749000000000000000e+03 2.145812416076660156e+01 -5.336579322814941406e+00 1.342711210250854492e+00 6.819660663604736328e-01 6.074031591415405273e-01 -1.324646174907684326e-01
2.750000000000000000e+03 2.114465904235839844e+01 -1.368543505668640137e+00 3.980520725250244141e+00 6.993807554244995117e-01 1.403970479965209961e+00 1.797491788864135742e+00
2.751000000000000000e+03 3.941860961914062500e+01 1.552171111106872559e+00 8.771642446517944336e-01 4.350700974464416504e-01 3.936702907085418701e-01 -4.972295090556144714e-02
2.752000000000000000e+03 4.036988449096679688e+01 -9.654423713684082031e+00 -1.643680453300476074e+00 3.611627221107482910e-01 -3.847553431987762451e-01 -6.005052328109741211e-01
2.753000000000000000e+03 3.884408569335937500e+01 -8.987230300903320312e+00 -1.473952889442443848e+00 4.353313446044921875e-01 -3.115864396095275879e-01 -5.771814584732055664e-01
2.754000000000000000e+03 4.020005798339843750e+01 2.928041934967041016e+00 9.784172773361206055e-01 4.233216643333435059e-01 4.205216765403747559e-01 2.020833827555179596e-02
2.755000000000000000e+03 5.804539871215820312e+01 2.268671989440917969e+00 4.120168387889862061e-01 8.819104433059692383e-01 3.881781697273254395e-01 -8.520583510398864746e-01
2.756000000000000000e+03 6.077025604248046875e+01 4.859474301338195801e-01 1.878386735916137695e-01 1.242637753486633301e+00 4.291429221630096436e-01 -1.516554236412048340e+00
2.757000000000000000e+03 4.853161239624023438e+01 -2.440289497375488281e+00 -3.724820017814636230e-01 1.478686183691024780e-01 -6.738401204347610474e-02 -3.028171062469482422e-01
2.758000000000000000e+03 2.834767723083496094e+01 1.406808972358703613e+00 2.182819128036499023e+00 1.809058547019958496e+00 1.197563290596008301e+00 6.556975841522216797e-01
2.759000000000000000e+03 3.127487945556640625e+01 3.760701656341552734e+00 2.264765739440917969e+00 1.371106863021850586e+00 1.090761780738830566e+00 6.969590187072753906e-01
2.760000000000000000e+03 2.346544837951660156e+01 -7.014611721038818359e+00 -3.367937207221984863e-01 6.958656907081604004e-01 1.077215969562530518e-01 -3.726090788841247559e-01
2.761000000000000000e+03 2.099375343322753906e+01 -2.899690628051757812e+00 3.437139511108398438e+00 6.055082082748413086e-01 1.212794303894042969e+00 8.930263519287109375e-01
2.762000000000000000e+03 2.502767372131347656e+01 -2.099667549133300781e+00 1.998728394508361816e+00 1.154857158660888672e+00 9.460756778717041016e-01 7.836091518402099609e-01
2.763000000000000000e+03 2.561371040344238281e+01 -5.596706867218017578e+00 3.001898229122161865e-01 8.108223676681518555e-01 3.333036601543426514e-01 -1.669334620237350464e-01
2.764000000000000000e+03 1.864200019836425781e+01 -4.720880031585693359e+00 2.719400882720947266e+00 1.565078973770141602e+00 1.285344004631042480e+00 -4.783050715923309326e-02
2.765000000000000000e+03 6.521411132812500000e+01 1.899130058288574219e+01 4.933778643608093262e-01 4.278588771820068359e+00 1.431589961051940918e+00 -8.765797615051269531e-01
2.766000000000000000e+03 6.776470184326171875e+01 1.553810405731201172e+01 3.498063385486602783e-01 4.821137428283691406e+00 1.551283121109008789e+00 -1.032295465469360352e+00
2.767000000000000000e+03 2.590454673767089844e+01 -3.301551818847656250e+00 1.313640117645263672e+00 9.922516345977783203e-01 6.917675137519836426e-01 2.644616365432739258e-01
2.768000000000000000e+03 3.624964523315429688e+01 1.629801750183105469e+01 6.146753430366516113e-01 1.946882843971252441e+00 7.684674859046936035e-01 1.083753347396850586e+00
2.769000000000000000e+03 5.109235763549804688e+01 -1.088669657707214355e+00 -1.085220575332641602e-01 9.208405762910842896e-02 -4.931400064378976822e-03 -3.033564984798431396e-01
2.770000000000000000e+03 3.677585601806640625e+01 -8.838127136230468750e+00 -1.443947076797485352e+00 5.080683827400207520e-01 -2.807635962963104248e-01 -5.719081163406372070e-01
2.771000000000000000e+03 3.610152435302734375e+01 -6.973885059356689453e+00 -9.062970876693725586e-01 5.605983734130859375e-01 -1.037096306681632996e-01 -5.367134213447570801e-01
2.772000000000000000e+03 4.790573501586914062e+01 -3.298542261123657227e+00 -5.443468093872070312e-01 1.519063860177993774e-01 -1.177321374416351318e-01 -3.471091687679290771e-01
2.773000000000000000e+03 4.797426605224609375e+01 -4.826637744903564453e+00 -9.361616373062133789e-01 1.411000341176986694e-01 -2.385184764862060547e-01 -4.243448078632354736e-01
2.774000000000000000e+03 2.779142379760742188e+01 -7.423060894012451172e+00 -8.597009778022766113e-01 7.983515858650207520e-01 -1.840482093393802643e-02 -4.330349266529083252e-01
2.775000000000000000e+03 6.457309722900390625e+01 1.999092674255371094e+01 5.124345421791076660e-01 4.177320003509521484e+00 1.406926393508911133e+00 -8.143177032470703125e-01
2.776000000000000000e+03 2.817368125915527344e+01 -4.523763656616210938e+00 3.806915879249572754e-01 9.146113991737365723e-01 3.885909020900726318e-01 -1.975059956312179565e-01
2.777000000000000000e+03 5.504145431518554688e+01 -2.044887065887451172e+00 -4.660536348819732666e-01 4.024854302406311035e-02 -1.277415305376052856e-01 -4.723359346389770508e-01
2.778000000000000000e+03 2.273063659667968750e+01 -6.486051559448242188e+00 1.079937145113945007e-01 7.363074421882629395e-01 2.532903552055358887e-01 -3.063566088676452637e-01
2.779000000000000000e+03 2.238532066345214844e+01 -4.614253520965576172e+00 1.696184039115905762e+00 6.608044505119323730e-01 7.070965170860290527e-01 1.335531026124954224e-01
2.780000000000000000e+03 5.935468673706054688e+01 3.282453298568725586e+00 3.932765126228332520e-01 1.530611872673034668e+00 5.771664977073669434e-01 -1.071712970733642578e+00
2.781000000000000000e+03 6.084828948974609375e+01 3.925850152969360352e+00 3.675614893436431885e-01 2.110054969787597656e+00 7.432849407196044922e-01 -1.460159182548522949e+00
2.782000000000000000e+03 1.294762802124023438e+01 2.164997291564941406e+01 -5.712170004844665527e-01 2.558851003646850586e+00 5.962902307510375977e-01 3.357991278171539307e-01
2.783000000000000000e+03 1.456848335266113281e+01 2.303879737854003906e+01 -4.712159633636474609e-01 2.180841207504272461e+00 5.128875374794006348e-01 6.040003299713134766e-01
2.784000000000000000e+03 2.851371192932128906e+01 -9.528701305389404297e-01 1.583565115928649902e+00 1.300464510917663574e+00 8.652088642120361328e-01 3.225127160549163818e-01
2.785000000000000000e+03 2.955002784729003906e+01 2.461830139160156250e+01 1.748088598251342773e-01 1.559578061103820801e+00 5.203160643577575684e-01 2.797333598136901855e-01
2.786000000000000000e+03 4.562627029418945312e+01 4.270999133586883545e-01 3.706061542034149170e-01 2.097817212343215942e-01 1.741163730621337891e-01 -1.628419458866119385e-01
2.787000000000000000e+03 4.129059219360351562e+01 -1.248346805572509766e+00 2.574748992919921875e-01 3.164567649364471436e-01 1.721795052289962769e-01 -2.407460212707519531e-01
2.788000000000000000e+03 3.526567459106445312e+01 1.158643531799316406e+01 1.048370361328125000e+00 1.700667858123779297e+00 8.247114419937133789e-01 1.370463252067565918e+00
2.789000000000000000e+03 3.211019515991210938e+01 1.164656043052673340e+00 1.648591160774230957e+00 1.056210756301879883e+00 8.114405870437622070e-01 2.186338305473327637e-01
2.790000000000000000e+03 6.600023651123046875e+01 2.819884300231933594e+00 -3.689308166503906250e-01 4.701482772827148438e+00 1.299765586853027344e+00 -2.130071401596069336e+00
2.791000000000000000e+03 1.557267856597900391e+01 2.009337997436523438e+01 -5.449091196060180664e-01 2.530596256256103516e+00 5.957061648368835449e-01 9.856107831001281738e-01
2.792000000000000000e+03 6.404885864257812500e+01 1.196005725860595703e+01 4.171188473701477051e-01 3.998206377029418945e+00 1.324597597122192383e+00 -1.302363872528076172e+00
2.793000000000000000e+03 1.154240989685058594e+01 2.169190406799316406e+01 -5.514714121818542480e-01 2.471729993820190430e+00 5.760775804519653320e-01 3.717613592743873596e-02
2.794000000000000000e+03 5.061658477783203125e+01 -3.563995838165283203e+00 -7.499828934669494629e-01 6.962300091981887817e-02 -2.041079699993133545e-01 -3.910977840423583984e-01
2.795000000000000000e+03 6.890082550048828125e+01 1.580363392829895020e+00 -9.715676307678222656e-01 6.640623569488525391e+00 1.700716733932495117e+00 -1.833002686500549316e+00
2.796000000000000000e+03 6.732061767578125000e+01 1.968224906921386719e+01 3.765293955802917480e-01 4.671795845031738281e+00 1.514497518539428711e+00 -7.836378812789916992e-01
2.797000000000000000e+03 4.950378417968750000e+01 -3.066188097000122070e+00 -5.878534913063049316e-01 1.003573462367057800e-01 -1.462488472461700439e-01 -3.482837378978729248e-01
2.798000000000000000e+03 3.243454360961914062e+01 4.252966403961181641e+00 2.100986003875732422e+00 1.178575873374938965e+00 9.838685393333435059e-01 6.863264441490173340e-01
2.799000000000000000e+03 4.409295272827148438e+01 -6.174264907836914062e+00 -1.025691866874694824e+00 2.374162375926971436e-01 -2.364826947450637817e-01 -5.061310529708862305e-01
2.800000000000000000e+03 6.876895141601562500e+01 1.239833450317382812e+01 2.047327756881713867e-01 5.189347267150878906e+00 1.618223905563354492e+00 -1.135141849517822266e+00
2.801000000000000000e+03 3.469667816162109375e+01 5.545123577117919922e+00 1.718374133110046387e+00 1.016328573226928711e+00 8.204108476638793945e-01 7.240866422653198242e-01
2.802000000000000000e+03 3.432247543334960938e+01 1.078231811523437500e+01 1.231779932975769043e+00 1.668724060058593750e+00 8.701511621475219727e-01 1.463245511054992676e+00
2.803000000000000000e+03 4.412699508666992188e+01 -2.402005940675735474e-01 3.169389367103576660e-01 2.348597645759582520e-01 1.655396074056625366e-01 -1.856081038713455200e-01
2.804000000000000000e+03 2.526133155822753906e+01 2.491809272766113281e+01 1.874532699584960938e-01 1.192790508270263672e+00 4.140731096267700195e-01 3.164175152778625488e-01
2.805000000000000000e+03 2.405915451049804688e+01 2.618097496032714844e+01 2.065041363239288330e-01 1.195554375648498535e+00 4.206175506114959717e-01 3.721494078636169434e-01
2.806000000000000000e+03 2.434822463989257812e+01 -6.592021465301513672e+00 -1.332584023475646973e-01 7.062450647354125977e-01 1.718959957361221313e-01 -3.281365931034088135e-01
2.807000000000000000e+03 2.152338981628417969e+01 -4.004338264465332031e+00 2.453711748123168945e+00 6.482648253440856934e-01 9.305930137634277344e-01 4.168238341808319092e-01
2.808000000000000000e+03 4.268693161010742188e+01 -7.586750984191894531e+00 -1.270177006721496582e+00 2.911216318607330322e-01 -2.937166094779968262e-01 -5.634249448776245117e-01
2.809000000000000000e+03 4.196943283081054688e+01 -6.330153942108154297e+00 -9.522093534469604492e-01 3.159838318824768066e-01 -1.908676624298095703e-01 -5.036147236824035645e-01
2.810000000000000000e+03 6.800023651123046875e+01 -3.147534561157226562e+01 -4.784592092037200928e-01 6.091295242309570312e+00 1.683850884437561035e+00 2.802394628524780273e-01
2.811000000000000000e+03 1.613957595825195312e+01 2.305366897583007812e+01 -3.367875218391418457e-01 1.889844298362731934e+00 4.659170508384704590e-01 7.960010170936584473e-01
2.812000000000000000e+03 8.786650657653808594e+00 2.294157981872558594e+01 -3.816345334053039551e-01 1.885654926300048828e+00 4.512061178684234619e-01 -2.650478184223175049e-01
2.813000000000000000e+03 3.236196899414062500e+01 -8.438741683959960938e+00 -1.346243262290954590e+00 6.705985665321350098e-01 -2.026933878660202026e-01 -5.238912701606750488e-01
2.814000000000000000e+03 4.125996017456054688e+01 2.342269325256347656e+01 6.086337566375732422e-01 1.982225179672241211e+00 7.772576808929443359e-01 5.970816612243652344e-01
2.815000000000000000e+03 2.108271217346191406e+01 2.573874282836914062e+01 1.367131769657135010e-01 1.191743612289428711e+00 3.985370397567749023e-01 5.688560605049133301e-01
2.816000000000000000e+03 6.511622619628906250e+01 -3.349437332153320312e+01 -1.584192216396331787e-01 4.552519321441650391e+00 1.318229913711547852e+00 3.451992273330688477e-01
2.817000000000000000e+03 5.237266921997070312e+01 -1.235584378242492676e+00 -1.865780502557754517e-01 8.840506523847579956e-02 -2.945189550518989563e-02 -3.380999565124511719e-01
2.818000000000000000e+03 1.310812377929687500e+01 2.312621498107910156e+01 -5.304022431373596191e-01 2.259134531021118164e+00 5.186196565628051758e-01 3.527379035949707031e-01
2.819000000000000000e+03 6.128034210205078125e+01 2.309014892578125000e+01 5.610531568527221680e-01 3.708423614501953125e+00 1.280843019485473633e+00 -6.848991513252258301e-01
2.820000000000000000e+03 6.938114166259765625e+01 7.043754100799560547e+00 -2.397472858428955078e-01 5.778105735778808594e+00 1.661507487297058105e+00 -1.387692809104919434e+00
2.821000000000000000e+03 6.154800033569335938e+01 1.855088472366333008e+00 2.299534976482391357e-01 1.918588280677795410e+00 6.445625424385070801e-01 -1.719941616058349609e+00
2.822000000000000000e+03 6.650090789794921875e+01 4.225498676300048828e+00 -3.083845376968383789e-01 4.960325241088867188e+00 1.395582199096679688e+00 -1.887683272361755371e+00
2.823000000000000000e+03 6.075242233276367188e+01 2.481414985656738281e+01 5.487486720085144043e-01 3.609206199645996094e+00 1.247386455535888672e+00 -6.318162679672241211e-01
2.824000000000000000e+03 6.963289642333984375e+01 5.299351215362548828e+00 -4.498353302478790283e-01 6.209766864776611328e+00 1.727979421615600586e+00 -1.366635680198669434e+00
2.825000000000000000e+03 5.718169403076171875e+01 3.057702255249023438e+01 6.586711406707763672e-01 3.135578155517578125e+00 1.138274788856506348e+00 -3.665693104267120361e-01
2.826000000000000000e+03 5.945289993286132812e+01 3.224107742309570312e+01 5.446821451187133789e-01 3.450456619262695312e+00 1.198541641235351562e+00 -3.415597379207611084e-01
2.827000000000000000e+03 6.636798858642578125e+01 1.016276454925537109e+01 2.003674805164337158e-01 4.622375965118408203e+00 1.446823000907897949e+00 -1.391954302787780762e+00
2.828000000000000000e+03 6.333694076538085938e+01 1.048904705047607422e+01 4.047210514545440674e-01 3.785424232482910156e+00 1.257043600082397461e+00 -1.316990733146667480e+00
2.829000000000000000e+03 6.748847961425781250e+01 2.170091056823730469e+01 3.548969626426696777e-01 4.681371688842773438e+00 1.510880708694458008e+00 -7.171872854232788086e-01
2.830000000000000000e+03 6.480867767333984375e+01 2.606319618225097656e+01 3.947341144084930420e-01 4.238807678222656250e+00 1.390062570571899414e+00 -5.830615758895874023e-01
2.831000000000000000e+03 1.319810104370117188e+01 3.207342910766601562e+01 -1.018304377794265747e-01 1.450855612754821777e+00 4.047075510025024414e-01 1.700536608695983887e-01
2.832000000000000000e+03 1.226494979858398438e+01 3.372711563110351562e+01 -7.247688621282577515e-02 1.377564430236816406e+00 3.915262520313262939e-01 1.146223321557044983e-01
2.833000000000000000e+03 1.351606369018554688e+01 -3.793294525146484375e+01 -1.644515842199325562e-01 2.433989048004150391e+00 6.808612346649169922e-01 -4.540437832474708557e-02
2.834000000000000000e+03 1.746536636352539062e+01 -3.553733062744140625e+01 -1.472727954387664795e-01 1.463149070739746094e+00 3.947628736495971680e-01 -1.463546305894851685e-01
2.835000000000000000e+03 6.736940002441406250e+01 1.414710807800292969e+01 3.153978288173675537e-01 4.809632301330566406e+00 1.537509083747863770e+00 -1.131359100341796875e+00
2.836000000000000000e+03 5.839583969116210938e+01 2.572223472595214844e+01 6.256815195083618164e-01 3.248534440994262695e+00 1.162264823913574219e+00 -5.970907211303710938e-01
2.837000000000000000e+03 4.005244064331054688e+01 3.353398513793945312e+01 5.967484712600708008e-01 1.917346715927124023e+00 7.542285323143005371e-01 1.894665509462356567e-01
2.838000000000000000e+03 7.555687713623046875e+01 -3.795768737792968750e+01 -9.313487261533737183e-02 9.899309158325195312e+00 2.941852331161499023e+00 -1.253381818532943726e-01
2.839000000000000000e+03 3.690631484985351562e+01 2.040887641906738281e+01 4.616454839706420898e-01 1.982996225357055664e+00 7.333925366401672363e-01 6.912270784378051758e-01
2.840000000000000000e+03 1.773538589477539062e+01 2.555536270141601562e+01 -1.047837510704994202e-01 1.528259396553039551e+00 4.270426928997039795e-01 6.738484501838684082e-01
2.841000000000000000e+03 5.042169570922851562e+01 2.663481903076171875e+01 9.757596850395202637e-01 1.972318649291992188e+00 8.844234943389892578e-01 -1.211716234683990479e-01
2.842000000000000000e+03 5.234313583374023438e+01 2.746447181701660156e+01 8.872058987617492676e-01 2.268468856811523438e+00 9.467024803161621094e-01 -2.528168559074401855e-01
2.843000000000000000e+03 1.090917968750000000e+01 -5.813389778137207031e+00 -1.229630410671234131e-01 5.356649398803710938e+00 1.570105910301208496e+00 5.847247600555419922e+00
2.844000000000000000e+03 9.120328903198242188e+00 -5.915928363800048828e+00 -4.345929920673370361e-01 4.884642124176025391e+00 1.335014700889587402e+00 4.748558521270751953e+00
2.845000000000000000e+03 1.247432041168212891e+01 -6.727438926696777344e+00 -7.345280647277832031e-01 4.657618522644042969e+00 1.176927089691162109e+00 5.137302875518798828e+00
2.846000000000000000e+03 1.099339008331298828e+01 5.850062370300292969e+00 -6.947470307350158691e-01 4.479107856750488281e+00 1.135308265686035156e+00 -6.665179729461669922e-01
2.847000000000000000e+03 1.045149612426757812e+01 5.738115787506103516e+00 -4.177698493003845215e-01 3.965164661407470703e+00 1.064218401908874512e+00 -6.946818828582763672e-01
2.848000000000000000e+03 9.897631645202636719e+00 5.592889785766601562e+00 -2.034383565187454224e-01 3.297786474227905273e+00 9.283044934272766113e-01 -6.171495914459228516e-01
2.849000000000000000e+03 1.116302490234375000e+01 -6.380418777465820312e+00 -4.678468704223632812e-01 5.118472099304199219e+00 1.395187497138977051e+00 5.913674354553222656e+00
2.850000000000000000e+03 8.126284599304199219e+00 -6.690020084381103516e+00 -1.261419773101806641e+00 5.269108295440673828e+00 1.202306628227233887e+00 3.346359491348266602e+00
2.851000000000000000e+03 1.360829448699951172e+01 -5.978413581848144531e+00 -5.455443635582923889e-02 5.131074905395507812e+00 1.522956132888793945e+00 3.911445856094360352e+00
2.852000000000000000e+03 2.008088874816894531e+01 -2.722094297409057617e+00 4.106265068054199219e+00 6.876626610755920410e-01 1.438178300857543945e+00 9.590207338333129883e-01
2.853000000000000000e+03 2.915637588500976562e+01 -6.573878288269042969e+00 -5.715813636779785156e-01 7.991478443145751953e-01 6.826996058225631714e-02 -4.363580048084259033e-01
2.854000000000000000e+03 1.721886253356933594e+01 -5.158714294433593750e+00 2.083382129669189453e+00 2.401974439620971680e+00 1.345606923103332520e+00 1.239604577422142029e-01
2.855000000000000000e+03 9.777169227600097656e+00 6.245403289794921875e+00 -7.729093730449676514e-02 3.259981155395507812e+00 9.548070430755615234e-01 -4.492417871952056885e-01
2.856000000000000000e+03 1.205939292907714844e+01 -5.913267135620117188e+00 -2.738849073648452759e-02 5.345986366271972656e+00 1.595579385757446289e+00 5.535754680633544922e+00
2.857000000000000000e+03 1.716189002990722656e+01 -5.918311595916748047e+00 1.038012981414794922e+00 2.379958629608154297e+00 1.025391459465026855e+00 2.460473328828811646e-01
2.858000000000000000e+03 5.931544494628906250e+01 8.858818411827087402e-01 2.148374915122985840e-01 8.964757919311523438e-01 3.333939909934997559e-01 -1.184354901313781738e+00
2.859000000000000000e+03 4.994839859008789062e+01 -2.149439811706542969e+00 -3.670528829097747803e-01 1.141903176903724670e-01 -7.585877180099487305e-02 -3.120271265506744385e-01
2.860000000000000000e+03 1.951387214660644531e+01 -4.432630062103271484e+00 2.829924821853637695e+00 1.065690279006958008e+00 1.168684482574462891e+00 3.233826160430908203e-02
2.861000000000000000e+03 1.922159957885742188e+01 -3.527285099029541016e+00 4.009581089019775391e+00 1.063184976577758789e+00 1.521829843521118164e+00 3.704346716403961182e-01
2.862000000000000000e+03 6.387892532348632812e+01 1.316976845264434814e-01 -1.603191196918487549e-01 2.906932592391967773e+00 8.239840269088745117e-01 -2.613653421401977539e+00
2.863000000000000000e+03 3.600352859497070312e+01 3.416315317153930664e+00 1.464655160903930664e+00 7.428521513938903809e-01 6.622521877288818359e-01 3.100702166557312012e-01
2.864000000000000000e+03 3.355419540405273438e+01 4.847261905670166016e+00 1.953098297119140625e+00 1.087965965270996094e+00 9.123193025588989258e-01 7.413951754570007324e-01
2.865000000000000000e+03 1.998146247863769531e+01 -5.268233776092529297e+00 1.745307683944702148e+00 9.277761578559875488e-01 8.019251823425292969e-01 -1.620457172393798828e-01
2.866000000000000000e+03 2.202535247802734375e+01 -2.240756750106811523e+00 3.139106273651123047e+00 7.238571643829345703e-01 1.158889055252075195e+00 1.178941011428833008e+00
2.867000000000000000e+03 2.021667480468750000e+01 -1.995290994644165039e+00 4.372147083282470703e+00 6.182143688201904297e-01 1.497108459472656250e+00 1.390176057815551758e+00
2.868000000000000000e+03 3.988023376464843750e+01 -8.536128044128417969e+00 -1.404688239097595215e+00 3.967837691307067871e-01 -3.023713231086730957e-01 -5.768718123435974121e-01
2.869000000000000000e+03 3.384525680541992188e+01 -5.369435310363769531e+00 -3.645460605621337891e-01 6.607853174209594727e-01 8.887178450822830200e-02 -4.784273803234100342e-01
2.870000000000000000e+03 3.150628089904785156e+01 -2.539341688156127930e+00 7.190634012222290039e-01 8.914472460746765137e-01 4.831531941890716553e-01 -2.060161978006362915e-01
2.871000000000000000e+03 2.547574424743652344e+01 -6.750568866729736328e+00 -3.355438411235809326e-01 7.788827419281005859e-01 1.330016851425170898e-01 -3.684315681457519531e-01
2.872000000000000000e+03 2.198597717285156250e+01 -3.132616758346557617e+00 2.845414400100708008e+00 6.735260486602783203e-01 1.055682182312011719e+00 7.666108608245849609e-01
2.873000000000000000e+03 3.060808181762695312e+01 2.180007457733154297e+00 2.077681303024291992e+00 1.387755751609802246e+00 1.039631128311157227e+00 4.715745151042938232e-01
2.874000000000000000e+03 2.945141220092773438e+01 1.821094274520874023e+00 2.194844245910644531e+00 1.567580580711364746e+00 1.128727436065673828e+00 5.322021842002868652e-01
2.875000000000000000e+03 4.688817596435546875e+01 -2.611395359039306641e+00 -3.239445388317108154e-01 1.858581155538558960e-01 -4.142592474818229675e-02 -3.031064271926879883e-01
2.876000000000000000e+03 5.629236984252929688e+01 -1.575418114662170410e+00 -3.610087633132934570e-01 9.865245968103408813e-02 -7.870689779520034790e-02 -6.179613471031188965e-01
2.877000000000000000e+03 5.511082077026367188e+01 -4.360254108905792236e-01 -9.515786916017532349e-02 1.387982815504074097e-01 1.309212576597929001e-02 -4.965631961822509766e-01
2.878000000000000000e+03 3.777295303344726562e+01 3.157246112823486328e+00 1.228783130645751953e+00 6.019079089164733887e-01 5.492073297500610352e-01 1.650448590517044067e-01
2.879000000000000000e+03 4.044892501831054688e+01 1.750377774238586426e+00 8.297190070152282715e-01 3.734639585018157959e-01 3.609548807144165039e-01 -6.473712623119354248e-02
2.880000000000000000e+03 5.759742736816406250e+01 -2.585708498954772949e-01 -3.819362726062536240e-03 3.656380176544189453e-01 1.085455939173698425e-01 -8.062314391136169434e-01
2.881000000000000000e+03 2.699426269531250000e+01 -3.521936893463134766e+00 9.753881096839904785e-01 1.031077384948730469e+00 6.019396185874938965e-01 6.777786463499069214e-02
2.882000000000000000e+03 2.573626708984375000e+01 -4.439572334289550781e+00 7.793435454368591309e-01 8.656840920448303223e-01 4.935082793235778809e-01 -4.612626507878303528e-03
2.883000000000000000e+03 3.494945526123046875e+01 -6.198652267456054688e+00 -6.589338779449462891e-01 5.935739278793334961e-01 -1.960798352956771851e-02 -5.149992704391479492e-01
2.884000000000000000e+03 6.781312561035156250e+01 1.205201053619384766e+01 2.417844831943511963e-01 4.939816951751708984e+00 1.554480433464050293e+00 -1.204821825027465820e+00
2.885000000000000000e+03 4.169578933715820312e+01 -2.400748968124389648e+00 -2.035831101238727570e-02 2.920732498168945312e-01 8.151447772979736328e-02 -3.062870204448699951e-01
2.886000000000000000e+03 3.069918441772460938e+01 -5.640085220336914062e+00 -2.713270485401153564e-01 7.853730320930480957e-01 1.542138010263442993e-01 -4.340649843215942383e-01
2.887000000000000000e+03 2.763894653320312500e+01 -1.407498240470886230e+00 1.540593981742858887e+00 1.313154578208923340e+00 8.561245799064636230e-01 3.561142981052398682e-01
2.888000000000000000e+03 4.509601593017578125e+01 -6.530374526977539062e+00 -1.163496971130371094e+00 2.137021720409393311e-01 -2.849384248256683350e-01 -5.137776136398315430e-01
2.889000000000000000e+03 4.598153686523437500e+01 -4.659367084503173828e+00 -7.878004908561706543e-01 1.850059926509857178e-01 -1.808383464813232422e-01 -4.053062796592712402e-01
2.890000000000000000e+03 3.094763374328613281e+01 1.064587354660034180e+00 1.781562566757202148e+00 1.193398833274841309e+00 8.924884200096130371e-01 2.611389458179473877e-01
2.891000000000000000e+03 6.592697906494140625e+01 1.387801170349121094e+01 4.113796651363372803e-01 4.444647312164306641e+00 1.456808090209960938e+00 -1.152069926261901855e+00
2.892000000000000000e+03 1.166536712646484375e+01 2.321663284301757812e+01 -5.038448572158813477e-01 2.220391035079956055e+00 5.149638056755065918e-01 1.256419271230697632e-01
2.893000000000000000e+03 6.477192687988281250e+01 4.729125022888183594e+00 -1.856664568185806274e-02 4.012567520141601562e+00 1.198200225830078125e+00 -1.862295866012573242e+00
2.894000000000000000e+03 6.296472167968750000e+01 6.946566104888916016e+00 2.612653672695159912e-01 3.401983022689819336e+00 1.098974466323852539e+00 -1.502790927886962891e+00
2.895000000000000000e+03 3.690129852294921875e+01 3.055554389953613281e+00 1.344532132148742676e+00 6.830665469169616699e-01 6.082795858383178711e-01 2.329373061656951904e-01
2.896000000000000000e+03 6.788860321044921875e+01 9.845142364501953125e+00 6.457296758890151978e-02 5.100726127624511719e+00 1.549589633941650391e+00 -1.367676734924316406e+00
2.897000000000000000e+03 6.598680114746093750e+01 1.808827209472656250e+01 4.564023613929748535e-01 4.438476562500000000e+00 1.468463659286499023e+00 -9.126523137092590332e-01
2.898000000000000000e+03 6.747082519531250000e+01 1.835418891906738281e+01 3.822322189807891846e-01 4.716962814331054688e+00 1.529758453369140625e+00 -8.711954951286315918e-01
2.899000000000000000e+03 6.043133926391601562e+01 2.746666431427001953e+00 3.377977311611175537e-01 1.715411782264709473e+00 6.159628629684448242e-01 -1.368528008460998535e+00
2.900000000000000000e+03 6.769053649902343750e+01 4.490264415740966797e+00 -4.617770612239837646e-01 5.557903766632080078e+00 1.528838038444519043e+00 -1.781323909759521484e+00
2.901000000000000000e+03 6.788314819335937500e+01 3.145151376724243164e+00 -6.108837723731994629e-01 5.765886783599853516e+00 1.546500921249389648e+00 -1.875092029571533203e+00
2.902000000000000000e+03 6.556986999511718750e+01 4.572171270847320557e-01 -5.388177633285522461e-01 4.454967021942138672e+00 1.174844741821289062e+00 -2.741575479507446289e+00
2.903000000000000000e+03 2.004066848754882812e+01 -3.447081327438354492e+00 3.671608448028564453e+00 7.309173345565795898e-01 1.320757746696472168e+00 5.585054159164428711e-01
2.904000000000000000e+03 6.896125030517578125e+01 2.606022953987121582e-01 -1.315370321273803711e+00 7.249659538269042969e+00 1.780286788940429688e+00 -2.014883756637573242e+00
2.905000000000000000e+03 6.422089385986328125e+01 7.811974525451660156e+00 1.908925920724868774e-01 3.936143875122070312e+00 1.238110899925231934e+00 -1.553972840309143066e+00
2.906000000000000000e+03 6.518273162841796875e+01 1.509031677246093750e+01 4.907693564891815186e-01 4.280588150024414062e+00 1.431407213211059570e+00 -1.103919863700866699e+00
2.907000000000000000e+03 4.730550384521484375e+01 -4.117169857025146484e+00 -6.893560886383056641e-01 1.638653874397277832e-01 -1.576472073793411255e-01 -3.783266246318817139e-01
2.908000000000000000e+03 2.987836265563964844e+01 8.144339323043823242e-01 1.841040253639221191e+00 1.394769549369812012e+00 9.707429409027099609e-01 3.557684421539306641e-01
2.909000000000000000e+03 2.887549400329589844e+01 4.331481158733367920e-01 1.925014734268188477e+00 1.484894037246704102e+00 1.022972583770751953e+00 4.465624392032623291e-01
2.910000000000000000e+03 3.321706390380859375e+01 1.894406318664550781e+01 1.712667346000671387e-01 2.019930362701416016e+00 6.573591232299804688e-01 7.709550857543945312e-01
2.911000000000000000e+03 3.456175613403320312e+01 1.933439636230468750e+01 2.955630719661712646e-01 1.981745958328247070e+00 6.831927299499511719e-01 7.664963006973266602e-01
2.912000000000000000e+03 1.316979312896728516e+01 3.012562942504882812e+01 -1.588624566793441772e-01 1.537783026695251465e+00 4.136761724948883057e-01 2.049918174743652344e-01
2.913000000000000000e+03 6.630582427978515625e+01 2.268515014648437500e+01 3.821855783462524414e-01 4.485981941223144531e+00 1.460450291633605957e+00 -6.977573633193969727e-01
2.914000000000000000e+03 3.916697692871093750e+01 -7.436124801635742188e+00 -1.105512738227844238e+00 4.219804704189300537e-01 -2.050596773624420166e-01 -5.569610595703125000e-01
2.915000000000000000e+03 6.698791503906250000e+01 1.737708473205566406e+01 4.107252359390258789e-01 4.637079238891601562e+00 1.514341354370117188e+00 -9.517019987106323242e-01
2.916000000000000000e+03 2.347636795043945312e+01 2.898518371582031250e+01 2.265940755605697632e-01 1.311100721359252930e+00 4.613084495067596436e-01 3.390370905399322510e-01
2.917000000000000000e+03 2.129243659973144531e+01 2.873694419860839844e+01 1.710813790559768677e-01 1.308791041374206543e+00 4.439617395401000977e-01 4.224986433982849121e-01
2.918000000000000000e+03 3.885338211059570312e+01 2.444983673095703125e+01 5.067100524902343750e-01 1.970874667167663574e+00 7.432754039764404297e-01 5.135858058929443359e-01
2.919000000000000000e+03 3.118704223632812500e+01 2.403894042968750000e+01 1.600235104560852051e-01 1.695512652397155762e+00 5.566608309745788574e-01 3.287559747695922852e-01
2.920000000000000000e+03 6.395262527465820312e+01 2.106786346435546875e+01 4.958892762660980225e-01 4.106931209564208984e+00 1.380846142768859863e+00 -7.726257443428039551e-01
2.921000000000000000e+03 6.275033187866210938e+01 9.488716721534729004e-01 1.129224151372909546e-01 2.305639266967773438e+00 7.255685329437255859e-01 -2.121322154998779297e+00
2.922000000000000000e+03 1.525533866882324219e+01 2.562910079956054688e+01 -2.733519971370697021e-01 1.764310598373413086e+00 4.472875893115997314e-01 5.348957180976867676e-01
2.923000000000000000e+03 4.211997604370117188e+01 5.906488299369812012e-01 5.768911242485046387e-01 2.859300673007965088e-01 2.588463723659515381e-01 -1.408476382493972778e-01
2.924000000000000000e+03 4.423569869995117188e+01 -3.034042596817016602e+00 -3.267918527126312256e-01 2.264150232076644897e-01 -3.011305071413516998e-02 -3.248216211795806885e-01
2.925000000000000000e+03 6.003793334960937500e+01 2.664878463745117188e+01 5.683642029762268066e-01 3.518043279647827148e+00 1.225922226905822754e+00 -5.632131099700927734e-01
2.926000000000000000e+03 6.719963073730468750e+01 7.928152680397033691e-01 -8.851646780967712402e-01 5.818064212799072266e+00 1.479869842529296875e+00 -2.473667144775390625e+00
2.927000000000000000e+03 6.796809387207031250e+01 1.169429998844861984e-02 -1.155357241630554199e+00 6.610947608947753906e+00 1.636677145957946777e+00 -2.297451257705688477e+00
2.928000000000000000e+03 3.498163223266601562e+01 7.479612350463867188e+00 1.580557465553283691e+00 1.246028900146484375e+00 8.479759097099304199e-01 1.029605746269226074e+00
2.929000000000000000e+03 4.074836349487304688e+01 -1.162108257412910461e-01 5.142986178398132324e-01 3.290304243564605713e-01 2.529987096786499023e-01 -1.720988452434539795e-01
2.930000000000000000e+03 2.969639587402343750e+01 2.677681541442871094e+01 2.459783107042312622e-01 1.537048459053039551e+00 5.349080562591552734e-01 2.564400434494018555e-01
2.931000000000000000e+03 2.573949432373046875e+01 2.791314315795898438e+01 2.503879368305206299e-01 1.341505646705627441e+00 4.775680899620056152e-01 2.850471138954162598e-01
2.932000000000000000e+03 6.381980133056640625e+01 -3.621016311645507812e+01 1.407627761363983154e-01 3.747854948043823242e+00 1.166585326194763184e+00 2.497607618570327759e-01
2.933000000000000000e+03 3.613385009765625000e+01 2.761667060852050781e+01 4.081428349018096924e-01 1.852356195449829102e+00 6.781497001647949219e-01 3.352074921131134033e-01
2.934000000000000000e+03 5.888451004028320312e+01 2.855456542968750000e+01 5.981157422065734863e-01 3.321482896804809570e+00 1.175879597663879395e+00 -4.836474359035491943e-01
2.935000000000000000e+03 6.587854003906250000e+01 3.174570465087890625e+01 3.233439028263092041e-01 4.330814838409423828e+00 1.396247625350952148e+00 -3.746822178363800049e-01
2.936000000000000000e+03 3.402666091918945312e+01 1.802474212646484375e+01 2.920845150947570801e-01 2.019169807434082031e+00 6.933763027191162109e-01 8.938290476799011230e-01
2.937000000000000000e+03 4.065140914916992188e+01 2.504870605468750000e+01 5.729917287826538086e-01 1.950807929039001465e+00 7.571398615837097168e-01 5.000865459442138672e-01
2.938000000000000000e+03 1.337903499603271484e+01 -7.477654457092285156e+00 -1.098684430122375488e+00 3.142768621444702148e+00 6.132252812385559082e-01 4.341660499572753906e+00
2.939000000000000000e+03 1.108099365234375000e+01 5.273421287536621094e+00 -7.463318109512329102e-01 4.581649303436279297e+00 1.150595188140869141e+00 -1.036786437034606934e+00
2.940000000000000000e+03 8.668461799621582031e+00 -6.086362361907958984e+00 -6.394447088241577148e-01 4.676547527313232422e+00 1.211130857467651367e+00 4.004442691802978516e+00
2.941000000000000000e+03 1.065140628814697266e+01 -6.634094715118408203e+00 -1.084078669548034668e+00 5.575121402740478516e+00 1.347312808036804199e+00 5.847539424896240234e+00
2.942000000000000000e+03 2.296659660339355469e+01 -5.518911838531494141e+00 8.977981209754943848e-01 6.694446802139282227e-01 4.701728522777557373e-01 -9.260716289281845093e-02
2.943000000000000000e+03 2.423494148254394531e+01 -5.436133384704589844e+00 6.575699448585510254e-01 7.444720268249511719e-01 4.206126034259796143e-01 -1.086370497941970825e-01
2.944000000000000000e+03 3.533982467651367188e+01 4.294619560241699219e+00 1.575625061988830566e+00 8.533340692520141602e-01 7.286877632141113281e-01 4.823212623596191406e-01
2.945000000000000000e+03 6.904656982421875000e+01 2.885351896286010742e+00 -7.905347943305969238e-01 6.417461395263671875e+00 1.688077926635742188e+00 -1.678262948989868164e+00
2.946000000000000000e+03 6.291725540161132812e+01 4.946603775024414062e+00 2.014114707708358765e-01 3.177350521087646484e+00 1.013628602027893066e+00 -1.690925955772399902e+00
2.947000000000000000e+03 4.292771530151367188e+01 -1.973374009132385254e+00 1.788615435361862183e-02 2.633372843265533447e-01 8.436703681945800781e-02 -2.674280107021331787e-01
2.948000000000000000e+03 2.472122764587402344e+01 -3.027870893478393555e+00 1.755275726318359375e+00 9.904143810272216797e-01 8.237070441246032715e-01 5.229030847549438477e-01
2.949000000000000000e+03 2.691734313964843750e+01 -5.851648330688476562e+00 -4.302100092172622681e-02 8.239362239837646484e-01 2.342745661735534668e-01 -2.910254895687103271e-01
2.950000000000000000e+03 4.572503280639648438e+01 -1.953616738319396973e+00 -1.225245371460914612e-01 1.985777914524078369e-01 2.281597629189491272e-02 -2.675506472587585449e-01
2.951000000000000000e+03 3.192251968383789062e+01 -6.006970882415771484e+00 -4.803259372711181641e-01 7.266898155212402344e-01 7.390917092561721802e-02 -4.907074868679046631e-01
2.952000000000000000e+03 2.906103706359863281e+01 -1.880290150642395020e+00 1.175249099731445312e+00 1.125932455062866211e+00 6.903544664382934570e-01 7.548774033784866333e-02
2.953000000000000000e+03 4.261006546020507812e+01 -7.032294869422912598e-01 2.847463190555572510e-01 2.517634332180023193e-01 1.609529256820678711e-01 -2.112472355365753174e-01
2.954000000000000000e+03 4.636966705322265625e+01 -3.629574060440063477e+00 -5.396481752395629883e-01 1.842186748981475830e-01 -1.066288426518440247e-01 -3.488513529300689697e-01
2.955000000000000000e+03 3.108169555664062500e+01 1.627929508686065674e-02 1.479581832885742188e+00 1.108170151710510254e+00 7.763255834579467773e-01 1.360957324504852295e-01
2.956000000000000000e+03 2.438125610351562500e+01 -4.160947322845458984e+00 1.344445347785949707e+00 8.370673060417175293e-01 6.544538140296936035e-01 2.230662703514099121e-01
2.957000000000000000e+03 4.202633285522460938e+01 -3.545708656311035156e+00 -2.968769371509552002e-01 2.988662123680114746e-01 5.967841716483235359e-04 -3.580212891101837158e-01
2.958000000000000000e+03 2.808612823486328125e+01 -6.284528732299804688e+00 -3.343898653984069824e-01 8.220667839050292969e-01 1.463030725717544556e-01 -3.719701468944549561e-01
2.959000000000000000e+03 2.971449851989746094e+01 -4.978326797485351562e+00 3.290975093841552734e-02 8.457203507423400879e-01 2.635890245437622070e-01 -3.449631333351135254e-01
2.960000000000000000e+03 3.805051803588867188e+01 -6.527839183807373047e+00 -8.444973230361938477e-01 4.638088345527648926e-01 -1.142065376043319702e-01 -5.267251729965209961e-01
2.961000000000000000e+03 3.737995147705078125e+01 -4.696719169616699219e+00 -3.407694995403289795e-01 4.848434627056121826e-01 4.322219267487525940e-02 -4.586060047149658203e-01
2.962000000000000000e+03 6.619603729248046875e+01 1.397562623023986816e+00 -5.790061354637145996e-01 4.964659214019775391e+00 1.315695881843566895e+00 -2.374508380889892578e+00
2.963000000000000000e+03 6.771946716308593750e+01 1.868211150169372559e+00 -8.542100787162780762e-01 6.018735885620117188e+00 1.549357771873474121e+00 -2.098885297775268555e+00
2.964000000000000000e+03 4.433548736572265625e+01 -1.709588885307312012e+00 -1.018827315419912338e-02 2.220142036676406860e-01 6.354777514934539795e-02 -2.543372213840484619e-01
2.965000000000000000e+03 6.733849334716796875e+01 5.951622009277343750e+00 -2.022702991962432861e-01 5.203133106231689453e+00 1.500258803367614746e+00 -1.612075924873352051e+00
2.966000000000000000e+03 3.312660598754882812e+01 2.786435604095458984e+00 1.800549268722534180e+00 9.910239577293395996e-01 8.374719619750976562e-01 3.923211395740509033e-01
2.967000000000000000e+03 4.000862121582031250e+01 7.564362287521362305e-01 7.142148017883300781e-01 3.795200586318969727e-01 3.281204700469970703e-01 -1.053902134299278259e-01
2.968000000000000000e+03 6.549686431884765625e+01 8.801062583923339844e+00 1.599856615066528320e-01 4.409649372100830078e+00 1.370890498161315918e+00 -1.470655918121337891e+00
2.969000000000000000e+03 6.423702239990234375e+01 9.715648651123046875e+00 3.052558600902557373e-01 3.991957426071166992e+00 1.289163947105407715e+00 -1.418383955955505371e+00
2.970000000000000000e+03 1.387189197540283203e+01 2.618992424011230469e+01 -3.306901156902313232e-01 1.811130046844482422e+00 4.441319704055786133e-01 3.769011795520782471e-01
2.971000000000000000e+03 2.027859878540039062e+01 -4.095044136047363281e+00 2.925457000732421875e+00 7.696447968482971191e-01 1.108530521392822266e+00 2.523021399974822998e-01
2.972000000000000000e+03 2.940404319763183594e+01 -5.298388600349426270e-01 1.556745886802673340e+00 1.292600870132446289e+00 8.548039793968200684e-01 2.369651198387145996e-01
2.973000000000000000e+03 3.080680084228515625e+01 -8.841469287872314453e-01 1.235878229141235352e+00 1.071743965148925781e+00 6.922866702079772949e-01 2.076394297182559967e-02
2.974000000000000000e+03 5.355568695068359375e+01 -1.463302135467529297e+00 -2.633872926235198975e-01 6.412906199693679810e-02 -5.977747216820716858e-02 -3.824184238910675049e-01
2.975000000000000000e+03 3.827935028076171875e+01 -8.217861175537109375e+00 -1.287148833274841309e+00 4.597567319869995117e-01 -2.482176274061203003e-01 -5.773374438285827637e-01
2.976000000000000000e+03 4.047194671630859375e+01 -6.817033767700195312e+00 -1.010737538337707520e+00 3.752330541610717773e-01 -1.906513273715972900e-01 -5.285246968269348145e-01
2.977000000000000000e+03 6.511569976806640625e+01 1.207438755035400391e+01 3.726604580879211426e-01 4.276881694793701172e+00 1.394862651824951172e+00 -1.284433007240295410e+00
2.978000000000000000e+03 6.636777496337890625e+01 1.971485137939453125e+01 4.348341226577758789e-01 4.495868206024169922e+00 1.479210615158081055e+00 -8.281422257423400879e-01
2.979000000000000000e+03 4.308942794799804688e+01 -5.628857135772705078e+00 -8.558753132820129395e-01 2.817433774471282959e-01 -1.722395867109298706e-01 -4.685971736907958984e-01
2.980000000000000000e+03 3.435195541381835938e+01 2.097580146789550781e+01 2.634530365467071533e-01 1.947887539863586426e+00 6.634021997451782227e-01 6.185232996940612793e-01
2.981000000000000000e+03 2.786977386474609375e+01 -3.522028446197509766e+00 8.162350654602050781e-01 9.976496696472167969e-01 5.441654324531555176e-01 -2.271438576281070709e-02
2.982000000000000000e+03 2.701869201660156250e+01 -4.641864776611328125e+00 4.875988364219665527e-01 9.081256389617919922e-01 4.187173545360565186e-01 -1.112573146820068359e-01
2.983000000000000000e+03 6.483213043212890625e+01 2.420226669311523438e+01 4.278948903083801270e-01 4.242656707763671875e+00 1.401165485382080078e+00 -6.678566932678222656e-01
2.984000000000000000e+03 6.598770141601562500e+01 2.076744079589843750e+01 4.200152754783630371e-01 4.428625583648681641e+00 1.454592347145080566e+00 -7.993623614311218262e-01
2.985000000000000000e+03 6.409942626953125000e+01 1.807432174682617188e+01 5.616118907928466797e-01 4.075170040130615234e+00 1.391034603118896484e+00 -8.878379464149475098e-01
2.986000000000000000e+03 1.867630958557128906e+01 2.400440979003906250e+01 -6.742628663778305054e-02 1.393872022628784180e+00 3.979337215423583984e-01 7.987532615661621094e-01
2.987000000000000000e+03 1.774754524230957031e+01 2.894466781616210938e+01 -2.873235195875167847e-02 1.471162796020507812e+00 4.327291548252105713e-01 4.392544925212860107e-01
2.988000000000000000e+03 6.357783889770507812e+01 2.024099826812744141e+00 -1.503669843077659607e-02 3.046673774719238281e+00 9.094911217689514160e-01 -2.190702915191650391e+00
2.989000000000000000e+03 6.192396926879882812e+01 4.085123538970947266e+00 2.596645951271057129e-01 2.581566572189331055e+00 8.523693680763244629e-01 -1.635319113731384277e+00
2.990000000000000000e+03 3.043551254272460938e+01 -2.502885818481445312e+00 8.131704926490783691e-01 9.654464721679687500e-01 5.335850715637207031e-01 -1.298980563879013062e-01
2.991000000000000000e+03 3.462521362304687500e+01 2.526511573791503906e+01 3.111439645290374756e-01 1.835432648658752441e+00 6.439729928970336914e-01 3.876091539859771729e-01
2.992000000000000000e+03 3.643249511718750000e+01 2.448687171936035156e+01 3.894379138946533203e-01 1.927116274833679199e+00 6.949662566184997559e-01 4.693203270435333252e-01
2.993000000000000000e+03 1.635229301452636719e+01 2.701873588562011719e+01 -1.700482964515686035e-01 1.615282535552978516e+00 4.335702657699584961e-01 4.917294383049011230e-01
2.994000000000000000e+03 1.548678302764892578e+01 2.997997856140136719e+01 -9.595691412687301636e-02 1.515157103538513184e+00 4.257600605487823486e-01 3.170951604843139648e-01
2.995000000000000000e+03 6.343103790283203125e+01 2.230544471740722656e+01 5.103673934936523438e-01 4.034565925598144531e+00 1.363479971885681152e+00 -7.257908582687377930e-01
2.996000000000000000e+03 3.204753112792968750e+01 2.229726409912109375e+01 1.237035393714904785e-01 1.827541708946228027e+00 5.853735804557800293e-01 4.406131505966186523e-01
2.997000000000000000e+03 4.328476715087890625e+01 3.432800674438476562e+01 6.763141751289367676e-01 2.046222686767578125e+00 8.167610168457031250e-01 1.450526267290115356e-01
2.998000000000000000e+03 6.838022613525390625e+01 1.349736404418945312e+01 2.638097405433654785e-01 5.034694671630859375e+00 1.589551210403442383e+00 -1.102727770805358887e+00
2.999000000000000000e+03 6.203645706176757812e+01 3.353604507446289062e+01 4.542627036571502686e-01 3.824157476425170898e+00 1.283526062965393066e+00 -3.111751079559326172e-01
3.000000000000000000e+03 2.309908676147460938e+01 -3.627233982086181641e+00 2.053747653961181641e+00 7.248892784118652344e-01 8.335911035537719727e-01 5.141232013702392578e-01
3.001000000000000000e+03 6.670043182373046875e+01 7.506769657135009766e+00 -3.247303888201713562e-02 4.843286037445068359e+00 1.443243980407714844e+00 -1.575403928756713867e+00
3.002000000000000000e+03 3.110372734069824219e+01 -4.655076026916503906e+00 4.005121067166328430e-02 7.957585453987121582e-01 2.507429420948028564e-01 -3.651568591594696045e-01
3.003000000000000000e+03 2.819607162475585938e+01 -2.288403511047363281e+00 1.244956493377685547e+00 1.133041739463806152e+00 7.133994698524475098e-01 1.571781337261199951e-01
3.004000000000000000e+03 6.796559143066406250e+01 1.110289764404296875e+01 1.704409867525100708e-01 5.019765853881835938e+00 1.557062149047851562e+00 -1.261913895606994629e+00
3.005000000000000000e+03 3.432085800170898438e+01 3.431221485137939453e+00 1.674573302268981934e+00 8.909046649932861328e-01 7.696434259414672852e-01 4.043563902378082275e-01
3.006000000000000000e+03 6.671158599853515625e+01 2.256661415100097656e+00 -5.637623667716979980e-01 5.171361446380615234e+00 1.382279753684997559e+00 -2.256323099136352539e+00
3.007000000000000000e+03 4.242163467407226562e+01 -4.638513088226318359e+00 -5.872265696525573730e-01 2.904050052165985107e-01 -8.904647827148437500e-02 -4.262421429157257080e-01
3.008000000000000000e+03 3.313603591918945312e+01 -6.530643463134765625e+00 -6.849376559257507324e-01 6.895957589149475098e-01 1.397437881678342819e-03 -5.144122838973999023e-01
3.009000000000000000e+03 2.879889297485351562e+01 -5.544992923736572266e+00 -9.518583118915557861e-02 8.361852765083312988e-01 2.222998291254043579e-01 -3.416936099529266357e-01
3.010000000000000000e+03 4.533914947509765625e+01 -3.221945285797119141e+00 -4.022718966007232666e-01 2.026111632585525513e-01 -5.989822000265121460e-02 -3.286944031715393066e-01
3.011000000000000000e+03 4.058887863159179688e+01 -2.874627828598022461e+00 -5.281560495495796204e-02 3.501017093658447266e-01 8.918583393096923828e-02 -3.269400894641876221e-01
3.012000000000000000e+03 6.261732101440429688e+01 2.997256040573120117e+00 1.882578432559967041e-01 2.716520786285400391e+00 8.714336156845092773e-01 -1.828004598617553711e+00
3.013000000000000000e+03 3.001676368713378906e+01 -1.484725236892700195e+00 1.196163058280944824e+00 1.070338010787963867e+00 6.799502968788146973e-01 3.049772419035434723e-02
3.014000000000000000e+03 3.635416793823242188e+01 -3.722980737686157227e+00 4.428056534379720688e-03 5.468575954437255859e-01 1.653856933116912842e-01 -3.949560225009918213e-01
3.015000000000000000e+03 3.182239151000976562e+01 2.486868858337402344e+00 1.955257296562194824e+00 1.151884317398071289e+00 9.321424961090087891e-01 3.970548510551452637e-01
3.016000000000000000e+03 3.728783416748046875e+01 -2.802946805953979492e+00 1.630457788705825806e-01 4.923209249973297119e-01 1.966100037097930908e-01 -3.370813131332397461e-01
3.017000000000000000e+03 6.977680969238281250e+01 1.266842269897460938e+01 1.526012718677520752e-01 5.441770076751708984e+00 1.678311347961425781e+00 -1.100855231285095215e+00
3.018000000000000000e+03 4.378264236450195312e+01 -4.861729621887207031e+00 -7.208169102668762207e-01 2.509007453918457031e-01 -1.409748494625091553e-01 -4.229725897312164307e-01
3.019000000000000000e+03 4.501858139038085938e+01 -4.320856094360351562e+00 -6.537131667137145996e-01 2.151232361793518066e-01 -1.315769851207733154e-01 -3.854505419731140137e-01
3.020000000000000000e+03 3.564078521728515625e+01 -4.953412055969238281e+00 -3.069937527179718018e-01 5.810702443122863770e-01 8.222295343875885010e-02 -4.755451977252960205e-01
3.021000000000000000e+03 3.572305679321289062e+01 2.290416145324707031e+01 3.439963757991790771e-01 1.921175360679626465e+00 6.795515418052673340e-01 5.225589871406555176e-01
3.022000000000000000e+03 3.233075714111328125e+01 2.614170837402343750e+01 2.628266811370849609e-01 1.728652358055114746e+00 5.974436998367309570e-01 3.112535178661346436e-01
3.023000000000000000e+03 6.522935485839843750e+01 6.652208328247070312e+00 3.959094732999801636e-02 4.253687381744384766e+00 1.287983536720275879e+00 -1.665319442749023438e+00
3.024000000000000000e+03 6.529090118408203125e+01 2.092629909515380859e+00 -3.258787989616394043e-01 4.224909782409667969e+00 1.169709205627441406e+00 -2.346700191497802734e+00
3.025000000000000000e+03 6.682423400878906250e+01 3.163441658020019531e+00 -5.168769359588623047e-01 5.245811939239501953e+00 1.418680429458618164e+00 -2.068524837493896484e+00
3.026000000000000000e+03 6.509258270263671875e+01 1.710738945007324219e+01 5.273616909980773926e-01 4.237328052520751953e+00 1.429407000541687012e+00 -9.766550660133361816e-01
3.027000000000000000e+03 3.543404769897460938e+01 2.269279956817626953e+00 1.378481864929199219e+00 7.314412593841552734e-01 6.329769492149353027e-01 1.900644749402999878e-01
3.028000000000000000e+03 3.832143783569335938e+01 -2.518626928329467773e+00 1.771700829267501831e-01 4.409927427768707275e-01 1.854488402605056763e-01 -3.152419626712799072e-01
3.029000000000000000e+03 6.398055267333984375e+01 5.822489738464355469e+00 1.085298284888267517e-01 3.706643581390380859e+00 1.144551992416381836e+00 -1.737742543220520020e+00
3.030000000000000000e+03 6.942982482910156250e+01 3.897683858871459961e+00 -6.276422739028930664e-01 6.270257472991943359e+00 1.692784547805786133e+00 -1.535916447639465332e+00
3.031000000000000000e+03 6.878273773193359375e+01 4.759048938751220703e+00 -4.951506555080413818e-01 5.909816265106201172e+00 1.624399662017822266e+00 -1.574302434921264648e+00
3.032000000000000000e+03 6.369863510131835938e+01 3.911075115203857422e+00 5.793395265936851501e-02 3.418284654617309570e+00 1.042865514755249023e+00 -1.934458255767822266e+00
3.033000000000000000e+03 6.532014465332031250e+01 2.175323104858398438e+01 4.549747705459594727e-01 4.332081794738769531e+00 1.436116933822631836e+00 -7.491785287857055664e-01
3.034000000000000000e+03 4.015713500976562500e+01 -1.823390126228332520e+00 1.898085176944732666e-01 3.598722517490386963e-01 1.649042367935180664e-01 -2.779135406017303467e-01
3.035000000000000000e+03 4.413361358642578125e+01 -4.073258399963378906e+00 -5.440676808357238770e-01 2.373049408197402954e-01 -9.202882647514343262e-02 -3.804242908954620361e-01
3.036000000000000000e+03 3.860299301147460938e+01 2.946582412719726562e+01 5.202522873878479004e-01 1.891344308853149414e+00 7.234789729118347168e-01 3.034501075744628906e-01
3.037000000000000000e+03 3.012761497497558594e+01 2.146015357971191406e+01 -3.792563453316688538e-02 1.735992670059204102e+00 5.094200968742370605e-01 3.670521080493927002e-01
3.038000000000000000e+03 1.462368106842041016e+01 2.787959671020507812e+01 -2.075704187154769897e-01 1.648343205451965332e+00 4.322318434715270996e-01 3.707072436809539795e-01
3.039000000000000000e+03 6.678794860839843750e+01 2.571704864501953125e+01 3.307074606418609619e-01 4.513120174407958984e+00 1.453148245811462402e+00 -5.740979909896850586e-01
3.040000000000000000e+03 6.438386535644531250e+01 2.832964897155761719e+01 3.991839587688446045e-01 4.162928581237792969e+00 1.368633866310119629e+00 -5.063521265983581543e-01
3.041000000000000000e+03 3.341581726074218750e+01 1.164041757583618164e+00 1.450361013412475586e+00 8.865231275558471680e-01 7.010652422904968262e-01 1.372923851013183594e-01
3.042000000000000000e+03 4.330792999267578125e+01 -4.175253391265869141e+00 -5.315577983856201172e-01 2.586094439029693604e-01 -8.188451081514358521e-02 -3.905271291732788086e-01
3.043000000000000000e+03 3.959936523437500000e+01 -8.755255341529846191e-01 4.451582729816436768e-01 3.876122534275054932e-01 2.498311549425125122e-01 -2.252523154020309448e-01
3.044000000000000000e+03 3.894910049438476562e+01 3.256345540285110474e-02 6.453112959861755371e-01 4.255565404891967773e-01 3.212603628635406494e-01 -1.492859274148941040e-01
3.045000000000000000e+03 6.597501373291015625e+01 5.423226356506347656e+00 -1.301633268594741821e-01 4.610313415527343750e+00 1.344045042991638184e+00 -1.799101352691650391e+00
3.046000000000000000e+03 3.563627624511718750e+01 -1.430552005767822266e+00 6.169072389602661133e-01 6.154339909553527832e-01 3.697023689746856689e-01 -2.186060696840286255e-01
3.047000000000000000e+03 2.980334854125976562e+01 -3.646882295608520508e+00 4.819796383380889893e-01 9.239555001258850098e-01 4.217805266380310059e-01 -2.201796025037765503e-01
3.048000000000000000e+03 3.860671997070312500e+01 -5.395619392395019531e+00 -5.930921435356140137e-01 4.389506578445434570e-01 -4.624244570732116699e-02 -4.788388311862945557e-01
3.049000000000000000e+03 4.133924102783203125e+01 -5.144313335418701172e+00 -6.432766914367675781e-01 3.354482948780059814e-01 -9.234852343797683716e-02 -4.557627439498901367e-01
3.050000000000000000e+03 3.209479522705078125e+01 -4.917460918426513672e+00 -1.228714808821678162e-01 7.538665533065795898e-01 1.892985254526138306e-01 -4.207801520824432373e-01
3.051000000000000000e+03 3.209272766113281250e+01 -1.378394365310668945e-01 1.312772154808044434e+00 9.848053455352783203e-01 6.892732381820678711e-01 3.659174591302871704e-02
3.052000000000000000e+03 3.836583709716796875e+01 1.055945277214050293e+00 8.889695405960083008e-01 4.788559675216674805e-01 4.103476405143737793e-01 -4.758776351809501648e-02
3.053000000000000000e+03 3.957218170166015625e+01 -3.266827583312988281e+00 -6.617505103349685669e-02 3.876139223575592041e-01 9.643166512250900269e-02 -3.626442253589630127e-01
3.054000000000000000e+03 3.179169464111328125e+01 -1.364728093147277832e+00 1.005716323852539062e+00 9.340385198593139648e-01 5.819264650344848633e-01 -9.000204503536224365e-02
3.055000000000000000e+03 4.094580078125000000e+01 -3.987478256225585938e+00 -3.347389698028564453e-01 3.303167521953582764e-01 -1.326664933003485203e-03 -4.048299491405487061e-01
3.056000000000000000e+03 6.447302246093750000e+01 2.943748235702514648e+00 -8.325079828500747681e-02 3.740664243698120117e+00 1.097223997116088867e+00 -2.093436002731323242e+00
3.057000000000000000e+03 4.311210632324218750e+01 -3.167085647583007812e+00 -2.873786389827728271e-01 2.618501782417297363e-01 -7.658538874238729477e-03 -3.375600874423980713e-01
3.058000000000000000e+03 3.794864654541015625e+01 -3.874623298645019531e+00 -1.752565056085586548e-01 4.431703984737396240e-01 8.037416636943817139e-02 -4.105921089649200439e-01
3.059000000000000000e+03 3.679261398315429688e+01 -1.433009147644042969e+00 4.943699240684509277e-01 5.148518681526184082e-01 3.027665317058563232e-01 -2.454534024000167847e-01
3.060000000000000000e+03 4.001839447021484375e+01 -5.523661136627197266e+00 -6.835637092590332031e-01 3.820688128471374512e-01 -9.044847637414932251e-02 -4.822340905666351318e-01
3.061000000000000000e+03 3.459199905395507812e+01 -4.152835369110107422e+00 -2.740758284926414490e-02 6.311292052268981934e-01 1.811164766550064087e-01 -4.160291254520416260e-01
3.062000000000000000e+03 4.122529602050781250e+01 3.095252799987792969e+01 6.237936019897460938e-01 1.955365180969238281e+00 7.737476229667663574e-01 2.628040313720703125e-01
3.063000000000000000e+03 3.345833587646484375e+01 2.890020179748535156e+01 3.697266876697540283e-01 1.729174971580505371e+00 6.296705007553100586e-01 2.659988999366760254e-01
3.064000000000000000e+03 3.293683624267578125e+01 -1.732248187065124512e+00 7.829600572586059570e-01 7.923081517219543457e-01 4.725804626941680908e-01 -1.961347460746765137e-01
3.065000000000000000e+03 2.948612594604492188e+01 -2.794822692871093750e+00 8.652535676956176758e-01 9.921597838401794434e-01 5.572240352630615234e-01 -8.177437633275985718e-02
3.066000000000000000e+03 3.052175712585449219e+01 -3.483054876327514648e+00 4.869590103626251221e-01 8.819466829299926758e-01 4.106717109680175781e-01 -2.436434179544448853e-01
3.067000000000000000e+03 3.358958435058593750e+01 -3.457492351531982422e+00 2.333729863166809082e-01 6.893470883369445801e-01 2.768160402774810791e-01 -3.526475727558135986e-01
3.068000000000000000e+03 3.258437728881835938e+01 -2.913707256317138672e+00 4.943801760673522949e-01 7.963162660598754883e-01 3.872089385986328125e-01 -2.717090845108032227e-01
3.069000000000000000e+03 3.862617492675781250e+01 -1.592686057090759277e+00 3.326552510261535645e-01 4.228537976741790771e-01 2.266527116298675537e-01 -2.635319232940673828e-01
3.070000000000000000e+03 3.921400451660156250e+01 -2.323110103607177734e+00 1.399730145931243896e-01 4.028877913951873779e-01 1.628582328557968140e-01 -2.988298535346984863e-01
3.071000000000000000e+03 3.297922515869140625e+01 -4.526158809661865234e+00 -5.087341740727424622e-02 7.097328901290893555e-01 1.976578533649444580e-01 -4.276132285594940186e-01
3.072000000000000000e+03 3.222952651977539062e+01 -3.936315774917602539e+00 2.382304221391677856e-01 7.970254421234130859e-01 3.105767667293548584e-01 -3.489116132259368896e-01
3.073000000000000000e+03 3.788246536254882812e+01 -7.077875733375549316e-01 5.649175643920898438e-01 4.686260521411895752e-01 3.100630939006805420e-01 -1.998090445995330811e-01
3.074000000000000000e+03 3.524324417114257812e+01 -2.838677883148193359e+00 2.932983934879302979e-01 6.114393472671508789e-01 2.714213132858276367e-01 -3.368108570575714111e-01
3.075000000000000000e+03 3.879899215698242188e+01 -4.357851982116699219e+00 -3.246766030788421631e-01 4.291073381900787354e-01 3.132922574877738953e-02 -4.292209446430206299e-01
3.076000000000000000e+03 3.611439895629882812e+01 -1.888670921325683594e-01 8.880876302719116211e-01 6.015970706939697266e-01 4.469054043292999268e-01 -9.504961222410202026e-02
3.077000000000000000e+03 3.715976715087890625e+01 5.662207007408142090e-01 9.048501849174499512e-01 5.457813143730163574e-01 4.351894557476043701e-01 -6.498764455318450928e-02
3.078000000000000000e+03 3.323934555053710938e+01 -3.856256306171417236e-01 1.105138540267944336e+00 8.224032521247863770e-01 5.782625675201416016e-01 -5.665684118866920471e-02
3.079000000000000000e+03 3.443853378295898438e+01 -8.246517181396484375e-01 8.720965385437011719e-01 6.952016949653625488e-01 4.701894819736480713e-01 -1.443827450275421143e-01
3.080000000000000000e+03 3.406189346313476562e+01 -2.216192483901977539e+00 5.705311298370361328e-01 6.996144652366638184e-01 3.810436725616455078e-01 -2.598125636577606201e-01
3.081000000000000000e+03 3.486765670776367188e+01 7.438638210296630859e-01 1.208168506622314453e+00 7.040833830833435059e-01 5.736755728721618652e-01 3.084082901477813721e-02
3.082000000000000000e+03 3.018648147583007812e+01 2.959086227416992188e+01 3.201924264430999756e-01 1.555798649787902832e+00 5.627973079681396484e-01 2.255065441131591797e-01
3.083000000000000000e+03 3.134940147399902344e+01 -3.648557424545288086e+00 3.658525049686431885e-01 8.398867249488830566e-01 3.617217838764190674e-01 -2.860599160194396973e-01
3.084000000000000000e+03 3.502194976806640625e+01 -3.953023147583007812e+01 -2.074670642614364624e-01 -2.204651981592178345e-01 -1.283796876668930054e-01 3.572800010442733765e-02
3.085000000000000000e+03 1.945632553100585938e+01 2.715419387817382812e+01 5.909015238285064697e-02 1.341964602470397949e+00 4.203164279460906982e-01 5.550981760025024414e-01
3.086000000000000000e+03 5.000670623779296875e+01 3.415889739990234375e+01 7.631096243858337402e-01 2.422393321990966797e+00 9.556509256362915039e-01 -6.044324859976768494e-02
3.087000000000000000e+03 6.095681762695312500e+01 2.979297637939453125e+01 5.204877257347106934e-01 3.664012193679809570e+00 1.255349993705749512e+00 -4.490988850593566895e-01
3.088000000000000000e+03 7.992054462432861328e+00 4.105863189697265625e+01 -4.874179605394601822e-03 1.167035937309265137e+00 3.486485183238983154e-01 1.391816651448607445e-03
3.089000000000000000e+03 4.281230926513671875e+01 3.742016983032226562e+01 6.670042872428894043e-01 2.048151969909667969e+00 8.145468831062316895e-01 7.740338146686553955e-02
3.090000000000000000e+03 3.100888252258300781e+01 3.280665588378906250e+01 3.803512454032897949e-01 1.600779294967651367e+00 5.943391919136047363e-01 1.818912327289581299e-01
3.091000000000000000e+03 4.669757080078125000e+01 3.439658355712890625e+01 7.452831268310546875e-01 2.188450574874877930e+00 8.801200985908508301e-01 5.137303844094276428e-02
3.092000000000000000e+03 1.987557029724121094e+01 3.085087966918945312e+01 1.116147264838218689e-01 1.370998144149780273e+00 4.447838366031646729e-01 3.508571684360504150e-01
3.093000000000000000e+03 1.823777770996093750e+01 3.344094848632812500e+01 6.524199247360229492e-02 1.399089574813842773e+00 4.392994642257690430e-01 2.533793151378631592e-01
3.094000000000000000e+03 2.265572357177734375e+01 -3.394924926757812500e+01 -2.114167064428329468e-01 2.884283363819122314e-01 2.310349047183990479e-02 -9.654019959270954132e-03
3.095000000000000000e+03 2.869816970825195312e+01 -3.727016067504882812e+01 -1.311162561178207397e-01 -1.199642866849899292e-01 -7.532416284084320068e-02 1.395905017852783203e-01
3.096000000000000000e+03 6.392214584350585938e+01 3.757151031494140625e+01 3.663690090179443359e-01 4.044015407562255859e+00 1.323115348815917969e+00 -1.650773137807846069e-01
3.097000000000000000e+03 5.767886352539062500e+01 -3.438745880126953125e+01 3.477193787693977356e-02 8.713864684104919434e-01 2.718475162982940674e-01 8.496370911598205566e-02
3.098000000000000000e+03 1.431634235382080078e+01 3.549664306640625000e+01 1.875009015202522278e-02 1.360375404357910156e+00 4.137376546859741211e-01 1.239951476454734802e-01
3.099000000000000000e+03 2.606410408020019531e+01 -3.822752761840820312e+01 -3.071772120893001556e-02 2.172658219933509827e-02 -2.697341609746217728e-03 5.119029060006141663e-02
3.100000000000000000e+03 6.080223083496093750e+01 -3.807096099853515625e+01 3.802772164344787598e-01 2.510106325149536133e+00 8.671150207519531250e-01 1.612372994422912598e-01
3.101000000000000000e+03 2.706556129455566406e+01 3.033027076721191406e+01 2.955290079116821289e-01 1.429217696189880371e+00 5.174239873886108398e-01 2.404675334692001343e-01
3.102000000000000000e+03 3.167994308471679688e+01 -4.085446166992187500e+01 -8.480798453092575073e-02 -2.354802340269088745e-01 -9.608646482229232788e-02 2.265912294387817383e-02
3.103000000000000000e+03 2.453871345520019531e+01 3.356766891479492188e+01 2.854158580303192139e-01 1.399719834327697754e+00 5.055407285690307617e-01 2.092741876840591431e-01
3.104000000000000000e+03 1.769200515747070312e+01 -3.830591201782226562e+01 -5.287295207381248474e-02 1.424976587295532227e+00 4.116310775279998779e-01 -1.000204533338546753e-01
3.105000000000000000e+03 2.233341026306152344e+01 -4.116479492187500000e+01 5.782390013337135315e-02 5.455519556999206543e-01 1.810127496719360352e-01 -3.704069554805755615e-02
3.106000000000000000e+03 6.047529220581054688e+01 3.661590576171875000e+01 4.875473678112030029e-01 3.617576599121093750e+00 1.231537222862243652e+00 -1.979497522115707397e-01
3.107000000000000000e+03 5.517467117309570312e+01 3.840514755249023438e+01 6.349142193794250488e-01 3.009746551513671875e+00 1.093398213386535645e+00 -9.821009635925292969e-02
3.108000000000000000e+03 2.054960823059082031e+01 3.518019866943359375e+01 1.761838793754577637e-01 1.371888279914855957e+00 4.644216299057006836e-01 1.973705589771270752e-01
3.109000000000000000e+03 2.357351493835449219e+01 3.666028594970703125e+01 2.743042707443237305e-01 1.407673478126525879e+00 5.045933127403259277e-01 1.412598341703414917e-01
3.110000000000000000e+03 5.275946807861328125e+01 3.536999893188476562e+01 7.199811935424804688e-01 2.678628206253051758e+00 1.019582867622375488e+00 -1.179810315370559692e-01
3.111000000000000000e+03 3.547622680664062500e+01 3.475946426391601562e+01 4.966877996921539307e-01 1.760852694511413574e+00 6.772621870040893555e-01 1.491659581661224365e-01
3.112000000000000000e+03 3.201763153076171875e+01 3.639631271362304688e+01 4.483403265476226807e-01 1.645431756973266602e+00 6.281316280364990234e-01 1.126617640256881714e-01
3.113000000000000000e+03 5.030248641967773438e+01 3.707816696166992188e+01 7.118122577667236328e-01 2.536200284957885742e+00 9.744037985801696777e-01 -3.866143897175788879e-02
3.114000000000000000e+03 2.774894905090332031e+01 3.689553070068359375e+01 3.661363124847412109e-01 1.504830718040466309e+00 5.612900853157043457e-01 1.124755367636680603e-01
3.115000000000000000e+03 1.052424907684326172e+01 1.806070089340209961e+00 5.805566310882568359e-01 1.721993207931518555e+00 6.907649636268615723e-01 -1.887201428413391113e+00
3.116000000000000000e+03 1.206872653961181641e+01 1.204614639282226562e+00 1.020877122879028320e+00 5.999234199523925781e+00 2.106033325195312500e+00 -3.748745441436767578e+00
3.117000000000000000e+03 1.263870716094970703e+01 1.012623310089111328e+00 9.025076627731323242e-01 9.873549461364746094e+00 3.232816934585571289e+00 -3.803390502929687500e+00
3.118000000000000000e+03 1.304226303100585938e+01 9.570550918579101562e-01 3.940769135951995850e-01 1.213237667083740234e+01 3.757936000823974609e+00 -2.505188703536987305e+00
3.119000000000000000e+03 9.821209907531738281e+00 -2.312914371490478516e+00 3.555127620697021484e+00 9.648780226707458496e-01 1.356001734733581543e+00 2.993722438812255859e+00
3.120000000000000000e+03 1.050178337097167969e+01 -1.807155013084411621e+00 4.917590141296386719e+00 7.941482067108154297e-01 1.713521480560302734e+00 2.899486303329467773e+00
3.121000000000000000e+03 1.124928092956542969e+01 -1.984966516494750977e+00 6.751030921936035156e+00 2.170700788497924805e+00 2.676519632339477539e+00 4.955634593963623047e+00
3.122000000000000000e+03 1.144052696228027344e+01 -2.026891708374023438e+00 7.075235366821289062e+00 2.779799938201904297e+00 2.956510543823242188e+00 5.453347682952880859e+00
3.123000000000000000e+03 1.162681865692138672e+01 -2.084065198898315430e+00 7.348825931549072266e+00 3.755528926849365234e+00 3.331306457519531250e+00 6.402106761932373047e+00
3.124000000000000000e+03 1.167536640167236328e+01 -2.424136161804199219e+00 6.227968215942382812e+00 4.809620857238769531e+00 3.311276674270629883e+00 6.664491653442382812e+00
3.125000000000000000e+03 1.904650688171386719e+01 2.866145372390747070e+00 3.531203269958496094e+00 -2.597298920154571533e-01 9.814420342445373535e-01 3.575591564178466797e+00
3.126000000000000000e+03 1.302509689331054688e+01 9.170589447021484375e+00 6.843941211700439453e-01 6.229661464691162109e+00 2.074216604232788086e+00 1.308152228593826294e-01
3.127000000000000000e+03 4.350867462158203125e+01 7.926576137542724609e+00 7.268338799476623535e-01 6.049691438674926758e-01 3.995409011840820312e-01 -3.568447828292846680e-01
3.128000000000000000e+03 4.654535675048828125e+01 5.857403755187988281e+00 1.662702083587646484e+00 3.871777653694152832e-01 6.149639487266540527e-01 -3.105700016021728516e-01
3.129000000000000000e+03 1.120648860931396484e+01 -2.222948551177978516e+00 6.230830669403076172e+00 2.633077383041381836e+00 2.659172534942626953e+00 5.308805942535400391e+00
3.130000000000000000e+03 1.138966083526611328e+01 -2.426711797714233398e+00 6.041746139526367188e+00 3.543402433395385742e+00 2.875544548034667969e+00 6.007019519805908203e+00
3.131000000000000000e+03 1.146038436889648438e+01 -2.641021251678466797e+00 5.550515174865722656e+00 4.535976409912109375e+00 3.025947570800781250e+00 6.255427360534667969e+00
3.132000000000000000e+03 1.185087585449218750e+01 -2.574989557266235352e+00 5.878162384033203125e+00 6.205840587615966797e+00 3.625200986862182617e+00 6.859881877899169922e+00
3.133000000000000000e+03 1.257689094543457031e+01 -3.447786808013916016e+00 2.694234609603881836e+00 8.757563591003417969e+00 3.435539484024047852e+00 5.475888729095458984e+00
3.134000000000000000e+03 1.228893184661865234e+01 -3.104546308517456055e+00 3.743335008621215820e+00 8.518638610839843750e+00 3.678591966629028320e+00 6.595975875854492188e+00
3.135000000000000000e+03 1.161436367034912109e+01 -2.837738037109375000e+00 4.840519428253173828e+00 5.215668201446533203e+00 3.016856193542480469e+00 6.538520336151123047e+00
3.136000000000000000e+03 1.197297668457031250e+01 -3.396376371383666992e+00 3.515957593917846680e+00 6.926842689514160156e+00 3.132840156555175781e+00 6.432786464691162109e+00
3.137000000000000000e+03 1.263769817352294922e+01 8.373886108398437500e+00 4.246171116828918457e-01 5.883522033691406250e+00 1.892441630363464355e+00 1.434251219034194946e-01
3.138000000000000000e+03 1.106895256042480469e+01 -3.048319578170776367e+00 4.258431434631347656e+00 3.899143934249877930e+00 2.447272539138793945e+00 5.914437770843505859e+00
3.139000000000000000e+03 1.179596805572509766e+01 -3.053636789321899414e+00 4.106195926666259766e+00 6.510385990142822266e+00 3.184974431991577148e+00 6.584716796875000000e+00
3.140000000000000000e+03 1.225567340850830078e+01 -3.816483736038208008e+00 2.353861570358276367e+00 7.582245826721191406e+00 2.980832338333129883e+00 5.795912265777587891e+00
3.141000000000000000e+03 1.120769977569580078e+01 -2.456988573074340820e+00 5.952166080474853516e+00 3.390342473983764648e+00 2.802752733230590820e+00 5.748580455780029297e+00
3.142000000000000000e+03 1.327554321289062500e+01 9.364261627197265625e-01 2.563842833042144775e-01 1.351007366180419922e+01 4.129937648773193359e+00 -1.469363927841186523e+00
3.143000000000000000e+03 1.336172389984130859e+01 1.330053567886352539e+00 5.450760945677757263e-02 1.228991889953613281e+01 3.703327894210815430e+00 -1.069498419761657715e+00
3.144000000000000000e+03 1.098923206329345703e+01 2.533528804779052734e+00 1.829719692468643188e-01 3.493546962738037109e+00 1.102955698966979980e+00 -2.369249105453491211e+00
3.145000000000000000e+03 1.211024570465087891e+01 1.912419915199279785e+00 2.008601576089859009e-01 6.229028224945068359e+00 1.928966403007507324e+00 -3.244868755340576172e+00
3.146000000000000000e+03 1.268331146240234375e+01 1.480431079864501953e+00 2.293238937854766846e-01 9.131900787353515625e+00 2.808367252349853516e+00 -3.165755510330200195e+00
3.147000000000000000e+03 1.319336414337158203e+01 1.537233233451843262e+00 1.367442756891250610e-01 1.099800586700439453e+01 3.340425014495849609e+00 -1.555490612983703613e+00
3.148000000000000000e+03 1.329664611816406250e+01 1.275615119934082031e+01 1.342064619064331055e+00 5.968811511993408203e+00 2.193262815475463867e+00 5.849323868751525879e-01
3.149000000000000000e+03 1.166823673248291016e+01 2.367083787918090820e+00 -2.329225651919841766e-02 5.024718284606933594e+00 1.500427722930908203e+00 -2.800750494003295898e+00
3.150000000000000000e+03 1.265848731994628906e+01 1.879787683486938477e+00 -1.693926602602005005e-01 8.550863265991210938e+00 2.514441251754760742e+00 -2.768157482147216797e+00
3.151000000000000000e+03 1.317789173126220703e+01 1.918964147567749023e+00 -5.327093005180358887e-01 9.778232574462890625e+00 2.773656845092773438e+00 -1.766701102256774902e+00
3.152000000000000000e+03 7.633261871337890625e+01 3.853105163574218750e+01 9.001491591334342957e-03 5.356304168701171875e+00 1.609591603279113770e+00 -5.172947794198989868e-02
3.153000000000000000e+03 9.590158462524414062e+00 -2.918950319290161133e+00 3.080150365829467773e+00 1.678850412368774414e+00 1.427700281143188477e+00 3.638139247894287109e+00
3.154000000000000000e+03 1.048165035247802734e+01 -3.064607858657836914e+00 3.962945699691772461e+00 2.545663356781005859e+00 1.952582836151123047e+00 5.033620834350585938e+00
3.155000000000000000e+03 8.576851844787597656e+00 -8.744935035705566406e+00 -2.989784002304077148e+00 8.690176010131835938e+00 1.710117459297180176e+00 3.931862115859985352e+00
3.156000000000000000e+03 2.205977821350097656e+01 2.135868787765502930e+00 3.436840534210205078e+00 1.976394057273864746e+00 1.623970389366149902e+00 3.165560722351074219e+00
3.157000000000000000e+03 2.562508964538574219e+01 1.637281608581542969e+01 -1.007801055908203125e+00 1.392465353012084961e+00 1.153992936015129089e-01 2.422177046537399292e-01
3.158000000000000000e+03 4.366438674926757812e+01 3.173216056823730469e+01 7.040367722511291504e-01 2.003110170364379883e+00 8.121440410614013672e-01 1.921198368072509766e-01
3.159000000000000000e+03 1.148228454589843750e+01 -9.905084609985351562e+00 -3.967086315155029297e+00 4.206463813781738281e+00 7.181327044963836670e-02 5.984215259552001953e+00
3.160000000000000000e+03 4.374774932861328125e+00 -1.410872173309326172e+01 2.162310361862182617e+00 3.334097385406494141e+00 1.648922324180603027e+00 4.740319550037384033e-01
3.161000000000000000e+03 7.040062713623046875e+01 -4.476644039154052734e+00 -1.614836931228637695e+00 1.150601673126220703e+01 2.967353820800781250e+00 -6.414219141006469727e-01
3.162000000000000000e+03 5.927039718627929688e+01 -3.582142257690429688e+01 2.181908041238784790e-01 1.660638809204101562e+00 5.636488795280456543e-01 1.813865602016448975e-01
3.163000000000000000e+03 1.102204895019531250e+01 -2.500801324844360352e+00 5.482361316680908203e+00 2.712875843048095703e+00 2.458571195602416992e+00 5.340005397796630859e+00
3.164000000000000000e+03 2.971836090087890625e+01 -3.476255416870117188e+01 -3.407405614852905273e-01 -2.177931070327758789e-01 -1.675601005554199219e-01 2.303817123174667358e-01
3.165000000000000000e+03 4.697302341461181641e+00 3.645177078247070312e+01 -1.508181449025869370e-02 1.075451493263244629e+00 3.181109130382537842e-01 -9.346220642328262329e-03
3.166000000000000000e+03 1.631698226928710938e+01 -9.936621665954589844e+00 -4.732323169708251953e+00 6.137091666460037231e-02 -1.401285648345947266e+00 1.016073584556579590e+00
3.167000000000000000e+03 1.026289749145507812e+01 -2.675591230392456055e+00 4.028412818908691406e+00 1.862676501274108887e+00 1.767326831817626953e+00 4.149924278259277344e+00
3.168000000000000000e+03 1.410252475738525391e+01 5.507282257080078125e+00 -2.399898052215576172e+00 6.554090976715087891e+00 1.246257901191711426e+00 -3.402658402919769287e-01
3.169000000000000000e+03 1.397554969787597656e+01 4.978136062622070312e+00 -2.532411575317382812e+00 6.559722900390625000e+00 1.208193421363830566e+00 -6.405740976333618164e-01
3.170000000000000000e+03 1.072744274139404297e+01 -2.822735786437988281e+00 4.428265094757080078e+00 2.778946638107299805e+00 2.162163496017456055e+00 5.077715873718261719e+00
3.171000000000000000e+03 1.015120029449462891e+01 -3.259718894958496094e+00 3.343047142028808594e+00 2.618846654891967773e+00 1.788568139076232910e+00 4.712554454803466797e+00
3.172000000000000000e+03 4.356891632080078125e+01 -1.533449935913085938e+01 -2.508633613586425781e+00 -1.955724693834781647e-02 -7.584573030471801758e-01 -7.317612171173095703e-01
3.173000000000000000e+03 5.286666870117187500e+01 2.569691085815429688e+01 9.388630986213684082e-01 2.166109085083007812e+00 9.314916729927062988e-01 -3.733054697513580322e-01
3.174000000000000000e+03 5.986415100097656250e+01 8.629673957824707031e+00 4.170486330986022949e-01 2.726101398468017578e+00 9.429450035095214844e-01 -1.047526240348815918e+00
3.175000000000000000e+03 6.227579116821289062e+01 1.240569591522216797e+01 5.494183897972106934e-01 3.589406490325927734e+00 1.241647481918334961e+00 -1.188800215721130371e+00
3.176000000000000000e+03 9.027194976806640625e+00 -4.199083328247070312e+00 1.468588829040527344e+00 2.835098981857299805e+00 1.291106343269348145e+00 4.050436496734619141e+00
3.177000000000000000e+03 9.975786209106445312e+00 -3.918169021606445312e+00 2.271075963973999023e+00 3.271106243133544922e+00 1.662654638290405273e+00 4.911370754241943359e+00
3.178000000000000000e+03 2.946977424621582031e+01 9.125815391540527344e+00 1.896820664405822754e+00 2.627301692962646484e+00 1.357236742973327637e+00 2.011453390121459961e+00
3.179000000000000000e+03 1.163894939422607422e+01 -8.537878990173339844e+00 -2.323719501495361328e+00 4.054329395294189453e+00 5.191829800605773926e-01 6.157447814941406250e+00
3.180000000000000000e+03 1.038025474548339844e+01 -7.560583114624023438e+00 -2.132832527160644531e+00 6.164271831512451172e+00 1.209431767463684082e+00 5.920622825622558594e+00
3.181000000000000000e+03 4.818363666534423828e+00 -1.059706783294677734e+01 2.665331773459911346e-02 4.650054931640625000e+00 1.403012514114379883e+00 -8.307144641876220703e-01
3.182000000000000000e+03 7.158326721191406250e+01 -1.846717834472656250e+01 -4.201955795288085938e-01 1.049052238464355469e+01 3.021098136901855469e+00 -1.165256023406982422e+00
3.183000000000000000e+03 2.251366424560546875e+01 2.728008270263671875e+01 1.984152942895889282e-01 1.232562780380249023e+00 4.292934536933898926e-01 4.274944067001342773e-01
3.184000000000000000e+03 1.006471538543701172e+01 1.774572753906250000e+01 -1.141681522130966187e-01 2.770712852478027344e+00 7.969633936882019043e-01 -5.095131993293762207e-01
3.185000000000000000e+03 1.322167587280273438e+01 4.891530990600585938e+00 -2.062361240386962891e+00 6.656599521636962891e+00 1.378271460533142090e+00 -9.100825786590576172e-01
3.186000000000000000e+03 1.191984939575195312e+01 2.721694946289062500e+00 -3.707191646099090576e-01 5.630090236663818359e+00 1.577811360359191895e+00 -2.691116094589233398e+00
3.187000000000000000e+03 1.227412414550781250e+01 2.959220409393310547e+00 -7.244540452957153320e-01 6.465039253234863281e+00 1.722175598144531250e+00 -2.484995365142822266e+00
3.188000000000000000e+03 7.669540405273437500e+00 -9.024150848388671875e+00 -1.871087789535522461e+00 7.591963291168212891e+00 1.716262578964233398e+00 1.923860788345336914e+00
3.189000000000000000e+03 1.290183639526367188e+01 2.208500385284423828e+00 -6.813176274299621582e-01 8.553666114807128906e+00 2.361704349517822266e+00 -2.217812538146972656e+00
3.190000000000000000e+03 5.720261383056640625e+01 -6.623444557189941406e+00 -2.410272121429443359e+00 -3.810118734836578369e-01 -8.373851776123046875e-01 -9.292488694190979004e-01
3.191000000000000000e+03 7.987797260284423828e+00 -8.407427787780761719e+00 -2.733497142791748047e+00 8.429932594299316406e+00 1.708930492401123047e+00 2.591736316680908203e+00
3.192000000000000000e+03 1.959694862365722656e+01 2.292227172851562500e+01 9.157681837677955627e-03 1.177445292472839355e+00 3.559808731079101562e-01 9.204224348068237305e-01
3.193000000000000000e+03 1.391205787658691406e+01 -5.399915218353271484e+00 6.758604645729064941e-01 5.768980979919433594e+00 1.933452367782592773e+00 3.217661380767822266e+00
3.194000000000000000e+03 7.632094573974609375e+01 -3.626867675781250000e+01 -1.382525265216827393e-01 1.025622749328613281e+01 3.035392284393310547e+00 -5.332100018858909607e-02
3.195000000000000000e+03 7.628850555419921875e+01 3.612119674682617188e+01 2.163917198777198792e-02 5.410504341125488281e+00 1.629643082618713379e+00 -9.810143709182739258e-02
3.196000000000000000e+03 7.558615875244140625e+01 -1.289085674285888672e+01 1.043969035148620605e+00 8.531708717346191406e+00 2.872703313827514648e+00 -9.559264183044433594e-01
3.197000000000000000e+03 2.265940666198730469e+01 2.469003486633300781e+01 1.894870400428771973e-01 1.041072249412536621e+00 3.691677749156951904e-01 4.805933237075805664e-01
3.198000000000000000e+03 8.645574569702148438e+00 -4.920444965362548828e+00 5.964770317077636719e-01 3.416592597961425781e+00 1.203920841217041016e+00 3.847267389297485352e+00
3.199000000000000000e+03 9.712072372436523438e+00 -4.635145664215087891e+00 1.222732067108154297e+00 3.826892852783203125e+00 1.514887452125549316e+00 4.989852428436279297e+00
3.200000000000000000e+03 4.273492431640625000e+01 2.531603050231933594e+01 6.867362856864929199e-01 1.909106135368347168e+00 7.787526845932006836e-01 5.109738707542419434e-01
3.201000000000000000e+03 6.191456222534179688e+01 -2.956404304504394531e+01 -4.833550453186035156e-01 2.451273679733276367e+00 5.903756022453308105e-01 4.307952225208282471e-01
3.202000000000000000e+03 6.320090484619140625e+01 1.205495357513427734e+01 4.864007234573364258e-01 3.732632637023925781e+00 1.265709996223449707e+00 -1.273349881172180176e+00
3.203000000000000000e+03 6.373438262939453125e+01 1.270777320861816406e+01 4.921966195106506348e-01 3.913064241409301758e+00 1.321578264236450195e+00 -1.246670722961425781e+00
3.204000000000000000e+03 6.392282867431640625e+01 1.113151645660400391e+01 4.119627773761749268e-01 3.918564558029174805e+00 1.299158215522766113e+00 -1.324934840202331543e+00
3.205000000000000000e+03 1.256006717681884766e+01 3.670774698257446289e+00 -1.379644751548767090e+00 6.506157398223876953e+00 1.537953853607177734e+00 -1.775909304618835449e+00
3.206000000000000000e+03 1.412519264221191406e+01 -6.292379379272460938e+00 -1.650280058383941650e-01 4.353223800659179688e+00 1.256458759307861328e+00 3.200948238372802734e+00
3.207000000000000000e+03 3.451615142822265625e+01 1.262582588195800781e+01 8.746381402015686035e-01 1.848554968833923340e+00 8.169579505920410156e-01 1.453559637069702148e+00
3.208000000000000000e+03 5.720455169677734375e+01 -3.549120903015136719e+00 -1.031675577163696289e+00 -1.224652826786041260e-01 -3.462422490119934082e-01 -7.238539457321166992e-01
3.209000000000000000e+03 7.230061340332031250e+01 -1.005257129669189453e+01 2.741021633148193359e+00 1.189259147644042969e+01 4.390083789825439453e+00 2.782724797725677490e-01
3.210000000000000000e+03 7.423369598388671875e+01 -1.822317314147949219e+01 -2.333352863788604736e-01 9.972013473510742188e+00 2.921603441238403320e+00 -1.788121342658996582e+00
3.211000000000000000e+03 7.505099487304687500e+01 -1.800841522216796875e+01 -9.761874377727508545e-02 9.256240844726562500e+00 2.747586488723754883e+00 -1.783324956893920898e+00
3.212000000000000000e+03 1.034533500671386719e+01 6.392441749572753906e+00 -2.819471657276153564e-01 3.892282247543334961e+00 1.083100438117980957e+00 -3.592368960380554199e-01
3.213000000000000000e+03 6.670316219329833984e+00 -2.818158149719238281e+01 -6.555607914924621582e-01 4.367217063903808594e+00 1.113496780395507812e+00 6.089420914649963379e-01
3.214000000000000000e+03 9.261835098266601562e+00 1.292842674255371094e+01 7.818710207939147949e-01 2.732804536819458008e+00 1.054402709007263184e+00 -4.044318199157714844e-01
3.215000000000000000e+03 5.761964321136474609e+00 5.232234477996826172e+00 2.422484308481216431e-01 5.302813649177551270e-01 2.317589521408081055e-01 2.473306804895401001e-01
3.216000000000000000e+03 1.152858352661132812e+01 5.428847312927246094e+00 -1.049026370048522949e+00 5.031174659729003906e+00 1.194644570350646973e+00 -8.879486322402954102e-01
3.217000000000000000e+03 2.595901489257812500e+01 -1.232183742523193359e+01 -3.382874250411987305e+00 5.995230674743652344e-01 -8.350053429603576660e-01 9.740076959133148193e-02
3.218000000000000000e+03 3.668203353881835938e+01 1.365550708770751953e+01 8.317683935165405273e-01 1.816262125968933105e+00 7.944091558456420898e-01 1.224437236785888672e+00
3.219000000000000000e+03 1.338857269287109375e+01 -2.911273765563964844e+01 -5.813346505165100098e-01 2.835329055786132812e+00 6.761983036994934082e-01 -3.524433076381683350e-01
3.220000000000000000e+03 6.527657985687255859e+00 -7.503582000732421875e+00 -1.398600816726684570e+00 4.924180030822753906e+00 1.057673692703247070e+00 1.179892659187316895e+00
3.221000000000000000e+03 3.687434387207031250e+01 2.241602325439453125e+01 4.326662123203277588e-01 1.969285011291503906e+00 7.205854058265686035e-01 5.721415281295776367e-01
3.222000000000000000e+03 2.021567916870117188e+01 2.416250038146972656e+01 7.760789990425109863e-02 1.157138347625732422e+00 3.704238533973693848e-01 7.191270589828491211e-01
3.223000000000000000e+03 8.071299552917480469e+00 1.307770633697509766e+01 6.072893738746643066e-01 2.056984424591064453e+00 7.992820739746093750e-01 -4.417129755020141602e-01
3.224000000000000000e+03 2.768916893005371094e+01 2.418410301208496094e+01 1.444823890924453735e-01 1.407131791114807129e+00 4.654842615127563477e-01 2.649066448211669922e-01
3.225000000000000000e+03 2.973395919799804688e+01 2.307183074951171875e+01 8.366473019123077393e-02 1.615573406219482422e+00 5.097714662551879883e-01 3.028809726238250732e-01
3.226000000000000000e+03 6.304288101196289062e+01 2.379864883422851562e+01 4.823697209358215332e-01 3.972859382629394531e+00 1.336568713188171387e+00 -6.603439450263977051e-01
3.227000000000000000e+03 2.601923179626464844e+01 2.353406143188476562e+01 1.218147426843643188e-01 1.227442145347595215e+00 4.047770500183105469e-01 2.693118751049041748e-01
3.228000000000000000e+03 8.746886253356933594e+00 1.359566211700439453e+01 6.705928444862365723e-01 2.473469257354736328e+00 9.432186484336853027e-01 -4.540892243385314941e-01
3.229000000000000000e+03 5.794549942016601562e+01 -3.027255439758300781e+01 -5.085499882698059082e-01 5.344952940940856934e-01 7.783604785799980164e-03 -4.737059026956558228e-02
3.230000000000000000e+03 1.050151729583740234e+01 -4.886860370635986328e+00 1.037109613418579102e+00 4.639089107513427734e+00 1.702859640121459961e+00 5.510941028594970703e+00
3.231000000000000000e+03 3.588943862915039062e+01 2.147248077392578125e+01 3.649836778640747070e-01 1.949210166931152344e+00 6.942581534385681152e-01 6.124124526977539062e-01
3.232000000000000000e+03 6.670608520507812500e+01 -2.726978302001953125e+01 -9.007895588874816895e-01 5.730886936187744141e+00 1.449029207229614258e+00 4.946559965610504150e-01
3.233000000000000000e+03 2.679578971862792969e+01 -1.925767660140991211e+00 1.589785695075988770e+00 1.246414780616760254e+00 8.508601188659667969e-01 4.482802152633666992e-01
3.234000000000000000e+03 6.676098632812500000e+01 1.889352035522460938e+01 4.169624149799346924e-01 4.582902431488037109e+00 1.499959468841552734e+00 -8.862773776054382324e-01
3.235000000000000000e+03 6.492691040039062500e+01 2.279690170288085938e+01 4.332391321659088135e-01 4.244507312774658203e+00 1.403323888778686523e+00 -7.017122507095336914e-01
3.236000000000000000e+03 6.955432891845703125e+01 1.684600830078125000e+01 2.754538357257843018e-01 5.170487880706787109e+00 1.633782505989074707e+00 -9.050341844558715820e-01
3.237000000000000000e+03 6.697046661376953125e+01 1.143171787261962891e+01 2.407095283269882202e-01 4.768107891082763672e+00 1.502645254135131836e+00 -1.283054828643798828e+00
3.238000000000000000e+03 2.082371330261230469e+01 -4.700465679168701172e+00 2.144201517105102539e+00 7.598332166671752930e-01 8.712104558944702148e-01 2.621441148221492767e-02
3.239000000000000000e+03 8.477398872375488281e+00 -5.671806335449218750e+00 -1.869101524353027344e-01 4.234165668487548828e+00 1.214176654815673828e+00 3.903278112411499023e+00
3.240000000000000000e+03 3.679597473144531250e+01 1.906954050064086914e+00 1.187288880348205566e+00 6.055178046226501465e-01 5.378420352935791016e-01 8.271863311529159546e-02
3.241000000000000000e+03 4.916323089599609375e+01 -1.677067518234252930e+00 -2.275222837924957275e-01 1.273073852062225342e-01 -3.006446920335292816e-02 -2.924999594688415527e-01
3.242000000000000000e+03 4.450119781494140625e+01 -9.839121818542480469e+00 -1.801182746887207031e+00 1.925872266292572021e-01 -4.825786650180816650e-01 -6.800584197044372559e-01
3.243000000000000000e+03 7.944171428680419922e+00 1.111233234405517578e+01 7.553535103797912598e-01 1.983817815780639648e+00 8.217514157295227051e-01 -2.203039079904556274e-01
3.244000000000000000e+03 7.209050655364990234e+00 2.436509132385253906e+01 -2.901310026645660400e-01 1.512665987014770508e+00 3.667604923248291016e-01 -2.977896332740783691e-01
3.245000000000000000e+03 7.258345603942871094e+00 2.341576766967773438e+01 -2.931376993656158447e-01 1.606360793113708496e+00 3.939669430255889893e-01 -3.571639657020568848e-01
3.246000000000000000e+03 6.832365417480468750e+01 1.821599769592285156e+01 3.319706022739410400e-01 4.914587497711181641e+00 1.573967456817626953e+00 -8.702121376991271973e-01
3.247000000000000000e+03 6.796244049072265625e+01 1.903308868408203125e+01 3.378095626831054688e-01 4.842338562011718750e+00 1.554044485092163086e+00 -8.157467842102050781e-01
3.248000000000000000e+03 3.023646736145019531e+01 -1.242863237857818604e-01 1.589165568351745605e+00 1.198839426040649414e+00 8.364014625549316406e-01 1.902589201927185059e-01
3.249000000000000000e+03 3.865767669677734375e+01 -3.491921663284301758e+00 -6.870698928833007812e-02 4.369850456714630127e-01 1.104834154248237610e-01 -4.020975828170776367e-01
3.250000000000000000e+03 3.984764862060546875e+01 -4.315689086914062500e+00 -3.430624306201934814e-01 3.909506499767303467e-01 1.436645910143852234e-02 -4.304397702217102051e-01
3.251000000000000000e+03 6.835326671600341797e+00 1.267133998870849609e+01 5.410490632057189941e-01 1.491348981857299805e+00 6.097193956375122070e-01 -3.635368645191192627e-01
3.252000000000000000e+03 2.076688003540039062e+01 -3.590790748596191406e+00 3.143204689025878906e+00 6.661599278450012207e-01 1.142809391021728516e+00 5.600953698158264160e-01
3.253000000000000000e+03 6.916176605224609375e+01 1.870360374450683594e+01 3.089325726032257080e-01 5.003668308258056641e+00 1.593780279159545898e+00 -8.320211768150329590e-01
3.254000000000000000e+03 5.663846015930175781e+00 1.548795700073242188e+01 2.183460295200347900e-01 1.047442793846130371e+00 3.797366619110107422e-01 -5.612433552742004395e-01
3.255000000000000000e+03 4.414261627197265625e+01 -7.146247863769531250e+00 -1.237231373786926270e+00 2.397638410329818726e-01 -2.992402613162994385e-01 -5.378218293190002441e-01
3.256000000000000000e+03 6.742179107666015625e+01 1.300141429901123047e+01 2.855213880538940430e-01 4.821160793304443359e+00 1.532004594802856445e+00 -1.188581228256225586e+00
3.257000000000000000e+03 7.183552551269531250e+01 2.008348083496093750e+01 1.766198426485061646e-01 5.479600906372070312e+00 1.696866273880004883e+00 -6.698940396308898926e-01
3.258000000000000000e+03 7.227219390869140625e+01 1.394859433174133301e+00 -1.046483039855957031e+00 8.018000602722167969e+00 2.091455459594726562e+00 -7.088161110877990723e-01
3.259000000000000000e+03 6.867250061035156250e+01 1.957849884033203125e+01 3.151760995388031006e-01 4.930677413940429688e+00 1.573755979537963867e+00 -8.262901306152343750e-01
3.260000000000000000e+03 7.017977905273437500e+01 4.458085060119628906e+00 -5.777460932731628418e-01 6.488924026489257812e+00 1.773353338241577148e+00 -1.300349593162536621e+00
3.261000000000000000e+03 7.311525726318359375e+01 2.756489276885986328e+00 -7.523139119148254395e-01 7.715928077697753906e+00 2.089084148406982422e+00 -5.906410813331604004e-01
3.262000000000000000e+03 7.031230926513671875e+01 3.601971626281738281e+00 -7.520089745521545410e-01 6.800521850585937500e+00 1.814553856849670410e+00 -1.334089994430541992e+00
3.263000000000000000e+03 6.818415832519531250e+01 2.048012161254882812e+01 3.309319019317626953e-01 4.848486900329589844e+00 1.553825616836547852e+00 -7.553173899650573730e-01
3.264000000000000000e+03 2.865636062622070312e+01 -3.169253587722778320e+00 8.056275844573974609e-01 9.987198710441589355e-01 5.413042306900024414e-01 -8.124507963657379150e-02
3.265000000000000000e+03 3.086806297302246094e+01 -1.178439712524414062e+01 -2.465357303619384766e+00 6.319758892059326172e-01 -5.500144362449645996e-01 -3.161077797412872314e-01
3.266000000000000000e+03 7.001933288574218750e+01 1.926577377319335938e+01 2.657255530357360840e-01 5.197741508483886719e+00 1.639040112495422363e+00 -7.469802498817443848e-01
3.267000000000000000e+03 3.571701049804687500e+01 -1.045082950592041016e+01 -1.811394572257995605e+00 5.392811894416809082e-01 -3.816340267658233643e-01 -5.416860580444335938e-01
3.268000000000000000e+03 3.029948616027832031e+01 -4.262073040008544922e+00 2.128262817859649658e-01 8.615312576293945312e-01 3.223072588443756104e-01 -2.892613708972930908e-01
3.269000000000000000e+03 3.235918045043945312e+01 -9.507493972778320312e+00 -1.660468101501464844e+00 6.587867736816406250e-01 -3.005043864250183105e-01 -5.036231279373168945e-01
3.270000000000000000e+03 9.862387657165527344e+00 3.480751514434814453e-01 -1.519353985786437988e+00 2.260775305330753326e-02 -4.490238726139068604e-01 2.584821730852127075e-02
3.271000000000000000e+03 9.733107566833496094e+00 1.318532377481460571e-01 -2.308980464935302734e+00 3.712878795340657234e-03 -6.915802955627441406e-01 1.128878146409988403e-01
3.272000000000000000e+03 9.339722633361816406e+00 1.113515496253967285e+00 -5.232640504837036133e-01 2.309285551309585571e-01 -8.770065009593963623e-02 -3.447583615779876709e-01
3.273000000000000000e+03 8.305199623107910156e+00 4.156129062175750732e-01 -1.831717848777770996e+00 -2.517073787748813629e-02 -5.570665597915649414e-01 5.729696527123451233e-02
3.274000000000000000e+03 6.767772674560546875e+00 4.106091260910034180e-01 -1.510365247726440430e+00 5.213706754148006439e-03 -4.515454769134521484e-01 1.001573055982589722e-01
3.275000000000000000e+03 5.994542598724365234e+00 4.071750044822692871e-01 -1.288860559463500977e+00 1.110268291085958481e-02 -3.833273649215698242e-01 1.206711232662200928e-01
3.276000000000000000e+03 4.442148685455322266e+00 4.031618833541870117e-01 -7.943422794342041016e-01 4.319360945373773575e-03 -2.370068728923797607e-01 1.319382041692733765e-01
3.277000000000000000e+03 3.634203433990478516e+00 3.944635987281799316e-01 -5.467570424079895020e-01 -9.570159018039703369e-03 -1.668981611728668213e-01 1.197399795055389404e-01
3.278000000000000000e+03 2.791084766387939453e+00 3.432030975818634033e-01 -3.456753194332122803e-01 -1.778824068605899811e-02 -1.090390682220458984e-01 8.880807459354400635e-02
3.279000000000000000e+03 1.995248794555664062e+00 2.976326644420623779e-01 -1.445432752370834351e-01 -5.237141158431768417e-03 -4.493412747979164124e-02 5.959273502230644226e-02
3.280000000000000000e+03 1.051136493682861328e+00 1.131745100021362305e+00 -6.696256995201110840e-02 -7.892824709415435791e-02 -4.376724362373352051e-02 1.005021482706069946e-01
3.281000000000000000e+03 2.102942228317260742e+00 8.064057230949401855e-01 -2.136766761541366577e-01 -2.042186073958873749e-02 -7.022956013679504395e-02 1.418659240007400513e-01
3.282000000000000000e+03 6.558868885040283203e-01 3.917450308799743652e-01 -1.360611524432897568e-02 -4.871423356235027313e-03 -5.543261300772428513e-03 7.364104967564344406e-03
3.283000000000000000e+03 3.725740015506744385e-01 9.587733745574951172e-01 -9.260459803044795990e-03 -3.181666880846023560e-02 -1.232313923537731171e-02 2.446701936423778534e-02
3.284000000000000000e+03 3.357371330261230469e+00 1.218883156776428223e+00 -3.690998554229736328e-01 -4.127785563468933105e-02 -1.231133118271827698e-01 2.874828279018402100e-01
3.285000000000000000e+03 4.872529029846191406e+00 1.143161892890930176e+00 -6.828734874725341797e-01 4.263831768184900284e-03 -2.035828977823257446e-01 3.115547895431518555e-01
3.286000000000000000e+03 5.221405506134033203e+00 4.071427881717681885e-01 -1.046764492988586426e+00 -7.420048932544887066e-04 -3.142519593238830566e-01 1.247151568531990051e-01
3.287000000000000000e+03 5.658812046051025391e+00 1.147142767906188965e+00 -8.169696331024169922e-01 3.003240376710891724e-02 -2.360811829566955566e-01 3.016452491283416748e-01
3.288000000000000000e+03 7.219231128692626953e+00 1.150609135627746582e+00 -9.775664806365966797e-01 7.883169502019882202e-02 -2.696204185485839844e-01 1.915405094623565674e-01
3.289000000000000000e+03 7.540575027465820312e+00 4.127339422702789307e-01 -1.691676259040832520e+00 2.186921238899230957e-02 -5.009421110153198242e-01 8.305846899747848511e-02
3.290000000000000000e+03 7.999059677124023438e+00 1.152733922004699707e+00 -9.477916955947875977e-01 8.367327600717544556e-02 -2.592355310916900635e-01 7.340549677610397339e-02
3.291000000000000000e+03 9.593125343322753906e+00 6.104695796966552734e-01 -1.240566492080688477e+00 2.858347073197364807e-02 -3.635948896408081055e-01 -2.191663533449172974e-01
3.292000000000000000e+03 9.601960182189941406e+00 9.803547263145446777e-01 -3.823364675045013428e-01 1.773482859134674072e-01 -6.149645149707794189e-02 -4.262406826019287109e-01
3.293000000000000000e+03 9.293831825256347656e+00 7.637788057327270508e-01 -1.007512569427490234e+00 1.810598969459533691e-01 -2.479358017444610596e-01 -2.188329249620437622e-01
3.294000000000000000e+03 9.760870933532714844e+00 8.291769027709960938e-01 -5.075076818466186523e-01 1.128187105059623718e-01 -1.184066906571388245e-01 -4.839854240417480469e-01
3.295000000000000000e+03 9.850983619689941406e+00 1.371766448020935059e+00 2.630962617695331573e-02 5.739516019821166992e-01 1.800783723592758179e-01 -8.871354460716247559e-01
3.296000000000000000e+03 9.479928016662597656e+00 3.122200369834899902e-01 -2.033545255661010742e+00 -3.687665611505508423e-02 -6.211265921592712402e-01 3.594933822751045227e-02
3.297000000000000000e+03 9.969187736511230469e+00 7.631572484970092773e-01 -5.308820605278015137e-01 1.357500553131103516e-01 -1.185396015644073486e-01 -5.037386417388916016e-01
3.298000000000000000e+03 9.937090873718261719e+00 1.139438986778259277e+00 -1.560021340847015381e-01 3.482903242111206055e-01 5.768645182251930237e-02 -7.495266795158386230e-01
3.299000000000000000e+03 9.907911300659179688e+00 5.596482157707214355e-01 -1.065517425537109375e+00 3.337927907705307007e-02 -3.096414506435394287e-01 -2.479487508535385132e-01
3.300000000000000000e+03 8.770710945129394531e+00 1.155612945556640625e+00 -7.134515047073364258e-01 1.691590398550033569e-01 -1.632877290248870850e-01 -1.514542549848556519e-01
3.301000000000000000e+03 8.980137825012207031e+00 3.415005803108215332e-01 -1.942762732505798340e+00 2.042234875261783600e-02 -5.767021179199218750e-01 8.738113939762115479e-02
3.302000000000000000e+03 6.438975334167480469e+00 1.147174954414367676e+00 -9.243755340576171875e-01 3.686034679412841797e-02 -2.662545740604400635e-01 2.539432048797607422e-01
3.303000000000000000e+03 4.057557582855224609e+00 1.134463548660278320e+00 -5.311475396156311035e-01 -7.373936008661985397e-03 -1.615564525127410889e-01 3.044332563877105713e-01
3.304000000000000000e+03 1.576921343803405762e+00 9.558052420616149902e-01 -1.238598152995109558e-01 -5.447742342948913574e-02 -5.350117385387420654e-02 1.300404816865921021e-01
3.305000000000000000e+03 9.982230186462402344e+00 9.472494125366210938e-01 -1.216132789850234985e-01 2.144278287887573242e-01 2.784436754882335663e-02 -6.476115584373474121e-01
3.306000000000000000e+03 1.292840480804443359e+00 3.331324458122253418e-01 -4.068671911954879761e-02 -1.727997139096260071e-02 -1.739000715315341949e-02 2.519695274531841278e-02
3.307000000000000000e+03 2.048810958862304688e+00 1.268773078918457031e+00 -1.781998276710510254e-01 -8.296536654233932495e-02 -7.834956049919128418e-02 2.208735942840576172e-01
3.308000000000000000e+03 2.725619792938232422e+00 1.289252281188964844e+00 -2.476093620061874390e-01 -6.896924227476119995e-02 -9.497357904911041260e-02 2.793637812137603760e-01
3.309000000000000000e+03 2.799140214920043945e+00 8.724553585052490234e-01 -3.249470591545104980e-01 -3.547323867678642273e-02 -1.081260889768600464e-01 2.093450874090194702e-01
3.310000000000000000e+03 1.281142616271972656e+01 -7.154834270477294922e-01 4.260286712646484375e+01 2.440604686737060547e+00 1.351304149627685547e+01 1.675651192665100098e+00
3.311000000000000000e+03 1.281058502197265625e+01 -7.349345684051513672e-01 4.523746871948242188e+01 6.915327548980712891e+00 1.564583873748779297e+01 1.331620407104492188e+01
3.312000000000000000e+03 1.281354808807373047e+01 -7.541772723197937012e-01 4.530147171020507812e+01 1.505144882202148438e+01 1.810587692260742188e+01 1.969329261779785156e+01
3.313000000000000000e+03 1.282019996643066406e+01 -7.724749445915222168e-01 4.244253540039062500e+01 2.365458106994628906e+01 1.982913398742675781e+01 2.433917808532714844e+01
3.314000000000000000e+03 1.283028697967529297e+01 -7.891274094581604004e-01 3.894385147094726562e+01 3.343074417114257812e+01 2.171237754821777344e+01 2.615016746520996094e+01
3.315000000000000000e+03 1.284342288970947266e+01 -8.034973144531250000e-01 3.406980514526367188e+01 4.234228515625000000e+01 2.292362785339355469e+01 2.577144432067871094e+01
3.316000000000000000e+03 1.285910606384277344e+01 -8.150347471237182617e-01 2.998420524597167969e+01 5.020470046997070312e+01 2.405667114257812500e+01 2.296039962768554688e+01
3.317000000000000000e+03 1.287673473358154297e+01 -8.232980966567993164e-01 2.652001380920410156e+01 5.582513046264648438e+01 2.470354270935058594e+01 1.846368026733398438e+01
3.318000000000000000e+03 1.289563465118408203e+01 -8.279711008071899414e-01 2.494304466247558594e+01 5.916510391235351562e+01 2.523244476318359375e+01 1.284455871582031250e+01
3.319000000000000000e+03 1.291508293151855469e+01 -8.288749456405639648e-01 2.484624290466308594e+01 5.978481674194335938e+01 2.538931846618652344e+01 7.168981552124023438e+00
3.320000000000000000e+03 1.293433475494384766e+01 -8.259750604629516602e-01 2.650660133361816406e+01 5.820973587036132812e+01 2.541490173339843750e+01 2.134038448333740234e+00
3.321000000000000000e+03 1.295265388488769531e+01 -8.193824291229248047e-01 2.959305191040039062e+01 5.505430221557617188e+01 2.539420509338378906e+01 -1.612624406814575195e+00
3.322000000000000000e+03 1.296933937072753906e+01 -8.093492984771728516e-01 3.305094528198242188e+01 5.079217910766601562e+01 2.515293693542480469e+01 -3.819048404693603516e+00
3.323000000000000000e+03 1.298375129699707031e+01 -7.962596416473388672e-01 3.702115631103515625e+01 4.654816436767578125e+01 2.507079505920410156e+01 -4.254038810729980469e+00
3.324000000000000000e+03 1.299533939361572266e+01 -7.806145548820495605e-01 4.038441085815429688e+01 4.250570678710937500e+01 2.486703491210937500e+01 -3.254852294921875000e+00
3.325000000000000000e+03 1.300366020202636719e+01 -7.630127072334289551e-01 4.331657028198242188e+01 3.962184143066406250e+01 2.488152313232421875e+01 -8.398708701133728027e-01
3.326000000000000000e+03 1.300839424133300781e+01 -7.441276311874389648e-01 4.489887237548828125e+01 3.761212158203125000e+01 2.475329780578613281e+01 2.355356454849243164e+00
3.327000000000000000e+03 1.300936126708984375e+01 -7.246822118759155273e-01 4.547932815551757812e+01 3.768389511108398438e+01 2.494896697998046875e+01 6.302280902862548828e+00
3.328000000000000000e+03 1.300652408599853516e+01 -7.054206132888793945e-01 4.423265457153320312e+01 3.864670562744140625e+01 2.486380767822265625e+01 1.014978790283203125e+01
3.329000000000000000e+03 1.299999046325683594e+01 -6.870801448822021484e-01 4.156655502319335938e+01 4.192550659179687500e+01 2.504761886596679688e+01 1.359838008880615234e+01
3.330000000000000000e+03 1.299001121520996094e+01 -6.703626513481140137e-01 3.726685333251953125e+01 4.591242218017578125e+01 2.495378303527832031e+01 1.591258811950683594e+01
3.331000000000000000e+03 1.297696781158447266e+01 -6.559079289436340332e-01 3.172810745239257812e+01 5.099387741088867188e+01 2.481659507751464844e+01 1.657306671142578125e+01
3.332000000000000000e+03 1.296135997772216797e+01 -6.442692279815673828e-01 2.574281120300292969e+01 5.572415161132812500e+01 2.444008827209472656e+01 1.528035926818847656e+01
3.333000000000000000e+03 1.294378471374511719e+01 -6.358919739723205566e-01 1.984855651855468750e+01 5.977256393432617188e+01 2.388633728027343750e+01 1.180698490142822266e+01
3.334000000000000000e+03 1.292491531372070312e+01 -6.310967803001403809e-01 1.460803031921386719e+01 6.162722015380859375e+01 2.287057495117187500e+01 6.876744270324707031e+00
3.335000000000000000e+03 1.290547370910644531e+01 -6.300672292709350586e-01 1.123319625854492188e+01 6.129164123535156250e+01 2.175745201110839844e+01 6.968341469764709473e-01
3.336000000000000000e+03 1.288620281219482422e+01 -6.328426599502563477e-01 8.979803085327148438e+00 5.799693298339843750e+01 2.009302139282226562e+01 -5.494437217712402344e+00
3.337000000000000000e+03 1.286784076690673828e+01 -6.393167972564697266e-01 8.827421188354492188e+00 5.218927764892578125e+01 1.830500984191894531e+01 -1.117075347900390625e+01
3.338000000000000000e+03 1.285109138488769531e+01 -6.492419838905334473e-01 9.381859779357910156e+00 4.425644683837890625e+01 1.609149169921875000e+01 -1.537729549407958984e+01
3.339000000000000000e+03 1.283659458160400391e+01 -6.622382998466491699e-01 1.153732585906982422e+01 3.450090789794921875e+01 1.381147003173828125e+01 -1.777016258239746094e+01
3.340000000000000000e+03 1.282490634918212891e+01 -6.778084039688110352e-01 1.358182239532470703e+01 2.410369110107421875e+01 1.130565452575683594e+01 -1.793004608154296875e+01
3.341000000000000000e+03 1.281647205352783203e+01 -6.953562498092651367e-01 1.895094871520996094e+01 1.057329177856445312e+01 8.857272148132324219e+00 -1.298619937896728516e+01
