# el_label, x, y, sXX, sYY, sZZ, sXY
1.000000000000000000e+00 1.541286087036132812e+01 -1.750774741172790527e+00 5.414330005645751953e+00 1.892998963594436646e-01 1.681089043617248535e+00 -4.169543743133544922e+00
2.000000000000000000e+00 1.522110080718994141e+01 -1.697433829307556152e+00 8.273684501647949219e+00 1.075076222419738770e+00 2.804628133773803711e+00 -1.739530444145202637e+00
3.000000000000000000e+00 1.502933979034423828e+01 -1.644093036651611328e+00 5.761265754699707031e+00 2.610285580158233643e-01 1.806688189506530762e+00 -1.928087115287780762e+00
4.000000000000000000e+00 1.483757972717285156e+01 -1.590752243995666504e+00 5.020294189453125000e+00 5.261453390121459961e-01 1.663931846618652344e+00 -1.338736295700073242e+00
5.000000000000000000e+00 1.540278816223144531e+01 -1.808305025100708008e+00 1.715199470520019531e+01 -8.929497599601745605e-01 4.877713680267333984e+00 -4.465191841125488281e+00
6.000000000000000000e+00 1.520431232452392578e+01 -1.793317556381225586e+00 1.069799041748046875e+01 3.958494961261749268e-01 3.328152179718017578e+00 -1.876456022262573242e+00
7.000000000000000000e+00 1.500583648681640625e+01 -1.778330206871032715e+00 1.005142402648925781e+01 3.088846504688262939e-01 3.108092546463012695e+00 -1.041438102722167969e+00
8.000000000000000000e+00 1.480735969543457031e+01 -1.763342738151550293e+00 7.978629112243652344e+00 -1.079687550663948059e-01 2.361198186874389648e+00 -1.060258984565734863e+00
9.000000000000000000e+00 1.540410804748535156e+01 -1.866695523262023926e+00 2.374604415893554688e+01 -1.044207215309143066e+00 6.810551166534423828e+00 8.896024525165557861e-02
1.000000000000000000e+01 1.520651149749755859e+01 -1.890635132789611816e+00 1.609569358825683594e+01 -4.020732268691062927e-02 4.816645622253417969e+00 -4.128555357456207275e-01
1.100000000000000000e+01 1.500891590118408203e+01 -1.914574742317199707e+00 1.255571079254150391e+01 -3.491473151370882988e-03 3.765666007995605469e+00 2.072651088237762451e-01
1.200000000000000000e+01 1.481131935119628906e+01 -1.938514351844787598e+00 1.130290699005126953e+01 9.887514263391494751e-02 3.420534610748291016e+00 4.546633958816528320e-01
1.300000000000000000e+01 1.541676998138427734e+01 -1.923711776733398438e+00 2.749557304382324219e+01 1.360770583152770996e+00 8.656903266906738281e+00 4.870863437652587891e+00
1.400000000000000000e+01 1.522761535644531250e+01 -1.985662341117858887e+00 1.897439002990722656e+01 4.945013523101806641e-01 5.840667247772216797e+00 2.911464452743530273e+00
1.500000000000000000e+01 1.503846073150634766e+01 -2.047612905502319336e+00 1.558421897888183594e+01 6.698779463768005371e-01 4.876228809356689453e+00 2.361144542694091797e+00
1.600000000000000000e+01 1.484930610656738281e+01 -2.109563350677490234e+00 1.297746467590332031e+01 2.816490232944488525e-01 3.977734088897705078e+00 2.353618144989013672e+00
1.700000000000000000e+01 1.544029045104980469e+01 -1.977172017097473145e+00 2.777132797241210938e+01 4.946790218353271484e+00 9.815435409545898438e+00 9.577904701232910156e+00
1.800000000000000000e+01 1.526681613922119141e+01 -2.074762582778930664e+00 2.063534927368164062e+01 3.119310855865478516e+00 7.126398086547851562e+00 6.153256416320800781e+00
1.900000000000000000e+01 1.509334087371826172e+01 -2.172353267669677734e+00 1.651541519165039062e+01 2.009887218475341797e+00 5.557590484619140625e+00 5.091024875640869141e+00
2.000000000000000000e+01 1.491986656188964844e+01 -2.269943952560424805e+00 1.435849475860595703e+01 1.782856225967407227e+00 4.842405319213867188e+00 4.588798046112060547e+00
2.100000000000000000e+01 1.547376823425292969e+01 -2.025030374526977539e+00 2.662463951110839844e+01 1.051781558990478516e+01 1.114273643493652344e+01 1.268030738830566406e+01
2.200000000000000000e+01 1.532261276245117188e+01 -2.154526472091674805e+00 1.998542594909667969e+01 6.338865280151367188e+00 7.897287368774414062e+00 9.043524742126464844e+00
2.300000000000000000e+01 1.517145633697509766e+01 -2.284022569656372070e+00 1.671159362792968750e+01 5.063211441040039062e+00 6.532441139221191406e+00 7.362722873687744141e+00
2.400000000000000000e+01 1.502030086517333984e+01 -2.413518667221069336e+00 1.409989261627197266e+01 3.718088388442993164e+00 5.345394134521484375e+00 6.633084297180175781e+00
2.500000000000000000e+01 1.551592254638671875e+01 -2.065455198287963867e+00 2.363741302490234375e+01 1.607595825195312500e+01 1.191401100158691406e+01 1.424815177917480469e+01
2.600000000000000000e+01 1.539286994934082031e+01 -2.221901178359985352e+00 1.883497810363769531e+01 1.082246017456054688e+01 8.897231101989746094e+00 1.054963588714599609e+01
2.700000000000000000e+01 1.526981735229492188e+01 -2.378347396850585938e+00 1.534776115417480469e+01 8.267840385437011719e+00 7.084680557250976562e+00 9.037014007568359375e+00
2.800000000000000000e+01 1.514676475524902344e+01 -2.534793376922607422e+00 1.344959545135498047e+01 7.108201503753662109e+00 6.167339324951171875e+00 7.909561157226562500e+00
2.900000000000000000e+01 1.556514072418212891e+01 -2.096899747848510742e+00 2.108174896240234375e+01 2.175790023803710938e+01 1.285189437866210938e+01 1.375527954101562500e+01
3.000000000000000000e+01 1.547490024566650391e+01 -2.274308681488037109e+00 1.657123947143554688e+01 1.500252056121826172e+01 9.472127914428710938e+00 1.091969966888427734e+01
3.100000000000000000e+01 1.538465976715087891e+01 -2.451717853546142578e+00 1.404552268981933594e+01 1.207940196990966797e+01 7.837477207183837891e+00 9.364836692810058594e+00
3.200000000000000000e+01 1.529442024230957031e+01 -2.629127025604248047e+00 1.193542194366455078e+01 1.019086170196533203e+01 6.637885093688964844e+00 8.539034843444824219e+00
3.300000000000000000e+01 1.561953926086425781e+01 -2.118160486221313477e+00 1.851022148132324219e+01 2.609963607788085938e+01 1.338295745849609375e+01 1.185241699218750000e+01
3.400000000000000000e+01 1.556556415557861328e+01 -2.309743404388427734e+00 1.497603797912597656e+01 1.897864341735839844e+01 1.018640422821044922e+01 9.879230499267578125e+00
3.500000000000000000e+01 1.551158905029296875e+01 -2.501326322555541992e+00 1.228868675231933594e+01 1.533269691467285156e+01 8.286415100097656250e+00 8.709467887878417969e+00
3.600000000000000000e+01 1.545761489868164062e+01 -2.692909240722656250e+00 1.077660942077636719e+01 1.310471057891845703e+01 7.164396286010742188e+00 7.856950759887695312e+00
3.700000000000000000e+01 1.567703533172607422e+01 -2.128423929214477539e+00 1.753520584106445312e+01 2.917359733581542969e+01 1.401264095306396484e+01 8.949410438537597656e+00
3.800000000000000000e+01 1.566139221191406250e+01 -2.326849222183227539e+00 1.351339244842529297e+01 2.178539466857910156e+01 1.058963584899902344e+01 7.936431884765625000e+00
3.900000000000000000e+01 1.564574813842773438e+01 -2.525274276733398438e+00 1.143859004974365234e+01 1.798102378845214844e+01 8.825883865356445312e+00 7.035401344299316406e+00
4.000000000000000000e+01 1.563010406494140625e+01 -2.723699808120727539e+00 9.583522796630859375e+00 1.542219448089599609e+01 7.501715183258056641e+00 6.457877635955810547e+00
4.100000000000000000e+01 1.573543071746826172e+01 -2.127297401428222656e+00 1.733658218383789062e+01 3.043553924560546875e+01 1.433163642883300781e+01 5.783237457275390625e+00
4.200000000000000000e+01 1.575871658325195312e+01 -2.324971437454223633e+00 1.343651008605957031e+01 2.349444961547851562e+01 1.107928848266601562e+01 5.462296009063720703e+00
4.300000000000000000e+01 1.578200149536132812e+01 -2.522645711898803711e+00 1.088605785369873047e+01 1.949057769775390625e+01 9.112990379333496094e+00 4.891509532928466797e+00
4.400000000000000000e+01 1.580528831481933594e+01 -2.720319986343383789e+00 9.557240486145019531e+00 1.691737365722656250e+01 7.942384243011474609e+00 4.545866489410400391e+00
4.500000000000000000e+01 1.579248809814453125e+01 -2.114823818206787109e+00 1.863968467712402344e+01 3.040333938598632812e+01 1.471290683746337891e+01 3.020190715789794922e+00
4.600000000000000000e+01 1.585381317138671875e+01 -2.304182052612304688e+00 1.395870304107666016e+01 2.378521156311035156e+01 1.132317447662353516e+01 2.934224605560302734e+00
4.700000000000000000e+01 1.591513729095458984e+01 -2.493540525436401367e+00 1.161315727233886719e+01 1.994007110595703125e+01 9.465969085693359375e+00 2.759553194046020508e+00
4.800000000000000000e+01 1.597646236419677734e+01 -2.682899236679077148e+00 9.881122589111328125e+00 1.727152252197265625e+01 8.145792961120605469e+00 2.523577928543090820e+00
4.900000000000000000e+01 1.584602546691894531e+01 -2.091480493545532227e+00 2.048630332946777344e+01 2.912442588806152344e+01 1.488321876525878906e+01 9.400158524513244629e-01
5.000000000000000000e+01 1.594304180145263672e+01 -2.265276908874511719e+00 1.555415534973144531e+01 2.307668495178222656e+01 1.158925151824951172e+01 9.738996028900146484e-01
5.100000000000000000e+01 1.604005813598632812e+01 -2.439073085784912109e+00 1.288304519653320312e+01 1.926125717163085938e+01 9.643290519714355469e+00 9.221990108489990234e-01
5.200000000000000000e+01 1.613707542419433594e+01 -2.612869501113891602e+00 1.114082431793212891e+01 1.670059204101562500e+01 8.352424621582031250e+00 9.141202569007873535e-01
5.300000000000000000e+01 1.589399433135986328e+01 -2.058161020278930664e+00 2.279723548889160156e+01 2.732186889648437500e+01 1.503573131561279297e+01 -9.473042935132980347e-02
5.400000000000000000e+01 1.602298927307128906e+01 -2.209744215011596680e+00 1.756480789184570312e+01 2.146811676025390625e+01 1.170987701416015625e+01 -2.009629160165786743e-01
5.500000000000000000e+01 1.615198516845703125e+01 -2.361327648162841797e+00 1.471881866455078125e+01 1.792465400695800781e+01 9.793042182922363281e+00 -1.450455933809280396e-01
5.600000000000000000e+01 1.628098106384277344e+01 -2.512910842895507812e+00 1.280434226989746094e+01 1.545922374725341797e+01 8.479069709777832031e+00 -1.293351352214813232e-01
5.700000000000000000e+01 1.593455886840820312e+01 -2.016140222549438477e+00 2.502182006835937500e+01 2.521777725219726562e+01 1.507187938690185547e+01 -1.259167790412902832e-01
5.800000000000000000e+01 1.609059715270996094e+01 -2.139709472656250000e+00 1.969827270507812500e+01 1.957958984375000000e+01 1.178335857391357422e+01 -3.416118025779724121e-01
5.900000000000000000e+01 1.624663543701171875e+01 -2.263278961181640625e+00 1.660517311096191406e+01 1.621551704406738281e+01 9.846207618713378906e+00 -3.279861211776733398e-01
6.000000000000000000e+01 1.640267372131347656e+01 -2.386848449707031250e+00 1.455674076080322266e+01 1.392542457580566406e+01 8.544649124145507812e+00 -3.052020668983459473e-01
6.100000000000000000e+01 1.596616649627685547e+01 -1.967026233673095703e+00 2.681522560119628906e+01 2.333030891418457031e+01 1.504366111755371094e+01 7.955107092857360840e-01
6.200000000000000000e+01 1.614327430725097656e+01 -2.057852983474731445e+00 2.146435546875000000e+01 1.775844001770019531e+01 1.176683807373046875e+01 4.929049313068389893e-01
6.300000000000000000e+01 1.632038497924804688e+01 -2.148679733276367188e+00 1.817873382568359375e+01 1.463330268859863281e+01 9.843611717224121094e+00 4.170109927654266357e-01
6.400000000000000000e+01 1.649749565124511719e+01 -2.239506483078002930e+00 1.597420978546142578e+01 1.243083667755126953e+01 8.521513938903808594e+00 3.364404141902923584e-01
6.500000000000000000e+01 1.598760604858398438e+01 -1.912698507308959961e+00 2.793032455444335938e+01 2.190916824340820312e+01 1.495184803009033203e+01 2.522728681564331055e+00
6.600000000000000000e+01 1.617901039123535156e+01 -1.967306733131408691e+00 2.239184379577636719e+01 1.647335815429687500e+01 1.165956020355224609e+01 2.095453023910522461e+00
6.700000000000000000e+01 1.637041282653808594e+01 -2.021914958953857422e+00 1.910030174255371094e+01 1.349986457824707031e+01 9.780049324035644531e+00 1.865802884101867676e+00
6.800000000000000000e+01 1.656181716918945312e+01 -2.076523065567016602e+00 1.678648185729980469e+01 1.140347862243652344e+01 8.456988334655761719e+00 1.644623875617980957e+00
6.900000000000000000e+01 1.599806022644042969e+01 -1.855235934257507324e+00 2.794842910766601562e+01 2.114120292663574219e+01 1.472688961029052734e+01 4.702342510223388672e+00
7.000000000000000000e+01 1.619643211364746094e+01 -1.871535778045654297e+00 2.233957099914550781e+01 1.608008575439453125e+01 1.152589702606201172e+01 4.189480781555175781e+00
7.100000000000000000e+01 1.639480400085449219e+01 -1.887835741043090820e+00 1.896294975280761719e+01 1.303090190887451172e+01 9.598155975341796875e+00 3.627262353897094727e+00
7.200000000000000000e+01 1.659317779541015625e+01 -1.904135584831237793e+00 1.681902885437011719e+01 1.111260604858398438e+01 8.379490852355957031e+00 3.294195652008056641e+00
7.300000000000000000e+01 1.599712657928466797e+01 -1.796837687492370605e+00 2.685152626037597656e+01 2.150592613220214844e+01 1.450723552703857422e+01 7.124176979064941406e+00
7.400000000000000000e+01 1.619487762451171875e+01 -1.774205565452575684e+00 2.101824188232421875e+01 1.640759468078613281e+01 1.122775077819824219e+01 6.190816402435302734e+00
7.500000000000000000e+01 1.639262771606445312e+01 -1.751573324203491211e+00 1.785145568847656250e+01 1.358445358276367188e+01 9.430772781372070312e+00 5.417983055114746094e+00
7.600000000000000000e+01 1.659037780761718750e+01 -1.728941082954406738e+00 1.569991970062255859e+01 1.140032958984375000e+01 8.130074501037597656e+00 4.829782485961914062e+00
7.700000000000000000e+01 1.598484134674072266e+01 -1.739738702774047852e+00 2.437378311157226562e+01 2.259669876098632812e+01 1.409114456176757812e+01 9.219913482666015625e+00
7.800000000000000000e+01 1.617440223693847656e+01 -1.679040551185607910e+00 1.867283058166503906e+01 1.782887840270996094e+01 1.095051288604736328e+01 7.749197006225585938e+00
7.900000000000000000e+01 1.636396217346191406e+01 -1.618342280387878418e+00 1.569025325775146484e+01 1.460140419006347656e+01 9.087496757507324219e+00 6.707934856414794922e+00
8.000000000000000000e+01 1.655352210998535156e+01 -1.557644009590148926e+00 1.381406593322753906e+01 1.259151172637939453e+01 7.921673297882080078e+00 6.016725063323974609e+00
8.100000000000000000e+01 1.596167469024658203e+01 -1.686123967170715332e+00 2.079909133911132812e+01 2.481951332092285156e+01 1.368558120727539062e+01 1.054274463653564453e+01
8.200000000000000000e+01 1.613579177856445312e+01 -1.589682579040527344e+00 1.543291568756103516e+01 1.952932929992675781e+01 1.048867416381835938e+01 8.406189918518066406e+00
8.300000000000000000e+01 1.630990791320800781e+01 -1.493241190910339355e+00 1.289990043640136719e+01 1.630427360534667969e+01 8.761252403259277344e+00 7.228381156921386719e+00
8.400000000000000000e+01 1.648402404785156250e+01 -1.396799683570861816e+00 1.125311470031738281e+01 1.393051815032958984e+01 7.555089950561523438e+00 6.429198741912841797e+00
8.500000000000000000e+01 1.592851448059082031e+01 -1.638045191764831543e+00 1.635858726501464844e+01 2.725431251525878906e+01 1.308386993408203125e+01 1.062942314147949219e+01
8.600000000000000000e+01 1.608052253723144531e+01 -1.509551286697387695e+00 1.183757686614990234e+01 2.159723854064941406e+01 1.003044414520263672e+01 7.947375774383544922e+00
8.700000000000000000e+01 1.623253250122070312e+01 -1.381057381629943848e+00 9.782552719116210938e+00 1.779405593872070312e+01 8.272982597351074219e+00 6.717464447021484375e+00
8.800000000000000000e+01 1.638454055786132812e+01 -1.252563357353210449e+00 8.464888572692871094e+00 1.546861362457275391e+01 7.180050373077392578e+00 5.995306015014648438e+00
8.900000000000000000e+01 1.588662815093994141e+01 -1.597342371940612793e+00 1.171769618988037109e+01 2.976485061645507812e+01 1.244476413726806641e+01 9.166909217834472656e+00
9.000000000000000000e+01 1.601071166992187500e+01 -1.441713213920593262e+00 8.359569549560546875e+00 2.301759719848632812e+01 9.413149833679199219e+00 6.367736816406250000e+00
9.100000000000000000e+01 1.613479614257812500e+01 -1.286083936691284180e+00 6.783654212951660156e+00 1.915447235107421875e+01 7.781437873840332031e+00 5.212728500366210938e+00
9.200000000000000000e+01 1.625888061523437500e+01 -1.130454778671264648e+00 5.853111267089843750e+00 1.630804634094238281e+01 6.648347377777099609e+00 4.584004878997802734e+00
9.300000000000000000e+01 1.583761787414550781e+01 -1.565572977066040039e+00 7.602070331573486328e+00 3.122019958496093750e+01 1.164668083190917969e+01 6.275469779968261719e+00
9.400000000000000000e+01 1.592902946472167969e+01 -1.388764381408691406e+00 5.439266204833984375e+00 2.371188354492187500e+01 8.745345115661621094e+00 3.807269811630249023e+00
9.500000000000000000e+01 1.602044105529785156e+01 -1.211955666542053223e+00 4.426910400390625000e+00 1.949198913574218750e+01 7.175670146942138672e+00 2.983208656311035156e+00
9.600000000000000000e+01 1.611185264587402344e+01 -1.035146951675415039e+00 3.624981164932250977e+00 1.678856849670410156e+01 6.124064922332763672e+00 2.478675603866577148e+00
9.700000000000000000e+01 1.578336143493652344e+01 -1.543953061103820801e+00 4.575234413146972656e+00 3.125709724426269531e+01 1.074969959259033203e+01 2.235095500946044922e+00
9.800000000000000000e+01 1.583860111236572266e+01 -1.352730989456176758e+00 3.573954820632934570e+00 2.294798088073730469e+01 7.956580638885498047e+00 7.924585938453674316e-01
9.900000000000000000e+01 1.589384174346923828e+01 -1.161509037017822266e+00 2.814898729324340820e+00 1.887273597717285156e+01 6.506290435791015625e+00 3.090961575508117676e-01
1.000000000000000000e+02 1.594908142089843750e+01 -9.702870249748229980e-01 2.462255716323852539e+00 1.616754531860351562e+01 5.588940620422363281e+00 2.641141712665557861e-01
1.010000000000000000e+02 1.572593402862548828e+01 -1.533309698104858398e+00 3.140089750289916992e+00 2.915838623046875000e+01 9.689542770385742188e+00 -1.996676206588745117e+00
1.020000000000000000e+02 1.574288845062255859e+01 -1.334992170333862305e+00 2.774288177490234375e+00 2.087792015075683594e+01 7.095662593841552734e+00 -2.352898359298706055e+00
1.030000000000000000e+02 1.575984382629394531e+01 -1.136674642562866211e+00 2.275777339935302734e+00 1.684382247924804688e+01 5.735880374908447266e+00 -2.095615148544311523e+00
1.040000000000000000e+02 1.577679824829101562e+01 -9.383571147918701172e-01 2.083976507186889648e+00 1.445941352844238281e+01 4.963016986846923828e+00 -1.978253960609436035e+00
1.050000000000000000e+02 1.566753292083740234e+01 -1.534050345420837402e+00 3.365313053131103516e+00 2.510768127441406250e+01 8.541897773742675781e+00 -5.881926536560058594e+00
1.060000000000000000e+02 1.564555358886718750e+01 -1.336226701736450195e+00 2.899057626724243164e+00 1.732282638549804688e+01 6.066565036773681641e+00 -4.693438053131103516e+00
1.070000000000000000e+02 1.562357521057128906e+01 -1.138402938842773438e+00 2.656952857971191406e+00 1.383009719848632812e+01 4.946115016937255859e+00 -4.103793144226074219e+00
1.080000000000000000e+02 1.560159587860107422e+01 -9.405791759490966797e-01 2.284868478775024414e+00 1.161862754821777344e+01 4.171048641204833984e+00 -3.523391723632812500e+00
1.090000000000000000e+02 1.561039352416992188e+01 -1.546146750450134277e+00 4.460968971252441406e+00 1.933040618896484375e+01 7.137413024902343750e+00 -8.184728622436523438e+00
1.100000000000000000e+02 1.555032157897949219e+01 -1.356387257575988770e+00 3.886362791061401367e+00 1.281281185150146484e+01 5.009752273559570312e+00 -6.135925292968750000e+00
1.110000000000000000e+02 1.549024963378906250e+01 -1.166627645492553711e+00 3.300216436386108398e+00 9.991390228271484375e+00 3.987481832504272461e+00 -4.885758399963378906e+00
1.120000000000000000e+02 1.543017768859863281e+01 -9.768681526184082031e-01 2.946447610855102539e+00 8.513766288757324219e+00 3.438064098358154297e+00 -4.359603404998779297e+00
1.130000000000000000e+02 1.555670261383056641e+01 -1.569135785102844238e+00 6.217451572418212891e+00 1.253792762756347656e+01 5.626613616943359375e+00 -8.750916481018066406e+00
1.140000000000000000e+02 1.546083641052246094e+01 -1.394702315330505371e+00 4.546412944793701172e+00 7.853260517120361328e+00 3.719902038574218750e+00 -5.870586872100830078e+00
1.150000000000000000e+02 1.536497116088867188e+01 -1.220268845558166504e+00 4.102867603302001953e+00 6.186046600341796875e+00 3.086674213409423828e+00 -4.703899383544921875e+00
1.160000000000000000e+02 1.526910495758056641e+01 -1.045835375785827637e+00 3.305146932601928711e+00 5.301967144012451172e+00 2.582134246826171875e+00 -3.896991729736328125e+00
1.170000000000000000e+02 1.550851440429687500e+01 -1.602137804031372070e+00 6.624854564666748047e+00 5.768872737884521484e+00 3.718118190765380859e+00 -6.938929557800292969e+00
1.180000000000000000e+02 1.538052368164062500e+01 -1.449705719947814941e+00 4.911772251129150391e+00 3.209160089492797852e+00 2.436279773712158203e+00 -4.332937240600585938e+00
1.190000000000000000e+02 1.525253200531005859e+01 -1.297273516654968262e+00 3.704610109329223633e+00 3.031494140625000000e+00 2.020831108093261719e+00 -3.080378770828247070e+00
1.200000000000000000e+02 1.512454128265380859e+01 -1.144841432571411133e+00 3.319524288177490234e+00 2.941260337829589844e+00 1.878235459327697754e+00 -3.007896661758422852e+00
1.210000000000000000e+02 1.546767330169677734e+01 -1.643889904022216797e+00 5.658041477203369141e+00 -8.311985731124877930e-01 1.448052883148193359e+00 -3.144814968109130859e+00
1.220000000000000000e+02 1.531245517730712891e+01 -1.519292473793029785e+00 2.639259815216064453e+00 4.979180097579956055e-01 9.411533474922180176e-01 -1.203667163848876953e+00
1.230000000000000000e+02 1.515723705291748047e+01 -1.394695043563842773e+00 2.661567926406860352e+00 1.401933312416076660e+00 1.219050407409667969e+00 -1.785922050476074219e+00
1.240000000000000000e+02 1.500201797485351562e+01 -1.270097732543945312e+00 2.327625036239624023e+00 8.273766636848449707e-01 9.465005397796630859e-01 -1.394518017768859863e+00
1.250000000000000000e+02 1.543574237823486328e+01 -1.692794203758239746e+00 -2.702417612075805664e+00 -3.856142759323120117e+00 -1.967568159103393555e+00 2.854376077651977539e+00
1.260000000000000000e+02 1.525923728942871094e+01 -1.600799679756164551e+00 1.958457827568054199e-01 6.720315217971801758e-01 2.603631913661956787e-01 -1.121810600161552429e-01
1.270000000000000000e+02 1.508273124694824219e+01 -1.508805155754089355e+00 3.418059945106506348e-01 -2.798527777194976807e-01 1.858596131205558777e-02 -4.954146593809127808e-02
1.280000000000000000e+02 1.490622520446777344e+01 -1.416810631752014160e+00 5.449005365371704102e-01 1.277327090501785278e-01 2.017899751663208008e-01 -1.302459537982940674e-01
1.290000000000000000e+02 1.111338901519775391e+01 -1.450412988662719727e+00 1.168419003486633301e+00 -8.218135684728622437e-02 3.258712887763977051e-01 5.564308166503906250e-01
1.300000000000000000e+02 1.178648853302001953e+01 -7.769837975502014160e-01 2.330863922834396362e-01 4.529258608818054199e-02 8.351369202136993408e-02 1.028729528188705444e-01
1.310000000000000000e+02 1.027984714508056641e+01 -1.240733623504638672e+00 3.317666947841644287e-01 -8.179667592048645020e-02 7.499101012945175171e-02 4.153346419334411621e-01
1.320000000000000000e+02 1.208618164062500000e+01 -1.503650903701782227e+00 2.141960620880126953e+00 -2.593128979206085205e-01 5.647943019866943359e-01 3.622630238533020020e-01
1.330000000000000000e+02 1.248373031616210938e+01 -1.587823033332824707e+00 2.542914152145385742e+00 -3.720928132534027100e-01 6.512463688850402832e-01 3.125988543033599854e-01
1.340000000000000000e+02 1.231233692169189453e+01 -1.407343268394470215e+00 1.980122089385986328e+00 -3.356234729290008545e-01 4.933496117591857910e-01 3.461392819881439209e-01
1.350000000000000000e+02 1.262017059326171875e+01 -1.010279417037963867e+00 1.141770482063293457e+00 7.297902554273605347e-02 3.644248545169830322e-01 -2.608806267380714417e-02
1.360000000000000000e+02 1.226982021331787109e+01 -8.760434985160827637e-01 6.027873158454895020e-01 -2.239903658628463745e-01 1.136390790343284607e-01 -6.024477630853652954e-02
1.370000000000000000e+02 1.259429264068603516e+01 -7.848028540611267090e-01 4.986735880374908447e-01 -2.549593895673751831e-02 1.419532895088195801e-01 -7.813750952482223511e-02
1.380000000000000000e+02 1.109079551696777344e+01 -6.818509101867675781e-01 -6.263026595115661621e-02 -1.686054170131683350e-01 -6.937070190906524658e-02 1.675787121057510376e-01
1.390000000000000000e+02 1.033320999145507812e+01 -4.912129044532775879e-01 -3.223724067211151123e-01 4.671396315097808838e-02 -8.269753307104110718e-02 2.033858001232147217e-01
1.400000000000000000e+02 1.254859542846679688e+01 -1.415003657341003418e+00 2.047640323638916016e+00 -2.067211568355560303e-01 5.522757172584533691e-01 1.765324622392654419e-01
1.410000000000000000e+02 1.257583808898925781e+01 -1.213732242584228516e+00 1.563870191574096680e+00 -1.957082450389862061e-01 4.104485809803009033e-01 4.384998232126235962e-02
1.420000000000000000e+02 1.214397430419921875e+01 -1.946410536766052246e+00 2.713893651962280273e+00 -3.631482422351837158e-01 7.052236199378967285e-01 8.346580266952514648e-01
1.430000000000000000e+02 1.235326385498046875e+01 -1.753455400466918945e+00 2.616150140762329102e+00 -3.749232292175292969e-01 6.723681092262268066e-01 4.865866303443908691e-01
1.440000000000000000e+02 1.188617134094238281e+01 -1.218541741371154785e+00 1.222618699073791504e+00 -1.547116190195083618e-01 3.203721344470977783e-01 4.274892807006835938e-01
1.450000000000000000e+02 1.224599266052246094e+01 -1.163653612136840820e+00 1.165762543678283691e+00 -1.118983477354049683e-01 3.161592483520507812e-01 1.839723587036132812e-01
1.460000000000000000e+02 1.174770736694335938e+01 -1.558679580688476562e+00 1.802505135536193848e+00 -3.126935958862304688e-01 4.469434618949890137e-01 5.488715171813964844e-01
1.470000000000000000e+02 1.296469974517822266e+01 -8.894452452659606934e-01 7.868938446044921875e-01 1.159552037715911865e-01 2.708547115325927734e-01 -1.235423311591148376e-01
1.480000000000000000e+02 1.463098526000976562e+01 -2.196821928024291992e+00 1.154616546630859375e+01 4.590278267860412598e-01 3.601557970046997070e+00 2.333080053329467773e+00
1.490000000000000000e+02 1.463355636596679688e+01 -1.538467049598693848e+00 4.178884983062744141e+00 1.456958502531051636e-01 1.297374248504638672e+00 -1.178638815879821777e+00
1.500000000000000000e+02 1.608374786376953125e+01 -3.082702875137329102e+00 7.607575416564941406e+00 1.373016357421875000e+01 6.401321887969970703e+00 2.442034006118774414e+00
1.510000000000000000e+02 1.703425025939941406e+01 -2.269729137420654297e+00 1.321556282043457031e+01 8.201313018798828125e+00 6.425062656402587891e+00 1.162108540534973145e+00
1.520000000000000000e+02 1.710297393798828125e+01 -1.897930383682250977e+00 1.319252300262451172e+01 7.826747417449951172e+00 6.305780887603759766e+00 3.092260122299194336e+00
1.530000000000000000e+02 1.342699813842773438e+01 -7.999404668807983398e-01 -1.089995428919792175e-01 2.886204980313777924e-02 -2.404124662280082703e-02 -1.045510545372962952e-02
1.540000000000000000e+02 1.422028255462646484e+01 -3.965412974357604980e-01 1.424093008041381836e+00 1.194651246070861816e+00 7.856233119964599609e-01 -1.539879441261291504e+00
1.550000000000000000e+02 1.493136501312255859e+01 -3.025910377502441406e+00 9.386574745178222656e+00 6.525941848754882812e+00 4.773755073547363281e+00 7.010645389556884766e+00
1.560000000000000000e+02 1.257348728179931641e+01 -2.093841075897216797e+00 3.918060541152954102e+00 -2.386975586414337158e-01 1.103808879852294922e+00 1.226572513580322266e+00
1.570000000000000000e+02 1.275616645812988281e+01 -2.161180019378662109e+00 4.118835926055908203e+00 -4.803370833396911621e-01 1.091549634933471680e+00 1.024481534957885742e+00
1.580000000000000000e+02 1.381597900390625000e+01 -1.506241083145141602e+00 3.564989805221557617e+00 -8.046206086874008179e-03 1.067083120346069336e+00 -3.538150191307067871e-01
1.590000000000000000e+02 1.520606899261474609e+01 -2.840894222259521484e+00 1.058335113525390625e+01 8.851605415344238281e+00 5.830487251281738281e+00 7.783382415771484375e+00
1.600000000000000000e+02 1.667323112487792969e+01 -1.294119954109191895e+00 9.947658538818359375e+00 1.217454624176025391e+01 6.636661529541015625e+00 5.805240631103515625e+00
1.610000000000000000e+02 1.683170318603515625e+01 -1.016722202301025391e+00 7.527812004089355469e+00 1.112160587310791016e+01 5.594825267791748047e+00 5.164077281951904297e+00
1.620000000000000000e+02 1.686300277709960938e+01 -2.020015716552734375e+00 1.469452381134033203e+01 9.183760643005371094e+00 7.163485527038574219e+00 2.323812007904052734e+00
1.630000000000000000e+02 1.695958709716796875e+01 -1.696833848953247070e+00 1.311355590820312500e+01 8.825890541076660156e+00 6.581833839416503906e+00 4.182722568511962891e+00
1.640000000000000000e+02 1.664671325683593750e+01 -2.338846921920776367e+00 1.454911613464355469e+01 1.115320205688476562e+01 7.710695743560791016e+00 2.710088789463043213e-01
1.650000000000000000e+02 1.639413070678710938e+01 -2.637181520462036133e+00 1.167044448852539062e+01 1.396925354003906250e+01 7.691909313201904297e+00 -5.924433842301368713e-02
1.660000000000000000e+02 1.343276786804199219e+01 5.636821389198303223e-01 3.660948872566223145e-01 1.449836850166320801e+00 5.447795391082763672e-01 -1.543974757194519043e+00
1.670000000000000000e+02 1.457645130157470703e+01 7.923129200935363770e-02 1.303536415100097656e+00 2.910059452056884766e+00 1.264078736305236816e+00 -2.424330711364746094e+00
1.680000000000000000e+02 1.537957859039306641e+01 -7.718369960784912109e-01 2.488153457641601562e+00 7.642771244049072266e+00 3.039277315139770508e+00 -3.771365880966186523e+00
1.690000000000000000e+02 1.304636096954345703e+01 -6.458876729011535645e-01 -3.514669835567474365e-01 -2.700934931635856628e-02 -1.135428994894027710e-01 1.492451597005128860e-02
1.700000000000000000e+02 1.336857223510742188e+01 3.636413216590881348e-01 4.112421274185180664e-01 1.043778300285339355e+00 4.365061223506927490e-01 -1.251558542251586914e+00
1.710000000000000000e+02 1.435295677185058594e+01 -1.134101629257202148e+00 4.889042675495147705e-01 8.697880059480667114e-02 1.727649122476577759e-01 -3.132821023464202881e-01
1.720000000000000000e+02 1.454984951019287109e+01 -1.214823961257934570e+00 5.936366915702819824e-01 9.556408226490020752e-02 2.067602425813674927e-01 -2.726621925830841064e-01
1.730000000000000000e+02 1.484839916229248047e+01 -1.134756207466125488e+00 2.078601121902465820e+00 9.293343424797058105e-01 9.023806452751159668e-01 -1.384105443954467773e+00
1.740000000000000000e+02 1.473003387451171875e+01 -1.320291757583618164e+00 6.193096041679382324e-01 -4.335402045398950577e-03 1.844922602176666260e-01 -2.299376428127288818e-01
1.750000000000000000e+02 1.653177833557128906e+01 -2.496698617935180664e+00 1.331400012969970703e+01 1.252287006378173828e+01 7.751060962677001953e+00 -2.617550790309906006e-01
1.760000000000000000e+02 1.678770446777343750e+01 -1.691342711448669434e+00 1.413595962524414062e+01 9.970786094665527344e+00 7.232023715972900391e+00 4.664439678192138672e+00
1.770000000000000000e+02 1.630756378173828125e+01 -5.722646713256835938e-01 2.531972169876098633e+00 1.279656124114990234e+01 4.598559856414794922e+00 1.663325786590576172e+00
1.780000000000000000e+02 1.579333591461181641e+01 -7.239543199539184570e-01 1.707028508186340332e+00 1.243782234191894531e+01 4.243455410003662109e+00 -1.758120298385620117e+00
1.790000000000000000e+02 1.417823982238769531e+01 -1.744673967361450195e+00 5.911364078521728516e+00 2.987637929618358612e-02 1.782372117042541504e+00 -1.546989381313323975e-01
1.800000000000000000e+02 1.424950218200683594e+01 -1.365111112594604492e+00 2.812261581420898438e+00 1.962827444076538086e-01 9.025633335113525391e-01 -7.834583520889282227e-01
1.810000000000000000e+02 1.460432529449462891e+01 -2.859998941421508789e+00 1.016825580596923828e+01 3.040165424346923828e+00 3.962526559829711914e+00 5.767513751983642578e+00
1.820000000000000000e+02 1.663539695739746094e+01 -2.870825052261352539e+00 1.014742183685302734e+01 1.157502460479736328e+01 6.516733646392822266e+00 -9.183105081319808960e-02
1.830000000000000000e+02 1.322258949279785156e+01 -2.067529916763305664e+00 4.910459518432617188e+00 -3.207911252975463867e-01 1.376900553703308105e+00 9.948014020919799805e-01
1.840000000000000000e+02 1.327770996093750000e+01 -1.301981925964355469e+00 2.076693534851074219e+00 -1.260094344615936279e-01 5.852052569389343262e-01 -3.136604726314544678e-01
1.850000000000000000e+02 1.538690662384033203e+01 -2.900256633758544922e+00 9.296521186828613281e+00 1.136222267150878906e+01 6.197622776031494141e+00 7.333379745483398438e+00
1.860000000000000000e+02 1.366741657257080078e+01 -2.527707338333129883e+00 7.152333736419677734e+00 -1.435426175594329834e-01 2.102637290954589844e+00 2.435266494750976562e+00
1.870000000000000000e+02 1.383584880828857422e+01 -2.604509353637695312e+00 7.724552154541015625e+00 1.568847298622131348e-01 2.364431142807006836e+00 2.832505226135253906e+00
1.880000000000000000e+02 1.312974262237548828e+01 -2.294710397720336914e+00 5.120692729949951172e+00 -4.283152520656585693e-01 1.407713174819946289e+00 1.422617912292480469e+00
1.890000000000000000e+02 1.495401000976562500e+01 -2.660915136337280273e+00 1.195114898681640625e+01 5.166352272033691406e+00 5.135250091552734375e+00 7.264036178588867188e+00
1.900000000000000000e+02 1.485919284820556641e+01 -2.527013778686523438e+00 1.280940818786621094e+01 3.341531753540039062e+00 4.845282077789306641e+00 6.128631591796875000e+00
1.910000000000000000e+02 1.585318660736083984e+01 -3.213351249694824219e+00 6.851465702056884766e+00 1.282014274597167969e+01 5.901482582092285156e+00 4.081464767456054688e+00
1.920000000000000000e+02 1.632986259460449219e+01 -3.095552444458007812e+00 7.998735427856445312e+00 1.270030784606933594e+01 6.209712982177734375e+00 1.209094405174255371e+00
1.930000000000000000e+02 1.498382282257080078e+01 -2.831431865692138672e+00 1.075897979736328125e+01 6.281236171722412109e+00 5.112064838409423828e+00 7.151979446411132812e+00
1.940000000000000000e+02 1.473743152618408203e+01 -2.380886793136596680e+00 1.237261676788330078e+01 1.566282868385314941e+00 4.181669712066650391e+00 4.405938148498535156e+00
1.950000000000000000e+02 1.458759784698486328e+01 -1.754240393638610840e+00 7.076943397521972656e+00 8.810766041278839111e-02 2.149515390396118164e+00 -6.976430416107177734e-01
1.960000000000000000e+02 1.458254241943359375e+01 -1.979977130889892578e+00 9.566574096679687500e+00 -2.482489943504333496e-01 2.795497655868530273e+00 5.796983242034912109e-01
1.970000000000000000e+02 1.433098697662353516e+01 -1.982334136962890625e+00 8.265553474426269531e+00 -9.227714687585830688e-02 2.451982975006103516e+00 6.255396604537963867e-01
1.980000000000000000e+02 1.557722282409667969e+01 -2.936192274093627930e+00 8.663673400878906250e+00 1.331404399871826172e+01 6.593315124511718750e+00 6.220484733581542969e+00
1.990000000000000000e+02 1.674979400634765625e+01 -2.172533512115478516e+00 1.519161701202392578e+01 9.987768173217773438e+00 7.553815364837646484e+00 1.368880391120910645e+00
2.000000000000000000e+02 1.637844085693359375e+01 -9.915856719017028809e-01 5.207561016082763672e+00 1.471176910400390625e+01 5.975799083709716797e+00 4.237376213073730469e+00
2.010000000000000000e+02 1.555552101135253906e+01 -5.214094519615173340e-01 1.730306148529052734e+00 9.208978652954101562e+00 3.281785249710083008e+00 -2.954109907150268555e+00
2.020000000000000000e+02 1.557890319824218750e+01 -7.375110387802124023e-01 2.014203548431396484e+00 1.022913742065429688e+01 3.673002243041992188e+00 -3.316969394683837891e+00
2.030000000000000000e+02 1.469517517089843750e+01 -2.340413779020309448e-01 1.755660295486450195e+00 2.911663055419921875e+00 1.400197029113769531e+00 -2.560627460479736328e+00
2.040000000000000000e+02 1.518338584899902344e+01 -8.411770462989807129e-01 2.945963621139526367e+00 5.102179050445556641e+00 2.414442777633666992e+00 -3.639093399047851562e+00
2.050000000000000000e+02 1.654068183898925781e+01 -1.128128767013549805e+00 7.682826995849609375e+00 1.345721149444580078e+01 6.342011451721191406e+00 5.476990699768066406e+00
2.060000000000000000e+02 1.693538284301757812e+01 -1.871499180793762207e+00 1.401702594757080078e+01 8.675542831420898438e+00 6.807770729064941406e+00 3.270038366317749023e+00
2.070000000000000000e+02 1.706833457946777344e+01 -1.558230280876159668e+00 1.205902385711669922e+01 8.547011375427246094e+00 6.181810855865478516e+00 4.583266735076904297e+00
2.080000000000000000e+02 1.468954944610595703e+01 -9.889343976974487305e-01 1.967000961303710938e+00 8.767434358596801758e-01 8.531233072280883789e-01 -1.435188889503479004e+00
2.090000000000000000e+02 1.601658630371093750e+01 -7.566046118736267090e-01 2.108566761016845703e+00 1.404885101318359375e+01 4.847225666046142578e+00 1.531537622213363647e-01
2.100000000000000000e+02 1.621340179443359375e+01 -8.603123426437377930e-01 3.408631801605224609e+00 1.473476314544677734e+01 5.443018436431884766e+00 2.367676734924316406e+00
2.110000000000000000e+02 1.648589324951171875e+01 -2.992727994918823242e+00 8.946072578430175781e+00 1.217456150054931641e+01 6.336190223693847656e+00 3.855008184909820557e-01
2.120000000000000000e+02 1.677172088623046875e+01 -2.731690883636474609e+00 1.116893959045410156e+01 1.064306163787841797e+01 6.543600082397460938e+00 -2.160166203975677490e-01
2.130000000000000000e+02 1.688989639282226562e+01 -2.581160068511962891e+00 1.197475433349609375e+01 9.461572647094726562e+00 6.430898189544677734e+00 3.014726005494594574e-02
2.140000000000000000e+02 1.602253913879394531e+01 -3.218760967254638672e+00 7.069283008575439453e+00 1.324361133575439453e+01 6.093868255615234375e+00 2.949208498001098633e+00
2.150000000000000000e+02 1.660801887512207031e+01 -7.519000172615051270e-01 4.687871456146240234e+00 1.206024265289306641e+01 5.024434089660644531e+00 3.848756790161132812e+00
2.160000000000000000e+02 1.698782348632812500e+01 -2.431316137313842773e+00 1.270396709442138672e+01 8.694057464599609375e+00 6.419407367706298828e+00 4.766600131988525391e-01
2.170000000000000000e+02 1.688192367553710938e+01 -2.316866159439086914e+00 1.356841754913330078e+01 9.226438522338867188e+00 6.838456630706787109e+00 7.631738185882568359e-01
2.180000000000000000e+02 1.567107677459716797e+01 -3.199997186660766602e+00 7.142665863037109375e+00 1.213423347473144531e+01 5.783069610595703125e+00 5.184823989868164062e+00
2.190000000000000000e+02 1.706488990783691406e+01 -2.085885047912597656e+00 1.367661094665527344e+01 7.976854801177978516e+00 6.496039867401123047e+00 1.979980230331420898e+00
2.200000000000000000e+02 1.698810958862304688e+01 -1.386237025260925293e+00 1.096303749084472656e+01 9.354606628417968750e+00 6.095293045043945312e+00 5.174273490905761719e+00
2.210000000000000000e+02 1.690349578857421875e+01 -1.192981481552124023e+00 9.172153472900390625e+00 1.014953517913818359e+01 5.796506404876708984e+00 5.290772914886474609e+00
2.220000000000000000e+02 1.650369834899902344e+01 -2.743963718414306641e+00 1.092840576171875000e+01 1.270090198516845703e+01 7.088792324066162109e+00 -1.268443316221237183e-01
2.230000000000000000e+02 1.548268699645996094e+01 -3.176493406295776367e+00 7.458078384399414062e+00 1.121048831939697266e+01 5.600570201873779297e+00 6.175314903259277344e+00
2.240000000000000000e+02 1.674421501159667969e+01 -8.739563822746276855e-01 6.112433910369873047e+00 1.150506877899169922e+01 5.285250663757324219e+00 4.485144138336181641e+00
2.250000000000000000e+02 1.623845291137695312e+01 -2.753883123397827148e+00 1.015606594085693359e+01 1.503155899047851562e+01 7.556287288665771484e+00 7.563666701316833496e-01
2.260000000000000000e+02 1.593862724304199219e+01 -2.995372533798217773e+00 8.077589988708496094e+00 1.453350543975830078e+01 6.783328533172607422e+00 3.360087156295776367e+00
2.270000000000000000e+02 1.617674827575683594e+01 -3.180205821990966797e+00 7.391334533691406250e+00 1.278812026977539062e+01 6.053836345672607422e+00 2.017797708511352539e+00
2.280000000000000000e+02 1.607578659057617188e+01 -2.846174001693725586e+00 8.969149589538574219e+00 1.554531288146972656e+01 7.354338645935058594e+00 2.228260755538940430e+00
2.290000000000000000e+02 1.646654510498046875e+01 -6.376419067382812500e-01 3.621359825134277344e+00 1.228029537200927734e+01 4.770496368408203125e+00 2.849145412445068359e+00
2.300000000000000000e+02 1.529322719573974609e+01 -3.133919715881347656e+00 8.252370834350585938e+00 9.667555809020996094e+00 5.375977993011474609e+00 6.862719058990478516e+00
2.310000000000000000e+02 1.511135292053222656e+01 -3.077251434326171875e+00 8.717197418212890625e+00 7.820295333862304688e+00 4.961247920989990234e+00 7.082656383514404297e+00
2.320000000000000000e+02 1.346416378021240234e+01 -1.487137317657470703e+00 3.177108049392700195e+00 -1.431211829185485840e-01 9.101960659027099609e-01 -1.009376272559165955e-01
2.330000000000000000e+02 1.396985626220703125e+01 -1.386263728141784668e+00 3.000205516815185547e+00 8.123525977134704590e-02 9.244322776794433594e-01 -5.919935703277587891e-01
2.340000000000000000e+02 1.363013935089111328e+01 -1.332464218139648438e+00 2.496684074401855469e+00 4.679926671087741852e-03 7.504091858863830566e-01 -4.200763404369354248e-01
2.350000000000000000e+02 1.401277732849121094e+01 -2.667212724685668945e+00 8.340944290161132812e+00 6.132270693778991699e-01 2.686251640319824219e+00 3.427363634109497070e+00
2.360000000000000000e+02 1.289773178100585938e+01 -1.093718290328979492e+00 1.333806633949279785e+00 -2.176591753959655762e-01 3.348442316055297852e-01 -1.598147302865982056e-01
2.370000000000000000e+02 1.300098419189453125e+01 -1.374578118324279785e+00 2.249497413635253906e+00 -2.371136844158172607e-01 6.037151217460632324e-01 -1.057177707552909851e-01
2.380000000000000000e+02 1.408144187927246094e+01 -1.281269073486328125e+00 2.298174858093261719e+00 3.853241503238677979e-01 8.050497174263000488e-01 -6.953848004341125488e-01
2.390000000000000000e+02 1.372921371459960938e+01 -1.175104975700378418e+00 1.773989558219909668e+00 3.181642591953277588e-01 6.276461482048034668e-01 -5.206854939460754395e-01
2.400000000000000000e+02 1.415171241760253906e+01 -1.071816802024841309e+00 3.576879203319549561e-01 1.989784985780715942e-01 1.669999212026596069e-01 -2.355164736509323120e-01
2.410000000000000000e+02 1.500048160552978516e+01 -9.674180150032043457e-01 2.871273517608642578e+00 2.588504314422607422e+00 1.637933373451232910e+00 -2.711620092391967773e+00
2.420000000000000000e+02 1.312066078186035156e+01 -4.430690109729766846e-01 -1.759982854127883911e-01 8.702610433101654053e-02 -2.669165469706058502e-02 -2.726340293884277344e-01
2.430000000000000000e+02 1.359935951232910156e+01 -8.851222395896911621e-01 -1.348693948239088058e-02 5.869996547698974609e-02 1.356390770524740219e-02 -5.734317377209663391e-02
2.440000000000000000e+02 1.395801830291748047e+01 -9.857594370841979980e-01 2.391102612018585205e-01 7.816338539123535156e-02 9.518209099769592285e-02 -1.829112768173217773e-01
2.450000000000000000e+02 1.418587207794189453e+01 2.276916652917861938e-01 1.145156860351562500e+00 2.066394090652465820e+00 9.634652733802795410e-01 -2.083058834075927734e+00
2.460000000000000000e+02 1.399306488037109375e+01 3.127638399600982666e-01 9.638746976852416992e-01 1.826666474342346191e+00 8.371623754501342773e-01 -1.976201057434082031e+00
2.470000000000000000e+02 1.380823993682861328e+01 4.030958414077758789e-01 7.385407090187072754e-01 1.583027482032775879e+00 6.964704394340515137e-01 -1.788854360580444336e+00
2.480000000000000000e+02 1.515429973602294922e+01 -1.651522815227508545e-01 1.610159635543823242e+00 5.492966651916503906e+00 2.130938053131103516e+00 -3.078118562698364258e+00
2.490000000000000000e+02 1.438145732879638672e+01 1.506748646497726440e-01 1.247758507728576660e+00 2.396007776260375977e+00 1.093129873275756836e+00 -2.286247014999389648e+00
2.500000000000000000e+02 1.591674995422363281e+01 -4.156321883201599121e-01 1.378164052963256836e+00 1.137579059600830078e+01 3.826186418533325195e+00 -1.025116443634033203e+00
2.510000000000000000e+02 1.476948642730712891e+01 8.738989010453224182e-03 1.460443019866943359e+00 3.700646400451660156e+00 1.548326730728149414e+00 -2.741916894912719727e+00
2.520000000000000000e+02 1.440434741973876953e+01 -6.764767765998840332e-01 1.679026722908020020e+00 1.168995857238769531e+00 8.544067740440368652e-01 -1.554839849472045898e+00
2.530000000000000000e+02 1.534349918365478516e+01 -5.268861651420593262e-01 2.077795028686523438e+00 7.130434989929199219e+00 2.762469053268432617e+00 -3.459602117538452148e+00
2.540000000000000000e+02 1.610578536987304688e+01 -5.180698633193969727e-01 1.923363685607910156e+00 1.229092979431152344e+01 4.264287948608398438e+00 3.109505176544189453e-01
2.550000000000000000e+02 1.263776302337646484e+01 -1.890346527099609375e+00 3.195069074630737305e+00 -2.480189949274063110e-01 8.841150403022766113e-01 7.622016072273254395e-01
2.560000000000000000e+02 1.308225154876708984e+01 -1.185557842254638672e+00 1.619366407394409180e+00 6.580428779125213623e-02 5.055512189865112305e-01 -1.440147012472152710e-01
2.570000000000000000e+02 1.319305992126464844e+01 -2.410190254449844360e-01 1.594530194997787476e-01 3.860014677047729492e-01 1.636363416910171509e-01 -5.554817318916320801e-01
2.580000000000000000e+02 1.352935791015625000e+01 -6.140592694282531738e-01 3.153795599937438965e-01 2.017656862735748291e-01 1.551435738801956177e-01 -3.653144836425781250e-01
2.590000000000000000e+02 1.331344699859619141e+01 1.641657352447509766e-01 4.164232313632965088e-01 7.073590159416198730e-01 3.371346890926361084e-01 -1.068001985549926758e+00
2.600000000000000000e+02 1.355281639099121094e+01 3.001607954502105713e-01 5.312750339508056641e-01 1.223475337028503418e+00 5.264251232147216797e-01 -1.461909532546997070e+00
2.610000000000000000e+02 1.333079528808593750e+01 -5.195310711860656738e-01 8.863814920186996460e-02 2.377745211124420166e-01 9.792380034923553467e-02 -3.037396669387817383e-01
2.620000000000000000e+02 1.294197940826416016e+01 -2.227589845657348633e+00 4.649528026580810547e+00 -2.819290161132812500e-01 1.310279607772827148e+00 1.331603527069091797e+00
2.630000000000000000e+02 1.342811965942382812e+01 -2.137886285781860352e+00 5.550750732421875000e+00 -4.356699287891387939e-01 1.534524321556091309e+00 1.048100113868713379e+00
2.640000000000000000e+02 1.349720954895019531e+01 -2.444535970687866211e+00 6.595581531524658203e+00 -3.343539535999298096e-01 1.878368258476257324e+00 2.052184820175170898e+00
2.650000000000000000e+02 1.420497798919677734e+01 -2.708395719528198242e+00 9.169116020202636719e+00 8.135098218917846680e-01 2.994787693023681641e+00 3.932310104370117188e+00
2.660000000000000000e+02 1.440339088439941406e+01 -2.770751953125000000e+00 9.693652153015136719e+00 1.730325341224670410e+00 3.427193403244018555e+00 4.879852771759033203e+00
2.670000000000000000e+02 1.477414703369140625e+01 -2.952573776245117188e+00 1.018077564239501953e+01 4.283711433410644531e+00 4.339345932006835938e+00 6.738426208496093750e+00
2.680000000000000000e+02 1.335193157196044922e+01 -1.066944956779479980e+00 1.293238878250122070e+00 1.379408389329910278e-01 4.293539226055145264e-01 -2.724989652633666992e-01
2.690000000000000000e+02 1.370738983154296875e+01 -7.427455782890319824e-01 3.528006374835968018e-01 1.806889176368713379e-01 1.600468605756759644e-01 -2.677555978298187256e-01
2.700000000000000000e+02 1.323988437652587891e+01 -7.202288508415222168e-01 -1.850679367780685425e-01 1.454352401196956635e-02 -5.115732550621032715e-02 2.614811621606349945e-02
2.710000000000000000e+02 1.440884304046630859e+01 -2.355728387832641602e+00 1.016202259063720703e+01 2.877788841724395752e-01 3.134940385818481445e+00 2.919988155364990234e+00
2.720000000000000000e+02 1.423546886444091797e+01 -2.191412687301635742e+00 8.809721946716308594e+00 -1.731220632791519165e-01 2.590979814529418945e+00 1.521102428436279297e+00
2.730000000000000000e+02 1.405935764312744141e+01 -2.491178035736083984e+00 8.476397514343261719e+00 1.727856993675231934e-01 2.594754934310913086e+00 2.940052509307861328e+00
2.740000000000000000e+02 1.353236865997314453e+01 -1.901596784591674805e+00 4.947293758392333984e+00 -2.312006056308746338e-01 1.414827942848205566e+00 5.469402074813842773e-01
2.750000000000000000e+02 1.293225288391113281e+01 -1.560744881629943848e+00 2.855967760086059570e+00 -1.571423858404159546e-01 8.096476197242736816e-01 1.280831545591354370e-01
2.760000000000000000e+02 1.455267620086669922e+01 -8.084455728530883789e-01 1.884497523307800293e+00 1.106719255447387695e+00 8.973650336265563965e-01 -1.481981515884399414e+00
2.770000000000000000e+02 1.364283657073974609e+01 -4.206985235214233398e-01 5.624532699584960938e-01 5.112611651420593262e-01 3.221143186092376709e-01 -7.023533582687377930e-01
2.780000000000000000e+02 1.464663982391357422e+01 -4.675202071666717529e-01 2.118349790573120117e+00 2.165189504623413086e+00 1.285061717033386230e+00 -2.301012516021728516e+00
2.790000000000000000e+02 1.385783863067626953e+01 -5.715829133987426758e-01 7.730741500854492188e-01 4.483876824378967285e-01 3.664385378360748291e-01 -7.299452424049377441e-01
2.800000000000000000e+02 1.315308094024658203e+01 -9.725673794746398926e-01 1.030072450637817383e+00 -5.297688022255897522e-02 2.931286692619323730e-01 -2.375763207674026489e-01
2.810000000000000000e+02 1.513951015472412109e+01 -5.878931879997253418e-01 2.340244770050048828e+00 5.082097053527832031e+00 2.226702690124511719e+00 -3.346188783645629883e+00
2.820000000000000000e+02 1.375088882446289062e+01 -1.861071884632110596e-01 7.759920358657836914e-01 8.126429915428161621e-01 4.765905141830444336e-01 -1.149587154388427734e+00
2.830000000000000000e+02 1.316792297363281250e+01 -1.467020750045776367e+00 2.786563634872436523e+00 -1.426558494567871094e-01 7.931722998619079590e-01 -1.124311387538909912e-01
2.840000000000000000e+02 1.470065879821777344e+01 -6.595969200134277344e-01 2.119585514068603516e+00 1.995217323303222656e+00 1.234440803527832031e+00 -2.188590049743652344e+00
2.850000000000000000e+02 1.399879074096679688e+01 -2.109475612640380859e+00 7.296136379241943359e+00 -2.149878740310668945e-01 2.124344587326049805e+00 1.028728842735290527e+00
2.860000000000000000e+02 1.378074264526367188e+01 -2.351695060729980469e+00 7.346930980682373047e+00 -2.462405115365982056e-01 2.130207061767578125e+00 1.797684550285339355e+00
2.870000000000000000e+02 1.445053958892822266e+01 -4.437344968318939209e-01 1.739932775497436523e+00 1.663510441780090332e+00 1.021032929420471191e+00 -1.868600487709045410e+00
2.880000000000000000e+02 1.370291614532470703e+01 1.985745131969451904e-01 7.457845807075500488e-01 1.181483030319213867e+00 5.781802535057067871e-01 -1.514821290969848633e+00
2.890000000000000000e+02 1.362343597412109375e+01 4.876365661621093750e-01 5.971389412879943848e-01 1.365627884864807129e+00 5.888300538063049316e-01 -1.649285793304443359e+00
2.900000000000000000e+02 1.325914287567138672e+01 -3.756693005561828613e-02 2.473095059394836426e-01 5.429112315177917480e-01 2.370662242174148560e-01 -8.388873338699340820e-01
2.910000000000000000e+02 1.342174434661865234e+01 -3.175966143608093262e-01 3.326227664947509766e-01 4.023707211017608643e-01 2.204980403184890747e-01 -6.931610703468322754e-01
2.920000000000000000e+02 1.387260341644287109e+01 6.640156358480453491e-02 9.514935612678527832e-01 1.290148496627807617e+00 6.724926233291625977e-01 -1.555397391319274902e+00
2.930000000000000000e+02 1.282827281951904297e+01 -1.292267203330993652e+00 1.887818574905395508e+00 -7.832297706045210361e-04 5.661106109619140625e-01 -6.992226094007492065e-02
2.940000000000000000e+02 1.276151561737060547e+01 -1.490512847900390625e+00 2.424414634704589844e+00 -3.149569630622863770e-01 6.328372955322265625e-01 1.530284136533737183e-01
2.950000000000000000e+02 1.269922637939453125e+01 -1.689399838447570801e+00 2.851680994033813477e+00 -2.401684522628784180e-01 7.834537625312805176e-01 3.716401755809783936e-01
2.960000000000000000e+02 1.354628467559814453e+01 -1.122108697891235352e+00 1.500517249107360840e+00 -1.102697849273681641e-01 4.170742332935333252e-01 -4.262394309043884277e-01
2.970000000000000000e+02 1.391198444366455078e+01 -1.231916785240173340e+00 1.939932107925415039e+00 6.885361392050981522e-03 5.840452313423156738e-01 -6.474271416664123535e-01
2.980000000000000000e+02 1.412974643707275391e+01 -1.505115270614624023e+00 3.796952247619628906e+00 1.950647383928298950e-01 1.197605133056640625e+00 -6.703321337699890137e-01
2.990000000000000000e+02 1.443198871612548828e+01 -1.460082769393920898e+00 3.626090764999389648e+00 2.937961816787719727e-01 1.175966024398803711e+00 -8.535287380218505859e-01
3.000000000000000000e+02 1.307433509826660156e+01 -1.805745601654052734e+00 3.738049745559692383e+00 -2.086854726076126099e-01 1.058809280395507812e+00 5.305661559104919434e-01
3.010000000000000000e+02 1.310531806945800781e+01 -1.620815038681030273e+00 3.286459207534790039e+00 -3.439878821372985840e-01 8.827413916587829590e-01 2.496765255928039551e-01
3.020000000000000000e+02 1.282251834869384766e+01 -1.952758789062500000e+00 3.827020168304443359e+00 -2.784243226051330566e-01 1.064578771591186523e+00 8.794286251068115234e-01
3.030000000000000000e+02 1.301808071136474609e+01 -2.010998010635375977e+00 4.214995861053466797e+00 -4.600375592708587646e-01 1.126487493515014648e+00 7.723303437232971191e-01
3.040000000000000000e+02 1.331620788574218750e+01 -2.365976572036743164e+00 5.782409191131591797e+00 -2.707132995128631592e-01 1.653508782386779785e+00 1.806669354438781738e+00
3.050000000000000000e+02 1.363013839721679688e+01 -2.233585596084594727e+00 6.374844074249267578e+00 -2.709002196788787842e-01 1.831183075904846191e+00 1.449338555335998535e+00
3.060000000000000000e+02 1.422318840026855469e+01 -2.486266374588012695e+00 9.279255867004394531e+00 6.177961826324462891e-01 2.969115734100341797e+00 3.153747320175170898e+00
3.070000000000000000e+02 1.455426311492919922e+01 -2.539047479629516602e+00 1.107679939270019531e+01 1.512154459953308105e+00 3.776686191558837891e+00 4.354288101196289062e+00
3.080000000000000000e+02 1.473117733001708984e+01 -2.659144878387451172e+00 1.129185485839843750e+01 3.187851667404174805e+00 4.343912124633789062e+00 5.832389354705810547e+00
3.090000000000000000e+02 1.635511779785156250e+01 -2.866144180297851562e+00 9.639038085937500000e+00 1.359839153289794922e+01 6.971229076385498047e+00 6.198522448539733887e-01
3.100000000000000000e+02 1.620959472656250000e+01 -2.971988439559936523e+00 8.440728187561035156e+00 1.385202121734619141e+01 6.687824726104736328e+00 1.506300568580627441e+00
3.110000000000000000e+02 1.664201354980468750e+01 -2.604756832122802734e+00 1.216090774536132812e+01 1.161237335205078125e+01 7.131984233856201172e+00 -2.302202582359313965e-01
3.120000000000000000e+02 1.711262321472167969e+01 -1.718203425407409668e+00 1.246847248077392578e+01 7.912811756134033203e+00 6.114385128021240234e+00 3.714946269989013672e+00
3.130000000000000000e+02 1.675747680664062500e+01 -1.486933112144470215e+00 1.237916374206542969e+01 1.065709877014160156e+01 6.910878658294677734e+00 5.429759025573730469e+00
3.140000000000000000e+02 1.665007591247558594e+01 -9.953728318214416504e-01 6.803407192230224609e+00 1.231777000427246094e+01 5.736353397369384766e+00 4.999914169311523438e+00
3.150000000000000000e+02 1.634564781188964844e+01 -7.383580207824707031e-01 3.346950769424438477e+00 1.345512294769287109e+01 5.040622234344482422e+00 2.542065382003784180e+00
3.160000000000000000e+02 1.575021457672119141e+01 -3.346860408782958984e-01 1.339528560638427734e+00 9.453159332275390625e+00 3.237806320190429688e+00 -2.019797563552856445e+00
3.170000000000000000e+02 1.556131458282470703e+01 -2.898138165473937988e-01 1.442062973976135254e+00 8.563059806823730469e+00 3.001536607742309570e+00 -2.712785243988037109e+00
3.180000000000000000e+02 1.535733413696289062e+01 -2.432179152965545654e-01 1.630900144577026367e+00 6.911633014678955078e+00 2.562759876251220703e+00 -3.007728576660156250e+00
3.190000000000000000e+02 1.408566093444824219e+01 -3.932568803429603577e-02 1.159480571746826172e+00 1.523965954780578613e+00 8.050339221954345703e-01 -1.780776619911193848e+00
3.200000000000000000e+02 1.429566955566406250e+01 -1.192285716533660889e-01 1.407970786094665527e+00 1.841019153594970703e+00 9.746969342231750488e-01 -1.981280207633972168e+00
3.210000000000000000e+02 1.377055835723876953e+01 -9.324769377708435059e-01 1.344614624977111816e-01 1.113249808549880981e-01 7.373593747615814209e-02 -1.422089338302612305e-01
3.220000000000000000e+02 1.404036235809326172e+01 -7.439873814582824707e-01 8.961745500564575195e-01 4.458392262458801270e-01 4.026041328907012939e-01 -6.545460224151611328e-01
3.230000000000000000e+02 1.420326042175292969e+01 -8.498057126998901367e-01 9.996505379676818848e-01 2.883259952068328857e-01 3.863929808139801025e-01 -6.381272673606872559e-01
3.240000000000000000e+02 1.438589096069335938e+01 -8.863680362701416016e-01 1.377673745155334473e+00 4.440642297267913818e-01 5.465213656425476074e-01 -8.215300440788269043e-01
3.250000000000000000e+02 1.450073242187500000e+01 -1.801503300666809082e-01 1.671519637107849121e+00 2.300629615783691406e+00 1.191644787788391113e+00 -2.297939062118530273e+00
3.260000000000000000e+02 1.487747097015380859e+01 -3.003791272640228271e-01 1.980249762535095215e+00 3.816771030426025391e+00 1.739106297492980957e+00 -2.968393564224243164e+00
3.270000000000000000e+02 1.496067619323730469e+01 -6.817049533128738403e-02 1.461403846740722656e+00 4.485977172851562500e+00 1.784214258193969727e+00 -2.935542583465576172e+00
3.280000000000000000e+02 1.436590290069580078e+01 -1.768881678581237793e+00 6.449679374694824219e+00 -2.506002485752105713e-01 1.859723687171936035e+00 -4.764588475227355957e-01
3.290000000000000000e+02 1.649182510375976562e+01 -8.726600408554077148e-01 5.098963737487792969e+00 1.346403026580810547e+01 5.568898200988769531e+00 4.091836452484130859e+00
3.300000000000000000e+02 1.677635002136230469e+01 -1.881492137908935547e+00 1.534833717346191406e+01 9.660087585449218750e+00 7.502527713775634766e+00 3.236955642700195312e+00
3.310000000000000000e+02 1.576567935943603516e+01 -2.946673631668090820e+00 8.132794380187988281e+00 1.463677215576171875e+01 6.830870151519775391e+00 4.674254417419433594e+00
3.320000000000000000e+02 1.352924728393554688e+01 1.170685142278671265e-01 5.934672355651855469e-01 9.393539428710937500e-01 4.598463475704193115e-01 -1.224202632904052734e+00
3.330000000000000000e+02 1.480631446838378906e+01 -5.047129988670349121e-01 2.346852302551269531e+00 2.916965246200561523e+00 1.579145193099975586e+00 -2.681556463241577148e+00
3.340000000000000000e+02 1.504959583282470703e+01 -3.964927196502685547e-01 2.172637701034545898e+00 4.882073879241943359e+00 2.116413354873657227e+00 -3.159151315689086914e+00
3.350000000000000000e+02 1.496086406707763672e+01 -5.951606035232543945e-01 2.440143108367919922e+00 3.669529199600219727e+00 1.832901716232299805e+00 -3.062072277069091797e+00
3.360000000000000000e+02 1.429539585113525391e+01 -1.612475275993347168e+00 4.940163135528564453e+00 7.388662546873092651e-02 1.504215002059936523e+00 -7.628338932991027832e-01
3.370000000000000000e+02 1.387786483764648438e+01 -1.817761421203613281e+00 5.507112503051757812e+00 -1.583762466907501221e-01 1.604620933532714844e+00 2.388362288475036621e-01
3.380000000000000000e+02 1.576546669006347656e+01 -5.160522460937500000e-01 1.653537154197692871e+00 1.092532730102539062e+01 3.773659229278564453e+00 -1.959244251251220703e+00
3.390000000000000000e+02 1.376220893859863281e+01 -2.019682645797729492e+00 6.092294216156005859e+00 -3.837827146053314209e-01 1.712553381919860840e+00 6.854030489921569824e-01
3.400000000000000000e+02 1.399985313415527344e+01 -1.647535443305969238e+00 4.809645175933837891e+00 -1.689757555723190308e-01 1.392200827598571777e+00 -3.624390363693237305e-01
3.410000000000000000e+02 1.676416587829589844e+01 -2.456887006759643555e+00 1.327856063842773438e+01 1.047537899017333984e+01 7.126182079315185547e+00 1.430734694004058838e-01
3.420000000000000000e+02 1.328793811798095703e+01 -1.616520047187805176e+00 3.504787445068359375e+00 -1.477232426404953003e-01 1.007119297981262207e+00 7.656060904264450073e-02
3.430000000000000000e+02 1.411892223358154297e+01 -2.349812746047973633e+00 8.777853012084960938e+00 5.725923925638198853e-02 2.650533676147460938e+00 2.291017532348632812e+00
3.440000000000000000e+02 1.394408416748046875e+01 -2.289391279220581055e+00 7.757406234741210938e+00 -3.006253242492675781e-01 2.237034320831298828e+00 1.823039174079895020e+00
3.450000000000000000e+02 1.390710353851318359e+01 -2.442098379135131836e+00 8.084898948669433594e+00 3.530955687165260315e-02 2.436062335968017578e+00 2.506063461303710938e+00
3.460000000000000000e+02 1.287866497039794922e+01 -1.752657651901245117e+00 3.254542827606201172e+00 -3.325912058353424072e-01 8.765854835510253906e-01 5.016514062881469727e-01
3.470000000000000000e+02 1.350455188751220703e+01 -9.642988443374633789e-02 5.332484841346740723e-01 7.198557853698730469e-01 3.759312927722930908e-01 -9.833317995071411133e-01
3.480000000000000000e+02 1.398368740081787109e+01 -3.147004246711730957e-01 1.122570872306823730e+00 9.616080522537231445e-01 6.252536773681640625e-01 -1.280326843261718750e+00
3.490000000000000000e+02 1.420598793029785156e+01 -6.450425982475280762e-01 1.354915142059326172e+00 7.409982681274414062e-01 6.287739872932434082e-01 -1.131029009819030762e+00
3.500000000000000000e+02 1.485510349273681641e+01 -8.014154434204101562e-01 2.562994956970214844e+00 2.401345968246459961e+00 1.489302277565002441e+00 -2.482710123062133789e+00
3.510000000000000000e+02 1.409668254852294922e+01 -1.915821552276611328e+00 6.508993625640869141e+00 -2.997711002826690674e-01 1.862766742706298828e+00 2.765923738479614258e-01
3.520000000000000000e+02 1.366018486022949219e+01 -1.682115435600280762e+00 4.307011127471923828e+00 -2.556799650192260742e-01 1.215399384498596191e+00 -7.824534177780151367e-02
3.530000000000000000e+02 1.329660415649414062e+01 -1.835708141326904297e+00 4.220475196838378906e+00 -4.441714882850646973e-01 1.132891178131103516e+00 3.781761527061462402e-01
3.540000000000000000e+02 1.113831996917724609e+01 -1.609400031156837940e-03 -1.502878308296203613e+00 -2.219081856310367584e-02 -4.575207531452178955e-01 2.647123932838439941e-01
3.550000000000000000e+02 1.047344112396240234e+01 6.715800166130065918e-01 -1.362800240516662598e+00 -2.253464795649051666e-02 -4.156004488468170166e-01 -3.977116569876670837e-02
3.560000000000000000e+02 1.267541313171386719e+01 -5.343271493911743164e-01 -7.370204925537109375e-01 1.762582571245729923e-03 -2.205773741006851196e-01 1.050413697957992554e-01
3.570000000000000000e+02 1.040223979949951172e+01 1.769053786993026733e-01 -1.969892501831054688e+00 -9.196994453668594360e-02 -6.185587644577026367e-01 2.942497432231903076e-01
3.580000000000000000e+02 1.291835117340087891e+01 -1.621406525373458862e-01 -2.308600991964340210e-01 2.446236461400985718e-01 4.129065200686454773e-03 -3.714681863784790039e-01
3.590000000000000000e+02 1.297462272644042969e+01 2.287473343312740326e-02 -1.117515377700328827e-02 5.136815905570983887e-01 1.507519334554672241e-01 -7.409901618957519531e-01
3.600000000000000000e+02 1.304921245574951172e+01 4.405094981193542480e-01 1.930765509605407715e-01 7.006278634071350098e-01 2.681113183498382568e-01 -1.117098450660705566e+00
3.610000000000000000e+02 1.302760601043701172e+01 6.718698740005493164e-01 1.236549764871597290e-01 9.271040558815002441e-01 3.152277171611785889e-01 -1.246623277664184570e+00
3.620000000000000000e+02 1.054613971710205078e+01 1.159130692481994629e+00 -9.212161898612976074e-01 1.422046869993209839e-01 -2.337034493684768677e-01 -1.753447800874710083e-01
3.630000000000000000e+02 1.132449340820312500e+01 9.694935679435729980e-01 -7.892857193946838379e-01 3.405259549617767334e-01 -1.346279382705688477e-01 -4.151104092597961426e-01
3.640000000000000000e+02 1.194674015045166016e+01 3.302700817584991455e-01 -6.983780860900878906e-01 2.315111011266708374e-01 -1.400600969791412354e-01 -2.741225957870483398e-01
3.650000000000000000e+02 1.253966712951660156e+01 2.575165927410125732e-01 -3.518382608890533447e-01 4.459436833858489990e-01 2.823162451386451721e-02 -5.768989920616149902e-01
3.660000000000000000e+02 1.244111728668212891e+01 -2.713774740695953369e-01 -7.167800664901733398e-01 7.653962820768356323e-03 -2.127378284931182861e-01 -3.558962047100067139e-02
3.670000000000000000e+02 1.264313411712646484e+01 -1.680609397590160370e-02 -4.314717054367065430e-01 2.638745307922363281e-01 -5.027915537357330322e-02 -3.756956756114959717e-01
3.680000000000000000e+02 1.263487911224365234e+01 5.867344141006469727e-01 -1.258770674467086792e-01 7.404948472976684570e-01 1.843853294849395752e-01 -9.158260226249694824e-01
3.690000000000000000e+02 1.207757472991943359e+01 7.827900052070617676e-01 -4.799377620220184326e-01 5.961672067642211914e-01 3.486883640289306641e-02 -6.868956089019775391e-01
3.700000000000000000e+02 1.186862087249755859e+01 -1.702394634485244751e-01 -1.128103375434875488e+00 2.859261259436607361e-02 -3.298532366752624512e-01 1.240430846810340881e-01
3.710000000000000000e+02 1.122561550140380859e+01 4.945158958435058594e-01 -1.144915938377380371e+00 1.653086394071578979e-01 -2.938821911811828613e-01 -1.008948236703872681e-01
3.720000000000000000e+02 1.299581241607666016e+01 2.288411259651184082e-01 1.715686470270156860e-01 6.124551296234130859e-01 2.352071404457092285e-01 -9.513149857521057129e-01
3.730000000000000000e+02 1.283164691925048828e+01 -3.502912223339080811e-01 -2.120197415351867676e-01 1.623126864433288574e-01 -1.491211540997028351e-02 -1.993891298770904541e-01
3.740000000000000000e+02 9.597756385803222656e+00 3.285874724388122559e-01 -2.032313823699951172e+00 -6.589186936616897583e-02 -6.294617056846618652e-01 1.697324514389038086e-01
3.750000000000000000e+02 9.150160789489746094e+00 1.216511607170104980e+00 -1.136672496795654297e+00 -1.742525026202201843e-02 -3.462293148040771484e-01 1.919398754835128784e-01
3.760000000000000000e+02 9.692094802856445312e+00 8.465116024017333984e-01 -1.357075452804565430e+00 -3.070328384637832642e-02 -4.163336157798767090e-01 1.115236133337020874e-01
3.770000000000000000e+02 9.799925804138183594e+00 1.277924060821533203e+00 -9.574048519134521484e-01 1.022843942046165466e-01 -2.565361559391021729e-01 2.836901135742664337e-02
3.780000000000000000e+02 7.147254943847656250e+00 3.961493372917175293e-01 -1.329447388648986816e+00 6.293509621173143387e-03 -3.969461619853973389e-01 1.050423011183738708e-01
3.790000000000000000e+02 5.261425971984863281e+00 1.137234568595886230e+00 -6.488946676254272461e-01 -1.563625596463680267e-02 -1.993592828512191772e-01 2.799367606639862061e-01
3.800000000000000000e+02 4.827496528625488281e+00 3.991442024707794189e-01 -6.875896453857421875e-01 -6.625746842473745346e-03 -2.082646042108535767e-01 1.026606038212776184e-01
3.810000000000000000e+02 2.921556234359741211e+00 1.139463305473327637e+00 -2.459886670112609863e-01 -4.060656577348709106e-02 -8.597856760025024414e-02 1.947600096464157104e-01
3.820000000000000000e+02 2.510025739669799805e+00 4.014091491699218750e-01 -1.701182723045349121e-01 -1.193068455904722214e-02 -5.461468920111656189e-02 5.719484016299247742e-02
3.830000000000000000e+02 2.142880916595458984e+00 1.141409158706665039e+00 -1.410104781389236450e-01 -5.674800276756286621e-02 -5.932754278182983398e-02 1.445665955543518066e-01
3.840000000000000000e+02 1.378073334693908691e+00 1.136731863021850586e+00 -6.383863091468811035e-02 -5.425170436501502991e-02 -3.542710095643997192e-02 7.882695645093917847e-02
3.850000000000000000e+02 1.752244353294372559e+00 3.967318236827850342e-01 -6.804861873388290405e-02 -1.235308032482862473e-02 -2.412050962448120117e-02 3.288797661662101746e-02
3.860000000000000000e+02 3.728979229927062988e-01 5.564903616905212402e-01 -1.464595261495560408e-04 -8.073864155448973179e-04 -2.861537795979529619e-04 3.799946571234613657e-04
3.870000000000000000e+02 6.815608143806457520e-01 1.112031459808349609e+00 -2.079265750944614410e-02 -2.514757402241230011e-02 -1.378207001835107803e-02 2.562825754284858704e-02
3.880000000000000000e+02 4.054538249969482422e+00 3.993419110774993896e-01 -4.894075095653533936e-01 -5.515165627002716064e-03 -1.484768092632293701e-01 9.049832075834274292e-02
3.890000000000000000e+02 3.281674861907958984e+00 3.994632959365844727e-01 -3.140499889850616455e-01 -9.481058456003665924e-03 -9.705931693315505981e-02 7.715724408626556396e-02
3.900000000000000000e+02 4.481430530548095703e+00 1.139144182205200195e+00 -4.999129176139831543e-01 -2.070361562073230743e-02 -1.561849564313888550e-01 2.586719393730163574e-01
3.910000000000000000e+02 6.373499870300292969e+00 3.967097699642181396e-01 -1.116431117057800293e+00 -5.052450112998485565e-03 -3.364450633525848389e-01 1.113524064421653748e-01
3.920000000000000000e+02 6.822267532348632812e+00 1.136149287223815918e+00 -9.423885345458984375e-01 4.108437860850244761e-04 -2.825933098793029785e-01 2.809770405292510986e-01
3.930000000000000000e+02 7.928435325622558594e+00 3.924178481101989746e-01 -1.544816613197326660e+00 -6.612230557948350906e-03 -4.654286503791809082e-01 1.100263968110084534e-01
3.940000000000000000e+02 8.742504119873046875e+00 3.900450766086578369e-01 -1.750672340393066406e+00 1.056787557899951935e-02 -5.220313668251037598e-01 9.932027012109756470e-02
3.950000000000000000e+02 8.431569099426269531e+00 1.130045056343078613e+00 -1.175713539123535156e+00 1.506298501044511795e-02 -3.481951951980590820e-01 2.285670191049575806e-01
3.960000000000000000e+02 7.610474109649658203e+00 1.132417798042297363e+00 -1.072937607765197754e+00 1.388810295611619949e-02 -3.177148401737213135e-01 2.559971213340759277e-01
3.970000000000000000e+02 1.062758088111877441e+00 3.720314502716064453e-01 -1.399079803377389908e-02 -7.412160746753215790e-03 -6.420887541025876999e-03 1.061717048287391663e-02
3.980000000000000000e+02 6.041486263275146484e+00 1.136709809303283691e+00 -7.948516011238098145e-01 -7.544610707554966211e-05 -2.384781092405319214e-01 2.806942462921142578e-01
3.990000000000000000e+02 3.701446056365966797e+00 1.139341950416564941e+00 -3.669790923595428467e-01 -3.086956590414047241e-02 -1.193545982241630554e-01 2.336172163486480713e-01
4.000000000000000000e+02 5.600465774536132812e+00 3.972344994544982910e-01 -8.971710801124572754e-01 8.024109411053359509e-04 -2.689105868339538574e-01 1.051228269934654236e-01
4.010000000000000000e+02 1.049761056900024414e+00 -1.146010398864746094e+00 -6.611836701631546021e-02 -1.088143140077590942e-01 -5.247980728745460510e-02 -1.206934377551078796e-01
4.020000000000000000e+02 7.111444950103759766e+00 -3.867213428020477295e-01 -1.165289878845214844e+00 5.003394559025764465e-02 -3.345767855644226074e-01 1.382584497332572937e-02
4.030000000000000000e+02 9.473914146423339844e+00 -1.125243544578552246e+00 -1.086290404200553894e-01 1.359496116638183594e-01 8.196168579161167145e-03 4.044265747070312500e-01
4.040000000000000000e+02 8.700733184814453125e+00 -1.117770552635192871e+00 -3.475098609924316406e-01 3.221891075372695923e-02 -9.458728134632110596e-02 2.930840551853179932e-01
4.050000000000000000e+02 8.733469963073730469e+00 -3.777705132961273193e-01 -8.918333649635314941e-01 6.878453493118286133e-02 -2.469146400690078735e-01 9.705480188131332397e-02
4.060000000000000000e+02 7.920370101928710938e+00 -3.781663477420806885e-01 -1.078225731849670410e+00 -2.448241598904132843e-02 -3.308124542236328125e-01 4.359299317002296448e-02
4.070000000000000000e+02 6.325098037719726562e+00 -4.093929231166839600e-01 -1.161989569664001465e+00 -5.249033682048320770e-03 -3.501715958118438721e-01 -3.230685740709304810e-02
4.080000000000000000e+02 5.207643985748291016e+00 -3.212112486362457275e-01 -1.066482543945312500e+00 1.939266361296176910e-02 -3.141269683837890625e-01 -4.015060141682624817e-02
4.090000000000000000e+02 3.025855541229248047e+00 -3.727470934391021729e-01 -4.465790390968322754e-01 -9.541107341647148132e-03 -1.368360370397567749e-01 -1.141866147518157959e-01
4.100000000000000000e+02 2.218713998794555664e+00 -3.789961338043212891e-01 -2.247871011495590210e-01 -1.096691936254501343e-02 -7.072620838880538940e-02 -8.818785101175308228e-02
4.110000000000000000e+02 3.660108745098114014e-01 -9.624277353286743164e-01 -5.405503907240927219e-04 -3.703015297651290894e-02 -1.127121038734912872e-02 -2.504029683768749237e-02
4.120000000000000000e+02 9.545720100402832031e+00 -3.852435350418090820e-01 -6.092143058776855469e-01 -2.889579162001609802e-02 -1.914330273866653442e-01 1.321965008974075317e-01
4.130000000000000000e+02 6.409570693969726562e+00 -1.149392962455749512e+00 -7.162291407585144043e-01 1.281731873750686646e-01 -1.764167845249176025e-01 -1.609151833690702915e-03
4.140000000000000000e+02 5.625970363616943359e+00 -6.572690606117248535e-01 -1.011864423751831055e+00 1.187056209892034531e-02 -2.999981641769409180e-01 -7.870754599571228027e-02
4.150000000000000000e+02 4.691394805908203125e+00 -8.526822328567504883e-01 -7.158784270286560059e-01 4.147651419043540955e-02 -2.023205757141113281e-01 -2.110318094491958618e-01
4.160000000000000000e+02 4.559724807739257812e+00 -2.983199059963226318e-01 -9.055939316749572754e-01 -9.436405263841152191e-03 -2.745091021060943604e-01 -7.458636909723281860e-02
4.170000000000000000e+02 3.814672231674194336e+00 -3.550420105457305908e-01 -6.945437192916870117e-01 2.606414258480072021e-02 -2.005438655614852905e-01 -9.895633906126022339e-02
4.180000000000000000e+02 2.498534440994262695e+00 -1.118996143341064453e+00 -2.873008847236633301e-01 -5.504969134926795959e-02 -1.027051731944084167e-01 -2.742813229560852051e-01
4.190000000000000000e+02 1.740616083145141602e+00 -1.123402714729309082e+00 -1.576352566480636597e-01 -7.814353704452514648e-02 -7.073363661766052246e-02 -1.868583112955093384e-01
4.200000000000000000e+02 6.918016076087951660e-01 -4.060103595256805420e-01 -2.147882431745529175e-02 -1.853897050023078918e-02 -1.200533844530582428e-02 -1.122942194342613220e-02
4.210000000000000000e+02 5.708915710449218750e+00 -1.212906718254089355e+00 -7.230066061019897461e-01 5.083183944225311279e-02 -2.016524374485015869e-01 -1.502987742424011230e-01
4.220000000000000000e+02 5.109339237213134766e+00 -1.193958163261413574e+00 -6.542592048645019531e-01 9.023680537939071655e-02 -1.692067235708236694e-01 -1.900511682033538818e-01
4.230000000000000000e+02 3.266606330871582031e+00 -1.112747073173522949e+00 -4.282433688640594482e-01 1.218040566891431808e-02 -1.248188838362693787e-01 -2.828072607517242432e-01
4.240000000000000000e+02 4.016353130340576172e+00 -1.095041990280151367e+00 -5.557599663734436035e-01 2.738693170249462128e-02 -1.585119068622589111e-01 -2.756751477718353271e-01
4.250000000000000000e+02 1.421726226806640625e+00 -3.834027051925659180e-01 -7.484374940395355225e-02 -1.817263849079608917e-02 -2.790491655468940735e-02 -5.631617456674575806e-02
4.260000000000000000e+02 7.156847953796386719e+00 -1.126721382141113281e+00 -6.928722262382507324e-01 6.207064539194107056e-02 -1.892404854297637939e-01 7.739060372114181519e-02
4.270000000000000000e+02 7.926703453063964844e+00 -1.118166327476501465e+00 -5.558929443359375000e-01 1.338963508605957031e-01 -1.265989691019058228e-01 2.269207984209060669e-01
4.280000000000000000e+02 8.710798263549804688e+00 -1.883149266242980957e+00 1.059399247169494629e-01 2.655745744705200195e-01 1.114543527364730835e-01 6.218357682228088379e-01
4.290000000000000000e+02 4.193655967712402344e+00 -1.862574934959411621e+00 -4.408086240291595459e-01 1.121930554509162903e-01 -9.858467429876327515e-02 -3.402206003665924072e-01
4.300000000000000000e+02 5.560792684555053711e-01 -1.063238334655761719e+01 -4.383366182446479797e-02 -4.476080894470214844e+00 -1.355974435806274414e+00 -3.174082934856414795e-01
4.310000000000000000e+02 9.772226333618164062e+00 -1.152515029907226562e+01 1.051770091056823730e+00 1.217766761779785156e+01 3.968831062316894531e+00 5.330673217773437500e+00
4.320000000000000000e+02 1.093113708496093750e+01 -1.168618774414062500e+01 1.098150491714477539e+00 5.032078742980957031e+00 1.839068770408630371e+00 5.139523029327392578e+00
4.330000000000000000e+02 1.224470615386962891e+01 -1.160837936401367188e+01 -7.736460685729980469e+00 -1.139898419380187988e+00 -2.662907838821411133e+00 2.767343282699584961e+00
4.340000000000000000e+02 1.365853023529052734e+01 -1.192056179046630859e+01 -1.101939868927001953e+01 -1.607374310493469238e+00 -3.788031816482543945e+00 4.178099632263183594e+00
4.350000000000000000e+02 1.630537605285644531e+01 -1.301269435882568359e+01 -9.411810874938964844e+00 -1.639319896697998047e+00 -3.315339326858520508e+00 4.179133892059326172e+00
4.360000000000000000e+02 1.767999839782714844e+01 -1.352190303802490234e+01 -8.361920356750488281e+00 -1.214353084564208984e+00 -2.872882127761840820e+00 3.381195068359375000e+00
4.370000000000000000e+02 1.905028533935546875e+01 -1.413613033294677734e+01 -7.971179962158203125e+00 -1.307392239570617676e+00 -2.783571720123291016e+00 3.080227613449096680e+00
4.380000000000000000e+02 2.278420448303222656e+01 -1.609092140197753906e+01 -5.217696666717529297e+00 -5.831235647201538086e-01 -1.740246057510375977e+00 1.939481496810913086e+00
4.390000000000000000e+02 2.522923851013183594e+01 -1.448398303985595703e+01 -4.463800907135009766e+00 3.400070667266845703e-01 -1.237138152122497559e+00 7.009724378585815430e-01
4.400000000000000000e+02 2.973266792297363281e+01 -7.348172187805175781e+00 -4.346989095211029053e-01 6.751213073730468750e-01 7.212670892477035522e-02 -5.142275094985961914e-01
4.410000000000000000e+02 3.882042312622070312e+01 3.241233348846435547e+00 1.127791643142700195e+00 5.587781667709350586e-01 5.059709548950195312e-01 1.779346317052841187e-01
4.420000000000000000e+02 3.921718215942382812e+01 1.016689491271972656e+01 7.933288216590881348e-01 1.538498282432556152e+00 6.995481252670288086e-01 8.530308008193969727e-01
4.430000000000000000e+02 3.301991653442382812e+01 2.254261016845703125e+01 1.429046541452407837e-01 1.838121652603149414e+00 5.943078994750976562e-01 4.664941132068634033e-01
4.440000000000000000e+02 3.467940139770507812e+01 3.325200653076171875e+01 3.714746236801147461e-01 1.683336257934570312e+00 6.164432764053344727e-01 1.843465119600296021e-01
4.450000000000000000e+02 3.735544586181640625e+01 4.038403320312500000e+01 4.727614521980285645e-01 1.789971470832824707e+00 6.788198947906494141e-01 4.399995133280754089e-02
4.460000000000000000e+02 3.237911987304687500e+01 4.074213027954101562e+01 3.715624511241912842e-01 1.532555580139160156e+00 5.712354183197021484e-01 2.943407371640205383e-02
4.470000000000000000e+02 3.105669021606445312e+01 3.145480346679687500e+01 2.755930721759796143e-01 1.515354037284851074e+00 5.372841358184814453e-01 1.873698681592941284e-01
4.480000000000000000e+02 2.786521148681640625e+01 1.556038379669189453e+01 -5.101372599601745605e-01 2.245570421218872070e+00 5.206299424171447754e-01 7.286607623100280762e-01
4.490000000000000000e+02 2.675252342224121094e+01 9.902054786682128906e+00 9.408276081085205078e-01 4.910132884979248047e+00 1.755288124084472656e+00 1.946867465972900391e+00
4.500000000000000000e+02 2.579483795166015625e+01 5.733574867248535156e+00 3.145238161087036133e+00 4.498084545135498047e+00 2.292996883392333984e+00 2.060818195343017578e+00
4.510000000000000000e+02 2.402382850646972656e+01 5.878069400787353516e+00 4.837875366210937500e+00 4.613979816436767578e+00 2.835556507110595703e+00 4.300179481506347656e+00
4.520000000000000000e+02 1.903707313537597656e+01 4.203095436096191406e+00 -4.290345191955566406e+00 -4.596466720104217529e-01 -1.424997568130493164e+00 1.456906318664550781e+00
4.530000000000000000e+02 1.711528968811035156e+01 -8.632552623748779297e-01 7.005419731140136719e+00 9.159849166870117188e+00 4.849580764770507812e+00 4.799463272094726562e+00
4.540000000000000000e+02 1.736537933349609375e+01 -1.688834905624389648e+00 1.160085391998291016e+01 6.920136451721191406e+00 5.556297302246093750e+00 3.581704139709472656e+00
4.550000000000000000e+02 1.666038703918457031e+01 -3.204257488250732422e+00 7.962023735046386719e+00 1.069530487060546875e+01 5.597198486328125000e+00 3.191425800323486328e-01
4.560000000000000000e+02 1.620389556884765625e+01 -3.843545913696289062e+00 5.180405616760253906e+00 9.982323646545410156e+00 4.548818588256835938e+00 2.459640502929687500e+00
4.570000000000000000e+02 1.564454460144042969e+01 -3.443786621093750000e+00 6.272906303405761719e+00 1.073369121551513672e+01 5.101979255676269531e+00 5.098067283630371094e+00
4.580000000000000000e+02 1.283424091339111328e+01 -2.532664060592651367e+00 4.961270809173583984e+00 -3.421091139316558838e-01 1.385748505592346191e+00 1.937249898910522461e+00
4.590000000000000000e+02 9.458810806274414062e+00 -1.881666779518127441e+00 4.605885446071624756e-01 6.276399642229080200e-02 1.570057570934295654e-01 6.814941763877868652e-01
4.600000000000000000e+02 1.241373538970947266e+01 -9.674818992614746094e+00 -1.892506957054138184e+00 1.969376444816589355e+00 2.306084521114826202e-02 6.971473693847656250e+00
4.610000000000000000e+02 1.660791277885437012e+00 -1.050231838226318359e+01 9.026756882667541504e-02 -2.395004034042358398e+00 -6.914209723472595215e-01 -9.121282696723937988e-01
4.620000000000000000e+02 6.002580523490905762e-01 -1.774020004272460938e+01 -1.474291831254959106e-02 -3.642844438552856445e+00 -1.097276210784912109e+00 5.061773657798767090e-01
4.630000000000000000e+02 1.177080154418945312e+01 -1.840061187744140625e+01 2.227912425994873047e+00 4.372786998748779297e+00 1.980209827423095703e+00 -3.322987556457519531e+00
4.640000000000000000e+02 1.004925155639648438e+01 -1.617816925048828125e+01 2.968516349792480469e+00 1.197459125518798828e+01 4.482932567596435547e+00 -5.809339523315429688e+00
4.650000000000000000e+02 9.387645721435546875e+00 -1.499068164825439453e+01 2.952154159545898438e+00 2.131874275207519531e+01 7.281269550323486328e+00 -3.277401447296142578e+00
4.660000000000000000e+02 9.345287322998046875e+00 -1.283334350585937500e+01 5.022974014282226562e+00 2.071463012695312500e+01 7.721281051635742188e+00 4.547018051147460938e+00
4.670000000000000000e+02 1.767310380935668945e+00 -1.771665573120117188e+01 1.159144788980484009e-01 -1.487797856330871582e+00 -4.115650057792663574e-01 1.327122092247009277e+00
4.680000000000000000e+02 6.319810748100280762e-01 -2.340078735351562500e+01 -7.991777360439300537e-02 7.757284641265869141e-01 2.087431997060775757e-01 3.812222480773925781e-01
4.690000000000000000e+02 5.323631763458251953e+00 -3.108446311950683594e+01 -2.881465256214141846e-01 3.118952035903930664e+00 8.492416143417358398e-01 4.675111472606658936e-01
4.700000000000000000e+02 1.749715423583984375e+01 -4.097823715209960938e+01 -1.385877132415771484e-01 1.224089741706848145e+00 3.256506323814392090e-01 -8.138432167470455170e-03
4.710000000000000000e+02 2.709528732299804688e+01 -4.100374221801757812e+01 -9.469152241945266724e-02 1.324647478759288788e-02 -2.443351410329341888e-02 3.402434661984443665e-02
4.720000000000000000e+02 2.604869270324707031e+01 -3.810092544555664062e+01 -1.244861632585525513e-01 5.305703729391098022e-02 -2.142873778939247131e-02 2.831127308309078217e-02
4.730000000000000000e+02 3.038000869750976562e+01 -3.634651184082031250e+01 -2.812834978103637695e-01 -1.644289195537567139e-01 -1.337137222290039062e-01 1.255488097667694092e-01
4.740000000000000000e+02 3.280515670776367188e+01 -3.215504455566406250e+01 -5.870102047920227051e-01 -6.434402614831924438e-02 -1.954062730073928833e-01 1.259496510028839111e-01
4.750000000000000000e+02 2.964866447448730469e+01 -3.311791610717773438e+01 -4.886614084243774414e-01 -1.296242177486419678e-01 -1.854856908321380615e-01 2.245062291622161865e-01
4.760000000000000000e+02 2.858027648925781250e+01 -3.121016120910644531e+01 -7.672565579414367676e-01 -1.407516598701477051e-01 -2.724024653434753418e-01 3.081771731376647949e-01
4.770000000000000000e+02 2.531092643737792969e+01 -3.096598815917968750e+01 -5.545479059219360352e-01 -7.252884656190872192e-02 -1.881230175495147705e-01 2.156034260988235474e-01
4.780000000000000000e+02 2.725089263916015625e+01 -3.059762382507324219e+01 -7.465850710868835449e-01 -2.033626437187194824e-01 -2.849843204021453857e-01 3.314298391342163086e-01
4.790000000000000000e+02 1.790007209777832031e+01 -2.686547088623046875e+01 -2.540218234062194824e-01 8.143607974052429199e-01 1.681016832590103149e-01 -2.941854596138000488e-01
4.800000000000000000e+02 1.874452209472656250e+01 -2.557362937927246094e+01 -8.178921043872833252e-02 3.435361385345458984e-01 7.852408289909362793e-02 -1.104719862341880798e-01
4.810000000000000000e+02 1.566480159759521484e+01 -2.252849006652832031e+01 5.388147830963134766e-01 1.151314973831176758e+00 5.070389509201049805e-01 -8.717185854911804199e-01
4.820000000000000000e+02 1.466486263275146484e+01 -2.151737976074218750e+01 8.743454217910766602e-01 1.701941490173339844e+00 7.728860974311828613e-01 -1.161199808120727539e+00
4.830000000000000000e+02 1.091281414031982422e+01 -1.917866325378417969e+01 7.325009703636169434e-01 6.387619495391845703e+00 2.136036157608032227e+00 -2.275159597396850586e+00
4.840000000000000000e+02 1.482168388366699219e+01 -2.572715187072753906e+01 -2.763794362545013428e-01 2.083760738372802734e+00 5.422143936157226562e-01 -5.443599224090576172e-01
4.850000000000000000e+02 1.166837024688720703e+01 -2.464102745056152344e+01 -6.155720353126525879e-01 3.434249401092529297e+00 8.456032276153564453e-01 -4.903544485569000244e-01
4.860000000000000000e+02 6.326553821563720703e-01 -2.480852890014648438e+01 1.226588804274797440e-02 1.540935039520263672e+00 4.659602642059326172e-01 3.084217905998229980e-01
4.870000000000000000e+02 7.373063564300537109e-01 -3.044192695617675781e+01 1.837174408137798309e-02 3.292842864990234375e+00 9.933643937110900879e-01 1.300713568925857544e-01
4.880000000000000000e+02 8.022406101226806641e-01 -3.186540794372558594e+01 -4.255959019064903259e-02 3.504122257232666016e+00 1.038468837738037109e+00 1.038907691836357117e-01
4.890000000000000000e+02 7.997875809669494629e-01 -3.742749786376953125e+01 -1.344988495111465454e-02 3.830965995788574219e+00 1.145254850387573242e+00 -1.573896850459277630e-03
4.900000000000000000e+02 2.595545768737792969e+00 -3.823859024047851562e+01 -3.434133902192115784e-02 3.633477687835693359e+00 1.079740881919860840e+00 7.340569049119949341e-03
4.910000000000000000e+02 3.689602279663085938e+01 -3.712899780273437500e+01 -3.400151133537292480e-01 -1.901140809059143066e-01 -1.590387672185897827e-01 5.751743912696838379e-03
4.920000000000000000e+02 3.845819473266601562e+01 -3.284491729736328125e+01 -5.424233078956604004e-01 -5.012731626629829407e-02 -1.777651757001876831e-01 -4.278056323528289795e-02
4.930000000000000000e+02 3.706659698486328125e+01 -3.262396621704101562e+01 -5.076808333396911621e-01 -2.289920812472701073e-03 -1.529912352561950684e-01 3.764083143323659897e-03
4.940000000000000000e+02 4.289877700805664062e+01 -3.852706527709960938e+01 -1.680265367031097412e-01 -3.668783307075500488e-01 -1.604714542627334595e-01 -1.720971912145614624e-01
4.950000000000000000e+02 4.723284149169921875e+01 -3.110391616821289062e+01 -1.211379408836364746e+00 -1.735793650150299072e-01 -4.154876470565795898e-01 -4.729795157909393311e-01
4.960000000000000000e+02 4.303408813476562500e+01 -3.224750518798828125e+01 -7.364073991775512695e-01 -1.240136623382568359e-01 -2.581263184547424316e-01 -2.199802994728088379e-01
4.970000000000000000e+02 4.207481002807617188e+01 -3.488514709472656250e+01 -4.635408222675323486e-01 -2.136670947074890137e-01 -2.031623721122741699e-01 -2.284388691186904907e-01
4.980000000000000000e+02 4.821472167968750000e+01 -3.883708572387695312e+01 1.237461715936660767e-01 -4.702948331832885742e-01 -1.039645969867706299e-01 -2.495689839124679565e-01
4.990000000000000000e+02 5.232005691528320312e+01 -3.895516586303710938e+01 3.820911347866058350e-01 -1.036634594202041626e-01 8.352829515933990479e-02 -1.232396587729454041e-01
5.000000000000000000e+02 4.994827651977539062e+01 -3.027331924438476562e+01 -1.622115612030029297e+00 -3.951285183429718018e-01 -6.051732301712036133e-01 -7.392888665199279785e-01
5.010000000000000000e+02 4.858559417724609375e+01 -3.071378326416015625e+01 -1.496115088462829590e+00 -2.978955805301666260e-01 -5.382032394409179688e-01 -5.964698195457458496e-01
5.020000000000000000e+02 5.652969741821289062e+01 -3.866727828979492188e+01 4.712685346603393555e-01 7.672718763351440430e-01 3.715621232986450195e-01 -3.494568169116973877e-02
5.030000000000000000e+02 5.722922134399414062e+01 -4.124742889404296875e+01 5.474493503570556641e-01 1.002235889434814453e+00 4.649055898189544678e-01 1.166529674082994461e-02
5.040000000000000000e+02 6.138743209838867188e+01 -2.907523727416992188e+01 -6.039896011352539062e-01 2.016590595245361328e+00 4.237803220748901367e-01 3.105667829513549805e-01
5.050000000000000000e+02 6.176135253906250000e+01 -2.259858131408691406e+01 -3.126845657825469971e-01 6.571831703186035156e-01 1.033495888113975525e-01 6.083724275231361389e-02
5.060000000000000000e+02 6.076344680786132812e+01 -2.362982940673828125e+01 -7.630548477172851562e-01 7.681795954704284668e-02 -2.058710604906082153e-01 -3.020018935203552246e-01
5.070000000000000000e+02 5.855638122558593750e+01 -2.541121292114257812e+01 -1.540549635887145996e+00 -5.683887600898742676e-01 -6.326814889907836914e-01 -9.320762753486633301e-01
5.080000000000000000e+02 5.619822692871093750e+01 -2.696251296997070312e+01 -1.853356599807739258e+00 -6.416846513748168945e-01 -7.485123872756958008e-01 -1.065627813339233398e+00
5.090000000000000000e+02 5.692858505249023438e+01 -2.811256599426269531e+01 -1.293189883232116699e+00 -2.862174808979034424e-01 -4.738222360610961914e-01 -6.171271204948425293e-01
5.100000000000000000e+02 6.208486175537109375e+01 -4.093845367431640625e+01 4.288395345211029053e-01 2.996438026428222656e+00 1.027583241462707520e+00 4.648660495877265930e-02
5.110000000000000000e+02 6.067081451416015625e+01 -3.795206069946289062e+01 3.411730825901031494e-01 2.387382507324218750e+00 8.185666799545288086e-01 1.538889855146408081e-01
5.120000000000000000e+02 7.252386474609375000e+01 -3.254177856445312500e+01 -2.661688625812530518e-01 8.210291862487792969e+00 2.383237123489379883e+00 -4.358511045575141907e-02
5.130000000000000000e+02 6.721461486816406250e+01 -2.205466651916503906e+01 -9.893450140953063965e-01 7.123509407043457031e+00 1.840249300003051758e+00 7.629705071449279785e-01
5.140000000000000000e+02 7.933513641357421875e+01 -2.222581672668457031e+01 2.220445685088634491e-02 9.708491325378417969e+00 2.919208765029907227e+00 -3.270345032215118408e-01
5.150000000000000000e+02 7.801064300537109375e+01 -1.647097015380859375e+01 3.537882864475250244e-02 7.384812355041503906e+00 2.226057291030883789e+00 -1.121957421302795410e+00
5.160000000000000000e+02 7.930206298828125000e+01 -1.243237495422363281e+01 1.000985801219940186e-01 4.411388397216796875e+00 1.353446125984191895e+00 -1.831970512866973877e-01
5.170000000000000000e+02 7.807608032226562500e+01 -9.455241203308105469e+00 2.510529458522796631e-01 5.855132102966308594e+00 1.831855416297912598e+00 3.064801394939422607e-01
5.180000000000000000e+02 7.939202880859375000e+01 -5.517000198364257812e+00 -7.105593383312225342e-02 5.733409404754638672e+00 1.698706030845642090e+00 3.283897936344146729e-01
5.190000000000000000e+02 6.819364166259765625e+01 -7.269188404083251953e+00 2.826787948608398438e+00 1.568757534027099609e+01 5.554308891296386719e+00 -4.440077304840087891e+00
5.200000000000000000e+02 6.352788543701171875e+01 -6.980296611785888672e+00 -5.364003658294677734e+00 -1.408259391784667969e+00 -2.031678915023803711e+00 -2.524444818496704102e+00
5.210000000000000000e+02 5.553776168823242188e+01 -6.456130981445312500e+00 -1.959085941314697266e+00 -2.430566102266311646e-01 -6.606427431106567383e-01 -7.430176734924316406e-01
5.220000000000000000e+02 4.968531799316406250e+01 -6.905184268951416016e+00 -1.458710789680480957e+00 4.009424522519111633e-02 -4.255849719047546387e-01 -5.614364147186279297e-01
5.230000000000000000e+02 4.470974731445312500e+01 -6.881903171539306641e+00 -1.098298907279968262e+00 1.821339726448059082e-01 -2.748494744300842285e-01 -4.999011754989624023e-01
5.240000000000000000e+02 3.670580673217773438e+01 -6.561758995056152344e+00 -6.276189088821411133e-01 4.441182017326354980e-01 -5.505021288990974426e-02 -5.114716887474060059e-01
5.250000000000000000e+02 2.808742332458496094e+01 -5.037627220153808594e-01 1.960680961608886719e+00 1.424750328063964844e+00 1.015629410743713379e+00 8.632957935333251953e-01
5.260000000000000000e+02 2.973553466796875000e+01 -1.327824211120605469e+01 -3.025647163391113281e+00 5.616238117218017578e-01 -7.392069697380065918e-01 -2.079040557146072388e-01
5.270000000000000000e+02 2.936149787902832031e+01 -1.433545017242431641e+01 -3.349475145339965820e+00 4.663430452346801758e-01 -8.649396300315856934e-01 -5.851634778082370758e-04
5.280000000000000000e+02 3.072839927673339844e+01 -1.825852966308593750e+01 -3.769994974136352539e+00 -3.772213356569409370e-03 -1.132130146026611328e+00 4.802024662494659424e-01
5.290000000000000000e+02 3.266127014160156250e+01 -1.607005691528320312e+01 -3.238629817962646484e+00 3.208802640438079834e-01 -8.753249049186706543e-01 -3.634774312376976013e-02
5.300000000000000000e+02 3.344597625732421875e+01 -1.859998130798339844e+01 -3.312003850936889648e+00 7.853297144174575806e-02 -9.700412750244140625e-01 2.031156718730926514e-01
5.310000000000000000e+02 3.886661529541015625e+01 -1.716855812072753906e+01 -2.765785455703735352e+00 1.199840456247329712e-01 -7.937404513359069824e-01 -4.505954384803771973e-01
5.320000000000000000e+02 3.696717834472656250e+01 -1.346753597259521484e+01 -2.353834152221679688e+00 3.726187348365783691e-01 -5.943646430969238281e-01 -5.282328128814697266e-01
5.330000000000000000e+02 3.754270553588867188e+01 6.889927387237548828e-01 9.744610786437988281e-01 5.251928567886352539e-01 4.498961865901947021e-01 4.663291946053504944e-02
5.340000000000000000e+02 6.703815460205078125e+01 -4.087085723876953125e+01 2.184950411319732666e-01 5.245820999145507812e+00 1.639294862747192383e+00 9.530977904796600342e-02
5.350000000000000000e+02 7.480049133300781250e+01 -4.021837234497070312e+01 9.963174164295196533e-02 9.470560073852539062e+00 2.871057510375976562e+00 -1.075629219412803650e-01
5.360000000000000000e+02 7.929592132568359375e+01 -3.334881591796875000e+01 8.638807572424411774e-03 1.164603805541992188e+01 3.496402978897094727e+00 -2.765246294438838959e-02
5.370000000000000000e+02 7.793464660644531250e+01 -3.039179992675781250e+01 -8.483138680458068848e-02 1.081416988372802734e+01 3.218801736831665039e+00 -1.543386280536651611e-01
5.380000000000000000e+02 7.933243560791015625e+01 -2.641290092468261719e+01 -5.285691469907760620e-02 1.103416633605957031e+01 3.294393062591552734e+00 -1.704932749271392822e-01
5.390000000000000000e+02 7.799416351318359375e+01 -2.350904273986816406e+01 -9.345754981040954590e-02 9.884774208068847656e+00 2.937395095825195312e+00 -6.779649853706359863e-01
5.400000000000000000e+02 7.793562316894531250e+01 -4.162241363525390625e+01 2.009381949901580811e-01 1.094955158233642578e+01 3.345146894454956055e+00 5.647020414471626282e-02
5.410000000000000000e+02 7.791461944580078125e+01 -3.685762786865234375e+01 1.022780896164476871e-03 1.091424083709716797e+01 3.274579286575317383e+00 8.488402515649795532e-02
5.420000000000000000e+02 7.815712738037109375e+01 -2.676802635192871094e+00 -6.051323935389518738e-02 7.475342273712158203e+00 2.224448680877685547e+00 6.869336366653442383e-01
5.430000000000000000e+02 7.934730529785156250e+01 2.821207761764526367e+00 -4.010371863842010498e-02 8.481961250305175781e+00 2.532557249069213867e+00 5.647862330079078674e-02
5.440000000000000000e+02 7.310505676269531250e+01 9.900983810424804688e+00 -6.679021567106246948e-02 6.528735637664794922e+00 1.938583612442016602e+00 -7.973670959472656250e-01
5.450000000000000000e+02 5.862033081054687500e+01 1.883922004699707031e+01 7.030799388885498047e-01 3.267645120620727539e+00 1.191217541694641113e+00 -6.864663958549499512e-01
5.460000000000000000e+02 5.549437332153320312e+01 1.871859169006347656e+01 6.465535759925842285e-01 3.076602935791015625e+00 1.116946935653686523e+00 -9.414064288139343262e-01
5.470000000000000000e+02 5.392197036743164062e+01 1.752553558349609375e+01 1.118711948394775391e+00 1.773360610008239746e+00 8.676217794418334961e-01 -1.305219769477844238e+00
5.480000000000000000e+02 7.800544738769531250e+01 4.250524520874023438e+00 -9.459002315998077393e-02 8.174099922180175781e+00 2.423852920532226562e+00 -1.441862713545560837e-02
5.490000000000000000e+02 7.932534790039062500e+01 8.385747909545898438e+00 5.486595910042524338e-03 8.194214820861816406e+00 2.459910392761230469e+00 -7.221771776676177979e-02
5.500000000000000000e+02 7.098636627197265625e+01 1.863878059387207031e+01 1.980965435504913330e-01 5.429397106170654297e+00 1.688248157501220703e+00 -7.042977213859558105e-01
5.510000000000000000e+02 6.246488952636718750e+01 2.075615310668945312e+01 5.407227277755737305e-01 3.860286474227905273e+00 1.320302724838256836e+00 -7.192695736885070801e-01
5.520000000000000000e+02 5.372488021850585938e+01 2.943455123901367188e+01 7.660101056098937988e-01 2.599789619445800781e+00 1.009739875793457031e+00 -2.388294637203216553e-01
5.530000000000000000e+02 5.238453292846679688e+01 4.063615036010742188e+01 6.310004591941833496e-01 2.751984119415283203e+00 1.014895439147949219e+00 -1.373356673866510391e-02
5.540000000000000000e+02 4.249313354492187500e+01 4.034661865234375000e+01 5.628081560134887695e-01 2.033175468444824219e+00 7.787950634956359863e-01 4.219591990113258362e-02
5.550000000000000000e+02 4.558690261840820312e+01 3.023840522766113281e+01 7.150717973709106445e-01 2.027270317077636719e+00 8.227026462554931641e-01 2.216826528310775757e-01
5.560000000000000000e+02 4.800909805297851562e+01 2.242574310302734375e+01 1.131666421890258789e+00 1.221984386444091797e+00 7.060952186584472656e-01 4.077551066875457764e-01
5.570000000000000000e+02 5.400496292114257812e+01 2.366698074340820312e+01 8.570215702056884766e-01 2.259415388107299805e+00 9.349310398101806641e-01 -5.869795680046081543e-01
5.580000000000000000e+02 5.531927490234375000e+01 2.596480178833007812e+01 7.619847059249877930e-01 2.645793199539184570e+00 1.022333383560180664e+00 -4.876619279384613037e-01
5.590000000000000000e+02 7.800997161865234375e+01 1.120852470397949219e+01 -1.249214820563793182e-02 7.499289512634277344e+00 2.246039152145385742e+00 -2.676989138126373291e-01
5.600000000000000000e+02 7.930442810058593750e+01 1.674217796325683594e+01 9.800105355679988861e-03 7.038421154022216797e+00 2.114466428756713867e+00 -8.346361666917800903e-02
5.610000000000000000e+02 7.210776519775390625e+01 2.331827735900878906e+01 1.473704874515533447e-01 5.421214580535888672e+00 1.670575499534606934e+00 -5.036619901657104492e-01
5.620000000000000000e+02 6.181111526489257812e+01 3.304108047485351562e+01 4.326327145099639893e-01 3.842304468154907227e+00 1.282481193542480469e+00 -3.429036438465118408e-01
5.630000000000000000e+02 5.626630020141601562e+01 3.625257110595703125e+01 5.787574052810668945e-01 3.147996425628662109e+00 1.118026137351989746e+00 -1.482502371072769165e-01
5.640000000000000000e+02 4.751966094970703125e+01 4.064284896850585938e+01 6.343435049057006836e-01 2.353163480758666992e+00 8.962520360946655273e-01 1.170992664992809296e-02
5.650000000000000000e+02 7.784548950195312500e+01 1.956857299804687500e+01 8.104417473077774048e-03 6.519415378570556641e+00 1.958255887031555176e+00 -2.206248492002487183e-01
5.660000000000000000e+02 7.929548645019531250e+01 2.373592185974121094e+01 -6.042255554348230362e-03 6.313101768493652344e+00 1.892117857933044434e+00 -5.513931065797805786e-02
5.670000000000000000e+02 7.261148071289062500e+01 2.863391304016113281e+01 1.140989363193511963e-01 5.303216934204101562e+00 1.625194668769836426e+00 -3.287079632282257080e-01
5.680000000000000000e+02 6.245408248901367188e+01 4.021022033691406250e+01 3.862597644329071045e-01 3.911963224411010742e+00 1.289466857910156250e+00 -7.721985876560211182e-02
5.690000000000000000e+02 5.731725692749023438e+01 4.035022735595703125e+01 5.315225720405578613e-01 3.310612916946411133e+00 1.152640700340270996e+00 -5.954906344413757324e-02
5.700000000000000000e+02 7.643867492675781250e+01 2.249580955505371094e+01 4.225699976086616516e-02 6.088200092315673828e+00 1.839137196540832520e+00 -2.898278236389160156e-01
5.710000000000000000e+02 7.931360626220703125e+01 2.932024955749511719e+01 -4.418226424604654312e-03 5.935941696166992188e+00 1.779457092285156250e+00 -3.515347093343734741e-02
5.720000000000000000e+02 7.179254913330078125e+01 3.831831741333007812e+01 1.132228747010231018e-01 5.010255336761474609e+00 1.537043452262878418e+00 -8.201333135366439819e-02
5.730000000000000000e+02 7.938856506347656250e+01 3.216755294799804688e+01 6.390841677784919739e-03 5.817565917968750000e+00 1.747187018394470215e+00 -1.702365465462207794e-02
5.740000000000000000e+02 7.906261444091796875e+01 3.739192199707031250e+01 -3.307175124064087868e-03 5.649929046630859375e+00 1.693986535072326660e+00 -2.892094478011131287e-02
5.750000000000000000e+02 7.223873901367187500e+01 3.597815322875976562e+01 9.464668482542037964e-02 5.066100597381591797e+00 1.548224210739135742e+00 -1.466705203056335449e-01
5.760000000000000000e+02 1.749488258361816406e+01 4.017435455322265625e+01 1.192187368869781494e-01 8.869956731796264648e-01 3.018643260002136230e-01 3.984833881258964539e-02
5.770000000000000000e+02 2.263499259948730469e+01 4.040693283081054688e+01 2.024772763252258301e-01 1.077684044837951660e+00 3.840484023094177246e-01 3.957654535770416260e-02
5.780000000000000000e+02 1.945748710632324219e+01 3.144378089904785156e+01 8.220618218183517456e-02 9.395325779914855957e-01 3.065216243267059326e-01 2.271928191184997559e-01
5.790000000000000000e+02 1.977278900146484375e+01 2.340920066833496094e+01 -2.997806994244456291e-03 7.526311278343200684e-01 2.248899936676025391e-01 5.387215018272399902e-01
5.800000000000000000e+02 1.951824188232421875e+01 1.830445861816406250e+01 -3.448934853076934814e-01 1.388330459594726562e-01 -6.181813403964042664e-02 8.283630609512329102e-01
5.810000000000000000e+02 2.164372253417968750e+01 1.777239036560058594e+01 -6.341391205787658691e-01 -1.395950764417648315e-01 -2.321202605962753296e-01 3.120017647743225098e-01
5.820000000000000000e+02 2.238140869140625000e+01 1.583491802215576172e+01 -1.521893620491027832e+00 -3.748843967914581299e-01 -5.690333843231201172e-01 6.945568919181823730e-01
5.830000000000000000e+02 2.517722129821777344e+01 1.608899116516113281e+01 -9.365970492362976074e-01 1.374216079711914062e+00 1.312856972217559814e-01 1.372582614421844482e-01
5.840000000000000000e+02 2.350747680664062500e+01 1.512613773345947266e+01 -1.064784169197082520e+00 -2.052402049303054810e-01 -3.810073137283325195e-01 5.226985216140747070e-01
5.850000000000000000e+02 2.564930152893066406e+01 1.242404556274414062e+01 -1.250437647104263306e-01 2.787670850753784180e+00 7.987881302833557129e-01 1.367433816194534302e-01
5.860000000000000000e+02 2.570624732971191406e+01 1.113565349578857422e+01 2.585492730140686035e-01 4.300560474395751953e+00 1.367733001708984375e+00 3.350805640220642090e-01
5.870000000000000000e+02 2.566317749023437500e+01 9.854344367980957031e+00 -7.284826785326004028e-02 5.405290603637695312e+00 1.599732637405395508e+00 5.482975244522094727e-01
5.880000000000000000e+02 2.566471672058105469e+01 8.642688751220703125e+00 1.483549714088439941e+00 7.342026710510253906e+00 2.647672891616821289e+00 2.048167705535888672e+00
5.890000000000000000e+02 2.605586814880371094e+01 7.488788604736328125e+00 3.033460617065429688e+00 6.209560871124267578e+00 2.772906303405761719e+00 2.648517847061157227e+00
5.900000000000000000e+02 2.495737457275390625e+01 6.772222518920898438e+00 3.803605079650878906e+00 6.823492527008056641e+00 3.188129425048828125e+00 4.042357444763183594e+00
5.910000000000000000e+02 1.734623527526855469e+01 3.572938537597656250e+01 8.891033381223678589e-02 8.943223357200622559e-01 2.949697971343994141e-01 1.143926531076431274e-01
5.920000000000000000e+02 1.519633102416992188e+01 2.020996284484863281e+01 -4.494013488292694092e-01 1.625949382781982422e+00 3.529644012451171875e-01 6.165665388107299805e-01
5.930000000000000000e+02 1.849987983703613281e+01 1.659598922729492188e+01 -4.876232147216796875e-01 2.593154609203338623e-01 -6.849233061075210571e-02 4.856993257999420166e-01
5.940000000000000000e+02 1.832237243652343750e+01 1.792775154113769531e+01 -5.264043807983398438e-01 6.048453450202941895e-01 2.353228442370891571e-02 9.974442720413208008e-01
5.950000000000000000e+02 1.751789093017578125e+01 1.699007797241210938e+01 -1.751570999622344971e-01 9.017133712768554688e-01 2.179668843746185303e-01 7.979456186294555664e-01
5.960000000000000000e+02 1.248178958892822266e+01 4.059731674194335938e+01 4.822554811835289001e-02 7.013389468193054199e-01 2.248693555593490601e-01 2.358728833496570587e-02
5.970000000000000000e+02 5.853084087371826172e+00 3.828660964965820312e+01 3.168130759149789810e-03 4.160057604312896729e-01 1.257521659135818481e-01 8.552308194339275360e-03
5.980000000000000000e+02 6.971994400024414062e+00 3.205833816528320312e+01 -5.950175225734710693e-02 5.172087550163269043e-01 1.373121142387390137e-01 -6.141309626400470734e-03
5.990000000000000000e+02 9.542162895202636719e+00 2.459972953796386719e+01 -2.799044549465179443e-01 9.938768148422241211e-01 2.141917049884796143e-01 -4.768951237201690674e-02
6.000000000000000000e+02 1.309172439575195312e+01 1.483351993560791016e+01 3.573943674564361572e-01 3.182114124298095703e+00 1.061852574348449707e+00 1.249040942639112473e-02
6.010000000000000000e+02 1.302339935302734375e+01 9.849624633789062500e+00 9.121565818786621094e-01 4.286618232727050781e+00 1.559632420539855957e+00 -4.601404964923858643e-01
6.020000000000000000e+02 6.629944801330566406e+00 1.883708953857421875e+00 -6.393179297447204590e-01 2.425275929272174835e-02 -1.845195442438125610e-01 3.838054537773132324e-01
6.030000000000000000e+02 1.063104057312011719e+01 1.784647345542907715e+00 -5.916065573692321777e-01 4.505507647991180420e-01 -4.231673479080200195e-02 -3.388152420520782471e-01
6.040000000000000000e+02 1.220625877380371094e+01 1.241471171379089355e+00 -2.882332205772399902e-01 8.619808554649353027e-01 1.721242964267730713e-01 -9.959558844566345215e-01
6.050000000000000000e+02 1.629259109497070312e+01 5.013154983520507812e+00 -1.734758853912353516e+00 2.187620162963867188e+00 1.358583569526672363e-01 -5.722604990005493164e-01
6.060000000000000000e+02 1.460316181182861328e+01 8.196125030517578125e+00 1.173774123191833496e+00 6.253685951232910156e+00 2.228238105773925781e+00 -1.541532397270202637e+00
6.070000000000000000e+02 1.439293861389160156e+01 1.095248985290527344e+01 1.912549734115600586e-01 5.867201805114746094e+00 1.817537069320678711e+00 2.274248749017715454e-01
6.080000000000000000e+02 1.448958873748779297e+01 1.227517890930175781e+01 4.840931594371795654e-01 5.836741924285888672e+00 1.896250605583190918e+00 8.217758536338806152e-01
6.090000000000000000e+02 1.471218776702880859e+01 1.351644515991210938e+01 9.034383296966552734e-01 4.753986835479736328e+00 1.697227478027343750e+00 1.348734021186828613e+00
6.100000000000000000e+02 1.671580696105957031e+01 1.604667282104492188e+01 5.828239321708679199e-01 1.304323554039001465e+00 5.661442279815673828e-01 1.028174042701721191e+00
6.110000000000000000e+02 1.455215263366699219e+01 1.489105796813964844e+01 7.017811536788940430e-01 3.468776226043701172e+00 1.251167178153991699e+00 8.922274112701416016e-01
6.120000000000000000e+02 1.393855094909667969e+01 1.634642028808593750e+01 -5.108260363340377808e-02 2.620666027069091797e+00 7.708750367164611816e-01 1.971839070320129395e-01
6.130000000000000000e+02 1.991209626197814941e+00 4.164427947998046875e+01 -1.808844134211540222e-02 2.148581892251968384e-01 5.903092399239540100e-02 -5.159388296306133270e-03
6.140000000000000000e+02 4.217878341674804688e+00 3.783309173583984375e+01 8.145873434841632843e-03 3.057936728000640869e-01 9.418186545372009277e-02 1.937694288790225983e-02
6.150000000000000000e+02 2.071833610534667969e+00 3.595930099487304688e+01 5.357753485441207886e-03 2.228277772665023804e-01 6.845565885305404663e-02 -1.066364347934722900e-02
6.160000000000000000e+02 2.114755630493164062e+00 2.879663276672363281e+01 -1.898844912648200989e-02 1.754496544599533081e-01 4.693835973739624023e-02 -5.280220881104469299e-02
6.170000000000000000e+02 1.977572083473205566e+00 2.317851638793945312e+01 -2.413954213261604309e-02 -5.432192981243133545e-02 -2.353844232857227325e-02 -1.561833322048187256e-01
6.180000000000000000e+02 1.858658671379089355e+00 1.762612342834472656e+01 8.085052482783794403e-03 -5.267066955566406250e-01 -1.555864959955215454e-01 -2.183235883712768555e-01
6.190000000000000000e+02 6.062639951705932617e-01 6.405073165893554688e+00 1.278032548725605011e-02 -9.009001255035400391e-01 -2.664359509944915771e-01 1.093296706676483154e-01
6.200000000000000000e+02 1.824732661247253418e+00 9.287165641784667969e+00 7.250672578811645508e-02 -8.606140613555908203e-01 -2.364322096109390259e-01 1.290653645992279053e-01
6.210000000000000000e+02 1.805630326271057129e+00 3.742997646331787109e+00 -3.986350446939468384e-02 -3.250080943107604980e-01 -1.094614863395690918e-01 2.888547778129577637e-01
6.220000000000000000e+02 1.387070465087890625e+01 7.211534380912780762e-01 5.484871864318847656e-01 2.029901266098022461e+00 7.735165357589721680e-01 -2.029531478881835938e+00
6.230000000000000000e+02 6.692398071289062500e+01 -7.032246112823486328e+00 3.617393016815185547e+00 8.652770042419433594e+00 3.681048870086669922e+00 -5.600225448608398438e+00
6.240000000000000000e+02 6.859688568115234375e+01 -9.953850746154785156e+00 1.457669258117675781e+00 2.500141334533691406e+01 7.937724590301513672e+00 -2.415947914123535156e+00
6.250000000000000000e+02 6.941238403320312500e+01 -1.268226528167724609e+01 2.716296434402465820e+00 1.918040084838867188e+01 6.569009304046630859e+00 9.084118008613586426e-01
6.260000000000000000e+02 7.053366088867187500e+01 -1.405855464935302734e+01 1.611086845397949219e+00 1.341561317443847656e+01 4.508009910583496094e+00 -7.077199220657348633e-01
6.270000000000000000e+02 6.704634094238281250e+01 -1.797135925292968750e+01 5.002817511558532715e-01 8.807497978210449219e+00 2.792333841323852539e+00 2.178195953369140625e+00
6.280000000000000000e+02 6.621540069580078125e+01 -1.706572151184082031e+01 1.917419552803039551e+00 7.562783718109130859e+00 2.844060897827148438e+00 3.722164630889892578e+00
6.290000000000000000e+02 6.269713973999023438e+01 -2.375728416442871094e+01 -6.539220809936523438e-01 2.048490047454833984e+00 4.183703660964965820e-01 4.322369396686553955e-01
6.300000000000000000e+02 6.815759277343750000e+01 -2.295511054992675781e+01 -1.140257239341735840e+00 7.443644046783447266e+00 1.891016006469726562e+00 3.466468751430511475e-01
6.310000000000000000e+02 2.419996833801269531e+01 -3.149780845642089844e+01 -4.445631802082061768e-01 7.651079446077346802e-03 -1.310736238956451416e-01 1.234702616930007935e-01
6.320000000000000000e+02 2.111853599548339844e+01 -2.724517059326171875e+01 -4.830550849437713623e-01 -1.624215580523014069e-02 -1.497891694307327271e-01 1.994543969631195068e-01
6.330000000000000000e+02 1.987932014465332031e+01 -2.649150085449218750e+01 -3.148518204689025879e-01 9.965982288122177124e-02 -6.455759704113006592e-02 4.193684831261634827e-02
6.340000000000000000e+02 2.669719505310058594e+01 -1.737273979187011719e+01 -4.492793560028076172e+00 -1.976123899221420288e-01 -1.407121777534484863e+00 1.093460083007812500e+00
6.350000000000000000e+02 3.892975234985351562e+01 -1.848592376708984375e+01 -2.877762079238891602e+00 3.631253913044929504e-02 -8.524348735809326172e-01 -2.716177403926849365e-01
6.360000000000000000e+02 4.262196350097656250e+01 -1.519748115539550781e+01 -2.486666917800903320e+00 6.195986643433570862e-02 -7.274121642112731934e-01 -6.637591123580932617e-01
6.370000000000000000e+02 4.371847152709960938e+01 -1.369715976715087891e+01 -2.310446262359619141e+00 6.359173357486724854e-02 -6.740563511848449707e-01 -7.411243319511413574e-01
6.380000000000000000e+02 4.702639770507812500e+01 -4.603363037109375000e+00 -7.278767228126525879e-01 1.388985216617584229e-01 -1.766934543848037720e-01 -3.715035021305084229e-01
6.390000000000000000e+02 4.430017089843750000e+01 -1.738182067871093750e+01 -2.795989751815795898e+00 -2.468716949224472046e-01 -9.128584265708923340e-01 -8.495279550552368164e-01
6.400000000000000000e+02 5.069952774047851562e+01 -1.494787597656250000e+01 -2.443747520446777344e+00 -5.337854027748107910e-01 -8.932598829269409180e-01 -1.225392103195190430e+00
6.410000000000000000e+02 4.858646774291992188e+01 -6.850151538848876953e+00 -1.358232617378234863e+00 7.150577008724212646e-02 -3.860180377960205078e-01 -5.363834500312805176e-01
6.420000000000000000e+02 4.965291595458984375e+01 -1.268801021575927734e+01 -2.390644311904907227e+00 -2.382737994194030762e-01 -7.886754274368286133e-01 -1.037882208824157715e+00
6.430000000000000000e+02 5.433117294311523438e+01 -1.289906120300292969e+01 -2.721198797225952148e+00 -8.123705983161926270e-01 -1.060070872306823730e+00 -1.552545666694641113e+00
6.440000000000000000e+02 5.903235244750976562e+01 -9.933934211730957031e+00 -3.702830314636230469e+00 -1.361112117767333984e+00 -1.519182682037353516e+00 -2.210040092468261719e+00
6.450000000000000000e+02 5.845973587036132812e+01 -4.253417015075683594e+00 -1.260269641876220703e+00 -2.346297949552536011e-01 -4.484698176383972168e-01 -8.539827466011047363e-01
6.460000000000000000e+02 5.838302612304687500e+01 -9.010124206542968750e+00 -3.413006544113159180e+00 -9.249780774116516113e-01 -1.301395416259765625e+00 -1.730594396591186523e+00
6.470000000000000000e+02 6.293734359741210938e+01 -5.149507522583007812e+00 -1.434738159179687500e+00 -6.041367650032043457e-01 -6.116624474525451660e-01 -1.993457555770874023e+00
6.480000000000000000e+02 4.783424758911132812e+01 1.904146957397460938e+01 1.173501253128051758e+00 4.338948130607604980e-01 4.822188019752502441e-01 5.256853699684143066e-01
6.490000000000000000e+02 4.487506484985351562e+01 1.735906791687011719e+01 1.831446051597595215e+00 1.567729830741882324e+00 1.019752740859985352e+00 1.590694308280944824e+00
6.500000000000000000e+02 4.089056777954101562e+01 1.590597248077392578e+01 1.062383890151977539e+00 2.066152811050415039e+00 9.385609626770019531e-01 9.666235446929931641e-01
6.510000000000000000e+02 4.255752944946289062e+01 1.607980346679687500e+01 1.299565672874450684e+00 2.723690271377563477e+00 1.206976771354675293e+00 1.228502511978149414e+00
6.520000000000000000e+02 4.282667922973632812e+01 1.461628437042236328e+01 8.087958097457885742e-01 3.193396329879760742e+00 1.200657606124877930e+00 1.158531904220581055e+00
6.530000000000000000e+02 4.284072113037109375e+01 1.184932231903076172e+01 1.516322940587997437e-01 1.888799786567687988e+00 6.121296286582946777e-01 1.353671997785568237e-01
6.540000000000000000e+02 4.140086746215820312e+01 1.309912776947021484e+01 6.310215592384338379e-01 2.217904567718505859e+00 8.546778559684753418e-01 1.026109218597412109e+00
6.550000000000000000e+02 4.514836502075195312e+01 8.051364898681640625e+00 4.986518025398254395e-01 3.009837269783020020e-01 2.398906648159027100e-01 -4.015632867813110352e-01
6.560000000000000000e+02 4.424945068359375000e+01 7.287211894989013672e+00 1.097870707511901855e+00 2.878231108188629150e-01 4.157081246376037598e-01 -4.304920434951782227e-01
6.570000000000000000e+02 5.791873550415039062e+01 1.478876590728759766e+01 8.657744526863098145e-01 3.225225687026977539e+00 1.227300047874450684e+00 -8.230364322662353516e-01
6.580000000000000000e+02 5.563717269897460938e+01 1.310055446624755859e+01 1.348399370908737183e-01 3.704932451248168945e+00 1.151931762695312500e+00 -3.491200208663940430e-01
6.590000000000000000e+02 5.548912429809570312e+01 1.173572635650634766e+01 1.622986346483230591e-01 3.085810184478759766e+00 9.744326472282409668e-01 -3.133996948599815369e-02
6.600000000000000000e+02 5.671199798583984375e+01 1.127181625366210938e+01 2.947371304035186768e-01 2.937453508377075195e+00 9.696572422981262207e-01 -4.021888077259063721e-01
6.610000000000000000e+02 5.363214492797851562e+01 7.809390544891357422e+00 6.744992136955261230e-01 5.951514244079589844e-01 3.808951973915100098e-01 4.075802862644195557e-01
6.620000000000000000e+02 5.464048385620117188e+01 8.950519561767578125e+00 3.982033729553222656e-01 1.204520821571350098e+00 4.808172583580017090e-01 4.183680117130279541e-01
6.630000000000000000e+02 5.234347534179687500e+01 7.014575958251953125e+00 1.156315922737121582e+00 2.534841895103454590e-01 4.229400157928466797e-01 3.858271837234497070e-01
6.640000000000000000e+02 4.988536071777343750e+01 3.744606018066406250e+00 1.074764847755432129e+00 2.556490302085876465e-01 3.991241753101348877e-01 -1.186059489846229553e-01
6.650000000000000000e+02 5.105004501342773438e+01 6.426465511322021484e+00 1.662225127220153809e+00 1.570467203855514526e-01 5.457815527915954590e-01 3.016822338104248047e-01
6.660000000000000000e+02 5.359160232543945312e+01 2.979174852371215820e+00 7.757812738418579102e-01 3.282956480979919434e-01 3.312230706214904785e-01 -2.232497930526733398e-01
6.670000000000000000e+02 5.503823471069335938e+01 5.247422218322753906e+00 8.298833370208740234e-01 7.669906020164489746e-01 4.790621697902679443e-01 -1.310035884380340576e-01
6.680000000000000000e+02 5.943448257446289062e+01 3.660100221633911133e+00 4.907787740230560303e-01 1.640833139419555664e+00 6.394835710525512695e-01 -1.064678788185119629e+00
6.690000000000000000e+02 7.310768890380859375e+01 1.916285753250122070e+00 -7.745218873023986816e-01 7.894340991973876953e+00 2.135945796966552734e+00 -3.753082454204559326e-01
6.700000000000000000e+02 7.294387817382812500e+01 5.210905551910400391e+00 -4.562032520771026611e-01 7.174598693847656250e+00 2.015518665313720703e+00 -7.563349008560180664e-01
6.710000000000000000e+02 4.980015182495117188e+01 6.018785476684570312e+00 1.962087035179138184e+00 1.668827831745147705e-01 6.386909484863281250e-01 4.314494505524635315e-02
6.720000000000000000e+02 3.955444335937500000e+01 4.961897373199462891e+00 1.136478543281555176e+00 6.618986129760742188e-01 5.395131707191467285e-01 2.456555664539337158e-01
6.730000000000000000e+02 4.495749664306640625e+01 2.018532752990722656e+01 9.495633840560913086e-01 1.702163100242614746e+00 7.955179214477539062e-01 1.019532084465026855e+00
6.740000000000000000e+02 2.436166191101074219e+01 2.551276981830596924e-01 2.869196653366088867e+00 1.947859048843383789e+00 1.445116758346557617e+00 2.543412208557128906e+00
6.750000000000000000e+02 1.713371658325195312e+01 -2.708724737167358398e+00 1.090650749206542969e+01 8.230626106262207031e+00 5.741140365600585938e+00 2.546432241797447205e-02
6.760000000000000000e+02 6.851098632812500000e+01 -4.619377136230468750e+00 -2.081827163696289062e+00 1.082291412353515625e+01 2.622325897216796875e+00 -3.091492414474487305e+00
6.770000000000000000e+02 2.113514900207519531e+01 -1.392576789855957031e+01 -6.255195617675781250e+00 -2.263085395097732544e-01 -1.944451212882995605e+00 1.652516603469848633e+00
6.780000000000000000e+02 3.500640869140625000e+01 -1.320220661163330078e+01 -2.426398038864135742e+00 4.387623965740203857e-01 -5.962907075881958008e-01 -4.673028886318206787e-01
6.790000000000000000e+02 4.250012588500976562e+01 -1.390412712097167969e+01 -2.325720071792602539e+00 1.313957870006561279e-01 -6.582973003387451172e-01 -6.931168437004089355e-01
6.800000000000000000e+02 1.338046455383300781e+01 -3.269985961914062500e+01 -4.466918706893920898e-01 2.183819055557250977e+00 5.211381912231445312e-01 -8.674497902393341064e-02
6.810000000000000000e+02 1.882905578613281250e+01 -2.941387748718261719e+01 -3.364871144294738770e-01 7.458750605583190918e-01 1.228163763880729675e-01 -1.871255934238433838e-01
6.820000000000000000e+02 5.184771537780761719e+00 -3.430520629882812500e+01 -2.075659185647964478e-01 3.161116123199462891e+00 8.860650658607482910e-01 2.407631725072860718e-01
6.830000000000000000e+02 6.298902511596679688e+01 -2.933630752563476562e+01 -5.780472159385681152e-01 3.106339216232299805e+00 7.584875822067260742e-01 4.590008258819580078e-01
6.840000000000000000e+02 7.410329437255859375e+01 -3.198546600341796875e+01 -2.188453525304794312e-01 9.102061271667480469e+00 2.664964914321899414e+00 -8.453720808029174805e-02
6.850000000000000000e+02 6.697017669677734375e+01 -1.588197326660156250e+01 2.123908996582031250e+00 1.071282196044921875e+01 3.851019382476806641e+00 4.111862659454345703e+00
6.860000000000000000e+02 4.594992065429687500e+01 7.149211406707763672e+00 1.206382513046264648e+00 3.800211846828460693e-01 4.759210944175720215e-01 -5.226730704307556152e-01
6.870000000000000000e+02 2.658728408813476562e+01 4.746673583984375000e+00 2.769685506820678711e+00 3.534714460372924805e+00 1.891319990158081055e+00 1.747058629989624023e+00
6.880000000000000000e+02 2.863322448730468750e+01 5.935838699340820312e+00 2.727349758148193359e+00 2.591810226440429688e+00 1.595747947692871094e+00 1.413915634155273438e+00
6.890000000000000000e+02 2.166332817077636719e+01 4.454033851623535156e+00 2.314955949783325195e+00 1.563297748565673828e+00 1.163476109504699707e+00 2.378906965255737305e+00
6.900000000000000000e+02 6.021256637573242188e+01 4.792984485626220703e+00 4.436523318290710449e-01 2.115495681762695312e+00 7.677443623542785645e-01 -1.174933791160583496e+00
6.910000000000000000e+02 5.704765701293945312e+01 1.253899097442626953e+01 4.902033209800720215e-01 3.341715574264526367e+00 1.149575710296630859e+00 -8.211451768875122070e-01
6.920000000000000000e+02 7.313205718994140625e+01 1.105873394012451172e+01 -2.040613442659378052e-02 6.421939373016357422e+00 1.920459985733032227e+00 -8.069117069244384766e-01
6.930000000000000000e+02 6.149638366699218750e+01 1.176446437835693359e+01 5.417357087135314941e-01 3.461585521697998047e+00 1.200996398925781250e+00 -1.119095444679260254e+00
6.940000000000000000e+02 6.066916275024414062e+01 1.653027725219726562e+01 7.857621908187866211e-01 3.517248153686523438e+00 1.290903091430664062e+00 -8.572521805763244629e-01
6.950000000000000000e+02 4.918726730346679688e+01 1.906375694274902344e+01 9.172570705413818359e-01 2.477687746286392212e-01 3.495077490806579590e-01 9.298419207334518433e-02
6.960000000000000000e+02 5.185005950927734375e+01 1.872751808166503906e+01 1.034225583076477051e+00 8.098050951957702637e-01 5.532091856002807617e-01 -7.045930027961730957e-01
6.970000000000000000e+02 4.359590530395507812e+01 2.410692596435546875e+01 7.097396850585937500e-01 1.873159050941467285e+00 7.748696208000183105e-01 6.337299346923828125e-01
6.980000000000000000e+02 4.339833068847656250e+01 2.911976432800292969e+01 6.492037177085876465e-01 1.960691690444946289e+00 7.829686403274536133e-01 3.292922079563140869e-01
6.990000000000000000e+02 4.257660675048828125e+01 2.100248336791992188e+01 7.055764198303222656e-01 1.989168167114257812e+00 8.084233999252319336e-01 7.884317040443420410e-01
7.000000000000000000e+02 2.680371475219726562e+01 1.743160247802734375e+01 -5.913451910018920898e-01 1.695579767227172852e+00 3.312703967094421387e-01 2.667425870895385742e-01
7.010000000000000000e+02 2.880337524414062500e+01 2.064609146118164062e+01 -1.385234445333480835e-01 1.643585443496704102e+00 4.515186250209808350e-01 3.218774199485778809e-01
7.020000000000000000e+02 3.895232009887695312e+01 2.397063636779785156e+01 4.696696698665618896e-01 1.982163429260253906e+00 7.355499267578125000e-01 5.838816761970520020e-01
7.030000000000000000e+02 1.179654216766357422e+01 1.030278205871582031e+01 9.761124253273010254e-01 2.988322496414184570e+00 1.189330458641052246e+00 -1.487673521041870117e-01
7.040000000000000000e+02 3.899671554565429688e+01 1.131805896759033203e+01 8.301100134849548340e-01 1.600801467895507812e+00 7.292734384536743164e-01 1.006297588348388672e+00
7.050000000000000000e+02 2.719137382507324219e+01 1.235125923156738281e+01 5.676615610718727112e-02 3.091914176940917969e+00 9.446040987968444824e-01 1.302494406700134277e+00
7.060000000000000000e+02 1.822149991989135742e+00 1.625608253479003906e+01 2.056273631751537323e-02 -6.582170128822326660e-01 -1.912962794303894043e-01 -1.949299722909927368e-01
7.070000000000000000e+02 6.513934326171875000e+01 2.611437606811523438e+01 3.698288798332214355e-01 4.302955627441406250e+00 1.401835441589355469e+00 -5.561006665229797363e-01
7.080000000000000000e+02 5.100453186035156250e+01 3.010826301574707031e+01 7.901902794837951660e-01 2.314461946487426758e+00 9.313956499099731445e-01 -7.063869386911392212e-02
7.090000000000000000e+02 3.146227455139160156e+01 3.411085128784179688e+01 3.257108330726623535e-01 1.521767616271972656e+00 5.542435646057128906e-01 1.438324153423309326e-01
7.100000000000000000e+02 3.740456390380859375e+01 3.162840461730957031e+01 4.115231037139892578e-01 1.800379753112792969e+00 6.635708212852478027e-01 2.468047440052032471e-01
7.110000000000000000e+02 2.142083930969238281e+01 2.366583442687988281e+01 7.471219450235366821e-02 7.464801669120788574e-01 2.463577091693878174e-01 4.057493507862091064e-01
7.120000000000000000e+02 8.528469085693359375e+00 2.733388328552246094e+01 -1.842458099126815796e-01 7.724729180335998535e-01 1.764681339263916016e-01 -2.048192173242568970e-02
7.130000000000000000e+02 6.070496749877929688e+01 3.008282279968261719e+01 4.873714745044708252e-01 3.645132541656494141e+00 1.239751219749450684e+00 -4.102539122104644775e-01
7.140000000000000000e+02 5.942416763305664062e+01 3.458580780029296875e+01 5.017821192741394043e-01 3.520326137542724609e+00 1.206632494926452637e+00 -2.122160047292709351e-01
7.150000000000000000e+02 2.502636146545410156e+01 3.357983016967773438e+01 2.264972478151321411e-01 1.170600056648254395e+00 4.191292226314544678e-01 1.436373144388198853e-01
7.160000000000000000e+02 1.456163692474365234e+01 3.165200424194335938e+01 -2.200454287230968475e-02 8.864115476608276367e-01 2.593221068382263184e-01 1.807018667459487915e-01
7.170000000000000000e+02 2.360417604446411133e+00 3.173116493225097656e+01 -1.283533684909343719e-02 2.249792218208312988e-01 6.364316493272781372e-02 -1.920432783663272858e-02
7.180000000000000000e+02 7.958555698394775391e+00 -1.884951353073120117e+00 -1.494280397891998291e-01 2.032174319028854370e-01 1.613681763410568237e-02 3.972046971321105957e-01
7.190000000000000000e+02 6.450276374816894531e+00 -1.879779338836669922e+00 -4.671015739440917969e-01 2.146689742803573608e-01 -7.572977244853973389e-02 1.675576344132423401e-02
7.200000000000000000e+02 5.696500301361083984e+00 -1.873208880424499512e+00 -5.093557238578796387e-01 2.212539762258529663e-01 -8.643052726984024048e-02 -1.039905399084091187e-01
7.210000000000000000e+02 4.944124221801757812e+00 -1.866183400154113770e+00 -5.011000633239746094e-01 1.281968057155609131e-01 -1.118709817528724670e-01 -2.790555357933044434e-01
7.220000000000000000e+02 3.444761276245117188e+00 -1.870706558227539062e+00 -3.719987273216247559e-01 8.934807963669300079e-03 -1.089191734790802002e-01 -4.071664512157440186e-01
7.230000000000000000e+02 3.544028759002685547e+00 -2.597244262695312500e+00 -2.965943813323974609e-01 7.690317183732986450e-02 -6.590736657381057739e-02 -4.437901675701141357e-01
7.240000000000000000e+02 1.938191652297973633e+00 -1.985505580902099609e+00 -1.709831058979034424e-01 -1.855557411909103394e-01 -1.069616526365280151e-01 -3.658919334411621094e-01
7.250000000000000000e+02 1.174407720565795898e+00 -2.096312761306762695e+00 -6.922608613967895508e-02 -2.493830323219299316e-01 -9.558273106813430786e-02 -2.196007668972015381e-01
7.260000000000000000e+02 3.948374688625335693e-01 -2.181044101715087891e+00 -2.885649912059307098e-02 -2.382680773735046387e-01 -8.013737201690673828e-02 -8.033418655395507812e-02
7.270000000000000000e+02 1.999081254005432129e+00 -4.164083862304687500e+01 6.078473106026649475e-02 3.754198789596557617e+00 1.144495010375976562e+00 -1.720830425620079041e-02
7.280000000000000000e+02 8.868122100830078125e+00 -3.823804855346679688e+01 -1.909750252962112427e-01 2.660887479782104492e+00 7.409737706184387207e-01 8.134964108467102051e-02
7.290000000000000000e+02 9.488943815231323242e-01 -3.876313018798828125e+01 5.786024034023284912e-03 3.823004484176635742e+00 1.148637175559997559e+00 -3.885864745825529099e-03
7.300000000000000000e+02 8.386853337287902832e-01 -3.470301055908203125e+01 -2.337560243904590607e-02 3.749253511428833008e+00 1.117763400077819824e+00 5.564548820257186890e-02
7.310000000000000000e+02 8.543555140495300293e-01 -3.329412460327148438e+01 3.503755200654268265e-03 3.647610425949096680e+00 1.095334291458129883e+00 7.253788411617279053e-02
7.320000000000000000e+02 6.852548122406005859e-01 -2.902759552001953125e+01 -4.907218739390373230e-02 3.014419078826904297e+00 8.896040320396423340e-01 1.561339795589447021e-01
7.330000000000000000e+02 6.515641808509826660e-01 -2.761719512939453125e+01 1.406401675194501877e-02 2.642230510711669922e+00 7.968883514404296875e-01 1.985833793878555298e-01
7.340000000000000000e+02 6.360105276107788086e-01 -2.621127510070800781e+01 -6.266780942678451538e-02 2.158080816268920898e+00 6.286239027976989746e-01 2.473353296518325806e-01
7.350000000000000000e+02 6.261094808578491211e-01 -2.198886299133300781e+01 2.484739758074283600e-02 -1.515885144472122192e-01 -3.802233561873435974e-02 4.471616148948669434e-01
7.360000000000000000e+02 6.145515441894531250e-01 -2.057554244995117188e+01 -6.909893453121185303e-02 -1.221191644668579102e+00 -3.870871663093566895e-01 4.945440590381622314e-01
7.370000000000000000e+02 1.829182267189025879e+00 -2.055199050903320312e+01 -5.975657701492309570e-02 4.374762251973152161e-02 -4.802686162292957306e-03 1.313804507255554199e+00
7.380000000000000000e+02 6.105905771255493164e-01 -1.631439399719238281e+01 1.176170408725738525e-01 -4.684147357940673828e+00 -1.369959115982055664e+00 3.919671475887298584e-01
7.390000000000000000e+02 6.242883801460266113e-01 -1.488773822784423828e+01 8.459873497486114502e-02 -5.293162345886230469e+00 -1.562569022178649902e+00 1.553045660257339478e-01
7.400000000000000000e+02 6.192095875740051270e-01 -1.346275329589843750e+01 5.079931020736694336e-02 -5.436984539031982422e+00 -1.615855574607849121e+00 2.718196716159582138e-03
7.410000000000000000e+02 1.855175256729125977e+00 -1.335058879852294922e+01 4.293420314788818359e-01 -2.667878150939941406e+00 -6.715608835220336914e-01 -1.794740110635757446e-01
7.420000000000000000e+02 5.264346003532409668e-01 -9.236282348632812500e+00 5.003896728157997131e-02 -3.584808111190795898e+00 -1.060430765151977539e+00 -3.121101856231689453e-01
7.430000000000000000e+02 5.036942958831787109e-01 -7.849663257598876953e+00 -7.248574495315551758e-02 -2.699338436126708984e+00 -8.315472602844238281e-01 -2.802188992500305176e-01
7.440000000000000000e+02 4.269181728363037109e+00 -2.586894512176513672e+00 -3.647197186946868896e-01 1.614861935377120972e-01 -6.097005680203437805e-02 -4.176235198974609375e-01
7.450000000000000000e+02 4.973789751529693604e-01 -6.461196899414062500e+00 4.941353201866149902e-02 -1.905066847801208496e+00 -5.566959977149963379e-01 -2.427509129047393799e-01
7.460000000000000000e+02 7.264432525634765625e+01 -3.568078231811523438e+01 -7.644654810428619385e-02 8.241451263427734375e+00 2.449501514434814453e+00 3.214765340089797974e-02
7.470000000000000000e+02 4.881610870361328125e+01 -3.658922576904296875e+01 -3.399479389190673828e-02 -4.465121328830718994e-01 -1.441520750522613525e-01 -3.684625029563903809e-01
7.480000000000000000e+02 3.084700202941894531e+01 -3.817522811889648438e+01 -2.070146054029464722e-01 -1.601666361093521118e-01 -1.101543754339218140e-01 9.930000454187393188e-02
7.490000000000000000e+02 7.558747863769531250e+01 4.053506469726562500e+01 3.821887448430061340e-02 5.410187721252441406e+00 1.634521961212158203e+00 2.456172835081815720e-03
7.500000000000000000e+02 7.800159454345703125e+01 4.172826004028320312e+01 6.156877055764198303e-02 5.535636901855468750e+00 1.679161667823791504e+00 -1.717949286103248596e-02
7.510000000000000000e+02 7.866310882568359375e+01 3.875012207031250000e+01 -8.829290047287940979e-03 5.602681159973144531e+00 1.678155541419982910e+00 -3.807137534022331238e-02
7.520000000000000000e+02 7.675319671630859375e+01 3.784793090820312500e+01 -4.292883444577455521e-03 5.493101119995117188e+00 1.646642446517944336e+00 -4.489314183592796326e-02
7.530000000000000000e+02 7.934971618652343750e+01 3.468351364135742188e+01 -4.375187214463949203e-03 5.739191532135009766e+00 1.720444917678833008e+00 -1.698535680770874023e-02
7.540000000000000000e+02 7.676404571533203125e+01 3.375326919555664062e+01 1.330323051661252975e-02 5.558338165283203125e+00 1.671492338180541992e+00 -8.931472152471542358e-02
7.550000000000000000e+02 7.948353576660156250e+01 3.338755798339843750e+01 -1.840150565840303898e-03 5.773450851440429688e+00 1.731483221054077148e+00 -8.816313929855823517e-03
7.560000000000000000e+02 7.925621032714843750e+01 3.079719543457031250e+01 9.170459583401679993e-03 5.866886138916015625e+00 1.762816905975341797e+00 -3.147490322589874268e-02
7.570000000000000000e+02 7.803937530517578125e+01 2.800167465209960938e+01 2.679887693375349045e-03 5.904442310333251953e+00 1.772136688232421875e+00 -1.077487319707870483e-01
7.580000000000000000e+02 7.933077239990234375e+01 2.653001785278320312e+01 -5.630803294479846954e-03 6.106155395507812500e+00 1.830157279968261719e+00 -4.097358137369155884e-02
7.590000000000000000e+02 7.655533599853515625e+01 2.545417022705078125e+01 3.881020843982696533e-02 5.908352851867675781e+00 1.784148931503295898e+00 -2.293360829353332520e-01
7.600000000000000000e+02 7.931028747558593750e+01 2.513704872131347656e+01 1.271567214280366898e-02 6.203884124755859375e+00 1.864979863166809082e+00 -4.949050396680831909e-02
7.610000000000000000e+02 7.928624725341796875e+01 2.093171310424804688e+01 -5.656092427670955658e-03 6.566071987152099609e+00 1.968124747276306152e+00 -6.778556108474731445e-02
7.620000000000000000e+02 7.928764343261718750e+01 1.953225517272949219e+01 1.128037367016077042e-02 6.710880279541015625e+00 2.016648292541503906e+00 -7.353082299232482910e-02
7.630000000000000000e+02 7.929420471191406250e+01 1.813615226745605469e+01 -5.563533399254083633e-03 6.867872238159179688e+00 2.058692693710327148e+00 -7.920199632644653320e-02
7.640000000000000000e+02 7.932416534423828125e+01 1.396096134185791016e+01 1.001118868589401245e-02 7.412192821502685547e+00 2.226661205291748047e+00 -8.991908282041549683e-02
7.650000000000000000e+02 7.932971954345703125e+01 1.256686687469482422e+01 -1.001472491770982742e-02 7.610738277435302734e+00 2.280217170715332031e+00 -8.990120142698287964e-02
7.660000000000000000e+02 7.933189392089843750e+01 1.117283916473388672e+01 1.067690923810005188e-02 7.814616680145263672e+00 2.347588062286376953e+00 -9.087066352367401123e-02
7.670000000000000000e+02 7.932218933105468750e+01 6.993920326232910156e+00 -1.837511733174324036e-02 8.348832130432128906e+00 2.499137163162231445e+00 -5.893129855394363403e-02
7.680000000000000000e+02 7.932532501220703125e+01 5.602299213409423828e+00 -1.297304220497608185e-02 8.459839820861816406e+00 2.534060001373291016e+00 -2.607356198132038116e-02
7.690000000000000000e+02 7.933443450927734375e+01 4.212039470672607422e+00 -1.189726032316684723e-02 8.512103080749511719e+00 2.550061702728271484e+00 -1.117731095291674137e-03
7.700000000000000000e+02 7.936488342285156250e+01 3.870616853237152100e-02 -6.440331786870956421e-02 8.066916465759277344e+00 2.400753974914550781e+00 1.788944453001022339e-01
7.710000000000000000e+02 7.937257385253906250e+01 -1.354555726051330566e+00 2.121505513787269592e-02 7.652752876281738281e+00 2.302190303802490234e+00 2.215353995561599731e-01
7.720000000000000000e+02 7.816753387451171875e+01 -4.051686286926269531e+00 -1.079086586833000183e-01 7.097028732299804688e+00 2.096735954284667969e+00 8.340075016021728516e-01
7.730000000000000000e+02 7.938606262207031250e+01 -4.133660316467285156e+00 6.580351293087005615e-02 6.436646938323974609e+00 1.950735092163085938e+00 3.093836903572082520e-01
7.740000000000000000e+02 7.937745666503906250e+01 -8.277475357055664062e+00 -4.784382507205009460e-02 4.504652023315429688e+00 1.337042450904846191e+00 2.302588224411010742e-01
7.750000000000000000e+02 7.796450805664062500e+01 -1.082397079467773438e+01 4.010166525840759277e-01 5.878340721130371094e+00 1.883807182312011719e+00 -5.755437165498733521e-02
7.760000000000000000e+02 7.932479095458984375e+01 -1.104638671875000000e+01 1.038391515612602234e-02 4.158448696136474609e+00 1.250649809837341309e+00 -5.970115959644317627e-02
7.770000000000000000e+02 7.931343841552734375e+01 -1.522744274139404297e+01 2.122088707983493805e-02 5.648412704467773438e+00 1.700890064239501953e+00 -3.993336558341979980e-01
7.780000000000000000e+02 7.806684875488281250e+01 -1.787482833862304688e+01 -1.509064249694347382e-02 7.922947883605957031e+00 2.372357130050659180e+00 -1.134325981140136719e+00
7.790000000000000000e+02 7.934716033935546875e+01 -1.802684402465820312e+01 -4.625708609819412231e-02 7.404322624206542969e+00 2.207419633865356445e+00 -4.320845603942871094e-01
7.800000000000000000e+02 7.932900238037109375e+01 -2.362376022338867188e+01 -6.826566159725189209e-02 1.025966453552246094e+01 3.057419776916503906e+00 -2.666146457195281982e-01
7.810000000000000000e+02 7.798508453369140625e+01 -2.491944885253906250e+01 -1.395125389099121094e-01 1.021312427520751953e+01 3.022083759307861328e+00 -5.390104651451110840e-01
7.820000000000000000e+02 7.932852172851562500e+01 -2.502176094055175781e+01 1.494473125785589218e-02 1.069321537017822266e+01 3.212448120117187500e+00 -2.180658280849456787e-01
7.830000000000000000e+02 7.932696533203125000e+01 -2.917751121520996094e+01 -2.826305292546749115e-02 1.146348094940185547e+01 3.430565357208251953e+00 -9.886466711759567261e-02
7.840000000000000000e+02 7.784767150878906250e+01 -3.178831291198730469e+01 -4.107048735022544861e-02 1.086807346343994141e+01 3.248100757598876953e+00 -9.621767699718475342e-02
7.850000000000000000e+02 7.928826141357421875e+01 -3.195968627929687500e+01 -1.742977835237979889e-02 1.162442588806152344e+01 3.482098817825317383e+00 -3.235688433051109314e-02
7.860000000000000000e+02 7.934169006347656250e+01 -3.608523178100585938e+01 2.528402954339981079e-02 1.154154968261718750e+01 3.470050096511840820e+00 2.694770321249961853e-02
7.870000000000000000e+02 7.924190521240234375e+01 -3.740056991577148438e+01 -5.701667815446853638e-02 1.139393711090087891e+01 3.401076316833496094e+00 8.200512081384658813e-02
7.880000000000000000e+02 7.899394226074218750e+01 -3.869249725341796875e+01 7.089536171406507492e-03 1.122170162200927734e+01 3.368637323379516602e+00 1.020229756832122803e-01
7.890000000000000000e+02 7.860597991943359375e+01 -4.004191207885742188e+01 -7.696696370840072632e-02 1.102901935577392578e+01 3.285615682601928711e+00 1.713773906230926514e-01
7.900000000000000000e+02 2.754663658142089844e+01 4.076229476928710938e+01 2.917992174625396729e-01 1.303706765174865723e+00 4.786517918109893799e-01 2.393811568617820740e-02
7.910000000000000000e+02 5.201737976074218750e+01 3.694500732421875000e+01 6.508694291114807129e-01 2.686409235000610352e+00 1.001183629035949707e+00 -4.396590217947959900e-02
7.920000000000000000e+02 6.748658752441406250e+01 4.063488006591796875e+01 2.333750724792480469e-01 4.506944179534912109e+00 1.422095775604248047e+00 -5.736252292990684509e-02
7.930000000000000000e+02 3.936011791229248047e-01 2.161194324493408203e+00 -8.861243724822998047e-03 -1.017381250858306885e-01 -3.317981213331222534e-02 3.981097415089607239e-02
7.940000000000000000e+02 2.686323881149291992e+00 2.851370573043823242e+00 -1.178883686661720276e-01 -1.779101490974426270e-01 -8.873955905437469482e-02 3.417956233024597168e-01
7.950000000000000000e+02 5.800673484802246094e+00 4.300982952117919922e+00 -1.614177599549293518e-02 4.848518967628479004e-02 9.703024290502071381e-03 4.975340962409973145e-01
7.960000000000000000e+02 1.658971548080444336e+00 4.873918056488037109e+00 -7.441557012498378754e-03 -4.698491096496582031e-01 -1.431871950626373291e-01 2.931303679943084717e-01
7.970000000000000000e+02 6.157856583595275879e-01 9.269342422485351562e+00 1.953044533729553223e-02 -1.279272556304931641e+00 -3.779226243495941162e-01 5.306479334831237793e-02
7.980000000000000000e+02 5.940965414047241211e-01 1.210129642486572266e+01 1.301541645079851151e-02 -1.366684913635253906e+00 -4.061008393764495850e-01 -1.576332747936248779e-02
7.990000000000000000e+02 1.781743288040161133e+00 1.210546970367431641e+01 5.946204066276550293e-02 -9.150962829589843750e-01 -2.566902637481689453e-01 -4.866417124867439270e-02
8.000000000000000000e+02 6.046873927116394043e-01 1.631273841857910156e+01 8.348826318979263306e-03 -1.030087471008300781e+00 -3.065215945243835449e-01 -7.373865693807601929e-02
8.010000000000000000e+02 6.156207919120788574e-01 1.771396446228027344e+01 -2.370365895330905914e-03 -8.526681661605834961e-01 -2.565115690231323242e-01 -7.990112900733947754e-02
8.020000000000000000e+02 6.518228054046630859e-01 2.192277717590332031e+01 -1.774648553691804409e-03 -3.429963290691375732e-01 -1.034312918782234192e-01 -6.724102795124053955e-02
8.030000000000000000e+02 6.599016189575195312e-01 2.333300399780273438e+01 -6.799315568059682846e-03 -2.101447135210037231e-01 -6.508320569992065430e-02 -5.728130415081977844e-02
8.040000000000000000e+02 6.661180257797241211e-01 2.474416160583496094e+01 -3.957701846957206726e-03 -1.013289317488670349e-01 -3.158599138259887695e-02 -4.635259136557579041e-02
8.050000000000000000e+02 7.081071734428405762e-01 2.898241043090820312e+01 -4.350877832621335983e-03 9.316314011812210083e-02 2.664367854595184326e-02 -1.823176071047782898e-02
8.060000000000000000e+02 7.444170713424682617e-01 3.041047096252441406e+01 -1.904098200611770153e-03 1.225594505667686462e-01 3.619660437107086182e-02 -1.252321433275938034e-02
8.070000000000000000e+02 2.229653358459472656e+00 3.025187492370605469e+01 -1.508635375648736954e-02 2.073110640048980713e-01 5.766741186380386353e-02 -3.371550142765045166e-02
8.080000000000000000e+02 7.744079232215881348e-01 3.183852577209472656e+01 -3.306047758087515831e-03 1.406910568475723267e-01 4.121550545096397400e-02 -7.490628864616155624e-03
8.090000000000000000e+02 6.967837214469909668e-01 3.605459213256835938e+01 -2.988380147144198418e-03 1.626869291067123413e-01 4.790956526994705200e-02 -2.745674923062324524e-03
8.100000000000000000e+02 2.292242527008056641e+00 3.820859527587890625e+01 9.229742921888828278e-03 2.344734519720077515e-01 7.311096042394638062e-02 -1.423924602568149567e-02
8.110000000000000000e+02 8.589448928833007812e-01 3.875738143920898438e+01 -3.766300156712532043e-03 1.890335679054260254e-01 5.558018013834953308e-02 -7.927173748612403870e-03
8.120000000000000000e+02 1.235405802726745605e+00 4.010083389282226562e+01 8.916860446333885193e-03 2.069532871246337891e-01 6.476104259490966797e-02 -1.481048297137022018e-02
8.130000000000000000e+02 9.790487289428710938e+00 1.861179947853088379e+00 -7.025653719902038574e-01 2.394987493753433228e-01 -1.389199793338775635e-01 -3.984597697854042053e-02
8.140000000000000000e+02 8.988310813903808594e+00 1.870728969573974609e+00 -7.499083280563354492e-01 8.687238395214080811e-02 -1.989107728004455566e-01 1.487372815608978271e-01
8.150000000000000000e+02 8.199029922485351562e+00 1.874588608741760254e+00 -7.373201251029968262e-01 8.580385148525238037e-02 -1.954548805952072144e-01 2.760822474956512451e-01
8.160000000000000000e+02 7.413512706756591797e+00 1.878050684928894043e+00 -7.054243683815002441e-01 3.748448565602302551e-02 -2.003819644451141357e-01 3.511864840984344482e-01
8.170000000000000000e+02 5.063119888305664062e+00 1.900385975837707520e+00 -4.551284015178680420e-01 -2.531609870493412018e-02 -1.441333442926406860e-01 3.911572396755218506e-01
8.180000000000000000e+02 4.281165599822998047e+00 1.913628339767456055e+00 -3.595222234725952148e-01 -5.422027781605720520e-02 -1.241227537393569946e-01 3.724693953990936279e-01
8.190000000000000000e+02 3.498629331588745117e+00 1.930149555206298828e+00 -2.658189833164215088e-01 -7.378001511096954346e-02 -1.018797010183334351e-01 3.290668427944183350e-01
8.200000000000000000e+02 1.946223497390747070e+00 1.978059768676757812e+00 -1.128044500946998596e-01 -1.264076977968215942e-01 -7.176364958286285400e-02 2.185359746217727661e-01
8.210000000000000000e+02 1.172736406326293945e+00 2.057032585144042969e+00 -4.271890968084335327e-02 -1.556118130683898926e-01 -5.949921533465385437e-02 1.307030171155929565e-01
8.220000000000000000e+02 1.145058917999267578e+01 1.535463333129882812e+00 -5.226251482963562012e-01 6.631175875663757324e-01 4.214773327112197876e-02 -6.463074684143066406e-01
8.230000000000000000e+02 1.340935897827148438e+01 9.026843309402465820e-01 3.159408271312713623e-01 1.477893948554992676e+00 5.381504297256469727e-01 -1.695294141769409180e+00
8.240000000000000000e+02 1.408331298828125000e+01 6.568623781204223633e-01 6.484071016311645508e-01 2.326705217361450195e+00 8.925337195396423340e-01 -2.174444913864135742e+00
8.250000000000000000e+02 1.452928638458251953e+01 5.200140476226806641e-01 9.312615990638732910e-01 3.215870141983032227e+00 1.244139552116394043e+00 -2.506845235824584961e+00
8.260000000000000000e+02 1.434879589080810547e+01 1.064162373542785645e+00 3.649977147579193115e-01 3.180052518844604492e+00 1.063515067100524902e+00 -2.455759763717651367e+00
8.270000000000000000e+02 1.624611473083496094e+01 -1.683405488729476929e-01 1.499597072601318359e+00 1.043902111053466797e+01 3.581585407257080078e+00 3.041358292102813721e-01
8.280000000000000000e+02 1.644416046142578125e+01 -2.804183363914489746e-01 2.132180690765380859e+00 1.079546451568603516e+01 3.878293514251708984e+00 1.463066935539245605e+00
8.290000000000000000e+02 1.681949043273925781e+01 -5.291689634323120117e-01 4.281918048858642578e+00 1.028589057922363281e+01 4.370342731475830078e+00 3.523626804351806641e+00
8.300000000000000000e+02 1.727532577514648438e+01 -1.263263702392578125e+00 9.526338577270507812e+00 7.881675243377685547e+00 5.222404003143310547e+00 4.725864887237548828e+00
8.310000000000000000e+02 1.736566734313964844e+01 -1.899280071258544922e+00 1.213608741760253906e+01 6.682696819305419922e+00 5.645635128021240234e+00 2.833299398422241211e+00
8.320000000000000000e+02 1.702434349060058594e+01 -2.908263444900512695e+00 9.904891967773437500e+00 8.925081253051757812e+00 5.648992061614990234e+00 -1.696775704622268677e-01
8.330000000000000000e+02 1.646651840209960938e+01 -3.307173490524291992e+00 7.190581321716308594e+00 1.124983310699462891e+01 5.532124042510986328e+00 9.420064687728881836e-01
8.340000000000000000e+02 1.584569835662841797e+01 -3.457823991775512695e+00 6.124580383300781250e+00 1.141027259826660156e+01 5.260456085205078125e+00 3.884922266006469727e+00
8.350000000000000000e+02 1.606451797485351562e+01 -3.464790821075439453e+00 6.078109741210937500e+00 1.176866912841796875e+01 5.354033946990966797e+00 2.891249895095825195e+00
8.360000000000000000e+02 1.525701522827148438e+01 -3.389173984527587891e+00 7.114269733428955078e+00 8.681966781616210938e+00 4.738871097564697266e+00 6.482630729675292969e+00
8.370000000000000000e+02 1.338588237762451172e+01 -2.686436414718627930e+00 6.314682006835937500e+00 -1.822619289159774780e-01 1.839726090431213379e+00 2.483730077743530273e+00
8.380000000000000000e+02 1.263788604736328125e+01 -2.452414035797119141e+00 4.318139553070068359e+00 -2.667330205440521240e-01 1.215422034263610840e+00 1.763188481330871582e+00
8.390000000000000000e+02 1.107201766967773438e+01 -2.104830503463745117e+00 1.835510015487670898e+00 -2.120334953069686890e-01 4.870429635047912598e-01 1.023404002189636230e+00
8.400000000000000000e+02 2.587248802185058594e+01 1.397411251068115234e+01 -5.398330688476562500e-01 1.933540940284729004e+00 4.181123673915863037e-01 3.387354016304016113e-01
8.410000000000000000e+02 6.786743164062500000e+01 -1.685842895507812500e+01 6.086201071739196777e-01 1.059028244018554688e+01 3.359670639038085938e+00 2.375123500823974609e+00
8.420000000000000000e+02 6.539286041259765625e+01 -1.821927833557128906e+01 1.621829032897949219e+00 5.214374065399169922e+00 2.050860881805419922e+00 2.717684030532836914e+00
8.430000000000000000e+02 6.451126861572265625e+01 -1.933312606811523438e+01 9.835498332977294922e-01 3.177149057388305664e+00 1.248209595680236816e+00 1.893939137458801270e+00
8.440000000000000000e+02 6.269536972045898438e+01 -2.151552200317382812e+01 3.921475633978843689e-02 1.230555891990661621e+00 3.809311985969543457e-01 5.514592528343200684e-01
8.450000000000000000e+02 5.968886566162109375e+01 -2.456167984008789062e+01 -1.159230232238769531e+00 -2.573986649513244629e-01 -4.249886572360992432e-01 -6.797121167182922363e-01
8.460000000000000000e+02 5.738822937011718750e+01 -2.620764350891113281e+01 -1.774281263351440430e+00 -6.431475877761840820e-01 -7.252286672592163086e-01 -1.059748530387878418e+00
8.470000000000000000e+02 5.498988342285156250e+01 -2.768640327453613281e+01 -1.939409375190734863e+00 -6.125234365463256836e-01 -7.655798196792602539e-01 -1.047961711883544922e+00
8.480000000000000000e+02 5.250600814819335938e+01 -2.905259704589843750e+01 -1.785699367523193359e+00 -5.140289664268493652e-01 -6.899185180664062500e-01 -9.753776192665100098e-01
8.490000000000000000e+02 4.588449096679687500e+01 -3.151738929748535156e+01 -1.003656983375549316e+00 -1.623554080724716187e-01 -3.498037159442901611e-01 -3.610202074050903320e-01
8.500000000000000000e+02 4.000492095947265625e+01 -3.287888717651367188e+01 -5.905872583389282227e-01 -5.383506789803504944e-02 -1.933266967535018921e-01 -9.955210983753204346e-02
8.510000000000000000e+02 3.572239303588867188e+01 -3.264575576782226562e+01 -5.110014081001281738e-01 -5.706230178475379944e-02 -1.704191118478775024e-01 5.287189036607742310e-02
8.520000000000000000e+02 3.142708206176757812e+01 -3.184044456481933594e+01 -6.554813981056213379e-01 -4.272083938121795654e-02 -2.094606608152389526e-01 1.839806735515594482e-01
8.530000000000000000e+02 3.000937652587890625e+01 -3.158589553833007812e+01 -7.394373416900634766e-01 -1.268142461776733398e-01 -2.598754763603210449e-01 2.318437844514846802e-01
8.540000000000000000e+02 2.484463691711425781e+01 -2.918441772460937500e+01 -7.023670077323913574e-01 -1.768156588077545166e-01 -2.637548148632049561e-01 3.167185783386230469e-01
8.550000000000000000e+02 2.237964630126953125e+01 -2.792113304138183594e+01 -5.728108286857604980e-01 -1.267821341753005981e-01 -2.098778784275054932e-01 2.594806253910064697e-01
8.560000000000000000e+02 2.361172103881835938e+01 -2.857177162170410156e+01 -6.432402133941650391e-01 -1.323494464159011841e-01 -2.326768934726715088e-01 3.190743327140808105e-01
8.570000000000000000e+02 1.367538642883300781e+01 -2.049478340148925781e+01 1.187360882759094238e+00 2.196031332015991211e+00 1.015017628669738770e+00 -1.734484314918518066e+00
8.580000000000000000e+02 1.271132850646972656e+01 -1.945287513732910156e+01 1.733497858047485352e+00 3.266931056976318359e+00 1.500128746032714844e+00 -2.194745302200317383e+00
8.590000000000000000e+02 1.086876296997070312e+01 -1.732103157043457031e+01 3.137576341629028320e+00 7.751484870910644531e+00 3.266718387603759766e+00 -4.210277557373046875e+00
8.600000000000000000e+02 1.660023880004882812e+01 -1.190653228759765625e+01 -7.952418327331542969e+00 -7.015489339828491211e-01 -2.596190214157104492e+00 2.672610759735107422e+00
8.610000000000000000e+02 2.030712890625000000e+01 -1.486432361602783203e+01 -6.977947711944580078e+00 -1.252379417419433594e+00 -2.469098091125488281e+00 2.880774021148681641e+00
8.620000000000000000e+02 2.153902435302734375e+01 -1.551849365234375000e+01 -5.826721191406250000e+00 -9.036018252372741699e-01 -2.019096851348876953e+00 2.451261043548583984e+00
8.630000000000000000e+02 2.406383323669433594e+01 -1.657074356079101562e+01 -4.993435382843017578e+00 -4.122848212718963623e-01 -1.621716141700744629e+00 1.591831207275390625e+00
8.640000000000000000e+02 2.938011360168457031e+01 -1.802310371398925781e+01 -3.876880407333374023e+00 -2.345583401620388031e-02 -1.170100927352905273e+00 6.838775873184204102e-01
8.650000000000000000e+02 3.208603668212890625e+01 -1.844480514526367188e+01 -3.636293172836303711e+00 -3.277997020632028580e-03 -1.091871380805969238e+00 3.585636913776397705e-01
8.660000000000000000e+02 3.755552291870117188e+01 -1.857664108276367188e+01 -3.119717359542846680e+00 1.473544351756572723e-02 -9.314945936203002930e-01 -1.946725845336914062e-01
8.670000000000000000e+02 3.494022369384765625e+01 -1.745254516601562500e+01 -3.155633449554443359e+00 1.950782388448715210e-01 -8.881665468215942383e-01 -6.641612946987152100e-02
8.680000000000000000e+02 4.029534530639648438e+01 -1.834532737731933594e+01 -2.611738443374633789e+00 3.913484513759613037e-02 -7.717810869216918945e-01 -4.099177122116088867e-01
8.690000000000000000e+02 4.562221527099609375e+01 -1.698443603515625000e+01 -2.802823305130004883e+00 -2.651469111442565918e-01 -9.203910827636718750e-01 -8.574925065040588379e-01
8.700000000000000000e+02 4.407202911376953125e+01 -1.616816520690917969e+01 -2.578914165496826172e+00 -1.320380568504333496e-01 -8.132856488227844238e-01 -7.284501194953918457e-01
8.710000000000000000e+02 4.693498992919921875e+01 -1.658228683471679688e+01 -2.530952453613281250e+00 -2.160325199365615845e-01 -8.240954279899597168e-01 -8.910599946975708008e-01
8.720000000000000000e+02 4.820754241943359375e+01 -1.609559822082519531e+01 -2.477602005004882812e+00 -3.569603562355041504e-01 -8.503687381744384766e-01 -1.013253808021545410e+00
8.730000000000000000e+02 5.252945327758789062e+01 -1.249493980407714844e+01 -2.553196907043457031e+00 -5.664420723915100098e-01 -9.358916878700256348e-01 -1.286113977432250977e+00
8.740000000000000000e+02 5.312307357788085938e+01 -1.358892059326171875e+01 -2.753720760345458984e+00 -8.080773353576660156e-01 -1.068539381027221680e+00 -1.482016205787658691e+00
8.750000000000000000e+02 5.551740646362304688e+01 -1.217458534240722656e+01 -2.795730113983154297e+00 -9.732871055603027344e-01 -1.130705118179321289e+00 -1.698609709739685059e+00
8.760000000000000000e+02 5.786211776733398438e+01 -1.067097568511962891e+01 -3.361162662506103516e+00 -1.260718703269958496e+00 -1.386564373970031738e+00 -2.060824632644653320e+00
8.770000000000000000e+02 6.134339904785156250e+01 -8.473363876342773438e+00 -4.451457977294921875e+00 -1.471894145011901855e+00 -1.777005672454833984e+00 -2.538678884506225586e+00
8.780000000000000000e+02 6.431057739257812500e+01 -6.019918918609619141e+00 -3.190187931060791016e+00 -6.738904714584350586e-01 -1.159223556518554688e+00 -2.465917110443115234e+00
8.790000000000000000e+02 5.055602645874023438e+01 1.894124794006347656e+01 8.498622775077819824e-01 2.479703724384307861e-01 3.293497860431671143e-01 -2.664115130901336670e-01
8.800000000000000000e+02 5.485004425048828125e+01 1.651711654663085938e+01 1.330522656440734863e+00 3.189044713973999023e+00 1.355870246887207031e+00 -1.481105208396911621e+00
8.810000000000000000e+02 4.617150115966796875e+01 5.868912220001220703e+00 1.558741331100463867e+00 2.947017550468444824e-01 5.560328960418701172e-01 -2.933158576488494873e-01
8.820000000000000000e+02 4.305573654174804688e+01 9.340197563171386719e+00 3.800618052482604980e-01 8.093711137771606445e-01 3.568298518657684326e-01 -1.725526899099349976e-01
8.830000000000000000e+02 4.642650604248046875e+01 1.945458602905273438e+01 1.200190901756286621e+00 1.001856446266174316e+00 6.606141924858093262e-01 8.765863776206970215e-01
8.840000000000000000e+02 1.426154804229736328e+01 -3.378505706787109375e+00 7.630066871643066406e+00 2.860607862472534180e+00 3.147202491760253906e+00 5.644973754882812500e+00
8.850000000000000000e+02 1.391162776947021484e+01 -2.935216426849365234e+00 7.954186916351318359e+00 8.785676360130310059e-01 2.649826288223266602e+00 4.074452877044677734e+00
8.860000000000000000e+02 1.372516250610351562e+01 -2.859298944473266602e+00 7.323546886444091797e+00 4.320022165775299072e-01 2.326664686203002930e+00 3.505618333816528320e+00
8.870000000000000000e+02 1.307342147827148438e+01 -2.888344049453735352e+00 5.790830135345458984e+00 -3.329464048147201538e-02 1.727260589599609375e+00 2.914603233337402344e+00
8.880000000000000000e+02 1.187017726898193359e+01 -2.279031753540039062e+00 2.984149932861328125e+00 -2.172205150127410889e-01 8.300787806510925293e-01 1.362831234931945801e+00
8.890000000000000000e+02 1.332686138153076172e+01 -2.968223094940185547e+00 6.340389728546142578e+00 3.273227438330650330e-02 1.911936521530151367e+00 3.259659767150878906e+00
8.900000000000000000e+02 1.354819583892822266e+01 -2.777906894683837891e+00 6.822415351867675781e+00 1.504070162773132324e-01 2.091846704483032227e+00 3.002721548080444336e+00
8.910000000000000000e+02 1.685987854003906250e+01 -3.080343723297119141e+00 8.899747848510742188e+00 9.769989967346191406e+00 5.600921154022216797e+00 -7.762335240840911865e-02
8.920000000000000000e+02 1.700110435485839844e+01 -6.751875281333923340e-01 5.512098789215087891e+00 9.810938835144042969e+00 4.596911430358886719e+00 4.311995983123779297e+00
8.930000000000000000e+02 1.577325534820556641e+01 -3.649600505828857422e+00 5.657238960266113281e+00 1.031825256347656250e+01 4.792647361755371094e+00 4.298492908477783203e+00
8.940000000000000000e+02 1.722022247314453125e+01 -2.512475728988647461e+00 1.161696338653564453e+01 7.606163978576660156e+00 5.766938209533691406e+00 4.762442409992218018e-01
8.950000000000000000e+02 1.734504127502441406e+01 -1.471278786659240723e+00 1.065567779541015625e+01 7.299366474151611328e+00 5.386513233184814453e+00 4.310289859771728516e+00
8.960000000000000000e+02 1.739985656738281250e+01 -3.316129922866821289e+00 8.040434837341308594e+00 7.233435630798339844e+00 4.582160949707031250e+00 -1.274339705705642700e-01
8.970000000000000000e+02 1.544766902923583984e+01 -3.421659708023071289e+00 6.650094032287597656e+00 1.006637763977050781e+01 5.014941692352294922e+00 5.804935455322265625e+00
8.980000000000000000e+02 1.772175598144531250e+01 -1.183570265769958496e+00 8.819571495056152344e+00 6.086371421813964844e+00 4.471782684326171875e+00 4.211934089660644531e+00
8.990000000000000000e+02 1.728999710083007812e+01 -2.310286998748779297e+00 1.219703960418701172e+01 7.055724620819091797e+00 5.775829315185546875e+00 1.208407640457153320e+00
9.000000000000000000e+02 1.734057235717773438e+01 -2.105504512786865234e+00 1.222446537017822266e+01 6.700921058654785156e+00 5.677616119384765625e+00 2.012667179107666016e+00
9.010000000000000000e+02 1.500304889678955078e+01 -3.572889328002929688e+00 6.682873249053955078e+00 6.933928966522216797e+00 4.085040569305419922e+00 6.487525939941406250e+00
9.020000000000000000e+02 1.604100418090820312e+01 6.028913021087646484e+00 -2.013847082853317261e-01 1.999725341796875000e+00 5.395022034645080566e-01 -9.079057574272155762e-01
9.030000000000000000e+02 1.740112495422363281e+01 4.755814552307128906e+00 -2.839220523834228516e+00 5.462831258773803711e-01 -6.878812313079833984e-01 4.908189475536346436e-01
9.040000000000000000e+02 1.593106079101562500e+01 5.202570557594299316e-01 4.912498593330383301e-01 7.658250808715820312e+00 2.444850206375122070e+00 -1.272204995155334473e+00
9.050000000000000000e+02 1.690767669677734375e+01 3.756475687026977539e+00 -1.827685713768005371e+00 3.024075269699096680e+00 3.589168190956115723e-01 -1.107547044754028320e+00
9.060000000000000000e+02 1.603376770019531250e+01 -1.113875284790992737e-01 1.132378935813903809e+00 1.004656410217285156e+01 3.353682994842529297e+00 -6.176562309265136719e-01
9.070000000000000000e+02 1.431120872497558594e+01 6.171033978462219238e-01 7.954365015029907227e-01 2.764195919036865234e+00 1.067889690399169922e+00 -2.380435228347778320e+00
9.080000000000000000e+02 1.471638393402099609e+01 3.680008351802825928e-01 1.111634969711303711e+00 3.793205738067626953e+00 1.471452236175537109e+00 -2.734630107879638672e+00
9.090000000000000000e+02 1.529863071441650391e+01 3.602600991725921631e-01 8.497043848037719727e-01 5.878830432891845703e+00 2.018560409545898438e+00 -2.633684396743774414e+00
9.100000000000000000e+02 1.561974525451660156e+01 6.492884457111358643e-02 9.504048824310302734e-01 7.687898635864257812e+00 2.591490983963012695e+00 -2.148209333419799805e+00
9.110000000000000000e+02 5.008558750152587891e+00 -2.602131843566894531e+00 -3.704535663127899170e-01 3.119565546512603760e-01 -1.754909940063953400e-02 -2.477635592222213745e-01
9.120000000000000000e+02 8.019957542419433594e+00 -2.656815528869628906e+00 1.282209157943725586e-01 5.338739752769470215e-01 1.986284554004669189e-01 7.434858679771423340e-01
9.130000000000000000e+02 2.693925619125366211e+00 -1.906331777572631836e+00 -2.768988907337188721e-01 -4.114935547113418579e-02 -9.541447460651397705e-02 -3.895559310913085938e-01
9.140000000000000000e+02 1.519017934799194336e+00 -7.828576564788818359e+00 -6.835916079580783844e-03 -1.660334587097167969e+00 -5.001511573791503906e-01 -7.823476791381835938e-01
9.150000000000000000e+02 2.554102659225463867e+00 -7.806940555572509766e+00 -1.877422630786895752e-01 -4.499546885490417480e-01 -1.913090795278549194e-01 -1.062612295150756836e+00
9.160000000000000000e+02 1.496344327926635742e+00 -6.523840427398681641e+00 -9.617774188518524170e-02 -1.214727282524108887e+00 -3.932715058326721191e-01 -6.811456084251403809e-01
9.170000000000000000e+02 4.894850552082061768e-01 -3.578197002410888672e+00 -1.414104737341403961e-02 -6.735396385192871094e-01 -2.063041925430297852e-01 -1.577347815036773682e-01
9.180000000000000000e+02 5.331131815910339355e-01 -5.029867172241210938e+00 -4.555570706725120544e-02 -1.188337087631225586e+00 -3.701678216457366943e-01 -2.371358573436737061e-01
9.190000000000000000e+02 8.833724021911621094e+00 -3.405102729797363281e+00 6.338449716567993164e-01 7.972977757453918457e-01 4.293428361415863037e-01 1.473857998847961426e+00
9.200000000000000000e+02 7.204626083374023438e+00 -1.883982300758361816e+00 -3.284004926681518555e-01 2.920093834400177002e-01 -1.091733109205961227e-02 2.538450658321380615e-01
9.210000000000000000e+02 6.510038852691650391e+00 -2.645062685012817383e+00 -2.596286535263061523e-01 4.979794323444366455e-01 7.150523364543914795e-02 1.972080469131469727e-01
9.220000000000000000e+02 5.756682872772216797e+00 -2.624716758728027344e+00 -3.624645173549652100e-01 3.700802624225616455e-01 2.284728689119219780e-03 -1.073375567793846130e-01
9.230000000000000000e+02 9.505750656127929688e+00 -2.632385730743408203e+00 9.152650237083435059e-01 3.483265936374664307e-01 3.790774941444396973e-01 1.246298551559448242e+00
9.240000000000000000e+02 1.024492454528808594e+01 -1.951920151710510254e+00 1.014038443565368652e+00 6.811348348855972290e-02 3.246455788612365723e-01 8.766292333602905273e-01
9.250000000000000000e+02 8.894299507141113281e+00 3.380172729492187500e+00 -2.073418349027633667e-01 4.328356683254241943e-01 6.764815002679824829e-02 1.287387311458587646e-01
9.260000000000000000e+02 8.149808883666992188e+00 2.624648571014404297e+00 -4.478339850902557373e-01 1.604348570108413696e-01 -8.621974289417266846e-02 2.941810786724090576e-01
9.270000000000000000e+02 5.797824382781982422e+00 2.679173469543457031e+00 -3.495837748050689697e-01 1.799076446332037449e-03 -1.043354123830795288e-01 4.640821814537048340e-01
9.280000000000000000e+02 5.846022605895996094e+00 1.890984773635864258e+00 -5.513558983802795410e-01 -9.767153300344944000e-03 -1.683369129896163940e-01 4.009918570518493652e-01
9.290000000000000000e+02 1.913749337196350098e+00 7.803551197052001953e+00 6.612538546323776245e-02 -7.343595623970031738e-01 -2.004702389240264893e-01 2.327835559844970703e-01
9.300000000000000000e+02 4.230241298675537109e+00 3.601286888122558594e+00 -1.199289411306381226e-01 -1.214894205331802368e-01 -7.242550700902938843e-02 4.935763478279113770e-01
9.310000000000000000e+02 1.278050899505615234e+00 3.145549297332763672e+00 -3.298948705196380615e-02 -2.826666831970214844e-01 -9.469684958457946777e-02 2.126432806253433228e-01
9.320000000000000000e+02 2.720749616622924805e+00 1.948313713073730469e+00 -1.863665133714675903e-01 -9.625852108001708984e-02 -8.478751033544540405e-02 2.782696485519409180e-01
9.330000000000000000e+02 1.961175322532653809e+00 2.885388374328613281e+00 -7.792079448699951172e-02 -2.028369903564453125e-01 -8.422733843326568604e-02 2.790938019752502441e-01
9.340000000000000000e+02 8.943305969238281250e+00 2.617967367172241211e+00 -4.291785359382629395e-01 2.784081399440765381e-01 -4.523112624883651733e-02 1.328024119138717651e-01
9.350000000000000000e+02 7.363355636596679688e+00 2.634984493255615234e+00 -4.326243102550506592e-01 1.121863722801208496e-01 -9.613137692213058472e-02 3.831540048122406006e-01
9.360000000000000000e+02 8.034409523010253906e+00 4.860733509063720703e+00 1.260260194540023804e-01 5.234780311584472656e-01 1.948512196540832520e-01 2.936521768569946289e-01
9.370000000000000000e+02 5.017661094665527344e+00 2.710126876831054688e+00 -2.966102361679077148e-01 -4.782155156135559082e-02 -1.033295392990112305e-01 4.696094989776611328e-01
9.380000000000000000e+02 1.286638164520263672e+01 2.153995513916015625e+00 -3.438347280025482178e-01 1.915529251098632812e+00 4.715083539485931396e-01 -1.569671273231506348e+00
9.390000000000000000e+02 1.292622089385986328e+01 1.038028478622436523e+00 1.344421505928039551e-02 1.225550770759582520e+00 3.716984689235687256e-01 -1.375636935234069824e+00
9.400000000000000000e+02 1.175747489929199219e+01 2.047231197357177734e+00 -3.726972639560699463e-01 1.064841389656066895e+00 2.076432406902313232e-01 -8.899078965187072754e-01
9.410000000000000000e+02 1.141844844818115234e+01 2.714955091476440430e+00 -3.565343916416168213e-01 1.203017354011535645e+00 2.539448738098144531e-01 -7.595846056938171387e-01
9.420000000000000000e+02 1.024070453643798828e+01 -2.637712001800537109e+00 1.474742054939270020e+00 8.795638382434844971e-02 4.688095152378082275e-01 1.397876858711242676e+00
9.430000000000000000e+02 1.239138889312744141e+01 -2.405588388442993164e+00 3.863442182540893555e+00 -4.794051647186279297e-01 1.015211105346679688e+00 1.445734739303588867e+00
9.440000000000000000e+02 2.027639770507812500e+01 4.179069519042968750e+00 -1.059283614158630371e+00 6.785219311714172363e-01 -1.142285242676734924e-01 1.547969818115234375e+00
9.450000000000000000e+02 2.684646224975585938e+01 8.955710411071777344e+00 1.831220746040344238e+00 4.356164455413818359e+00 1.856215596199035645e+00 2.330735445022583008e+00
9.460000000000000000e+02 1.498476886749267578e+01 1.673540306091308594e+01 -3.726918697357177734e-01 2.592610359191894531e+00 6.659755110740661621e-01 4.805621504783630371e-01
9.470000000000000000e+02 1.576856803894042969e+01 1.530864620208740234e+01 1.014279484748840332e+00 2.771275758743286133e+00 1.135666489601135254e+00 1.367243051528930664e+00
9.480000000000000000e+02 1.325994777679443359e+01 1.360682010650634766e+01 7.419357895851135254e-01 3.442273378372192383e+00 1.255262732505798340e+00 4.867492616176605225e-02
9.490000000000000000e+02 1.973916053771972656e+01 1.674318313598632812e+01 -1.364074230194091797e+00 -1.585499048233032227e-01 -4.567872583866119385e-01 4.425345361232757568e-01
9.500000000000000000e+02 1.592837333679199219e+01 1.909188842773437500e+01 -5.074708461761474609e-01 1.753667712211608887e+00 3.738590776920318604e-01 8.393485546112060547e-01
9.510000000000000000e+02 2.110390853881835938e+01 1.644874954223632812e+01 -1.630290031433105469e+00 -3.223479986190795898e-01 -5.857914090156555176e-01 6.060574650764465332e-01
9.520000000000000000e+02 2.067411422729492188e+01 1.868010139465332031e+01 -3.126067519187927246e-01 -2.823587879538536072e-02 -1.022527888417243958e-01 5.449761748313903809e-01
9.530000000000000000e+02 1.529693031311035156e+01 7.004146099090576172e+00 1.119672536849975586e+00 3.993687391281127930e+00 1.534008026123046875e+00 -1.903284192085266113e+00
9.540000000000000000e+02 2.453320503234863281e+01 1.437771415710449219e+01 -6.301116347312927246e-01 7.588579654693603516e-01 3.862389922142028809e-02 2.094959765672683716e-01
9.550000000000000000e+02 2.231197738647460938e+01 1.906203079223632812e+01 -2.356367260217666626e-01 2.114659398794174194e-01 -7.251237984746694565e-03 2.430960088968276978e-01
9.560000000000000000e+02 2.212762069702148438e+01 3.375449419021606445e+00 1.914142608642578125e+00 2.629087209701538086e+00 1.362968921661376953e+00 3.561691761016845703e+00
9.570000000000000000e+02 2.294288063049316406e+01 5.061859607696533203e+00 4.298639774322509766e+00 2.899603128433227539e+00 2.159472942352294922e+00 3.321216344833374023e+00
9.580000000000000000e+02 2.482319259643554688e+01 4.966049194335937500e+00 3.005329847335815430e+00 4.660628795623779297e+00 2.299787521362304688e+00 2.693996667861938477e+00
9.590000000000000000e+02 1.517576122283935547e+01 1.846546173095703125e+01 -5.012164711952209473e-01 1.985108971595764160e+00 4.451677203178405762e-01 6.119660735130310059e-01
9.600000000000000000e+02 2.695981216430664062e+01 1.104412651062011719e+01 4.411301016807556152e-01 3.675657749176025391e+00 1.235036373138427734e+00 1.193813204765319824e+00
9.610000000000000000e+02 1.318957901000976562e+01 1.113831901550292969e+01 6.612051725387573242e-01 4.664800643920898438e+00 1.597801685333251953e+00 -8.262714371085166931e-03
9.620000000000000000e+02 2.385931968688964844e+01 4.118304252624511719e+00 2.599642276763916016e+00 3.738595008850097656e+00 1.901471138000488281e+00 3.084148406982421875e+00
9.630000000000000000e+02 2.640339660644531250e+01 1.574461936950683594e+01 -7.876929044723510742e-01 1.848805427551269531e+00 3.183337450027465820e-01 4.282332062721252441e-01
9.640000000000000000e+02 2.287252044677734375e+01 1.714180564880371094e+01 -8.389037847518920898e-01 2.895863540470600128e-02 -2.429835498332977295e-01 1.386483013629913330e-01
9.650000000000000000e+02 2.732158088684082031e+01 8.015600204467773438e+00 2.512971878051757812e+00 3.709623098373413086e+00 1.866778492927551270e+00 1.947746515274047852e+00
9.660000000000000000e+02 1.215861701965332031e+01 2.863270998001098633e+00 -4.019455909729003906e-01 1.817117571830749512e+00 4.245515763759613037e-01 -1.129836440086364746e+00
9.670000000000000000e+02 1.433100700378417969e+01 9.576834678649902344e+00 4.628883004188537598e-01 6.328189373016357422e+00 2.037323236465454102e+00 -5.041528940200805664e-01
9.680000000000000000e+02 8.229561805725097656e+00 -1.204521560668945312e+01 1.824886798858642578e+00 1.042435932159423828e+01 3.674773693084716797e+00 -1.293655633926391602e+00
9.690000000000000000e+02 7.584839820861816406e+00 -1.305007743835449219e+01 4.909820556640625000e+00 9.197751045227050781e+00 4.232271671295166016e+00 1.612577587366104126e-01
9.700000000000000000e+02 6.833396148681640625e+01 -8.645203590393066406e+00 4.775095939636230469e+00 2.265801429748535156e+01 8.229933738708496094e+00 -5.683930397033691406e+00
9.710000000000000000e+02 6.873445129394531250e+01 -1.129303836822509766e+01 1.664876937866210938e+00 2.331839561462402344e+01 7.494981288909912109e+00 6.489189863204956055e-01
9.720000000000000000e+02 5.570801544189453125e+01 1.437875556945800781e+01 6.867665052413940430e-01 4.258438587188720703e+00 1.483561515808105469e+00 -1.028402328491210938e+00
9.730000000000000000e+02 1.003496265411376953e+01 -1.024205875396728516e+01 -3.225762367248535156e+00 7.800940036773681641e+00 1.372553348541259766e+00 4.999111175537109375e+00
9.740000000000000000e+02 6.568932342529296875e+01 -6.616919994354248047e+00 -2.012152671813964844e+00 5.359641909599304199e-01 -4.428565800189971924e-01 -2.880816459655761719e+00
9.750000000000000000e+02 4.261508178710937500e+01 8.232133865356445312e+00 6.646668910980224609e-01 7.267490029335021973e-01 4.174247682094573975e-01 -1.508398205041885376e-01
9.760000000000000000e+02 4.309189605712890625e+01 1.055392551422119141e+01 1.458689272403717041e-01 1.106496214866638184e+00 3.757095336914062500e-01 -1.322970986366271973e-01
9.770000000000000000e+02 4.388843536376953125e+01 1.655995368957519531e+01 1.667904257774353027e+00 2.803558588027954102e+00 1.341438889503479004e+00 1.679919600486755371e+00
9.780000000000000000e+02 4.587522888183593750e+01 1.813618850708007812e+01 1.475013971328735352e+00 9.522027373313903809e-01 7.281650304794311523e-01 1.073305606842041016e+00
9.790000000000000000e+02 7.726445007324218750e+01 -3.780224990844726562e+01 -8.343055099248886108e-02 1.062331962585449219e+01 3.161966562271118164e+00 1.458833813667297363e-01
9.800000000000000000e+02 7.932805633544921875e+01 -3.472973251342773438e+01 -4.589717462658882141e-02 1.162062358856201172e+01 3.472417831420898438e+00 1.824448630213737488e-02
9.810000000000000000e+02 7.933466339111328125e+01 -2.779542350769042969e+01 6.401179358363151550e-03 1.128225612640380859e+01 3.386597156524658203e+00 -1.273479908704757690e-01
9.820000000000000000e+02 7.736439514160156250e+01 3.231536102294921875e+01 2.038190513849258423e-02 5.652076721191406250e+00 1.701737642288208008e+00 -9.022097289562225342e-02
9.830000000000000000e+02 7.923394012451171875e+01 3.603841018676757812e+01 -2.777193440124392509e-03 5.696565151214599609e+00 1.708136439323425293e+00 -2.337746135890483856e-02
9.840000000000000000e+02 7.934434509277343750e+01 -2.083036804199218750e+01 -6.600064039230346680e-02 9.045366287231445312e+00 2.693809747695922852e+00 -3.652544915676116943e-01
9.850000000000000000e+02 7.800557708740234375e+01 -2.766737937927246094e+01 -1.069014444947242737e-01 1.064702701568603516e+01 3.162037611007690430e+00 -3.217884898185729980e-01
9.860000000000000000e+02 7.799197387695312500e+01 -2.630754661560058594e+01 -6.516798585653305054e-02 1.044753742218017578e+01 3.114710807800292969e+00 -4.089245498180389404e-01
9.870000000000000000e+02 7.930690765380859375e+01 -3.056837081909179688e+01 -1.043167524039745331e-02 1.157427215576171875e+01 3.469152212142944336e+00 -6.168477982282638550e-02
9.880000000000000000e+02 7.798207855224609375e+01 -3.458484649658203125e+01 -4.002779722213745117e-02 1.097177410125732422e+01 3.279523849487304688e+00 1.292072329670190811e-02
9.890000000000000000e+02 7.785541534423828125e+01 -3.319990921020507812e+01 -6.438269466161727905e-02 1.090389347076416016e+01 3.251853227615356445e+00 -1.293111313134431839e-02
9.900000000000000000e+02 7.488863372802734375e+01 -3.723269271850585938e+01 -9.444060176610946655e-02 9.557909965515136719e+00 2.839040756225585938e+00 -1.295981407165527344e-01
9.910000000000000000e+02 7.630745697021484375e+01 -3.889014053344726562e+01 -5.229192227125167847e-02 1.044855213165283203e+01 3.118878126144409180e+00 5.255030095577239990e-02
9.920000000000000000e+02 7.797842407226562500e+01 1.399070453643798828e+01 -1.317302812822163105e-03 7.145909309387207031e+00 2.143377542495727539e+00 -2.649425566196441650e-01
9.930000000000000000e+02 7.931539916992187500e+01 1.535143947601318359e+01 -6.923153530806303024e-03 7.219399452209472656e+00 2.163743019104003906e+00 -8.654166758060455322e-02
9.940000000000000000e+02 7.784693145751953125e+01 2.098595619201660156e+01 2.280583791434764862e-02 6.389449596405029297e+00 1.923676609992980957e+00 -2.011073082685470581e-01
9.950000000000000000e+02 7.928836059570312500e+01 2.233287239074707031e+01 1.210373267531394958e-02 6.433610916137695312e+00 1.933714389801025391e+00 -6.183234229683876038e-02
9.960000000000000000e+02 7.784477233886718750e+01 3.081384849548339844e+01 9.827491827309131622e-03 5.750511646270751953e+00 1.728101730346679688e+00 -8.735341578722000122e-02
9.970000000000000000e+02 7.850436401367187500e+01 3.294361114501953125e+01 5.184906185604631901e-04 5.732456207275390625e+00 1.719892501831054688e+00 -5.268609151244163513e-02
9.980000000000000000e+02 7.933625793457031250e+01 2.791847801208496094e+01 7.853902876377105713e-03 6.017291069030761719e+00 1.807543516159057617e+00 -3.932825475931167603e-02
9.990000000000000000e+02 7.793595886230468750e+01 2.526443862915039062e+01 7.650698535144329071e-03 6.066824913024902344e+00 1.822342634201049805e+00 -1.443816274404525757e-01
1.000000000000000000e+03 7.789141845703125000e+01 2.383762550354003906e+01 2.090645022690296173e-02 6.161310672760009766e+00 1.854665040969848633e+00 -1.645348817110061646e-01
1.001000000000000000e+03 7.786531829833984375e+01 1.816104316711425781e+01 2.140918187797069550e-02 6.660906314849853516e+00 2.004694700241088867e+00 -2.339684218168258667e-01
1.002000000000000000e+03 7.790206909179687500e+01 1.676255989074707031e+01 5.504797678440809250e-03 6.812189102172851562e+00 2.045308113098144531e+00 -2.489638626575469971e-01
1.003000000000000000e+03 7.800183105468750000e+01 1.259884166717529297e+01 1.071286946535110474e-02 7.325206279754638672e+00 2.200775861740112305e+00 -2.702756822109222412e-01
1.004000000000000000e+03 7.672506713867187500e+01 1.121342754364013672e+01 -2.615350065752863884e-03 7.207365512847900391e+00 2.161425113677978516e+00 -4.202164411544799805e-01
1.005000000000000000e+03 7.798272705078125000e+01 8.425781250000000000e+00 -3.922060504555702209e-02 7.835940837860107422e+00 2.339016199111938477e+00 -2.369227111339569092e-01
1.006000000000000000e+03 7.933010864257812500e+01 9.778653144836425781e+00 -1.704586669802665710e-02 8.012801170349121094e+00 2.398726701736450195e+00 -8.403567969799041748e-02
1.007000000000000000e+03 7.935052490234375000e+01 -1.942983818054199219e+01 2.801979519426822662e-02 8.266703605651855469e+00 2.488416910171508789e+00 -4.206849038600921631e-01
1.008000000000000000e+03 7.930059814453125000e+01 -1.382602977752685547e+01 5.529257655143737793e-02 4.929236412048339844e+00 1.495358705520629883e+00 -3.309464156627655029e-01
1.009000000000000000e+03 7.938999176025390625e+01 -6.897662639617919922e+00 1.032634079456329346e-01 5.057912826538085938e+00 1.548352956771850586e+00 2.741764485836029053e-01
1.010000000000000000e+03 7.811962127685546875e+01 9.785218536853790283e-02 -1.083877831697463989e-01 8.031007766723632812e+00 2.376785993576049805e+00 3.818357884883880615e-01
1.011000000000000000e+03 7.935773468017578125e+01 1.430422782897949219e+00 -2.688815817236900330e-03 8.340373992919921875e+00 2.501305580139160156e+00 1.001946404576301575e-01
1.012000000000000000e+03 7.660665893554687500e+01 7.047617435455322266e+00 -1.187843978404998779e-01 7.668071269989013672e+00 2.264786005020141602e+00 -3.392148017883300781e-01
1.013000000000000000e+03 7.799495697021484375e+01 2.936152839660644531e+01 1.759342290461063385e-02 5.839701175689697266e+00 1.757188320159912109e+00 -9.631840884685516357e-02
1.014000000000000000e+03 7.843917846679687500e+01 4.019473648071289062e+01 -1.213614456355571747e-02 5.563840866088867188e+00 1.665511369705200195e+00 -4.784051701426506042e-02
1.015000000000000000e+03 7.480709075927734375e+01 3.840920257568359375e+01 3.516655042767524719e-02 5.330598831176757812e+00 1.609729528427124023e+00 -5.410075932741165161e-02
1.016000000000000000e+03 7.749604034423828125e+01 3.683412551879882812e+01 -1.133547164499759674e-03 5.578625202178955078e+00 1.673247456550598145e+00 -4.933113604784011841e-02
1.017000000000000000e+03 7.448284912109375000e+01 3.646395874023437500e+01 4.387749359011650085e-02 5.301273822784423828e+00 1.603545308113098145e+00 -1.024002581834793091e-01
1.018000000000000000e+03 7.800180816650390625e+01 9.818161964416503906e+00 -8.200246840715408325e-03 7.670932292938232422e+00 2.298819541931152344e+00 -2.583056390285491943e-01
1.019000000000000000e+03 7.692761993408203125e+01 1.150490194559097290e-01 -3.314852118492126465e-01 8.115512847900390625e+00 2.335208415985107422e+00 5.143587589263916016e-01
1.020000000000000000e+03 7.805146789550781250e+01 2.865152359008789062e+00 -9.727887064218521118e-02 8.200958251953125000e+00 2.431103706359863281e+00 7.615873962640762329e-02
1.021000000000000000e+03 7.814173889160156250e+01 -1.290957689285278320e+00 -1.599150151014328003e-01 7.798606872558593750e+00 2.291607618331909180e+00 5.885410904884338379e-01
1.022000000000000000e+03 7.937967681884765625e+01 -2.746178865432739258e+00 -8.304600417613983154e-02 7.100295066833496094e+00 2.105174779891967773e+00 2.993225157260894775e-01
1.023000000000000000e+03 7.814337158203125000e+01 -8.100798606872558594e+00 2.105343788862228394e-01 5.955228805541992188e+00 1.849729061126708984e+00 5.819902420043945312e-01
1.024000000000000000e+03 7.818399047851562500e+01 -5.411956310272216797e+00 9.197342395782470703e-02 6.632466316223144531e+00 2.017331838607788086e+00 8.182612061500549316e-01
1.025000000000000000e+03 7.935549926757812500e+01 -9.661208152770996094e+00 1.494517624378204346e-01 4.169576644897460938e+00 1.295708537101745605e+00 9.056725353002548218e-02
1.026000000000000000e+03 7.789378356933593750e+01 -1.362786674499511719e+01 3.221557438373565674e-01 6.441720485687255859e+00 2.029162883758544922e+00 -7.864066362380981445e-01
1.027000000000000000e+03 7.788118743896484375e+01 -1.221165943145751953e+01 2.899665832519531250e-01 6.138323307037353516e+00 1.928486943244934082e+00 -4.971340298652648926e-01
1.028000000000000000e+03 7.933195495605468750e+01 -1.662797355651855469e+01 3.564470633864402771e-02 6.505815505981445312e+00 1.962438106536865234e+00 -4.592719972133636475e-01
1.029000000000000000e+03 7.807481384277343750e+01 -1.928705215454101562e+01 -8.863430470228195190e-02 8.504756927490234375e+00 2.524836778640747070e+00 -1.034102320671081543e+00
1.030000000000000000e+03 4.457342147827148438e+01 4.364563465118408203e+00 1.223120808601379395e+00 1.852492243051528931e-01 4.225110113620758057e-01 -7.841495424509048462e-02
1.031000000000000000e+03 4.475333023071289062e+01 5.584049701690673828e+00 1.179802060127258301e+00 1.355476677417755127e-01 3.946049213409423828e-01 -1.416830420494079590e-01
1.032000000000000000e+03 5.521264266967773438e+01 1.034118747711181641e+01 2.030796259641647339e-01 2.335222005844116211e+00 7.614905238151550293e-01 3.041698038578033447e-01
1.033000000000000000e+03 6.968191528320312500e+01 -8.376156806945800781e+00 3.153185844421386719e+00 1.523431301116943359e+01 5.516249656677246094e+00 -2.746935188770294189e-01
1.034000000000000000e+03 6.833592224121093750e+01 -5.867753982543945312e+00 -1.595384001731872559e+00 1.197965908050537109e+01 3.115282535552978516e+00 -2.384899377822875977e+00
1.035000000000000000e+03 4.876935195922851562e+01 5.050748825073242188e+00 1.659988284111022949e+00 2.426909506320953369e-01 5.708037614822387695e-01 -1.299367696046829224e-01
1.036000000000000000e+03 5.188695526123046875e+01 5.242581367492675781e+00 1.326403379440307617e+00 1.784483790397644043e-01 4.514555335044860840e-01 -4.014887660741806030e-02
1.037000000000000000e+03 1.312373256683349609e+01 -1.029600429534912109e+01 -2.973886013031005859e+00 -1.654319286346435547e+00 -1.388461589813232422e+00 4.832304954528808594e+00
1.038000000000000000e+03 4.755658340454101562e+01 5.904927730560302734e+00 1.932141542434692383e+00 3.330348730087280273e-01 6.795529127120971680e-01 -2.771932184696197510e-01
1.039000000000000000e+03 6.834492492675781250e+01 -1.355137252807617188e+01 2.211148977279663086e+00 1.903483581542968750e+01 6.373795032501220703e+00 3.719861984252929688e+00
1.040000000000000000e+03 6.767604827880859375e+01 -1.469589996337890625e+01 1.825411915779113770e+00 1.337298297882080078e+01 4.559518337249755859e+00 4.740251064300537109e+00
1.041000000000000000e+03 5.046806716918945312e+01 2.078723335266113281e+01 1.288699507713317871e+00 8.646249771118164062e-01 6.459973454475402832e-01 -2.891694605350494385e-01
1.042000000000000000e+03 4.790153503417968750e+01 2.086258125305175781e+01 1.170906424522399902e+00 9.815878868103027344e-01 6.457483172416687012e-01 5.705260038375854492e-01
1.043000000000000000e+03 5.169897460937500000e+01 2.090735626220703125e+01 1.091988444328308105e+00 1.269163012504577637e+00 7.083454132080078125e-01 -5.964089035987854004e-01
1.044000000000000000e+03 6.226292419433593750e+01 -6.049601078033447266e+00 -2.542071819305419922e+00 -7.195570468902587891e-01 -9.784886837005615234e-01 -1.353165745735168457e+00
1.045000000000000000e+03 6.146066284179687500e+01 -6.877941608428955078e+00 -3.829179525375366211e+00 -7.723604440689086914e-01 -1.380461931228637695e+00 -1.557494282722473145e+00
1.046000000000000000e+03 4.164311981201171875e+01 -1.809811592102050781e+01 -2.580447196960449219e+00 -5.145374312996864319e-02 -7.895703315734863281e-01 -5.880434513092041016e-01
1.047000000000000000e+03 4.018201828002929688e+01 -1.698475837707519531e+01 -2.728389978408813477e+00 1.396305710077285767e-01 -7.766277790069580078e-01 -5.315682888031005859e-01
1.048000000000000000e+03 4.473230361938476562e+01 1.907444763183593750e+01 1.026324868202209473e+00 1.827643990516662598e+00 8.561906814575195312e-01 1.175199389457702637e+00
1.049000000000000000e+03 3.480906677246093750e+01 -1.866485404968261719e+01 -3.210420608520507812e+00 7.109826058149337769e-02 -9.417966604232788086e-01 1.004074234515428543e-02
1.050000000000000000e+03 3.365680313110351562e+01 -1.739577674865722656e+01 -3.313735246658325195e+00 2.127706557512283325e-01 -9.302893280982971191e-01 5.619735457003116608e-03
1.051000000000000000e+03 2.060831260681152344e+01 -2.850547027587890625e+01 -3.738791942596435547e-01 2.217408716678619385e-01 -4.564149677753448486e-02 -8.980432525277137756e-03
1.052000000000000000e+03 4.276797485351562500e+01 1.324406337738037109e+01 2.172962129116058350e-01 2.643101930618286133e+00 8.581194281578063965e-01 5.282304883003234863e-01
1.053000000000000000e+03 4.120166397094726562e+01 1.446218681335449219e+01 1.026904106140136719e+00 2.031776666641235352e+00 9.176042675971984863e-01 1.133582711219787598e+00
1.054000000000000000e+03 5.488340377807617188e+01 2.009352874755859375e+01 7.716058492660522461e-01 2.504861593246459961e+00 9.829402565956115723e-01 -9.882941246032714844e-01
1.055000000000000000e+03 3.425304031372070312e+01 -3.258374786376953125e+01 -5.451580286026000977e-01 -1.934758201241493225e-02 -1.693516820669174194e-01 9.448768198490142822e-02
1.056000000000000000e+03 2.006917953491210938e+01 -1.309821033477783203e+01 -6.366862297058105469e+00 -2.492104172706604004e-01 -1.984821796417236328e+00 1.602921128273010254e+00
1.057000000000000000e+03 3.108381080627441406e+01 -1.707458305358886719e+01 -3.575021028518676758e+00 1.555624753236770630e-01 -1.025837540626525879e+00 2.995133996009826660e-01
1.058000000000000000e+03 3.386145782470703125e+01 -1.620715522766113281e+01 -3.084945678710937500e+00 2.909337282180786133e-01 -8.382036089897155762e-01 -1.314496994018554688e-01
1.059000000000000000e+03 4.702430248260498047e+00 -1.713697433471679688e+01 8.253304362297058105e-01 3.115220546722412109e+00 1.182165265083312988e+00 2.051054477691650391e+00
1.060000000000000000e+03 1.009211540222167969e+01 -1.805220031738281250e+01 9.817255139350891113e-01 8.046349525451660156e+00 2.708422422409057617e+00 -2.664813041687011719e+00
1.061000000000000000e+03 7.027069854736328125e+01 -1.085317611694335938e+01 3.353832960128784180e+00 1.645819664001464844e+01 5.943608760833740234e+00 -7.458640933036804199e-01
1.062000000000000000e+03 1.500994586944580078e+01 -1.245790863037109375e+01 -1.110884952545166016e+01 -2.247850179672241211e+00 -4.007009983062744141e+00 4.579046249389648438e+00
1.063000000000000000e+03 1.531690216064453125e+01 -1.150213241577148438e+01 -7.874116897583007812e+00 -1.296099543571472168e+00 -2.751065015792846680e+00 3.048787832260131836e+00
1.064000000000000000e+03 1.178407382965087891e+01 -2.030796432495117188e+01 5.955587029457092285e-01 4.294546604156494141e+00 1.467031717300415039e+00 -1.987374067306518555e+00
1.065000000000000000e+03 4.656264114379882812e+01 2.124033737182617188e+01 1.029946208000183105e+00 1.258385181427001953e+00 6.864994168281555176e-01 7.408374547958374023e-01
1.066000000000000000e+03 5.924088668823242188e+01 -2.653787231445312500e+01 -1.116741299629211426e+00 2.936308681964874268e-01 -2.469331175088882446e-01 -3.412989974021911621e-01
1.067000000000000000e+03 5.330168914794921875e+01 1.911773872375488281e+01 1.000554800033569336e+00 1.573097109794616699e+00 7.720955610275268555e-01 -9.271913766860961914e-01
1.068000000000000000e+03 3.623669815063476562e+01 -1.742232894897460938e+01 -3.013868808746337891e+00 1.281821429729461670e-01 -8.657059669494628906e-01 -1.810207664966583252e-01
1.069000000000000000e+03 5.071121597290039062e+01 -3.189299774169921875e+01 -9.296714067459106445e-01 -5.142879486083984375e-01 -4.331878125667572021e-01 -6.204674839973449707e-01
1.070000000000000000e+03 5.125667572021484375e+01 -2.971397781372070312e+01 -1.721447467803955078e+00 -5.077365040779113770e-01 -6.687551736831665039e-01 -8.688987493515014648e-01
1.071000000000000000e+03 4.278607940673828125e+01 -1.648504257202148438e+01 -2.628326654434204102e+00 -1.531044207513332367e-02 -7.930911183357238770e-01 -6.700093746185302734e-01
1.072000000000000000e+03 4.297818374633789062e+01 -1.776835250854492188e+01 -2.645412445068359375e+00 -1.480585038661956787e-01 -8.380413055419921875e-01 -7.399997711181640625e-01
1.073000000000000000e+03 4.447851181030273438e+01 -3.188928985595703125e+01 -8.699828386306762695e-01 -1.009647399187088013e-01 -2.912842631340026855e-01 -3.182583153247833252e-01
1.074000000000000000e+03 4.796644592285156250e+01 -3.254533386230468750e+01 -8.067018985748291016e-01 -3.776453733444213867e-01 -3.553041815757751465e-01 -5.500214695930480957e-01
1.075000000000000000e+03 4.667013931274414062e+01 -3.322669601440429688e+01 -7.028810381889343262e-01 -3.031545877456665039e-01 -3.018106818199157715e-01 -4.950463473796844482e-01
1.076000000000000000e+03 4.408798980712890625e+01 1.830149459838867188e+01 9.524775743484497070e-01 2.228283405303955078e+00 9.542282819747924805e-01 1.122785329818725586e+00
1.077000000000000000e+03 2.604648590087890625e+01 -2.985269546508789062e+01 -6.992642283439636230e-01 -1.380210518836975098e-01 -2.511855661869049072e-01 3.618061244487762451e-01
1.078000000000000000e+03 2.631624412536621094e+01 -3.212028121948242188e+01 -4.781613051891326904e-01 -7.377977669239044189e-02 -1.655823290348052979e-01 2.110885381698608398e-01
1.079000000000000000e+03 4.896681213378906250e+01 -1.438424301147460938e+01 -2.433879137039184570e+00 -3.095383644104003906e-01 -8.230252861976623535e-01 -1.071938991546630859e+00
1.080000000000000000e+03 5.191445922851562500e+01 -1.428259754180908203e+01 -2.575397491455078125e+00 -7.026445865631103516e-01 -9.834125638008117676e-01 -1.382267117500305176e+00
1.081000000000000000e+03 3.110751724243164062e+01 -3.314112091064453125e+01 -5.324258804321289062e-01 -1.411894559860229492e-01 -2.020846009254455566e-01 1.931554228067398071e-01
1.082000000000000000e+03 6.789126586914062500e+01 -1.892566108703613281e+01 -3.955667912960052490e-01 8.948239326477050781e+00 2.565801858901977539e+00 1.206592440605163574e+00
1.083000000000000000e+03 5.374961090087890625e+01 -2.836936187744140625e+01 -1.886082887649536133e+00 -5.352335572242736816e-01 -7.263949513435363770e-01 -1.006472945213317871e+00
1.084000000000000000e+03 5.778331756591796875e+01 -2.929714775085449219e+01 -8.308068513870239258e-01 1.449338197708129883e-01 -2.057619094848632812e-01 -2.365631461143493652e-01
1.085000000000000000e+03 6.994003295898437500e+01 -9.628068923950195312e+00 4.180262565612792969e+00 1.700735473632812500e+01 6.356285572052001953e+00 -1.230762243270874023e+00
1.086000000000000000e+03 3.236955642700195312e+01 -1.726159095764160156e+01 -3.385712862014770508e+00 1.717530339956283569e-01 -9.641879796981811523e-01 1.163845509290695190e-01
1.087000000000000000e+03 4.534587860107421875e+01 -1.580197143554687500e+01 -2.491248846054077148e+00 -1.963897943496704102e-01 -8.062915802001953125e-01 -8.692197203636169434e-01
1.088000000000000000e+03 3.227864456176757812e+01 -3.349164199829101562e+01 -5.190761089324951172e-01 -7.022666931152343750e-02 -1.767908334732055664e-01 1.720855385065078735e-01
1.089000000000000000e+03 2.894795417785644531e+01 -1.544786739349365234e+01 -3.728130578994750977e+00 3.383820354938507080e-01 -1.016924500465393066e+00 2.681229114532470703e-01
1.090000000000000000e+03 5.741783905029296875e+01 1.369124984741210938e+01 8.092516064643859863e-01 3.081804275512695312e+00 1.167316794395446777e+00 -9.351952672004699707e-01
1.091000000000000000e+03 6.869840240478515625e+01 -1.580726718902587891e+01 3.870771825313568115e-01 1.397708511352539062e+01 4.309248924255371094e+00 1.735033512115478516e+00
1.092000000000000000e+03 4.424129867553710938e+01 8.885032653808593750e+00 3.901534974575042725e-01 4.073385298252105713e-01 2.392476052045822144e-01 -3.035495877265930176e-01
1.093000000000000000e+03 6.245692062377929688e+01 -7.706761360168457031e+00 -5.066950321197509766e+00 -1.555642843246459961e+00 -1.986778020858764648e+00 -2.719458103179931641e+00
1.094000000000000000e+03 5.370022964477539062e+01 -1.179252243041992188e+01 -2.661762475967407227e+00 -6.349857449531555176e-01 -9.890245199203491211e-01 -1.420144677162170410e+00
1.095000000000000000e+03 6.621582794189453125e+01 -1.911380195617675781e+01 2.382937669754028320e-01 6.550669193267822266e+00 2.036689043045043945e+00 2.016578197479248047e+00
1.096000000000000000e+03 5.086447525024414062e+01 2.605343580245971680e+00 8.104789257049560547e-01 1.890498995780944824e-01 2.998586297035217285e-01 -1.964504271745681763e-01
1.097000000000000000e+03 2.344403457641601562e+01 -1.510078525543212891e+01 -5.199151992797851562e+00 -3.549762070178985596e-02 -1.570394992828369141e+00 1.436637878417968750e+00
1.098000000000000000e+03 4.155681610107421875e+01 -3.264422225952148438e+01 -6.496402025222778320e-01 -5.963544920086860657e-02 -2.127826958894729614e-01 -1.482446491718292236e-01
1.099000000000000000e+03 4.362366485595703125e+01 -3.394577026367187500e+01 -5.679129958152770996e-01 -2.021499872207641602e-01 -2.310189008712768555e-01 -2.955484092235565186e-01
1.100000000000000000e+03 1.798599815368652344e+01 -1.218654727935791016e+01 -7.070903301239013672e+00 -3.255816102027893066e-01 -2.218945503234863281e+00 2.281830549240112305e+00
1.101000000000000000e+03 5.213184356689453125e+01 -3.123845291137695312e+01 -9.890605211257934570e-01 -4.731819033622741699e-01 -4.386727213859558105e-01 -6.631006598472595215e-01
1.102000000000000000e+03 6.374186325073242188e+01 -2.491974639892578125e+01 -8.278049826622009277e-01 3.447099924087524414e+00 7.857885360717773438e-01 5.852893590927124023e-01
1.103000000000000000e+03 6.363764190673828125e+01 -2.258910179138183594e+01 -4.099903106689453125e-01 2.900802373886108398e+00 7.472436428070068359e-01 7.360343337059020996e-01
1.104000000000000000e+03 2.803744888305664062e+01 -1.771384429931640625e+01 -4.238510131835937500e+00 -1.401657313108444214e-01 -1.313602805137634277e+00 8.986675739288330078e-01
1.105000000000000000e+03 2.644212913513183594e+01 -1.482965755462646484e+01 -4.157927036285400391e+00 3.267946243286132812e-01 -1.149339675903320312e+00 5.307279229164123535e-01
1.106000000000000000e+03 4.001743698120117188e+01 -3.535906600952148438e+01 -4.293482899665832520e-01 -1.730722039937973022e-01 -1.807261556386947632e-01 -1.300667077302932739e-01
1.107000000000000000e+03 4.658279418945312500e+01 -1.538260173797607422e+01 -2.526922225952148438e+00 -2.009734213352203369e-01 -8.183686733245849609e-01 -9.718112945556640625e-01
1.108000000000000000e+03 6.019534683227539062e+01 -9.209253311157226562e+00 -4.088009357452392578e+00 -1.411452054977416992e+00 -1.649838328361511230e+00 -2.378227949142456055e+00
1.109000000000000000e+03 5.807210540771484375e+01 -2.730194664001464844e+01 -1.198751568794250488e+00 -1.643775403499603271e-01 -4.089387357234954834e-01 -5.196598768234252930e-01
1.110000000000000000e+03 2.314034461975097656e+01 -2.983313751220703125e+01 -5.008646249771118164e-01 -3.894768282771110535e-02 -1.619436889886856079e-01 1.592731028795242310e-01
1.111000000000000000e+03 3.754932022094726562e+01 -1.731735420227050781e+01 -2.878918647766113281e+00 1.024894863367080688e-01 -8.329287767410278320e-01 -3.175329267978668213e-01
1.112000000000000000e+03 3.617985153198242188e+01 -1.864354896545410156e+01 -3.210810661315917969e+00 3.675099089741706848e-02 -9.522179365158081055e-01 -1.216313987970352173e-01
1.113000000000000000e+03 6.360305404663085938e+01 -2.042310523986816406e+01 4.805396199226379395e-01 2.073764801025390625e+00 7.662912607192993164e-01 1.065675616264343262e+00
1.114000000000000000e+03 2.537056732177734375e+01 -1.699432373046875000e+01 -4.735871315002441406e+00 -2.909899353981018066e-01 -1.508058309555053711e+00 1.320490717887878418e+00
1.115000000000000000e+03 2.591520690917968750e+01 -1.591563701629638672e+01 -4.497080326080322266e+00 4.889893904328346252e-02 -1.334454417228698730e+00 9.391623735427856445e-01
1.116000000000000000e+03 5.054940032958984375e+01 -8.326275825500488281e+00 -1.866421699523925781e+00 -3.374074772000312805e-02 -5.700487494468688965e-01 -7.135881781578063965e-01
1.117000000000000000e+03 5.424477005004882812e+01 -9.956656455993652344e+00 -2.603941917419433594e+00 -4.445255100727081299e-01 -9.145402312278747559e-01 -1.226822137832641602e+00
1.118000000000000000e+03 2.190135002136230469e+01 -2.919834709167480469e+01 -4.505341947078704834e-01 8.899764716625213623e-02 -1.084609627723693848e-01 1.192256286740303040e-01
1.119000000000000000e+03 6.537049865722656250e+01 -2.026761054992675781e+01 7.621733471751213074e-03 5.118866920471191406e+00 1.537946581840515137e+00 1.558805942535400391e+00
1.120000000000000000e+03 2.433789634704589844e+01 -3.029401206970214844e+01 -5.244472026824951172e-01 -6.012518331408500671e-02 -1.753717213869094849e-01 2.223266065120697021e-01
1.121000000000000000e+03 3.634679794311523438e+01 -3.409730148315429688e+01 -4.808576703071594238e-01 -7.416618615388870239e-02 -1.665071547031402588e-01 3.785706311464309692e-02
1.122000000000000000e+03 4.945983505249023438e+01 -1.554411411285400391e+01 -2.494826555252075195e+00 -4.511218070983886719e-01 -8.837844729423522949e-01 -1.119243144989013672e+00
1.123000000000000000e+03 4.777768325805664062e+01 -1.490671634674072266e+01 -2.478354930877685547e+00 -2.066927403211593628e-01 -8.055143356323242188e-01 -9.865856766700744629e-01
1.124000000000000000e+03 3.351821517944335938e+01 -3.434976577758789062e+01 -4.557338058948516846e-01 -1.047211661934852600e-01 -1.681364923715591431e-01 1.211094409227371216e-01
1.125000000000000000e+03 6.955703735351562500e+01 -1.487070560455322266e+01 5.625279545783996582e-01 1.409954643249511719e+01 4.398622512817382812e+00 -2.629454433917999268e-01
1.126000000000000000e+03 5.668958663940429688e+01 -1.142074108123779297e+01 -3.073263883590698242e+00 -1.157835721969604492e+00 -1.269329905509948730e+00 -1.882342457771301270e+00
1.127000000000000000e+03 5.605223846435546875e+01 -1.037893962860107422e+01 -2.952892303466796875e+00 -7.548486590385437012e-01 -1.112322211265563965e+00 -1.541147947311401367e+00
1.128000000000000000e+03 5.332023239135742188e+01 -3.039133644104003906e+01 -1.122305750846862793e+00 -3.782135546207427979e-01 -4.501557946205139160e-01 -7.078137397766113281e-01
1.129000000000000000e+03 1.769327735900878906e+01 -2.455649566650390625e+01 1.012635305523872375e-01 5.414305925369262695e-01 1.928082257509231567e-01 -3.332117199897766113e-01
1.130000000000000000e+03 1.921018028259277344e+01 -2.782660293579101562e+01 -3.177030086517333984e-01 5.711938738822937012e-01 7.604725658893585205e-02 -1.462184488773345947e-01
1.131000000000000000e+03 5.450711822509765625e+01 -2.960305976867675781e+01 -1.222896218299865723e+00 -3.885444402694702148e-01 -4.834322035312652588e-01 -7.099530696868896484e-01
1.132000000000000000e+03 6.451391601562500000e+01 -2.142525672912597656e+01 -2.182835489511489868e-01 3.731715202331542969e+00 1.054029464721679688e+00 1.211818695068359375e+00
1.133000000000000000e+03 5.722675704956054688e+01 -9.683425903320312500e+00 -3.167063713073730469e+00 -8.538911938667297363e-01 -1.206286430358886719e+00 -1.631817221641540527e+00
1.134000000000000000e+03 4.919880294799804688e+01 -3.216679763793945312e+01 -8.505275845527648926e-01 -3.911921381950378418e-01 -3.725159168243408203e-01 -6.235145330429077148e-01
1.135000000000000000e+03 2.979921150207519531e+01 -1.684984207153320312e+01 -3.819027662277221680e+00 1.841874420642852783e-01 -1.090452075004577637e+00 4.100266098976135254e-01
1.136000000000000000e+03 5.949950027465820312e+01 -8.369137763977050781e+00 -3.617093324661254883e+00 -9.696784615516662598e-01 -1.376031517982482910e+00 -1.803100824356079102e+00
1.137000000000000000e+03 5.015691375732421875e+01 -1.381209945678710938e+01 -2.501600980758666992e+00 -3.689435720443725586e-01 -8.611633777618408203e-01 -1.169962644577026367e+00
1.138000000000000000e+03 2.719906044006347656e+01 -1.626379776000976562e+01 -4.232231140136718750e+00 7.737679779529571533e-02 -1.246456265449523926e+00 7.376720905303955078e-01
1.139000000000000000e+03 1.368820095062255859e+01 -2.254775810241699219e+01 2.315056324005126953e-01 2.482749462127685547e+00 8.142765164375305176e-01 -1.195841431617736816e+00
1.140000000000000000e+03 1.469701671600341797e+01 -2.360646820068359375e+01 1.115713194012641907e-01 2.035319566726684570e+00 6.440672278404235840e-01 -8.381630182266235352e-01
1.141000000000000000e+03 1.667358016967773438e+01 -2.353761482238769531e+01 3.239676356315612793e-01 8.734290599822998047e-01 3.592190146446228027e-01 -5.385887622833251953e-01
1.142000000000000000e+03 1.677823638916015625e+01 -2.570681762695312500e+01 -1.095843240618705750e-01 1.176941990852355957e+00 3.202072978019714355e-01 -4.185188710689544678e-01
1.143000000000000000e+03 1.572907161712646484e+01 -2.464145660400390625e+01 -6.618028506636619568e-03 1.450616359710693359e+00 4.331995248794555664e-01 -6.520476341247558594e-01
1.144000000000000000e+03 5.487186050415039062e+01 -1.108448886871337891e+01 -2.821779727935791016e+00 -6.469441056251525879e-01 -1.040617108345031738e+00 -1.476571202278137207e+00
1.145000000000000000e+03 1.274816751480102539e+00 -4.010546875000000000e+01 -4.837364703416824341e-02 3.780202388763427734e+00 1.119548678398132324e+00 -4.539062827825546265e-02
1.146000000000000000e+03 7.058436274528503418e-01 3.742372512817382812e+01 6.351134274154901505e-03 1.738287210464477539e-01 5.405395478010177612e-02 -7.459865882992744446e-03
1.147000000000000000e+03 7.347844243049621582e-01 3.466215133666992188e+01 2.404776634648442268e-03 1.562216728925704956e-01 4.758793488144874573e-02 -3.727354574948549271e-03
1.148000000000000000e+03 7.711288332939147949e-01 3.325532913208007812e+01 -1.874760724604129791e-03 1.499140113592147827e-01 4.441177472472190857e-02 -3.012807806953787804e-03
1.149000000000000000e+03 6.843851804733276367e-01 2.756602668762207031e+01 -3.644696902483701706e-03 4.840232431888580322e-02 1.342728827148675919e-02 -2.661081962287425995e-02
1.150000000000000000e+03 6.725169420242309570e-01 2.615555191040039062e+01 -5.620761774480342865e-03 -1.565257646143436432e-02 -6.382001563906669617e-03 -3.589242696762084961e-02
1.151000000000000000e+03 7.792462706565856934e-01 -3.607781982421875000e+01 -1.337814982980489731e-02 3.814175844192504883e+00 1.140239357948303223e+00 2.414185553789138794e-02
1.152000000000000000e+03 2.633070468902587891e+00 -3.326004028320312500e+01 -1.036698892712593079e-01 3.389461278915405273e+00 9.857374429702758789e-01 2.306114435195922852e-01
1.153000000000000000e+03 3.318002223968505859e+00 2.444443321228027344e+01 -5.841091275215148926e-02 1.821624040603637695e-01 3.712544962763786316e-02 -1.797800362110137939e-01
1.154000000000000000e+03 2.016291856765747070e+00 2.598674011230468750e+01 -2.162603102624416351e-02 8.579521626234054565e-02 1.925075612962245941e-02 -9.752854704856872559e-02
1.155000000000000000e+03 2.367944955825805664e+00 3.318958663940429688e+01 -6.652560550719499588e-03 2.321817278861999512e-01 6.765875220298767090e-02 -1.145802065730094910e-02
1.156000000000000000e+03 3.188640356063842773e+00 3.919040298461914062e+01 2.579343738034367561e-03 2.357696145772933960e-01 7.150468230247497559e-02 -3.087948542088270187e-03
1.157000000000000000e+03 2.032516956329345703e+00 -2.891768646240234375e+01 -6.581979244947433472e-02 2.945722103118896484e+00 8.639706373214721680e-01 4.312695860862731934e-01
1.158000000000000000e+03 1.895999312400817871e+00 -2.615453910827636719e+01 -8.886874467134475708e-02 2.325351715087890625e+00 6.709449291229248047e-01 6.689193844795227051e-01
1.159000000000000000e+03 1.580832123756408691e+00 -9.149471282958984375e+00 -6.921421736478805542e-02 -2.034613847732543945e+00 -6.311484575271606445e-01 -8.723774552345275879e-01
1.160000000000000000e+03 1.798649668693542480e+00 -1.628022384643554688e+01 3.729306757450103760e-01 -2.090679883956909180e+00 -5.153247714042663574e-01 9.783515334129333496e-01
1.161000000000000000e+03 2.274678230285644531e+00 -3.715267562866210938e+01 -2.206814475357532501e-02 3.662854433059692383e+00 1.092235922813415527e+00 3.833682090044021606e-02
1.162000000000000000e+03 6.419016122817993164e-01 2.051683807373046875e+01 -6.747673731297254562e-03 -4.975861907005310059e-01 -1.513001620769500732e-01 -7.573852688074111938e-02
1.163000000000000000e+03 6.294513940811157227e-01 1.911520576477050781e+01 2.833071397617459297e-03 -6.708420515060424805e-01 -2.004026919603347778e-01 -8.115166425704956055e-02
1.164000000000000000e+03 5.988557934761047363e-01 1.491125583648681641e+01 4.352725576609373093e-03 -1.183878660202026367e+00 -3.538577854633331299e-01 -5.827255919575691223e-02
1.165000000000000000e+03 5.953712463378906250e-01 1.350743103027343750e+01 9.199013933539390564e-03 -1.300672411918640137e+00 -3.874419927597045898e-01 -4.247068613767623901e-02
1.166000000000000000e+03 6.319827437400817871e-01 7.838983535766601562e+00 9.254685603082180023e-03 -1.119400143623352051e+00 -3.330436348915100098e-01 8.528119325637817383e-02
1.167000000000000000e+03 3.266394615173339844e+00 -3.923065948486328125e+01 -6.825736910104751587e-02 3.633183956146240234e+00 1.069478034973144531e+00 3.675336763262748718e-02
1.168000000000000000e+03 2.593401908874511719e+00 -3.477226257324218750e+01 -5.561853572726249695e-02 3.485676288604736328e+00 1.029017329216003418e+00 1.449376940727233887e-01
1.169000000000000000e+03 2.391914606094360352e+00 -3.174427604675292969e+01 -5.645406991243362427e-02 3.271409273147583008e+00 9.644865393638610840e-01 2.873007655143737793e-01
1.170000000000000000e+03 1.932868242263793945e+00 -2.753076171875000000e+01 -1.358577162027359009e-01 2.677113056182861328e+00 7.623766064643859863e-01 5.353134274482727051e-01
1.171000000000000000e+03 3.158246278762817383e+00 -2.742798042297363281e+01 -2.212826758623123169e-01 2.825824260711669922e+00 7.813624739646911621e-01 7.499288916587829590e-01
1.172000000000000000e+03 1.869354009628295898e+00 -2.196781349182128906e+01 -1.621742993593215942e-01 7.958310246467590332e-01 1.900970190763473511e-01 1.180898904800415039e+00
1.173000000000000000e+03 1.896823883056640625e+00 -2.478012466430664062e+01 -1.689709573984146118e-01 1.907043457031250000e+00 5.214217305183410645e-01 8.323814868927001953e-01
1.174000000000000000e+03 3.010667324066162109e+00 -2.052019119262695312e+01 -2.082502394914627075e-01 1.429809093475341797e+00 3.664676547050476074e-01 1.781276106834411621e+00
1.175000000000000000e+03 6.031416058540344238e-01 -1.916016006469726562e+01 3.664389252662658691e-02 -2.418127775192260742e+00 -7.144451737403869629e-01 5.363102555274963379e-01
1.176000000000000000e+03 1.787933349609375000e+00 -1.913603019714355469e+01 -5.975301191210746765e-02 -7.228817939758300781e-01 -2.347904294729232788e-01 1.342046737670898438e+00
1.177000000000000000e+03 6.013089656829833984e+00 -1.498976325988769531e+01 2.875291585922241211e+00 5.435054302215576172e+00 2.493103742599487305e+00 1.447281956672668457e+00
1.178000000000000000e+03 5.899583697319030762e-01 -1.204249191284179688e+01 1.289333999156951904e-01 -5.171955585479736328e+00 -1.512906670570373535e+00 -1.987274438142776489e-01
1.179000000000000000e+03 1.758483767509460449e+00 -1.190216922760009766e+01 3.258597850799560547e-01 -2.582985877990722656e+00 -6.771378517150878906e-01 -6.262493729591369629e-01
1.180000000000000000e+03 5.050158023834228516e+00 -3.349331140518188477e+00 -3.364363312721252441e-01 4.722690582275390625e-01 4.074981808662414551e-02 -2.961198389530181885e-01
1.181000000000000000e+03 2.829982519149780273e+00 -2.672846078872680664e+00 -2.382848858833312988e-01 -7.156254351139068604e-02 -9.295422583818435669e-02 -4.911254644393920898e-01
1.182000000000000000e+03 1.929482936859130859e+00 -4.172998905181884766e+00 -1.412331014871597290e-01 -4.244094789028167725e-01 -1.696927696466445923e-01 -5.399311780929565430e-01
1.183000000000000000e+03 5.601937174797058105e-01 4.941163539886474609e+00 -7.250450085848569870e-03 -6.195454597473144531e-01 -1.880387663841247559e-01 1.172650158405303955e-01
1.184000000000000000e+03 4.229651927947998047e+00 4.487400054931640625e+00 -6.885648705065250397e-03 -1.379007101058959961e-01 -4.343590885400772095e-02 4.896071553230285645e-01
1.185000000000000000e+03 1.785029530525207520e+00 1.070894432067871094e+01 6.426098942756652832e-02 -9.211496114730834961e-01 -2.570665776729583740e-01 3.827555477619171143e-02
1.186000000000000000e+03 5.994858145713806152e-01 1.069056129455566406e+01 1.300516258925199509e-02 -1.363246917724609375e+00 -4.050725400447845459e-01 1.493444759398698807e-02
1.187000000000000000e+03 1.793314695358276367e+00 1.349365329742431641e+01 3.796555101871490479e-02 -8.602887988090515137e-01 -2.466969788074493408e-01 -1.097663566470146179e-01
1.188000000000000000e+03 1.936941385269165039e+00 2.037907791137695312e+01 -1.595944166183471680e-02 -2.667545676231384277e-01 -8.481420576572418213e-02 -2.046913653612136841e-01
1.189000000000000000e+03 1.904282808303833008e+00 1.899880218505859375e+01 -1.014749053865671158e-02 -3.899225592613220215e-01 -1.200210079550743103e-01 -2.190077453851699829e-01
1.190000000000000000e+03 1.995039939880371094e+00 2.458519744873046875e+01 -2.666113898158073425e-02 2.499639801681041718e-02 -4.994220216758549213e-04 -1.259605884552001953e-01
1.191000000000000000e+03 2.380415153503417969e+01 -1.197564315795898438e+01 -3.737282514572143555e+00 7.354283928871154785e-01 -9.005562663078308105e-01 7.972890511155128479e-03
1.192000000000000000e+03 2.226945304870605469e+01 -1.457938575744628906e+01 -5.721558570861816406e+00 -7.185821235179901123e-02 -1.738025069236755371e+00 1.600877285003662109e+00
1.193000000000000000e+03 5.447334289550781250e+01 6.575638771057128906e+00 8.395128846168518066e-01 7.459781169891357422e-01 4.756472706794738770e-01 1.681942492723464966e-01
1.194000000000000000e+03 5.599430465698242188e+01 6.908490657806396484e+00 6.047589182853698730e-01 1.347447514533996582e+00 5.856618881225585938e-01 -7.387986779212951660e-02
1.195000000000000000e+03 1.219536876678466797e+01 -2.860125064849853516e+00 4.027768135070800781e+00 -1.432718187570571899e-01 1.165348887443542480e+00 2.294459104537963867e+00
1.196000000000000000e+03 1.370845222473144531e+01 -3.167091608047485352e+00 7.188954830169677734e+00 8.029481172561645508e-01 2.397570848464965820e+00 4.370620250701904297e+00
1.197000000000000000e+03 1.469323825836181641e+01 -3.227926731109619141e+00 8.512267112731933594e+00 4.703187465667724609e+00 3.964636325836181641e+00 6.469478607177734375e+00
1.198000000000000000e+03 1.382995319366455078e+01 -3.475133895874023438e+00 6.740867614746093750e+00 1.749981403350830078e+00 2.547254800796508789e+00 5.006310939788818359e+00
1.199000000000000000e+03 1.463030910491943359e+01 -3.526998758316040039e+00 7.216098785400390625e+00 4.879307270050048828e+00 3.628621816635131836e+00 6.503959655761718750e+00
1.200000000000000000e+03 1.449752140045166016e+01 -3.135978221893310547e+00 8.623017311096191406e+00 3.238169431686401367e+00 3.558355808258056641e+00 5.932793617248535156e+00
1.201000000000000000e+03 1.410093402862548828e+01 -3.021720170974731445e+00 8.366710662841796875e+00 1.559707164764404297e+00 2.977925300598144531e+00 4.819196224212646484e+00
1.202000000000000000e+03 1.506195735931396484e+01 4.003801643848419189e-01 8.785595893859863281e-01 5.070198535919189453e+00 1.784627437591552734e+00 -2.724730968475341797e+00
1.203000000000000000e+03 1.583225250244140625e+01 -4.226719215512275696e-02 9.449414014816284180e-01 9.016992568969726562e+00 2.988580226898193359e+00 -1.645078778266906738e+00
1.204000000000000000e+03 1.602525138854980469e+01 2.201547473669052124e-01 8.291756510734558105e-01 8.665774345397949219e+00 2.848484992980957031e+00 -9.102136492729187012e-01
1.205000000000000000e+03 1.412556648254394531e+01 1.044253468513488770e+00 4.902234375476837158e-01 2.572761774063110352e+00 9.188956022262573242e-01 -2.314664363861083984e+00
1.206000000000000000e+03 1.663388633728027344e+01 -3.996551930904388428e-01 3.112638711929321289e+00 1.079297828674316406e+01 4.171685218811035156e+00 2.684415578842163086e+00
1.207000000000000000e+03 1.646182823181152344e+01 2.701789140701293945e-01 1.184360146522521973e+00 8.669129371643066406e+00 2.956046819686889648e+00 4.473319351673126221e-01
1.208000000000000000e+03 1.540292835235595703e+01 9.098438918590545654e-02 1.023690938949584961e+00 6.534512519836425781e+00 2.267461061477661133e+00 -2.552337646484375000e+00
1.209000000000000000e+03 1.512597751617431641e+01 9.218466281890869141e-01 3.808755874633789062e-01 4.869500637054443359e+00 1.575112819671630859e+00 -2.514186382293701172e+00
1.210000000000000000e+03 1.494933700561523438e+01 6.186089515686035156e-01 7.889472842216491699e-01 4.589186191558837891e+00 1.613440155982971191e+00 -2.613400697708129883e+00
1.211000000000000000e+03 1.569595527648925781e+01 5.080277323722839355e-01 5.148810744285583496e-01 7.070111751556396484e+00 2.275497913360595703e+00 -1.924724102020263672e+00
1.212000000000000000e+03 1.538831520080566406e+01 -3.605170011520385742e+00 6.144096851348876953e+00 9.057442665100097656e+00 4.560461997985839844e+00 5.766582012176513672e+00
1.213000000000000000e+03 1.768917846679687500e+01 -2.126825571060180664e+00 1.112895393371582031e+01 5.618872642517089844e+00 5.024347782135009766e+00 2.033956289291381836e+00
1.214000000000000000e+03 1.643355560302734375e+01 -3.730420112609863281e+00 5.550158023834228516e+00 1.017465877532958984e+01 4.717444896697998047e+00 1.618861079216003418e+00
1.215000000000000000e+03 1.665888977050781250e+01 8.092599362134933472e-02 1.877673506736755371e+00 9.109875679016113281e+00 3.296264648437500000e+00 1.507908225059509277e+00
1.216000000000000000e+03 1.761816406250000000e+01 -2.354886054992675781e+00 1.092243671417236328e+01 5.850602149963378906e+00 5.031911849975585938e+00 1.300681233406066895e+00
1.217000000000000000e+03 1.560746383666992188e+01 -3.787396907806396484e+00 5.133520126342773438e+00 9.237602233886718750e+00 4.311336994171142578e+00 4.729910373687744141e+00
1.218000000000000000e+03 1.348210048675537109e+01 4.431519508361816406e+00 -8.874890804290771484e-01 3.495906352996826172e+00 7.825251817703247070e-01 -1.213760972023010254e+00
1.219000000000000000e+03 1.336996364593505859e+01 1.414757847785949707e+00 1.937150955200195312e-02 1.868147730827331543e+00 5.662558078765869141e-01 -1.835867047309875488e+00
1.220000000000000000e+03 8.768687248229980469e+00 -2.646538734436035156e+00 4.633997082710266113e-01 3.563017845153808594e-01 2.459104508161544800e-01 9.265006184577941895e-01
1.221000000000000000e+03 9.565407752990722656e+00 -3.364089965820312500e+00 1.136515974998474121e+00 5.247086882591247559e-01 4.983673691749572754e-01 1.743735432624816895e+00
1.222000000000000000e+03 4.319670677185058594e+00 -3.319077014923095703e+00 -2.909080684185028076e-01 3.060225248336791992e-01 4.534337203949689865e-03 -4.006321728229522705e-01
1.223000000000000000e+03 2.453239679336547852e+00 -3.572798967361450195e+00 -1.419740915298461914e-01 -2.069891095161437988e-01 -1.046889573335647583e-01 -5.560414195060729980e-01
1.224000000000000000e+03 7.266105651855468750e+00 -2.657140016555786133e+00 -1.210417151451110840e-01 4.639364182949066162e-01 1.028684079647064209e-01 3.962586522102355957e-01
1.225000000000000000e+03 2.121874809265136719e+00 -2.889944314956665039e+00 -1.538837403059005737e-01 -1.896257996559143066e-01 -1.030528619885444641e-01 -4.648530185222625732e-01
1.226000000000000000e+03 4.325228214263916016e+00 -4.073268890380859375e+00 -3.236825168132781982e-01 4.519673883914947510e-01 3.848546743392944336e-02 -5.120379328727722168e-01
1.227000000000000000e+03 1.569984555244445801e+00 -5.214119434356689453e+00 -2.811279706656932831e-02 -8.138299584388732910e-01 -2.525828182697296143e-01 -5.629996657371520996e-01
1.228000000000000000e+03 8.083442687988281250e+00 -3.435579776763916016e+00 2.569923698902130127e-01 7.749693989753723145e-01 3.095885217189788818e-01 1.003756284713745117e+00
1.229000000000000000e+03 5.797979354858398438e+00 -3.387659788131713867e+00 -2.765392065048217773e-01 6.857212781906127930e-01 1.227546185255050659e-01 2.902044728398323059e-02
1.230000000000000000e+03 7.322581291198730469e+00 -3.443289995193481445e+00 -1.819840836105868220e-04 8.826032280921936035e-01 2.647263705730438232e-01 7.245969772338867188e-01
1.231000000000000000e+03 6.556482315063476562e+00 -3.423349142074584961e+00 -2.065997421741485596e-01 7.546753287315368652e-01 1.644226759672164917e-01 2.712433934211730957e-01
1.232000000000000000e+03 3.459061384201049805e+00 2.798861265182495117e+00 -1.751761138439178467e-01 -1.391067802906036377e-01 -9.428486973047256470e-02 4.094413518905639648e-01
1.233000000000000000e+03 4.241056442260742188e+00 2.748794555664062500e+00 -2.363609820604324341e-01 -8.510627597570419312e-02 -9.644018113613128662e-02 4.463266432285308838e-01
1.234000000000000000e+03 4.998670578002929688e+00 3.548705816268920898e+00 -1.482495367527008057e-01 -5.042635649442672729e-02 -5.960276722908020020e-02 5.001620054244995117e-01
1.235000000000000000e+03 5.777451038360595703e+00 3.483044385910034180e+00 -1.746706813573837280e-01 4.134651273488998413e-03 -5.116080865263938904e-02 4.994327723979949951e-01
1.236000000000000000e+03 4.702236354351043701e-01 3.508322954177856445e+00 -1.666761748492717743e-02 -3.435250818729400635e-01 -1.080578044056892395e-01 8.817347884178161621e-02
1.237000000000000000e+03 6.558568000793457031e+00 3.430639743804931641e+00 -1.939089000225067139e-01 8.863941580057144165e-02 -3.158084303140640259e-02 4.603124260902404785e-01
1.238000000000000000e+03 6.581602096557617188e+00 2.653826713562011719e+00 -3.962064385414123535e-01 3.870404884219169617e-02 -1.072507128119468689e-01 4.477326869964599609e-01
1.239000000000000000e+03 8.110571861267089844e+00 3.379803895950317383e+00 -2.135851681232452393e-01 2.990258634090423584e-01 2.563220821321010590e-02 2.868853807449340820e-01
1.240000000000000000e+03 9.754027366638183594e+00 2.606602668762207031e+00 -4.007530510425567627e-01 4.066465198993682861e-01 1.768043846823275089e-03 -8.602876961231231689e-02
1.241000000000000000e+03 1.060640621185302734e+01 2.593341827392578125e+00 -3.817988336086273193e-01 7.746062278747558594e-01 1.178422048687934875e-01 -4.059579968452453613e-01
1.242000000000000000e+03 9.677230834960937500e+00 3.376450061798095703e+00 -1.914010345935821533e-01 6.534332633018493652e-01 1.386096775531768799e-01 -9.738107025623321533e-02
1.243000000000000000e+03 1.228620338439941406e+01 2.216460466384887695e+00 -3.429069519042968750e-01 1.562421202659606934e+00 3.658542931079864502e-01 -1.228160858154296875e+00
1.244000000000000000e+03 1.124112892150878906e+01 3.543270349502563477e+00 -2.695464193820953369e-01 1.509346604347229004e+00 3.719400763511657715e-01 -6.219050288200378418e-01
1.245000000000000000e+03 1.512818717956542969e+01 4.861952304840087891e+00 -1.358690738677978516e+00 3.902333021163940430e+00 7.630926966667175293e-01 -1.509832501411437988e+00
1.246000000000000000e+03 1.046329116821289062e+01 3.399023532867431641e+00 -2.062571197748184204e-01 9.754277467727661133e-01 2.307511717081069946e-01 -3.257270157337188721e-01
1.247000000000000000e+03 1.142437362670898438e+01 1.593815231323242188e+01 1.299884766340255737e-01 2.271034240722656250e+00 7.203068137168884277e-01 -3.157051205635070801e-01
1.248000000000000000e+03 4.005357360839843750e+01 -1.564659500122070312e+01 -2.593030691146850586e+00 1.952122300863265991e-01 -7.193455100059509277e-01 -5.673252344131469727e-01
1.249000000000000000e+03 4.148836517333984375e+01 -1.675666236877441406e+01 -2.646467208862304688e+00 9.195070713758468628e-02 -7.663549780845642090e-01 -5.892254114151000977e-01
1.250000000000000000e+03 3.020729255676269531e+01 -1.568073177337646484e+01 -3.501060724258422852e+00 3.226056098937988281e-01 -9.535365700721740723e-01 1.505379974842071533e-01
1.251000000000000000e+03 3.144651412963867188e+01 -1.587463665008544922e+01 -3.360718965530395508e+00 3.163119852542877197e-01 -9.133220911026000977e-01 3.076998889446258545e-02
1.252000000000000000e+03 1.271285057067871094e+01 -2.143964576721191406e+01 3.985278010368347168e-01 3.453576564788818359e+00 1.155631303787231445e+00 -1.442015409469604492e+00
1.253000000000000000e+03 2.973475074768066406e+01 6.471185684204101562e+00 2.567476511001586914e+00 2.250295877456665039e+00 1.445331692695617676e+00 1.477515578269958496e+00
1.254000000000000000e+03 2.682347869873046875e+01 6.396431446075439453e+00 3.223532438278198242e+00 3.852200269699096680e+00 2.122719764709472656e+00 1.925171971321105957e+00
1.255000000000000000e+03 5.081673812866210938e+01 4.582663536071777344e+00 1.203387141227722168e+00 2.264509499073028564e-01 4.289514124393463135e-01 -1.445175707340240479e-01
1.256000000000000000e+03 5.176540756225585938e+01 3.400034189224243164e+00 9.552242159843444824e-01 2.120372951030731201e-01 3.501784503459930420e-01 -1.545922905206680298e-01
1.257000000000000000e+03 2.857366561889648438e+01 1.202851676940917969e+01 3.676810562610626221e-01 2.977481126785278320e+00 1.003548622131347656e+00 1.523755908012390137e+00
1.258000000000000000e+03 2.823023796081542969e+01 1.068768310546875000e+01 9.934231638908386230e-01 3.352113962173461914e+00 1.303661108016967773e+00 1.991430997848510742e+00
1.259000000000000000e+03 4.622467803955078125e+01 -1.418703365325927734e+01 -2.370176792144775391e+00 -1.070392802357673645e-01 -7.431648373603820801e-01 -8.969430923461914062e-01
1.260000000000000000e+03 4.849267196655273438e+01 -1.320637035369873047e+01 -2.389436721801757812e+00 -1.590039879083633423e-01 -7.645322084426879883e-01 -1.005460977554321289e+00
1.261000000000000000e+03 5.134620285034179688e+01 -1.317761707305908203e+01 -2.551020145416259766e+00 -4.460627436637878418e-01 -8.991248607635498047e-01 -1.195877075195312500e+00
1.262000000000000000e+03 1.813560295104980469e+01 3.977280139923095703e+00 -3.052315711975097656e+00 2.299491167068481445e-01 -8.467100262641906738e-01 8.399549126625061035e-01
1.263000000000000000e+03 1.609241867065429688e+01 3.979192256927490234e+00 -2.254169464111328125e+00 3.441143274307250977e+00 3.560921549797058105e-01 -1.287053465843200684e+00
1.264000000000000000e+03 3.515743255615234375e+01 -1.508158779144287109e+01 -2.779697418212890625e+00 3.394584655761718750e-01 -7.320716381072998047e-01 -3.219657838344573975e-01
1.265000000000000000e+03 1.354189109802246094e+01 7.781759738922119141e+00 8.574108481407165527e-01 4.188607692718505859e+00 1.513805508613586426e+00 -4.158012270927429199e-01
1.266000000000000000e+03 5.147012710571289062e+01 -3.387945556640625000e+01 -2.852032184600830078e-01 -3.789818286895751953e-01 -1.992555111646652222e-01 -4.496089518070220947e-01
1.267000000000000000e+03 5.134926605224609375e+01 -1.034925365447998047e+01 -2.284023284912109375e+00 -2.175106555223464966e-01 -7.504602074623107910e-01 -9.804287552833557129e-01
1.268000000000000000e+03 1.857431221008300781e+01 3.139364957809448242e+00 -5.379440784454345703e-01 7.794507145881652832e-01 7.245199382305145264e-02 1.112887859344482422e+00
1.269000000000000000e+03 1.941363906860351562e+01 2.502588510513305664e+00 1.243809938430786133e+00 1.533825516700744629e+00 8.332906365394592285e-01 3.025467157363891602e+00
1.270000000000000000e+03 4.483489227294921875e+01 -1.350407028198242188e+01 -2.271780967712402344e+00 -5.006201099604368210e-03 -6.830362081527709961e-01 -8.057692646980285645e-01
1.271000000000000000e+03 2.466006278991699219e+01 -1.553293514251708984e+01 -4.770877838134765625e+00 -6.055774632841348648e-03 -1.433080077171325684e+00 1.166224598884582520e+00
1.272000000000000000e+03 2.406211853027343750e+01 -1.411484813690185547e+01 -4.778528213500976562e+00 3.381194174289703369e-01 -1.332122564315795898e+00 8.125510215759277344e-01
1.273000000000000000e+03 2.850106048583984375e+01 -1.657797622680664062e+01 -3.966638326644897461e+00 1.438419073820114136e-01 -1.146838903427124023e+00 5.365085601806640625e-01
1.274000000000000000e+03 6.464811706542968750e+01 -2.361097335815429688e+01 -7.716290950775146484e-01 4.125850200653076172e+00 1.006266355514526367e+00 8.219364285469055176e-01
1.275000000000000000e+03 6.547062683105468750e+01 -2.236877250671386719e+01 -6.879198551177978516e-01 5.159427642822265625e+00 1.341452360153198242e+00 9.611057043075561523e-01
1.276000000000000000e+03 3.732428359985351562e+01 -1.477470207214355469e+01 -2.603976249694824219e+00 3.013943731784820557e-01 -6.907745599746704102e-01 -4.622182846069335938e-01
1.277000000000000000e+03 2.465793800354003906e+01 -3.312480545043945312e+01 -3.293574750423431396e-01 6.959237903356552124e-02 -7.792952656745910645e-02 8.432344347238540649e-02
1.278000000000000000e+03 5.527562713623046875e+01 -3.075274467468261719e+01 -7.523047327995300293e-01 -1.714099049568176270e-01 -2.771143913269042969e-01 -4.307819902896881104e-01
1.279000000000000000e+03 4.370631027221679688e+01 6.480538845062255859e+00 9.968678355216979980e-01 3.535545468330383301e-01 4.051267206668853760e-01 -1.543981283903121948e-01
1.280000000000000000e+03 9.044198989868164062e+00 -9.765588760375976562e+00 -2.157963514328002930e+00 8.680705070495605469e+00 1.956822395324707031e+00 3.628652811050415039e+00
1.281000000000000000e+03 8.586169242858886719e+00 -1.392503643035888672e+01 5.238012313842773438e+00 1.868579101562500000e+01 7.177141189575195312e+00 1.095605373382568359e+00
1.282000000000000000e+03 7.689250469207763672e+00 -1.491242790222167969e+01 3.895567178726196289e+00 1.017830467224121094e+01 4.222161293029785156e+00 1.011076211929321289e+00
1.283000000000000000e+03 2.768443107604980469e+01 -1.515655517578125000e+01 -3.905549287796020508e+00 3.282341957092285156e-01 -1.073194503784179688e+00 3.747223019599914551e-01
1.284000000000000000e+03 7.547566986083984375e+01 -9.969569206237792969e+00 1.250541329383850098e+00 8.148416519165039062e+00 2.819687366485595703e+00 1.753702312707901001e-01
1.285000000000000000e+03 7.161069488525390625e+01 -1.038611602783203125e+01 3.456294298171997070e+00 1.279741001129150391e+01 4.876111507415771484e+00 -6.527559161186218262e-01
1.286000000000000000e+03 1.175397682189941406e+01 -9.014198303222656250e+00 -1.851488232612609863e+00 2.919698476791381836e+00 3.204630911350250244e-01 6.186609268188476562e+00
1.287000000000000000e+03 1.325992202758789062e+01 1.240077114105224609e+01 8.442456126213073730e-01 3.985843420028686523e+00 1.449026703834533691e+00 3.272634446620941162e-01
1.288000000000000000e+03 1.199016761779785156e+01 1.136759281158447266e+01 1.003611922264099121e+00 3.075106620788574219e+00 1.223615646362304688e+00 -2.185294479131698608e-01
1.289000000000000000e+03 5.886761474609375000e+01 1.302235412597656250e+01 6.582956314086914062e-01 3.256859064102172852e+00 1.174546480178833008e+00 -9.006029963493347168e-01
1.290000000000000000e+03 7.709433746337890625e+01 -3.595950317382812500e+01 -6.000476330518722534e-02 1.051045513153076172e+01 3.135135173797607422e+00 7.470683008432388306e-02
1.291000000000000000e+03 7.539047241210937500e+01 -2.188611030578613281e+01 -4.782738089561462402e-01 9.528887748718261719e+00 2.715184211730957031e+00 -1.286761999130249023e+00
1.292000000000000000e+03 7.799678802490234375e+01 -2.901695823669433594e+01 -4.927208274602890015e-02 1.075894069671630859e+01 3.212900638580322266e+00 -2.154804468154907227e-01
1.293000000000000000e+03 7.322667694091796875e+01 -3.787678909301757812e+01 -6.946159154176712036e-02 8.374998092651367188e+00 2.491661071777343750e+00 -1.621118001639842987e-02
1.294000000000000000e+03 7.481183624267578125e+01 1.960665512084960938e+01 7.079695910215377808e-02 6.056428432464599609e+00 1.838167667388916016e+00 -4.713639914989471436e-01
1.295000000000000000e+03 7.794289398193359375e+01 1.537490272521972656e+01 1.667112484574317932e-02 6.977699279785156250e+00 2.098311185836791992e+00 -2.583501636981964111e-01
1.296000000000000000e+03 7.778298950195312500e+01 3.559405517578125000e+01 6.246614502742886543e-04 5.607067108154296875e+00 1.682307600975036621e+00 -4.983668029308319092e-02
1.297000000000000000e+03 7.801480102539062500e+01 -2.209691238403320312e+01 -1.448749899864196777e-01 9.504684448242187500e+00 2.807942628860473633e+00 -8.180793523788452148e-01
1.298000000000000000e+03 7.667667388916015625e+01 -2.342018699645996094e+01 -3.107678890228271484e-01 9.693020820617675781e+00 2.814675807952880859e+00 -9.449399709701538086e-01
1.299000000000000000e+03 7.662320709228515625e+01 -3.019919586181640625e+01 -1.084029674530029297e-01 1.019032382965087891e+01 3.024576187133789062e+00 -1.970578730106353760e-01
1.300000000000000000e+03 7.671379852294921875e+01 -2.889225769042968750e+01 -2.081554979085922241e-01 1.019799423217773438e+01 2.996951580047607422e+00 -3.174857199192047119e-01
1.301000000000000000e+03 7.662641143798828125e+01 -2.625443458557128906e+01 -2.396693229675292969e-01 9.998646736145019531e+00 2.927693367004394531e+00 -5.878317356109619141e-01
1.302000000000000000e+03 7.667262268066406250e+01 -2.759965324401855469e+01 -1.677594035863876343e-01 1.010075187683105469e+01 2.979897737503051758e+00 -4.339893758296966553e-01
1.303000000000000000e+03 7.663497161865234375e+01 -2.485449981689453125e+01 -2.461194992065429688e-01 9.842593193054199219e+00 2.878942012786865234e+00 -7.427355051040649414e-01
1.304000000000000000e+03 7.632760620117187500e+01 -3.315603256225585938e+01 -1.206537485122680664e-01 1.013764762878417969e+01 3.005098104476928711e+00 -9.355461597442626953e-02
1.305000000000000000e+03 7.544106292724609375e+01 -2.992421150207519531e+01 -2.378565818071365356e-01 9.691851615905761719e+00 2.836198568344116211e+00 -2.488838732242584229e-01
1.306000000000000000e+03 7.786296081542968750e+01 2.240804100036621094e+01 7.593721151351928711e-03 6.270252227783203125e+00 1.883353710174560547e+00 -1.837545931339263916e-01
1.307000000000000000e+03 7.635976409912109375e+01 1.958790016174316406e+01 4.682076722383499146e-02 6.299844741821289062e+00 1.903999686241149902e+00 -3.488453924655914307e-01
1.308000000000000000e+03 7.501572418212890625e+01 2.263788032531738281e+01 6.514394283294677734e-02 5.879557132720947266e+00 1.783410429954528809e+00 -3.780649602413177490e-01
1.309000000000000000e+03 7.638140869140625000e+01 2.104312515258789062e+01 3.240468725562095642e-02 6.188897609710693359e+00 1.866390585899353027e+00 -3.215219676494598389e-01
1.310000000000000000e+03 7.670379638671875000e+01 1.258821773529052734e+01 -1.121101668104529381e-04 7.046048641204833984e+00 2.113780975341796875e+00 -4.227203428745269775e-01
1.311000000000000000e+03 7.537749481201171875e+01 8.498373031616210938e+00 -1.032048016786575317e-01 7.210683822631835938e+00 2.132243871688842773e+00 -5.394769906997680664e-01
1.312000000000000000e+03 7.664818572998046875e+01 1.396467781066894531e+01 2.365645021200180054e-02 6.886365890502929688e+00 2.073006629943847656e+00 -4.192084372043609619e-01
1.313000000000000000e+03 7.651189422607421875e+01 2.395151519775390625e+01 2.862079069018363953e-02 5.995638370513916016e+00 1.807277679443359375e+00 -2.594734430313110352e-01
1.314000000000000000e+03 7.801283264160156250e+01 2.665069198608398438e+01 1.776444539427757263e-02 5.983096122741699219e+00 1.800258159637451172e+00 -1.276491731405258179e-01
1.315000000000000000e+03 7.804674530029296875e+01 -2.069556427001953125e+01 -7.212803512811660767e-02 9.030133247375488281e+00 2.687401533126831055e+00 -9.545387029647827148e-01
1.316000000000000000e+03 7.670782470703125000e+01 -2.198259162902832031e+01 -2.595587074756622314e-01 9.436178207397460938e+00 2.752985954284667969e+00 -1.160121321678161621e+00
1.317000000000000000e+03 7.572663116455078125e+01 2.755685615539550781e+01 4.477214068174362183e-02 5.698375701904296875e+00 1.722944378852844238e+00 -2.327469736337661743e-01
1.318000000000000000e+03 7.536447143554687500e+01 -1.480871200561523438e+01 4.613486826419830322e-01 9.000013351440429688e+00 2.838408470153808594e+00 -1.669056653976440430e+00
1.319000000000000000e+03 7.578704833984375000e+01 -8.958353042602539062e+00 8.783552050590515137e-01 8.055956840515136719e+00 2.680293560028076172e+00 5.319607853889465332e-01
1.320000000000000000e+03 7.794697570800781250e+01 -1.505572986602783203e+01 1.612406820058822632e-01 6.881794929504394531e+00 2.112910747528076172e+00 -1.089157223701477051e+00
1.321000000000000000e+03 7.582972717285156250e+01 -1.242961645126342773e+00 -5.212120413780212402e-01 8.345034599304199219e+00 2.347146749496459961e+00 7.770288586616516113e-01
1.322000000000000000e+03 7.693442535400390625e+01 -7.908398151397705078e+00 3.313286304473876953e-01 7.128477096557617188e+00 2.237941741943359375e+00 7.787264585494995117e-01
1.323000000000000000e+03 7.797382354736328125e+01 5.638843059539794922e+00 -6.677468866109848022e-02 8.092266082763671875e+00 2.407647371292114258e+00 -1.337216347455978394e-01
1.324000000000000000e+03 7.677665710449218750e+01 2.845443725585937500e+00 -2.642419040203094482e-01 8.051833152770996094e+00 2.336277484893798828e+00 8.256399631500244141e-02
1.325000000000000000e+03 7.618960571289062500e+01 3.653125762939453125e+01 2.076723612844944000e-02 5.447587490081787109e+00 1.640506505966186523e+00 -6.397615373134613037e-02
1.326000000000000000e+03 7.677156829833984375e+01 2.805879783630371094e+01 3.373113647103309631e-02 5.780414581298828125e+00 1.744243621826171875e+00 -1.724708229303359985e-01
1.327000000000000000e+03 7.796696472167968750e+01 7.032124042510986328e+00 -4.170063138008117676e-02 7.971454143524169922e+00 2.378926038742065430e+00 -1.792199462652206421e-01
1.328000000000000000e+03 7.661230468750000000e+01 5.629976749420166016e+00 -1.554755121469497681e-01 7.798093318939208984e+00 2.292785406112670898e+00 -2.158624678850173950e-01
1.329000000000000000e+03 7.696955108642578125e+01 -2.628573179244995117e+00 -2.649059295654296875e-01 7.922716617584228516e+00 2.297343254089355469e+00 9.594229459762573242e-01
1.330000000000000000e+03 7.685375976562500000e+01 -9.207402229309082031e+00 5.928788781166076660e-01 7.054023265838623047e+00 2.294070720672607422e+00 5.132759809494018555e-01
1.331000000000000000e+03 7.671511840820312500e+01 -1.639248085021972656e+01 5.222022905945777893e-02 8.219402313232421875e+00 2.481486797332763672e+00 -1.577234506607055664e+00
1.332000000000000000e+03 7.635744476318359375e+01 3.515341567993164062e+01 1.614277251064777374e-02 5.493656158447265625e+00 1.652939558029174805e+00 -8.355292677879333496e-02
1.333000000000000000e+03 7.476680755615234375e+01 3.470922851562500000e+01 4.345849901437759399e-02 5.342687606811523438e+00 1.615843772888183594e+00 -1.257917284965515137e-01
1.334000000000000000e+03 7.660679626464843750e+01 3.050483322143554688e+01 3.393428027629852295e-02 5.647547721862792969e+00 1.704444527626037598e+00 -1.418494135141372681e-01
1.335000000000000000e+03 7.639179229736328125e+01 1.814638137817382812e+01 3.245318308472633362e-02 6.426330089569091797e+00 1.937634944915771484e+00 -3.788939714431762695e-01
1.336000000000000000e+03 7.647055816650390625e+01 1.672891044616699219e+01 3.804447129368782043e-02 6.572499752044677734e+00 1.983163237571716309e+00 -3.943564891815185547e-01
1.337000000000000000e+03 7.670806884765625000e+01 9.839444160461425781e+00 -3.702741861343383789e-02 7.360437393188476562e+00 2.197022914886474609e+00 -4.136773347854614258e-01
1.338000000000000000e+03 7.659893035888671875e+01 -1.496229743957519531e+01 3.848760426044464111e-01 8.006449699401855469e+00 2.517397642135620117e+00 -1.435635566711425781e+00
1.339000000000000000e+03 7.818006896972656250e+01 -6.759397029876708984e+00 4.232348501682281494e-02 6.245562553405761719e+00 1.886365771293640137e+00 7.459294795989990234e-01
1.340000000000000000e+03 7.809272003173828125e+01 1.482327580451965332e+00 -1.468958258628845215e-01 8.161888122558593750e+00 2.404497623443603516e+00 2.520992159843444824e-01
1.341000000000000000e+03 7.696025848388671875e+01 -1.255400061607360840e+00 -2.694987952709197998e-01 8.050822257995605469e+00 2.334397077560424805e+00 6.929185390472412109e-01
1.342000000000000000e+03 7.807267761230468750e+01 3.427319335937500000e+01 1.280443393625319004e-03 5.654942035675048828e+00 1.696866750717163086e+00 -5.414084717631340027e-02
1.343000000000000000e+03 7.668299102783203125e+01 4.223683357238769531e+00 -2.046627253293991089e-01 7.932874679565429688e+00 2.318463563919067383e+00 -1.257093399763107300e-01
1.344000000000000000e+03 7.699831390380859375e+01 -5.332580566406250000e+00 -1.295023690909147263e-02 7.537615776062011719e+00 2.257399559020996094e+00 1.162916779518127441e+00
1.345000000000000000e+03 7.696788787841796875e+01 -3.997365236282348633e+00 -1.136500611901283264e-01 7.719160079956054688e+00 2.281652927398681641e+00 1.048974871635437012e+00
1.346000000000000000e+03 7.455301666259765625e+01 -1.059936237335205078e+01 1.539557337760925293e+00 9.283867835998535156e+00 3.247027635574340820e+00 -6.429477035999298096e-02
1.347000000000000000e+03 7.647738647460937500e+01 -1.350136756896972656e+01 7.103480100631713867e-01 7.799533843994140625e+00 2.552964687347412109e+00 -1.145047545433044434e+00
1.348000000000000000e+03 7.659539794921875000e+01 -1.053346252441406250e+01 8.383373022079467773e-01 7.425138473510742188e+00 2.479042768478393555e+00 -6.677982956171035767e-02
1.349000000000000000e+03 7.677024841308593750e+01 -2.056731796264648438e+01 -2.317965775728225708e-01 9.189085960388183594e+00 2.687186956405639648e+00 -1.304297804832458496e+00
1.350000000000000000e+03 7.685783386230468750e+01 -1.778314590454101562e+01 -2.911869250237941742e-02 8.506863594055175781e+00 2.543323516845703125e+00 -1.494452595710754395e+00
1.351000000000000000e+03 7.561534881591796875e+01 -1.654980468750000000e+01 1.700428426265716553e-01 9.049012184143066406e+00 2.765716552734375000e+00 -1.690825104713439941e+00
1.352000000000000000e+03 3.875925445556640625e+01 -1.585184383392333984e+01 -2.677920341491699219e+00 2.142783999443054199e-01 -7.390925884246826172e-01 -4.918970465660095215e-01
1.353000000000000000e+03 6.103243637084960938e+01 -5.306445598602294922e+00 -1.917395710945129395e+00 -5.784102678298950195e-01 -7.487418055534362793e-01 -1.377299666404724121e+00
1.354000000000000000e+03 6.053570556640625000e+01 -7.673904895782470703e+00 -3.837037563323974609e+00 -9.156194925308227539e-01 -1.425797104835510254e+00 -1.836378574371337891e+00
1.355000000000000000e+03 5.599691390991210938e+01 8.426020622253417969e+00 3.615689575672149658e-01 1.787739515304565430e+00 6.447925567626953125e-01 -1.496919989585876465e-02
1.356000000000000000e+03 1.483487224578857422e+01 5.725193500518798828e+00 -1.125580668449401855e+00 4.277170658111572266e+00 9.454769492149353027e-01 -1.143160343170166016e+00
1.357000000000000000e+03 8.504806518554687500e+00 -1.587418651580810547e+01 2.238694906234741211e+00 1.248318862915039062e+01 4.416564941406250000e+00 1.016741752624511719e+00
1.358000000000000000e+03 1.585587787628173828e+01 -2.678223991394042969e+01 -3.086359202861785889e-01 1.514684200286865234e+00 3.618144690990447998e-01 -4.596443176269531250e-01
1.359000000000000000e+03 5.982703018188476562e+01 -2.773600387573242188e+01 -8.552042841911315918e-01 8.700972795486450195e-01 4.467909689992666245e-03 -1.799677684903144836e-02
1.360000000000000000e+03 5.573758316040039062e+01 -2.887875175476074219e+01 -1.273928284645080566e+00 -3.750979900360107422e-01 -4.947078824043273926e-01 -6.529141068458557129e-01
1.361000000000000000e+03 5.880016326904296875e+01 -2.836972427368164062e+01 -8.995885848999023438e-01 4.418228864669799805e-01 -1.373296976089477539e-01 -1.888514757156372070e-01
1.362000000000000000e+03 2.022473144531250000e+01 -2.979572105407714844e+01 -3.513351380825042725e-01 4.709362983703613281e-01 3.588034212589263916e-02 -9.464193880558013916e-02
1.363000000000000000e+03 2.270220565795898438e+01 -3.128574562072753906e+01 -3.721066415309906006e-01 1.491009891033172607e-01 -6.690169870853424072e-02 4.070267081260681152e-02
1.364000000000000000e+03 1.269451236724853516e+01 -2.358851623535156250e+01 -2.962431013584136963e-01 3.263331890106201172e+00 8.901266455650329590e-01 -8.492518067359924316e-01
1.365000000000000000e+03 1.374323272705078125e+01 -2.471587753295898438e+01 -2.803359925746917725e-01 2.478257656097412109e+00 6.593764424324035645e-01 -7.481067180633544922e-01
1.366000000000000000e+03 1.428301525115966797e+01 6.666868209838867188e+00 -7.991391420364379883e-02 4.471267223358154297e+00 1.317406058311462402e+00 -5.747647881507873535e-01
1.367000000000000000e+03 1.288180065155029297e+01 2.849539518356323242e+00 -4.901427030563354492e-01 2.334595203399658203e+00 5.533357262611389160e-01 -1.491398572921752930e+00
1.368000000000000000e+03 2.450607681274414062e+01 1.807051467895507812e+01 -6.050244569778442383e-01 8.870105743408203125e-01 8.459583669900894165e-02 2.263019233942031860e-02
1.369000000000000000e+03 2.228323459625244141e+00 3.460660552978515625e+01 4.055422032251954079e-04 2.280705273151397705e-01 6.854281574487686157e-02 -4.966387990862131119e-03
1.370000000000000000e+03 4.627501964569091797e+00 3.646210479736328125e+01 -3.476859303191304207e-03 3.558095097541809082e-01 1.056997999548912048e-01 6.948933936655521393e-03
1.371000000000000000e+03 2.050910949707031250e+00 2.738415145874023438e+01 -2.092251181602478027e-02 1.343668252229690552e-01 3.403329476714134216e-02 -7.412447035312652588e-02
1.372000000000000000e+03 3.661772727966308594e+00 3.004383850097656250e+01 -3.966575115919113159e-02 3.028653562068939209e-01 7.895988225936889648e-02 -5.349283292889595032e-02
1.373000000000000000e+03 3.414898633956909180e+00 2.719975471496582031e+01 -4.793942347168922424e-02 2.491760849952697754e-01 6.037099659442901611e-02 -1.045362353324890137e-01
1.374000000000000000e+03 3.489132881164550781e+00 2.859412956237792969e+01 -4.176727682352066040e-02 2.713370025157928467e-01 6.887092441320419312e-02 -7.879903912544250488e-02
1.375000000000000000e+03 1.986414909362792969e+00 3.718699264526367188e+01 -2.244893694296479225e-03 2.199960500001907349e-01 6.532534956932067871e-02 -6.660950835794210434e-03
1.376000000000000000e+03 3.363561630249023438e+00 2.582513427734375000e+01 -5.694144964218139648e-02 2.219833284616470337e-01 4.951256141066551208e-02 -1.407307237386703491e-01
1.377000000000000000e+03 4.146618366241455078e+00 3.325247192382812500e+01 -2.198189496994018555e-02 3.417791724205017090e-01 9.593918174505233765e-02 -1.194870844483375549e-02
1.378000000000000000e+03 4.061951637268066406e+00 3.161337471008300781e+01 -3.168407827615737915e-02 3.381637930870056152e-01 9.194391965866088867e-02 -2.856932766735553741e-02
1.379000000000000000e+03 3.497569561004638672e+00 -3.660009002685546875e+01 -1.002464443445205688e-01 3.450193643569946289e+00 1.004984140396118164e+00 1.267491132020950317e-01
1.380000000000000000e+03 2.187944889068603516e+00 -3.031422042846679688e+01 -1.020199507474899292e-01 3.145622253417968750e+00 9.130806922912597656e-01 3.502703309059143066e-01
1.381000000000000000e+03 3.330637216567993164e+00 -2.875112724304199219e+01 -2.377514243125915527e-01 2.982892274856567383e+00 8.235422968864440918e-01 6.146185994148254395e-01
1.382000000000000000e+03 3.127613306045532227e+00 -2.612384414672851562e+01 -3.092857301235198975e-01 2.643781661987304688e+00 7.003487944602966309e-01 9.437609910964965820e-01
1.383000000000000000e+03 1.958991646766662598e+00 2.177273750305175781e+01 -2.234896272420883179e-02 -1.530862003564834595e-01 -5.263054743409156799e-02 -1.846183687448501587e-01
1.384000000000000000e+03 3.286829948425292969e+00 2.304444694519042969e+01 -6.165315583348274231e-02 1.354393362998962402e-01 2.213585376739501953e-02 -2.214123159646987915e-01
1.385000000000000000e+03 2.889972209930419922e+00 -1.171892356872558594e+01 5.855599045753479004e-01 -5.225532650947570801e-01 1.890199631452560425e-02 -1.036653518676757812e+00
1.386000000000000000e+03 2.930563926696777344e+00 -1.910531234741210938e+01 -4.044857993721961975e-02 8.315800428390502930e-01 2.373394370079040527e-01 1.871199488639831543e+00
1.387000000000000000e+03 1.863377928733825684e+00 -1.482195568084716797e+01 4.469039440155029297e-01 -2.501185417175292969e+00 -6.162844300270080566e-01 5.009552240371704102e-01
1.388000000000000000e+03 3.270418643951416016e+00 2.164067077636718750e+01 -5.418077483773231506e-02 7.675731927156448364e-02 6.772963330149650574e-03 -2.664619684219360352e-01
1.389000000000000000e+03 2.975955486297607422e+00 1.211488819122314453e+01 1.270498484373092651e-01 -5.224348902702331543e-01 -1.186155080795288086e-01 -7.295168191194534302e-02
1.390000000000000000e+03 4.651527881622314453e+00 1.871392440795898438e+01 -2.826052717864513397e-02 2.488830238580703735e-01 6.618674844503402710e-02 -3.862231671810150146e-01
1.391000000000000000e+03 3.260469436645507812e+00 2.024814987182617188e+01 -3.708398714661598206e-02 -1.502406201325356960e-03 -1.157591771334409714e-02 -3.007964789867401123e-01
1.392000000000000000e+03 3.897593498229980469e+00 -1.769153213500976562e+01 3.487185239791870117e-01 2.053830862045288086e+00 7.207648158073425293e-01 2.084017515182495117e+00
1.393000000000000000e+03 3.110599517822265625e+00 -1.322917461395263672e+01 1.130946755409240723e+00 -1.135966628789901733e-01 3.052050471305847168e-01 -1.666724979877471924e-01
1.394000000000000000e+03 3.148480176925659180e+00 7.999965190887451172e+00 1.570027470588684082e-01 -4.588548541069030762e-01 -9.055563062429428101e-02 2.834067940711975098e-01
1.395000000000000000e+03 1.833583831787109375e+00 6.306982517242431641e+00 4.130465537309646606e-02 -6.206119060516357422e-01 -1.737921833992004395e-01 2.869707643985748291e-01
1.396000000000000000e+03 1.805412054061889648e+00 1.488003349304199219e+01 3.305985406041145325e-02 -7.722012400627136230e-01 -2.217424064874649048e-01 -1.617651283740997314e-01
1.397000000000000000e+03 3.050964117050170898e+00 1.621299743652343750e+01 5.252784863114356995e-02 -3.001971244812011719e-01 -7.430078834295272827e-02 -2.885388433933258057e-01
1.398000000000000000e+03 4.297856330871582031e+00 -4.852956771850585938e+00 -2.815235555171966553e-01 5.861371755599975586e-01 9.138408303260803223e-02 -4.727393388748168945e-01
1.399000000000000000e+03 2.995770215988159180e+00 9.380667686462402344e+00 1.481330841779708862e-01 -5.340182185173034668e-01 -1.157655492424964905e-01 1.608800888061523438e-01
1.400000000000000000e+03 3.096379280090332031e+00 -2.194243621826171875e+01 -3.069526255130767822e-01 1.830320715904235840e+00 4.570104181766510010e-01 1.608387827873229980e+00
1.401000000000000000e+03 2.645156383514404297e+00 -9.048158645629882812e+00 -2.158155851066112518e-02 -5.848826766014099121e-01 -1.819392740726470947e-01 -1.176038503646850586e+00
1.402000000000000000e+03 2.901144504547119141e+00 -1.632267951965332031e+01 6.808479428291320801e-01 -8.561062626540660858e-03 2.016860693693161011e-01 1.485574483871459961e+00
1.403000000000000000e+03 3.109717845916748047e+00 -1.482432651519775391e+01 1.127014279365539551e+00 3.437533229589462280e-02 3.484168946743011475e-01 6.711995005607604980e-01
1.404000000000000000e+03 1.893716454505920410e+00 -2.338129234313964844e+01 -1.202909201383590698e-01 1.399625539779663086e+00 3.838004171848297119e-01 1.005099773406982422e+00
1.405000000000000000e+03 4.002688407897949219e+00 -3.786308288574218750e+01 -8.799640089273452759e-02 3.500765085220336914e+00 1.023830652236938477e+00 1.249765232205390930e-01
1.406000000000000000e+03 2.265705347061157227e+00 -3.606070709228515625e+01 -8.371844887733459473e-02 3.591804027557373047e+00 1.052425742149353027e+00 8.532246202230453491e-02
1.407000000000000000e+03 4.337083816528320312e+00 -3.293886947631835938e+01 -1.642599999904632568e-01 3.187087059020996094e+00 9.068481326103210449e-01 3.313944935798645020e-01
1.408000000000000000e+03 5.737086296081542969e+00 -3.236110305786132812e+01 -2.936660647392272949e-01 3.123426198959350586e+00 8.489280343055725098e-01 3.779095411300659180e-01
1.409000000000000000e+03 4.422230720520019531e+00 -2.336337280273437500e+01 -5.401496291160583496e-01 2.982699394226074219e+00 7.327649593353271484e-01 1.524338841438293457e+00
1.410000000000000000e+03 2.948632478713989258e+00 1.074948501586914062e+01 1.623067110776901245e-01 -5.471268892288208008e-01 -1.154460459947586060e-01 3.686999529600143433e-02
1.411000000000000000e+03 4.197182178497314453e+00 1.209044647216796875e+01 2.314388900995254517e-01 -1.545982956886291504e-01 2.305217832326889038e-02 -1.056397408246994019e-01
1.412000000000000000e+03 3.012101888656616211e+00 1.348877048492431641e+01 1.070345565676689148e-01 -4.686582386493682861e-01 -1.084870994091033936e-01 -1.678214371204376221e-01
1.413000000000000000e+03 3.226119518280029297e+00 1.887550544738769531e+01 -2.146549895405769348e-02 -9.310295432806015015e-02 -3.437053412199020386e-02 -3.164359927177429199e-01
1.414000000000000000e+03 6.627804565429687500e+01 -2.117515182495117188e+01 -6.278187036514282227e-01 6.164850711822509766e+00 1.661109566688537598e+00 1.207595109939575195e+00
1.415000000000000000e+03 5.776514434814453125e+01 -7.995142459869384766e+00 -2.968904256820678711e+00 -6.051428914070129395e-01 -1.072214126586914062e+00 -1.273569107055664062e+00
1.416000000000000000e+03 5.661183166503906250e+01 -8.648287773132324219e+00 -2.836906194686889648e+00 -5.597088932991027832e-01 -1.018984556198120117e+00 -1.267010807991027832e+00
1.417000000000000000e+03 1.689789772033691406e+01 -2.790365600585937500e+01 -3.404602110385894775e-01 1.280940890312194824e+00 2.821441888809204102e-01 -3.321274816989898682e-01
1.418000000000000000e+03 5.544017410278320312e+01 -9.292737007141113281e+00 -2.733352184295654297e+00 -4.850841164588928223e-01 -9.655308723449707031e-01 -1.247895956039428711e+00
1.419000000000000000e+03 3.128839683532714844e+01 -3.432471466064453125e+01 -4.274677932262420654e-01 -1.369618028402328491e-01 -1.693288683891296387e-01 1.656162440776824951e-01
1.420000000000000000e+03 3.328473663330078125e+01 -3.731917572021484375e+01 -2.770744860172271729e-01 -1.728243380784988403e-01 -1.349696516990661621e-01 8.596802502870559692e-02
1.421000000000000000e+03 1.202575302124023438e+01 1.248784446716308594e+01 7.776530385017395020e-01 3.087953805923461914e+00 1.159682035446166992e+00 -2.594775855541229248e-01
1.422000000000000000e+03 4.353280258178710938e+01 -3.650087738037109375e+01 -3.317275941371917725e-01 -3.138790428638458252e-01 -1.936820000410079956e-01 -2.580605447292327881e-01
1.423000000000000000e+03 4.508319854736328125e+01 -3.356310272216796875e+01 -6.144701838493347168e-01 -2.641391158103942871e-01 -2.635827958583831787e-01 -3.842807412147521973e-01
1.424000000000000000e+03 5.338439941406250000e+01 -3.287844085693359375e+01 -3.764941990375518799e-01 -2.174683362245559692e-01 -1.781887561082839966e-01 -4.385149478912353516e-01
1.425000000000000000e+03 4.657933425903320312e+01 -3.603535079956054688e+01 -2.171896845102310181e-01 -4.076387286186218262e-01 -1.874485164880752563e-01 -3.726918101310729980e-01
1.426000000000000000e+03 5.654091644287109375e+01 -3.012378311157226562e+01 -7.785363793373107910e-01 -7.534099742770195007e-03 -2.358211427927017212e-01 -3.556450009346008301e-01
1.427000000000000000e+03 6.163930511474609375e+01 -2.487208747863769531e+01 -8.488253355026245117e-01 1.399782061576843262e+00 1.652870029211044312e-01 1.765377968549728394e-01
1.428000000000000000e+03 3.502663803100585938e+01 -3.566770935058593750e+01 -4.061647355556488037e-01 -1.203953474760055542e-01 -1.579680293798446655e-01 7.337369024753570557e-02
1.429000000000000000e+03 5.430671310424804688e+01 -3.156096649169921875e+01 -6.305658817291259766e-01 -1.874963790178298950e-01 -2.454186677932739258e-01 -4.593537449836730957e-01
1.430000000000000000e+03 5.307579421997070312e+01 -1.066705131530761719e+01 -2.530376672744750977e+00 -3.881219327449798584e-01 -8.755496144294738770e-01 -1.170775651931762695e+00
1.431000000000000000e+03 4.483789825439453125e+01 -3.506525421142578125e+01 -4.078763127326965332e-01 -3.165408372879028320e-01 -2.173251509666442871e-01 -3.544940352439880371e-01
1.432000000000000000e+03 2.488629531860351562e+01 3.285589694976806641e+00 2.221112728118896484e+00 3.663943052291870117e+00 1.765516757965087891e+00 2.524508476257324219e+00
1.433000000000000000e+03 6.957438659667968750e+01 -1.693213462829589844e+01 -1.190514266490936279e-01 1.156341171264648438e+01 3.433307886123657227e+00 -1.605595052242279053e-01
1.434000000000000000e+03 7.049805450439453125e+01 -1.608454132080078125e+01 4.812204837799072266e-01 1.222525596618652344e+01 3.811943054199218750e+00 -3.686448633670806885e-01
1.435000000000000000e+03 2.249299240112304688e+01 -3.313698577880859375e+01 -2.859707772731781006e-01 2.698257863521575928e-01 -4.843496717512607574e-03 -2.422215044498443604e-02
1.436000000000000000e+03 2.033734893798828125e+01 3.236336231231689453e+00 8.215935230255126953e-01 1.002563238143920898e+00 5.472470521926879883e-01 3.348434686660766602e+00
1.437000000000000000e+03 2.127957534790039062e+01 2.788174629211425781e+00 1.667300343513488770e+00 1.827868103981018066e+00 1.048550486564636230e+00 3.883850812911987305e+00
1.438000000000000000e+03 1.080710029602050781e+01 -2.112023925781250000e+01 -3.131198883056640625e-01 5.379933834075927734e+00 1.520044207572937012e+00 -1.150766372680664062e+00
1.439000000000000000e+03 9.271373748779296875e+00 -1.877848434448242188e+01 -2.381372004747390747e-01 8.586215972900390625e+00 2.504423618316650391e+00 -9.599704742431640625e-01
1.440000000000000000e+03 6.708180236816406250e+01 -2.002629089355468750e+01 -5.366581678390502930e-01 7.728921413421630859e+00 2.157679080963134766e+00 1.254667758941650391e+00
1.441000000000000000e+03 1.405286598205566406e+01 -1.098541355133056641e+01 -6.596926689147949219e+00 -1.679727196693420410e+00 -2.482996225357055664e+00 3.488776206970214844e+00
1.442000000000000000e+03 4.694192886352539062e+01 4.111237525939941406e+00 1.016751646995544434e+00 2.939387559890747070e-01 3.932071030139923096e-01 6.263162940740585327e-04
1.443000000000000000e+03 4.470726013183593750e+01 6.585022449493408203e+00 1.256456851959228516e+00 8.998923748731613159e-02 4.039338231086730957e-01 -2.886404991149902344e-01
1.444000000000000000e+03 2.775112342834472656e+01 -3.500932693481445312e+01 -2.831446826457977295e-01 -7.603794336318969727e-02 -1.077547892928123474e-01 1.257827579975128174e-01
1.445000000000000000e+03 2.787778663635253906e+01 -3.294431304931640625e+01 -4.506228864192962646e-01 -1.566093266010284424e-01 -1.821696609258651733e-01 1.930463016033172607e-01
1.446000000000000000e+03 4.134724044799804688e+01 -1.543087387084960938e+01 -2.556684494018554688e+00 1.539025306701660156e-01 -7.208345532417297363e-01 -6.258335113525390625e-01
1.447000000000000000e+03 2.794940185546875000e+01 6.981752395629882812e+00 2.924587726593017578e+00 3.339318990707397461e+00 1.879171967506408691e+00 1.823231935501098633e+00
1.448000000000000000e+03 2.846154212951660156e+01 8.656673431396484375e+00 2.033847093582153320e+00 3.111340045928955078e+00 1.543556213378906250e+00 2.084902048110961914e+00
1.449000000000000000e+03 4.799411010742187500e+01 -3.481432342529296875e+01 -3.184050619602203369e-01 -4.245557487010955811e-01 -2.228882461786270142e-01 -4.609028697013854980e-01
1.450000000000000000e+03 4.923703765869140625e+01 -3.367174148559570312e+01 -4.478578865528106689e-01 -4.326297938823699951e-01 -2.641462981700897217e-01 -5.367673635482788086e-01
1.451000000000000000e+03 2.357201004028320312e+01 -1.283085060119628906e+01 -4.410871028900146484e+00 5.875121355056762695e-01 -1.147007584571838379e+00 3.516437411308288574e-01
1.452000000000000000e+03 2.404741477966308594e+01 1.657396316528320312e+01 -8.554351329803466797e-01 6.449450254440307617e-01 -6.314703822135925293e-02 4.263844341039657593e-03
1.453000000000000000e+03 2.338620567321777344e+01 1.853422737121582031e+01 -3.966724574565887451e-01 4.388239085674285889e-01 1.264543179422616959e-02 3.402315080165863037e-02
1.454000000000000000e+03 9.290057182312011719e+00 -1.693291854858398438e+01 9.007003903388977051e-01 1.244139957427978516e+01 4.002630233764648438e+00 -1.895269513130187988e+00
1.455000000000000000e+03 9.984523773193359375e+00 -1.992689895629882812e+01 -1.744157224893569946e-01 6.394813060760498047e+00 1.866119265556335449e+00 -1.181937932968139648e+00
1.456000000000000000e+03 4.204013824462890625e+01 1.766981124877929688e+01 1.054594159126281738e+00 2.155914306640625000e+00 9.631525874137878418e-01 8.702190518379211426e-01
1.457000000000000000e+03 5.554254150390625000e+01 4.115585327148437500e+00 7.585338354110717773e-01 6.927812099456787109e-01 4.353945255279541016e-01 -3.087419867515563965e-01
1.458000000000000000e+03 5.311374664306640625e+01 5.900504112243652344e+00 1.146809101104736328e+00 2.875331342220306396e-01 4.303026795387268066e-01 1.407297551631927490e-01
1.459000000000000000e+03 2.563257217407226562e+01 1.771232414245605469e+01 -6.051706671714782715e-01 1.283819079399108887e+00 2.035945355892181396e-01 1.098804622888565063e-01
1.460000000000000000e+03 3.789496994018554688e+01 1.512550449371337891e+01 8.715984821319580078e-01 1.860840082168579102e+00 8.197315931320190430e-01 1.141288757324218750e+00
1.461000000000000000e+03 4.169635772705078125e+01 1.050227832794189453e+01 3.728434145450592041e-01 1.567311525344848633e+00 5.820464491844177246e-01 3.689025342464447021e-01
1.462000000000000000e+03 6.039318466186523438e+01 -6.165422439575195312e+00 -2.493926048278808594e+00 -6.372350454330444336e-01 -9.393483400344848633e-01 -1.138262748718261719e+00
1.463000000000000000e+03 1.594925117492675781e+01 -2.896431159973144531e+01 -3.889697492122650146e-01 1.600656390190124512e+00 3.635059893131256104e-01 -3.260631561279296875e-01
1.464000000000000000e+03 5.817527770996093750e+01 1.770853996276855469e+01 7.320945858955383301e-01 3.348278760910034180e+00 1.224112033843994141e+00 -7.689147591590881348e-01
1.465000000000000000e+03 5.298028945922851562e+01 2.122058296203613281e+01 9.278843998908996582e-01 1.726671934127807617e+00 7.963669300079345703e-01 -7.073885798454284668e-01
1.466000000000000000e+03 5.266453170776367188e+01 2.322158432006835938e+01 1.002820849418640137e+00 1.880805015563964844e+00 8.650877475738525391e-01 -4.690647423267364502e-01
1.467000000000000000e+03 1.171762275695800781e+01 -2.234925842285156250e+01 -2.524231076240539551e-01 3.923980236053466797e+00 1.101467132568359375e+00 -1.061783909797668457e+00
1.468000000000000000e+03 1.434999275207519531e+01 1.796074295043945312e+01 -3.695056736469268799e-01 2.220624685287475586e+00 5.553357005119323730e-01 4.805396795272827148e-01
1.469000000000000000e+03 5.241595458984375000e+01 2.515760612487792969e+01 9.511905312538146973e-01 2.033782243728637695e+00 8.954917788505554199e-01 -2.989402711391448975e-01
1.470000000000000000e+03 5.021015167236328125e+01 2.264873313903808594e+01 1.151879310607910156e+00 1.328558444976806641e+00 7.441313266754150391e-01 -1.031416803598403931e-01
1.471000000000000000e+03 2.068387031555175781e+01 -1.149942779541015625e+01 -4.669924259185791016e+00 5.891525149345397949e-01 -1.224231481552124023e+00 4.854426980018615723e-01
1.472000000000000000e+03 3.973884963989257812e+01 1.417705440521240234e+01 9.007321596145629883e-01 1.928577542304992676e+00 8.487929105758666992e-01 1.099010944366455078e+00
1.473000000000000000e+03 1.271495628356933594e+01 1.611818885803222656e+01 9.808861464262008667e-02 2.646144390106201172e+00 8.232699036598205566e-01 -3.076193109154701233e-02
1.474000000000000000e+03 1.366474246978759766e+01 -9.602830886840820312e+00 -2.552432298660278320e+00 -4.526257216930389404e-01 -9.015173912048339844e-01 4.991066932678222656e+00
1.475000000000000000e+03 5.726975250244140625e+01 1.668473815917968750e+01 9.601171016693115234e-01 3.126304149627685547e+00 1.225926399230957031e+00 -7.124423384666442871e-01
1.476000000000000000e+03 1.916449737548828125e+01 -1.088578033447265625e+01 -4.835354328155517578e+00 6.444624066352844238e-01 -1.257267594337463379e+00 8.590406179428100586e-01
1.477000000000000000e+03 2.041315269470214844e+01 1.990216255187988281e+01 -9.709238260984420776e-02 2.651844918727874756e-01 5.042763426899909973e-02 6.593730449676513672e-01
1.478000000000000000e+03 5.637005233764648438e+01 9.901403427124023438e+00 2.717171013355255127e-01 2.378870248794555664e+00 7.951762080192565918e-01 -2.081454396247863770e-01
1.479000000000000000e+03 5.798746109008789062e+01 1.077078437805175781e+01 4.199978113174438477e-01 2.889711141586303711e+00 9.929127097129821777e-01 -7.751781344413757324e-01
1.480000000000000000e+03 4.172234344482421875e+01 9.365604400634765625e+00 4.619036018848419189e-01 1.244162797927856445e+00 5.118198990821838379e-01 1.465188711881637573e-01
1.481000000000000000e+03 4.325162887573242188e+01 1.781164741516113281e+01 9.724466800689697266e-01 2.273935079574584961e+00 9.739145636558532715e-01 9.160071611404418945e-01
1.482000000000000000e+03 4.050458908081054688e+01 1.754577445983886719e+01 9.821413159370422363e-01 2.120645523071289062e+00 9.308360815048217773e-01 8.839759826660156250e-01
1.483000000000000000e+03 4.321678924560546875e+01 1.894874000549316406e+01 9.146838784217834473e-01 2.027027845382690430e+00 8.825135231018066406e-01 9.044399857521057129e-01
1.484000000000000000e+03 4.193583679199218750e+01 1.937866020202636719e+01 7.732810974121093750e-01 2.141277313232421875e+00 8.743675351142883301e-01 8.342008590698242188e-01
1.485000000000000000e+03 7.163254547119140625e+01 -1.330851364135742188e+01 2.309479713439941406e+00 1.335948753356933594e+01 4.700690269470214844e+00 -1.147719621658325195e+00
1.486000000000000000e+03 7.081969451904296875e+01 -1.207538890838623047e+01 2.696944713592529297e+00 1.471651744842529297e+01 5.224038600921630859e+00 -8.723523616790771484e-01
1.487000000000000000e+03 4.003825759887695312e+01 1.284978389739990234e+01 8.042641878128051758e-01 1.791032671928405762e+00 7.785890698432922363e-01 1.075018286705017090e+00
1.488000000000000000e+03 4.042371368408203125e+01 1.037561130523681641e+01 5.859063267707824707e-01 1.533000588417053223e+00 6.356720328330993652e-01 6.220875382423400879e-01
1.489000000000000000e+03 5.635712814331054688e+01 5.501884937286376953e+00 6.946161389350891113e-01 1.101191043853759766e+00 5.387421846389770508e-01 -3.096161782741546631e-01
1.490000000000000000e+03 6.952559661865234375e+01 -7.117650508880615234e+00 1.056051015853881836e+00 1.559549140930175781e+01 4.995462417602539062e+00 -2.544535696506500244e-01
1.491000000000000000e+03 1.174292850494384766e+01 1.474756336212158203e+01 4.304322302341461182e-01 2.501883983612060547e+00 8.796948790550231934e-01 -2.575458288192749023e-01
1.492000000000000000e+03 1.194061374664306641e+01 1.360550117492675781e+01 6.084378361701965332e-01 2.845213413238525391e+00 1.036095380783081055e+00 -1.734092682600021362e-01
1.493000000000000000e+03 6.603652954101562500e+01 -5.302356243133544922e+00 -3.497754335403442383e-01 4.658204078674316406e+00 1.292528629302978516e+00 -5.914273262023925781e+00
1.494000000000000000e+03 5.860395812988281250e+01 1.592693805694580078e+01 9.801895618438720703e-01 3.334898233413696289e+00 1.294526338577270508e+00 -8.589621186256408691e-01
1.495000000000000000e+03 5.623072052001953125e+01 1.762838554382324219e+01 6.827718019485473633e-01 3.076886653900146484e+00 1.127897500991821289e+00 -6.778552532196044922e-01
1.496000000000000000e+03 7.261444091796875000e+01 -3.887069225311279297e+00 -8.848523497581481934e-01 1.009365653991699219e+01 2.762641191482543945e+00 5.932415127754211426e-01
1.497000000000000000e+03 6.950313568115234375e+01 -4.734917163848876953e+00 -1.998216390609741211e+00 1.170535564422607422e+01 2.912141799926757812e+00 -1.357389926910400391e+00
1.498000000000000000e+03 4.857283592224121094e+00 -4.033231735229492188e+01 -4.010506346821784973e-02 3.339695930480957031e+00 9.898772239685058594e-01 8.672585338354110718e-02
1.499000000000000000e+03 8.092141151428222656e+00 -4.107472229003906250e+01 -1.185221076011657715e-01 2.761415958404541016e+00 7.928681373596191406e-01 4.963117465376853943e-02
1.500000000000000000e+03 2.123154449462890625e+01 -1.234664154052734375e+01 -5.055224418640136719e+00 4.711580276489257812e-01 -1.375219941139221191e+00 6.748166680335998535e-01
1.501000000000000000e+03 4.581918716430664062e+01 4.333445072174072266e+00 1.249338030815124512e+00 1.951011866331100464e-01 4.333317577838897705e-01 2.593008615076541901e-02
1.502000000000000000e+03 6.639077758789062500e+01 -4.042076587677001953e+00 -1.528629422187805176e+00 6.104053497314453125e+00 1.372627258300781250e+00 -4.112631797790527344e+00
1.503000000000000000e+03 4.797328472137451172e+00 4.039461517333984375e+01 -3.342893207445740700e-03 3.373652398586273193e-01 1.002067103981971741e-01 1.550996582955121994e-02
1.504000000000000000e+03 1.483433723449707031e+01 -3.753300428390502930e+00 6.284772872924804688e+00 5.987599849700927734e+00 3.681711673736572266e+00 6.175515651702880859e+00
1.505000000000000000e+03 1.354909610748291016e+01 -3.723122358322143555e+00 5.918707847595214844e+00 1.448258042335510254e+00 2.210089921951293945e+00 5.059378623962402344e+00
1.506000000000000000e+03 1.277026939392089844e+01 -3.170884847640991211e+00 5.133880138397216797e+00 7.812495529651641846e-02 1.563601493835449219e+00 3.150094270706176758e+00
1.507000000000000000e+03 1.662038421630859375e+01 -3.595451116561889648e+00 6.348578929901123047e+00 1.008336257934570312e+01 4.929582595825195312e+00 9.204053878784179688e-01
1.508000000000000000e+03 1.525565814971923828e+01 -3.793703317642211914e+00 5.588357925415039062e+00 7.968037128448486328e+00 4.066918373107910156e+00 5.600990772247314453e+00
1.509000000000000000e+03 1.726603507995605469e+01 -3.728214502334594727e+00 6.371384143829345703e+00 7.388557434082031250e+00 4.127982616424560547e+00 5.077689886093139648e-02
1.510000000000000000e+03 1.765501594543457031e+01 -4.439134895801544189e-01 5.586791992187500000e+00 6.833341598510742188e+00 3.726040124893188477e+00 4.129078388214111328e+00
1.511000000000000000e+03 1.771732902526855469e+01 -1.661176085472106934e+00 1.047403812408447266e+01 5.615563392639160156e+00 4.826880455017089844e+00 3.357805967330932617e+00
1.512000000000000000e+03 1.772298812866210938e+01 -1.897060036659240723e+00 1.088953113555908203e+01 5.539554119110107422e+00 4.928725719451904297e+00 2.647816896438598633e+00
1.513000000000000000e+03 1.708982467651367188e+01 -2.059772461652755737e-01 3.610803604125976562e+00 8.826041221618652344e+00 3.731053352355957031e+00 3.248877763748168945e+00
1.514000000000000000e+03 1.749290466308593750e+01 -2.821348428726196289e+00 9.995784759521484375e+00 6.651942729949951172e+00 4.994318485260009766e+00 1.197797879576683044e-01
1.515000000000000000e+03 1.365381240844726562e+01 8.064643740653991699e-01 3.857441544532775879e-01 1.788333058357238770e+00 6.522231698036193848e-01 -1.819325804710388184e+00
1.516000000000000000e+03 1.658297920227050781e+01 2.885717153549194336e+00 -1.163103938102722168e+00 3.870364427566528320e+00 8.121781349182128906e-01 -8.588758111000061035e-01
1.517000000000000000e+03 1.165541934967041016e+01 -2.772762060165405273e+00 3.105285882949829102e+00 -1.780874133110046387e-01 8.781595230102539062e-01 1.967774391174316406e+00
1.518000000000000000e+03 1.097568702697753906e+01 -2.684940814971923828e+00 2.241920232772827148e+00 1.955904439091682434e-02 6.784437894821166992e-01 1.682958722114562988e+00
1.519000000000000000e+03 1.026625537872314453e+01 -3.325739145278930664e+00 1.725070357322692871e+00 4.497042894363403320e-01 6.524323821067810059e-01 2.117855787277221680e+00
1.520000000000000000e+03 1.103298854827880859e+01 -9.405232429504394531e+00 -1.671318769454956055e+00 3.716170787811279297e+00 6.134555935859680176e-01 6.232137680053710938e+00
1.521000000000000000e+03 7.423346996307373047e+00 -5.104648113250732422e+00 -2.089314311742782593e-01 1.990571975708007812e+00 5.344921946525573730e-01 1.289622783660888672e+00
1.522000000000000000e+03 6.584397315979003906e+00 -4.218550205230712891e+00 -2.054961323738098145e-01 1.241346597671508789e+00 3.107551336288452148e-01 5.272341370582580566e-01
1.523000000000000000e+03 5.063022613525390625e+00 -4.113043308258056641e+00 -3.058913946151733398e-01 7.449239492416381836e-01 1.317097693681716919e-01 -2.152488827705383301e-01
1.524000000000000000e+03 3.735828638076782227e+00 -8.934764862060546875e+00 -2.400783896446228027e-01 1.075470805168151855e+00 2.506177127361297607e-01 -1.216528296470642090e+00
1.525000000000000000e+03 2.960666894912719727e+00 -3.913993597030639648e+00 -2.398631423711776733e-01 -4.064481705427169800e-02 -8.415238559246063232e-02 -6.071400642395019531e-01
1.526000000000000000e+03 3.612120151519775391e+00 -7.757216453552246094e+00 -2.474199533462524414e-01 6.969312429428100586e-01 1.348533928394317627e-01 -1.036269903182983398e+00
1.527000000000000000e+03 2.548128843307495117e+00 -5.513965606689453125e+00 -1.956743299961090088e-01 -2.550076544284820557e-01 -1.352045983076095581e-01 -8.002400398254394531e-01
1.528000000000000000e+03 9.614507675170898438e+00 4.154901504516601562e+00 -4.498818889260292053e-02 8.474180102348327637e-01 2.407289445400238037e-01 -4.730372875928878784e-02
1.529000000000000000e+03 6.570493221282958984e+00 4.221164703369140625e+00 -2.680830471217632294e-02 1.243251115083694458e-01 2.925504185259342194e-02 4.624621272087097168e-01
1.530000000000000000e+03 5.239278793334960938e+00 6.603213310241699219e+00 2.253321856260299683e-01 -1.142702251672744751e-02 6.417155265808105469e-02 4.138062596321105957e-01
1.531000000000000000e+03 7.331205368041992188e+00 3.394989728927612305e+00 -2.082299590110778809e-01 1.686106026172637939e-01 -1.188580598682165146e-02 4.100597202777862549e-01
1.532000000000000000e+03 8.848453521728515625e+00 4.167964458465576172e+00 -1.540368795394897461e-02 6.197863817214965820e-01 1.813148111104965210e-01 1.196692436933517456e-01
1.533000000000000000e+03 5.192461967468261719e+00 5.295686721801757812e+00 1.017578616738319397e-01 -3.876036405563354492e-02 1.889925077557563782e-02 4.875920414924621582e-01
1.534000000000000000e+03 2.661373615264892578e+00 4.784107208251953125e+00 -1.199563127011060715e-02 -3.594775199890136719e-01 -1.114419475197792053e-01 4.018168151378631592e-01
1.535000000000000000e+03 3.446692228317260742e+00 3.675490856170654297e+00 -8.532208949327468872e-02 -1.985310316085815430e-01 -8.515593409538269043e-02 4.493488967418670654e-01
1.536000000000000000e+03 2.635775089263916016e+00 3.769922494888305664e+00 -5.743506550788879395e-02 -2.848477065563201904e-01 -1.026848331093788147e-01 3.835242390632629395e-01
1.537000000000000000e+03 1.520690536499023438e+01 4.006950855255126953e+00 -1.660637378692626953e+00 3.680767059326171875e+00 6.060389280319213867e-01 -1.615023493766784668e+00
1.538000000000000000e+03 1.421680545806884766e+01 4.656507492065429688e+00 -1.261868953704833984e+00 3.839426279067993164e+00 7.732672095298767090e-01 -1.281208753585815430e+00
1.539000000000000000e+03 1.932454299926757812e+01 3.284718036651611328e+00 2.857854962348937988e-01 4.458729028701782227e-01 2.194975167512893677e-01 2.145514249801635742e+00
1.540000000000000000e+03 1.040243816375732422e+01 4.713074207305908203e+00 8.135571144521236420e-03 1.405506253242492676e+00 4.240925312042236328e-01 -1.985294818878173828e-01
1.541000000000000000e+03 1.204435729980468750e+01 3.655233860015869141e+00 -3.866319656372070312e-01 2.020131349563598633e+00 4.900497794151306152e-01 -9.279437065124511719e-01
1.542000000000000000e+03 1.094377613067626953e+01 4.265820026397705078e+00 -1.508642286062240601e-01 1.581372976303100586e+00 4.291526079177856445e-01 -4.179582893848419189e-01
1.543000000000000000e+03 9.744953155517578125e+00 -4.771113395690917969e+00 9.900993108749389648e-01 1.414291381835937500e+00 7.213171720504760742e-01 2.968366146087646484e+00
1.544000000000000000e+03 1.221244335174560547e+01 -1.054463481903076172e+01 -2.378663301467895508e+00 3.345499932765960693e-01 -6.132340431213378906e-01 6.281427860260009766e+00
1.545000000000000000e+03 1.106637477874755859e+01 -1.043694591522216797e+01 -3.276258230209350586e+00 5.444890975952148438e+00 6.505898237228393555e-01 7.317469120025634766e+00
1.546000000000000000e+03 3.859875869750976562e+01 -1.450754833221435547e+01 -2.492924690246582031e+00 2.802951335906982422e-01 -6.637889146804809570e-01 -5.435264706611633301e-01
1.547000000000000000e+03 3.933256530761718750e+01 1.562064361572265625e+01 9.609013795852661133e-01 1.926194429397583008e+00 8.661287426948547363e-01 1.107472181320190430e+00
1.548000000000000000e+03 1.087889099121093750e+01 1.154489707946777344e+01 8.760014772415161133e-01 2.325959444046020508e+00 9.605882763862609863e-01 -2.601244151592254639e-01
1.549000000000000000e+03 7.727869033813476562e+00 -1.041961765289306641e+01 -3.525916934013366699e-01 7.681098461151123047e+00 2.198551893234252930e+00 1.696294397115707397e-01
1.550000000000000000e+03 3.972515821456909180e+00 -1.146676445007324219e+01 5.886473059654235840e-01 1.514253139495849609e+00 6.308701634407043457e-01 -1.020444631576538086e+00
1.551000000000000000e+03 8.704203605651855469e+00 -1.094193077087402344e+01 -1.290778398513793945e+00 1.246567344665527344e+01 3.352468490600585938e+00 1.123845577239990234e+00
1.552000000000000000e+03 5.763980102539062500e+01 9.531568527221679688e+00 3.484213352203369141e-01 2.525598287582397461e+00 8.622059226036071777e-01 -5.306296348571777344e-01
1.553000000000000000e+03 2.191756629943847656e+01 2.039001703262329102e+00 2.549905300140380859e+00 2.388269424438476562e+00 1.481452465057373047e+00 3.950739145278930664e+00
1.554000000000000000e+03 4.386552429199218750e+01 -1.493848133087158203e+01 -2.424137592315673828e+00 -3.165270760655403137e-02 -7.367370724678039551e-01 -7.580527067184448242e-01
1.555000000000000000e+03 3.991918563842773438e+01 -1.430697822570800781e+01 -2.428655624389648438e+00 2.570179104804992676e-01 -6.514912843704223633e-01 -5.990149974822998047e-01
1.556000000000000000e+03 3.504891586303710938e+01 -1.626517868041992188e+01 -2.995892286300659180e+00 2.657044529914855957e-01 -8.190563917160034180e-01 -2.065824866294860840e-01
1.557000000000000000e+03 3.056886482238769531e+01 -1.451132202148437500e+01 -3.214286327362060547e+00 4.599435627460479736e-01 -8.263028860092163086e-01 -8.792242407798767090e-02
1.558000000000000000e+03 1.280993938446044922e+01 4.419867515563964844e+00 -5.737532377243041992e-01 2.856673955917358398e+00 6.848762631416320801e-01 -9.460239410400390625e-01
1.559000000000000000e+03 5.887317657470703125e+01 -7.496002197265625000e+00 -3.106715440750122070e+00 -6.226375102996826172e-01 -1.118805885314941406e+00 -1.350329160690307617e+00
1.560000000000000000e+03 5.080591583251953125e+01 -1.208560085296630859e+01 -2.408665180206298828e+00 -3.109125792980194092e-01 -8.158733248710632324e-01 -1.094071626663208008e+00
1.561000000000000000e+03 4.921194839477539062e+01 -1.157467555999755859e+01 -2.254026174545288086e+00 -1.231681704521179199e-01 -7.131583094596862793e-01 -9.494873285293579102e-01
1.562000000000000000e+03 3.407360076904296875e+01 -1.501040935516357422e+01 -2.873028993606567383e+00 3.651381134986877441e-01 -7.523672580718994141e-01 -2.717797160148620605e-01
1.563000000000000000e+03 3.624723815917968750e+01 -1.622136306762695312e+01 -2.859745264053344727e+00 2.404227852821350098e-01 -7.857967615127563477e-01 -3.005423843860626221e-01
1.564000000000000000e+03 2.233815956115722656e+01 1.315562248229980469e+00 2.896907091140747070e+00 2.061144351959228516e+00 1.487415432929992676e+00 3.686856031417846680e+00
1.565000000000000000e+03 2.323112869262695312e+01 3.169295310974121094e+00 2.169104099273681641e+00 3.171417236328125000e+00 1.602156400680541992e+00 3.328030586242675781e+00
1.566000000000000000e+03 4.806795883178710938e+01 -1.198811626434326172e+01 -2.226034879684448242e+00 -8.789093792438507080e-02 -6.941777467727661133e-01 -9.152339696884155273e-01
1.567000000000000000e+03 2.231716537475585938e+01 -1.170115280151367188e+01 -4.169044494628906250e+00 7.060468792915344238e-01 -1.038899302482604980e+00 1.775704473257064819e-01
1.568000000000000000e+03 1.675134277343750000e+01 -1.083965110778808594e+01 -5.589550971984863281e+00 -1.562322676181793213e-01 -1.723735094070434570e+00 2.006713390350341797e+00
1.569000000000000000e+03 1.559523582458496094e+01 -1.055761432647705078e+01 -5.304478168487548828e+00 -6.193328499794006348e-01 -1.777143239974975586e+00 2.533724308013916016e+00
1.570000000000000000e+03 9.649200439453125000e+00 4.975959300994873047e+00 1.103107184171676636e-01 1.089946508407592773e+00 3.600771725177764893e-01 -2.565835975110530853e-02
1.571000000000000000e+03 1.252535915374755859e+01 8.749667167663574219e+00 1.036610364913940430e+00 3.506575822830200195e+00 1.362955808639526367e+00 -3.432367444038391113e-01
1.572000000000000000e+03 4.507548141479492188e+01 -1.462024497985839844e+01 -2.418535232543945312e+00 -6.997637450695037842e-02 -7.465534806251525879e-01 -8.272018432617187500e-01
1.573000000000000000e+03 4.122814941406250000e+01 -1.411104393005371094e+01 -2.359772205352783203e+00 1.923669874668121338e-01 -6.502215862274169922e-01 -6.348170042037963867e-01
1.574000000000000000e+03 4.979646301269531250e+01 -1.000729274749755859e+01 -2.102639913558959961e+00 -8.492927253246307373e-02 -6.562707424163818359e-01 -8.534822463989257812e-01
1.575000000000000000e+03 4.370177459716796875e+01 -1.245032691955566406e+01 -2.114390850067138672e+00 1.266971975564956665e-01 -5.963080525398254395e-01 -7.287736535072326660e-01
1.576000000000000000e+03 3.618240356445312500e+01 -1.508475875854492188e+01 -2.693678140640258789e+00 3.109633922576904297e-01 -7.148144245147705078e-01 -3.882428705692291260e-01
1.577000000000000000e+03 3.748707580566406250e+01 -1.605431747436523438e+01 -2.740372180938720703e+00 2.071284800767898560e-01 -7.599731087684631348e-01 -4.085560739040374756e-01
1.578000000000000000e+03 5.488225173950195312e+01 -8.175277709960937500e+00 -2.393274545669555664e+00 -3.060622513294219971e-01 -8.098010420799255371e-01 -9.765451550483703613e-01
1.579000000000000000e+03 3.183159828186035156e+01 -1.461243247985839844e+01 -3.058735847473144531e+00 4.247404038906097412e-01 -7.901986241340637207e-01 -1.651335060596466064e-01
1.580000000000000000e+03 1.453774261474609375e+01 -1.013630580902099609e+01 -3.557670116424560547e+00 -8.345038890838623047e-01 -1.317652225494384766e+00 3.641288995742797852e+00
1.581000000000000000e+03 2.815866661071777344e+01 -1.405123329162597656e+01 -3.543690204620361328e+00 4.897421002388000488e-01 -9.161844253540039062e-01 7.860864698886871338e-02
1.582000000000000000e+03 5.194292831420898438e+01 -1.140079021453857422e+01 -2.459707260131835938e+00 -3.514701426029205322e-01 -8.433531522750854492e-01 -1.136880517005920410e+00
1.583000000000000000e+03 6.644983673095703125e+01 -2.322927665710449219e+01 -9.935000538825988770e-01 6.051640987396240234e+00 1.517442345619201660e+00 7.565427422523498535e-01
1.584000000000000000e+03 6.046070098876953125e+01 -2.579253005981445312e+01 -1.005932450294494629e+00 7.663184404373168945e-01 -7.188418507575988770e-02 -5.483136326074600220e-02
1.585000000000000000e+03 3.298938369750976562e+01 -1.487682914733886719e+01 -2.962758779525756836e+00 4.135292470455169678e-01 -7.647688984870910645e-01 -2.239261120557785034e-01
1.586000000000000000e+03 2.221274757385253906e+01 -3.545199584960937500e+01 -1.760498434305191040e-01 4.669047296047210693e-01 8.725646138191223145e-02 -4.840699583292007446e-02
1.587000000000000000e+03 2.520827865600585938e+01 -3.539278793334960938e+01 -2.016804665327072144e-01 6.107061728835105896e-02 -4.218295589089393616e-02 7.598610967397689819e-02
1.588000000000000000e+03 5.275502777099609375e+01 4.089343547821044922e+00 9.837918281555175781e-01 2.727716565132141113e-01 3.769690394401550293e-01 -1.319282352924346924e-01
1.589000000000000000e+03 7.534128570556640625e+01 1.386578464508056641e+01 2.668082714080810547e-02 6.622473239898681641e+00 1.994746208190917969e+00 -5.551312565803527832e-01
1.590000000000000000e+03 7.472873687744140625e+01 -1.232867002487182617e+00 -7.317210435867309570e-01 8.666834831237792969e+00 2.380533933639526367e+00 5.721520781517028809e-01
1.591000000000000000e+03 7.333638000488281250e+01 -1.100631237030029297e+01 2.476285696029663086e+00 1.034638309478759766e+01 3.846800804138183594e+00 -5.804607868194580078e-01
1.592000000000000000e+03 7.494030761718750000e+01 -1.574583053588867188e+01 3.494344055652618408e-01 9.159629821777343750e+00 2.852719306945800781e+00 -1.799685120582580566e+00
1.593000000000000000e+03 7.699125671386718750e+01 -6.625469684600830078e+00 3.040555417537689209e-01 7.217803478240966797e+00 2.256557703018188477e+00 1.039721369743347168e+00
1.594000000000000000e+03 7.581749725341796875e+01 -6.492156505584716797e+00 3.560368418693542480e-01 8.313278198242187500e+00 2.600794553756713867e+00 1.256265521049499512e+00
1.595000000000000000e+03 7.575090026855468750e+01 -3.986261606216430664e+00 -2.909764647483825684e-01 8.401967048645019531e+00 2.433297157287597656e+00 1.208034157752990723e+00
1.596000000000000000e+03 7.381219482421875000e+01 -1.201638412475585938e+01 2.017784118652343750e+00 1.037186908721923828e+01 3.716896057128906250e+00 -8.575283288955688477e-01
1.597000000000000000e+03 7.523610687255859375e+01 -1.368909454345703125e+01 1.098880767822265625e+00 8.944424629211425781e+00 3.012991666793823242e+00 -1.389989852905273438e+00
1.598000000000000000e+03 7.637602996826171875e+01 -1.198325538635253906e+01 8.603066802024841309e-01 7.665587425231933594e+00 2.557768344879150391e+00 -5.567474365234375000e-01
1.599000000000000000e+03 7.458560943603515625e+01 -7.910208702087402344e+00 9.770648479461669922e-01 9.210664749145507812e+00 3.056318759918212891e+00 8.560447692871093750e-01
1.600000000000000000e+03 7.571929168701171875e+01 -7.731676578521728516e+00 6.981279253959655762e-01 8.096624374389648438e+00 2.638425827026367188e+00 1.066056132316589355e+00
1.601000000000000000e+03 7.582130432128906250e+01 -2.584374666213989258e+00 -3.858230113983154297e-01 8.369130134582519531e+00 2.394992351531982422e+00 9.499086141586303711e-01
1.602000000000000000e+03 7.686725616455078125e+01 1.481601357460021973e+00 -2.779317498207092285e-01 8.110265731811523438e+00 2.349700212478637695e+00 2.357273548841476440e-01
1.603000000000000000e+03 7.568680572509765625e+01 1.408010482788085938e+00 -5.102829337120056152e-01 8.136936187744140625e+00 2.287996053695678711e+00 2.143386304378509521e-01
1.604000000000000000e+03 7.523430633544921875e+01 7.061545372009277344e+00 -1.779339462518692017e-01 7.334078311920166016e+00 2.146843194961547852e+00 -4.870274066925048828e-01
1.605000000000000000e+03 7.366186523437500000e+01 -1.760293769836425781e+01 -1.957559883594512939e-01 1.007405090332031250e+01 2.963488578796386719e+00 -1.791113018989562988e+00
1.606000000000000000e+03 7.540269470214843750e+01 -2.335088539123535156e+01 -4.726407825946807861e-01 9.510422706604003906e+00 2.711334466934204102e+00 -1.059158921241760254e+00
1.607000000000000000e+03 7.126357269287109375e+01 3.284993743896484375e+01 1.291420161724090576e-01 5.032842636108398438e+00 1.548595309257507324e+00 -2.542296648025512695e-01
1.608000000000000000e+03 7.478150939941406250e+01 3.096183776855468750e+01 6.127590313553810120e-02 5.457139015197753906e+00 1.655524492263793945e+00 -2.096830010414123535e-01
1.609000000000000000e+03 7.602412414550781250e+01 3.175456237792968750e+01 2.842070348560810089e-02 5.560805797576904297e+00 1.676767826080322266e+00 -1.457905918359756470e-01
1.610000000000000000e+03 7.536848449707031250e+01 4.107162475585937500e+00 -3.562614619731903076e-01 7.779740810394287109e+00 2.227043867111206055e+00 -1.979382485151290894e-01
1.611000000000000000e+03 7.523179626464843750e+01 5.562792301177978516e+00 -2.841842770576477051e-01 7.551870346069335938e+00 2.180305719375610352e+00 -4.202456176280975342e-01
1.612000000000000000e+03 7.402861022949218750e+01 3.902511835098266602e+00 -5.308070778846740723e-01 7.635886192321777344e+00 2.131523847579956055e+00 -4.524448215961456299e-01
1.613000000000000000e+03 7.685327911376953125e+01 -1.916558837890625000e+01 -1.604231745004653931e-01 8.827861785888671875e+00 2.600231409072875977e+00 -1.474020600318908691e+00
1.614000000000000000e+03 7.376799774169921875e+01 -1.860006523132324219e+01 -3.519920706748962402e-01 1.000779342651367188e+01 2.896740198135375977e+00 -1.637630939483642578e+00
1.615000000000000000e+03 7.665939331054687500e+01 8.453465461730957031e+00 -6.394764035940170288e-02 7.502134799957275391e+00 2.231456041336059570e+00 -3.817748725414276123e-01
1.616000000000000000e+03 7.546303558349609375e+01 9.855444908142089844e+00 -4.429709166288375854e-02 7.069853782653808594e+00 2.107666969299316406e+00 -5.440089702606201172e-01
1.617000000000000000e+03 7.488263702392578125e+01 2.114362335205078125e+01 7.739765942096710205e-02 5.955788135528564453e+00 1.809955716133117676e+00 -4.262909293174743652e-01
1.618000000000000000e+03 7.656462860107421875e+01 1.533867645263671875e+01 1.987904123961925507e-02 6.720246315002441406e+00 2.022037506103515625e+00 -4.099766910076141357e-01
1.619000000000000000e+03 7.518807983398437500e+01 1.522078895568847656e+01 5.393502861261367798e-02 6.470240116119384766e+00 1.957252502441406250e+00 -5.452012419700622559e-01
1.620000000000000000e+03 7.548640441894531250e+01 1.118909072875976562e+01 -1.763916201889514923e-02 6.934859752655029297e+00 2.075166225433349609e+00 -5.584958791732788086e-01
1.621000000000000000e+03 7.426644134521484375e+01 9.878145217895507812e+00 -6.356246769428253174e-02 6.809491157531738281e+00 2.023778438568115234e+00 -6.837455034255981445e-01
1.622000000000000000e+03 7.325058746337890625e+01 1.793971633911132812e+01 1.143363192677497864e-01 5.880895614624023438e+00 1.798569560050964355e+00 -6.276270151138305664e-01
1.623000000000000000e+03 7.501022338867187500e+01 1.661657524108886719e+01 5.807294696569442749e-02 6.303861618041992188e+00 1.908580303192138672e+00 -5.316302180290222168e-01
1.624000000000000000e+03 7.425682830810546875e+01 -2.327619934082031250e+01 -6.523362994194030762e-01 9.461244583129882812e+00 2.642672300338745117e+00 -1.044744014739990234e+00
1.625000000000000000e+03 7.520291137695312500e+01 -2.627001190185546875e+01 -3.802751898765563965e-01 9.564708709716796875e+00 2.755330085754394531e+00 -6.511781811714172363e-01
1.626000000000000000e+03 7.530750274658203125e+01 -2.767985343933105469e+01 -3.485439419746398926e-01 9.642802238464355469e+00 2.788277626037597656e+00 -4.915183484554290771e-01
1.627000000000000000e+03 7.527027130126953125e+01 -2.480157470703125000e+01 -4.656414389610290527e-01 9.563019752502441406e+00 2.729213476181030273e+00 -8.478732109069824219e-01
1.628000000000000000e+03 7.380017852783203125e+01 2.761035346984863281e+01 8.415240794420242310e-02 5.478829860687255859e+00 1.668894648551940918e+00 -3.167186379432678223e-01
1.629000000000000000e+03 7.384949493408203125e+01 2.435975074768066406e+01 9.255702048540115356e-02 5.621472358703613281e+00 1.714208841323852539e+00 -3.963761925697326660e-01
1.630000000000000000e+03 7.674263763427734375e+01 2.682330131530761719e+01 1.961574703454971313e-02 5.850326538085937500e+00 1.760982751846313477e+00 -1.977689266204833984e-01
1.631000000000000000e+03 7.673217773437500000e+01 2.930968666076660156e+01 2.411590330302715302e-02 5.721565723419189453e+00 1.723704457283020020e+00 -1.537468880414962769e-01
1.632000000000000000e+03 7.476800537109375000e+01 2.874144363403320312e+01 6.425358355045318604e-02 5.540516853332519531e+00 1.681431174278259277e+00 -2.501465976238250732e-01
1.633000000000000000e+03 7.484030914306640625e+01 2.665833091735839844e+01 6.799803674221038818e-02 5.645229816436767578e+00 1.713968276977539062e+00 -2.886332869529724121e-01
1.634000000000000000e+03 7.412767791748046875e+01 -3.556369400024414062e+01 -4.580841213464736938e-02 8.965713500976562500e+00 2.675971508026123047e+00 -6.693260371685028076e-02
1.635000000000000000e+03 7.384854125976562500e+01 -3.051542854309082031e+01 -3.506312072277069092e-01 8.935181617736816406e+00 2.575365304946899414e+00 -2.231044024229049683e-01
1.636000000000000000e+03 1.940576171875000000e+01 -1.202844619750976562e+01 -5.850539684295654297e+00 5.853346735239028931e-02 -1.737601876258850098e+00 1.370549440383911133e+00
1.637000000000000000e+03 7.665708923339843750e+01 -3.466806411743164062e+01 -1.414957642555236816e-01 1.033115768432617188e+01 3.056898593902587891e+00 3.534246236085891724e-02
1.638000000000000000e+03 7.635514831542968750e+01 -3.161326408386230469e+01 -1.316328793764114380e-01 1.007288932800292969e+01 2.982376813888549805e+00 -1.457398682832717896e-01
1.639000000000000000e+03 7.551538085937500000e+01 -2.887791633605957031e+01 -2.857096791267395020e-01 9.707299232482910156e+00 2.826476812362670898e+00 -3.386870324611663818e-01
1.640000000000000000e+03 7.478990936279296875e+01 -3.346888732910156250e+01 -1.999216228723526001e-01 9.314450263977050781e+00 2.734358549118041992e+00 -6.669948995113372803e-02
1.641000000000000000e+03 7.538103485107421875e+01 -3.503655624389648438e+01 -1.443828940391540527e-01 9.703237533569335938e+00 2.867656230926513672e+00 -5.680670961737632751e-02
1.642000000000000000e+03 7.534466552734375000e+01 3.315691375732421875e+01 4.653147980570793152e-02 5.442998886108398438e+00 1.646859049797058105e+00 -1.462420523166656494e-01
1.643000000000000000e+03 7.566155242919921875e+01 2.980001449584960938e+01 4.011370241641998291e-02 5.598436832427978516e+00 1.691565275192260742e+00 -1.984066963195800781e-01
1.644000000000000000e+03 1.490261745452880859e+01 -2.787463378906250000e+01 -4.558800160884857178e-01 2.006262540817260742e+00 4.651147723197937012e-01 -3.486850559711456299e-01
1.645000000000000000e+03 5.973630905151367188e+01 -6.960433006286621094e+00 -3.145034551620483398e+00 -6.307018399238586426e-01 -1.132720828056335449e+00 -1.265679717063903809e+00
1.646000000000000000e+03 5.362851715087890625e+01 -8.763933181762695312e+00 -2.314382553100585938e+00 -2.372436076402664185e-01 -7.654879093170166016e-01 -9.476069808006286621e-01
1.647000000000000000e+03 1.735737037658691406e+01 -2.929133796691894531e+01 -3.583576083183288574e-01 1.192745566368103027e+00 2.503164112567901611e-01 -2.874249219894409180e-01
1.648000000000000000e+03 4.299201011657714844e+00 -1.522925281524658203e+01 1.680220723152160645e+00 1.988907575607299805e+00 1.100738525390625000e+00 1.220440745353698730e+00
1.649000000000000000e+03 4.575051784515380859e+00 2.154962539672851562e+01 -9.753371030092239380e-02 3.181982040405273438e-01 6.619934737682342529e-02 -3.081086575984954834e-01
1.650000000000000000e+03 4.580184936523437500e+00 2.293699836730957031e+01 -1.046422868967056274e-01 3.420009911060333252e-01 7.120761275291442871e-02 -2.590349614620208740e-01
1.651000000000000000e+03 2.862165689468383789e+00 -1.771506690979003906e+01 2.365167737007141113e-01 3.816358745098114014e-01 1.854458004236221313e-01 1.685772776603698730e+00
1.652000000000000000e+03 3.886354446411132812e+00 -1.651158905029296875e+01 8.957577943801879883e-01 1.728377819061279297e+00 7.872406840324401855e-01 1.695505023002624512e+00
1.653000000000000000e+03 4.148590087890625000e+00 -2.047384071350097656e+01 -3.389182388782501221e-01 2.666387796401977539e+00 6.982408761978149414e-01 1.993056654930114746e+00
1.654000000000000000e+03 5.370310783386230469e+00 1.668351364135742188e+01 7.348329573869705200e-02 3.639503717422485352e-01 1.312301009893417358e-01 -4.109824299812316895e-01
1.655000000000000000e+03 4.612053394317626953e+00 2.015428924560546875e+01 -7.190069556236267090e-02 2.970031499862670898e-01 6.753073632717132568e-02 -3.596042096614837646e-01
1.656000000000000000e+03 3.127135992050170898e+00 1.753565979003906250e+01 1.678385771811008453e-02 -1.895896494388580322e-01 -5.184173583984375000e-02 -3.151985108852386475e-01
1.657000000000000000e+03 4.425192832946777344e+00 1.738809967041015625e+01 2.414744906127452850e-02 1.536242961883544922e-01 5.333152413368225098e-02 -3.884046971797943115e-01
1.658000000000000000e+03 7.062109470367431641e+00 -1.769768142700195312e+01 4.220367372035980225e-01 7.474770545959472656e+00 2.369042158126831055e+00 1.709337949752807617e+00
1.659000000000000000e+03 5.559217453002929688e+00 -1.797358703613281250e+01 3.331261277198791504e-01 4.869894504547119141e+00 1.560906171798706055e+00 2.124745368957519531e+00
1.660000000000000000e+03 3.032752513885498047e+00 1.486741065979003906e+01 7.244688272476196289e-02 -3.907966613769531250e-01 -9.550493210554122925e-02 -2.398516833782196045e-01
1.661000000000000000e+03 4.273280620574951172e+00 1.619663047790527344e+01 8.752481639385223389e-02 3.189861029386520386e-02 3.582702949643135071e-02 -3.596842586994171143e-01
1.662000000000000000e+03 7.020072460174560547e+00 2.276780509948730469e+01 -2.070636153221130371e-01 7.425518035888671875e-01 1.606464534997940063e-01 -2.561673223972320557e-01
1.663000000000000000e+03 4.743157863616943359e+00 2.566531753540039062e+01 -9.703911840915679932e-02 3.773301243782043457e-01 8.408730477094650269e-02 -1.593408137559890747e-01
1.664000000000000000e+03 4.912085533142089844e+00 2.977333450317382812e+01 -5.759788304567337036e-02 3.824876844882965088e-01 9.746694564819335938e-02 -5.743054300546646118e-02
1.665000000000000000e+03 4.278316974639892578e+00 -2.731052017211914062e+01 -4.008888900279998779e-01 2.994362831115722656e+00 7.780421972274780273e-01 8.523373603820800781e-01
1.666000000000000000e+03 3.157753705978393555e+00 -2.337343788146972656e+01 -3.589396476745605469e-01 2.176783800125122070e+00 5.453532338142395020e-01 1.368745923042297363e+00
1.667000000000000000e+03 4.308878898620605469e+00 -2.189288711547851562e+01 -5.370923280715942383e-01 2.881063222885131836e+00 7.031912803649902344e-01 1.741721510887145996e+00
1.668000000000000000e+03 4.261806964874267578e+00 1.347808933258056641e+01 1.927143037319183350e-01 -9.193679690361022949e-02 3.023324906826019287e-02 -2.118822038173675537e-01
1.669000000000000000e+03 4.645572662353515625e+00 2.431313514709472656e+01 -1.058854758739471436e-01 3.664029836654663086e-01 7.815525680780410767e-02 -2.051027864217758179e-01
1.670000000000000000e+03 4.799466133117675781e+00 2.703563117980957031e+01 -8.801889419555664062e-02 3.877827227115631104e-01 8.992914110422134399e-02 -1.211325898766517639e-01
1.671000000000000000e+03 5.788786411285400391e+00 -2.486725807189941406e+01 -7.174965739250183105e-01 3.526777267456054688e+00 8.427842259407043457e-01 1.155200719833374023e+00
1.672000000000000000e+03 3.168401718139648438e+00 -2.478610038757324219e+01 -2.902929484844207764e-01 2.422032833099365234e+00 6.395219564437866211e-01 1.150879025459289551e+00
1.673000000000000000e+03 4.490507602691650391e+00 -2.488326454162597656e+01 -5.632397532463073730e-01 3.045521259307861328e+00 7.446843981742858887e-01 1.240140080451965332e+00
1.674000000000000000e+03 3.838696241378784180e+00 -1.017748451232910156e+01 2.343730926513671875e-01 1.054422020912170410e+00 3.866385221481323242e-01 -1.291713714599609375e+00
1.675000000000000000e+03 2.750088453292846680e+00 -1.034606742858886719e+01 7.637871056795120239e-02 -4.851911962032318115e-01 -1.226437464356422424e-01 -1.110242009162902832e+00
1.676000000000000000e+03 6.807981014251708984e+00 -1.402097415924072266e+01 4.471320629119873047e+00 8.402830123901367188e+00 3.862245321273803711e+00 8.160510659217834473e-01
1.677000000000000000e+03 6.984991073608398438e+00 1.226009368896484375e+01 4.749259054660797119e-01 6.609942317008972168e-01 3.407760560512542725e-01 -2.054749876260757446e-01
1.678000000000000000e+03 3.584563016891479492e+00 -3.009228515625000000e+01 -1.743277311325073242e-01 3.091825246810913086e+00 8.752492666244506836e-01 5.054752826690673828e-01
1.679000000000000000e+03 4.577726840972900391e+00 -2.850419425964355469e+01 -3.439649045467376709e-01 3.066962718963623047e+00 8.168992996215820312e-01 7.349031567573547363e-01
1.680000000000000000e+03 6.028840541839599609e+00 2.981500244140625000e+01 -7.741042226552963257e-02 4.875325262546539307e-01 1.230366304516792297e-01 -3.859320282936096191e-02
1.681000000000000000e+03 5.937973976135253906e+00 3.647481536865234375e+01 7.100653601810336113e-04 4.083913862705230713e-01 1.227304413914680481e-01 9.704394266009330750e-03
1.682000000000000000e+03 4.074999332427978516e+00 1.077692127227783203e+01 2.590234577655792236e-01 -2.236261814832687378e-01 1.061918679624795914e-02 2.258406952023506165e-02
1.683000000000000000e+03 5.043525218963623047e+00 -1.405651473999023438e+01 2.703118801116943359e+00 3.570761680603027344e+00 1.882164120674133301e+00 4.906281232833862305e-01
1.684000000000000000e+03 5.269556045532226562e+00 -6.352294445037841797e+00 -5.523775219917297363e-01 1.789102435111999512e+00 3.710174858570098877e-01 -3.388378024101257324e-01
1.685000000000000000e+03 6.697309970855712891e+00 -3.072927665710449219e+01 -4.816722869873046875e-01 3.134831905364990234e+00 7.959479093551635742e-01 4.566901326179504395e-01
1.686000000000000000e+03 4.933070659637451172e+00 -2.978331756591796875e+01 -3.668801486492156982e-01 3.145612955093383789e+00 8.336198329925537109e-01 5.934772491455078125e-01
1.687000000000000000e+03 3.903599739074707031e+00 -3.147018051147460938e+01 -1.937849670648574829e-01 3.189502954483032227e+00 8.987153768539428711e-01 4.123094677925109863e-01
1.688000000000000000e+03 4.826173305511474609e+00 2.842962074279785156e+01 -7.060916721820831299e-02 3.896221816539764404e-01 9.570390731096267700e-02 -8.066546171903610229e-02
1.689000000000000000e+03 3.742012739181518555e+00 3.475678253173828125e+01 -2.271398669108748436e-03 3.194978237152099609e-01 9.516793489456176758e-02 5.836523487232625484e-04
1.690000000000000000e+03 6.121786117553710938e+00 3.392863845825195312e+01 -2.991086058318614960e-02 4.557993113994598389e-01 1.277665346860885620e-01 5.542832426726818085e-03
1.691000000000000000e+03 5.139482498168945312e+00 3.528535079956054688e+01 3.947077319025993347e-03 3.852317929267883301e-01 1.167536601424217224e-01 1.160407252609729767e-02
1.692000000000000000e+03 4.267827033996582031e+00 8.322770118713378906e+00 2.723349034786224365e-01 -1.870900541543960571e-01 2.557345665991306305e-02 2.763803601264953613e-01
1.693000000000000000e+03 1.400390911102294922e+01 -2.683033943176269531e+01 -4.824309349060058594e-01 2.285234451293945312e+00 5.408410429954528809e-01 -4.572491943836212158e-01
1.694000000000000000e+03 3.849521875381469727e+00 5.261964321136474609e+00 5.715085938572883606e-02 -2.097958475351333618e-01 -4.579349607229232788e-02 4.661040306091308594e-01
1.695000000000000000e+03 3.528685331344604492e+00 -4.787245750427246094e+00 -3.008791804313659668e-01 2.538387775421142578e-01 -1.411211490631103516e-02 -6.809822916984558105e-01
1.696000000000000000e+03 2.502194404602050781e+00 -6.617204666137695312e+00 -1.287963986396789551e-01 -4.103570580482482910e-01 -1.617460399866104126e-01 -8.801382184028625488e-01
1.697000000000000000e+03 6.573325347900390625e+01 -2.451649856567382812e+01 -9.349532127380371094e-01 5.241740226745605469e+00 1.292036056518554688e+00 6.361509561538696289e-01
1.698000000000000000e+03 5.566405105590820312e+01 -3.199541854858398438e+01 -4.119936823844909668e-01 4.256845638155937195e-02 -1.108275651931762695e-01 -2.548582851886749268e-01
1.699000000000000000e+03 5.241862487792968750e+01 -9.514122962951660156e+00 -2.264486074447631836e+00 -2.283563017845153809e-01 -7.478526830673217773e-01 -9.628726840019226074e-01
1.700000000000000000e+03 5.552165985107421875e+01 -3.370556640625000000e+01 -9.837364405393600464e-02 1.956949383020401001e-01 2.919638715684413910e-02 -1.722453236579895020e-01
1.701000000000000000e+03 6.905570507049560547e+00 -1.587519645690917969e+01 2.251401901245117188e+00 8.283379554748535156e+00 3.160434484481811523e+00 1.820310711860656738e+00
1.702000000000000000e+03 6.163957595825195312e+01 -4.403010368347167969e+00 -1.316957950592041016e+00 -1.533382833003997803e-01 -4.410888850688934326e-01 -1.501334786415100098e+00
1.703000000000000000e+03 4.904301452636718750e+01 2.661516904830932617e+00 8.860082030296325684e-01 2.448793649673461914e-01 3.392662703990936279e-01 -1.450714319944381714e-01
1.704000000000000000e+03 4.799704360961914062e+01 3.548363924026489258e+00 1.022513866424560547e+00 3.335970640182495117e-01 4.068332612514495850e-01 -1.367533802986145020e-01
1.705000000000000000e+03 8.951259613037109375e+00 -2.061603164672851562e+01 -8.067828416824340820e-01 6.564129352569580078e+00 1.727203965187072754e+00 -8.666955679655075073e-02
1.706000000000000000e+03 1.314560413360595703e+01 5.029561996459960938e+00 -6.558234095573425293e-01 3.325214147567749023e+00 8.008172512054443359e-01 -8.206598758697509766e-01
1.707000000000000000e+03 2.060557746887207031e+01 -3.277462768554687500e+01 -2.693902850151062012e-01 5.540472269058227539e-01 8.539708703756332397e-02 -9.652788192033767700e-02
1.708000000000000000e+03 5.384819793701171875e+01 4.721934795379638672e+00 9.722087383270263672e-01 4.380585253238677979e-01 4.230801761150360107e-01 -7.851480692625045776e-02
1.709000000000000000e+03 5.629836654663085938e+01 3.282395601272583008e+00 6.022161245346069336e-01 7.857673168182373047e-01 4.163950383663177490e-01 -4.988085031509399414e-01
1.710000000000000000e+03 2.138114738464355469e+01 -3.051123237609863281e+01 -3.480688333511352539e-01 2.594217061996459961e-01 -2.659413591027259827e-02 -1.334620174020528793e-02
1.711000000000000000e+03 4.271247482299804688e+01 6.757682323455810547e+00 1.028569221496582031e+00 4.827347397804260254e-01 4.533911943435668945e-01 -1.212252303957939148e-01
1.712000000000000000e+03 4.209580230712890625e+01 4.326277256011962891e+00 1.096650958061218262e+00 3.697483837604522705e-01 4.399197995662689209e-01 -4.415105649968609214e-05
1.713000000000000000e+03 1.084659099578857422e+01 1.251530170440673828e+01 7.950865626335144043e-01 2.268425226211547852e+00 9.190535545349121094e-01 -2.843930721282958984e-01
1.714000000000000000e+03 1.074025154113769531e+01 1.063039112091064453e+01 9.585328102111816406e-01 2.258960008621215820e+00 9.652478098869323730e-01 -2.241699695587158203e-01
1.715000000000000000e+03 5.840436935424804688e+01 1.192831420898437500e+01 6.037912964820861816e-01 2.957864761352539062e+00 1.068496823310852051e+00 -8.589892387390136719e-01
1.716000000000000000e+03 4.167504882812500000e+01 8.294584274291992188e+00 6.807627677917480469e-01 9.276953339576721191e-01 4.825374186038970947e-01 6.076171621680259705e-02
1.717000000000000000e+03 3.212000274658203125e+01 -3.562451553344726562e+01 -3.716150820255279541e-01 -1.326746195554733276e-01 -1.512869149446487427e-01 1.453439891338348389e-01
1.718000000000000000e+03 6.261847305297851562e+01 -2.628820991516113281e+01 -8.358407616615295410e-01 2.502875804901123047e+00 5.001105070114135742e-01 4.419574737548828125e-01
1.719000000000000000e+03 5.888331985473632812e+01 -3.050829315185546875e+01 -4.799722135066986084e-01 9.348643422126770020e-01 1.364676356315612793e-01 6.645353138446807861e-02
1.720000000000000000e+03 4.542464065551757812e+01 -3.780725479125976562e+01 -1.005186215043067932e-01 -4.310853481292724609e-01 -1.594811975955963135e-01 -2.397521287202835083e-01
1.721000000000000000e+03 3.795195770263671875e+01 -3.495064544677734375e+01 -4.436898529529571533e-01 -1.167611703276634216e-01 -1.681353151798248291e-01 -4.056688398122787476e-02
1.722000000000000000e+03 3.827936553955078125e+01 -4.097288131713867188e+01 -2.054173946380615234e-01 -2.929749786853790283e-01 -1.495177149772644043e-01 -1.678597764112055302e-03
1.723000000000000000e+03 2.756342697143554688e+01 1.385738372802734375e+01 -3.591217994689941406e-01 2.780603170394897461e+00 7.264444231986999512e-01 9.828845858573913574e-01
1.724000000000000000e+03 2.182709121704101562e+01 -1.095392227172851562e+01 -3.652233600616455078e+00 8.394383788108825684e-01 -8.438386321067810059e-01 -1.660261070355772972e-03
1.725000000000000000e+03 5.573361968994140625e+01 -3.603068923950195312e+01 2.501765191555023193e-01 4.768724739551544189e-01 2.181146889925003052e-01 -1.005342677235603333e-01
1.726000000000000000e+03 6.567946624755859375e+01 -2.396553993225097656e+00 -8.401645421981811523e-01 4.590541362762451172e+00 1.125113010406494141e+00 -3.488589525222778320e+00
1.727000000000000000e+03 6.479467010498046875e+01 -4.790248394012451172e+00 -1.872561126947402954e-01 1.089991092681884766e+00 2.708204984664916992e-01 -3.692854881286621094e+00
1.728000000000000000e+03 7.123170471191406250e+01 -9.244548797607421875e+00 3.110021591186523438e+00 1.293096637725830078e+01 4.812296390533447266e+00 4.972325861454010010e-01
1.729000000000000000e+03 7.094436645507812500e+01 -8.071971893310546875e+00 2.178789138793945312e+00 1.388459110260009766e+01 4.819014072418212891e+00 4.210217595100402832e-01
1.730000000000000000e+03 5.204858779907226562e+01 -3.634661102294921875e+01 1.214113458991050720e-01 -2.466315329074859619e-01 -3.756605833768844604e-02 -2.939637899398803711e-01
1.731000000000000000e+03 7.270490264892578125e+01 -1.778693008422851562e+01 -3.621367812156677246e-01 1.061368083953857422e+01 3.075463294982910156e+00 -1.525593280792236328e+00
1.732000000000000000e+03 7.156255340576171875e+01 -1.532352352142333984e+01 5.781499743461608887e-01 1.235911750793457031e+01 3.881180286407470703e+00 -1.272235870361328125e+00
1.733000000000000000e+03 6.949154663085937500e+01 -5.870483875274658203e+00 -6.829121708869934082e-01 1.341031742095947266e+01 3.818221569061279297e+00 -1.252181768417358398e+00
1.734000000000000000e+03 6.778668975830078125e+01 -3.185503482818603516e+00 -1.926156759262084961e+00 8.213603019714355469e+00 1.886233806610107422e+00 -3.251913309097290039e+00
1.735000000000000000e+03 4.349192428588867188e+01 5.488686084747314453e+00 1.153918504714965820e+00 2.882259190082550049e-01 4.326433241367340088e-01 -1.501710116863250732e-01
1.736000000000000000e+03 1.072080135345458984e+01 -2.317143440246582031e+01 -7.367759943008422852e-01 4.500804424285888672e+00 1.129208564758300781e+00 -4.878825247287750244e-01
1.737000000000000000e+03 5.938752746582031250e+01 1.411449146270751953e+01 7.898805141448974609e-01 3.281346321105957031e+00 1.221368074417114258e+00 -1.001762509346008301e+00
1.738000000000000000e+03 6.871649169921875000e+01 -1.788681793212890625e+01 -4.012510776519775391e-01 1.104995727539062500e+01 3.194612026214599609e+00 8.784526586532592773e-01
1.739000000000000000e+03 7.350048065185546875e+01 -1.642391586303710938e+01 2.678373157978057861e-01 1.050509738922119141e+01 3.231880426406860352e+00 -1.747483015060424805e+00
1.740000000000000000e+03 6.875972747802734375e+01 -1.989491081237792969e+01 -9.296635985374450684e-01 9.456360816955566406e+00 2.558009147644042969e+00 4.293949604034423828e-01
1.741000000000000000e+03 7.109941864013671875e+01 -1.900952148437500000e+01 -8.098364472389221191e-01 1.037381744384765625e+01 2.869194269180297852e+00 -1.025255084037780762e+00
1.742000000000000000e+03 6.954140472412109375e+01 -1.890387153625488281e+01 -7.269980311393737793e-01 1.009082889556884766e+01 2.809149265289306641e+00 -1.335473805665969849e-01
1.743000000000000000e+03 5.140625762939453125e+01 2.292311668395996094e+01 1.107233643531799316e+00 1.554877877235412598e+00 7.986334562301635742e-01 -2.879354953765869141e-01
1.744000000000000000e+03 4.526699447631835938e+01 2.350507545471191406e+01 8.513880968093872070e-01 1.688794016838073730e+00 7.620546221733093262e-01 6.089351177215576172e-01
1.745000000000000000e+03 8.547008514404296875e+00 -1.771886253356933594e+01 3.925510644912719727e-01 9.251416206359863281e+00 2.893190145492553711e+00 4.198957383632659912e-01
1.746000000000000000e+03 7.858105659484863281e+00 -1.846315574645996094e+01 5.534808710217475891e-02 7.927886962890625000e+00 2.394970417022705078e+00 7.347079515457153320e-01
1.747000000000000000e+03 2.568169593811035156e+01 4.052359104156494141e+00 2.429940223693847656e+00 3.671122074127197266e+00 1.830318689346313477e+00 1.991929292678833008e+00
1.748000000000000000e+03 2.695582962036132812e+01 -1.373168849945068359e+01 -3.709941387176513672e+00 5.291482806205749512e-01 -9.542379379272460938e-01 1.448960453271865845e-01
1.749000000000000000e+03 2.575990295410156250e+01 -1.341215610504150391e+01 -3.932580471038818359e+00 5.759650468826293945e-01 -1.006984591484069824e+00 2.243178039789199829e-01
1.750000000000000000e+03 2.264825439453125000e+01 2.474446058273315430e+00 2.174069881439208984e+00 2.576673507690429688e+00 1.425222992897033691e+00 3.683198690414428711e+00
1.751000000000000000e+03 2.519548988342285156e+01 1.768890619277954102e+00 2.339494705200195312e+00 2.748550891876220703e+00 1.526413679122924805e+00 2.324875354766845703e+00
1.752000000000000000e+03 5.971180343627929688e+01 1.133522796630859375e+01 5.208774209022521973e-01 3.165395259857177734e+00 1.105881810188293457e+00 -9.942815303802490234e-01
1.753000000000000000e+03 6.021485137939453125e+01 1.238990497589111328e+01 6.438109874725341797e-01 3.227277994155883789e+00 1.161326646804809570e+00 -1.072179436683654785e+00
1.754000000000000000e+03 2.073179626464843750e+01 2.122896957397460938e+01 -1.880753785371780396e-02 4.796462059020996094e-01 1.382516026496887207e-01 5.413364768028259277e-01
1.755000000000000000e+03 2.134216880798339844e+01 1.959119796752929688e+01 -1.848535239696502686e-01 1.653016209602355957e-01 -5.865574348717927933e-03 3.763539791107177734e-01
1.756000000000000000e+03 7.210507202148437500e+01 -1.150834083557128906e+01 2.784533023834228516e+00 1.261751747131347656e+01 4.620615005493164062e+00 -7.896117568016052246e-01
1.757000000000000000e+03 2.200888061523437500e+01 -1.309189891815185547e+01 -5.287325382232666016e+00 3.687462508678436279e-01 -1.475573778152465820e+00 8.263830542564392090e-01
1.758000000000000000e+03 2.599990844726562500e+01 1.934972190856933594e+01 -3.776603639125823975e-01 1.252858400344848633e+00 2.625594139099121094e-01 1.031095609068870544e-01
1.759000000000000000e+03 2.490160942077636719e+01 1.954767990112304688e+01 -2.857577502727508545e-01 9.510924816131591797e-01 1.996004283428192139e-01 5.887211486697196960e-02
1.760000000000000000e+03 1.995049285888671875e+01 -3.444129562377929688e+01 -2.254717051982879639e-01 7.475096583366394043e-01 1.566113829612731934e-01 -1.110291630029678345e-01
1.761000000000000000e+03 6.573110580444335938e+00 1.740044403076171875e+01 3.072070889174938202e-02 7.176610231399536133e-01 2.245145142078399658e-01 -4.521413743495941162e-01
1.762000000000000000e+03 7.260204315185546875e+01 -1.446300697326660156e+01 1.102093100547790527e+00 1.120474815368652344e+01 3.692052364349365234e+00 -1.659650564193725586e+00
1.763000000000000000e+03 5.536129379272460938e+01 2.415277862548828125e+01 7.732759118080139160e-01 2.568328619003295898e+00 1.002481341361999512e+00 -6.147080063819885254e-01
1.764000000000000000e+03 5.438238143920898438e+01 2.179899787902832031e+01 8.354438543319702148e-01 2.233204841613769531e+00 9.205946326255798340e-01 -7.694133520126342773e-01
1.765000000000000000e+03 5.107107543945312500e+01 2.498737716674804688e+01 1.003412842750549316e+00 1.846020460128784180e+00 8.548299670219421387e-01 -1.820505261421203613e-01
1.766000000000000000e+03 3.708641433715820312e+01 1.330570983886718750e+01 8.808659911155700684e-01 1.803696751594543457e+00 8.053687810897827148e-01 1.253249406814575195e+00
1.767000000000000000e+03 7.243261718750000000e+01 -8.836056709289550781e+00 2.328294038772583008e+00 1.160122585296630859e+01 4.178855895996093750e+00 3.849228024482727051e-01
1.768000000000000000e+03 3.016208076477050781e+01 8.019151687622070312e+00 2.143054485321044922e+00 2.280277013778686523e+00 1.326999425888061523e+00 1.730855822563171387e+00
1.769000000000000000e+03 2.772352409362792969e+01 9.569861412048339844e+00 1.618953227996826172e+00 3.339019775390625000e+00 1.487391829490661621e+00 1.756785273551940918e+00
1.770000000000000000e+03 2.807851028442382812e+01 1.723861694335937500e+01 -4.849347174167633057e-01 1.935896039009094238e+00 4.352883994579315186e-01 4.867251217365264893e-01
1.771000000000000000e+03 1.669862747192382812e+01 1.805453300476074219e+01 -3.568088412284851074e-01 1.539861917495727539e+00 3.549159169197082520e-01 1.118046641349792480e+00
1.772000000000000000e+03 4.502087783813476562e+01 2.177377510070800781e+01 8.658568859100341797e-01 1.669633507728576660e+00 7.606471180915832520e-01 8.199175000190734863e-01
1.773000000000000000e+03 1.802883911132812500e+01 2.037036895751953125e+01 -2.260235846042633057e-01 8.328093886375427246e-01 1.820357441902160645e-01 8.582818508148193359e-01
1.774000000000000000e+03 1.379125404357910156e+01 1.900715065002441406e+01 -5.282794237136840820e-01 2.056346178054809570e+00 4.584200084209442139e-01 3.225747644901275635e-01
1.775000000000000000e+03 4.026409149169921875e+01 1.157625389099121094e+01 6.305828690528869629e-01 1.810405015945434570e+00 7.322963476181030273e-01 9.129945635795593262e-01
1.776000000000000000e+03 1.338584041595458984e+01 -3.322244882583618164e+00 6.214925765991210938e+00 7.248727083206176758e-01 2.081939458847045898e+00 4.072024822235107422e+00
1.777000000000000000e+03 1.506957149505615234e+01 -3.338876008987426758e+00 7.679555892944335938e+00 7.738634586334228516e+00 4.625457286834716797e+00 6.655290603637695312e+00
1.778000000000000000e+03 1.519325637817382812e+01 -4.084625244140625000e+00 4.828789710998535156e+00 7.165493965148925781e+00 3.598285198211669922e+00 5.509745597839355469e+00
1.779000000000000000e+03 1.704385757446289062e+01 2.009271532297134399e-01 2.415536880493164062e+00 8.185614585876464844e+00 3.180345535278320312e+00 2.276956319808959961e+00
1.780000000000000000e+03 1.710117340087890625e+01 -3.394664525985717773e+00 7.651439666748046875e+00 8.346463203430175781e+00 4.799370765686035156e+00 1.175395306199789047e-02
1.781000000000000000e+03 1.823234176635742188e+01 -2.820226430892944336e+00 8.853097915649414062e+00 4.362279415130615234e+00 3.964612960815429688e+00 6.673999428749084473e-01
1.782000000000000000e+03 1.798409271240234375e+01 -8.833620548248291016e-01 7.407136440277099609e+00 5.497041225433349609e+00 3.871253252029418945e+00 4.194405555725097656e+00
1.783000000000000000e+03 1.830633544921875000e+01 -1.329602241516113281e+00 8.617051124572753906e+00 4.345400810241699219e+00 3.888735771179199219e+00 3.588076114654541016e+00
1.784000000000000000e+03 1.786065483093261719e+01 -2.853659391403198242e+00 9.413436889648437500e+00 5.429746150970458984e+00 4.452955245971679688e+00 3.468136787414550781e-01
1.785000000000000000e+03 1.876929855346679688e+01 2.405709981918334961e+00 1.190142631530761719e+00 1.837424755096435547e+00 9.082702398300170898e-01 2.334224224090576172e+00
1.786000000000000000e+03 1.154372692108154297e+01 -3.316964149475097656e+00 3.169670820236206055e+00 1.367753148078918457e-01 9.919338822364807129e-01 2.639795780181884766e+00
1.787000000000000000e+03 1.206245899200439453e+01 -3.336174488067626953e+00 3.939908504486083984e+00 -1.386531908065080643e-02 1.177812933921813965e+00 2.965617179870605469e+00
1.788000000000000000e+03 1.093336868286132812e+01 -3.307402372360229492e+00 2.446696519851684570e+00 1.615442484617233276e-01 7.824721932411193848e-01 2.374964475631713867e+00
1.789000000000000000e+03 1.391038990020751953e+01 1.093650937080383301e+00 3.872449696063995361e-01 2.390464544296264648e+00 8.333128690719604492e-01 -2.198080539703369141e+00
1.790000000000000000e+03 1.464656448364257812e+01 1.287537217140197754e+00 1.385123431682586670e-01 3.782060146331787109e+00 1.176171779632568359e+00 -2.443626165390014648e+00
1.791000000000000000e+03 1.516521358489990234e+01 3.184754610061645508e+00 -1.411121129989624023e+00 3.947072029113769531e+00 7.607852816581726074e-01 -1.966759562492370605e+00
1.792000000000000000e+03 1.449493694305419922e+01 2.561738729476928711e+00 -7.711195349693298340e-01 3.514556407928466797e+00 8.230310678482055664e-01 -2.233417987823486328e+00
1.793000000000000000e+03 1.391561508178710938e+01 1.900657415390014648e+00 -2.991262376308441162e-01 2.886447191238403320e+00 7.761963009834289551e-01 -2.203631639480590820e+00
1.794000000000000000e+03 5.053446292877197266e+00 -4.883100986480712891e+00 -4.110471606254577637e-01 1.034620761871337891e+00 1.870720684528350830e-01 -3.658552765846252441e-01
1.795000000000000000e+03 3.623545646667480469e+00 -3.306191444396972656e+00 -2.782193422317504883e-01 1.084877401590347290e-01 -5.091947689652442932e-02 -5.367960929870605469e-01
1.796000000000000000e+03 3.493939399719238281e+00 -6.663024425506591797e+00 -3.306632339954376221e-01 5.266674757003784180e-01 5.880127847194671631e-02 -9.370479583740234375e-01
1.797000000000000000e+03 7.375524520874023438e+00 -4.252032756805419922e+00 -4.928183928132057190e-02 1.251772403717041016e+00 3.607471883296966553e-01 8.934072852134704590e-01
1.798000000000000000e+03 5.815670967102050781e+00 -4.164391994476318359e+00 -3.363712430000305176e-01 9.836953282356262207e-01 1.941972225904464722e-01 3.202668449375778437e-04
1.799000000000000000e+03 9.035693168640136719e+00 -4.899302482604980469e+00 4.226908385753631592e-01 1.848123431205749512e+00 6.812443137168884277e-01 2.510719060897827148e+00
1.800000000000000000e+03 5.803522586822509766e+00 -4.949782848358154297e+00 -3.667626082897186279e-01 1.425591468811035156e+00 3.176486492156982422e-01 1.642682254314422607e-01
1.801000000000000000e+03 6.576772212982177734e+00 -5.032937049865722656e+00 -3.948000371456146240e-01 1.670238852500915527e+00 3.826316297054290771e-01 4.840160906314849854e-01
1.802000000000000000e+03 5.876574516296386719e+00 5.077378749847412109e+00 9.520269930362701416e-02 7.667773962020874023e-02 5.156413465738296509e-02 4.779081344604492188e-01
1.803000000000000000e+03 2.962988853454589844e+00 5.916732311248779297e+00 6.665091961622238159e-02 -3.892287313938140869e-01 -9.677334874868392944e-02 4.019398987293243408e-01
1.804000000000000000e+03 4.999612808227539062e+00 4.457803249359130859e+00 -1.995134400203824043e-03 -7.394377142190933228e-02 -2.278167195618152618e-02 5.090185999870300293e-01
1.805000000000000000e+03 3.680104017257690430e+00 6.825072288513183594e+00 1.425774544477462769e-01 -3.071616291999816895e-01 -4.937525466084480286e-02 3.850556015968322754e-01
1.806000000000000000e+03 3.497275829315185547e+00 4.539470195770263672e+00 -1.884812675416469574e-02 -2.482669800519943237e-01 -8.013453334569931030e-02 4.644878208637237549e-01
1.807000000000000000e+03 7.751004219055175781e+00 5.480377197265625000e+00 2.171327918767929077e-01 5.082141160964965820e-01 2.176040709018707275e-01 3.194266855716705322e-01
1.808000000000000000e+03 7.320620059967041016e+00 4.157601356506347656e+00 -2.951775491237640381e-02 2.489011436700820923e-01 6.581501662731170654e-02 4.024732708930969238e-01
1.809000000000000000e+03 8.078078269958496094e+00 4.137470245361328125e+00 -2.699380181729793549e-02 4.302051961421966553e-01 1.209634169936180115e-01 2.963036000728607178e-01
1.810000000000000000e+03 8.799173355102539062e+00 5.015143871307373047e+00 1.360410004854202271e-01 7.920489907264709473e-01 2.784270048141479492e-01 1.554755866527557373e-01
1.811000000000000000e+03 2.305296897888183594e+01 1.618285775184631348e+00 2.642329216003417969e+00 2.411511182785034180e+00 1.516152024269104004e+00 3.473086595535278320e+00
1.812000000000000000e+03 1.682905960083007812e+01 -9.841693878173828125e+00 -3.786814689636230469e+00 5.435123443603515625e-01 -9.729906916618347168e-01 1.653329491615295410e+00
1.813000000000000000e+03 1.719528961181640625e+01 2.633251905441284180e+00 -7.686748504638671875e-01 3.798287153244018555e+00 9.088836908340454102e-01 -3.615500032901763916e-01
1.814000000000000000e+03 1.580937767028808594e+01 -9.653488159179687500e+00 -3.095681190490722656e+00 1.749521046876907349e-01 -8.762187361717224121e-01 2.723461151123046875e+00
1.815000000000000000e+03 1.033074378967285156e+01 4.107529163360595703e+00 -9.508631378412246704e-02 1.166259646415710449e+00 3.213520050048828125e-01 -2.651423513889312744e-01
1.816000000000000000e+03 1.138891124725341797e+01 4.754033088684082031e+00 -1.166334524750709534e-01 1.906505823135375977e+00 5.369617342948913574e-01 -4.927769005298614502e-01
1.817000000000000000e+03 1.285419845581054688e+01 3.628705501556396484e+00 -6.430680751800537109e-01 2.724472522735595703e+00 6.244212985038757324e-01 -1.293084621429443359e+00
1.818000000000000000e+03 8.915944099426269531e+00 -4.157910823822021484e+00 6.247032880783081055e-01 1.141246795654296875e+00 5.297850370407104492e-01 1.889375209808349609e+00
1.819000000000000000e+03 5.970054626464843750e+00 -8.887923240661621094e+00 -8.112359642982482910e-01 4.302180767059326172e+00 1.047283530235290527e+00 -5.780558586120605469e-01
1.820000000000000000e+03 1.756190490722656250e+01 3.338579416275024414e+00 -1.114165902137756348e+00 2.080963134765625000e+00 2.900391221046447754e-01 -2.644767463207244873e-01
1.821000000000000000e+03 1.589647293090820312e+01 3.079541683197021484e+00 -1.189368605613708496e+00 3.989847660064697266e+00 8.401437401771545410e-01 -1.666828393936157227e+00
1.822000000000000000e+03 5.314827442169189453e+00 -1.604448318481445312e+01 1.759642720222473145e+00 4.733792781829833984e+00 1.948030710220336914e+00 1.782936453819274902e+00
1.823000000000000000e+03 9.229989051818847656e+00 6.316038608551025391e+00 3.498070836067199707e-01 1.145796298980712891e+00 4.486809968948364258e-01 1.051817610859870911e-01
1.824000000000000000e+03 1.398325443267822266e+01 2.500247955322265625e+00 -6.597216725349426270e-01 3.168566226959228516e+00 7.526533603668212891e-01 -2.113444328308105469e+00
1.825000000000000000e+03 2.033126640319824219e+01 -1.060172557830810547e+01 -3.886322498321533203e+00 7.762221693992614746e-01 -9.330301284790039062e-01 2.501042783260345459e-01
1.826000000000000000e+03 4.225051498413085938e+01 5.579849243164062500e+00 1.029682636260986328e+00 4.528598189353942871e-01 4.447627365589141846e-01 -1.635076850652694702e-02
1.827000000000000000e+03 4.331022644042968750e+01 4.333055019378662109e+00 1.077694296836853027e+00 2.465182691812515259e-01 3.972637951374053955e-01 -4.910523816943168640e-02
1.828000000000000000e+03 5.089406967163085938e+00 1.072607612609863281e+01 3.518290519714355469e-01 4.036191105842590332e-02 1.176572889089584351e-01 5.867576692253351212e-03
1.829000000000000000e+03 1.048106670379638672e+01 9.825995445251464844e+00 9.366409182548522949e-01 2.116148948669433594e+00 9.158369302749633789e-01 -1.155072748661041260e-01
1.830000000000000000e+03 4.734267044067382812e+01 2.262416362762451172e+00 7.668750286102294922e-01 1.954899430274963379e-01 2.887094914913177490e-01 -4.229580610990524292e-02
1.831000000000000000e+03 6.141651153564453125e+01 -1.748843789100646973e+00 -7.608541846275329590e-02 7.451018691062927246e-01 2.007049322128295898e-01 -1.689193129539489746e+00
1.832000000000000000e+03 2.577742004394531250e+01 2.492991685867309570e+00 2.271787166595458984e+00 2.906155109405517578e+00 1.553382635116577148e+00 2.050429105758666992e+00
1.833000000000000000e+03 8.159785270690917969e+00 -4.229434490203857422e+00 2.240484803915023804e-01 1.364268422126770020e+00 4.764950871467590332e-01 1.488493204116821289e+00
1.834000000000000000e+03 1.447527122497558594e+01 3.200878858566284180e+00 -1.178894639015197754e+00 3.617812395095825195e+00 7.316753268241882324e-01 -1.954057097434997559e+00
1.835000000000000000e+03 1.890024566650390625e+01 1.811372399330139160e+00 1.898034334182739258e+00 2.493422269821166992e+00 1.317436933517456055e+00 2.791302680969238281e+00
1.836000000000000000e+03 5.029725265502929688e+01 -1.102595615386962891e+01 -2.274525165557861328e+00 -1.854522377252578735e-01 -7.379931807518005371e-01 -9.727718830108642578e-01
1.837000000000000000e+03 4.780547714233398438e+01 -1.067752552032470703e+01 -2.054430961608886719e+00 -3.907752223312854767e-03 -6.175016164779663086e-01 -8.237026333808898926e-01
1.838000000000000000e+03 1.389363479614257812e+01 5.417014122009277344e+00 -7.590928673744201660e-01 3.906937360763549805e+00 9.443533420562744141e-01 -8.595715761184692383e-01
1.839000000000000000e+03 3.939360046386718750e+01 9.042178153991699219e+00 8.377190232276916504e-01 1.300795197486877441e+00 6.415542960166931152e-01 6.208563446998596191e-01
1.840000000000000000e+03 1.991713905334472656e+01 1.695146083831787109e+00 2.478564023971557617e+00 2.017470598220825195e+00 1.348810434341430664e+00 3.749062538146972656e+00
1.841000000000000000e+03 2.081585884094238281e+01 2.066132307052612305e+00 2.356714963912963867e+00 1.634898424148559570e+00 1.197484016418457031e+00 3.950505971908569336e+00
1.842000000000000000e+03 5.999333190917968750e+01 1.527567481994628906e+01 7.994275093078613281e-01 3.339570760726928711e+00 1.241699457168579102e+00 -9.012410044670104980e-01
1.843000000000000000e+03 3.197982215881347656e+01 -1.333922195434570312e+01 -2.717506647109985352e+00 5.001586675643920898e-01 -6.652043461799621582e-01 -3.240283429622650146e-01
1.844000000000000000e+03 2.547996711730957031e+01 -1.096018028259277344e+01 -2.690556764602661133e+00 7.910670638084411621e-01 -5.698469281196594238e-01 -3.601267039775848389e-01
1.845000000000000000e+03 1.791715621948242188e+01 -9.882420539855957031e+00 -3.721135139465332031e+00 9.068927168846130371e-01 -8.442727327346801758e-01 1.086928725242614746e+00
1.846000000000000000e+03 1.795472145080566406e+01 -1.096582221984863281e+01 -5.342808246612548828e+00 3.523398339748382568e-01 -1.497140526771545410e+00 1.289239287376403809e+00
1.847000000000000000e+03 5.176249694824218750e+01 1.566949844360351562e+00 5.536527633666992188e-01 1.840563267469406128e-01 2.213127315044403076e-01 -2.186663895845413208e-01
1.848000000000000000e+03 5.458925247192382812e+01 3.576512336730957031e+00 7.546666264533996582e-01 5.382531285285949707e-01 3.878759145736694336e-01 -2.597449719905853271e-01
1.849000000000000000e+03 7.278964042663574219e+00 -1.137451648712158203e+01 9.517680406570434570e-01 8.543326377868652344e+00 2.848528385162353516e+00 -5.032184720039367676e-02
1.850000000000000000e+03 8.508494377136230469e+00 5.845313549041748047e+00 3.052735626697540283e-01 8.371812105178833008e-01 3.427364230155944824e-01 2.070974260568618774e-01
1.851000000000000000e+03 3.838308334350585938e+01 -1.310166358947753906e+01 -2.249948501586914062e+00 3.417474925518035889e-01 -5.724602937698364258e-01 -5.769696235656738281e-01
1.852000000000000000e+03 5.159005355834960938e+01 -8.618988037109375000e+00 -2.051651716232299805e+00 -1.176564022898674011e-01 -6.507924199104309082e-01 -8.151446580886840820e-01
1.853000000000000000e+03 5.072006988525390625e+01 -9.383112907409667969e+00 -2.097039222717285156e+00 -1.107984930276870728e-01 -6.623512506484985352e-01 -8.526502251625061035e-01
1.854000000000000000e+03 1.043997192382812500e+01 1.459895133972167969e+01 3.993248045444488525e-01 2.016134023666381836e+00 7.246376276016235352e-01 -4.012411534786224365e-01
1.855000000000000000e+03 1.067913341522216797e+01 1.352622890472412109e+01 6.283820867538452148e-01 2.163107156753540039e+00 8.374467492103576660e-01 -3.822775185108184814e-01
1.856000000000000000e+03 4.676695632934570312e+01 2.291747093200683594e+01 1.023731350898742676e+00 1.461308121681213379e+00 7.455118298530578613e-01 5.551725029945373535e-01
1.857000000000000000e+03 4.118508911132812500e+01 2.227964210510253906e+01 5.991621017456054688e-01 2.023930311203002930e+00 7.869277000427246094e-01 6.907984614372253418e-01
1.858000000000000000e+03 1.294917869567871094e+01 -9.045878410339355469e+00 -1.259261846542358398e+00 7.366980910301208496e-01 -1.567691266536712646e-01 5.937650680541992188e+00
1.859000000000000000e+03 7.075331878662109375e+01 -6.881413936614990234e+00 1.105115175247192383e+00 1.263434791564941406e+01 4.121839046478271484e+00 4.335696399211883545e-01
1.860000000000000000e+03 7.365684509277343750e+01 -3.704173088073730469e+00 -7.069628238677978516e-01 9.745381355285644531e+00 2.711525440216064453e+00 1.024057507514953613e+00
1.861000000000000000e+03 2.426698112487792969e+01 2.438285112380981445e+00 2.255764722824096680e+00 3.108028650283813477e+00 1.609138011932373047e+00 2.945802688598632812e+00
1.862000000000000000e+03 3.981462097167968750e+01 -1.298056221008300781e+01 -2.190065860748291016e+00 2.871097922325134277e-01 -5.708867907524108887e-01 -6.134505867958068848e-01
1.863000000000000000e+03 3.843834686279296875e+01 -1.171248912811279297e+01 -1.972763299942016602e+00 3.652811050415039062e-01 -4.822446703910827637e-01 -6.044328808784484863e-01
1.864000000000000000e+03 6.987936401367187500e+01 -2.679300308227539062e+01 -9.221162796020507812e-01 7.580617427825927734e+00 1.997550368309020996e+00 2.799472771584987640e-03
1.865000000000000000e+03 6.902835845947265625e+01 -2.392720603942871094e+01 -1.163408637046813965e+00 7.928006649017333984e+00 2.029379367828369141e+00 6.222089007496833801e-02
1.866000000000000000e+03 2.448151588439941406e+01 -1.045118904113769531e+01 -2.531955003738403320e+00 8.424130678176879883e-01 -5.068625211715698242e-01 -4.323707520961761475e-01
1.867000000000000000e+03 2.460496520996093750e+01 -1.310676765441894531e+01 -4.219734668731689453e+00 5.759145617485046387e-01 -1.093146085739135742e+00 3.222244679927825928e-01
1.868000000000000000e+03 5.603332901000976562e+01 -7.587942600250244141e+00 -2.492569923400878906e+00 -3.615312278270721436e-01 -8.562303781509399414e-01 -9.762598276138305664e-01
1.869000000000000000e+03 5.330343246459960938e+01 -7.510167598724365234e+00 -2.004125595092773438e+00 -1.578543484210968018e-01 -6.485939621925354004e-01 -7.759196758270263672e-01
1.870000000000000000e+03 4.114975357055664062e+01 -1.281244182586669922e+01 -2.164697885513305664e+00 2.375371605157852173e-01 -5.781482458114624023e-01 -6.498365402221679688e-01
1.871000000000000000e+03 6.677247619628906250e+01 -2.810627460479736328e+00 -1.114769339561462402e+00 6.161901950836181641e+00 1.514139771461486816e+00 -3.821815013885498047e+00
1.872000000000000000e+03 6.719982910156250000e+01 -5.658474922180175781e+00 -2.540446043014526367e+00 9.977841377258300781e+00 2.231218576431274414e+00 -4.786491394042968750e+00
1.873000000000000000e+03 5.207188415527343750e+01 -7.367545604705810547e+00 -1.831955671310424805e+00 -8.282303065061569214e-02 -5.744336247444152832e-01 -6.921543478965759277e-01
1.874000000000000000e+03 3.575860977172851562e+01 -1.413696002960205078e+01 -2.574244499206542969e+00 3.819050788879394531e-01 -6.577018499374389648e-01 -4.338706135749816895e-01
1.875000000000000000e+03 6.892812347412109375e+01 -2.190709304809570312e+01 -1.162917852401733398e+00 8.529310226440429688e+00 2.209917783737182617e+00 1.566700488328933716e-01
1.876000000000000000e+03 6.798532867431640625e+01 -2.094921684265136719e+01 -9.402759671211242676e-01 8.016598701477050781e+00 2.122896671295166016e+00 6.374192237854003906e-01
1.877000000000000000e+03 6.878184509277343750e+01 -3.479770898818969727e+00 -1.764238715171813965e+00 9.282003402709960938e+00 2.255329370498657227e+00 -2.347915887832641602e+00
1.878000000000000000e+03 6.747136688232421875e+01 -4.385833740234375000e+00 -1.279480695724487305e+00 8.091853141784667969e+00 2.043711662292480469e+00 -3.936367511749267578e+00
1.879000000000000000e+03 2.931193161010742188e+01 4.898379325866699219e+00 2.500635862350463867e+00 2.274888992309570312e+00 1.432657480239868164e+00 1.231398344039916992e+00
1.880000000000000000e+03 2.757011604309082031e+01 5.367993354797363281e+00 2.771348953247070312e+00 3.221746206283569336e+00 1.797928571701049805e+00 1.517168045043945312e+00
1.881000000000000000e+03 7.503014373779296875e+01 -3.110406875610351562e+01 -1.633945405483245850e-01 9.556401252746582031e+00 2.817901849746704102e+00 -1.892288625240325928e-01
1.882000000000000000e+03 7.446082305908203125e+01 -2.932393264770507812e+01 -3.447821736335754395e-01 9.177834510803222656e+00 2.649915933609008789e+00 -3.214870095252990723e-01
1.883000000000000000e+03 7.358174896240234375e+01 2.289625167846679688e+01 1.122641116380691528e-01 5.662076473236083984e+00 1.732302188873291016e+00 -4.444824755191802979e-01
1.884000000000000000e+03 7.517369842529296875e+01 2.408407974243164062e+01 6.900864094495773315e-02 5.825477600097656250e+00 1.768345832824707031e+00 -3.279872536659240723e-01
1.885000000000000000e+03 7.065707397460937500e+01 -2.188890457153320312e+01 -1.113904237747192383e+00 9.252684593200683594e+00 2.441633939743041992e+00 -4.643231928348541260e-01
1.886000000000000000e+03 7.548382568359375000e+01 -2.041563224792480469e+01 -4.224055707454681396e-01 9.406124114990234375e+00 2.695115566253662109e+00 -1.542120575904846191e+00
1.887000000000000000e+03 7.418394470214843750e+01 -2.206431961059570312e+01 -6.195957064628601074e-01 9.478507995605468750e+00 2.657673597335815430e+00 -1.258151173591613770e+00
1.888000000000000000e+03 7.544403076171875000e+01 1.252441978454589844e+01 1.651914604008197784e-02 6.784710407257080078e+00 2.040369033813476562e+00 -5.576834082603454590e-01
1.889000000000000000e+03 7.383000183105468750e+01 1.500060462951660156e+01 7.300388067960739136e-02 6.200973987579345703e+00 1.882193326950073242e+00 -6.689683198928833008e-01
1.890000000000000000e+03 7.415598297119140625e+01 8.609025955200195312e+00 -1.190917268395423889e-01 6.913083553314208984e+00 2.038197517395019531e+00 -6.641672849655151367e-01
1.891000000000000000e+03 7.399034118652343750e+01 5.289158821105957031e+00 -3.713844120502471924e-01 7.342458724975585938e+00 2.091322183609008789e+00 -5.376124978065490723e-01
1.892000000000000000e+03 7.374700164794921875e+01 -1.526987075805664062e+01 5.397795438766479492e-01 1.046830940246582031e+01 3.302426576614379883e+00 -1.767168641090393066e+00
1.893000000000000000e+03 7.371537780761718750e+01 -3.418787568807601929e-02 -1.014120817184448242e+00 8.642856597900390625e+00 2.288620710372924805e+00 5.862772464752197266e-02
1.894000000000000000e+03 7.579557037353515625e+01 8.229859173297882080e-02 -5.098404884338378906e-01 8.272083282470703125e+00 2.328672885894775391e+00 4.266892075538635254e-01
1.895000000000000000e+03 7.551442718505859375e+01 2.738394021987915039e+00 -4.190223515033721924e-01 7.946896076202392578e+00 2.258362054824829102e+00 -7.307468354701995850e-02
1.896000000000000000e+03 7.418177795410156250e+01 2.567505645751953125e+01 8.183644711971282959e-02 5.603696346282958984e+00 1.705659866333007812e+00 -3.515059053897857666e-01
1.897000000000000000e+03 7.315296936035156250e+01 -7.398023605346679688e+00 1.168248891830444336e+00 1.073947811126708984e+01 3.572318077087402344e+00 1.011847257614135742e+00
1.898000000000000000e+03 7.303200531005859375e+01 2.631758499145507812e+01 1.101618111133575439e-01 5.438453674316406250e+00 1.664584636688232422e+00 -3.772375881671905518e-01
1.899000000000000000e+03 7.528701782226562500e+01 2.548945617675781250e+01 5.119745433330535889e-02 5.755347251892089844e+00 1.741963386535644531e+00 -2.932560145854949951e-01
1.900000000000000000e+03 7.429096221923828125e+01 1.113659381866455078e+01 -1.444223988801240921e-02 6.672835826873779297e+00 1.997518181800842285e+00 -6.780223250389099121e-01
1.901000000000000000e+03 7.583613586425781250e+01 -5.315188884735107422e+00 2.892403118312358856e-02 8.261636734008789062e+00 2.487168312072753906e+00 1.262299537658691406e+00
1.902000000000000000e+03 7.401763153076171875e+01 -6.800146102905273438e+00 7.041493058204650879e-01 9.625232696533203125e+00 3.098814487457275391e+00 1.414411783218383789e+00
1.903000000000000000e+03 7.274546813964843750e+01 -1.260423183441162109e+01 2.099819183349609375e+00 1.127555465698242188e+01 4.012612342834472656e+00 -1.137270927429199219e+00
1.904000000000000000e+03 7.173996734619140625e+01 -5.414347171783447266e+00 -2.114131003618240356e-01 1.130451488494873047e+01 3.327930450439453125e+00 6.871794462203979492e-01
1.905000000000000000e+03 7.438394927978515625e+01 -1.433404254913330078e+01 1.024635314941406250e+00 9.742454528808593750e+00 3.230126857757568359e+00 -1.698511004447937012e+00
1.906000000000000000e+03 7.495986175537109375e+01 -1.181497383117675781e+01 1.567631483078002930e+00 8.825526237487792969e+00 3.117947340011596680e+00 -7.584262490272521973e-01
1.907000000000000000e+03 7.406188964843750000e+01 -4.782370090484619141e+00 -1.434238702058792114e-01 9.418938636779785156e+00 2.782654285430908203e+00 1.290866732597351074e+00
1.908000000000000000e+03 7.422782897949218750e+01 2.509549856185913086e+00 -6.367638111114501953e-01 7.918566703796386719e+00 2.184540748596191406e+00 -1.965958625078201294e-01
1.909000000000000000e+03 7.469161224365234375e+01 -1.767185783386230469e+01 -6.178994476795196533e-02 9.736356735229492188e+00 2.902369976043701172e+00 -1.826032519340515137e+00
1.910000000000000000e+03 7.574658966064453125e+01 -1.774890136718750000e+01 -1.025366187095642090e-01 8.974197387695312500e+00 2.661498069763183594e+00 -1.818328261375427246e+00
1.911000000000000000e+03 7.570368957519531250e+01 -1.902737808227539062e+01 -2.102846503257751465e-01 9.258812904357910156e+00 2.714558601379394531e+00 -1.657647967338562012e+00
1.912000000000000000e+03 7.485862731933593750e+01 1.808011054992675781e+01 7.794601470232009888e-02 6.171392917633056641e+00 1.874801635742187500e+00 -5.000506043434143066e-01
1.913000000000000000e+03 7.388323974609375000e+01 -2.466506767272949219e+01 -6.420406699180603027e-01 9.234788894653320312e+00 2.577824592590332031e+00 -8.382034897804260254e-01
1.914000000000000000e+03 7.470909881591796875e+01 -2.512709140777587891e+00 -6.687890887260437012e-01 8.848187446594238281e+00 2.453819513320922852e+00 9.804170131683349609e-01
1.915000000000000000e+03 7.359169006347656250e+01 -2.468898534774780273e+00 -9.376251101493835449e-01 9.308247566223144531e+00 2.511186599731445312e+00 5.737863183021545410e-01
1.916000000000000000e+03 7.371128082275390625e+01 -2.633306503295898438e+01 -6.345775127410888672e-01 9.117195129394531250e+00 2.544785261154174805e+00 -6.059552431106567383e-01
1.917000000000000000e+03 7.392592620849609375e+01 7.293483257293701172e+00 -2.241216152906417847e-01 7.066821098327636719e+00 2.052809715270996094e+00 -6.742971539497375488e-01
1.918000000000000000e+03 7.388506317138671875e+01 3.234983444213867188e+01 6.988253444433212280e-02 5.321942329406738281e+00 1.617547392845153809e+00 -2.056260555982589722e-01
1.919000000000000000e+03 7.406856536865234375e+01 1.368431472778320312e+01 5.419336259365081787e-02 6.376410007476806641e+00 1.929181098937988281e+00 -6.768914461135864258e-01
1.920000000000000000e+03 7.336654663085937500e+01 2.133630943298339844e+01 1.172242164611816406e-01 5.697907924652099609e+00 1.744539618492126465e+00 -5.065096020698547363e-01
1.921000000000000000e+03 7.318875885009765625e+01 1.965130424499511719e+01 1.296435296535491943e-01 5.763162136077880859e+00 1.767841815948486328e+00 -5.753087997436523438e-01
1.922000000000000000e+03 7.365253448486328125e+01 2.991081047058105469e+01 8.026624470949172974e-02 5.373416423797607422e+00 1.636104702949523926e+00 -2.667282521724700928e-01
1.923000000000000000e+03 5.728267192840576172e+00 -2.813310241699218750e+01 -5.478691458702087402e-01 3.258475303649902344e+00 8.131818175315856934e-01 7.476825714111328125e-01
1.924000000000000000e+03 4.330763816833496094e+00 -2.620106697082519531e+01 -4.366162419319152832e-01 3.006664276123046875e+00 7.710143923759460449e-01 1.016071677207946777e+00
1.925000000000000000e+03 4.946575641632080078e+00 -1.005805206298828125e+01 -1.006258130073547363e-01 3.268535137176513672e+00 9.503727555274963379e-01 -1.128790736198425293e+00
1.926000000000000000e+03 5.540472507476806641e+00 -2.177272415161132812e+01 -6.798981428146362305e-01 3.859557390213012695e+00 9.538977742195129395e-01 1.706974148750305176e+00
1.927000000000000000e+03 6.218908309936523438e+00 2.548907661437988281e+01 -1.526852101087570190e-01 5.656850337982177734e-01 1.238999441266059875e-01 -1.533107608556747437e-01
1.928000000000000000e+03 5.985834598541259766e+00 2.415501785278320312e+01 -1.571281999349594116e-01 5.577259659767150879e-01 1.201793327927589417e-01 -2.077574878931045532e-01
1.929000000000000000e+03 5.926245117187500000e+01 -5.635043621063232422e+00 -2.051866292953491211e+00 -4.462922215461730957e-01 -7.494475245475769043e-01 -1.030948042869567871e+00
1.930000000000000000e+03 4.061141967773437500e+00 -1.903660011291503906e+01 -3.046649135649204254e-02 2.545478105545043945e+00 7.545034885406494141e-01 2.032963752746582031e+00
1.931000000000000000e+03 6.208397388458251953e+00 -1.688897132873535156e+01 1.368702530860900879e+00 5.896897792816162109e+00 2.179680109024047852e+00 1.881387948989868164e+00
1.932000000000000000e+03 1.102721405029296875e+01 1.715289688110351562e+01 -7.705301791429519653e-02 1.999261379241943359e+00 5.766624808311462402e-01 -2.855739295482635498e-01
1.933000000000000000e+03 1.012046909332275391e+01 1.572798061370849609e+01 2.172595411539077759e-01 1.806872606277465820e+00 6.072396636009216309e-01 -4.097339808940887451e-01
1.934000000000000000e+03 8.833326339721679688e+00 1.544638824462890625e+01 2.552747428417205811e-01 1.388978004455566406e+00 4.932758510112762451e-01 -4.563103318214416504e-01
1.935000000000000000e+03 4.294311046600341797e+00 1.489324855804443359e+01 1.310263127088546753e-01 -2.632025443017482758e-02 3.141181915998458862e-02 -3.092414736747741699e-01
1.936000000000000000e+03 7.746793270111083984e+00 -2.727405357360839844e+01 -7.849606275558471680e-01 3.568676948547363281e+00 8.351148962974548340e-01 6.082531213760375977e-01
1.937000000000000000e+03 6.239416599273681641e+00 2.694507789611816406e+01 -1.306133866310119629e-01 5.450370907783508301e-01 1.243271157145500183e-01 -1.075323894619941711e-01
1.938000000000000000e+03 9.758346557617187500e+00 -2.384475708007812500e+01 -8.558992743492126465e-01 4.289010047912597656e+00 1.029933214187622070e+00 -5.082195997238159180e-02
1.939000000000000000e+03 6.392013549804687500e+00 1.368165779113769531e+01 3.557279706001281738e-01 5.883470177650451660e-01 2.832224965095520020e-01 -3.238708078861236572e-01
1.940000000000000000e+03 5.386402130126953125e+00 1.361650276184082031e+01 2.571920752525329590e-01 2.143556922674179077e-01 1.414643228054046631e-01 -2.675129771232604980e-01
1.941000000000000000e+03 4.294050693511962891e+00 -1.284366703033447266e+01 1.714281439781188965e+00 1.770284652709960938e+00 1.045369863510131836e+00 -6.651768088340759277e-01
1.942000000000000000e+03 5.873671531677246094e+00 -1.152839279174804688e+01 1.317371726036071777e+00 5.107110977172851562e+00 1.927344799041748047e+00 -7.345532178878784180e-01
1.943000000000000000e+03 5.456562042236328125e+00 3.102003860473632812e+01 -5.513963848352432251e-02 4.202177822589874268e-01 1.095234453678131104e-01 -3.007263317704200745e-02
1.944000000000000000e+03 5.859733104705810547e+00 2.152178001403808594e+01 -1.457235217094421387e-01 5.617578625679016113e-01 1.248103082180023193e-01 -3.266257047653198242e-01
1.945000000000000000e+03 6.145563125610351562e+00 1.876250267028808594e+01 -5.615442618727684021e-02 6.113893389701843262e-01 1.665704846382141113e-01 -4.248152077198028564e-01
1.946000000000000000e+03 6.018309593200683594e+00 -1.977655029296875000e+01 -4.837382733821868896e-01 5.101646900177001953e+00 1.385372638702392578e+00 1.936871767044067383e+00
1.947000000000000000e+03 7.440485954284667969e+00 -1.937880134582519531e+01 -5.460532307624816895e-01 6.787378787994384766e+00 1.872397661209106445e+00 1.286295056343078613e+00
1.948000000000000000e+03 1.366298198699951172e+01 -2.823799896240234375e+01 -5.402666926383972168e-01 2.374160051345825195e+00 5.501679778099060059e-01 -3.565823137760162354e-01
1.949000000000000000e+03 1.125245285034179688e+01 -3.311019897460937500e+01 -4.609747231006622314e-01 2.551160573959350586e+00 6.270557641983032227e-01 5.525476858019828796e-02
1.950000000000000000e+03 6.564058780670166016e+00 -3.343475341796875000e+01 -2.947185337543487549e-01 3.024523496627807617e+00 8.189415335655212402e-01 3.098112940788269043e-01
1.951000000000000000e+03 6.119874000549316406e+00 2.842160224914550781e+01 -1.025832071900367737e-01 5.114927887916564941e-01 1.226728707551956177e-01 -6.961190700531005859e-02
1.952000000000000000e+03 5.208629608154296875e+00 -2.689061164855957031e+01 -5.395014286041259766e-01 3.201437950134277344e+00 7.985810041427612305e-01 9.499920010566711426e-01
1.953000000000000000e+03 6.181124687194824219e+00 -2.635757255554199219e+01 -7.057471871376037598e-01 3.461977720260620117e+00 8.268691301345825195e-01 9.036290049552917480e-01
1.954000000000000000e+03 5.202952861785888672e+00 9.750829696655273438e+00 3.769959509372711182e-01 5.229468271136283875e-02 1.287871897220611572e-01 1.200061216950416565e-01
1.955000000000000000e+03 4.165477752685546875e+00 9.501470565795898438e+00 2.697970867156982422e-01 -2.120009511709213257e-01 1.733884215354919434e-02 1.594221889972686768e-01
1.956000000000000000e+03 6.482734203338623047e+00 1.123021125793457031e+01 5.095283389091491699e-01 5.081055760383605957e-01 3.052901923656463623e-01 -9.933746606111526489e-02
1.957000000000000000e+03 5.866095066070556641e+00 8.879326820373535156e+00 4.440530836582183838e-01 1.924695521593093872e-01 1.909567862749099731e-01 1.947308480739593506e-01
1.958000000000000000e+03 5.951240539550781250e+00 -1.315384578704833984e+01 3.243955373764038086e+00 4.808514595031738281e+00 2.415740966796875000e+00 -5.072743892669677734e-01
1.959000000000000000e+03 4.867696285247802734e+00 -8.812360763549804688e+00 -2.731940150260925293e-01 2.393362760543823242e+00 6.360506415367126465e-01 -9.110643863677978516e-01
1.960000000000000000e+03 3.837430953979492188e+01 1.377901744842529297e+01 8.920828700065612793e-01 1.797254681587219238e+00 8.068012595176696777e-01 1.207425713539123535e+00
1.961000000000000000e+03 3.744328308105468750e+01 1.212235164642333984e+01 9.328871369361877441e-01 1.671667337417602539e+00 7.813663482666015625e-01 1.221149206161499023e+00
1.962000000000000000e+03 5.440929031372070312e+01 -7.055037498474121094e+00 -2.026714324951171875e+00 -1.715244352817535400e-01 -6.594715714454650879e-01 -7.663511633872985840e-01
1.963000000000000000e+03 5.712069320678710938e+01 -7.054313659667968750e+00 -2.461517810821533203e+00 -4.130600392818450928e-01 -8.623733520507812500e-01 -9.773621559143066406e-01
1.964000000000000000e+03 5.501377105712890625e+01 9.751924872398376465e-01 3.565989434719085693e-01 2.840784490108489990e-01 1.922032088041305542e-01 -4.051023125648498535e-01
1.965000000000000000e+03 4.697409152984619141e+00 -7.628722667694091797e+00 -5.463258028030395508e-01 1.989431738853454590e+00 4.329317808151245117e-01 -8.644348978996276855e-01
1.966000000000000000e+03 4.302627563476562500e+00 -5.687938213348388672e+00 -4.148082137107849121e-01 8.813909888267517090e-01 1.399748325347900391e-01 -6.229930520057678223e-01
1.967000000000000000e+03 4.430426120758056641e+00 -6.597800254821777344e+00 -4.132577478885650635e-01 1.299664855003356934e+00 2.659221291542053223e-01 -6.075832843780517578e-01
1.968000000000000000e+03 1.037735176086425781e+01 -3.106160545349121094e+01 -5.563302636146545410e-01 2.754152774810791016e+00 6.593467593193054199e-01 1.137274578213691711e-01
1.969000000000000000e+03 6.031564331054687500e+01 -3.760055065155029297e+00 -8.905501961708068848e-01 -1.616262644529342651e-01 -3.156529366970062256e-01 -1.203872799873352051e+00
1.970000000000000000e+03 5.803807067871093750e+01 -3.322753906250000000e+01 -7.659640163183212280e-02 9.339060187339782715e-01 2.571928799152374268e-01 6.869891285896301270e-02
1.971000000000000000e+03 5.940062713623046875e+01 -2.184550285339355469e+00 -3.221753537654876709e-01 1.961472630500793457e-01 -3.780842199921607971e-02 -1.048671126365661621e+00
1.972000000000000000e+03 5.977634429931640625e+01 -4.705922603607177734e+00 -1.538025021553039551e+00 -2.665482759475708008e-01 -5.413720011711120605e-01 -9.722333550453186035e-01
1.973000000000000000e+03 6.010060119628906250e+01 -3.204909133911132812e+01 -1.994430422782897949e-01 1.655324339866638184e+00 4.367643892765045166e-01 2.369099408388137817e-01
1.974000000000000000e+03 9.808508872985839844e+00 -2.187784004211425781e+01 -7.235268354415893555e-01 5.187666416168212891e+00 1.339241862297058105e+00 -3.683534562587738037e-01
1.975000000000000000e+03 4.734463500976562500e+01 -1.369137096405029297e+01 -2.373740911483764648e+00 -1.519126147031784058e-01 -7.576960921287536621e-01 -9.698994159698486328e-01
1.976000000000000000e+03 7.745271205902099609e+00 -1.676675224304199219e+01 1.475059866905212402e+00 9.319537162780761719e+00 3.238379240036010742e+00 8.866162896156311035e-01
1.977000000000000000e+03 6.495679473876953125e+01 -2.596594810485839844e+01 -9.274569153785705566e-01 4.440673828125000000e+00 1.053965091705322266e+00 6.577540040016174316e-01
1.978000000000000000e+03 6.739168548583984375e+01 -2.398258590698242188e+01 -1.111096620559692383e+00 6.756976127624511719e+00 1.693763852119445801e+00 5.206721425056457520e-01
1.979000000000000000e+03 4.052767944335937500e+01 9.233735084533691406e+00 6.684974431991577148e-01 1.318085312843322754e+00 5.959748029708862305e-01 4.568443000316619873e-01
1.980000000000000000e+03 4.061648178100585938e+01 8.075895309448242188e+00 7.674555182456970215e-01 1.071322083473205566e+00 5.516332983970642090e-01 2.548650205135345459e-01
1.981000000000000000e+03 2.962619781494140625e+01 9.139101028442382812e+00 1.762114644050598145e+00 2.633698463439941406e+00 1.318743944168090820e+00 1.823631167411804199e+00
1.982000000000000000e+03 2.909665870666503906e+01 1.342674732208251953e+01 1.133833527565002441e-01 2.605454444885253906e+00 8.156513571739196777e-01 1.375549912452697754e+00
1.983000000000000000e+03 2.907765579223632812e+01 7.531009674072265625e+00 2.423080444335937500e+00 2.523600339889526367e+00 1.484004259109497070e+00 1.739034891128540039e+00
1.984000000000000000e+03 8.888246536254882812e+00 -2.439210700988769531e+01 -1.038687825202941895e+00 4.459260463714599609e+00 1.026171803474426270e+00 3.034783601760864258e-01
1.985000000000000000e+03 1.294370937347412109e+01 1.876763534545898438e+01 -4.235348701477050781e-01 2.020645141601562500e+00 4.791331291198730469e-01 1.292675286531448364e-01
1.986000000000000000e+03 1.338412952423095703e+01 1.761181449890136719e+01 -3.655703067779541016e-01 2.377127647399902344e+00 6.034672260284423828e-01 2.014588117599487305e-01
1.987000000000000000e+03 6.120302581787109375e+01 -2.727436447143554688e+01 -8.261482715606689453e-01 1.684001684188842773e+00 2.573560476303100586e-01 2.559705674648284912e-01
1.988000000000000000e+03 6.552748107910156250e+01 -2.859843444824218750e+01 -7.109269499778747559e-01 4.845417976379394531e+00 1.240347385406494141e+00 5.103286504745483398e-01
1.989000000000000000e+03 4.640125274658203125e+01 2.735614776611328125e+00 9.616457223892211914e-01 1.994237750768661499e-01 3.483208417892456055e-01 -7.024735212326049805e-02
1.990000000000000000e+03 5.001590728759765625e+01 1.652757763862609863e+00 5.985717773437500000e-01 2.002256512641906738e-01 2.396392375230789185e-01 -1.823883652687072754e-01
1.991000000000000000e+03 2.346224212646484375e+01 -1.113966464996337891e+01 -3.253973007202148438e+00 8.330316543579101562e-01 -7.262824177742004395e-01 -2.058894932270050049e-01
1.992000000000000000e+03 2.283909416198730469e+01 -1.238298606872558594e+01 -4.365500926971435547e+00 6.459932327270507812e-01 -1.115852355957031250e+00 3.110100626945495605e-01
1.993000000000000000e+03 2.500009155273437500e+01 -1.203424930572509766e+01 -3.446117401123046875e+00 7.373949289321899414e-01 -8.126167654991149902e-01 -1.227481886744499207e-01
1.994000000000000000e+03 5.984745025634765625e+01 -2.911942672729492188e+01 -6.313151121139526367e-01 1.137616038322448730e+00 1.518902778625488281e-01 1.551479250192642212e-01
1.995000000000000000e+03 6.393323516845703125e+01 -2.758120727539062500e+01 -7.882772684097290039e-01 3.733957767486572266e+00 8.837041854858398438e-01 5.121620893478393555e-01
1.996000000000000000e+03 1.686949729919433594e+01 2.083999443054199219e+01 -3.314184248447418213e-01 1.227175712585449219e+00 2.687271833419799805e-01 8.305376172065734863e-01
1.997000000000000000e+03 3.661335372924804688e+01 1.448426818847656250e+01 7.910774946212768555e-01 1.870512008666992188e+00 7.984768748283386230e-01 1.248033523559570312e+00
1.998000000000000000e+03 2.623965072631835938e+01 -1.232817745208740234e+01 -3.279752254486083984e+00 6.855086088180541992e-01 -7.782731056213378906e-01 -1.333241015672683716e-01
1.999000000000000000e+03 1.929791641235351562e+01 2.000210380554199219e+01 -1.638319045305252075e-01 5.332587957382202148e-01 1.108280718326568604e-01 7.971557378768920898e-01
2.000000000000000000e+03 1.957500457763671875e+01 2.170510673522949219e+01 -4.882984608411788940e-02 6.515021920204162598e-01 1.808017045259475708e-01 6.545574665069580078e-01
2.001000000000000000e+03 7.935633182525634766e+00 -2.139295196533203125e+01 -8.903603553771972656e-01 5.577093601226806641e+00 1.406019926071166992e+00 8.209403753280639648e-01
2.002000000000000000e+03 2.288065910339355469e+01 -1.038692855834960938e+01 -2.805259704589843750e+00 9.172375202178955078e-01 -5.664066076278686523e-01 -3.484285771846771240e-01
2.003000000000000000e+03 7.124061584472656250e+01 -1.723429107666015625e+01 -3.721431791782379150e-01 1.146916580200195312e+01 3.329106807708740234e+00 -1.200510978698730469e+00
2.004000000000000000e+03 7.035112762451171875e+01 -1.800865745544433594e+01 -4.289257824420928955e-01 1.108691692352294922e+01 3.197397470474243164e+00 -3.194735348224639893e-01
2.005000000000000000e+03 1.345515727996826172e+01 -3.027105331420898438e+01 -5.331674814224243164e-01 2.275889873504638672e+00 5.228167176246643066e-01 -1.391721069812774658e-01
2.006000000000000000e+03 4.382009887695312500e+01 2.592723655700683594e+01 7.057475447654724121e-01 1.894858598709106445e+00 7.801818847656250000e-01 5.014888048171997070e-01
2.007000000000000000e+03 7.591114997863769531e+00 1.905107688903808594e+01 -1.204279586672782898e-01 9.896300435066223145e-01 2.607606053352355957e-01 -4.042365550994873047e-01
2.008000000000000000e+03 3.879911422729492188e+01 1.728310012817382812e+01 8.356270194053649902e-01 1.939784049987792969e+00 8.326233029365539551e-01 9.403823614120483398e-01
2.009000000000000000e+03 4.685629653930664062e+01 -1.239723300933837891e+01 -2.216372013092041016e+00 -3.450457006692886353e-02 -6.752629876136779785e-01 -8.715001344680786133e-01
2.010000000000000000e+03 4.579287338256835938e+01 -1.301663017272949219e+01 -2.242459774017333984e+00 -1.735164225101470947e-02 -6.779434084892272949e-01 -8.495561480522155762e-01
2.011000000000000000e+03 4.026905822753906250e+01 1.942694282531738281e+01 7.299739718437194824e-01 2.051214933395385742e+00 8.343566656112670898e-01 7.730363607406616211e-01
2.012000000000000000e+03 4.192237472534179688e+01 7.356465339660644531e+00 8.772197365760803223e-01 6.813969016075134277e-01 4.675849974155426025e-01 -2.715403772890567780e-02
2.013000000000000000e+03 4.493450546264648438e+01 -1.241131591796875000e+01 -2.157272815704345703e+00 6.318219751119613647e-02 -6.282272338867187500e-01 -7.765195369720458984e-01
2.014000000000000000e+03 2.866083526611328125e+01 -1.293923854827880859e+01 -3.076844453811645508e+00 5.877397656440734863e-01 -7.467314004898071289e-01 -1.857101768255233765e-01
2.015000000000000000e+03 4.276604843139648438e+01 -4.114907455444335938e+01 -8.024090528488159180e-02 -4.196292161941528320e-01 -1.499610394239425659e-01 -7.771164923906326294e-02
2.016000000000000000e+03 5.244284439086914062e+01 -4.135367202758789062e+01 4.635976552963256836e-01 -7.931930571794509888e-02 1.152835115790367126e-01 -5.502623319625854492e-02
2.017000000000000000e+03 6.968198394775390625e+01 -2.088435173034667969e+01 -1.078958392143249512e+00 9.147837638854980469e+00 2.420663833618164062e+00 -2.202664464712142944e-01
2.018000000000000000e+03 7.193318176269531250e+01 -1.984960556030273438e+01 -7.740680575370788574e-01 1.008463573455810547e+01 2.793170213699340820e+00 -1.088646769523620605e+00
2.019000000000000000e+03 7.228781127929687500e+01 -1.660540771484375000e+01 1.453247964382171631e-01 1.084897327423095703e+01 3.298289537429809570e+00 -1.609715342521667480e+00
2.020000000000000000e+03 6.096372604370117188e+01 1.073293876647949219e+01 5.252842307090759277e-01 3.216617584228515625e+00 1.122570514678955078e+00 -1.137010931968688965e+00
2.021000000000000000e+03 6.075574493408203125e+01 1.347817134857177734e+01 6.787427067756652832e-01 3.404664278030395508e+00 1.225022077560424805e+00 -1.008917093276977539e+00
2.022000000000000000e+03 2.975231361389160156e+01 1.862151527404785156e+01 -2.320486605167388916e-01 1.980047583580017090e+00 5.243996977806091309e-01 5.661291480064392090e-01
2.023000000000000000e+03 2.717464637756347656e+01 1.911945724487304688e+01 -3.717386424541473389e-01 1.538697004318237305e+00 3.500874936580657959e-01 2.438828200101852417e-01
2.024000000000000000e+03 7.209346008300781250e+01 4.103392410278320312e+01 9.985471516847610474e-02 5.057128906250000000e+00 1.547095060348510742e+00 -2.550465241074562073e-02
2.025000000000000000e+03 2.391382789611816406e+01 2.000903701782226562e+01 -1.958884000778198242e-01 7.107684612274169922e-01 1.544640064239501953e-01 1.471232175827026367e-01
2.026000000000000000e+03 1.446869277954101562e+01 -3.648000478744506836e+00 6.638305187225341797e+00 4.410715103149414062e+00 3.314706087112426758e+00 6.189728260040283203e+00
2.027000000000000000e+03 1.425345134735107422e+01 -3.651392936706542969e+00 6.661838531494140625e+00 3.191859245300292969e+00 2.956109285354614258e+00 5.930426120758056641e+00
2.028000000000000000e+03 1.240836906433105469e+01 -3.515948534011840820e+00 4.458585739135742188e+00 2.063319385051727295e-01 1.399475336074829102e+00 3.575459003448486328e+00
2.029000000000000000e+03 1.437319278717041016e+01 -4.141061305999755859e+00 5.325494766235351562e+00 4.023289203643798828e+00 2.804635047912597656e+00 6.015944480895996094e+00
2.030000000000000000e+03 1.488315391540527344e+01 -9.334932327270507812e+00 -2.671051025390625000e+00 2.002545595169067383e-01 -7.412388920783996582e-01 3.725273609161376953e+00
2.031000000000000000e+03 1.712784385681152344e+01 -4.229779720306396484e+00 4.745407104492187500e+00 7.211595535278320312e+00 3.587100744247436523e+00 5.941262245178222656e-01
2.032000000000000000e+03 1.554428291320800781e+01 -4.449150085449218750e+00 3.841179370880126953e+00 7.377330303192138672e+00 3.365552902221679688e+00 4.548637866973876953e+00
2.033000000000000000e+03 1.594877910614013672e+01 -8.813674926757812500e+00 -2.132029294967651367e+00 1.202142238616943359e+00 -2.789660990238189697e-01 2.726927280426025391e+00
2.034000000000000000e+03 1.761013984680175781e+01 -4.307154655456542969e+00 4.975081920623779297e+00 6.123935222625732422e+00 3.329705238342285156e+00 1.036232933402061462e-01
2.035000000000000000e+03 1.813867378234863281e+01 -1.899608016014099121e+00 9.794824600219726562e+00 4.369001865386962891e+00 4.249147891998291016e+00 2.548254013061523438e+00
2.036000000000000000e+03 1.813503074645996094e+01 -3.320960998535156250e+00 7.607759475708007812e+00 4.890059947967529297e+00 3.749345779418945312e+00 5.059979856014251709e-02
2.037000000000000000e+03 1.728003692626953125e+01 1.205513998866081238e-01 3.100869178771972656e+00 7.638518333435058594e+00 3.221816301345825195e+00 2.911895513534545898e+00
2.038000000000000000e+03 1.759176254272460938e+01 6.989929825067520142e-02 3.709657192230224609e+00 6.692958831787109375e+00 3.120784759521484375e+00 3.334042549133300781e+00
2.039000000000000000e+03 1.542905044555664062e+01 6.909242272377014160e-01 4.791216254234313965e-01 5.952802181243896484e+00 1.929577231407165527e+00 -2.211059331893920898e+00
2.040000000000000000e+03 1.585803127288818359e+01 8.420165777206420898e-01 3.261979520320892334e-01 6.475372791290283203e+00 2.040471315383911133e+00 -1.509730935096740723e+00
2.041000000000000000e+03 1.562262630462646484e+01 1.846193909645080566e+00 -4.259400963783264160e-01 4.960266590118408203e+00 1.360297918319702148e+00 -1.861763834953308105e+00
2.042000000000000000e+03 1.405366897583007812e+01 -3.356865644454956055e+00 7.478330135345458984e+00 1.908212304115295410e+00 2.815962553024291992e+00 5.246098041534423828e+00
2.043000000000000000e+03 1.499674415588378906e+01 1.695719361305236816e+00 -2.332119047641754150e-01 4.286735534667968750e+00 1.216057181358337402e+00 -2.389545917510986328e+00
2.044000000000000000e+03 1.032629489898681641e+01 -4.013047695159912109e+00 1.783705711364746094e+00 6.840980052947998047e-01 7.403410673141479492e-01 2.768105745315551758e+00
2.045000000000000000e+03 1.203755569458007812e+01 -3.791033983230590820e+00 3.750684499740600586e+00 4.276674091815948486e-01 1.253505587577819824e+00 3.631991386413574219e+00
2.046000000000000000e+03 5.724282264709472656e+00 -5.758637905120849609e+00 -6.039346456527709961e-01 1.955965399742126465e+00 4.056092500686645508e-01 -4.703925549983978271e-02
2.047000000000000000e+03 6.630232334136962891e+00 5.057651519775390625e+00 1.168458908796310425e-01 1.968620717525482178e-01 9.411238878965377808e-02 4.349407255649566650e-01
2.048000000000000000e+03 5.998211860656738281e+00 7.323550701141357422e+00 3.606399297714233398e-01 1.941541433334350586e-01 1.664382219314575195e-01 3.382423520088195801e-01
2.049000000000000000e+03 1.938494110107421875e+01 1.847078323364257812e+00 2.331328153610229492e+00 2.145817279815673828e+00 1.343143582344055176e+00 3.307181835174560547e+00
2.050000000000000000e+03 4.482635498046875000e+00 5.929539203643798828e+00 1.237284690141677856e-01 -1.545072942972183228e-01 -9.233647026121616364e-03 4.545878767967224121e-01
2.051000000000000000e+03 6.498476028442382812e+00 -5.896766185760498047e+00 -4.989027082920074463e-01 2.305467844009399414e+00 5.419695973396301270e-01 6.487852931022644043e-01
2.052000000000000000e+03 8.564704895019531250e+00 -5.895016193389892578e+00 -2.845194935798645020e-01 2.825901269912719727e+00 7.624145150184631348e-01 2.494651079177856445e+00
2.053000000000000000e+03 5.760285377502441406e+00 5.823364734649658203e+00 1.979322880506515503e-01 6.910976022481918335e-02 8.011261373758316040e-02 4.468433856964111328e-01
2.054000000000000000e+03 6.560739040374755859e+00 5.931528568267822266e+00 2.342345863580703735e-01 2.421146184206008911e-01 1.429047584533691406e-01 4.135380685329437256e-01
2.055000000000000000e+03 7.312287330627441406e+00 6.122349262237548828e+00 3.231885731220245361e-01 4.634120464324951172e-01 2.359801828861236572e-01 3.380298614501953125e-01
2.056000000000000000e+03 9.645102500915527344e+00 -4.080783843994140625e+00 1.131862163543701172e+00 1.061558365821838379e+00 6.580261588096618652e-01 2.446148633956909180e+00
2.057000000000000000e+03 1.384084796905517578e+01 3.073030471801757812e+00 -8.550452589988708496e-01 3.244585990905761719e+00 7.168622612953186035e-01 -1.872935533523559570e+00
2.058000000000000000e+03 1.418144798278808594e+01 1.339833021163940430e+00 9.150170534849166870e-02 3.011668205261230469e+00 9.309509396553039551e-01 -2.300307512283325195e+00
2.059000000000000000e+03 1.772498512268066406e+01 2.408677577972412109e+00 5.863618105649948120e-02 3.044567823410034180e+00 9.309611916542053223e-01 4.290368258953094482e-01
2.060000000000000000e+03 1.100915241241455078e+01 -5.660808563232421875e+00 1.361163258552551270e+00 1.808216452598571777e+00 9.508138895034790039e-01 4.719978809356689453e+00
2.061000000000000000e+03 8.790585517883300781e+00 1.024251651763916016e+01 7.722463607788085938e-01 1.228665232658386230e+00 6.002734899520874023e-01 -6.808492541313171387e-02
2.062000000000000000e+03 1.340475940704345703e+01 -8.446737289428710938e+00 -7.862821221351623535e-01 9.675849080085754395e-01 5.439084023237228394e-02 5.691143512725830078e+00
2.063000000000000000e+03 7.688027381896972656e+00 -7.360911369323730469e+00 -1.158568620681762695e+00 4.064599037170410156e+00 8.718090653419494629e-01 1.663392424583435059e+00
2.064000000000000000e+03 7.379075527191162109e+00 -6.603377819061279297e+00 -7.856116890907287598e-01 3.386251449584960938e+00 7.801918983459472656e-01 1.492722988128662109e+00
2.065000000000000000e+03 7.062744903564453125e+01 -5.681237697601318359e+00 -4.592051506042480469e-01 1.265148258209228516e+01 3.657683134078979492e+00 5.174841880798339844e-01
2.066000000000000000e+03 7.190099334716796875e+01 -6.604750633239746094e+00 5.649456381797790527e-01 1.197716331481933594e+01 3.762632608413696289e+00 1.108350992202758789e+00
2.067000000000000000e+03 2.018461036682128906e+01 9.276622533798217773e-01 3.555893421173095703e+00 2.108424186706542969e+00 1.699295282363891602e+00 3.960225343704223633e+00
2.068000000000000000e+03 6.721389770507812500e+01 -1.568557024002075195e+00 -1.377865195274353027e+00 6.612880706787109375e+00 1.570504665374755859e+00 -2.970831155776977539e+00
2.069000000000000000e+03 1.206840324401855469e+01 4.489551067352294922e+00 -3.563696146011352539e-01 2.401807308197021484e+00 6.136313080787658691e-01 -7.512775063514709473e-01
2.070000000000000000e+03 1.777522087097167969e+01 -8.937196731567382812e+00 -2.297900676727294922e+00 1.469879150390625000e+00 -2.484064400196075439e-01 9.735583662986755371e-01
2.071000000000000000e+03 1.265514564514160156e+01 7.124014854431152344e+00 3.745133280754089355e-01 3.245431423187255859e+00 1.085983395576477051e+00 -2.196041047573089600e-01
2.072000000000000000e+03 3.075402259826660156e+01 1.027711868286132812e+01 1.348919153213500977e+00 2.370306968688964844e+00 1.115767836570739746e+00 1.808226943016052246e+00
2.073000000000000000e+03 3.034073257446289062e+01 1.279035091400146484e+01 4.810773730278015137e-01 2.539433956146240234e+00 9.061533808708190918e-01 1.587144970893859863e+00
2.074000000000000000e+03 9.484120368957519531e+00 -8.790669441223144531e+00 -2.306690931320190430e+00 6.364757061004638672e+00 1.217419862747192383e+00 4.393848896026611328e+00
2.075000000000000000e+03 6.408836841583251953e+00 -1.075694656372070312e+01 2.385319471359252930e-01 5.837166309356689453e+00 1.822709560394287109e+00 -1.175699591636657715e+00
2.076000000000000000e+03 1.257407283782958984e+01 5.706345558166503906e+00 -1.980034559965133667e-01 2.997649669647216797e+00 8.398938775062561035e-01 -4.864212870597839355e-01
2.077000000000000000e+03 1.177190589904785156e+01 7.921900749206542969e+00 7.553867101669311523e-01 2.760209798812866211e+00 1.054678916931152344e+00 -1.205138191580772400e-01
2.078000000000000000e+03 7.353889465332031250e+01 -8.396806716918945312e+00 1.676140069961547852e+00 1.010998439788818359e+01 3.535837411880493164e+00 1.040316820144653320e+00
2.079000000000000000e+03 7.284581756591796875e+01 -9.926423072814941406e+00 2.362735033035278320e+00 1.107485866546630859e+01 4.031278133392333984e+00 3.272797763347625732e-01
2.080000000000000000e+03 1.903794479370117188e+01 -9.859104156494140625e+00 -3.393450975418090820e+00 1.049804449081420898e+00 -7.030940055847167969e-01 4.564946889877319336e-01
2.081000000000000000e+03 4.243955230712890625e+01 -1.262093448638916016e+01 -2.133197784423828125e+00 1.815250068902969360e-01 -5.855018496513366699e-01 -6.786524653434753418e-01
2.082000000000000000e+03 3.719225311279296875e+01 -1.122467517852783203e+01 -1.877968668937683105e+00 4.132478237152099609e-01 -4.394162595272064209e-01 -5.904011726379394531e-01
2.083000000000000000e+03 2.141194152832031250e+01 -1.017911624908447266e+01 -3.068404436111450195e+00 9.809245467185974121e-01 -6.262439489364624023e-01 -1.877771168947219849e-01
2.084000000000000000e+03 1.125341033935546875e+01 -8.167898178100585938e+00 -6.653888225555419922e-01 3.255426883697509766e+00 7.770113945007324219e-01 6.145886421203613281e+00
2.085000000000000000e+03 1.026586914062500000e+01 -9.291772842407226562e+00 -2.053611040115356445e+00 5.788945198059082031e+00 1.120600342750549316e+00 6.021480083465576172e+00
2.086000000000000000e+03 4.653849029541015625e+01 -1.092556285858154297e+01 -2.015308618545532227e+00 4.194048419594764709e-02 -5.920104384422302246e-01 -7.854136228561401367e-01
2.087000000000000000e+03 4.889175415039062500e+01 -1.049361324310302734e+01 -2.087239265441894531e+00 -6.090186908841133118e-02 -6.444423794746398926e-01 -8.581174015998840332e-01
2.088000000000000000e+03 9.187294006347656250e+00 1.436491394042968750e+01 4.207060933113098145e-01 1.488443851470947266e+00 5.727449655532836914e-01 -4.267439544200897217e-01
2.089000000000000000e+03 1.362149620056152344e+01 3.720605373382568359e+00 -9.370042085647583008e-01 3.262798786163330078e+00 6.977384090423583984e-01 -1.503751993179321289e+00
2.090000000000000000e+03 1.438602924346923828e+01 3.908047437667846680e+00 -1.278452515602111816e+00 3.852046489715576172e+00 7.720782160758972168e-01 -1.716533780097961426e+00
2.091000000000000000e+03 7.163332366943359375e+01 -2.292926406860351562e+01 -1.048261523246765137e+00 9.062270164489746094e+00 2.404202699661254883e+00 -7.341667413711547852e-01
2.092000000000000000e+03 3.084410858154296875e+01 7.011483192443847656e+00 2.212850809097290039e+00 1.898966073989868164e+00 1.233545064926147461e+00 1.452476143836975098e+00
2.093000000000000000e+03 3.078668403625488281e+01 -1.334422302246093750e+01 -2.849437475204467773e+00 5.277884602546691895e-01 -6.964946985244750977e-01 -2.577454149723052979e-01
2.094000000000000000e+03 3.085596084594726562e+01 -1.061476230621337891e+01 -1.935525417327880859e+00 6.268529891967773438e-01 -3.926017284393310547e-01 -5.413861870765686035e-01
2.095000000000000000e+03 1.513844871520996094e+01 -8.581227302551269531e+00 -1.336570262908935547e+00 1.017871499061584473e+00 -9.560964256525039673e-02 3.666215896606445312e+00
2.096000000000000000e+03 3.072745323181152344e+01 9.310540199279785156e+00 1.683043241500854492e+00 2.147375583648681641e+00 1.149125576019287109e+00 1.787099242210388184e+00
2.097000000000000000e+03 3.314743804931640625e+01 -1.304565525054931641e+01 -2.535520076751708984e+00 4.901657998561859131e-01 -6.136062741279602051e-01 -3.986703455448150635e-01
2.098000000000000000e+03 1.336706066131591797e+01 6.238867282867431641e+00 -2.072768658399581909e-01 3.771798133850097656e+00 1.069356441497802734e+00 -4.686906635761260986e-01
2.099000000000000000e+03 1.189841747283935547e+01 6.493505477905273438e+00 2.027370333671569824e-01 2.694011688232421875e+00 8.690246343612670898e-01 -2.440520673990249634e-01
2.100000000000000000e+03 1.304675865173339844e+01 1.972418594360351562e+01 -4.491970241069793701e-01 1.863069534301757812e+00 4.241617321968078613e-01 2.406446039676666260e-01
2.101000000000000000e+03 2.136695480346679688e+01 1.532096266746520996e+00 2.875910997390747070e+00 1.824170708656311035e+00 1.410024523735046387e+00 4.083392620086669922e+00
2.102000000000000000e+03 2.371424865722656250e+01 6.653048992156982422e-01 2.929167270660400391e+00 2.015106439590454102e+00 1.483282089233398438e+00 2.967272043228149414e+00
2.103000000000000000e+03 5.046076774597167969e+00 -5.638273715972900391e+00 -3.884070515632629395e-01 1.238625884056091309e+00 2.550656497478485107e-01 -2.854399085044860840e-01
2.104000000000000000e+03 5.656921005249023438e+01 4.301600456237792969e+00 6.798622608184814453e-01 1.001345753669738770e+00 5.043624043464660645e-01 -4.460750222206115723e-01
2.105000000000000000e+03 5.241078948974609375e+01 -5.992911815643310547e+00 -1.457560539245605469e+00 -5.292797088623046875e-02 -4.531465470790863037e-01 -5.605813860893249512e-01
2.106000000000000000e+03 3.239471054077148438e+01 -1.226813220977783203e+01 -2.380224227905273438e+00 5.429647564888000488e-01 -5.511777997016906738e-01 -4.534234702587127686e-01
2.107000000000000000e+03 2.650464439392089844e+01 3.167704820632934570e+00 2.340152025222778320e+00 3.040343046188354492e+00 1.614148497581481934e+00 1.802338719367980957e+00
2.108000000000000000e+03 4.504445266723632812e+01 1.810516119003295898e+00 7.828084826469421387e-01 1.798830628395080566e-01 2.888074517250061035e-01 -5.286774784326553345e-02
2.109000000000000000e+03 1.139982891082763672e+01 9.367568969726562500e+00 9.471204280853271484e-01 2.698230981826782227e+00 1.093605399131774902e+00 -1.885677129030227661e-01
2.110000000000000000e+03 4.111104965209960938e+01 -1.154318046569824219e+01 -1.935054540634155273e+00 2.682484090328216553e-01 -5.000418424606323242e-01 -6.424688696861267090e-01
2.111000000000000000e+03 5.263972473144531250e+01 2.322831392288208008e+00 6.817247867584228516e-01 2.222778350114822388e-01 2.712007761001586914e-01 -2.363930791616439819e-01
2.112000000000000000e+03 5.951337337493896484e+00 -9.939685821533203125e+00 9.481672197580337524e-02 4.296381950378417969e+00 1.317359566688537598e+00 -7.975707054138183594e-01
2.113000000000000000e+03 8.012442588806152344e+00 6.615382194519042969e+00 4.155042767524719238e-01 7.373494505882263184e-01 3.458561301231384277e-01 2.663333714008331299e-01
2.114000000000000000e+03 2.238208389282226562e+01 -9.666234970092773438e+00 -2.276115894317626953e+00 1.013363242149353027e+00 -3.788258135318756104e-01 -4.647784531116485596e-01
2.115000000000000000e+03 9.561202049255371094e+00 -2.674923896789550781e+01 -8.719933629035949707e-01 3.659647703170776367e+00 8.362962603569030762e-01 2.742234766483306885e-01
2.116000000000000000e+03 1.280712985992431641e+01 -2.595297813415527344e+01 -5.653892159461975098e-01 2.938835144042968750e+00 7.120337486267089844e-01 -4.703467786312103271e-01
2.117000000000000000e+03 6.937810516357421875e+01 -2.827775001525878906e+01 -8.122044205665588379e-01 7.194713592529296875e+00 1.914752721786499023e+00 1.133229732513427734e-01
2.118000000000000000e+03 7.055758666992187500e+01 -3.280059432983398438e+01 -2.697745561599731445e-01 7.311460018157958984e+00 2.112505674362182617e+00 1.430498212575912476e-01
2.119000000000000000e+03 2.734881210327148438e+01 3.790040493011474609e+00 2.374174833297729492e+00 2.925806522369384766e+00 1.589994430541992188e+00 1.445369601249694824e+00
2.120000000000000000e+03 3.039549446105957031e+01 5.422880172729492188e+00 2.365013360977172852e+00 1.890581369400024414e+00 1.276678442955017090e+00 1.169892072677612305e+00
2.121000000000000000e+03 7.210594177246093750e+01 -7.735111236572265625e+00 1.816508293151855469e+00 1.126761627197265625e+01 3.925237178802490234e+00 1.037500619888305664e+00
2.122000000000000000e+03 7.292507171630859375e+01 -5.203822135925292969e+00 -2.729507684707641602e-01 1.056919574737548828e+01 3.088873624801635742e+00 1.185894846916198730e+00
2.123000000000000000e+03 7.330431365966796875e+01 -3.418684768676757812e+01 -2.151796668767929077e-01 8.538441658020019531e+00 2.496978759765625000e+00 -4.345324356108903885e-03
2.124000000000000000e+03 7.281929779052734375e+01 -1.996885108947753906e+01 -6.363152861595153809e-01 9.771747589111328125e+00 2.740629673004150391e+00 -1.375878930091857910e+00
2.125000000000000000e+03 2.952001953125000000e+01 1.038961982727050781e+01 1.328288078308105469e+00 2.572821855545043945e+00 1.170333027839660645e+00 1.838154911994934082e+00
2.126000000000000000e+03 7.358176708221435547e+00 2.856433296203613281e+01 -1.283624768257141113e-01 6.123167276382446289e-01 1.451862752437591553e-01 -5.375139415264129639e-02
2.127000000000000000e+03 8.991831779479980469e+00 3.226296997070312500e+01 -7.156714051961898804e-02 6.311322450637817383e-01 1.678695231676101685e-01 2.888053096830844879e-02
2.128000000000000000e+03 7.038549041748046875e+01 1.747303581237792969e+01 2.258777171373367310e-01 5.349977016448974609e+00 1.672756433486938477e+00 -8.040967583656311035e-01
2.129000000000000000e+03 7.354256439208984375e+01 1.639045333862304688e+01 1.037738546729087830e-01 6.051609992980957031e+00 1.846615195274353027e+00 -6.480962038040161133e-01
2.130000000000000000e+03 7.248892211914062500e+01 2.486810111999511719e+01 1.301082521677017212e-01 5.415199279785156250e+00 1.663592219352722168e+00 -4.407660961151123047e-01
2.131000000000000000e+03 7.389987945556640625e+01 -2.805969619750976562e+01 -4.535952806472778320e-01 9.047433853149414062e+00 2.578151702880859375e+00 -3.705937862396240234e-01
2.132000000000000000e+03 7.201567077636718750e+01 1.096982192993164062e+01 -6.103737279772758484e-03 6.149635314941406250e+00 1.843059539794921875e+00 -9.097366929054260254e-01
2.133000000000000000e+03 7.298925781250000000e+01 8.763721466064453125e+00 -1.317341327667236328e-01 6.652408599853515625e+00 1.956202387809753418e+00 -8.237732648849487305e-01
2.134000000000000000e+03 7.464844512939453125e+01 -1.661849403381347656e+01 1.748549640178680420e-01 9.535445213317871094e+00 2.913089990615844727e+00 -1.931081175804138184e+00
2.135000000000000000e+03 7.240666961669921875e+01 -1.913831329345703125e+01 -7.652959227561950684e-01 1.033272552490234375e+01 2.870228767395019531e+00 -1.397445201873779297e+00
2.136000000000000000e+03 7.465294647216796875e+01 -1.880881881713867188e+01 -3.817784786224365234e-01 9.611439704895019531e+00 2.768898248672485352e+00 -1.784831285476684570e+00
2.137000000000000000e+03 7.150383758544921875e+01 4.371999263763427734e+00 -6.378828287124633789e-01 7.037370204925537109e+00 1.919846177101135254e+00 -1.008889675140380859e+00
2.138000000000000000e+03 7.489325714111328125e+01 -9.052913665771484375e+00 1.343731403350830078e+00 8.920391082763671875e+00 3.079236745834350586e+00 7.313749194145202637e-01
2.139000000000000000e+03 7.396027374267578125e+01 -9.481450080871582031e+00 1.868892312049865723e+00 9.698223114013671875e+00 3.470134496688842773e+00 2.314639687538146973e-01
2.140000000000000000e+03 7.353726959228515625e+01 -1.356457424163818359e+01 1.649799942970275879e+00 1.065384578704833984e+01 3.691093921661376953e+00 -1.553295612335205078e+00
2.141000000000000000e+03 7.245875549316406250e+01 -2.493642807006835938e+00 -1.255879878997802734e+00 9.715710639953613281e+00 2.537949323654174805e+00 2.892104387283325195e-01
2.142000000000000000e+03 7.361182403564453125e+01 -1.186243772506713867e+00 -9.881949424743652344e-01 8.901245117187500000e+00 2.373915195465087891e+00 4.162595868110656738e-01
2.143000000000000000e+03 7.191004943847656250e+01 5.570614814758300781e+00 -4.437632858753204346e-01 6.846154212951660156e+00 1.920717358589172363e+00 -9.065107107162475586e-01
2.144000000000000000e+03 7.351738739013671875e+01 -1.939173889160156250e+01 -6.843692660331726074e-01 9.941556930541992188e+00 2.777156352996826172e+00 -1.593091130256652832e+00
2.145000000000000000e+03 7.422537994384765625e+01 1.240221595764160156e+01 1.508735865354537964e-02 6.529076099395751953e+00 1.963248968124389648e+00 -6.846014857292175293e-01
2.146000000000000000e+03 7.196295928955078125e+01 9.916921615600585938e+00 -6.900129467248916626e-02 6.271315574645996094e+00 1.860694289207458496e+00 -9.445411562919616699e-01
2.147000000000000000e+03 4.988672733306884766e+00 -1.123678302764892578e+01 8.598995804786682129e-01 3.069363832473754883e+00 1.178779006004333496e+00 -1.367447614669799805e+00
2.148000000000000000e+03 8.949789047241210938e+00 1.932560348510742188e+01 -2.103571295738220215e-01 1.283736467361450195e+00 3.220137953758239746e-01 -3.306275606155395508e-01
2.149000000000000000e+03 7.804624557495117188e+00 2.505369377136230469e+01 -2.111467868089675903e-01 7.585976123809814453e-01 1.642352491617202759e-01 -1.295941919088363647e-01
2.150000000000000000e+03 6.807108306884765625e+01 -2.494945907592773438e+01 -1.100539326667785645e+00 6.916609287261962891e+00 1.744821071624755859e+00 2.721766233444213867e-01
2.151000000000000000e+03 6.920397281646728516e+00 -2.327012825012207031e+01 -8.976226449012756348e-01 4.295166492462158203e+00 1.019263148307800293e+00 1.106750607490539551e+00
2.152000000000000000e+03 5.880844116210937500e+01 -6.573197364807128906e+00 -2.513146877288818359e+00 -5.082599520683288574e-01 -9.064220190048217773e-01 -9.978898763656616211e-01
2.153000000000000000e+03 5.670576477050781250e+01 -5.046605110168457031e+00 -1.530705928802490234e+00 -2.625322937965393066e-01 -5.379714965820312500e-01 -6.858353018760681152e-01
2.154000000000000000e+03 5.662974357604980469e+00 -2.331406021118164062e+01 -7.996271252632141113e-01 3.757235288619995117e+00 8.872824907302856445e-01 1.411111712455749512e+00
2.155000000000000000e+03 6.504894256591796875e+00 -1.870788002014160156e+01 6.180009618401527405e-02 5.792420864105224609e+00 1.756266236305236816e+00 1.668168425559997559e+00
2.156000000000000000e+03 7.153551578521728516e+00 1.620231437683105469e+01 1.268750727176666260e-01 8.570927381515502930e-01 2.951903343200683594e-01 -4.536729156970977783e-01
2.157000000000000000e+03 6.441389083862304688e+00 1.473646354675292969e+01 2.811591625213623047e-01 6.426382660865783691e-01 2.771392464637756348e-01 -4.008335769176483154e-01
2.158000000000000000e+03 5.387621402740478516e+00 1.180108261108398438e+01 3.517227768898010254e-01 1.648132652044296265e-01 1.549608111381530762e-01 -1.205352321267127991e-01
2.159000000000000000e+03 7.315809249877929688e+00 2.032558250427246094e+01 -1.812284290790557861e-01 8.788093328475952148e-01 2.092742770910263062e-01 -3.565553128719329834e-01
2.160000000000000000e+03 5.969388008117675781e+00 2.017418289184570312e+01 -1.160856261849403381e-01 5.763195157051086426e-01 1.380701661109924316e-01 -3.743629455566406250e-01
2.161000000000000000e+03 5.420637130737304688e+00 1.478401756286621094e+01 1.962061524391174316e-01 2.722130417823791504e-01 1.405257582664489746e-01 -3.340402245521545410e-01
2.162000000000000000e+03 6.220838928222656250e+01 -3.431270122528076172e+00 -4.922603666782379150e-01 2.617502510547637939e-01 -6.915304064750671387e-02 -1.856391787528991699e+00
2.163000000000000000e+03 6.085629272460937500e+01 -2.779188394546508789e+00 -5.369091033935546875e-01 2.347629517316818237e-01 -9.064384549856185913e-02 -1.466802120208740234e+00
2.164000000000000000e+03 8.037167549133300781e+00 -3.030781173706054688e+01 -5.500202775001525879e-01 3.077676057815551758e+00 7.582967281341552734e-01 3.821787238121032715e-01
2.165000000000000000e+03 4.430831909179687500e+01 3.114479064941406250e+00 9.690788388252258301e-01 2.093966305255889893e-01 3.535426259040832520e-01 -1.028486411087214947e-03
2.166000000000000000e+03 4.827023696899414062e+01 1.517057418823242188e+00 5.818549990653991699e-01 2.374350428581237793e-01 2.457870095968246460e-01 -1.220222339034080505e-01
2.167000000000000000e+03 3.038215637207031250e+01 -1.237715625762939453e+01 -2.581702947616577148e+00 5.746827721595764160e-01 -6.021060347557067871e-01 -3.677278757095336914e-01
2.168000000000000000e+03 7.484330654144287109e+00 2.716621589660644531e+01 -1.604992896318435669e-01 6.661085486412048340e-01 1.516827642917633057e-01 -8.461764454841613770e-02
2.169000000000000000e+03 5.891419601440429688e+01 -3.231076717376708984e+00 -8.169364333152770996e-01 -5.392392165958881378e-03 -2.466986477375030518e-01 -9.307198524475097656e-01
2.170000000000000000e+03 5.741729354858398438e+01 -2.853421211242675781e+00 -6.058328151702880859e-01 -2.755811146926134825e-04 -1.818325221538543701e-01 -6.890082955360412598e-01
2.171000000000000000e+03 8.802698135375976562e+00 7.073538780212402344e+00 5.331579446792602539e-01 1.061388134956359863e+00 4.783638119697570801e-01 1.778819561004638672e-01
2.172000000000000000e+03 6.711070060729980469e+00 8.102310180664062500e+00 4.862020313739776611e-01 4.250113368034362793e-01 2.733640074729919434e-01 2.397069483995437622e-01
2.173000000000000000e+03 9.808160781860351562e+00 1.082469081878662109e+01 8.304760456085205078e-01 1.732438921928405762e+00 7.688744664192199707e-01 -1.944716870784759521e-01
2.174000000000000000e+03 5.929380416870117188e+00 1.276672172546386719e+01 3.502963483333587646e-01 3.564514517784118652e-01 2.120243459939956665e-01 -2.102150917053222656e-01
2.175000000000000000e+03 5.784400177001953125e+01 5.514017581939697266e+00 5.623273849487304688e-01 1.596205949783325195e+00 6.475600004196166992e-01 -6.168552041053771973e-01
2.176000000000000000e+03 6.690448284149169922e+00 -1.227169704437255859e+01 1.922245383262634277e+00 7.324931621551513672e+00 2.774152994155883789e+00 -1.330349206924438477e+00
2.177000000000000000e+03 5.252298831939697266e+00 -1.225616741180419922e+01 1.647381424903869629e+00 4.244017124176025391e+00 1.767419576644897461e+00 -8.721165060997009277e-01
2.178000000000000000e+03 8.302466392517089844e+00 7.954198360443115234e+00 6.008729934692382812e-01 9.420204758644104004e-01 4.628680348396301270e-01 1.511842161417007446e-01
2.179000000000000000e+03 6.662113189697265625e+00 9.630888938903808594e+00 5.445198416709899902e-01 4.779065847396850586e-01 3.067279160022735596e-01 6.905920058488845825e-02
2.180000000000000000e+03 5.699991703033447266e+00 -7.210842132568359375e+00 -7.354723811149597168e-01 2.879642486572265625e+00 6.432510614395141602e-01 -1.239883974194526672e-01
2.181000000000000000e+03 1.061308670043945312e+01 1.836929702758789062e+01 -2.434472888708114624e-01 1.744184732437133789e+00 4.502212405204772949e-01 -2.603534460067749023e-01
2.182000000000000000e+03 1.225868415832519531e+01 1.737592887878417969e+01 -2.463823854923248291e-01 2.246964216232299805e+00 6.001745462417602539e-01 -1.095076948404312134e-01
2.183000000000000000e+03 5.867232894897460938e+01 8.087501525878906250e+00 4.334620237350463867e-01 2.403606176376342773e+00 8.511204719543457031e-01 -7.484170794486999512e-01
2.184000000000000000e+03 5.750065994262695312e+01 6.892437458038330078e+00 4.754605591297149658e-01 1.874399900436401367e+00 7.049581408500671387e-01 -4.889034926891326904e-01
2.185000000000000000e+03 3.335471343994140625e+01 1.327573490142822266e+01 7.136662006378173828e-01 2.053254365921020508e+00 8.300762176513671875e-01 1.479709148406982422e+00
2.186000000000000000e+03 3.872124862670898438e+01 1.251947784423828125e+01 8.380483984947204590e-01 1.787320375442504883e+00 7.876106500625610352e-01 1.126486420631408691e+00
2.187000000000000000e+03 8.001073837280273438e+00 -2.465326881408691406e+01 -9.383764266967773438e-01 4.090637207031250000e+00 9.456782341003417969e-01 7.377827167510986328e-01
2.188000000000000000e+03 6.883315277099609375e+01 -2.603418922424316406e+01 -1.040051341056823730e+00 7.267862319946289062e+00 1.868343353271484375e+00 1.725890338420867920e-01
2.189000000000000000e+03 5.094208526611328125e+01 6.675988435745239258e-01 3.730972707271575928e-01 1.477609127759933472e-01 1.562574505805969238e-01 -2.224823981523513794e-01
2.190000000000000000e+03 4.075444793701171875e+01 6.821762561798095703e+00 9.680847525596618652e-01 7.674666047096252441e-01 5.206654071807861328e-01 1.477178037166595459e-01
2.191000000000000000e+03 4.236403656005859375e+01 -1.008141040802001953e+01 -1.668883442878723145e+00 2.406038194894790649e-01 -4.284838736057281494e-01 -6.389924287796020508e-01
2.192000000000000000e+03 4.909208679199218750e+01 2.667673683166503906e+01 9.259976148605346680e-01 1.901146411895751953e+00 8.481432199478149414e-01 8.606861531734466553e-02
2.193000000000000000e+03 3.805011367797851562e+01 9.888702392578125000e+00 9.828251004219055176e-01 1.430891990661621094e+00 7.241151332855224609e-01 9.581687450408935547e-01
2.194000000000000000e+03 5.925353240966796875e+01 1.027399349212646484e+01 4.905675053596496582e-01 2.860722780227661133e+00 1.005387067794799805e+00 -9.027673006057739258e-01
2.195000000000000000e+03 2.746201133728027344e+01 -1.262377071380615234e+01 -3.170603275299072266e+00 6.382524371147155762e-01 -7.597052454948425293e-01 -1.508692055940628052e-01
2.196000000000000000e+03 3.612501907348632812e+01 1.784900093078613281e+01 5.524204373359680176e-01 1.976844787597656250e+00 7.587795853614807129e-01 9.666033983230590820e-01
2.197000000000000000e+03 2.794799995422363281e+01 -1.152409648895263672e+01 -2.558928728103637695e+00 6.919045448303222656e-01 -5.601072311401367188e-01 -3.832574784755706787e-01
2.198000000000000000e+03 6.820612430572509766e+00 -2.176530647277832031e+01 -9.329274892807006836e-01 4.878954410552978516e+00 1.183808088302612305e+00 1.300978064537048340e+00
2.199000000000000000e+03 6.160253143310546875e+01 9.117017745971679688e+00 4.442985951900482178e-01 3.201835393905639648e+00 1.093840241432189941e+00 -1.236893177032470703e+00
2.200000000000000000e+03 5.777283477783203125e+01 -6.283780097961425781e+00 -2.249563455581665039e+00 -4.068577587604522705e-01 -7.969263195991516113e-01 -9.258306622505187988e-01
2.201000000000000000e+03 2.379795455932617188e+01 -9.762430191040039062e+00 -2.111434936523437500e+00 9.236028194427490234e-01 -3.563496172428131104e-01 -5.478194355964660645e-01
2.202000000000000000e+03 7.300392150878906250e+01 3.399451065063476562e+01 9.160373359918594360e-02 5.188983440399169922e+00 1.584176182746887207e+00 -1.929233819246292114e-01
2.203000000000000000e+03 6.976113128662109375e+01 3.127447700500488281e+01 1.824633628129959106e-01 4.886885166168212891e+00 1.520804643630981445e+00 -3.204795420169830322e-01
2.204000000000000000e+03 6.182256317138671875e+01 -3.078916740417480469e+01 -3.819614350795745850e-01 2.451509952545166016e+00 6.208645105361938477e-01 3.455626368522644043e-01
2.205000000000000000e+03 5.524140167236328125e+01 -2.132230043411254883e+00 -4.599978625774383545e-01 7.482127845287322998e-02 -1.155529767274856567e-01 -4.761782288551330566e-01
2.206000000000000000e+03 5.361006164550781250e+01 -6.331781864166259766e+00 -1.660345792770385742e+00 -1.039451882243156433e-01 -5.292873382568359375e-01 -6.090719103813171387e-01
2.207000000000000000e+03 2.930876159667968750e+01 1.575519847869873047e+01 -2.897867858409881592e-01 2.382174253463745117e+00 6.277162432670593262e-01 9.493420124053955078e-01
2.208000000000000000e+03 2.941276168823242188e+01 1.711328125000000000e+01 -3.250511586666107178e-01 2.158528804779052734e+00 5.500432848930358887e-01 6.994283795356750488e-01
2.209000000000000000e+03 4.310366439819335938e+01 3.084350824356079102e+00 1.021916389465332031e+00 2.406616657972335815e-01 3.787734210491180420e-01 -3.244793042540550232e-02
2.210000000000000000e+03 4.541252517700195312e+01 3.004442930221557617e+00 8.970901966094970703e-01 2.340505421161651611e-01 3.393422067165374756e-01 -5.754727870225906372e-02
2.211000000000000000e+03 5.731062698364257812e+01 -3.152204322814941406e+01 -3.729944527149200439e-01 4.186064004898071289e-01 1.368357706815004349e-02 -1.079635992646217346e-01
2.212000000000000000e+03 9.256027221679687500e+00 -3.373385620117187500e+01 -3.592766821384429932e-01 2.715235471725463867e+00 7.067876458168029785e-01 1.646992266178131104e-01
2.213000000000000000e+03 3.985872650146484375e+01 2.127078056335449219e+01 5.759326815605163574e-01 2.038707017898559570e+00 7.843919396400451660e-01 7.065085768699645996e-01
2.214000000000000000e+03 4.382339477539062500e+01 1.997395324707031250e+01 8.250281214714050293e-01 2.019470691680908203e+00 8.533496260643005371e-01 9.322222471237182617e-01
2.215000000000000000e+03 3.980282974243164062e+01 -1.169536590576171875e+01 -1.970097064971923828e+00 3.110265731811523438e-01 -4.977211356163024902e-01 -6.239561438560485840e-01
2.216000000000000000e+03 7.040648651123046875e+01 -1.989841270446777344e+01 -9.467241168022155762e-01 1.006312942504882812e+01 2.734921693801879883e+00 -4.155503511428833008e-01
2.217000000000000000e+03 5.942667770385742188e+01 2.234417533874511719e+01 5.788710713386535645e-01 3.443342447280883789e+00 1.206664085388183594e+00 -6.645038127899169922e-01
2.218000000000000000e+03 5.736359024047851562e+01 2.337187576293945312e+01 6.348415017127990723e-01 3.077682256698608398e+00 1.113757133483886719e+00 -6.145020723342895508e-01
2.219000000000000000e+03 2.925074958801269531e+01 -1.182951545715332031e+01 -2.519607305526733398e+00 6.405863761901855469e-01 -5.637062788009643555e-01 -3.896206319332122803e-01
2.220000000000000000e+03 7.333229827880859375e+01 -2.280487632751464844e+01 -8.044108152389526367e-01 9.414012908935546875e+00 2.582880496978759766e+00 -1.114464640617370605e+00
2.221000000000000000e+03 4.759402465820312500e+01 -4.126042556762695312e+01 1.899167895317077637e-01 -4.648821055889129639e-01 -8.248959481716156006e-02 -6.795559078454971313e-02
2.222000000000000000e+03 8.300967216491699219e+00 1.311009693145751953e+01 5.404188036918640137e-01 1.174337387084960938e+00 5.144268274307250977e-01 -3.544230461120605469e-01
2.223000000000000000e+03 5.543081665039062500e+01 2.517594575881958008e+00 6.061568856239318848e-01 5.292204022407531738e-01 3.406131863594055176e-01 -4.269497394561767578e-01
2.224000000000000000e+03 4.559805297851562500e+01 2.515310287475585938e+01 8.583747744560241699e-01 1.763161301612854004e+00 7.864608168601989746e-01 4.772833585739135742e-01
2.225000000000000000e+03 4.222348403930664062e+01 2.370187950134277344e+01 6.315720081329345703e-01 1.941970467567443848e+00 7.720627784729003906e-01 6.361540555953979492e-01
2.226000000000000000e+03 3.957944869995117188e+01 6.770242691040039062e+00 1.038952112197875977e+00 8.804391026496887207e-01 5.758173465728759766e-01 3.437026143074035645e-01
2.227000000000000000e+03 3.953302383422851562e+01 7.912555694580078125e+00 9.291484951972961426e-01 1.086408138275146484e+00 6.046670079231262207e-01 4.645778834819793701e-01
2.228000000000000000e+03 6.135508346557617188e+01 1.464303493499755859e+01 7.073444128036499023e-01 3.554968595504760742e+00 1.278693914413452148e+00 -1.011230230331420898e+00
2.229000000000000000e+03 6.211930274963378906e+00 -2.941243743896484375e+01 -4.724904596805572510e-01 3.171499967575073242e+00 8.097028136253356934e-01 6.003725528717041016e-01
2.230000000000000000e+03 3.954464721679687500e+01 -3.804998016357421875e+01 -2.845704555511474609e-01 -2.642222940921783447e-01 -1.646378189325332642e-01 -9.329274296760559082e-02
2.231000000000000000e+03 7.457351684570312500e+01 1.239029765129089355e+00 -6.977829933166503906e-01 8.187051773071289062e+00 2.246780633926391602e+00 5.439715925604104996e-03
2.232000000000000000e+03 7.358211517333984375e+01 9.206588268280029297e-01 -8.929153680801391602e-01 8.222564697265625000e+00 2.198894977569580078e+00 -1.393546462059020996e-01
2.233000000000000000e+03 7.155390167236328125e+01 2.001972770690917969e+01 1.835399121046066284e-01 5.465615272521972656e+00 1.694746494293212891e+00 -6.367161273956298828e-01
2.234000000000000000e+03 7.340734863281250000e+01 6.191947937011718750e+00 -3.281241059303283691e-01 7.065553188323974609e+00 2.021228551864624023e+00 -6.932919025421142578e-01
2.235000000000000000e+03 7.275940704345703125e+01 7.659646987915039062e+00 -2.181342393159866333e-01 6.673601150512695312e+00 1.936640024185180664e+00 -8.375056982040405273e-01
2.236000000000000000e+03 1.532583618164062500e+01 -4.612305641174316406e+00 3.689023971557617188e+00 6.634508609771728516e+00 3.097059726715087891e+00 4.905908107757568359e+00
2.237000000000000000e+03 1.300688743591308594e+01 -3.571391820907592773e+00 5.397385120391845703e+00 5.221617221832275391e-01 1.775864005088806152e+00 4.173936367034912109e+00
2.238000000000000000e+03 1.831052780151367188e+01 -5.043218731880187988e-01 6.191217899322509766e+00 4.875058174133300781e+00 3.319882631301879883e+00 4.085008621215820312e+00
2.239000000000000000e+03 1.849884796142578125e+01 1.474468946456909180e+00 1.944484353065490723e+00 3.176605701446533203e+00 1.536327004432678223e+00 2.680385112762451172e+00
2.240000000000000000e+03 1.509383964538574219e+01 -4.806828498840332031e+00 3.497303485870361328e+00 5.846637248992919922e+00 2.803182125091552734e+00 5.048568248748779297e+00
2.241000000000000000e+03 1.756540298461914062e+01 -3.610866069793701172e+00 6.930991649627685547e+00 6.622624397277832031e+00 4.066084861755371094e+00 -1.702779829502105713e-01
2.242000000000000000e+03 1.787792778015136719e+01 -3.492291688919067383e+00 7.341226577758789062e+00 5.543419361114501953e+00 3.865393877029418945e+00 -1.380254179239273071e-01
2.243000000000000000e+03 1.628912734985351562e+01 -4.336745738983154297e+00 3.885561943054199219e+00 8.359986305236816406e+00 3.673664569854736328e+00 2.491042613983154297e+00
2.244000000000000000e+03 1.578717994689941406e+01 -4.651159286499023438e+00 3.298207998275756836e+00 7.517464637756347656e+00 3.244701862335205078e+00 3.835528135299682617e+00
2.245000000000000000e+03 1.615945816040039062e+01 -4.839641094207763672e+00 3.142216920852661133e+00 7.146359443664550781e+00 3.086572885513305664e+00 2.877216815948486328e+00
2.246000000000000000e+03 1.837578392028808594e+01 -1.540153026580810547e+00 8.810469627380371094e+00 4.116083621978759766e+00 3.877965927124023438e+00 3.237895250320434570e+00
2.247000000000000000e+03 1.830986595153808594e+01 -1.091325759887695312e+00 7.995839118957519531e+00 4.477958202362060547e+00 3.742139339447021484e+00 3.797630548477172852e+00
2.248000000000000000e+03 1.673896980285644531e+01 -4.367224216461181641e+00 4.222787857055664062e+00 7.799134731292724609e+00 3.606576681137084961e+00 1.442643165588378906e+00
2.249000000000000000e+03 1.831827545166015625e+01 -8.210284709930419922e-01 7.052960872650146484e+00 4.705723285675048828e+00 3.527605295181274414e+00 3.976266622543334961e+00
2.250000000000000000e+03 1.855127525329589844e+01 -1.776442170143127441e+00 8.890826225280761719e+00 3.609297752380371094e+00 3.750037193298339844e+00 2.639201164245605469e+00
2.251000000000000000e+03 1.809013748168945312e+01 -2.180988788604736328e+00 9.876832008361816406e+00 4.462032794952392578e+00 4.301659584045410156e+00 1.924511194229125977e+00
2.252000000000000000e+03 1.629622840881347656e+01 1.325698852539062500e+00 -5.554805696010589600e-02 6.054378509521484375e+00 1.799649119377136230e+00 -9.715169072151184082e-01
2.253000000000000000e+03 1.675880050659179688e+01 6.398544311523437500e-01 1.067189931869506836e+00 7.460492610931396484e+00 2.558304786682128906e+00 8.390806913375854492e-01
2.254000000000000000e+03 1.808944129943847656e+01 1.715086698532104492e+00 1.483492732048034668e+00 3.346944332122802734e+00 1.449131131172180176e+00 1.892557382583618164e+00
2.255000000000000000e+03 1.711040115356445312e+01 4.581401348114013672e-01 1.977508544921875000e+00 7.405539035797119141e+00 2.814914226531982422e+00 1.988167643547058105e+00
2.256000000000000000e+03 1.094947052001953125e+01 -3.942943572998046875e+00 2.332305192947387695e+00 6.500465273857116699e-01 8.947054743766784668e-01 3.104024648666381836e+00
2.257000000000000000e+03 1.435586357116699219e+01 1.692757487297058105e+00 -1.476967781782150269e-01 3.396137237548828125e+00 9.745321273803710938e-01 -2.379607200622558594e+00
2.258000000000000000e+03 1.532221221923828125e+01 1.374996662139892578e+00 -1.236231029033660889e-01 5.002235889434814453e+00 1.463583827018737793e+00 -2.144035816192626953e+00
2.259000000000000000e+03 1.612300682067871094e+01 9.326071739196777344e-01 2.833448648452758789e-01 6.811155796051025391e+00 2.128350257873535156e+00 -9.821503758430480957e-01
2.260000000000000000e+03 1.658104133605957031e+01 1.003985047340393066e+00 6.348406076431274414e-01 6.691356182098388672e+00 2.197859048843383789e+00 5.636005848646163940e-02
2.261000000000000000e+03 8.271383285522460938e+00 -5.060780048370361328e+00 6.146831810474395752e-02 1.880244135856628418e+00 5.825137495994567871e-01 1.812649369239807129e+00
2.262000000000000000e+03 7.343463420867919922e+00 -5.899172782897949219e+00 -5.629838705062866211e-01 2.641342878341674805e+00 6.235076785087585449e-01 1.266831636428833008e+00
2.263000000000000000e+03 6.754198551177978516e+00 6.711027622222900391e+00 3.513965904712677002e-01 3.451190292835235596e-01 2.089546769857406616e-01 3.372772037982940674e-01
2.264000000000000000e+03 1.758016586303710938e+01 1.849174857139587402e+00 4.593574106693267822e-01 3.989222049713134766e+00 1.334573864936828613e+00 7.269575595855712891e-01
2.265000000000000000e+03 1.663704299926757812e+01 1.793334960937500000e+00 -1.883068233728408813e-01 5.142509937286376953e+00 1.486261010169982910e+00 -5.504612922668457031e-01
2.266000000000000000e+03 1.821116256713867188e+01 2.302186727523803711e+00 6.976996064186096191e-01 2.258779525756835938e+00 8.869437575340270996e-01 1.476718306541442871e+00
2.267000000000000000e+03 2.177800369262695312e+01 9.097481966018676758e-01 3.385297775268554688e+00 2.009524345397949219e+00 1.618446588516235352e+00 3.856501102447509766e+00
2.268000000000000000e+03 1.683866500854492188e+01 -8.923127174377441406e+00 -2.214786291122436523e+00 1.304561972618103027e+00 -2.730673253536224365e-01 1.896536111831665039e+00
2.269000000000000000e+03 9.648710250854492188e+00 1.000211048126220703e+01 8.540371656417846680e-01 1.604011893272399902e+00 7.374147176742553711e-01 -1.176697239279747009e-01
2.270000000000000000e+03 1.407975387573242188e+01 -8.915615081787109375e+00 -1.426884770393371582e+00 3.980434834957122803e-01 -3.086524009704589844e-01 4.648422241210937500e+00
2.271000000000000000e+03 1.933934402465820312e+01 1.054852724075317383e+00 3.154372215270996094e+00 2.707639217376708984e+00 1.758603453636169434e+00 3.579570770263671875e+00
2.272000000000000000e+03 7.334940910339355469e+00 1.333457374572753906e+01 4.443887770175933838e-01 8.363248109817504883e-01 3.842140734195709229e-01 -3.399620354175567627e-01
2.273000000000000000e+03 1.440872192382812500e+01 -8.256084442138671875e+00 -8.996704816818237305e-01 1.215647578239440918e+00 9.479311853647232056e-02 4.689383029937744141e+00
2.274000000000000000e+03 3.469098281860351562e+01 1.294883823394775391e+01 8.414469957351684570e-01 1.918802857398986816e+00 8.280749320983886719e-01 1.420412898063659668e+00
2.275000000000000000e+03 1.235170364379882812e+01 -8.454680442810058594e+00 -8.245584964752197266e-01 2.116999626159667969e+00 3.877323567867279053e-01 6.493952751159667969e+00
2.276000000000000000e+03 6.016246795654296875e+00 1.567249870300292969e+01 1.637785881757736206e-01 5.258404612541198730e-01 2.068857103586196899e-01 -4.247669279575347900e-01
2.277000000000000000e+03 1.066157245635986328e+01 -8.674169540405273438e+00 -1.789621114730834961e+00 4.495375633239746094e+00 8.117263317108154297e-01 5.745720863342285156e+00
2.278000000000000000e+03 2.595360755920410156e+01 1.091318011283874512e+00 2.332418680191040039e+00 2.253813028335571289e+00 1.375869512557983398e+00 1.878343462944030762e+00
2.279000000000000000e+03 2.654170799255371094e+01 1.721102714538574219e+00 2.266014099121093750e+00 2.455793619155883789e+00 1.416542291641235352e+00 1.732533454895019531e+00
2.280000000000000000e+03 4.096076202392578125e+01 4.288765907287597656e+00 1.077595114707946777e+00 4.448727965354919434e-01 4.567403495311737061e-01 7.969257235527038574e-02
2.281000000000000000e+03 1.628612518310546875e+01 2.171331405639648438e+00 -6.652723550796508789e-01 4.857007503509521484e+00 1.257520556449890137e+00 -1.228805541992187500e+00
2.282000000000000000e+03 1.285696411132812500e+01 -7.962304592132568359e+00 -2.508379220962524414e-01 1.604341268539428711e+00 4.060510396957397461e-01 5.980995655059814453e+00
2.283000000000000000e+03 3.170524406433105469e+01 -1.000816535949707031e+01 -1.650404334068298340e+00 5.926879644393920898e-01 -3.173149228096008301e-01 -5.701340436935424805e-01
2.284000000000000000e+03 1.075098800659179688e+01 5.294850349426269531e+00 3.779694437980651855e-02 1.715415596961975098e+00 5.259637832641601562e-01 -2.287660688161849976e-01
2.285000000000000000e+03 1.080451774597167969e+01 8.573437690734863281e+00 8.844902515411376953e-01 2.196146488189697266e+00 9.241910576820373535e-01 -7.424309104681015015e-02
2.286000000000000000e+03 6.993602275848388672e+00 -9.146727561950683594e+00 -7.556545138359069824e-01 5.623106956481933594e+00 1.460235714912414551e+00 3.206792771816253662e-01
2.287000000000000000e+03 2.311105346679687500e+01 8.406004905700683594e-01 3.010062217712402344e+00 2.091672658920288086e+00 1.530520558357238770e+00 3.269601583480834961e+00
2.288000000000000000e+03 1.578486061096191406e+01 2.365408658981323242e+00 -1.008831977844238281e+00 4.566652297973632812e+00 1.067346096038818359e+00 -1.647948861122131348e+00
2.289000000000000000e+03 4.241499710083007812e+01 -1.134765911102294922e+01 -1.909208893775939941e+00 2.162580490112304688e-01 -5.078852176666259766e-01 -6.753984093666076660e-01
2.290000000000000000e+03 3.871853256225585938e+01 -1.053185081481933594e+01 -1.697778105735778809e+00 3.722176849842071533e-01 -3.976681232452392578e-01 -6.145327687263488770e-01
2.291000000000000000e+03 2.391565322875976562e+01 1.511294126510620117e+00 2.542566061019897461e+00 2.566035747528076172e+00 1.532580614089965820e+00 3.072092771530151367e+00
2.292000000000000000e+03 2.545508575439453125e+01 4.087760150432586670e-01 2.501207828521728516e+00 2.044845581054687500e+00 1.363816022872924805e+00 2.001128196716308594e+00
2.293000000000000000e+03 3.787607574462890625e+01 5.297732830047607422e+00 1.262352108955383301e+00 8.392221331596374512e-01 6.304722428321838379e-01 4.575411975383758545e-01
2.294000000000000000e+03 9.923494338989257812e+00 1.161901569366455078e+01 8.689600825309753418e-01 1.819094896316528320e+00 8.064165115356445312e-01 -2.659828960895538330e-01
2.295000000000000000e+03 4.513933944702148438e+01 -1.108774185180664062e+01 -1.955652356147766113e+00 1.035471782088279724e-01 -5.556315183639526367e-01 -7.429180741310119629e-01
2.296000000000000000e+03 4.900286865234375000e+01 -9.423421859741210938e+00 -1.945014238357543945e+00 -9.645151905715465546e-03 -5.863978266716003418e-01 -7.546816468238830566e-01
2.297000000000000000e+03 1.108532428741455078e+01 7.192582130432128906e+00 5.012766122817993164e-01 2.241807699203491211e+00 8.229253292083740234e-01 -6.781696528196334839e-02
2.298000000000000000e+03 9.971467971801757812e+00 5.765570640563964844e+00 2.327501326799392700e-01 1.376366972923278809e+00 4.827351272106170654e-01 1.019688323140144348e-03
2.299000000000000000e+03 7.964365959167480469e+00 -6.286757469177246094e+00 -4.646810591220855713e-01 2.890156269073486328e+00 7.276425361633300781e-01 1.961956381797790527e+00
2.300000000000000000e+03 3.421392059326171875e+01 -1.219326019287109375e+01 -2.223621845245361328e+00 4.940973818302154541e-01 -5.188573598861694336e-01 -5.061245560646057129e-01
2.301000000000000000e+03 7.170082855224609375e+01 1.304689121246337891e+01 9.058733284473419189e-02 5.911876678466796875e+00 1.800739169120788574e+00 -8.854886293411254883e-01
2.302000000000000000e+03 7.205313110351562500e+01 1.599599647521972656e+01 1.438644975423812866e-01 5.760776996612548828e+00 1.771392464637756348e+00 -7.638581395149230957e-01
2.303000000000000000e+03 2.011053657531738281e+01 -9.734981536865234375e+00 -2.985570192337036133e+00 1.102299094200134277e+00 -5.649812817573547363e-01 4.743245616555213928e-02
2.304000000000000000e+03 4.571210384368896484e+00 7.391068935394287109e+00 2.385130524635314941e-01 -1.453277170658111572e-01 2.795559912919998169e-02 3.543550372123718262e-01
2.305000000000000000e+03 5.921904373168945312e+01 5.781190872192382812e+00 4.924862086772918701e-01 2.025765657424926758e+00 7.554755210876464844e-01 -9.155195951461791992e-01
2.306000000000000000e+03 8.421178817749023438e+00 1.659827423095703125e+01 9.290706366300582886e-02 1.242285728454589844e+00 4.005578458309173584e-01 -4.552461504936218262e-01
2.307000000000000000e+03 3.431570816040039062e+01 -1.029254913330078125e+01 -1.636542916297912598e+00 5.164436697959899902e-01 -3.360297977924346924e-01 -5.838202834129333496e-01
2.308000000000000000e+03 3.621944046020507812e+01 -1.227982330322265625e+01 -2.142056703567504883e+00 4.282157421112060547e-01 -5.141522884368896484e-01 -5.523065924644470215e-01
2.309000000000000000e+03 3.657200241088867188e+01 1.057083892822265625e+01 1.082301974296569824e+00 1.542060613632202148e+00 7.873087525367736816e-01 1.206485867500305176e+00
2.310000000000000000e+03 4.374442291259765625e+01 -1.116730499267578125e+01 -1.912239193916320801e+00 1.642362624406814575e-01 -5.244008898735046387e-01 -6.955705285072326660e-01
2.311000000000000000e+03 3.846445846557617188e+01 7.727468967437744141e+00 1.080175399780273438e+00 1.114335536956787109e+00 6.583532691001892090e-01 6.243762969970703125e-01
2.312000000000000000e+03 6.450599670410156250e+01 -1.905480504035949707e+00 -3.731083571910858154e-01 2.994883298873901367e+00 7.865325212478637695e-01 -3.327002286911010742e+00
2.313000000000000000e+03 5.085437774658203125e+01 -7.056722640991210938e+00 -1.592488408088684082e+00 -2.144549973309040070e-02 -4.841801822185516357e-01 -6.206772327423095703e-01
2.314000000000000000e+03 4.940560913085937500e+01 -8.229225158691406250e+00 -1.744297504425048828e+00 2.035765210166573524e-03 -5.226784944534301758e-01 -6.895477771759033203e-01
2.315000000000000000e+03 7.245139312744140625e+01 -2.184189987182617188e+01 -8.779935240745544434e-01 9.526298522949218750e+00 2.594491481781005859e+00 -9.863486289978027344e-01
2.316000000000000000e+03 7.210718536376953125e+01 1.212375998497009277e+00 -1.091005444526672363e+00 8.077307701110839844e+00 2.095890522003173828e+00 -6.151127815246582031e-01
2.317000000000000000e+03 7.147657012939453125e+01 -4.090712070465087891e+00 -1.291845917701721191e+00 1.098210048675537109e+01 2.907076597213745117e+00 2.890863716602325439e-01
2.318000000000000000e+03 3.379045486450195312e+01 -1.397644138336181641e+01 -2.681119918823242188e+00 4.284580051898956299e-01 -6.757985949516296387e-01 -3.514550328254699707e-01
2.319000000000000000e+03 1.846370315551757812e+01 -8.706791877746582031e+00 -2.094574928283691406e+00 1.603061079978942871e+00 -1.474541425704956055e-01 5.641812086105346680e-01
2.320000000000000000e+03 8.016114234924316406e+00 -9.370288848876953125e+00 -1.846628189086914062e+00 7.803120136260986328e+00 1.786947607994079590e+00 1.115037202835083008e+00
2.321000000000000000e+03 6.984622192382812500e+01 -2.490554809570312500e+01 -1.064747691154479980e+00 8.015307426452636719e+00 2.085167884826660156e+00 -1.287439614534378052e-01
2.322000000000000000e+03 7.264779663085937500e+01 -2.401214408874511719e+01 -8.691693544387817383e-01 9.154168128967285156e+00 2.485499620437622070e+00 -7.405514121055603027e-01
2.323000000000000000e+03 9.786821365356445312e+00 2.602925872802734375e+01 -2.449336946010589600e-01 9.197853803634643555e-01 2.024555057287216187e-01 -9.677864727564156055e-05
2.324000000000000000e+03 7.099802398681640625e+01 3.048260211944580078e+00 -8.005882501602172852e-01 7.096141815185546875e+00 1.888666033744812012e+00 -1.126277089118957520e+00
2.325000000000000000e+03 7.284764862060546875e+01 1.341206264495849609e+01 6.703425198793411255e-02 6.127024173736572266e+00 1.858217477798461914e+00 -7.916508913040161133e-01
2.326000000000000000e+03 7.192873382568359375e+01 1.200862407684326172e+01 4.285589605569839478e-02 6.035653591156005859e+00 1.823552846908569336e+00 -9.024087786674499512e-01
2.327000000000000000e+03 7.220073699951171875e+01 2.568943500518798828e+00 -8.961284160614013672e-01 7.708122730255126953e+00 2.043598413467407227e+00 -7.738924026489257812e-01
2.328000000000000000e+03 7.270693969726562500e+01 3.950357675552368164e+00 -6.162148714065551758e-01 7.326985359191894531e+00 2.013231039047241211e+00 -6.911852955818176270e-01
2.329000000000000000e+03 2.828806877136230469e+01 4.361874580383300781e+00 2.536200284957885742e+00 2.547331571578979492e+00 1.525059580802917480e+00 1.274098396301269531e+00
2.330000000000000000e+03 7.263777256011962891e+00 -2.604347610473632812e+01 -7.964237928390502930e-01 3.657236099243164062e+00 8.582437038421630859e-01 8.047452569007873535e-01
2.331000000000000000e+03 7.975896835327148438e+00 1.780255126953125000e+01 -3.725526854395866394e-02 1.095897078514099121e+00 3.175925314426422119e-01 -4.386329352855682373e-01
2.332000000000000000e+03 7.063781738281250000e+00 -3.215586853027343750e+01 -3.519157171249389648e-01 3.021788835525512695e+00 8.009619116783142090e-01 3.354046046733856201e-01
2.333000000000000000e+03 1.160215854644775391e+01 -2.952076721191406250e+01 -6.413805484771728516e-01 2.825927734375000000e+00 6.553641557693481445e-01 -3.981019183993339539e-02
2.334000000000000000e+03 2.717874526977539062e+01 9.712064266204833984e-01 2.167763471603393555e+00 2.024503469467163086e+00 1.257680058479309082e+00 1.372486233711242676e+00
2.335000000000000000e+03 9.734543800354003906e+00 1.690507316589355469e+01 1.519417855888605118e-02 1.633184194564819336e+00 4.945135116577148438e-01 -4.150770604610443115e-01
2.336000000000000000e+03 2.323891639709472656e+01 -9.091191291809082031e+00 -1.606406807899475098e+00 9.893646836280822754e-01 -1.851126551628112793e-01 -6.014835834503173828e-01
2.337000000000000000e+03 2.670391273498535156e+01 -1.124979400634765625e+01 -2.674480438232421875e+00 7.273674011230468750e-01 -5.841339230537414551e-01 -3.787004649639129639e-01
2.338000000000000000e+03 2.602677917480468750e+01 -9.941526412963867188e+00 -1.900139927864074707e+00 8.061296343803405762e-01 -3.282030820846557617e-01 -5.599338412284851074e-01
2.339000000000000000e+03 5.792008590698242188e+01 4.132230758666992188e+00 5.776663422584533691e-01 1.299762010574340820e+00 5.632284879684448242e-01 -7.240449190139770508e-01
2.340000000000000000e+03 7.251623535156250000e+01 1.464718246459960938e+01 1.100238487124443054e-01 5.965569496154785156e+00 1.822677969932556152e+00 -7.808239459991455078e-01
2.341000000000000000e+03 3.828469467163085938e+01 8.808280944824218750e+00 1.003631353378295898e+00 1.321459054946899414e+00 6.975271105766296387e-01 8.062348961830139160e-01
2.342000000000000000e+03 3.860957336425781250e+01 6.702758312225341797e+00 1.124047875404357910e+00 9.768701791763305664e-01 6.302754282951354980e-01 5.073740482330322266e-01
2.343000000000000000e+03 7.100182056427001953e+00 -8.293417930603027344e+00 -1.367781400680541992e+00 5.377838611602783203e+00 1.203017115592956543e+00 4.578650593757629395e-01
2.344000000000000000e+03 7.443418025970458984e+00 7.360368251800537109e+00 4.661250412464141846e-01 5.732825398445129395e-01 3.118222951889038086e-01 2.547172009944915771e-01
2.345000000000000000e+03 5.910131454467773438e+00 1.034957504272460938e+01 4.633772373199462891e-01 2.890351116657257080e-01 2.257236987352371216e-01 2.898254245519638062e-02
2.346000000000000000e+03 1.183720207214355469e+01 1.863403892517089844e+01 -3.475774824619293213e-01 1.957445025444030762e+00 4.829602837562561035e-01 -4.362704604864120483e-02
2.347000000000000000e+03 1.021756172180175781e+01 1.957564163208007812e+01 -3.024379014968872070e-01 1.555129170417785645e+00 3.758074045181274414e-01 -2.066859155893325806e-01
2.348000000000000000e+03 5.706455612182617188e+01 -3.918673753738403320e+00 -1.140764951705932617e+00 -1.382493525743484497e-01 -3.837042748928070068e-01 -6.393698453903198242e-01
2.349000000000000000e+03 7.304037570953369141e+00 3.015256881713867188e+01 -9.723933786153793335e-02 5.833613276481628418e-01 1.458366066217422485e-01 -2.566987648606300354e-02
2.350000000000000000e+03 1.027519702911376953e+01 2.987038230895996094e+01 -1.186595112085342407e-01 7.498822212219238281e-01 1.893668174743652344e-01 5.432786419987678528e-02
2.351000000000000000e+03 5.743014907836914062e+01 8.228146553039550781e+00 4.368143677711486816e-01 2.142130374908447266e+00 7.736834883689880371e-01 -4.649206399917602539e-01
2.352000000000000000e+03 8.134532928466796875e+00 1.203105354309082031e+01 6.257438659667968750e-01 1.076257944107055664e+00 5.106005668640136719e-01 -2.462354451417922974e-01
2.353000000000000000e+03 5.260726547241210938e+01 6.411616802215576172e-01 3.275781571865081787e-01 1.588006764650344849e-01 1.459136456251144409e-01 -2.816590666770935059e-01
2.354000000000000000e+03 4.673104476928710938e+01 1.202543377876281738e+00 5.727985501289367676e-01 2.139702141284942627e-01 2.360306233167648315e-01 -1.165431961417198181e-01
2.355000000000000000e+03 7.182632446289062500e+01 2.169677352905273438e+01 1.688654869794845581e-01 5.454668521881103516e+00 1.687060117721557617e+00 -5.601730346679687500e-01
2.356000000000000000e+03 7.386880397796630859e+00 1.043354415893554688e+01 6.279812455177307129e-01 7.360371947288513184e-01 4.092055261135101318e-01 -4.782349988818168640e-02
2.357000000000000000e+03 7.239354705810546875e+01 -3.043886947631835938e+01 -4.021497070789337158e-01 8.299212455749511719e+00 2.369118928909301758e+00 -9.139868617057800293e-02
2.358000000000000000e+03 6.889527130126953125e+01 -3.018226242065429688e+01 -5.921169519424438477e-01 6.717896461486816406e+00 1.837733864784240723e+00 2.418384402990341187e-01
2.359000000000000000e+03 5.236196517944335938e+01 -1.906158924102783203e+00 -3.058367967605590820e-01 5.956159159541130066e-02 -7.388255745172500610e-02 -3.196037411689758301e-01
2.360000000000000000e+03 5.343664550781250000e+01 1.349720597267150879e+00 4.630579650402069092e-01 2.354763299226760864e-01 2.095602899789810181e-01 -2.832244634628295898e-01
2.361000000000000000e+03 4.069894027709960938e+01 3.189295768737792969e+00 1.040800452232360840e+00 4.007036089897155762e-01 4.324512183666229248e-01 5.719859898090362549e-02
2.362000000000000000e+03 3.715757751464843750e+01 1.658772277832031250e+01 7.286152243614196777e-01 1.935457110404968262e+00 7.992216944694519043e-01 1.066694617271423340e+00
2.363000000000000000e+03 2.715524864196777344e+01 -1.012182235717773438e+01 -1.920044302940368652e+00 7.395824193954467773e-01 -3.541385829448699951e-01 -5.393011569976806641e-01
2.364000000000000000e+03 4.592095947265625000e+01 1.556686639785766602e+00 6.256945729255676270e-01 2.172144204378128052e-01 2.528727054595947266e-01 -6.474640220403671265e-02
2.365000000000000000e+03 4.918902206420898438e+01 5.852833390235900879e-01 3.862893283367156982e-01 1.711774021387100220e-01 1.672400236129760742e-01 -1.716799437999725342e-01
2.366000000000000000e+03 4.782941818237304688e+01 -9.255887031555175781e+00 -1.795058488845825195e+00 4.461272433400154114e-02 -5.251337289810180664e-01 -7.055602669715881348e-01
2.367000000000000000e+03 4.724634933471679688e+01 -1.431537389755249023e+00 9.438388049602508545e-03 1.511790305376052856e-01 4.818522557616233826e-02 -1.916541159152984619e-01
2.368000000000000000e+03 3.003891372680664062e+01 1.463005352020263672e+01 -1.499844528734683990e-02 2.457965612411499023e+00 7.328901886940002441e-01 1.240385174751281738e+00
2.369000000000000000e+03 2.981723022460937500e+01 1.162730312347412109e+01 8.107256889343261719e-01 2.669005393981933594e+00 1.043919324874877930e+00 1.827543377876281738e+00
2.370000000000000000e+03 7.087562561035156250e+01 -2.854990959167480469e+01 -6.630342006683349609e-01 7.823882102966308594e+00 2.148254394531250000e+00 -4.843223467469215393e-02
2.371000000000000000e+03 9.222447395324707031e+00 -2.772081565856933594e+01 -8.002384305000305176e-01 3.476661443710327148e+00 8.029268980026245117e-01 2.882591187953948975e-01
2.372000000000000000e+03 6.947238922119140625e+01 2.638742446899414062e+01 2.176117897033691406e-01 4.938834190368652344e+00 1.546933770179748535e+00 -4.775905907154083252e-01
2.373000000000000000e+03 2.594631576538085938e+01 -9.087539672851562500e+00 -1.372652888298034668e+00 7.928094267845153809e-01 -1.739530116319656372e-01 -5.961711406707763672e-01
2.374000000000000000e+03 6.271585464477539062e+01 1.111896800994873047e+01 4.683976471424102783e-01 3.659905433654785156e+00 1.238490939140319824e+00 -1.248123764991760254e+00
2.375000000000000000e+03 7.225796508789062500e+01 -2.662547302246093750e+01 -7.343950271606445312e-01 8.626905441284179688e+00 2.367753028869628906e+00 -3.777631819248199463e-01
2.376000000000000000e+03 7.077759552001953125e+01 -2.393679618835449219e+01 -1.079717516899108887e+00 8.698287963867187500e+00 2.285571336746215820e+00 -3.562213778495788574e-01
2.377000000000000000e+03 6.818313598632812500e+01 -2.049088239669799805e+00 -1.451220393180847168e+00 7.586165904998779297e+00 1.840483665466308594e+00 -2.777372121810913086e+00
2.378000000000000000e+03 5.672555160522460938e+01 -6.150529384613037109e+00 -2.000746011734008789e+00 -2.707571387290954590e-01 -6.814509630203247070e-01 -7.859492301940917969e-01
2.379000000000000000e+03 5.805969619750976562e+01 -5.270938873291015625e+00 -1.772554516792297363e+00 -2.902884185314178467e-01 -6.188529133796691895e-01 -7.685390710830688477e-01
2.380000000000000000e+03 5.437498474121093750e+01 1.947214245796203613e+00 5.322850942611694336e-01 3.491545319557189941e-01 2.644318938255310059e-01 -3.387933373451232910e-01
2.381000000000000000e+03 7.012712097167968750e+01 -2.559576272964477539e+00 -1.777037143707275391e+00 9.566030502319335938e+00 2.336698055267333984e+00 -1.238959193229675293e+00
2.382000000000000000e+03 8.391829490661621094e+00 -1.940019607543945312e+01 -4.028598666191101074e-01 7.046223163604736328e+00 1.993008971214294434e+00 4.395807385444641113e-01
2.383000000000000000e+03 6.986913299560546875e+01 -2.290138626098632812e+01 -1.177919268608093262e+00 8.507956504821777344e+00 2.199011087417602539e+00 -2.388135492801666260e-01
2.384000000000000000e+03 3.847257614135742188e+01 1.914158439636230469e+01 6.652351021766662598e-01 2.010916709899902344e+00 8.028455376625061035e-01 8.086977601051330566e-01
2.385000000000000000e+03 1.052001285552978516e+01 -2.530267143249511719e+01 -8.612206578254699707e-01 3.820106029510498047e+00 8.876656293869018555e-01 -9.279001504182815552e-02
2.386000000000000000e+03 7.303568267822265625e+01 -6.388649940490722656e+00 6.079896688461303711e-01 1.031478595733642578e+01 3.276832818984985352e+00 1.114754199981689453e+00
2.387000000000000000e+03 7.081085205078125000e+01 6.093326568603515625e+00 -3.960358202457427979e-01 6.466221809387207031e+00 1.821055769920349121e+00 -1.142495274543762207e+00
2.388000000000000000e+03 7.236023712158203125e+01 6.628605365753173828e+00 -3.164028525352478027e-01 6.796591281890869141e+00 1.944056510925292969e+00 -8.805361390113830566e-01
2.389000000000000000e+03 5.114900207519531250e+01 -5.690632343292236328e+00 -1.294297575950622559e+00 9.971299208700656891e-03 -3.852978944778442383e-01 -4.936263561248779297e-01
2.390000000000000000e+03 6.641271972656250000e+01 -2.678894615173339844e+01 -9.715855717658996582e-01 5.607666492462158203e+00 1.390824198722839355e+00 4.826888740062713623e-01
2.391000000000000000e+03 5.888005828857421875e+01 9.192756652832031250e+00 4.401019215583801270e-01 2.682941913604736328e+00 9.369131326675415039e-01 -8.406395912170410156e-01
2.392000000000000000e+03 8.579517364501953125e+00 2.861621093750000000e+01 -1.428953409194946289e-01 7.118135690689086914e-01 1.706754714250564575e-01 -1.081997528672218323e-02
2.393000000000000000e+03 8.277032852172851562e+00 2.625905799865722656e+01 -2.044084519147872925e-01 7.762097120285034180e-01 1.715403795242309570e-01 -7.452256232500076294e-02
2.394000000000000000e+03 8.035995483398437500e+00 1.404225349426269531e+01 4.225298166275024414e-01 1.092735767364501953e+00 4.545796811580657959e-01 -4.073942601680755615e-01
2.395000000000000000e+03 9.448508262634277344e+00 1.330623817443847656e+01 5.951033234596252441e-01 1.596209883689880371e+00 6.573939919471740723e-01 -3.670566976070404053e-01
2.396000000000000000e+03 7.130528259277343750e+01 1.412793064117431641e+01 1.331592798233032227e-01 5.725033760070800781e+00 1.757457971572875977e+00 -8.814280033111572266e-01
2.397000000000000000e+03 1.743599128723144531e+01 -3.295681381225585938e+01 -2.956303656101226807e-01 1.200282692909240723e+00 2.713956832885742188e-01 -2.195793688297271729e-01
2.398000000000000000e+03 2.964684677124023438e+01 -1.069385719299316406e+01 -2.017807960510253906e+00 6.600850224494934082e-01 -4.073168933391571045e-01 -5.091630816459655762e-01
2.399000000000000000e+03 3.828487014770507812e+01 2.090661430358886719e+01 5.188240408897399902e-01 2.016252756118774414e+00 7.605230212211608887e-01 6.992666721343994141e-01
2.400000000000000000e+03 7.046217346191406250e+01 -3.542831039428710938e+01 -1.476548165082931519e-01 7.075415134429931641e+00 2.078328132629394531e+00 1.152209788560867310e-01
2.401000000000000000e+03 3.121936988830566406e+01 1.383555221557617188e+01 3.995717167854309082e-01 2.329959154129028320e+00 8.188592791557312012e-01 1.459369182586669922e+00
2.402000000000000000e+03 3.159610557556152344e+01 1.724813079833984375e+01 3.292651101946830750e-02 2.143493413925170898e+00 6.529259681701660156e-01 9.373611807823181152e-01
2.403000000000000000e+03 7.141446685791015625e+01 -2.084807205200195312e+01 -9.978507161140441895e-01 9.621833801269531250e+00 2.587194919586181641e+00 -9.513791203498840332e-01
2.404000000000000000e+03 7.346289825439453125e+01 -2.094968414306640625e+01 -7.655524611473083496e-01 9.708477020263671875e+00 2.682877302169799805e+00 -1.365130305290222168e+00
2.405000000000000000e+03 2.840973281860351562e+01 1.887935256958007812e+01 -3.445154130458831787e-01 1.795035839080810547e+00 4.351561069488525391e-01 3.683089911937713623e-01
2.406000000000000000e+03 1.216090106964111328e+01 -2.756057739257812500e+01 -6.774973273277282715e-01 2.841863393783569336e+00 6.493098139762878418e-01 -1.645120382308959961e-01
2.407000000000000000e+03 6.275349426269531250e+01 -2.395209074020385742e+00 -2.322430610656738281e-01 9.520387053489685059e-01 2.159387022256851196e-01 -2.313817262649536133e+00
2.408000000000000000e+03 6.002772521972656250e+01 -1.106954097747802734e+00 -8.902386575937271118e-02 5.631460547447204590e-01 1.422366648912429810e-01 -1.303543567657470703e+00
2.409000000000000000e+03 8.401770591735839844e+00 -2.842588996887207031e+01 -7.097018957138061523e-01 3.305910587310791016e+00 7.788626551628112793e-01 4.233077764511108398e-01
2.410000000000000000e+03 8.649107933044433594e+00 -3.190434074401855469e+01 -4.856379032135009766e-01 2.929247140884399414e+00 7.330827713012695312e-01 2.662631869316101074e-01
2.411000000000000000e+03 4.188145828247070312e+01 3.071039438247680664e+00 9.906557202339172363e-01 3.059953749179840088e-01 3.889953494071960449e-01 1.104045473039150238e-02
2.412000000000000000e+03 7.661680698394775391e+00 3.571913909912109375e+01 -8.873699232935905457e-03 5.295448899269104004e-01 1.562013626098632812e-01 2.197058126330375671e-02
2.413000000000000000e+03 9.356389045715332031e+00 -2.555133056640625000e+01 -8.900134563446044922e-01 3.865800619125366211e+00 8.927361369132995605e-01 2.386667579412460327e-01
2.414000000000000000e+03 7.658730983734130859e+00 -3.477919769287109375e+01 -2.785473763942718506e-01 2.911748409271240234e+00 7.899602651596069336e-01 2.284291535615921021e-01
2.415000000000000000e+03 3.784291458129882812e+01 -1.018286132812500000e+01 -1.602055430412292480e+00 4.046174287796020508e-01 -3.592314124107360840e-01 -6.058390140533447266e-01
2.416000000000000000e+03 6.206220626831054688e+01 1.284397220611572266e+01 5.879789590835571289e-01 3.598282098770141602e+00 1.255878329277038574e+00 -1.141316175460815430e+00
2.417000000000000000e+03 6.407923889160156250e+01 1.652933311462402344e+01 5.517165660858154297e-01 4.075006961822509766e+00 1.388017058372497559e+00 -9.425427913665771484e-01
2.418000000000000000e+03 7.067533874511718750e+01 -3.048573303222656250e+01 -5.362879037857055664e-01 7.550120830535888672e+00 2.104149818420410156e+00 4.813948646187782288e-02
2.419000000000000000e+03 3.194889831542968750e+01 7.673967838287353516e+00 1.944878578186035156e+00 1.764520883560180664e+00 1.112819790840148926e+00 1.454596281051635742e+00
2.420000000000000000e+03 3.111520576477050781e+01 8.481180191040039062e+00 1.875493884086608887e+00 2.012328386306762695e+00 1.166346669197082520e+00 1.652930498123168945e+00
2.421000000000000000e+03 7.026034545898437500e+01 2.817347717285156250e+01 1.811894923448562622e-01 5.017372608184814453e+00 1.559568643569946289e+00 -4.033679068088531494e-01
2.422000000000000000e+03 9.257709503173828125e+00 2.323516082763671875e+01 -2.963925600051879883e-01 1.041335225105285645e+00 2.234827876091003418e-01 -1.190449222922325134e-01
2.423000000000000000e+03 5.840671157836914062e+01 2.021264076232910156e+01 6.373804211616516113e-01 3.330993890762329102e+00 1.190512299537658691e+00 -7.269788980484008789e-01
2.424000000000000000e+03 5.934657287597656250e+01 1.713922691345214844e+01 7.909297347068786621e-01 3.332729101181030273e+00 1.237097620964050293e+00 -7.278288602828979492e-01
2.425000000000000000e+03 4.724188613891601562e+01 2.456786537170410156e+01 9.627040624618530273e-01 1.633630752563476562e+00 7.789004445075988770e-01 3.569189310073852539e-01
2.426000000000000000e+03 4.470502090454101562e+01 2.746441841125488281e+01 7.298588752746582031e-01 1.915549874305725098e+00 7.936226725578308105e-01 3.887179493904113770e-01
2.427000000000000000e+03 5.412910461425781250e+01 4.923892617225646973e-01 2.340267300605773926e-01 2.382824569940567017e-01 1.416927576065063477e-01 -3.560625910758972168e-01
2.428000000000000000e+03 7.241112518310546875e+01 -2.845960426330566406e+01 -5.912774801254272461e-01 8.485906600952148438e+00 2.368388652801513672e+00 -2.664514482021331787e-01
2.429000000000000000e+03 7.245705413818359375e+01 -1.004028320312500000e+00 -1.328552246093750000e+00 9.040148735046386719e+00 2.313478946685791016e+00 -2.678026556968688965e-01
2.430000000000000000e+03 6.979528808593750000e+01 -3.741524934768676758e+00 -1.921023726463317871e+00 1.072153282165527344e+01 2.640152692794799805e+00 -1.558173894882202148e+00
2.431000000000000000e+03 7.280810546875000000e+01 2.407725602388381958e-01 -1.093252778053283691e+00 8.366374969482421875e+00 2.181936740875244141e+00 -3.206954896450042725e-01
2.432000000000000000e+03 3.740145874023437500e+01 7.489421844482421875e+00 1.200820803642272949e+00 1.171511769294738770e+00 7.116997838020324707e-01 7.672232389450073242e-01
2.433000000000000000e+03 1.818087577819824219e+01 2.199846839904785156e+01 -1.416608840227127075e-01 8.726889491081237793e-01 2.193084210157394409e-01 7.126854658126831055e-01
2.434000000000000000e+03 1.537231540679931641e+01 2.224269866943359375e+01 -3.690631389617919922e-01 1.353282928466796875e+00 2.952659428119659424e-01 5.503379702568054199e-01
2.435000000000000000e+03 1.371033096313476562e+01 -4.715595245361328125e+00 4.193953514099121094e+00 2.630056381225585938e+00 2.047202825546264648e+00 5.677679538726806641e+00
2.436000000000000000e+03 1.805417823791503906e+01 -3.789961099624633789e+00 6.432703018188476562e+00 5.135383129119873047e+00 3.470425844192504883e+00 -1.900195181369781494e-01
2.437000000000000000e+03 1.736687278747558594e+01 -4.513892650604248047e+00 4.294523239135742188e+00 6.415710926055908203e+00 3.213070154190063477e+00 5.154232382774353027e-01
2.438000000000000000e+03 1.675373458862304688e+01 -8.128645896911621094e+00 -1.219574213027954102e+00 2.128878593444824219e+00 2.727912962436676025e-01 1.904290199279785156e+00
2.439000000000000000e+03 1.595966434478759766e+01 1.601987004280090332e+00 -2.954857945442199707e-01 5.482193470001220703e+00 1.556012272834777832e+00 -1.395236372947692871e+00
2.440000000000000000e+03 1.887153816223144531e+01 -2.084236383438110352e+00 8.378360748291015625e+00 3.093492269515991211e+00 3.441555738449096680e+00 2.061220169067382812e+00
2.441000000000000000e+03 1.822201919555664062e+01 4.941903352737426758e-01 3.455378532409667969e+00 4.692122936248779297e+00 2.444250345230102539e+00 3.320424556732177734e+00
2.442000000000000000e+03 1.838689231872558594e+01 -1.042046472430229187e-01 5.089868545532226562e+00 4.662380695343017578e+00 2.925674915313720703e+00 3.897403478622436523e+00
2.443000000000000000e+03 1.815064239501953125e+01 -2.573015213012695312e+00 9.488609313964843750e+00 4.435565471649169922e+00 4.177252769470214844e+00 9.841842055320739746e-01
2.444000000000000000e+03 1.153236770629882812e+01 -3.893034696578979492e+00 3.139369964599609375e+00 3.933081924915313721e-01 1.059803485870361328e+00 3.491505146026611328e+00
2.445000000000000000e+03 1.766318130493164062e+01 4.210405051708221436e-01 3.001840114593505859e+00 6.028290271759033203e+00 2.709038972854614258e+00 2.934628963470458984e+00
2.446000000000000000e+03 1.043140602111816406e+01 -4.714532375335693359e+00 1.531900048255920410e+00 1.315287113189697266e+00 8.541561961174011230e-01 3.534908056259155273e+00
2.447000000000000000e+03 1.343267536163330078e+01 -4.399665355682373047e+00 4.598297595977783203e+00 1.960368633270263672e+00 1.967599868774414062e+00 5.510876655578613281e+00
2.448000000000000000e+03 1.499057579040527344e+01 2.511857509613037109e+00 -8.065335154533386230e-01 4.034139156341552734e+00 9.682817459106445312e-01 -2.163332700729370117e+00
2.449000000000000000e+03 1.377938175201416016e+01 -7.855324745178222656e+00 -1.235908493399620056e-01 1.470732450485229492e+00 4.041424691677093506e-01 5.280492305755615234e+00
2.450000000000000000e+03 1.802102279663085938e+01 1.004227519035339355e+00 2.317824602127075195e+00 4.665531158447265625e+00 2.095006704330444336e+00 2.570000886917114258e+00
2.451000000000000000e+03 1.951910209655761719e+01 7.093088030815124512e-01 3.872568368911743164e+00 2.698491334915161133e+00 1.971317887306213379e+00 3.920148611068725586e+00
2.452000000000000000e+03 1.532107543945312500e+01 -7.867286682128906250e+00 -7.289029955863952637e-01 2.070953130722045898e+00 4.026150107383728027e-01 3.706125259399414062e+00
2.453000000000000000e+03 1.484104347229003906e+01 -5.479674339294433594e+00 2.396248579025268555e+00 4.481178760528564453e+00 2.063228130340576172e+00 5.138098239898681641e+00
2.454000000000000000e+03 1.913836288452148438e+01 1.416878104209899902e+00 2.680549860000610352e+00 2.771116495132446289e+00 1.635499954223632812e+00 3.475934743881225586e+00
2.455000000000000000e+03 9.251107215881347656e+00 -5.622080802917480469e+00 3.223975300788879395e-01 2.211263895034790039e+00 7.600984573364257812e-01 3.051659107208251953e+00
2.456000000000000000e+03 2.213103103637695312e+01 2.519682645797729492e-01 3.726698875427246094e+00 1.666701674461364746e+00 1.618020176887512207e+00 3.418788909912109375e+00
2.457000000000000000e+03 2.344229316711425781e+01 1.485344767570495605e-02 3.366713047027587891e+00 1.738125205039978027e+00 1.531451463699340820e+00 2.870786905288696289e+00
2.458000000000000000e+03 1.691730690002441406e+01 1.427203297615051270e+00 3.998698592185974121e-01 5.743698120117187500e+00 1.843070387840270996e+00 2.746998667716979980e-01
2.459000000000000000e+03 1.707163238525390625e+01 1.959491968154907227e+00 -8.474468439817428589e-02 4.612149238586425781e+00 1.358221411705017090e+00 1.389396488666534424e-01
2.460000000000000000e+03 1.740247344970703125e+01 7.483162879943847656e-01 1.929996371269226074e+00 6.063856601715087891e+00 2.398155927658081055e+00 2.081873893737792969e+00
2.461000000000000000e+03 9.504004478454589844e+00 -7.437814235687255859e+00 -1.116350054740905762e+00 4.363785743713378906e+00 9.742307066917419434e-01 4.255362033843994141e+00
2.462000000000000000e+03 8.382400512695312500e+00 -7.073403358459472656e+00 -1.017552375793457031e+00 4.199909687042236328e+00 9.547071456909179688e-01 2.620285034179687500e+00
2.463000000000000000e+03 1.009309959411621094e+01 -6.908728122711181641e+00 -1.562541425228118896e-01 3.154174566268920898e+00 8.993760943412780762e-01 4.687184810638427734e+00
2.464000000000000000e+03 2.091738700866699219e+01 1.050801873207092285e+00 3.484883069992065430e+00 1.820664763450622559e+00 1.591664314270019531e+00 3.954104900360107422e+00
2.465000000000000000e+03 1.965962600708007812e+01 -1.936932206153869629e+00 7.160332202911376953e+00 2.142646312713623047e+00 2.790893554687500000e+00 2.294254541397094727e+00
2.466000000000000000e+03 8.246188163757324219e+00 9.526176452636718750e+00 7.284631729125976562e-01 1.015382885932922363e+00 5.231538414955139160e-01 -6.108521018177270889e-03
2.467000000000000000e+03 8.980169296264648438e+00 1.100438117980957031e+01 7.731537222862243652e-01 1.381715059280395508e+00 6.464606523513793945e-01 -1.729144006967544556e-01
2.468000000000000000e+03 1.603346633911132812e+01 -8.038889884948730469e+00 -8.740171790122985840e-01 2.002005577087402344e+00 3.383965492248535156e-01 2.869420289993286133e+00
2.469000000000000000e+03 3.993084335327148438e+01 3.839142799377441406e+00 1.094611525535583496e+00 5.012031793594360352e-01 4.787444174289703369e-01 1.261428892612457275e-01
2.470000000000000000e+03 3.143644905090332031e+01 -1.153769302368164062e+01 -2.214238405227661133e+00 6.008339524269104004e-01 -4.840213060379028320e-01 -4.854036867618560791e-01
2.471000000000000000e+03 1.787340545654296875e+01 -5.010510444641113281e+00 3.580407381057739258e+00 4.989732265472412109e+00 2.571041822433471680e+00 2.263660728931427002e-01
2.472000000000000000e+03 6.866075134277343750e+01 -2.473782747983932495e-01 -1.367859363555908203e+00 7.333858966827392578e+00 1.789799809455871582e+00 -2.213898181915283203e+00
2.473000000000000000e+03 1.149873542785644531e+01 -6.070791244506835938e+00 1.359964847564697266e+00 1.876197338104248047e+00 9.708486795425415039e-01 5.142659187316894531e+00
2.474000000000000000e+03 1.911630821228027344e+01 -8.998053550720214844e+00 -2.224439620971679688e+00 1.467079639434814453e+00 -2.272079735994338989e-01 2.934435606002807617e-01
2.475000000000000000e+03 7.130267333984375000e+01 -2.588207960128784180e+00 -1.615561485290527344e+00 9.966267585754394531e+00 2.505211830139160156e+00 -5.453239083290100098e-01
2.476000000000000000e+03 2.474481773376464844e+01 1.002808570861816406e+00 2.515666961669921875e+00 2.344029903411865234e+00 1.457908987998962402e+00 2.497535705566406250e+00
2.477000000000000000e+03 5.186770629882812500e+01 -2.130174338817596436e-01 1.499786674976348877e-01 1.241564750671386719e-01 8.224054425954818726e-02 -2.624566256999969482e-01
2.478000000000000000e+03 2.108090591430664062e+01 -9.416092872619628906e+00 -2.326655387878417969e+00 1.099340438842773438e+00 -3.681944608688354492e-01 -3.372254669666290283e-01
2.479000000000000000e+03 8.827377319335937500e+00 -7.987025737762451172e+00 -1.494258880615234375e+00 5.222189426422119141e+00 1.118379116058349609e+00 3.318852186203002930e+00
2.480000000000000000e+03 1.008048248291015625e+01 -8.095116615295410156e+00 -1.113945364952087402e+00 4.240785598754882812e+00 9.380520582199096680e-01 5.206413745880126953e+00
2.481000000000000000e+03 3.982924652099609375e+01 -1.047353935241699219e+01 -1.703812956809997559e+00 3.262562155723571777e-01 -4.132670164108276367e-01 -6.228705048561096191e-01
2.482000000000000000e+03 4.106814193725585938e+01 -1.030796527862548828e+01 -1.681234598159790039e+00 2.879652082920074463e-01 -4.179808199405670166e-01 -6.374333500862121582e-01
2.483000000000000000e+03 2.659179115295410156e+01 4.400766789913177490e-01 2.276884078979492188e+00 1.948873758316040039e+00 1.267727375030517578e+00 1.543209910392761230e+00
2.484000000000000000e+03 3.507594299316406250e+01 1.115679264068603516e+01 1.093301773071289062e+00 1.712177276611328125e+00 8.416436910629272461e-01 1.405797958374023438e+00
2.485000000000000000e+03 1.925895500183105469e+01 -8.317564964294433594e+00 -1.266822576522827148e+00 1.862625598907470703e+00 1.787409186363220215e-01 1.785811036825180054e-02
2.486000000000000000e+03 4.509519195556640625e+01 -9.595647811889648438e+00 -1.687279582023620605e+00 1.485737562179565430e-01 -4.616117477416992188e-01 -6.606990694999694824e-01
2.487000000000000000e+03 7.006640434265136719e+00 -2.047362899780273438e+01 -6.443268060684204102e-01 5.553929805755615234e+00 1.472880840301513672e+00 1.273821234703063965e+00
2.488000000000000000e+03 9.939239501953125000e+00 9.228908538818359375e+00 8.541435599327087402e-01 1.759675860404968262e+00 7.841458320617675781e-01 -5.582586303353309631e-02
2.489000000000000000e+03 9.662132263183593750e+00 7.028529644012451172e+00 5.067065954208374023e-01 1.448257327079772949e+00 5.864892005920410156e-01 7.254488766193389893e-02
2.490000000000000000e+03 7.486236095428466797e+00 8.818700790405273438e+00 6.172257065773010254e-01 6.984137296676635742e-01 3.946918249130249023e-01 1.292819082736968994e-01
2.491000000000000000e+03 2.879720878601074219e+01 -9.345426559448242188e+00 -1.432931900024414062e+00 6.866189241409301758e-01 -2.238938808441162109e-01 -5.831046700477600098e-01
2.492000000000000000e+03 7.037693786621093750e+01 4.907921791076660156e+00 -5.308409333229064941e-01 6.505185127258300781e+00 1.792303204536437988e+00 -1.246100544929504395e+00
2.493000000000000000e+03 1.050332832336425781e+01 6.484440326690673828e+00 3.594098389148712158e-01 1.833447217941284180e+00 6.578571200370788574e-01 -4.322978109121322632e-02
2.494000000000000000e+03 5.209299564361572266e+00 8.075909614562988281e+00 3.344236016273498535e-01 1.470522489398717880e-02 1.047386452555656433e-01 2.835755944252014160e-01
2.495000000000000000e+03 2.458336639404296875e+01 -9.094097137451171875e+00 -1.505066871643066406e+00 8.479237556457519531e-01 -1.971429288387298584e-01 -5.991430282592773438e-01
2.496000000000000000e+03 2.195236778259277344e+01 -8.965170860290527344e+00 -1.661073088645935059e+00 1.131957650184631348e+00 -1.587346196174621582e-01 -5.471391677856445312e-01
2.497000000000000000e+03 4.753529357910156250e+01 -7.217021465301513672e+00 -1.378447175025939941e+00 1.028626784682273865e-01 -3.826753497123718262e-01 -5.560293793678283691e-01
2.498000000000000000e+03 3.102761840820312500e+01 4.340697288513183594e+00 2.200806140899658203e+00 1.663147926330566406e+00 1.159186244010925293e+00 9.828117489814758301e-01
2.499000000000000000e+03 3.152651023864746094e+01 5.972707271575927734e+00 2.215821981430053711e+00 1.679920673370361328e+00 1.168722748756408691e+00 1.215391993522644043e+00
2.500000000000000000e+03 7.169359588623046875e+01 -2.510084342956542969e+01 -9.367880225181579590e-01 8.664443969726562500e+00 2.318296670913696289e+00 -5.174364447593688965e-01
2.501000000000000000e+03 6.792356109619140625e+01 -2.758317375183105469e+01 -8.895754218101501465e-01 6.456239223480224609e+00 1.669999122619628906e+00 3.407250642776489258e-01
2.502000000000000000e+03 6.940260410308837891e+00 -7.553626537322998047e+00 -1.174551248550415039e+00 4.262536048889160156e+00 9.263953566551208496e-01 8.865711688995361328e-01
2.503000000000000000e+03 3.273968505859375000e+01 3.689688920974731445e+00 1.886088252067565918e+00 1.231180667877197266e+00 9.351807236671447754e-01 7.263156175613403320e-01
2.504000000000000000e+03 5.410052871704101562e+01 -5.199395656585693359e+00 -1.390556335449218750e+00 -9.992121905088424683e-02 -4.471432864665985107e-01 -5.466288924217224121e-01
2.505000000000000000e+03 4.856414413452148438e+01 -5.573460578918457031e+00 -1.090596675872802734e+00 8.916454017162322998e-02 -3.004296123981475830e-01 -4.494102001190185547e-01
2.506000000000000000e+03 2.805065917968750000e+01 2.846801757812500000e+00 2.291616678237915039e+00 2.329751491546630859e+00 1.386410355567932129e+00 1.283676505088806152e+00
2.507000000000000000e+03 2.895886611938476562e+01 3.356570482254028320e+00 2.263028621673583984e+00 2.186717033386230469e+00 1.334923744201660156e+00 1.118368864059448242e+00
2.508000000000000000e+03 7.062695312500000000e+01 1.263698577880859375e+01 1.077467054128646851e-01 5.673334598541259766e+00 1.734324455261230469e+00 -9.825118184089660645e-01
2.509000000000000000e+03 7.185236358642578125e+01 8.884198188781738281e+00 -1.276053339242935181e-01 6.334420680999755859e+00 1.862044572830200195e+00 -9.363352656364440918e-01
2.510000000000000000e+03 6.920730590820312500e+01 1.816845130920410156e+01 2.823857367038726807e-01 5.080929279327392578e+00 1.608994483947753906e+00 -8.159891366958618164e-01
2.511000000000000000e+03 5.753058242797851562e+01 2.832958221435546875e+00 5.494217276573181152e-01 9.314227104187011719e-01 4.442533254623413086e-01 -7.015029788017272949e-01
2.512000000000000000e+03 1.142271041870117188e+01 2.658910369873046875e+01 -2.460114210844039917e-01 9.901953935623168945e-01 2.232551872730255127e-01 1.016395017504692078e-01
2.513000000000000000e+03 9.651381492614746094e+00 2.729465293884277344e+01 -1.960999071598052979e-01 8.335985541343688965e-01 1.912495940923690796e-01 2.340908348560333252e-02
2.514000000000000000e+03 5.970037078857421875e+01 7.940096378326416016e+00 4.579217135906219482e-01 2.606857061386108398e+00 9.194335937500000000e-01 -9.876929521560668945e-01
2.515000000000000000e+03 5.876319122314453125e+01 6.958449840545654297e+00 4.786485135555267334e-01 2.146509408950805664e+00 7.875473499298095703e-01 -7.704688906669616699e-01
2.516000000000000000e+03 7.028850555419921875e+01 1.350534820556640625e+01 1.651246845722198486e-01 5.526465415954589844e+00 1.707476973533630371e+00 -9.563944935798645020e-01
2.517000000000000000e+03 2.724145317077636719e+01 2.303736448287963867e+00 2.207677125930786133e+00 2.465691089630126953e+00 1.402010440826416016e+00 1.456283569335937500e+00
2.518000000000000000e+03 4.371055984497070312e+01 -9.836369514465332031e+00 -1.670703172683715820e+00 1.888128668069839478e-01 -4.445670843124389648e-01 -6.537230610847473145e-01
2.519000000000000000e+03 3.620215606689453125e+01 -1.029042816162109375e+01 -1.645722150802612305e+00 4.520790278911590576e-01 -3.580929338932037354e-01 -5.987599492073059082e-01
2.520000000000000000e+03 6.607409667968750000e+01 -1.224933981895446777e+00 -7.674189805984497070e-01 4.973971366882324219e+00 1.261965751647949219e+00 -3.271826744079589844e+00
2.521000000000000000e+03 7.588171482086181641e+00 1.505485534667968750e+01 2.893417179584503174e-01 9.719646573066711426e-01 3.783918917179107666e-01 -4.281679093837738037e-01
2.522000000000000000e+03 6.402834320068359375e+01 -3.024363040924072266e+00 -9.920170158147811890e-02 1.621057987213134766e+00 4.565568864345550537e-01 -3.145409107208251953e+00
2.523000000000000000e+03 6.524433135986328125e+01 -3.586929082870483398e+00 -6.494107246398925781e-01 3.523099899291992188e+00 8.621067404747009277e-01 -4.356981277465820312e+00
2.524000000000000000e+03 4.412144470214843750e+01 1.951488018035888672e+00 8.111962080001831055e-01 2.049783319234848022e-01 3.048523664474487305e-01 -6.925505399703979492e-02
2.525000000000000000e+03 5.647786331176757812e+01 1.328037381172180176e-01 1.497460603713989258e-01 3.056541383266448975e-01 1.366200596094131470e-01 -6.418181657791137695e-01
2.526000000000000000e+03 5.541363143920898438e+01 6.985388696193695068e-02 1.122062802314758301e-01 2.460746318101882935e-01 1.074842736124992371e-01 -4.358427226543426514e-01
2.527000000000000000e+03 5.477352142333984375e+01 -4.154626369476318359e+00 -1.062232375144958496e+00 -3.792372718453407288e-02 -3.300468325614929199e-01 -4.982941150665283203e-01
2.528000000000000000e+03 2.345186996459960938e+01 -7.845754623413085938e+00 -3.679947555065155029e-01 9.635772109031677246e-01 1.786747425794601440e-01 -6.570729613304138184e-01
2.529000000000000000e+03 2.518965148925781250e+01 -9.659121513366699219e+00 -1.823218703269958496e+00 8.224939703941345215e-01 -3.002174198627471924e-01 -5.847890973091125488e-01
2.530000000000000000e+03 4.747272872924804688e+01 4.592044949531555176e-01 4.189876914024353027e-01 1.670504361391067505e-01 1.758114397525787354e-01 -1.148680299520492554e-01
2.531000000000000000e+03 7.008432769775390625e+01 -1.174214363098144531e+00 -1.582225084304809570e+00 8.576680183410644531e+00 2.098336458206176758e+00 -1.512350082397460938e+00
2.532000000000000000e+03 3.595525360107421875e+01 1.557626533508300781e+01 6.765514612197875977e-01 1.931289672851562500e+00 7.823523283004760742e-01 1.184042572975158691e+00
2.533000000000000000e+03 3.539846420288085938e+01 1.386220932006835938e+01 7.617201209068298340e-01 1.914173007011413574e+00 8.027679324150085449e-01 1.337553620338439941e+00
2.534000000000000000e+03 9.326741218566894531e+00 1.810824394226074219e+01 -1.215857937932014465e-01 1.465155124664306641e+00 4.030707776546478271e-01 -3.782060742378234863e-01
2.535000000000000000e+03 2.680754089355468750e+01 -8.358578681945800781e+00 -8.653473258018493652e-01 7.438272833824157715e-01 -3.645600751042366028e-02 -6.098917126655578613e-01
2.536000000000000000e+03 6.394449234008789062e+01 1.329161930084228516e+01 5.002802610397338867e-01 4.005607604980468750e+00 1.351766347885131836e+00 -1.151994824409484863e+00
2.537000000000000000e+03 8.633022308349609375e+00 2.055483627319335938e+01 -2.531413733959197998e-01 1.147932887077331543e+00 2.684374451637268066e-01 -2.823056280612945557e-01
2.538000000000000000e+03 6.921351623535156250e+01 5.446346759796142578e+00 -4.247163534164428711e-01 6.041399478912353516e+00 1.685004949569702148e+00 -1.416869640350341797e+00
2.539000000000000000e+03 6.046569061279296875e+01 9.737574577331542969e+00 4.559279978275299072e-01 3.087964057922363281e+00 1.063167572021484375e+00 -1.081189632415771484e+00
2.540000000000000000e+03 8.807789802551269531e+00 -2.263500404357910156e+01 -1.001977801322937012e+00 5.184557914733886719e+00 1.254773974418640137e+00 2.423952966928482056e-01
2.541000000000000000e+03 8.298353195190429688e+00 -2.578598976135253906e+01 -9.462184309959411621e-01 3.945444822311401367e+00 8.997678756713867188e-01 5.828685164451599121e-01
2.542000000000000000e+03 6.327461624145507812e+01 -1.320809841156005859e+00 2.798782661557197571e-02 1.868142962455749512e+00 5.688392519950866699e-01 -2.545549631118774414e+00
2.543000000000000000e+03 3.221944808959960938e+01 1.206240940093994141e+01 9.294711947441101074e-01 2.099950075149536133e+00 9.088263511657714844e-01 1.600820183753967285e+00
2.544000000000000000e+03 7.171721649169921875e+01 1.749851608276367188e+01 1.742230057716369629e-01 5.606326103210449219e+00 1.734164714813232422e+00 -7.206730246543884277e-01
2.545000000000000000e+03 7.067733001708984375e+01 1.526963996887207031e+01 1.934588551521301270e-01 5.515463352203369141e+00 1.712676644325256348e+00 -8.645507097244262695e-01
2.546000000000000000e+03 9.273523330688476562e+00 -2.960639953613281250e+01 -6.538331508636474609e-01 3.149098634719848633e+00 7.485796809196472168e-01 2.582022845745086670e-01
2.547000000000000000e+03 3.921195602416992188e+01 2.270319747924804688e+01 5.026299953460693359e-01 2.000776290893554688e+00 7.510219216346740723e-01 6.271703243255615234e-01
2.548000000000000000e+03 5.609446334838867188e+01 1.384805560111999512e+00 4.084268510341644287e-01 5.153789520263671875e-01 2.771417498588562012e-01 -5.385973453521728516e-01
2.549000000000000000e+03 8.763453483581542969e+00 3.021516990661621094e+01 -1.144057512283325195e-01 6.583820581436157227e-01 1.631928831338882446e-01 6.216049194335937500e-03
2.550000000000000000e+03 3.096022224426269531e+01 1.129728412628173828e+01 1.053947448730468750e+00 2.296301841735839844e+00 1.005074739456176758e+00 1.711821317672729492e+00
2.551000000000000000e+03 3.206166458129882812e+01 1.301666736602783203e+01 6.429551243782043457e-01 2.245077371597290039e+00 8.664097189903259277e-01 1.559164166450500488e+00
2.552000000000000000e+03 6.325962448120117188e+01 -3.231144332885742188e+01 -2.267456650733947754e-01 3.314127445220947266e+00 9.262145757675170898e-01 3.535706400871276855e-01
2.553000000000000000e+03 6.454137420654296875e+01 -3.047204589843750000e+01 -5.310100317001342773e-01 4.226180553436279297e+00 1.108551144599914551e+00 4.489619135856628418e-01
2.554000000000000000e+03 6.906252288818359375e+01 -2.411052227020263672e+00 -1.902502179145812988e+00 9.016038894653320312e+00 2.134061098098754883e+00 -2.306785583496093750e+00
2.555000000000000000e+03 6.981188964843750000e+01 1.089012771844863892e-01 -1.365983605384826660e+00 7.842160224914550781e+00 1.942852854728698730e+00 -1.490398645401000977e+00
2.556000000000000000e+03 4.076829528808593750e+01 2.522684478759765625e+01 5.251200795173645020e-01 1.972249746322631836e+00 7.492109537124633789e-01 5.418865084648132324e-01
2.557000000000000000e+03 2.771056175231933594e+01 -8.986631393432617188e+00 -1.265107989311218262e+00 7.248697280883789062e-01 -1.620714813470840454e-01 -5.902622342109680176e-01
2.558000000000000000e+03 2.837419319152832031e+01 -1.043126487731933594e+01 -2.010393619537353516e+00 6.982640624046325684e-01 -3.936388790607452393e-01 -5.156355500221252441e-01
2.559000000000000000e+03 7.020220184326171875e+01 2.220391845703125000e+01 2.209110409021377563e-01 5.159189224243164062e+00 1.614030003547668457e+00 -6.152621507644653320e-01
2.560000000000000000e+03 6.992839813232421875e+01 2.058900642395019531e+01 2.417114526033401489e-01 5.168562889099121094e+00 1.623082399368286133e+00 -6.707541942596435547e-01
2.561000000000000000e+03 3.532983016967773438e+01 -9.299330711364746094e+00 -1.365615248680114746e+00 4.957349896430969238e-01 -2.609640657901763916e-01 -5.835991501808166504e-01
2.562000000000000000e+03 3.470029067993164062e+01 -8.308238029479980469e+00 -1.072837471961975098e+00 5.095856189727783203e-01 -1.689755618572235107e-01 -5.803350210189819336e-01
2.563000000000000000e+03 2.988759613037109375e+01 -9.578327178955078125e+00 -1.502336382865905762e+00 6.835083365440368652e-01 -2.456484287977218628e-01 -5.848964452743530273e-01
2.564000000000000000e+03 7.104495239257812500e+01 2.555584144592285156e+01 1.711643785238265991e-01 5.191061496734619141e+00 1.608667850494384766e+00 -4.666097164154052734e-01
2.565000000000000000e+03 7.055459594726562500e+01 2.388778495788574219e+01 1.977992653846740723e-01 5.163310050964355469e+00 1.608332872390747070e+00 -5.357053279876708984e-01
2.566000000000000000e+03 2.755606269836425781e+01 2.092470741271972656e+01 -1.709298491477966309e-01 1.468635320663452148e+00 3.893116414546966553e-01 2.009182721376419067e-01
2.567000000000000000e+03 3.041651535034179688e+01 1.651207351684570312e+01 -8.558933436870574951e-02 2.246877670288085938e+00 6.483865380287170410e-01 9.824935793876647949e-01
2.568000000000000000e+03 3.584614944458007812e+01 9.106073379516601562e+00 1.301146268844604492e+00 1.427349328994750977e+00 8.185486793518066406e-01 1.173933148384094238e+00
2.569000000000000000e+03 3.721170043945312500e+01 8.541004180908203125e+00 1.180569291114807129e+00 1.278344035148620605e+00 7.376739978790283203e-01 9.047796726226806641e-01
2.570000000000000000e+03 3.299013519287109375e+01 9.841492652893066406e+00 1.383292078971862793e+00 1.844375610351562500e+00 9.683003425598144531e-01 1.541672945022583008e+00
2.571000000000000000e+03 1.828911209106445312e+01 2.355750083923339844e+01 -1.023203954100608826e-01 9.038882255554199219e-01 2.404703497886657715e-01 6.033108830451965332e-01
2.572000000000000000e+03 1.586876296997070312e+01 2.483722305297851562e+01 -2.113805264234542847e-01 1.094618797302246094e+00 2.649714648723602295e-01 4.672431647777557373e-01
2.573000000000000000e+03 8.168426513671875000e+00 1.098246860504150391e+01 6.790207028388977051e-01 1.000730395317077637e+00 5.039253234863281250e-01 -1.465935409069061279e-01
2.574000000000000000e+03 6.202042388916015625e+01 1.589587020874023438e+01 6.754074096679687500e-01 3.680427312850952148e+00 1.306750416755676270e+00 -9.347017407417297363e-01
2.575000000000000000e+03 6.272128677368164062e+01 1.723064422607421875e+01 6.381131410598754883e-01 3.850952148437500000e+00 1.346719622611999512e+00 -8.806918859481811523e-01
2.576000000000000000e+03 5.692463302612304688e+01 1.961182594299316406e+01 6.999348998069763184e-01 2.963855743408203125e+00 1.099137187004089355e+00 -7.238808870315551758e-01
2.577000000000000000e+03 6.839038085937500000e+01 1.718675041198730469e+01 3.112289011478424072e-01 4.976937294006347656e+00 1.586449861526489258e+00 -8.783277869224548340e-01
2.578000000000000000e+03 6.965865325927734375e+01 1.626760482788085938e+01 2.412673532962799072e-01 5.250320434570312500e+00 1.647476315498352051e+00 -8.794559240341186523e-01
2.579000000000000000e+03 4.649294281005859375e+01 -9.324502944946289062e+00 -1.713227987289428711e+00 1.025147512555122375e-01 -4.832139611244201660e-01 -6.771306991577148438e-01
2.580000000000000000e+03 5.864429855346679688e+01 -4.221174418926239014e-01 8.973073959350585938e-02 5.034739375114440918e-01 1.779613941907882690e-01 -9.538028836250305176e-01
2.581000000000000000e+03 6.632097625732421875e+01 -3.158917236328125000e+01 -4.298575520515441895e-01 5.182451725006103516e+00 1.425778150558471680e+00 4.316077232360839844e-01
2.582000000000000000e+03 7.083942413330078125e+01 9.948450088500976562e+00 -3.737980872392654419e-02 5.947652339935302734e+00 1.773081779479980469e+00 -1.041254520416259766e+00
2.583000000000000000e+03 3.634870529174804688e+01 7.318920612335205078e+00 1.342204332351684570e+00 1.171021819114685059e+00 7.539678215980529785e-01 8.748778104782104492e-01
2.584000000000000000e+03 3.753662109375000000e+01 6.365041732788085938e+00 1.258265852928161621e+00 9.917411804199218750e-01 6.750020980834960938e-01 6.061022281646728516e-01
2.585000000000000000e+03 3.547471618652343750e+01 6.209515571594238281e+00 1.557217359542846680e+00 1.131963729858398438e+00 8.067543506622314453e-01 8.600042462348937988e-01
2.586000000000000000e+03 3.902387237548828125e+01 5.873484611511230469e+00 1.133987307548522949e+00 8.043847084045410156e-01 5.815116167068481445e-01 3.561536669731140137e-01
2.587000000000000000e+03 4.239017009735107422e+00 -3.542486190795898438e+01 -1.419936418533325195e-01 3.261723756790161133e+00 9.359190464019775391e-01 2.221851199865341187e-01
2.588000000000000000e+03 6.267504882812500000e+01 1.399244213104248047e+01 6.005272865295410156e-01 3.753011941909790039e+00 1.306061744689941406e+00 -1.064642786979675293e+00
2.589000000000000000e+03 6.798448181152343750e+01 3.298910903930664062e+01 2.171279788017272949e-01 4.651871204376220703e+00 1.460699796676635742e+00 -2.927721440792083740e-01
2.590000000000000000e+03 4.632204437255859375e+01 -7.797984123229980469e+00 -1.403276681900024414e+00 1.338559091091156006e-01 -3.808262050151824951e-01 -5.725708603858947754e-01
2.591000000000000000e+03 4.028540039062500000e+01 1.928961157798767090e+00 9.309828877449035645e-01 3.737504780292510986e-01 3.914200067520141602e-01 2.617106772959232330e-02
2.592000000000000000e+03 1.073602294921875000e+01 -2.695630264282226562e+01 -7.765838503837585449e-01 3.358895063400268555e+00 7.746933698654174805e-01 -6.961768865585327148e-02
2.593000000000000000e+03 5.082698059082031250e+01 2.728124809265136719e+01 9.129717946052551270e-01 2.108388423919677734e+00 9.064080715179443359e-01 -7.853241264820098877e-02
2.594000000000000000e+03 4.922878265380859375e+01 -1.605371236801147461e+00 -1.410419642925262451e-01 1.229295879602432251e-01 -5.433714482933282852e-03 -2.377259880304336548e-01
2.595000000000000000e+03 1.563139820098876953e+01 -3.497374725341796875e+01 -2.845861911773681641e-01 1.567313432693481445e+00 3.848181664943695068e-01 -1.091346219182014465e-01
2.596000000000000000e+03 1.547922420501708984e+01 -3.282749176025390625e+01 -3.790435791015625000e-01 1.646664261817932129e+00 3.802862167358398438e-01 -1.371525228023529053e-01
2.597000000000000000e+03 1.381015872955322266e+01 2.598152351379394531e+01 -2.308595329523086548e-01 1.079296350479125977e+00 2.545310556888580322e-01 2.761291563510894775e-01
2.598000000000000000e+03 1.215038490295410156e+01 2.036145210266113281e+01 -4.457396268844604492e-01 1.701076030731201172e+00 3.766009509563446045e-01 9.065423905849456787e-02
2.599000000000000000e+03 4.603187561035156250e+01 2.665822792053222656e+01 8.248279094696044922e-01 1.848654985427856445e+00 8.020448684692382812e-01 3.573680520057678223e-01
2.600000000000000000e+03 4.967490005493164062e+01 2.455916595458984375e+01 1.052730321884155273e+00 1.683023214340209961e+00 8.207260370254516602e-01 4.183495417237281799e-02
2.601000000000000000e+03 1.306485366821289062e+01 -4.785495281219482422e+00 3.715010643005371094e+00 1.787755846977233887e+00 1.650830030441284180e+00 5.372194766998291016e+00
2.602000000000000000e+03 1.456080150604248047e+01 -5.223758697509765625e+00 2.990059852600097656e+00 4.178951263427734375e+00 2.150703191757202148e+00 5.377386569976806641e+00
2.603000000000000000e+03 1.877802085876464844e+01 -5.465106368064880371e-01 6.156640529632568359e+00 3.629495382308959961e+00 2.935840845108032227e+00 3.890948534011840820e+00
2.604000000000000000e+03 1.891730880737304688e+01 -1.092992663383483887e+00 7.293490409851074219e+00 3.197913885116577148e+00 3.147421360015869141e+00 3.470403671264648438e+00
2.605000000000000000e+03 1.243602275848388672e+01 -4.536511898040771484e+00 3.603948593139648438e+00 1.150538206100463867e+00 1.426346063613891602e+00 4.756182193756103516e+00
2.606000000000000000e+03 1.786994171142578125e+01 -4.169356346130371094e+00 5.432640075683593750e+00 5.511257171630859375e+00 3.283169269561767578e+00 -1.140234470367431641e-01
2.607000000000000000e+03 1.405639934539794922e+01 -4.901932239532470703e+00 3.615871429443359375e+00 3.409559726715087891e+00 2.107629299163818359e+00 5.749547481536865234e+00
2.608000000000000000e+03 1.840607452392578125e+01 -3.755843400955200195e+00 6.461571216583251953e+00 4.397871494293212891e+00 3.257832765579223633e+00 -1.677287518978118896e-01
2.609000000000000000e+03 1.734156608581542969e+01 -4.846318244934082031e+00 3.661248922348022461e+00 6.173879623413085938e+00 2.950538396835327148e+00 6.684674024581909180e-01
2.610000000000000000e+03 1.884119415283203125e+01 -1.639661639928817749e-01 5.427863121032714844e+00 3.650929927825927734e+00 2.723637819290161133e+00 3.917963981628417969e+00
2.611000000000000000e+03 1.519546318054199219e+01 -6.235044956207275391e+00 1.343092799186706543e+00 4.001255989074707031e+00 1.603304624557495117e+00 4.248542785644531250e+00
2.612000000000000000e+03 1.868159294128417969e+01 -8.603158593177795410e-01 6.971466541290283203e+00 3.764124870300292969e+00 3.220677375793457031e+00 3.752985715866088867e+00
2.613000000000000000e+03 1.392737865447998047e+01 -4.406287193298339844e+00 4.723649501800537109e+00 2.963567256927490234e+00 2.306164979934692383e+00 5.829454421997070312e+00
2.614000000000000000e+03 1.958160400390625000e+01 -1.252572894096374512e+00 6.874911785125732422e+00 2.349836349487304688e+00 2.767424345016479492e+00 3.116895914077758789e+00
2.615000000000000000e+03 1.557662868499755859e+01 -4.928636074066162109e+00 3.013507604598999023e+00 6.548121452331542969e+00 2.868488788604736328e+00 4.133995056152343750e+00
2.616000000000000000e+03 1.655778503417968750e+01 -5.218101978302001953e+00 2.559400081634521484e+00 6.286791324615478516e+00 2.653857469558715820e+00 2.181478977203369141e+00
2.617000000000000000e+03 1.862310218811035156e+01 -3.154997825622558594e+00 7.595675945281982422e+00 3.691027879714965820e+00 3.386011123657226562e+00 3.852168321609497070e-01
2.618000000000000000e+03 1.263154983520507812e+01 -3.879358291625976562e+00 4.512530803680419922e+00 6.151150465011596680e-01 1.538293719291687012e+00 4.105976104736328125e+00
2.619000000000000000e+03 1.153755474090576172e+01 -4.480463027954101562e+00 2.817990779876708984e+00 8.768924474716186523e-01 1.108464956283569336e+00 4.100040912628173828e+00
2.620000000000000000e+03 1.865761184692382812e+01 -2.764629840850830078e+00 8.244413375854492188e+00 3.489107370376586914e+00 3.520056247711181641e+00 9.514460563659667969e-01
2.621000000000000000e+03 1.922625732421875000e+01 -1.669671297073364258e+00 7.581970214843750000e+00 2.616518497467041016e+00 3.059546470642089844e+00 2.704948663711547852e+00
2.622000000000000000e+03 1.848251914978027344e+01 -2.391602516174316406e+00 8.998938560485839844e+00 3.643761873245239258e+00 3.792809963226318359e+00 1.472997069358825684e+00
2.623000000000000000e+03 1.834840202331542969e+01 9.945038557052612305e-01 2.803888797760009766e+00 3.940871715545654297e+00 2.023428201675415039e+00 2.871914148330688477e+00
2.624000000000000000e+03 1.102584266662597656e+01 -4.583768844604492188e+00 2.187747240066528320e+00 9.356643557548522949e-01 9.370234608650207520e-01 3.860539674758911133e+00
2.625000000000000000e+03 1.059305667877197266e+01 -6.330344200134277344e+00 3.889043629169464111e-01 2.514338970184326172e+00 8.709729909896850586e-01 4.641052722930908203e+00
2.626000000000000000e+03 9.855822563171386719e+00 -5.401700496673583984e+00 6.837416887283325195e-01 2.036339282989501953e+00 8.160243034362792969e-01 3.487667798995971680e+00
2.627000000000000000e+03 1.042443943023681641e+01 -5.384333610534667969e+00 1.214405059814453125e+00 1.648991942405700684e+00 8.590191006660461426e-01 3.963863134384155273e+00
2.628000000000000000e+03 1.999125862121582031e+01 -8.955925941467285156e+00 -2.035376787185668945e+00 1.323689460754394531e+00 -2.135061919689178467e-01 -1.701201945543289185e-01
2.629000000000000000e+03 1.466063594818115234e+01 -7.653019428253173828e+00 -9.454135596752166748e-02 1.878664493560791016e+00 5.352369546890258789e-01 4.487023353576660156e+00
2.630000000000000000e+03 1.619620895385742188e+01 -7.435105323791503906e+00 -3.576844930648803711e-01 2.895699739456176758e+00 7.614045739173889160e-01 2.774472236633300781e+00
2.631000000000000000e+03 2.397141456604003906e+01 -3.874457180500030518e-01 3.225823879241943359e+00 1.548196315765380859e+00 1.432206034660339355e+00 2.402668476104736328e+00
2.632000000000000000e+03 2.294722938537597656e+01 2.871918380260467529e-01 3.351096391677856445e+00 1.790942668914794922e+00 1.542611718177795410e+00 3.112426519393920898e+00
2.633000000000000000e+03 1.772802734375000000e+01 -8.245512962341308594e+00 -1.261620283126831055e+00 2.059473514556884766e+00 2.393559962511062622e-01 1.117197275161743164e+00
2.634000000000000000e+03 2.078396606445312500e+01 2.052847146987915039e-01 4.381227016448974609e+00 1.805605053901672363e+00 1.856049656867980957e+00 3.721574306488037109e+00
2.635000000000000000e+03 2.127785491943359375e+01 5.217339992523193359e-01 3.817193269729614258e+00 1.700513124465942383e+00 1.655311942100524902e+00 3.842659235000610352e+00
2.636000000000000000e+03 1.871562957763671875e+01 -8.225397109985351562e+00 -1.254122257232666016e+00 1.868084788322448730e+00 1.841887682676315308e-01 2.934394180774688721e-01
2.637000000000000000e+03 6.591952323913574219e+00 -6.779609680175781250e+00 -8.402985930442810059e-01 3.101686716079711914e+00 6.784164905548095703e-01 6.126062870025634766e-01
2.638000000000000000e+03 1.249239826202392578e+01 -6.364289760589599609e+00 1.431868314743041992e+00 1.986078739166259766e+00 1.025384068489074707e+00 5.823359012603759766e+00
2.639000000000000000e+03 2.712657928466796875e+01 -1.528925448656082153e-01 2.159579277038574219e+00 1.679047822952270508e+00 1.151588082313537598e+00 1.219624280929565430e+00
2.640000000000000000e+03 3.089436721801757812e+01 -9.701390266418457031e+00 -1.527103900909423828e+00 6.341573596000671387e-01 -2.678839564323425293e-01 -5.818412899971008301e-01
2.641000000000000000e+03 3.165288352966308594e+01 -7.812907218933105469e+00 -7.930436730384826660e-01 6.053839325904846191e-01 -5.629792436957359314e-02 -5.631007552146911621e-01
2.642000000000000000e+03 9.165843009948730469e+00 8.621738433837890625e+00 7.646803855895996094e-01 1.321207046508789062e+00 6.257662177085876465e-01 4.196799546480178833e-02
2.643000000000000000e+03 6.198830795288085938e+01 7.414820671081542969e+00 3.711972832679748535e-01 3.136803627014160156e+00 1.052400231361389160e+00 -1.354713439941406250e+00
2.644000000000000000e+03 6.754238891601562500e+01 9.178913831710815430e-01 -9.582345485687255859e-01 6.170537471771240234e+00 1.563690900802612305e+00 -2.271586418151855469e+00
2.645000000000000000e+03 1.125857448577880859e+01 5.891571044921875000e+00 1.232330203056335449e-01 2.140164375305175781e+00 6.790192127227783203e-01 -2.425288259983062744e-01
2.646000000000000000e+03 9.012887954711914062e+00 -6.687435150146484375e+00 -5.141861438751220703e-01 3.481787443161010742e+00 8.902803659439086914e-01 3.301180362701416016e+00
2.647000000000000000e+03 1.068176841735839844e+01 -7.479813098907470703e+00 -6.045581102371215820e-01 3.377711534500122070e+00 8.319460749626159668e-01 5.243414402008056641e+00
2.648000000000000000e+03 3.734721755981445312e+01 3.792760372161865234e+00 1.298887133598327637e+00 7.287647724151611328e-01 6.082955598831176758e-01 3.592011034488677979e-01
2.649000000000000000e+03 3.894107437133789062e+01 1.965788364410400391e+00 1.013414859771728516e+00 4.680196940898895264e-01 4.444303810596466064e-01 8.171879500150680542e-02
2.650000000000000000e+03 2.058954620361328125e+01 -1.336437106132507324e+00 5.927694320678710938e+00 1.582111954689025879e+00 2.252941846847534180e+00 2.812321662902832031e+00
2.651000000000000000e+03 2.313287544250488281e+01 -5.091840028762817383e-01 3.683731794357299805e+00 1.463399291038513184e+00 1.544139266014099121e+00 2.659057855606079102e+00
2.652000000000000000e+03 6.937986755371093750e+01 1.173343539237976074e+00 -1.118646979331970215e+00 7.159492969512939453e+00 1.812253832817077637e+00 -1.739866495132446289e+00
2.653000000000000000e+03 6.748657226562500000e+01 -2.928985655307769775e-01 -1.055414915084838867e+00 6.320195674896240234e+00 1.579434275627136230e+00 -2.591861724853515625e+00
2.654000000000000000e+03 1.189669895172119141e+01 -7.750826835632324219e+00 -4.434751272201538086e-01 2.560574769973754883e+00 6.351299285888671875e-01 6.007514953613281250e+00
2.655000000000000000e+03 2.533314132690429688e+01 -8.454766273498535156e+00 -8.954108357429504395e-01 8.071763515472412109e-01 -2.647033333778381348e-02 -6.257054209709167480e-01
2.656000000000000000e+03 2.273612594604492188e+01 -8.429536819458007812e+00 -9.642315506935119629e-01 1.041845321655273438e+00 2.328414656221866608e-02 -6.519352197647094727e-01
2.657000000000000000e+03 4.494665527343750000e+01 -8.186684608459472656e+00 -1.395885944366455078e+00 1.701376438140869141e-01 -3.677245080471038818e-01 -5.887575745582580566e-01
2.658000000000000000e+03 4.223814773559570312e+01 -8.862993240356445312e+00 -1.412121653556823730e+00 2.554746568202972412e-01 -3.469941020011901855e-01 -6.003870368003845215e-01
2.659000000000000000e+03 4.728058242797851562e+01 -5.927111625671386719e+00 -1.052088022232055664e+00 1.264342963695526123e-01 -2.776961326599121094e-01 -4.531814455986022949e-01
2.660000000000000000e+03 6.965892028808593750e+01 1.269014835357666016e+01 1.572751104831695557e-01 5.412113189697265625e+00 1.670816540718078613e+00 -1.034063100814819336e+00
2.661000000000000000e+03 7.085690307617187500e+01 1.175155353546142578e+01 6.843103468418121338e-02 5.789518356323242188e+00 1.757384777069091797e+00 -9.899880290031433105e-01
2.662000000000000000e+03 6.492471313476562500e+01 -8.100456595420837402e-01 -4.201813638210296631e-01 3.783348798751831055e+00 1.008950233459472656e+00 -2.931652307510375977e+00
2.663000000000000000e+03 4.296748733520507812e+01 1.765615582466125488e+00 7.888210415840148926e-01 2.381806671619415283e-01 3.081005215644836426e-01 -2.554409392178058624e-02
2.664000000000000000e+03 7.096834564208984375e+01 6.362988352775573730e-01 -1.236195325851440430e+00 8.008806228637695312e+00 2.031783342361450195e+00 -1.102618336677551270e+00
2.665000000000000000e+03 3.329020309448242188e+01 -9.581632614135742188e+00 -1.457365393638610840e+00 5.608075261116027832e-01 -2.689673304557800293e-01 -5.878068804740905762e-01
2.666000000000000000e+03 3.586229705810546875e+01 1.285192489624023438e+01 9.162871241569519043e-01 1.783154010772705078e+00 8.098323345184326172e-01 1.351162075996398926e+00
2.667000000000000000e+03 3.188059997558593750e+01 1.008130264282226562e+01 1.424474239349365234e+00 1.955614447593688965e+00 1.014026641845703125e+00 1.649385213851928711e+00
2.668000000000000000e+03 1.012535572052001953e+01 7.827823638916015625e+00 6.924597024917602539e-01 1.752782225608825684e+00 7.335726022720336914e-01 3.507725149393081665e-02
2.669000000000000000e+03 3.215251922607421875e+01 4.851875305175781250e+00 2.036405324935913086e+00 1.433502554893493652e+00 1.040972352027893066e+00 9.355457425117492676e-01
2.670000000000000000e+03 3.402269744873046875e+01 8.416501045227050781e+00 1.551874160766601562e+00 1.547467589378356934e+00 9.298025369644165039e-01 1.310074687004089355e+00
2.671000000000000000e+03 3.539888000488281250e+01 1.005055618286132812e+01 1.201951503753662109e+00 1.608030796051025391e+00 8.429946899414062500e-01 1.283851265907287598e+00
2.672000000000000000e+03 5.890468978881835938e+01 2.424837827682495117e+00 4.378196299076080322e-01 1.160826206207275391e+00 4.795937538146972656e-01 -1.030811309814453125e+00
2.673000000000000000e+03 5.340361404418945312e+01 -1.419047415256500244e-01 1.508388668298721313e-01 1.659473776817321777e-01 9.503587335348129272e-02 -3.372868299484252930e-01
2.674000000000000000e+03 3.524728775024414062e+01 -1.125400161743164062e+01 -1.906848788261413574e+00 4.808048605918884277e-01 -4.278131723403930664e-01 -5.723804831504821777e-01
2.675000000000000000e+03 4.825396728515625000e+01 -7.977111339569091797e+00 -1.584029674530029297e+00 6.561269611120223999e-02 -4.555250704288482666e-01 -6.254239678382873535e-01
2.676000000000000000e+03 2.835038948059082031e+01 -7.985231876373291016e+00 -6.659662723541259766e-01 6.966553330421447754e-01 9.206715971231460571e-03 -5.872609615325927734e-01
2.677000000000000000e+03 7.250465393066406250e+01 3.124661254882812500e+01 1.094850003719329834e-01 5.208145618438720703e+00 1.595289111137390137e+00 -2.685099840164184570e-01
2.678000000000000000e+03 6.968153381347656250e+01 7.685450553894042969e+00 -1.809461712837219238e-01 5.865303039550781250e+00 1.705307126045227051e+00 -1.257971763610839844e+00
2.679000000000000000e+03 5.285742568969726562e+01 -4.719656944274902344e+00 -1.165775537490844727e+00 -3.342085331678390503e-02 -3.597589433193206787e-01 -4.646324217319488525e-01
2.680000000000000000e+03 5.596297836303710938e+01 -3.205727100372314453e+00 -8.063327670097351074e-01 -6.199057772755622864e-02 -2.604970037937164307e-01 -5.521111488342285156e-01
2.681000000000000000e+03 2.786639213562011719e+01 1.454278588294982910e+00 2.168504238128662109e+00 2.009917736053466797e+00 1.253526568412780762e+00 1.259146094322204590e+00
2.682000000000000000e+03 6.835639953613281250e+01 1.925494956970214844e+01 3.257744014263153076e-01 4.883765220642089844e+00 1.562861919403076172e+00 -7.748994827270507812e-01
2.683000000000000000e+03 3.326431655883789062e+01 1.204529190063476562e+01 9.701452851295471191e-01 2.008170127868652344e+00 8.934946060180664062e-01 1.574568271636962891e+00
2.684000000000000000e+03 3.616777801513671875e+01 1.169230270385742188e+01 9.891455769538879395e-01 1.725092172622680664e+00 8.142713308334350586e-01 1.299147486686706543e+00
2.685000000000000000e+03 6.635435485839843750e+01 -7.036609202623367310e-02 -8.212618231773376465e-01 5.258553504943847656e+00 1.331187486648559570e+00 -2.742014646530151367e+00
2.686000000000000000e+03 5.975034332275390625e+01 7.143007278442382812e+00 4.536595642566680908e-01 2.450059175491333008e+00 8.711156249046325684e-01 -1.006149530410766602e+00
2.687000000000000000e+03 5.013321304321289062e+01 -3.895838856697082520e-01 1.352104842662811279e-01 1.381344646215438843e-01 8.200348168611526489e-02 -2.252638041973114014e-01
2.688000000000000000e+03 4.985980224609375000e+01 -5.513498306274414062e+00 -1.147958040237426758e+00 6.160609424114227295e-02 -3.259055912494659424e-01 -4.603903591632843018e-01
2.689000000000000000e+03 7.098684692382812500e+01 1.090406513214111328e+01 5.019437987357378006e-03 5.917223930358886719e+00 1.776673078536987305e+00 -1.024728178977966309e+00
2.690000000000000000e+03 7.992955684661865234e+00 -8.296685218811035156e+00 -1.619129538536071777e+00 6.027409553527832031e+00 1.322484016418457031e+00 2.177400588989257812e+00
2.691000000000000000e+03 3.862531661987304688e+01 -9.555648803710937500e+00 -1.458273649215698242e+00 3.795639872550964355e-01 -3.236128985881805420e-01 -6.001582145690917969e-01
2.692000000000000000e+03 7.122910022735595703e+00 2.158131217956542969e+01 -1.967903524637222290e-01 7.910230755805969238e-01 1.782698184251785278e-01 -2.957982420921325684e-01
2.693000000000000000e+03 5.844606399536132812e+00 2.284896469116210938e+01 -1.571428924798965454e-01 5.568239092826843262e-01 1.199043095111846924e-01 -2.638373076915740967e-01
2.694000000000000000e+03 6.957341003417968750e+01 1.430772781372070312e+01 2.120250165462493896e-01 5.306300640106201172e+00 1.655497670173645020e+00 -9.720101356506347656e-01
2.695000000000000000e+03 4.164093399047851562e+01 1.740660667419433594e+00 8.441601395606994629e-01 2.885665893554687500e-01 3.398180305957794189e-01 -3.042783401906490326e-02
2.696000000000000000e+03 3.205415344238281250e+01 1.107510852813720703e+01 1.150513052940368652e+00 2.106680631637573242e+00 9.771580696105957031e-01 1.686421632766723633e+00
2.697000000000000000e+03 3.107520484924316406e+01 1.552135276794433594e+01 8.448653668165206909e-02 2.254590749740600586e+00 7.017232179641723633e-01 1.151733398437500000e+00
2.698000000000000000e+03 9.930171012878417969e+00 2.083503913879394531e+01 -3.313412070274353027e-01 1.344346165657043457e+00 3.039014935493469238e-01 -1.657533496618270874e-01
2.699000000000000000e+03 9.547474861145019531e+00 2.204729652404785156e+01 -3.271391093730926514e-01 1.193062186241149902e+00 2.597769200801849365e-01 -1.401157826185226440e-01
2.700000000000000000e+03 2.532130432128906250e+01 -7.280223369598388672e+00 2.752509340643882751e-02 7.790265083312988281e-01 2.419654875993728638e-01 -5.921955704689025879e-01
2.701000000000000000e+03 6.566683197021484375e+01 1.067558956146240234e+01 2.760521173477172852e-01 4.429354667663574219e+00 1.411622047424316406e+00 -1.302560925483703613e+00
2.702000000000000000e+03 6.083653640747070312e+01 2.948173522949218750e+00 3.639428019523620605e-01 1.951839685440063477e+00 6.947347521781921387e-01 -1.469030737876892090e+00
2.703000000000000000e+03 5.469559478759765625e+01 -2.213391661643981934e-01 9.821293503046035767e-02 2.085825949907302856e-01 9.203866124153137207e-02 -4.047586619853973389e-01
2.704000000000000000e+03 5.631658935546875000e+01 -1.125743508338928223e+00 -1.512715816497802734e-01 1.376848667860031128e-01 -4.076011944562196732e-03 -5.796328186988830566e-01
2.705000000000000000e+03 5.779264450073242188e+01 -1.632944464683532715e+00 -3.004375994205474854e-01 1.878534257411956787e-01 -3.377524763345718384e-02 -7.753947973251342773e-01
2.706000000000000000e+03 6.773847103118896484e+00 -2.769821548461914062e+01 -6.419442892074584961e-01 3.359294891357421875e+00 8.152051568031311035e-01 7.105956673622131348e-01
2.707000000000000000e+03 7.376517295837402344e+00 -2.897518539428710938e+01 -6.329714059829711914e-01 3.294456720352172852e+00 7.984455823898315430e-01 5.207840204238891602e-01
2.708000000000000000e+03 1.220352745056152344e+01 2.298144721984863281e+01 -3.787553012371063232e-01 1.345539212226867676e+00 2.900351583957672119e-01 1.653486788272857666e-01
2.709000000000000000e+03 6.440283203125000000e+01 7.638203501701354980e-01 -1.417020410299301147e-01 3.491010904312133789e+00 1.004792690277099609e+00 -2.474282026290893555e+00
2.710000000000000000e+03 1.183834743499755859e+01 2.922170257568359375e+01 -1.300953924655914307e-01 8.651951551437377930e-01 2.205299139022827148e-01 1.277283430099487305e-01
2.711000000000000000e+03 9.781147956848144531e+00 2.844765853881835938e+01 -1.498683243989944458e-01 7.831433415412902832e-01 1.899825036525726318e-01 4.711788147687911987e-02
2.712000000000000000e+03 2.926794815063476562e+01 -8.318311691284179688e+00 -9.011929035186767578e-01 6.932353377342224121e-01 -6.238728016614913940e-02 -5.960958600044250488e-01
2.713000000000000000e+03 3.247439956665039062e+01 -1.061041545867919922e+01 -1.795558691024780273e+00 5.770186185836791992e-01 -3.655620217323303223e-01 -5.537679791450500488e-01
2.714000000000000000e+03 3.335374450683593750e+01 -1.132892990112304688e+01 -2.007463455200195312e+00 5.407496094703674316e-01 -4.400141239166259766e-01 -5.464469194412231445e-01
2.715000000000000000e+03 1.137251377105712891e+01 1.979447555541992188e+01 -3.802619576454162598e-01 1.686074018478393555e+00 3.917436003684997559e-01 -6.277672201395034790e-02
2.716000000000000000e+03 1.227436256408691406e+01 2.508759880065917969e+01 -2.935812473297119141e-01 1.134035706520080566e+00 2.521363496780395508e-01 1.837296634912490845e-01
2.717000000000000000e+03 6.047108840942382812e+01 7.533906936645507812e+00 4.414027035236358643e-01 2.749617576599121094e+00 9.573060870170593262e-01 -1.156931519508361816e+00
2.718000000000000000e+03 3.200002670288085938e+01 1.487477016448974609e+01 2.928724586963653564e-01 2.239945411682128906e+00 7.598453164100646973e-01 1.315912961959838867e+00
2.719000000000000000e+03 6.847598266601562500e+01 2.274696731567382812e+01 2.860441803932189941e-01 4.844498634338378906e+00 1.539162755012512207e+00 -6.230378746986389160e-01
2.720000000000000000e+03 6.134458923339843750e+01 1.786140823364257812e+01 6.686560511589050293e-01 3.644421100616455078e+00 1.293923139572143555e+00 -7.885707020759582520e-01
2.721000000000000000e+03 5.978755187988281250e+01 2.077502632141113281e+01 6.076704263687133789e-01 3.450261592864990234e+00 1.217379689216613770e+00 -6.887845993041992188e-01
2.722000000000000000e+03 2.996472740173339844e+01 2.024503898620605469e+01 -1.159414574503898621e-01 1.858940362930297852e+00 5.228996872901916504e-01 4.493937492370605469e-01
2.723000000000000000e+03 3.658178329467773438e+01 3.029020071029663086e+00 1.328391194343566895e+00 7.342223525047302246e-01 6.187840700149536133e-01 3.364466428756713867e-01
2.724000000000000000e+03 3.272437286376953125e+01 6.608528137207031250e+00 1.919065594673156738e+00 1.491452574729919434e+00 1.023155450820922852e+00 1.192969083786010742e+00
2.725000000000000000e+03 6.334857559204101562e+01 1.521864604949951172e+01 5.953490734100341797e-01 3.919163227081298828e+00 1.354353666305541992e+00 -1.019789814949035645e+00
2.726000000000000000e+03 1.459798908233642578e+01 2.409582328796386719e+01 -3.013540506362915039e-01 1.226235866546630859e+00 2.774645388126373291e-01 4.091636836528778076e-01
2.727000000000000000e+03 1.074635219573974609e+01 2.784202766418457031e+01 -1.863447278738021851e-01 8.741992712020874023e-01 2.063563764095306396e-01 8.092739433050155640e-02
2.728000000000000000e+03 5.413757705688476562e+01 -7.389999628067016602e-01 -1.999880373477935791e-02 1.798951625823974609e-01 4.796890914440155029e-02 -3.945784568786621094e-01
2.729000000000000000e+03 6.716398620605468750e+01 -2.950434684753417969e+01 -6.734908223152160645e-01 5.808722496032714844e+00 1.540569543838500977e+00 3.683524727821350098e-01
2.730000000000000000e+03 4.829836273193359375e+01 -4.929653704166412354e-01 1.651368737220764160e-01 1.668639332056045532e-01 9.960024058818817139e-02 -1.853622645139694214e-01
2.731000000000000000e+03 4.653937530517578125e+01 -4.027185440063476562e-01 2.493620067834854126e-01 1.814384162425994873e-01 1.292401254177093506e-01 -1.687527596950531006e-01
2.732000000000000000e+03 4.357329940795898438e+01 -8.528961181640625000e+00 -1.399879932403564453e+00 2.101027667522430420e-01 -3.569331467151641846e-01 -5.905258059501647949e-01
2.733000000000000000e+03 4.333732223510742188e+01 -7.282814979553222656e+00 -1.107047796249389648e+00 2.241982817649841309e-01 -2.648548483848571777e-01 -5.302253961563110352e-01
2.734000000000000000e+03 1.022693634033203125e+01 -2.848723411560058594e+01 -7.217116951942443848e-01 3.115097761154174805e+00 7.180157899856567383e-01 1.594008505344390869e-01
2.735000000000000000e+03 4.343122100830078125e+01 2.244663810729980469e+01 7.164915204048156738e-01 1.910382151603698730e+00 7.880620956420898438e-01 7.510998845100402832e-01
2.736000000000000000e+03 3.964954376220703125e+01 2.941441726684570312e+01 4.817186295986175537e-01 1.910189986228942871e+00 7.175725698471069336e-01 3.475422859191894531e-01
2.737000000000000000e+03 6.198106765747070312e+01 1.924632263183593750e+01 6.034710407257080078e-01 3.782517194747924805e+00 1.315796494483947754e+00 -7.766093015670776367e-01
2.738000000000000000e+03 6.538801574707031250e+01 1.573741340637207031e+01 4.746294021606445312e-01 4.336609840393066406e+00 1.443371772766113281e+00 -1.002137541770935059e+00
2.739000000000000000e+03 9.862634658813476562e+00 3.464155578613281250e+01 -2.870398573577404022e-02 6.335849761962890625e-01 1.814642995595932007e-01 4.313889890909194946e-02
2.740000000000000000e+03 6.772875213623046875e+01 -3.494228744506835938e+01 -1.135770007967948914e-01 5.735947608947753906e+00 1.686711311340332031e+00 3.279450833797454834e-01
2.741000000000000000e+03 3.839549636840820312e+01 4.324244976043701172e+00 1.234524846076965332e+00 6.822568178176879883e-01 5.750344991683959961e-01 3.111445605754852295e-01
2.742000000000000000e+03 3.645166397094726562e+01 6.287463188171386719e+00 1.388422846794128418e+00 1.045071840286254883e+00 7.300483584403991699e-01 7.345634698867797852e-01
2.743000000000000000e+03 3.488701629638671875e+01 1.601197814941406250e+01 5.521463155746459961e-01 2.010976791381835938e+00 7.689368724822998047e-01 1.183998703956604004e+00
2.744000000000000000e+03 3.485667419433593750e+01 1.486497020721435547e+01 6.449779868125915527e-01 1.969893574714660645e+00 7.844614982604980469e-01 1.299274206161499023e+00
2.745000000000000000e+03 6.002327728271484375e+01 8.795802116394042969e+00 4.604734480381011963e-01 2.790910243988037109e+00 9.754151105880737305e-01 -1.020666003227233887e+00
2.746000000000000000e+03 5.375052642822265625e+01 -2.350603580474853516e+00 -5.115838646888732910e-01 3.311467170715332031e-02 -1.435407549142837524e-01 -3.876853287220001221e-01
2.747000000000000000e+03 5.532441329956054688e+01 -5.222330093383789062e+00 -1.499379515647888184e+00 -1.049984395503997803e-01 -4.813134074211120605e-01 -6.244572401046752930e-01
2.748000000000000000e+03 6.858148193359375000e+01 2.937157440185546875e+01 2.237462401390075684e-01 4.764298915863037109e+00 1.496413469314575195e+00 -3.995701670646667480e-01
2.749000000000000000e+03 6.889414215087890625e+01 2.456929016113281250e+01 2.516646385192871094e-01 4.892293930053710938e+00 1.543187499046325684e+00 -5.540227890014648438e-01
2.750000000000000000e+03 7.128044128417968750e+01 2.983349227905273438e+01 1.392910778522491455e-01 5.104185581207275391e+00 1.573042988777160645e+00 -3.369853496551513672e-01
2.751000000000000000e+03 6.771038055419921875e+01 2.734955406188964844e+01 2.677589654922485352e-01 4.674319267272949219e+00 1.482623457908630371e+00 -4.726917743682861328e-01
2.752000000000000000e+03 3.270626831054687500e+01 8.671040534973144531e+00 1.655825853347778320e+00 1.688314557075500488e+00 1.003242135047912598e+00 1.479845285415649414e+00
2.753000000000000000e+03 4.096993637084960938e+01 -9.154691696166992188e+00 -1.424304485321044922e+00 2.983505427837371826e-01 -3.377861678600311279e-01 -5.992999076843261719e-01
2.754000000000000000e+03 9.323120117187500000e+00 -3.574583435058593750e+01 -3.063309788703918457e-01 2.626626968383789062e+00 6.960887908935546875e-01 1.125473454594612122e-01
2.755000000000000000e+03 7.023343658447265625e+01 1.910389304161071777e+00 -1.018950104713439941e+00 7.330578327178955078e+00 1.893488526344299316e+00 -1.286835432052612305e+00
2.756000000000000000e+03 3.525791931152343750e+01 7.214128017425537109e+00 1.501124262809753418e+00 1.273248195648193359e+00 8.323117494583129883e-01 1.005560398101806641e+00
2.757000000000000000e+03 3.330185699462890625e+01 5.373384952545166016e+00 1.893511295318603516e+00 1.279956936836242676e+00 9.520404934883117676e-01 9.355892539024353027e-01
2.758000000000000000e+03 7.126700592041015625e+01 -9.729405045509338379e-01 -1.468870162963867188e+00 8.827935218811035156e+00 2.207719564437866211e+00 -7.214778065681457520e-01
2.759000000000000000e+03 3.659220504760742188e+01 2.238574600219726562e+01 3.842556774616241455e-01 1.955332756042480469e+00 7.018765211105346680e-01 5.995800495147705078e-01
2.760000000000000000e+03 1.321864891052246094e+01 -5.813255310058593750e+00 2.353763103485107422e+00 2.163502931594848633e+00 1.355179786682128906e+00 5.716454029083251953e+00
2.761000000000000000e+03 1.928959655761718750e+01 1.931206881999969482e-01 4.816855430603027344e+00 3.039132118225097656e+00 2.356796264648437500e+00 3.909430742263793945e+00
2.762000000000000000e+03 1.342658901214599609e+01 -5.169285297393798828e+00 3.253624439239501953e+00 2.372152090072631836e+00 1.687733054161071777e+00 5.746004581451416016e+00
2.763000000000000000e+03 1.860075187683105469e+01 3.591617643833160400e-01 4.146078586578369141e+00 4.078829288482666016e+00 2.467472314834594727e+00 3.631057739257812500e+00
2.764000000000000000e+03 1.922311401367187500e+01 -5.597556829452514648e-01 6.155249118804931641e+00 3.019293069839477539e+00 2.752362728118896484e+00 3.818830728530883789e+00
2.765000000000000000e+03 1.484683895111083984e+01 -7.142993927001953125e+00 2.493937164545059204e-01 2.563603401184082031e+00 8.438991308212280273e-01 4.553284645080566406e+00
2.766000000000000000e+03 1.848764801025390625e+01 -4.072225093841552734e+00 5.697792530059814453e+00 4.282045841217041016e+00 2.993951559066772461e+00 -2.158907204866409302e-01
2.767000000000000000e+03 1.781061744689941406e+01 -4.550827503204345703e+00 4.405319690704345703e+00 5.427004814147949219e+00 2.949697256088256836e+00 9.884462505578994751e-02
2.768000000000000000e+03 1.582447910308837891e+01 -7.009804248809814453e+00 2.564404308795928955e-01 3.243455171585083008e+00 1.049968600273132324e+00 3.245251417160034180e+00
2.769000000000000000e+03 1.588908386230468750e+01 -5.226757526397705078e+00 2.373953819274902344e+00 6.123238563537597656e+00 2.549157619476318359e+00 3.540684700012207031e+00
2.770000000000000000e+03 1.759470558166503906e+01 -5.239898681640625000e+00 2.914219379425048828e+00 5.258447647094726562e+00 2.451800107955932617e+00 5.759583711624145508e-01
2.771000000000000000e+03 1.873877906799316406e+01 -3.698958873748779297e+00 6.449270725250244141e+00 3.641750574111938477e+00 3.027306318283081055e+00 -2.530172467231750488e-02
2.772000000000000000e+03 1.732004356384277344e+01 -7.941931724548339844e+00 -1.040972948074340820e+00 2.329820394515991211e+00 3.866542279720306396e-01 1.439094781875610352e+00
2.773000000000000000e+03 1.611640930175781250e+01 -6.216281890869140625e+00 1.117810010910034180e+00 4.474408626556396484e+00 1.677665591239929199e+00 2.967791557312011719e+00
2.774000000000000000e+03 1.917419815063476562e+01 -2.821126461029052734e+00 7.530975341796875000e+00 2.771913766860961914e+00 3.090866804122924805e+00 1.001788735389709473e+00
2.775000000000000000e+03 2.158353042602539062e+01 -1.104640066623687744e-01 4.271158218383789062e+00 1.646686434745788574e+00 1.775353431701660156e+00 3.459606885910034180e+00
2.776000000000000000e+03 1.892902183532714844e+01 7.567158341407775879e-01 3.466099500656127930e+00 3.340918779373168945e+00 2.042105436325073242e+00 3.605147361755371094e+00
2.777000000000000000e+03 1.909928894042968750e+01 -3.597197294235229492e+00 6.327768325805664062e+00 3.135490179061889648e+00 2.838977575302124023e+00 1.200336590409278870e-01
2.778000000000000000e+03 1.653622627258300781e+01 -7.098700523376464844e+00 9.882242232561111450e-02 3.428244829177856445e+00 1.058120131492614746e+00 2.292818307876586914e+00
2.779000000000000000e+03 1.667243003845214844e+01 -7.531450271606445312e+00 -3.787570297718048096e-01 2.775028705596923828e+00 7.188814878463745117e-01 2.197087287902832031e+00
2.780000000000000000e+03 1.651021194458007812e+01 -5.977524757385253906e+00 1.441857576370239258e+00 4.970573902130126953e+00 1.923729419708251953e+00 2.366611957550048828e+00
2.781000000000000000e+03 1.825695800781250000e+01 -8.208234786987304688e+00 -1.338848233222961426e+00 1.827792882919311523e+00 1.466833949089050293e-01 6.168619990348815918e-01
2.782000000000000000e+03 1.926842880249023438e+01 -7.744973182678222656e+00 -4.827676713466644287e-01 2.064797878265380859e+00 4.746090769767761230e-01 -6.006295979022979736e-02
2.783000000000000000e+03 1.325250911712646484e+01 -7.436048984527587891e+00 3.070212900638580322e-01 1.734758138656616211e+00 6.125338077545166016e-01 5.857507228851318359e+00
2.784000000000000000e+03 1.177820682525634766e+01 -6.982551574707031250e+00 5.613881945610046387e-01 2.285686731338500977e+00 8.541224598884582520e-01 5.825514793395996094e+00
2.785000000000000000e+03 1.534399986267089844e+01 -7.252423763275146484e+00 1.502449363470077515e-01 2.653869867324829102e+00 8.412344455718994141e-01 3.859563112258911133e+00
2.786000000000000000e+03 1.975699234008789062e+01 1.094905614852905273e+00 3.429950475692749023e+00 2.378542661666870117e+00 1.742547869682312012e+00 3.739653348922729492e+00
2.787000000000000000e+03 2.013439178466796875e+01 4.498485028743743896e-01 4.349669456481933594e+00 2.183363914489746094e+00 1.959909915924072266e+00 3.849715709686279297e+00
2.788000000000000000e+03 1.997052574157714844e+01 -8.474009037017822266e-01 5.948983192443847656e+00 2.097007036209106445e+00 2.413797140121459961e+00 3.384720563888549805e+00
2.789000000000000000e+03 1.531494331359863281e+01 -5.410913467407226562e+00 2.234868526458740234e+00 5.365815639495849609e+00 2.280205249786376953e+00 4.487951278686523438e+00
2.790000000000000000e+03 2.259907150268554688e+01 -2.426923662424087524e-01 3.815572023391723633e+00 1.604132294654846191e+00 1.625911355018615723e+00 3.061735868453979492e+00
2.791000000000000000e+03 1.135842323303222656e+01 -5.037985801696777344e+00 2.128257989883422852e+00 1.255933284759521484e+00 1.015257358551025391e+00 4.418161392211914062e+00
2.792000000000000000e+03 2.156986808776855469e+01 -8.301568031311035156e+00 -9.263253211975097656e-01 1.217940211296081543e+00 8.748446404933929443e-02 -6.066907048225402832e-01
2.793000000000000000e+03 1.990849685668945312e+01 -8.271244049072265625e+00 -1.072536230087280273e+00 1.625678420066833496e+00 1.659426689147949219e-01 -1.877115815877914429e-01
2.794000000000000000e+03 1.980465507507324219e+01 -7.678894519805908203e+00 -3.197801709175109863e-01 1.877968668937683105e+00 4.674565792083740234e-01 -2.940899431705474854e-01
2.795000000000000000e+03 2.120987129211425781e+01 -7.691390037536621094e+00 -2.338099926710128784e-01 1.403032898902893066e+00 3.507668673992156982e-01 -5.813588500022888184e-01
2.796000000000000000e+03 9.608160018920898438e+00 -6.298129081726074219e+00 -1.310958117246627808e-01 3.013776540756225586e+00 8.648042082786560059e-01 3.813378572463989258e+00
2.797000000000000000e+03 1.115027427673339844e+01 -6.776431560516357422e+00 3.761118054389953613e-01 2.612044095993041992e+00 8.964467644691467285e-01 5.491636276245117188e+00
2.798000000000000000e+03 2.451832199096679688e+01 -9.583281278610229492e-01 3.052003383636474609e+00 1.446961164474487305e+00 1.349689364433288574e+00 1.958796739578247070e+00
2.799000000000000000e+03 2.610374641418457031e+01 -1.744758933782577515e-01 2.395025491714477539e+00 1.724179029464721680e+00 1.235761404037475586e+00 1.577426552772521973e+00
2.800000000000000000e+03 2.470775222778320312e+01 -7.879968643188476562e+00 -4.424895942211151123e-01 8.165252208709716797e-01 1.122106835246086121e-01 -6.206783652305603027e-01
2.801000000000000000e+03 5.841394805908203125e+01 1.320054292678833008e+00 3.644559383392333984e-01 8.542850613594055176e-01 3.656222820281982422e-01 -9.349035024642944336e-01
2.802000000000000000e+03 1.971815299987792969e+01 -3.054752349853515625e+00 6.531276226043701172e+00 2.164573192596435547e+00 2.608754873275756836e+00 8.454584479331970215e-01
2.803000000000000000e+03 2.328917694091796875e+01 -4.430568695068359375e+00 2.818701744079589844e+00 8.424869775772094727e-01 1.098356604576110840e+00 2.402503341436386108e-01
2.804000000000000000e+03 3.025990295410156250e+01 -8.559025764465332031e+00 -1.047375321388244629e+00 6.660954356193542480e-01 -1.143839508295059204e-01 -5.909907221794128418e-01
2.805000000000000000e+03 3.066631507873535156e+01 -7.578319072723388672e+00 -6.440621018409729004e-01 6.504482626914978027e-01 1.915861503221094608e-03 -5.426006317138671875e-01
2.806000000000000000e+03 6.450964355468750000e+01 1.145161628723144531e+01 3.875142633914947510e-01 4.105156421661376953e+00 1.347801208496093750e+00 -1.268804669380187988e+00
2.807000000000000000e+03 6.973333740234375000e+01 1.010383605957031250e+01 5.078371148556470871e-03 5.623197555541992188e+00 1.688482761383056641e+00 -1.153359055519104004e+00
2.808000000000000000e+03 2.239308547973632812e+01 -9.379151463508605957e-01 4.224209308624267578e+00 1.329823732376098633e+00 1.666209936141967773e+00 2.696898698806762695e+00
2.809000000000000000e+03 2.500080871582031250e+01 -2.982255518436431885e-01 2.743324518203735352e+00 1.681206107139587402e+00 1.327359199523925781e+00 1.999738216400146484e+00
2.810000000000000000e+03 4.800841903686523438e+01 -2.635089397430419922e+00 -3.325121402740478516e-01 1.318403929471969604e-01 -6.020152568817138672e-02 -2.705202698707580566e-01
2.811000000000000000e+03 3.266302108764648438e+01 -8.149656295776367188e+00 -9.749959111213684082e-01 5.764506459236145020e-01 -1.195635721087455750e-01 -5.722833871841430664e-01
2.812000000000000000e+03 3.876469039916992188e+01 5.951591730117797852e-01 8.303024172782897949e-01 4.135526716709136963e-01 3.731565475463867188e-01 -7.106796372681856155e-03
2.813000000000000000e+03 3.804105758666992188e+01 -8.633528709411621094e+00 -1.222620964050292969e+00 3.989063501358032227e-01 -2.471143752336502075e-01 -5.832210779190063477e-01
2.814000000000000000e+03 3.369997787475585938e+01 -8.520164489746093750e+00 -1.112997889518737793e+00 5.328834652900695801e-01 -1.740343421697616577e-01 -5.772560834884643555e-01
2.815000000000000000e+03 3.709593582153320312e+01 -9.383551597595214844e+00 -1.415471673011779785e+00 4.190116226673126221e-01 -2.989380359649658203e-01 -5.948376059532165527e-01
2.816000000000000000e+03 7.010877227783203125e+01 1.113750171661376953e+01 7.239960134029388428e-02 5.615730762481689453e+00 1.706439137458801270e+00 -1.066180706024169922e+00
2.817000000000000000e+03 6.950996398925781250e+01 8.912637710571289062e+00 -5.583869293332099915e-02 5.654989719390869141e+00 1.679745316505432129e+00 -1.203931570053100586e+00
2.818000000000000000e+03 2.995640182495117188e+01 3.848345756530761719e+00 2.267381191253662109e+00 1.873565673828125000e+00 1.242284059524536133e+00 9.873847365379333496e-01
2.819000000000000000e+03 3.970287322998046875e+01 -8.323874473571777344e+00 -1.205664277076721191e+00 3.474571704864501953e-01 -2.574621140956878662e-01 -5.742275118827819824e-01
2.820000000000000000e+03 6.895613861083984375e+01 -1.379181742668151855e+00 -1.586045503616333008e+00 8.030639648437500000e+00 1.933378219604492188e+00 -2.065432310104370117e+00
2.821000000000000000e+03 6.073034286499023438e+01 -3.655262291431427002e-03 1.967997550964355469e-01 1.120494365692138672e+00 3.951882421970367432e-01 -1.517223358154296875e+00
2.822000000000000000e+03 6.403359985351562500e+01 2.024695205688476562e+01 4.997193813323974609e-01 4.116494655609130859e+00 1.384864211082458496e+00 -7.547072768211364746e-01
2.823000000000000000e+03 6.862938690185546875e+01 1.515583324432373047e+01 2.727167904376983643e-01 5.093255996704101562e+00 1.609791874885559082e+00 -9.805212616920471191e-01
2.824000000000000000e+03 6.748199462890625000e+01 1.607420158386230469e+01 3.507953286170959473e-01 4.799283027648925781e+00 1.545023441314697266e+00 -9.474993944168090820e-01
2.825000000000000000e+03 6.874412536621093750e+01 1.329781150817871094e+01 2.149997502565383911e-01 5.185441493988037109e+00 1.620132446289062500e+00 -1.071746349334716797e+00
2.826000000000000000e+03 4.532118225097656250e+01 -3.966784477233886719e+00 -4.904468953609466553e-01 1.750679016113281250e-01 -9.461370110511779785e-02 -3.369176089763641357e-01
2.827000000000000000e+03 4.200388336181640625e+01 -7.731051445007324219e+00 -1.141923069953918457e+00 2.638409137725830078e-01 -2.634246647357940674e-01 -5.484638810157775879e-01
2.828000000000000000e+03 4.207184219360351562e+01 -6.150462627410888672e+00 -7.953495383262634277e-01 2.552424371242523193e-01 -1.620321273803710938e-01 -4.686204791069030762e-01
2.829000000000000000e+03 4.435430908203125000e+01 9.800295829772949219e-01 5.924333930015563965e-01 2.090421020984649658e-01 2.404426485300064087e-01 -4.790744557976722717e-02
2.830000000000000000e+03 6.866838073730468750e+01 1.826617002487182617e+00 -9.054899215698242188e-01 6.559270858764648438e+00 1.696134328842163086e+00 -1.815516471862792969e+00
2.831000000000000000e+03 5.282754516601562500e+01 -9.348003268241882324e-01 -5.129808560013771057e-02 8.423904329538345337e-02 9.882287122309207916e-03 -3.120809495449066162e-01
2.832000000000000000e+03 5.117371368408203125e+01 -1.242129683494567871e+00 -8.933135867118835449e-02 1.014533191919326782e-01 3.636589506641030312e-03 -2.638892531394958496e-01
2.833000000000000000e+03 4.999705123901367188e+01 -3.990623712539672852e+00 -7.586219310760498047e-01 7.557996362447738647e-02 -2.049125880002975464e-01 -3.535548746585845947e-01
2.834000000000000000e+03 4.661502075195312500e+01 -3.344437599182128906e+00 -4.242704212665557861e-01 1.432120054960250854e-01 -8.431752771139144897e-02 -2.969584763050079346e-01
2.835000000000000000e+03 3.413780975341796875e+01 1.086255168914794922e+01 1.161308884620666504e+00 1.811661005020141602e+00 8.918910026550292969e-01 1.473782539367675781e+00
2.836000000000000000e+03 5.147296524047851562e+01 -4.322741031646728516e+00 -9.266161322593688965e-01 3.286477923393249512e-02 -2.681254148483276367e-01 -4.006490707397460938e-01
2.837000000000000000e+03 5.342188262939453125e+01 -3.506304025650024414e+00 -8.017770051956176758e-01 -9.453340433537960052e-03 -2.433691024780273438e-01 -4.129794239997863770e-01
2.838000000000000000e+03 2.940693092346191406e+01 -6.065681457519531250e+00 1.174667775630950928e-01 6.872320175170898438e-01 2.414096295833587646e-01 -3.788858056068420410e-01
2.839000000000000000e+03 6.485472106933593750e+01 7.959301948547363281e+00 1.680269092321395874e-01 4.157219886779785156e+00 1.297574043273925781e+00 -1.524935126304626465e+00
2.840000000000000000e+03 6.214796447753906250e+01 1.009920597076416016e+01 4.362309873104095459e-01 3.497731208801269531e+00 1.180188655853271484e+00 -1.236439108848571777e+00
2.841000000000000000e+03 3.312306213378906250e+01 1.094126892089843750e+01 1.185454368591308594e+00 1.865153074264526367e+00 9.151822328567504883e-01 1.548837423324584961e+00
2.842000000000000000e+03 5.469488525390625000e+01 -1.306071758270263672e+00 -1.463449299335479736e-01 1.424475014209747314e-01 -1.169227180071175098e-03 -4.453372657299041748e-01
2.843000000000000000e+03 4.594952774047851562e+01 5.363608002662658691e-01 4.936054944992065430e-01 1.668239533901214600e-01 1.981288343667984009e-01 -7.789945602416992188e-02
2.844000000000000000e+03 4.411360549926757812e+01 -4.520859718322753906e+00 -5.419871807098388672e-01 1.972518712282180786e-01 -1.034205853939056396e-01 -3.620291054248809814e-01
2.845000000000000000e+03 3.340262985229492188e+01 1.465532875061035156e+01 5.318007469177246094e-01 2.103608608245849609e+00 7.906228303909301758e-01 1.354720592498779297e+00
2.846000000000000000e+03 5.044908905029296875e+01 -2.495403766632080078e+00 -3.919411003589630127e-01 8.586272597312927246e-02 -9.182351082563400269e-02 -2.994965910911560059e-01
2.847000000000000000e+03 2.604337120056152344e+01 -7.732407093048095703e+00 -4.124650359153747559e-01 7.857427000999450684e-01 1.119832918047904968e-01 -5.889193415641784668e-01
2.848000000000000000e+03 5.764456939697265625e+01 4.772781431674957275e-01 2.012676298618316650e-01 5.316675305366516113e-01 2.198805510997772217e-01 -7.851577401161193848e-01
2.849000000000000000e+03 3.402010345458984375e+01 7.061148166656494141e+00 1.719024300575256348e+00 1.362872719764709473e+00 9.245690703392028809e-01 1.141068935394287109e+00
2.850000000000000000e+03 3.524782562255859375e+01 8.295447349548339844e+00 1.417440533638000488e+00 1.363189816474914551e+00 8.341891169548034668e-01 1.128386855125427246e+00
2.851000000000000000e+03 6.200862121582031250e+01 -6.731375455856323242e-01 5.210204795002937317e-02 1.348510622978210449e+00 4.201838076114654541e-01 -1.989547371864318848e+00
2.852000000000000000e+03 6.331207656860351562e+01 1.217339706420898438e+01 4.847790598869323730e-01 3.852733850479125977e+00 1.301253914833068848e+00 -1.178535342216491699e+00
2.853000000000000000e+03 6.765650939941406250e+01 2.020972728729248047e+00 -6.909176707267761230e-01 5.861442089080810547e+00 1.551157236099243164e+00 -2.035058021545410156e+00
2.854000000000000000e+03 6.926026916503906250e+01 2.742794990539550781e+00 -7.845205068588256836e-01 6.473587989807128906e+00 1.706720232963562012e+00 -1.664227485656738281e+00
2.855000000000000000e+03 3.246857452392578125e+01 1.893027496337890625e+01 1.013990491628646851e-01 2.028432846069335938e+00 6.389495730400085449e-01 7.776278257369995117e-01
2.856000000000000000e+03 1.365027046203613281e+01 2.053692436218261719e+01 -4.822613298892974854e-01 1.712373733520507812e+00 3.690337240695953369e-01 3.132304549217224121e-01
2.857000000000000000e+03 1.447818565368652344e+01 1.956817054748535156e+01 -4.827191531658172607e-01 1.882860183715820312e+00 4.200423061847686768e-01 5.370807647705078125e-01
2.858000000000000000e+03 6.818114471435546875e+01 2.090171813964843750e+01 3.141838610172271729e-01 4.829208374023437500e+00 1.543017625808715820e+00 -7.161489725112915039e-01
2.859000000000000000e+03 1.533006572723388672e+01 2.666931915283203125e+01 -1.596785336732864380e-01 1.043523192405700684e+00 2.651533782482147217e-01 3.501951992511749268e-01
2.860000000000000000e+03 1.435362720489501953e+01 2.146157264709472656e+01 -4.408979415893554688e-01 1.561285138130187988e+00 3.361161649227142334e-01 4.591015577316284180e-01
2.861000000000000000e+03 4.130393981933593750e+01 5.032418966293334961e-01 6.669669151306152344e-01 2.831017673015594482e-01 2.850206196308135986e-01 -5.769351497292518616e-02
2.862000000000000000e+03 6.990292358398437500e+01 3.482857894897460938e+01 1.689096391201019287e-01 4.836307525634765625e+00 1.501565217971801758e+00 -2.254239320755004883e-01
2.863000000000000000e+03 2.836126136779785156e+01 6.167562603950500488e-01 2.005741119384765625e+00 1.684312343597412109e+00 1.107016086578369141e+00 9.937631487846374512e-01
2.864000000000000000e+03 2.162940025329589844e+01 2.202689743041992188e+01 1.929741911590099335e-02 5.725594758987426758e-01 1.775570660829544067e-01 3.970248997211456299e-01
2.865000000000000000e+03 2.229255485534667969e+01 2.683368492126464844e+01 1.214830800890922546e-01 9.451096057891845703e-01 3.199777901172637939e-01 3.036271333694458008e-01
2.866000000000000000e+03 5.790277481079101562e+01 2.173532485961914062e+01 6.320085525512695312e-01 3.147959470748901367e+00 1.133990406990051270e+00 -6.925444006919860840e-01
2.867000000000000000e+03 3.116930007934570312e+01 1.864178085327148438e+01 -5.279556661844253540e-02 2.042056322097778320e+00 5.967782139778137207e-01 7.035749554634094238e-01
2.868000000000000000e+03 3.211637115478515625e+01 1.602449607849121094e+01 2.282036393880844116e-01 2.167650938034057617e+00 7.187563776969909668e-01 1.138268351554870605e+00
2.869000000000000000e+03 3.389586257934570312e+01 4.192342758178710938e+00 1.739087700843811035e+00 1.104306101799011230e+00 8.530181050300598145e-01 6.929431557655334473e-01
2.870000000000000000e+03 3.673496627807617188e+01 4.628829956054687500e+00 1.384856343269348145e+00 8.483162522315979004e-01 6.699517965316772461e-01 5.005461573600769043e-01
2.871000000000000000e+03 3.569391250610351562e+01 3.748014926910400391e+00 1.471925616264343262e+00 8.560799956321716309e-01 6.984016895294189453e-01 4.780685007572174072e-01
2.872000000000000000e+03 3.498009490966796875e+01 2.254306411743164062e+01 2.858121395111083984e-01 1.911974549293518066e+00 6.593360304832458496e-01 5.479959249496459961e-01
2.873000000000000000e+03 1.110285568237304688e+01 2.397096633911132812e+01 -3.385591804981231689e-01 1.183222889900207520e+00 2.533991336822509766e-01 5.734279379248619080e-02
2.874000000000000000e+03 6.529104614257812500e+01 1.960477977991104126e-01 -4.241728782653808594e-01 4.175499439239501953e+00 1.125397920608520508e+00 -2.814164400100708008e+00
2.875000000000000000e+03 6.379462432861328125e+01 -2.444430142641067505e-01 -1.098244786262512207e-01 2.737211942672729492e+00 7.882162928581237793e-01 -2.621074676513671875e+00
2.876000000000000000e+03 2.623153877258300781e+01 2.108219146728515625e+01 -1.467453390359878540e-01 1.189325094223022461e+00 3.127739131450653076e-01 1.472023427486419678e-01
2.877000000000000000e+03 2.758460426330566406e+01 -7.513034820556640625e+00 -3.777255415916442871e-01 7.033154368400573730e-01 9.767696261405944824e-02 -5.536170601844787598e-01
2.878000000000000000e+03 4.601244735717773438e+01 -6.420924663543701172e+00 -1.071190118789672852e+00 1.568731218576431274e-01 -2.742950916290283203e-01 -4.792220294475555420e-01
2.879000000000000000e+03 3.443865203857421875e+01 5.837495803833007812e+00 1.700738072395324707e+00 1.195077061653137207e+00 8.687445521354675293e-01 9.018267393112182617e-01
2.880000000000000000e+03 1.303558540344238281e+01 2.786308670043945312e+01 -1.727137416601181030e-01 9.798921346664428711e-01 2.421535104513168335e-01 2.050311267375946045e-01
2.881000000000000000e+03 6.516181182861328125e+01 1.253964233398437500e+01 3.952332735061645508e-01 4.291055202484130859e+00 1.405886530876159668e+00 -1.191382646560668945e+00
2.882000000000000000e+03 6.837220001220703125e+01 -3.241766738891601562e+01 -3.480756282806396484e-01 6.222294330596923828e+00 1.762265563011169434e+00 2.870546579360961914e-01
2.883000000000000000e+03 6.646868133544921875e+01 1.051366090774536133e+00 -6.100151538848876953e-01 5.197342872619628906e+00 1.376198291778564453e+00 -2.444005012512207031e+00
2.884000000000000000e+03 3.418112945556640625e+01 9.742691993713378906e+00 1.335586428642272949e+00 1.637856245040893555e+00 8.920328021049499512e-01 1.409311294555664062e+00
2.885000000000000000e+03 3.430460357666015625e+01 1.793571662902832031e+01 3.736322820186614990e-01 2.004333019256591797e+00 7.133895754814147949e-01 9.172249436378479004e-01
2.886000000000000000e+03 3.674158096313476562e+01 2.088492012023925781e+01 4.485401511192321777e-01 1.983285665512084961e+00 7.295477390289306641e-01 6.868350505828857422e-01
2.887000000000000000e+03 1.042969036102294922e+01 2.275273132324218750e+01 -3.445929884910583496e-01 1.234009146690368652e+00 2.668248414993286133e-01 -3.556253015995025635e-02
2.888000000000000000e+03 1.115533351898193359e+01 2.087162971496582031e+01 -3.831155002117156982e-01 1.500798463821411133e+00 3.353049159049987793e-01 -2.152978815138339996e-02
2.889000000000000000e+03 4.178692245483398438e+01 2.728575134277343750e+01 5.753977298736572266e-01 1.938927292823791504e+00 7.542974948883056641e-01 4.537389278411865234e-01
2.890000000000000000e+03 1.169922828674316406e+01 -3.554799652099609375e+01 -3.107127845287322998e-01 2.309148788452148438e+00 5.995308160781860352e-01 1.794501004042103887e-04
2.891000000000000000e+03 6.151347351074218750e+01 -3.400591659545898438e+01 7.486023008823394775e-03 2.458194971084594727e+00 7.397043108940124512e-01 2.574987411499023438e-01
2.892000000000000000e+03 6.877069091796875000e+01 7.161527633666992188e+00 -1.900545209646224976e-01 5.630887508392333984e+00 1.632249832153320312e+00 -1.350035429000854492e+00
2.893000000000000000e+03 7.077282714843750000e+01 7.857787132263183594e+00 -1.891335844993591309e-01 6.155447959899902344e+00 1.789894223213195801e+00 -1.084917545318603516e+00
2.894000000000000000e+03 1.963121223449707031e+01 -6.044171452522277832e-01 5.896042823791503906e+00 2.365870952606201172e+00 2.478574037551879883e+00 3.577955722808837891e+00
2.895000000000000000e+03 1.357426452636718750e+01 -6.868392944335937500e+00 9.927673935890197754e-01 2.120292663574218750e+00 9.339180588722229004e-01 5.604037284851074219e+00
2.896000000000000000e+03 1.260204887390136719e+01 -5.707615852355957031e+00 2.221406698226928711e+00 1.893226265907287598e+00 1.234389901161193848e+00 5.580752849578857422e+00
2.897000000000000000e+03 1.761385726928710938e+01 -4.731619358062744141e+00 3.967217922210693359e+00 5.575770854949951172e+00 2.862896680831909180e+00 3.659087717533111572e-01
2.898000000000000000e+03 1.512881946563720703e+01 -5.705272197723388672e+00 2.029785633087158203e+00 4.616559028625488281e+00 1.993903398513793945e+00 4.577157497406005859e+00
2.899000000000000000e+03 1.822504234313964844e+01 -4.348689079284667969e+00 5.147682189941406250e+00 4.711925506591796875e+00 2.957882165908813477e+00 -2.408075928688049316e-01
2.900000000000000000e+03 1.725056838989257812e+01 -5.459439277648925781e+00 2.348079681396484375e+00 5.247867107391357422e+00 2.278784036636352539e+00 1.193915605545043945e+00
2.901000000000000000e+03 1.907952499389648438e+01 -5.199272155761718750e+00 3.459898948669433594e+00 3.226598024368286133e+00 2.005949020385742188e+00 -2.988360226154327393e-01
2.902000000000000000e+03 1.550740051269531250e+01 -6.553756237030029297e+00 8.663502335548400879e-01 3.795501470565795898e+00 1.398555517196655273e+00 3.916188716888427734e+00
2.903000000000000000e+03 1.995661926269531250e+01 -1.521526455879211426e+00 6.629074573516845703e+00 1.941614747047424316e+00 2.571206808090209961e+00 2.742778778076171875e+00
2.904000000000000000e+03 1.255779647827148438e+01 -5.064175605773925781e+00 3.128318786621093750e+00 1.446369290351867676e+00 1.372406363487243652e+00 5.308749198913574219e+00
2.905000000000000000e+03 1.775744819641113281e+01 -7.738333225250244141e+00 -7.405133247375488281e-01 2.587024450302124023e+00 5.539533495903015137e-01 9.900761246681213379e-01
2.906000000000000000e+03 1.628321456909179688e+01 -6.673349857330322266e+00 5.976113080978393555e-01 3.957391262054443359e+00 1.366500735282897949e+00 2.749159336090087891e+00
2.907000000000000000e+03 1.688447952270507812e+01 -5.706634998321533203e+00 1.897938847541809082e+00 5.222393035888671875e+00 2.136099576950073242e+00 1.655428647994995117e+00
2.908000000000000000e+03 1.906309127807617188e+01 -3.231832265853881836e+00 7.110476970672607422e+00 3.050480127334594727e+00 3.048287153244018555e+00 4.809279441833496094e-01
2.909000000000000000e+03 2.172293281555175781e+01 -8.380697369575500488e-01 4.598112583160400391e+00 1.360272645950317383e+00 1.787515521049499512e+00 2.937468290328979492e+00
2.910000000000000000e+03 1.936674690246582031e+01 -2.373963832855224609e+00 7.574270725250244141e+00 2.459085226058959961e+00 3.010006666183471680e+00 1.635274529457092285e+00
2.911000000000000000e+03 1.437260913848876953e+01 -6.841821193695068359e+00 8.201346993446350098e-01 2.548830509185791016e+00 1.010689496994018555e+00 4.961067199707031250e+00
2.912000000000000000e+03 1.840276718139648438e+01 -4.939667224884033203e+00 3.733222246170043945e+00 4.133120059967041016e+00 2.359902620315551758e+00 -5.371996760368347168e-02
2.913000000000000000e+03 1.012273979187011719e+01 -5.900282382965087891e+00 6.313621997833251953e-01 2.264710187911987305e+00 8.688217401504516602e-01 4.191263198852539062e+00
2.914000000000000000e+03 1.246121025085449219e+01 -7.479092121124267578e+00 1.865597814321517944e-01 2.058807849884033203e+00 6.736103296279907227e-01 6.201085567474365234e+00
2.915000000000000000e+03 1.715283584594726562e+01 -7.388523578643798828e+00 -2.793375253677368164e-01 2.878681182861328125e+00 7.798031568527221680e-01 1.565117478370666504e+00
2.916000000000000000e+03 1.698173141479492188e+01 -6.888209819793701172e+00 3.766298294067382812e-01 3.538715839385986328e+00 1.174603700637817383e+00 1.870374083518981934e+00
2.917000000000000000e+03 2.026280403137207031e+01 -4.425151273608207703e-02 4.894267559051513672e+00 2.007955074310302734e+00 2.070666790008544922e+00 3.734652757644653320e+00
2.918000000000000000e+03 2.057573890686035156e+01 -8.052830696105957031e+00 -7.254841923713684082e-01 1.479800462722778320e+00 2.262948900461196899e-01 -4.762619137763977051e-01
2.919000000000000000e+03 2.081324768066406250e+01 -8.701971054077148438e+00 -1.546131134033203125e+00 1.318638682365417480e+00 -6.824772804975509644e-02 -3.995155096054077148e-01
2.920000000000000000e+03 2.226483345031738281e+01 -7.798158645629882812e+00 -3.271132409572601318e-01 1.145888686180114746e+00 2.456326335668563843e-01 -6.620049476623535156e-01
2.921000000000000000e+03 1.757747268676757812e+01 -5.901906967163085938e+00 1.810398697853088379e+00 4.446928024291992188e+00 1.877197980880737305e+00 8.674298524856567383e-01
2.922000000000000000e+03 2.354171180725097656e+01 -8.686727285385131836e-01 3.570812940597534180e+00 1.398346900939941406e+00 1.490747928619384766e+00 2.345709085464477539e+00
2.923000000000000000e+03 5.950064468383789062e+01 6.733216643333435059e-01 2.627295255661010742e-01 9.422466754913330078e-01 3.614928722381591797e-01 -1.190714359283447266e+00
2.924000000000000000e+03 2.411576652526855469e+01 -7.260740756988525391e+00 1.420970708131790161e-01 8.488090038299560547e-01 2.972718179225921631e-01 -6.090258359909057617e-01
2.925000000000000000e+03 2.400523948669433594e+01 -8.482684135437011719e+00 -9.598356485366821289e-01 8.989859223365783691e-01 -1.825491711497306824e-02 -6.462528109550476074e-01
2.926000000000000000e+03 4.489798736572265625e+01 -7.063236087560653687e-03 4.138670265674591064e-01 1.920172870159149170e-01 1.817653030157089233e-01 -1.373117715120315552e-01
2.927000000000000000e+03 4.321382904052734375e+01 4.899361729621887207e-01 5.816886425018310547e-01 2.164331823587417603e-01 2.394365519285202026e-01 -9.515704214572906494e-02
2.928000000000000000e+03 3.435454559326171875e+01 1.184648227691650391e+01 9.909596443176269531e-01 1.843890190124511719e+00 8.504549264907836914e-01 1.454463958740234375e+00
2.929000000000000000e+03 1.659178352355957031e+01 1.981719779968261719e+01 -3.958788514137268066e-01 1.401518344879150391e+00 3.016918599605560303e-01 9.008952379226684570e-01
2.930000000000000000e+03 3.600954437255859375e+01 5.410095214843750000e+00 1.473063588142395020e+00 9.840703010559082031e-01 7.371401786804199219e-01 6.614686250686645508e-01
2.931000000000000000e+03 3.016501426696777344e+01 -6.427300930023193359e+00 -8.364417403936386108e-02 6.804893016815185547e-01 1.790535300970077515e-01 -4.346046447753906250e-01
2.932000000000000000e+03 2.525068855285644531e+01 -6.301352977752685547e+00 6.744127273559570312e-01 7.709756493568420410e-01 4.336165189743041992e-01 -4.340434074401855469e-01
2.933000000000000000e+03 1.990893936157226562e+01 -2.600055694580078125e+00 6.641767024993896484e+00 1.909400343894958496e+00 2.565350055694580078e+00 1.412642121315002441e+00
2.934000000000000000e+03 6.634629821777343750e+01 6.052148342132568359e+00 -9.689610451459884644e-02 4.758358478546142578e+00 1.398438692092895508e+00 -1.670296549797058105e+00
2.935000000000000000e+03 2.812878227233886719e+01 -6.742675781250000000e+00 -1.645393436774611473e-03 6.999292969703674316e-01 2.094851732254028320e-01 -4.536272585391998291e-01
2.936000000000000000e+03 3.125501632690429688e+01 -8.785144805908203125e+00 -1.174729466438293457e+00 6.214777827262878418e-01 -1.659754961729049683e-01 -5.918146371841430664e-01
2.937000000000000000e+03 3.309114074707031250e+01 -7.176060676574707031e+00 -6.132112145423889160e-01 5.552361011505126953e-01 -1.739253662526607513e-02 -5.203629732131958008e-01
2.938000000000000000e+03 2.917338562011718750e+01 -3.709916830062866211e+00 9.924221634864807129e-01 8.238185644149780273e-01 5.448722243309020996e-01 3.121433593332767487e-02
2.939000000000000000e+03 2.769205665588378906e+01 2.345703989267349243e-01 2.124820709228515625e+00 1.700260162353515625e+00 1.147524237632751465e+00 1.173629641532897949e+00
2.940000000000000000e+03 3.635865402221679688e+01 -8.425363540649414062e+00 -1.129540681838989258e+00 4.540142714977264404e-01 -2.026579231023788452e-01 -5.714891552925109863e-01
2.941000000000000000e+03 4.105897903442382812e+01 -5.405302047729492188e+00 -5.602048635482788086e-01 2.984142303466796875e-01 -7.853718101978302002e-02 -4.292408823966979980e-01
2.942000000000000000e+03 4.004048156738281250e+01 5.380020737648010254e-01 7.516255378723144531e-01 3.520306646823883057e-01 3.310968577861785889e-01 -4.412835463881492615e-02
2.943000000000000000e+03 5.189748764038085938e+01 -3.042198657989501953e+00 -6.187227964401245117e-01 4.894183203577995300e-02 -1.709342896938323975e-01 -3.445581495761871338e-01
2.944000000000000000e+03 4.605354690551757812e+01 -2.187456130981445312e+00 -1.281230449676513672e-01 1.627157330513000488e-01 1.037780754268169403e-02 -2.306895405054092407e-01
2.945000000000000000e+03 6.264783859252929688e+01 4.324239492416381836e-01 1.583568006753921509e-01 2.106715202331542969e+00 6.795215606689453125e-01 -2.145288944244384766e+00
2.946000000000000000e+03 2.915245056152343750e+01 9.624371528625488281e-01 1.976660132408142090e+00 1.590091109275817871e+00 1.070025444030761719e+00 8.604599237442016602e-01
2.947000000000000000e+03 2.866099548339843750e+01 1.907991290092468262e+00 2.094830751419067383e+00 1.958808779716491699e+00 1.216091871261596680e+00 1.066614270210266113e+00
2.948000000000000000e+03 6.532686614990234375e+01 1.188673377037048340e+00 -3.881470263004302979e-01 4.287391185760498047e+00 1.169773221015930176e+00 -2.465106248855590820e+00
2.949000000000000000e+03 2.517858123779296875e+01 -1.659785032272338867e+00 2.734924793243408203e+00 1.208178997039794922e+00 1.182931065559387207e+00 1.387085199356079102e+00
2.950000000000000000e+03 2.567243957519531250e+01 -8.816143870353698730e-01 2.526369810104370117e+00 1.520834684371948242e+00 1.214161396026611328e+00 1.539634346961975098e+00
2.951000000000000000e+03 4.081102752685546875e+01 -8.135710716247558594e+00 -1.197731018066406250e+00 3.058520853519439697e-01 -2.675636708736419678e-01 -5.757579803466796875e-01
2.952000000000000000e+03 6.105359649658203125e+01 5.795038223266601562e+00 3.946876525878906250e-01 2.683193922042846680e+00 9.233644604682922363e-01 -1.283279895782470703e+00
2.953000000000000000e+03 6.104875946044921875e+01 8.228431701660156250e+00 4.067756533622741699e-01 3.033609628677368164e+00 1.032115578651428223e+00 -1.184352397918701172e+00
2.954000000000000000e+03 4.374360275268554688e+01 -6.577988266944885254e-01 3.150448203086853027e-01 1.937777698040008545e-01 1.526467800140380859e-01 -1.341367363929748535e-01
2.955000000000000000e+03 6.808684539794921875e+01 1.220398807525634766e+01 2.063589692115783691e-01 5.040863990783691406e+00 1.574166893959045410e+00 -1.141461491584777832e+00
2.956000000000000000e+03 3.160628509521484375e+01 3.220481395721435547e+00 1.975024342536926270e+00 1.399925470352172852e+00 1.012484908103942871e+00 7.404087185859680176e-01
2.957000000000000000e+03 3.972946548461914062e+01 -9.323827743530273438e+00 -1.421997308731079102e+00 3.428806960582733154e-01 -3.237349987030029297e-01 -6.023268103599548340e-01
2.958000000000000000e+03 4.042770767211914062e+01 -3.625458717346191406e+00 -1.316968202590942383e-01 2.980536222457885742e-01 4.990704357624053955e-02 -3.196629583835601807e-01
2.959000000000000000e+03 4.109508895874023438e+01 -2.649008512496948242e+00 5.603589490056037903e-02 2.838143110275268555e-01 1.019550561904907227e-01 -2.627272307872772217e-01
2.960000000000000000e+03 2.955394554138183594e+01 2.341633796691894531e+00 2.106034040451049805e+00 1.765437960624694824e+00 1.161441564559936523e+00 9.136826395988464355e-01
2.961000000000000000e+03 3.053829574584960938e+01 2.774221658706665039e+00 2.053666830062866211e+00 1.623611092567443848e+00 1.103183388710021973e+00 8.375809192657470703e-01
2.962000000000000000e+03 6.266104125976562500e+01 8.436606407165527344e+00 3.476391732692718506e-01 3.513215780258178711e+00 1.158256530761718750e+00 -1.373978972434997559e+00
2.963000000000000000e+03 4.847067260742187500e+01 -4.083360195159912109e+00 -6.817993521690368652e-01 1.074542477726936340e-01 -1.723035275936126709e-01 -3.463900685310363770e-01
2.964000000000000000e+03 1.674647712707519531e+01 2.234122848510742188e+01 -2.630011439323425293e-01 1.126142740249633789e+00 2.589424550533294678e-01 6.788496971130371094e-01
2.965000000000000000e+03 6.632987976074218750e+01 1.177126407623291016e+01 2.895376682281494141e-01 4.586680889129638672e+00 1.462865591049194336e+00 -1.246529102325439453e+00
2.966000000000000000e+03 6.386727523803710938e+01 1.043443584442138672e+01 3.683341741561889648e-01 3.953580856323242188e+00 1.296574473381042480e+00 -1.283235907554626465e+00
2.967000000000000000e+03 3.079888153076171875e+01 2.586505508422851562e+01 1.523282676935195923e-01 1.590774655342102051e+00 5.229308605194091797e-01 2.719359695911407471e-01
2.968000000000000000e+03 2.569615364074707031e+01 2.402471923828125000e+01 6.407000869512557983e-02 1.126578807830810547e+00 3.571946620941162109e-01 1.879199296236038208e-01
2.969000000000000000e+03 4.261928558349609375e+01 -4.010867595672607422e+00 -3.451925218105316162e-01 2.340017259120941162e-01 -3.335724398493766785e-02 -3.351399898529052734e-01
2.970000000000000000e+03 2.753483772277832031e+01 -5.616315841674804688e+00 6.639276742935180664e-01 7.165286540985107422e-01 4.141368865966796875e-01 -2.681835591793060303e-01
2.971000000000000000e+03 6.774874114990234375e+01 1.404570960998535156e+01 2.922781705856323242e-01 4.901300907135009766e+00 1.558073759078979492e+00 -1.057089090347290039e+00
2.972000000000000000e+03 3.741086959838867188e+01 -4.487371146678924561e-01 7.942336797714233398e-01 4.875046610832214355e-01 3.845214843750000000e-01 -5.075537413358688354e-02
2.973000000000000000e+03 3.762963867187500000e+01 1.868634700775146484e+00 1.090177893638610840e+00 5.678942203521728516e-01 4.974216520786285400e-01 1.529765576124191284e-01
2.974000000000000000e+03 6.494805145263671875e+01 9.675534248352050781e+00 2.728456258773803711e-01 4.198853969573974609e+00 1.341509938240051270e+00 -1.379439711570739746e+00
2.975000000000000000e+03 6.659735107421875000e+01 7.755726337432861328e+00 2.801731042563915253e-02 4.808640003204345703e+00 1.450997233390808105e+00 -1.491016387939453125e+00
2.976000000000000000e+03 6.569748687744140625e+01 1.951631164550781250e+01 4.369960129261016846e-01 4.409639835357666016e+00 1.453990697860717773e+00 -7.900891900062561035e-01
2.977000000000000000e+03 6.716158294677734375e+01 1.839350509643554688e+01 3.792564570903778076e-01 4.681956768035888672e+00 1.518363952636718750e+00 -8.317998647689819336e-01
2.978000000000000000e+03 3.346134185791015625e+01 1.602268028259277344e+01 3.329562544822692871e-01 2.095981597900390625e+00 7.286813855171203613e-01 1.149452447891235352e+00
2.979000000000000000e+03 6.585715484619140625e+01 1.368899822235107422e+01 3.959097564220428467e-01 4.449167251586914062e+00 1.453523039817810059e+00 -1.129003286361694336e+00
2.980000000000000000e+03 6.710105895996093750e+01 2.533579444885253906e+01 3.123628795146942139e-01 4.593781471252441406e+00 1.471843242645263672e+00 -5.481390953063964844e-01
2.981000000000000000e+03 6.667898559570312500e+01 2.334227371215820312e+01 3.451637029647827148e-01 4.558350086212158203e+00 1.471054077148437500e+00 -6.332932114601135254e-01
2.982000000000000000e+03 5.638819885253906250e+01 2.096934700012207031e+01 6.511633396148681641e-01 2.950379133224487305e+00 1.080462694168090820e+00 -7.247338294982910156e-01
2.983000000000000000e+03 4.570998382568359375e+01 -5.153920173645019531e+00 -7.763088345527648926e-01 1.628351509571075439e-01 -1.840421110391616821e-01 -4.016442596912384033e-01
2.984000000000000000e+03 2.948622703552246094e+01 -3.011658787727355957e-03 1.794327139854431152e+00 1.373914718627929688e+00 9.504725337028503418e-01 6.893922090530395508e-01
2.985000000000000000e+03 2.490098953247070312e+01 2.105092430114746094e+01 -1.502908468246459961e-01 9.845585823059082031e-01 2.502803206443786621e-01 1.175258979201316833e-01
2.986000000000000000e+03 2.294417190551757812e+01 2.207444953918457031e+01 -1.106886938214302063e-02 6.996998190879821777e-01 2.065892815589904785e-01 2.656564414501190186e-01
2.987000000000000000e+03 1.841357040405273438e+01 2.684601211547851562e+01 -1.200656755827367306e-03 9.251707196235656738e-01 2.771910130977630615e-01 3.871091902256011963e-01
2.988000000000000000e+03 1.986634635925292969e+01 2.641914558410644531e+01 5.499194562435150146e-02 9.111650586128234863e-01 2.898471057415008545e-01 3.795417547225952148e-01
2.989000000000000000e+03 3.235689544677734375e+01 2.028419113159179688e+01 8.852637559175491333e-02 1.963857293128967285e+00 6.157150864601135254e-01 6.405959129333496094e-01
2.990000000000000000e+03 3.156691932678222656e+01 2.166683387756347656e+01 3.934135288000106812e-02 1.803998947143554688e+00 5.530020594596862793e-01 4.385866224765777588e-01
2.991000000000000000e+03 6.852414703369140625e+01 8.759490847587585449e-01 -1.049458503723144531e+00 6.682089805603027344e+00 1.689789414405822754e+00 -1.999268531799316406e+00
2.992000000000000000e+03 6.212989044189453125e+01 2.259981632232666016e+00 2.702108621597290039e-01 2.354316234588623047e+00 7.873581647872924805e-01 -1.788644909858703613e+00
2.993000000000000000e+03 6.271158218383789062e+01 2.248458099365234375e+01 4.992663264274597168e-01 3.924895524978637695e+00 1.327248573303222656e+00 -6.721905469894409180e-01
2.994000000000000000e+03 6.062456512451171875e+01 1.978118896484375000e+01 6.342251300811767578e-01 3.570029020309448242e+00 1.261276245117187500e+00 -7.217063307762145996e-01
2.995000000000000000e+03 6.621783447265625000e+01 1.705484390258789062e+01 4.307121634483337402e-01 4.500224113464355469e+00 1.479280948638916016e+00 -9.154545664787292480e-01
2.996000000000000000e+03 1.790799331665039062e+01 -3.795435714721679688e+01 -1.694750487804412842e-01 1.185950756072998047e+00 3.049427270889282227e-01 -8.862111717462539673e-02
2.997000000000000000e+03 1.463461685180664062e+01 -5.732100486755371094e+00 2.193723678588867188e+00 4.010406494140625000e+00 1.861239075660705566e+00 5.153187274932861328e+00
2.998000000000000000e+03 1.389417457580566406e+01 -5.352169990539550781e+00 3.028647899627685547e+00 2.969280719757080078e+00 1.799378633499145508e+00 5.664577007293701172e+00
2.999000000000000000e+03 1.890605545043945312e+01 -4.463227272033691406e+00 4.821365833282470703e+00 3.505328416824340820e+00 2.498008251190185547e+00 -2.346953451633453369e-01
3.000000000000000000e+03 1.830623245239257812e+01 -5.940464496612548828e+00 1.992982268333435059e+00 3.726154804229736328e+00 1.715741157531738281e+00 1.732013970613479614e-01
3.001000000000000000e+03 1.198146152496337891e+01 -5.737842559814453125e+00 1.968372344970703125e+00 1.640022277832031250e+00 1.082518458366394043e+00 5.306807518005371094e+00
3.002000000000000000e+03 2.043826866149902344e+01 -5.226439833641052246e-01 5.346441268920898438e+00 1.864655017852783203e+00 2.163328886032104492e+00 3.438824176788330078e+00
3.003000000000000000e+03 1.542226696014404297e+01 -5.936530113220214844e+00 1.556139588356018066e+00 4.460462093353271484e+00 1.804980516433715820e+00 4.205980777740478516e+00
3.004000000000000000e+03 1.718079566955566406e+01 -6.176038742065429688e+00 1.324216485023498535e+00 4.391069889068603516e+00 1.714585900306701660e+00 1.476427078247070312e+00
3.005000000000000000e+03 1.824144554138183594e+01 -7.703259468078613281e+00 -5.186200737953186035e-01 2.327823162078857422e+00 5.427609086036682129e-01 7.011210918426513672e-01
3.006000000000000000e+03 1.874624824523925781e+01 -7.725068092346191406e+00 -5.606356859207153320e-01 2.201756477355957031e+00 4.923362433910369873e-01 1.648784875869750977e-01
3.007000000000000000e+03 2.038958168029785156e+01 -1.739576935768127441e+00 6.212958335876464844e+00 1.634164690971374512e+00 2.354136943817138672e+00 2.433864831924438477e+00
3.008000000000000000e+03 2.061172676086425781e+01 -9.418382048606872559e-01 5.571834564208984375e+00 1.632609367370605469e+00 2.161333322525024414e+00 3.155493974685668945e+00
3.009000000000000000e+03 1.430522918701171875e+01 -5.514544486999511719e+00 2.557894229888916016e+00 3.558425903320312500e+00 1.834896087646484375e+00 5.515450000762939453e+00
3.010000000000000000e+03 1.972905158996582031e+01 -3.840724945068359375e+00 5.586059570312500000e+00 2.341567754745483398e+00 2.378288269042968750e+00 1.401208043098449707e-01
3.011000000000000000e+03 1.885311126708984375e+01 -4.057548999786376953e+00 5.656999588012695312e+00 3.553729295730590820e+00 2.763218641281127930e+00 -1.718989908695220947e-01
3.012000000000000000e+03 1.974584388732910156e+01 -1.537864506244659424e-01 5.297486305236816406e+00 2.466884374618530273e+00 2.329311132431030273e+00 3.765891313552856445e+00
3.013000000000000000e+03 2.179932975769042969e+01 -3.401341438293457031e+00 4.367856979370117188e+00 1.015718579292297363e+00 1.615072727203369141e+00 8.046751022338867188e-01
3.014000000000000000e+03 1.563254165649414062e+01 -5.584165573120117188e+00 2.077531576156616211e+00 5.254251480102539062e+00 2.199534893035888672e+00 3.795249462127685547e+00
3.015000000000000000e+03 1.675059700012207031e+01 -6.426180839538574219e+00 9.009962081909179688e-01 4.281318664550781250e+00 1.554694414138793945e+00 1.997783780097961426e+00
3.016000000000000000e+03 1.922826766967773438e+01 -7.256786346435546875e+00 1.984748840332031250e-01 2.272858142852783203e+00 7.413998842239379883e-01 -1.449237316846847534e-01
3.017000000000000000e+03 1.490575885772705078e+01 -6.474799633026123047e+00 1.178565502166748047e+00 3.353265523910522461e+00 1.359549283981323242e+00 4.615923404693603516e+00
3.018000000000000000e+03 1.947110748291015625e+01 -3.428596258163452148e+00 6.354592800140380859e+00 2.515499591827392578e+00 2.661027669906616211e+00 4.217298626899719238e-01
3.019000000000000000e+03 2.088437271118164062e+01 -1.913759708404541016e+00 5.826963901519775391e+00 1.347906708717346191e+00 2.152461290359497070e+00 2.164519309997558594e+00
3.020000000000000000e+03 2.014276695251464844e+01 -2.163278818130493164e+00 6.616797447204589844e+00 1.719063639640808105e+00 2.500758409500122070e+00 1.937945604324340820e+00
3.021000000000000000e+03 2.075059509277343750e+01 -3.302708864212036133e+00 5.352303504943847656e+00 1.446366071701049805e+00 2.039600849151611328e+00 7.713834643363952637e-01
3.022000000000000000e+03 1.512919616699218750e+01 -6.815877437591552734e+00 6.521228551864624023e-01 3.252995967864990234e+00 1.171535611152648926e+00 4.158147811889648438e+00
3.023000000000000000e+03 1.574136829376220703e+01 -6.190430641174316406e+00 1.267712473869323730e+00 4.319310665130615234e+00 1.676106929779052734e+00 3.557853698730468750e+00
3.024000000000000000e+03 1.195194530487060547e+01 -6.304596900939941406e+00 1.233990669250488281e+00 2.125305414199829102e+00 1.007788777351379395e+00 5.647180080413818359e+00
3.025000000000000000e+03 1.747875976562500000e+01 -6.664179325103759766e+00 7.242334485054016113e-01 3.617118358612060547e+00 1.302405476570129395e+00 1.112637042999267578e+00
3.026000000000000000e+03 1.968229103088378906e+01 -7.171729564666748047e+00 3.470337390899658203e-01 2.104063749313354492e+00 7.353292703628540039e-01 -2.700101137161254883e-01
3.027000000000000000e+03 2.099709510803222656e+01 -3.155049979686737061e-01 4.749478816986083984e+00 1.590475320816040039e+00 1.901986241340637207e+00 3.489530324935913086e+00
3.028000000000000000e+03 1.235827922821044922e+01 -6.959061145782470703e+00 5.368674397468566895e-01 2.211822509765625000e+00 8.246069550514221191e-01 5.989153385162353516e+00
3.029000000000000000e+03 1.393548870086669922e+01 -6.444097042083740234e+00 1.437845349311828613e+00 2.538185358047485352e+00 1.192809224128723145e+00 5.571695327758789062e+00
3.030000000000000000e+03 2.034283447265625000e+01 -7.482298374176025391e+00 4.760812036693096161e-03 1.730172395706176758e+00 5.204799771308898926e-01 -4.051005542278289795e-01
3.031000000000000000e+03 2.164911651611328125e+01 -1.545388221740722656e+00 5.065223217010498047e+00 1.209906697273254395e+00 1.882539033889770508e+00 2.363829851150512695e+00
3.032000000000000000e+03 2.496582031250000000e+01 -5.791944980621337891e+00 1.176373839378356934e+00 7.555072307586669922e-01 5.795642733573913574e-01 -2.696820497512817383e-01
3.033000000000000000e+03 2.391404342651367188e+01 -1.474571704864501953e+00 3.359453201293945312e+00 1.208414316177368164e+00 1.370360255241394043e+00 1.866290807723999023e+00
3.034000000000000000e+03 2.442188072204589844e+01 -2.264507293701171875e+00 3.047930717468261719e+00 1.055423140525817871e+00 1.231006145477294922e+00 1.329991698265075684e+00
3.035000000000000000e+03 2.472840690612792969e+01 -6.739629268646240234e+00 4.403541088104248047e-01 7.944700121879577637e-01 3.704472482204437256e-01 -5.423941016197204590e-01
3.036000000000000000e+03 2.574797439575195312e+01 -5.109019756317138672e+00 1.369561791419982910e+00 7.401772737503051758e-01 6.329216957092285156e-01 -9.121882170438766479e-02
3.037000000000000000e+03 2.785860252380371094e+01 -4.557391166687011719e+00 1.050691962242126465e+00 7.851854562759399414e-01 5.507632493972778320e-01 -2.963673882186412811e-02
3.038000000000000000e+03 3.004695892333984375e+01 1.304572582244873047e+00 1.900238990783691406e+00 1.514970541000366211e+00 1.024562835693359375e+00 7.515865564346313477e-01
3.039000000000000000e+03 2.618668937683105469e+01 -6.133349895477294922e+00 6.314839720726013184e-01 7.214460968971252441e-01 4.058790206909179688e-01 -3.364942669868469238e-01
3.040000000000000000e+03 2.852328109741210938e+01 -5.776451110839843750e+00 3.293026983737945557e-01 7.044001817703247070e-01 3.101108670234680176e-01 -3.288108706474304199e-01
3.041000000000000000e+03 3.470071411132812500e+01 -6.669795513153076172e+00 -5.461139082908630371e-01 5.103399753570556641e-01 -1.073217578232288361e-02 -5.062577128410339355e-01
3.042000000000000000e+03 4.316773986816406250e+01 -6.075428009033203125e+00 -8.308905363082885742e-01 2.272638976573944092e-01 -1.810880005359649658e-01 -4.553494751453399658e-01
3.043000000000000000e+03 4.444342422485351562e+01 -5.665127277374267578e+00 -8.159833550453186035e-01 1.908861100673675537e-01 -1.875291764736175537e-01 -4.352029561996459961e-01
3.044000000000000000e+03 2.291602134704589844e+01 -7.218633651733398438e+00 3.217026293277740479e-01 1.009526133537292480e+00 3.993686139583587646e-01 -6.484016180038452148e-01
3.045000000000000000e+03 3.404843902587890625e+01 -7.602916717529296875e+00 -8.167508244514465332e-01 5.344758629798889160e-01 -8.468247950077056885e-02 -5.518594980239868164e-01
3.046000000000000000e+03 3.564117050170898438e+01 -7.402308940887451172e+00 -8.162661194801330566e-01 4.744283556938171387e-01 -1.025513261556625366e-01 -5.413357615470886230e-01
3.047000000000000000e+03 4.545133209228515625e+01 -1.101913452148437500e+00 1.505324840545654297e-01 1.652445346117019653e-01 9.473310410976409912e-02 -1.572737991809844971e-01
3.048000000000000000e+03 4.214353561401367188e+01 -1.138387843966484070e-01 5.243529677391052246e-01 2.514165639877319336e-01 2.327308505773544312e-01 -1.021348610520362854e-01
3.049000000000000000e+03 6.018367767333984375e+01 1.807261586189270020e+00 3.710197806358337402e-01 1.466825723648071289e+00 5.513536334037780762e-01 -1.322638869285583496e+00
3.050000000000000000e+03 6.535579681396484375e+01 2.304913759231567383e+00 -2.543384432792663574e-01 4.283671379089355469e+00 1.208799839019775391e+00 -2.270587682723999023e+00
3.051000000000000000e+03 3.733546447753906250e+01 -7.661720275878906250e+00 -9.662014842033386230e-01 4.169406294822692871e-01 -1.647782474756240845e-01 -5.526338219642639160e-01
3.052000000000000000e+03 3.885608673095703125e+01 -4.622006416320800781e+00 -2.340435534715652466e-01 3.596347272396087646e-01 3.767735138535499573e-02 -3.863038420677185059e-01
3.053000000000000000e+03 4.427618789672851562e+01 -1.750802278518676758e+00 7.712198048830032349e-02 1.956646740436553955e-01 8.183599263429641724e-02 -2.063066512346267700e-01
3.054000000000000000e+03 4.300060272216796875e+01 -4.971243381500244141e+00 -5.676875114440917969e-01 2.341424524784088135e-01 -1.000635176897048950e-01 -3.955218791961669922e-01
3.055000000000000000e+03 3.204116058349609375e+01 -6.749982357025146484e+00 -3.914432227611541748e-01 5.948980450630187988e-01 6.103643774986267090e-02 -4.896492660045623779e-01
3.056000000000000000e+03 3.258473968505859375e+01 -5.737141132354736328e+00 -9.443517774343490601e-02 5.915514230728149414e-01 1.491348743438720703e-01 -4.291297197341918945e-01
3.057000000000000000e+03 3.884933471679687500e+01 -7.962212562561035156e+00 -1.101959228515625000e+00 3.721767663955688477e-01 -2.189347296953201294e-01 -5.575920343399047852e-01
3.058000000000000000e+03 3.500494003295898438e+01 4.757182121276855469e+00 1.622974991798400879e+00 1.015022277832031250e+00 7.913991808891296387e-01 6.790197491645812988e-01
3.059000000000000000e+03 3.452832031250000000e+01 3.017926216125488281e+00 1.580270648002624512e+00 9.197983145713806152e-01 7.500206828117370605e-01 4.781828522682189941e-01
3.060000000000000000e+03 6.282874679565429688e+01 3.424233198165893555e+00 1.984857916831970215e-01 2.891139268875122070e+00 9.268875122070312500e-01 -1.829632878303527832e+00
3.061000000000000000e+03 3.926749420166015625e+01 -6.661849975585937500e+00 -7.714713215827941895e-01 3.493934571743011475e-01 -1.266233474016189575e-01 -5.046159029006958008e-01
3.062000000000000000e+03 4.155499267578125000e+01 -6.870087146759033203e+00 -9.178719520568847656e-01 2.809575796127319336e-01 -1.910743117332458496e-01 -5.107110142707824707e-01
3.063000000000000000e+03 6.594372558593750000e+01 8.779930114746093750e+00 1.388223767280578613e-01 4.559319496154785156e+00 1.409442543983459473e+00 -1.428551435470581055e+00
3.064000000000000000e+03 6.324047470092773438e+01 9.444337844848632812e+00 3.606618344783782959e-01 3.732172727584838867e+00 1.227850317955017090e+00 -1.355130076408386230e+00
3.065000000000000000e+03 6.230431365966796875e+01 5.321542739868164062e+00 3.033092021942138672e-01 2.964828729629516602e+00 9.804413914680480957e-01 -1.542621374130249023e+00
3.066000000000000000e+03 3.496287155151367188e+01 1.753014326095581055e+00 1.375186800956726074e+00 7.860577106475830078e-01 6.483733654022216797e-01 2.944512367248535156e-01
3.067000000000000000e+03 6.916564941406250000e+01 1.163253688812255859e+01 1.232916638255119324e-01 5.381028175354003906e+00 1.651296019554138184e+00 -1.118038177490234375e+00
3.068000000000000000e+03 6.814187622070312500e+01 9.164035797119140625e+00 1.313950400799512863e-02 5.266695976257324219e+00 1.583950638771057129e+00 -1.314464092254638672e+00
3.069000000000000000e+03 6.728251647949218750e+01 5.216974258422851562e+00 -2.625437080860137939e-01 5.229185104370117188e+00 1.489992499351501465e+00 -1.667839050292968750e+00
3.070000000000000000e+03 6.812486267089843750e+01 6.122351169586181641e+00 -2.304153591394424438e-01 5.403555393218994141e+00 1.551941990852355957e+00 -1.549500823020935059e+00
3.071000000000000000e+03 5.741665267944335938e+01 1.848729705810546875e+01 7.531113624572753906e-01 3.221850395202636719e+00 1.192488551139831543e+00 -8.107841610908508301e-01
3.072000000000000000e+03 6.142951965332031250e+01 1.125274896621704102e+00 2.487297505140304565e-01 1.719598412513732910e+00 5.904984474182128906e-01 -1.727795481681823730e+00
3.073000000000000000e+03 6.339171600341796875e+01 1.552591919898986816e+00 3.456966578960418701e-02 2.913632154464721680e+00 8.844605088233947754e-01 -2.217393398284912109e+00
3.074000000000000000e+03 2.744751739501953125e+01 -7.995021939277648926e-01 2.095587253570556641e+00 1.409990191459655762e+00 1.051673173904418945e+00 9.994971752166748047e-01
3.075000000000000000e+03 6.662419891357421875e+01 1.488196277618408203e+01 3.804177343845367432e-01 4.625020980834960938e+00 1.501631498336791992e+00 -1.040092706680297852e+00
3.076000000000000000e+03 6.700442504882812500e+01 1.290947246551513672e+01 2.920864522457122803e-01 4.766325473785400391e+00 1.517523646354675293e+00 -1.150039911270141602e+00
3.077000000000000000e+03 6.842375183105468750e+01 3.469167232513427734e+00 -6.202614903450012207e-01 6.030710220336914062e+00 1.623134613037109375e+00 -1.705581426620483398e+00
3.078000000000000000e+03 6.632167053222656250e+01 2.134607696533203125e+01 3.848775029182434082e-01 4.512700557708740234e+00 1.469273447990417480e+00 -7.086594700813293457e-01
3.079000000000000000e+03 6.463265991210937500e+01 1.447996425628662109e+01 4.946023821830749512e-01 4.170859813690185547e+00 1.399638652801513672e+00 -1.072707056999206543e+00
3.080000000000000000e+03 3.677958679199218750e+01 1.927216529846191406e+01 5.282788872718811035e-01 1.975553631782531738e+00 7.511497735977172852e-01 8.270870447158813477e-01
3.081000000000000000e+03 3.505315399169921875e+01 1.864952278137207031e+01 3.725645840167999268e-01 2.004947662353515625e+00 7.132536768913269043e-01 8.663673996925354004e-01
3.082000000000000000e+03 3.347372817993164062e+01 1.866842651367187500e+01 2.353234142065048218e-01 2.008216142654418945e+00 6.730618476867675781e-01 8.331853151321411133e-01
3.083000000000000000e+03 1.686757850646972656e+01 2.917676353454589844e+01 -1.915881037712097168e-02 9.424704909324645996e-01 2.769935131072998047e-01 2.834632992744445801e-01
3.084000000000000000e+03 1.688768768310546875e+01 2.383073234558105469e+01 -1.929774582386016846e-01 1.066136598587036133e+00 2.619477510452270508e-01 5.636005997657775879e-01
3.085000000000000000e+03 5.585000228881835938e+01 2.252938652038574219e+01 7.094932198524475098e-01 2.706881523132324219e+00 1.024912357330322266e+00 -7.281707525253295898e-01
3.086000000000000000e+03 3.369376754760742188e+01 2.074333190917968750e+01 1.861572414636611938e-01 1.962118625640869141e+00 6.444827318191528320e-01 6.579671502113342285e-01
3.087000000000000000e+03 2.899854660034179688e+01 2.386590194702148438e+01 5.318702384829521179e-02 1.507134199142456055e+00 4.680963456630706787e-01 2.505774199962615967e-01
3.088000000000000000e+03 2.710173034667968750e+01 2.254257774353027344e+01 -5.693064630031585693e-02 1.321463823318481445e+00 3.793599605560302734e-01 1.914016455411911011e-01
3.089000000000000000e+03 2.428503036499023438e+01 2.258868217468261719e+01 -9.641675205784849823e-06 9.103919863700866699e-01 2.731147110462188721e-01 1.984930038452148438e-01
3.090000000000000000e+03 4.025984191894531250e+01 -6.397783279418945312e+00 -7.280783057212829590e-01 3.253980875015258789e-01 -1.208040714263916016e-01 -4.877611696720123291e-01
3.091000000000000000e+03 3.829464721679687500e+01 -7.072235107421875000e+00 -8.350703716278076172e-01 3.894952237606048584e-01 -1.336725503206253052e-01 -5.378546118736267090e-01
3.092000000000000000e+03 1.702279663085937500e+01 2.521980476379394531e+01 -1.147753819823265076e-01 9.877110123634338379e-01 2.618806958198547363e-01 4.750850498676300049e-01
3.093000000000000000e+03 6.485453796386718750e+01 1.795026588439941406e+01 5.054488182067871094e-01 4.241664886474609375e+00 1.424134016036987305e+00 -8.742430806159973145e-01
3.094000000000000000e+03 2.306914520263671875e+01 2.365612792968750000e+01 8.455926179885864258e-02 8.444969058036804199e-01 2.787168622016906738e-01 2.840226590633392334e-01
3.095000000000000000e+03 2.402028846740722656e+01 2.546552848815917969e+01 1.253899931907653809e-01 9.692949056625366211e-01 3.284054696559906006e-01 2.465309500694274902e-01
3.096000000000000000e+03 2.100727272033691406e+01 2.540352821350097656e+01 8.464758098125457764e-02 8.497323989868164062e-01 2.803139984607696533e-01 3.747635483741760254e-01
3.097000000000000000e+03 6.101325988769531250e+01 2.262846755981445312e+01 5.454742312431335449e-01 3.656601428985595703e+00 1.260622739791870117e+00 -6.658527255058288574e-01
3.098000000000000000e+03 4.008178329467773438e+01 -6.678362488746643066e-01 5.163612365722656250e-01 3.205614984035491943e-01 2.510768175125122070e-01 -1.149983778595924377e-01
3.099000000000000000e+03 1.446785545349121094e+01 -5.997982978820800781e+00 1.872151136398315430e+00 3.520852565765380859e+00 1.617901086807250977e+00 5.240628242492675781e+00
3.100000000000000000e+03 1.376537704467773438e+01 -5.901020050048828125e+00 2.076822042465209961e+00 2.715410947799682617e+00 1.437669873237609863e+00 5.664080142974853516e+00
3.101000000000000000e+03 1.875563430786132812e+01 -4.842556953430175781e+00 4.083040714263916016e+00 3.729826450347900391e+00 2.343860149383544922e+00 -2.300810515880584717e-01
3.102000000000000000e+03 1.471932697296142578e+01 -6.202334403991699219e+00 1.617423653602600098e+00 3.709438085556030273e+00 1.598058581352233887e+00 4.878124713897705078e+00
3.103000000000000000e+03 1.793737602233886719e+01 -5.599494934082031250e+00 2.386869192123413086e+00 4.329803943634033203e+00 2.015001773834228516e+00 4.362283945083618164e-01
3.104000000000000000e+03 2.084686851501464844e+01 -7.146756172180175781e+00 5.050529241561889648e-01 1.573850750923156738e+00 6.236711144447326660e-01 -5.786933302879333496e-01
3.105000000000000000e+03 1.492496967315673828e+01 -5.966998577117919922e+00 1.724048256874084473e+00 4.034431934356689453e+00 1.727544069290161133e+00 4.856039524078369141e+00
3.106000000000000000e+03 2.078620338439941406e+01 -6.239347457885742188e+00 1.713173389434814453e+00 1.691153526306152344e+00 1.021298050880432129e+00 -5.138706564903259277e-01
3.107000000000000000e+03 2.024793624877929688e+01 -1.155912518501281738e+00 6.073256015777587891e+00 1.820754647254943848e+00 2.368203163146972656e+00 3.037213325500488281e+00
3.108000000000000000e+03 2.044755554199218750e+01 -6.698076248168945312e+00 1.075951099395751953e+00 1.851466655731201172e+00 8.782253265380859375e-01 -5.060494542121887207e-01
3.109000000000000000e+03 2.064121437072753906e+01 -2.356791734695434570e+00 5.942552566528320312e+00 1.463925719261169434e+00 2.221943616867065430e+00 1.742141962051391602e+00
3.110000000000000000e+03 2.113792228698730469e+01 -2.579028367996215820e+00 5.395875453948974609e+00 1.239021658897399902e+00 1.990469217300415039e+00 1.495959520339965820e+00
3.111000000000000000e+03 2.315411376953125000e+01 -1.778237104415893555e+00 3.879352807998657227e+00 1.107919812202453613e+00 1.496181726455688477e+00 1.899543762207031250e+00
3.112000000000000000e+03 2.180080032348632812e+01 -7.219694137573242188e+00 3.868504166603088379e-01 1.246756315231323242e+00 4.900819957256317139e-01 -6.518520116806030273e-01
3.113000000000000000e+03 2.290596199035644531e+01 -6.002941608428955078e+00 1.558305025100708008e+00 9.656954407691955566e-01 7.572001218795776367e-01 -4.240983426570892334e-01
3.114000000000000000e+03 2.041414642333984375e+01 -2.785299301147460938e+00 6.045623779296875000e+00 1.595292568206787109e+00 2.292274951934814453e+00 1.255036830902099609e+00
3.115000000000000000e+03 2.026358032226562500e+01 -3.748445749282836914e+00 5.328619480133056641e+00 1.834911942481994629e+00 2.149059534072875977e+00 3.600989282131195068e-01
3.116000000000000000e+03 2.025835990905761719e+01 -3.241705417633056641e+00 5.804185867309570312e+00 1.743504405021667480e+00 2.264307260513305664e+00 7.542577385902404785e-01
3.117000000000000000e+03 2.144291305541992188e+01 -2.123264312744140625e+00 5.234704017639160156e+00 1.196197509765625000e+00 1.929270505905151367e+00 1.933190703392028809e+00
3.118000000000000000e+03 1.767092514038085938e+01 -7.207108497619628906e+00 2.619345858693122864e-02 2.970168828964233398e+00 8.989086747169494629e-01 1.030909657478332520e+00
3.119000000000000000e+03 2.557979774475097656e+01 -5.810093879699707031e+00 9.799193143844604492e-01 7.375766038894653320e-01 5.152487754821777344e-01 -2.420018911361694336e-01
3.120000000000000000e+03 2.111303329467773438e+01 -8.732432126998901367e-01 5.191609859466552734e+00 1.517866969108581543e+00 2.012843132019042969e+00 3.104429006576538086e+00
3.121000000000000000e+03 2.235175132751464844e+01 -1.748096585273742676e+00 4.426272869110107422e+00 1.073525190353393555e+00 1.649939417839050293e+00 2.055937528610229492e+00
3.122000000000000000e+03 2.106654739379882812e+01 -1.422668337821960449e+00 5.446726799011230469e+00 1.392825484275817871e+00 2.051865577697753906e+00 2.607483148574829102e+00
3.123000000000000000e+03 2.355554580688476562e+01 -6.574380874633789062e+00 8.550478816032409668e-01 9.080931544303894043e-01 5.289423465728759766e-01 -5.159457921981811523e-01
3.124000000000000000e+03 1.997117805480957031e+01 -4.737606525421142578e+00 4.129870414733886719e+00 2.254243612289428711e+00 1.915234088897705078e+00 -2.481277585029602051e-01
3.125000000000000000e+03 1.874896621704101562e+01 -7.249298095703125000e+00 2.063291966915130615e-01 2.492678165435791016e+00 8.097022175788879395e-01 1.772429645061492920e-01
3.126000000000000000e+03 2.646824264526367188e+01 -1.355154037475585938e+00 2.311900138854980469e+00 1.333081722259521484e+00 1.093494534492492676e+00 1.157593607902526855e+00
3.127000000000000000e+03 2.610791969299316406e+01 -2.211807727813720703e+00 2.305451154708862305e+00 1.127813100814819336e+00 1.029979228973388672e+00 9.509397745132446289e-01
3.128000000000000000e+03 2.899620056152343750e+01 -4.701817035675048828e+00 7.594785094261169434e-01 7.279732823371887207e-01 4.462355375289916992e-01 -1.593020260334014893e-01
3.129000000000000000e+03 2.926962280273437500e+01 -2.840486288070678711e+00 1.340269446372985840e+00 9.286153912544250488e-01 6.806654930114746094e-01 1.963578015565872192e-01
3.130000000000000000e+03 2.313144683837890625e+01 -3.695628404617309570e+00 3.310792684555053711e+00 8.543108105659484863e-01 1.249531030654907227e+00 6.383672952651977539e-01
3.131000000000000000e+03 6.792454528808593750e+01 4.320660114288330078e+00 -4.429837167263031006e-01 5.576324462890625000e+00 1.540002107620239258e+00 -1.746516585350036621e+00
3.132000000000000000e+03 6.355928421020507812e+01 4.648243427276611328e+00 1.465217173099517822e-01 3.480670452117919922e+00 1.088157653808593750e+00 -1.758854866027832031e+00
3.133000000000000000e+03 6.720863342285156250e+01 6.882735729217529297e+00 -1.113869994878768921e-01 5.071242809295654297e+00 1.487956643104553223e+00 -1.544654250144958496e+00
3.134000000000000000e+03 6.860904693603515625e+01 1.046743965148925781e+01 9.161505103111267090e-02 5.267728328704833984e+00 1.607802987098693848e+00 -1.200230479240417480e+00
3.135000000000000000e+03 4.482770156860351562e+01 -2.839368581771850586e+00 -2.058221697807312012e-01 1.794519275426864624e-01 -7.911072112619876862e-03 -2.640028297901153564e-01
3.136000000000000000e+03 2.271298789978027344e+01 -3.008816480636596680e+00 3.948898553848266602e+00 9.304598569869995117e-01 1.463807463645935059e+00 1.107207059860229492e+00
3.137000000000000000e+03 4.200288772583007812e+01 -5.256112575531005859e+00 -5.793480277061462402e-01 2.473314702510833740e-01 -9.960496425628662109e-02 -4.032459259033203125e-01
3.138000000000000000e+03 4.177772140502929688e+01 -4.492673397064208984e+00 -3.938503861427307129e-01 2.679838538169860840e-01 -3.775995969772338867e-02 -3.709225058555603027e-01
3.139000000000000000e+03 2.869659042358398438e+01 -1.799897104501724243e-01 1.896150588989257812e+00 1.420273780822753906e+00 9.949273467063903809e-01 8.059095144271850586e-01
3.140000000000000000e+03 3.103400802612304688e+01 1.672005176544189453e+00 1.850524663925170898e+00 1.337305665016174316e+00 9.563490748405456543e-01 6.232772469520568848e-01
3.141000000000000000e+03 6.154848480224609375e+01 4.086900711059570312e+00 3.526416122913360596e-01 2.465939998626708984e+00 8.455744385719299316e-01 -1.510881066322326660e+00
3.142000000000000000e+03 3.359747695922851562e+01 -6.250895500183105469e+00 -3.495887517929077148e-01 5.525351166725158691e-01 6.088390946388244629e-02 -4.883455634117126465e-01
3.143000000000000000e+03 3.097654724121093750e+01 -4.004747390747070312e+00 6.648335456848144531e-01 7.339273095130920410e-01 4.196282625198364258e-01 -1.545249968767166138e-01
3.144000000000000000e+03 6.746875762939453125e+01 1.104535961151123047e+01 1.739324778318405151e-01 4.974670886993408203e+00 1.544580936431884766e+00 -1.239423394203186035e+00
3.145000000000000000e+03 3.537881088256835938e+01 1.962891578674316406e+01 3.652091026306152344e-01 1.984766960144042969e+00 7.049928307533264160e-01 7.950049638748168945e-01
3.146000000000000000e+03 3.210781478881835938e+01 2.076579570770263672e+00 1.783130168914794922e+00 1.206627249717712402e+00 8.969272375106811523e-01 5.716969966888427734e-01
3.147000000000000000e+03 4.254905700683593750e+01 -1.264661550521850586e+00 2.699306905269622803e-01 2.360001504421234131e-01 1.517792493104934692e-01 -1.857851445674896240e-01
3.148000000000000000e+03 4.135448455810546875e+01 -1.567059397697448730e+00 2.790679633617401123e-01 2.676910161972045898e-01 1.640276908874511719e-01 -1.911522746086120605e-01
3.149000000000000000e+03 3.003814506530761719e+01 -5.048633575439453125e+00 4.497299790382385254e-01 7.288619875907897949e-01 3.535776138305664062e-01 -2.460128664970397949e-01
3.150000000000000000e+03 3.173682785034179688e+01 -4.949383258819580078e+00 2.302766293287277222e-01 6.545124650001525879e-01 2.654367387294769287e-01 -3.153772652149200439e-01
3.151000000000000000e+03 3.638025665283203125e+01 -5.444749593734741211e-01 8.862164616584777832e-01 5.608489513397216797e-01 4.341196417808532715e-01 -1.660319045186042786e-02
3.152000000000000000e+03 3.631487655639648438e+01 1.894333958625793457e+00 1.252212047576904297e+00 6.845935583114624023e-01 5.810416936874389648e-01 2.261021733283996582e-01
3.153000000000000000e+03 6.408444976806640625e+01 2.753281593322753906e+00 -1.251927949488162994e-02 3.559878349304199219e+00 1.064207673072814941e+00 -2.080887317657470703e+00
3.154000000000000000e+03 6.640512847900390625e+01 4.395380973815917969e+00 -2.577178180217742920e-01 4.860324382781982422e+00 1.380782008171081543e+00 -1.880686521530151367e+00
3.155000000000000000e+03 6.970149230957031250e+01 6.553380012512207031e+00 -2.906537652015686035e-01 5.990968227386474609e+00 1.710094332695007324e+00 -1.291898846626281738e+00
3.156000000000000000e+03 6.374499893188476562e+01 7.835793972015380859e+00 2.644774019718170166e-01 3.785630702972412109e+00 1.215032458305358887e+00 -1.472475290298461914e+00
3.157000000000000000e+03 3.755540084838867188e+01 -4.807137966156005859e+00 -1.948497146368026733e-01 4.127793312072753906e-01 6.537888199090957642e-02 -4.084772765636444092e-01
3.158000000000000000e+03 3.960413360595703125e+01 -7.498245716094970703e+00 -9.780291914939880371e-01 3.560571968555450439e-01 -1.865915954113006592e-01 -5.463525652885437012e-01
3.159000000000000000e+03 3.326770019531250000e+01 2.520055294036865234e+00 1.677726864814758301e+00 1.045983672142028809e+00 8.171131610870361328e-01 5.085074901580810547e-01
3.160000000000000000e+03 4.365512466430664062e+01 -3.437234401702880859e+00 -2.748815417289733887e-01 2.127847522497177124e-01 -1.862903870642185211e-02 -3.084158599376678467e-01
3.161000000000000000e+03 3.834258651733398438e+01 -6.187441945075988770e-01 6.548551321029663086e-01 4.179806709289550781e-01 3.218507468700408936e-01 -9.922583401203155518e-02
3.162000000000000000e+03 5.818436431884765625e+01 2.641878890991210938e+01 6.072858572006225586e-01 3.237812280654907227e+00 1.153529405593872070e+00 -5.211047530174255371e-01
3.163000000000000000e+03 3.504922485351562500e+01 -5.565620899200439453e+00 -2.579182982444763184e-01 5.003769993782043457e-01 7.273760437965393066e-02 -4.570911228656768799e-01
3.164000000000000000e+03 3.401383590698242188e+01 -4.654934883117675781e+00 8.152230829000473022e-02 5.600194334983825684e-01 1.924625337123870850e-01 -3.481431603431701660e-01
3.165000000000000000e+03 6.448676300048828125e+01 2.201321792602539062e+01 4.489223957061767578e-01 4.184850692749023438e+00 1.390131950378417969e+00 -6.899772882461547852e-01
3.166000000000000000e+03 6.315537261962890625e+01 6.633161067962646484e+00 2.570668160915374756e-01 3.514826059341430664e+00 1.131567835807800293e+00 -1.514739990234375000e+00
3.167000000000000000e+03 3.217153549194335938e+01 2.821711921691894531e+01 2.504110038280487061e-01 1.616306304931640625e+00 5.600152015686035156e-01 2.591933608055114746e-01
3.168000000000000000e+03 2.722211074829101562e+01 2.577017211914062500e+01 1.218685358762741089e-01 1.278031468391418457e+00 4.199699759483337402e-01 2.029422670602798462e-01
3.169000000000000000e+03 3.634566879272460938e+01 6.542406678199768066e-01 1.071773529052734375e+00 6.185150742530822754e-01 5.070865750312805176e-01 9.821645170450210571e-02
3.170000000000000000e+03 2.284097290039062500e+01 2.053998947143554688e+01 -1.140502318739891052e-01 5.165984034538269043e-01 1.207644566893577576e-01 1.922900527715682983e-01
3.171000000000000000e+03 2.876059150695800781e+01 2.764565277099609375e+01 1.791298985481262207e-01 1.398534536361694336e+00 4.732993245124816895e-01 1.983429789543151855e-01
3.172000000000000000e+03 2.998711967468261719e+01 2.194532585144042969e+01 -2.950970269739627838e-02 1.694242835044860840e+00 4.994199573993682861e-01 3.412300944328308105e-01
3.173000000000000000e+03 4.099777221679687500e+01 -4.658565521240234375e+00 -3.896242976188659668e-01 2.762950658798217773e-01 -3.399877622723579407e-02 -3.779114484786987305e-01
3.174000000000000000e+03 4.200272750854492188e+01 -3.164510726928710938e+00 -9.395128488540649414e-02 2.511287927627563477e-01 4.715325310826301575e-02 -2.951155602931976318e-01
3.175000000000000000e+03 6.479766082763671875e+01 2.398051261901855469e+01 4.015445709228515625e-01 4.258841991424560547e+00 1.398115992546081543e+00 -6.161942481994628906e-01
3.176000000000000000e+03 2.352570915222167969e+01 2.886764526367187500e+01 1.747767478227615356e-01 1.048140764236450195e+00 3.668752312660217285e-01 2.302855402231216431e-01
3.177000000000000000e+03 2.059347534179687500e+01 2.809496879577636719e+01 9.212127327919006348e-02 9.321693181991577148e-01 3.072871565818786621e-01 3.190178573131561279e-01
3.178000000000000000e+03 1.867204284667968750e+01 -5.564479827880859375e+00 2.732881546020507812e+00 3.605702638626098633e+00 1.901575207710266113e+00 -8.467220515012741089e-02
3.179000000000000000e+03 2.011380004882812500e+01 -7.014732360839843750e+00 5.691750645637512207e-01 1.907783031463623047e+00 7.430874109268188477e-01 -4.393761157989501953e-01
3.180000000000000000e+03 1.953946495056152344e+01 -4.921046257019042969e+00 3.934633731842041016e+00 2.761789321899414062e+00 2.008926868438720703e+00 -2.969297468662261963e-01
3.181000000000000000e+03 1.904206848144531250e+01 -5.928050994873046875e+00 2.195173263549804688e+00 3.028475046157836914e+00 1.567094564437866211e+00 -2.251574993133544922e-01
3.182000000000000000e+03 1.836387252807617188e+01 -6.663973331451416016e+00 9.193915724754333496e-01 3.115681171417236328e+00 1.210521817207336426e+00 3.482661545276641846e-01
3.183000000000000000e+03 2.208786582946777344e+01 -2.463389158248901367e+00 4.602830410003662109e+00 9.966672062873840332e-01 1.679849267005920410e+00 1.527745008468627930e+00
3.184000000000000000e+03 2.081399917602539062e+01 -3.735221385955810547e+00 4.906980991363525391e+00 1.445146799087524414e+00 1.905638456344604492e+00 4.787423014640808105e-01
3.185000000000000000e+03 1.305044078826904297e+01 -6.514598369598388672e+00 1.243940591812133789e+00 2.131276130676269531e+00 1.012565016746520996e+00 5.877087593078613281e+00
3.186000000000000000e+03 1.793231964111328125e+01 -6.335978507995605469e+00 1.212064981460571289e+00 3.666984796524047852e+00 1.463714957237243652e+00 6.609364748001098633e-01
3.187000000000000000e+03 2.065822410583496094e+01 -5.368147373199462891e+00 2.934398174285888672e+00 1.762745022773742676e+00 1.409142971038818359e+00 -3.896355628967285156e-01
3.188000000000000000e+03 2.236359214782714844e+01 -6.658355236053466797e+00 9.153046011924743652e-01 1.125720143318176270e+00 6.123074293136596680e-01 -5.852034091949462891e-01
3.189000000000000000e+03 1.955436897277832031e+01 -6.720609188079833984e+00 1.027984261512756348e+00 2.330801725387573242e+00 1.007635831832885742e+00 -3.271265327930450439e-01
3.190000000000000000e+03 1.981289291381835938e+01 -6.093231201171875000e+00 1.958400607109069824e+00 2.299832582473754883e+00 1.277469873428344727e+00 -4.323644638061523438e-01
3.191000000000000000e+03 2.085774803161621094e+01 -2.946005105972290039e+00 5.457618713378906250e+00 1.367400169372558594e+00 2.047505617141723633e+00 1.103495597839355469e+00
3.192000000000000000e+03 2.036691093444824219e+01 -4.259149074554443359e+00 4.559601783752441406e+00 1.849295258522033691e+00 1.922669053077697754e+00 -4.799840506166219711e-03
3.193000000000000000e+03 2.130799102783203125e+01 -3.615466356277465820e+00 4.675476551055908203e+00 1.267470955848693848e+00 1.782884240150451660e+00 6.406844258308410645e-01
3.194000000000000000e+03 2.348479461669921875e+01 -2.607568264007568359e+00 3.576613426208496094e+00 9.188548326492309570e-01 1.348640441894531250e+00 1.276453018188476562e+00
3.195000000000000000e+03 2.131790351867675781e+01 -6.698958873748779297e+00 9.974463582038879395e-01 1.449264407157897949e+00 7.340131998062133789e-01 -5.765877366065979004e-01
3.196000000000000000e+03 2.426309013366699219e+01 -6.061677455902099609e+00 1.133209586143493652e+00 8.119686245918273926e-01 5.835534930229187012e-01 -3.790901005268096924e-01
3.197000000000000000e+03 2.719634246826171875e+01 -2.490557432174682617e+00 1.875593662261962891e+00 1.018015861511230469e+00 8.680828213691711426e-01 5.830307006835937500e-01
3.198000000000000000e+03 2.479646682739257812e+01 -3.222111940383911133e+00 2.632307529449462891e+00 8.861263394355773926e-01 1.055530190467834473e+00 7.513146400451660156e-01
3.199000000000000000e+03 2.868691062927246094e+01 -9.330552220344543457e-01 1.798612713813781738e+00 1.291733384132385254e+00 9.271038174629211426e-01 6.885434389114379883e-01
3.200000000000000000e+03 3.041157722473144531e+01 2.278541177511215210e-01 1.719281196594238281e+00 1.228870987892150879e+00 8.844456672668457031e-01 5.364776849746704102e-01
3.201000000000000000e+03 2.402871894836425781e+01 -4.331206321716308594e+00 2.474472761154174805e+00 8.149558901786804199e-01 9.868285655975341797e-01 2.644880414009094238e-01
3.202000000000000000e+03 2.825017547607421875e+01 -2.681904792785644531e+00 1.540921449661254883e+00 9.836266040802001953e-01 7.573644518852233887e-01 3.790278434753417969e-01
3.203000000000000000e+03 2.742252540588378906e+01 -1.602634429931640625e+00 1.987399697303771973e+00 1.235130667686462402e+00 9.667590856552124023e-01 8.128005266189575195e-01
3.204000000000000000e+03 6.440688323974609375e+01 5.896571636199951172e+00 1.088400781154632568e-01 3.923164606094360352e+00 1.209601402282714844e+00 -1.691654205322265625e+00
3.205000000000000000e+03 3.273217010498046875e+01 -4.205309867858886719e+00 3.480780720710754395e-01 6.372551321983337402e-01 2.955999672412872314e-01 -2.739634215831756592e-01
3.206000000000000000e+03 3.786473083496093750e+01 -6.031005859375000000e+00 -5.414288640022277832e-01 3.999182283878326416e-01 -4.245318472385406494e-02 -4.805540740489959717e-01
3.207000000000000000e+03 3.899218368530273438e+01 -2.691764831542968750e+00 2.143444716930389404e-01 3.602570295333862305e-01 1.723804622888565063e-01 -2.731315195560455322e-01
3.208000000000000000e+03 6.682975769042968750e+01 9.838755607604980469e+00 1.480859071016311646e-01 4.776565551757812500e+00 1.477395415306091309e+00 -1.361860752105712891e+00
3.209000000000000000e+03 3.368693923950195312e+01 1.330310463905334473e+00 1.486472845077514648e+00 9.064044952392578125e-01 7.178632020950317383e-01 3.411011993885040283e-01
3.210000000000000000e+03 3.143013572692871094e+01 5.263711214065551758e-01 1.628315210342407227e+00 1.151828169822692871e+00 8.340430259704589844e-01 4.553903937339782715e-01
3.211000000000000000e+03 3.627181243896484375e+01 -5.256886482238769531e+00 -2.357018142938613892e-01 4.595087468624114990e-01 6.714207679033279419e-02 -4.348221421241760254e-01
3.212000000000000000e+03 3.379306411743164062e+01 -3.804836273193359375e+00 3.781032562255859375e-01 5.948961377143859863e-01 2.918998003005981445e-01 -2.535893917083740234e-01
3.213000000000000000e+03 2.699807357788085938e+01 -3.413475751876831055e+00 1.660376191139221191e+00 9.130254387855529785e-01 7.720205187797546387e-01 3.588318228721618652e-01
3.214000000000000000e+03 2.683646774291992188e+01 -4.374083995819091797e+00 1.396978139877319336e+00 7.901940941810607910e-01 6.561517119407653809e-01 9.422886371612548828e-02
3.215000000000000000e+03 6.546317291259765625e+01 6.949303150177001953e+00 7.933375984430313110e-02 4.370127677917480469e+00 1.334838509559631348e+00 -1.561365008354187012e+00
3.216000000000000000e+03 6.671417999267578125e+01 3.036447048187255859e+00 -4.275803565979003906e-01 5.110031127929687500e+00 1.404735207557678223e+00 -2.067847013473510742e+00
3.217000000000000000e+03 3.905235671997070312e+01 -1.257333993911743164e+00 5.218669772148132324e-01 3.779490590095520020e-01 2.699448168277740479e-01 -1.462647169828414917e-01
3.218000000000000000e+03 4.033119583129882812e+01 -1.602860689163208008e+00 3.467298448085784912e-01 2.956851422786712646e-01 1.927244961261749268e-01 -2.057534009218215942e-01
3.219000000000000000e+03 3.369803619384765625e+01 1.714649772644042969e+01 3.170742988586425781e-01 2.051942110061645508e+00 7.107049226760864258e-01 1.028129220008850098e+00
3.220000000000000000e+03 4.006903839111328125e+01 -5.517553806304931641e+00 -5.155183076858520508e-01 3.184589147567749023e-01 -5.911781638860702515e-02 -4.485301971435546875e-01
3.221000000000000000e+03 4.128425979614257812e+01 -3.957341670989990234e+00 -2.642358839511871338e-01 2.757852971553802490e-01 3.464823355898261070e-03 -3.417951166629791260e-01
3.222000000000000000e+03 3.516296005249023438e+01 4.910091757774353027e-01 1.160644292831420898e+00 6.851503252983093262e-01 5.537383556365966797e-01 1.289158463478088379e-01
3.223000000000000000e+03 3.484466934204101562e+01 -3.746041774749755859e+00 3.197168707847595215e-01 5.510196685791015625e-01 2.612209618091583252e-01 -2.739003598690032959e-01
3.224000000000000000e+03 1.867567443847656250e+01 -6.256342411041259766e+00 1.580636501312255859e+00 3.255254030227661133e+00 1.450767159461975098e+00 5.092685669660568237e-02
3.225000000000000000e+03 1.900012016296386719e+01 -6.536233901977539062e+00 1.255786061286926270e+00 2.757448673248291016e+00 1.203970432281494141e+00 -1.319915950298309326e-01
3.226000000000000000e+03 1.935377311706542969e+01 -6.308283329010009766e+00 1.601399660110473633e+00 2.628816127777099609e+00 1.269064784049987793e+00 -2.600223422050476074e-01
3.227000000000000000e+03 2.039200210571289062e+01 -4.711190223693847656e+00 4.018645286560058594e+00 1.902021169662475586e+00 1.776199936866760254e+00 -1.599101275205612183e-01
3.228000000000000000e+03 2.177924156188964844e+01 -6.170171737670898438e+00 1.664941191673278809e+00 1.269459605216979980e+00 8.803202509880065918e-01 -5.123791098594665527e-01
3.229000000000000000e+03 1.945244216918945312e+01 -5.636159896850585938e+00 2.673957347869873047e+00 2.729928493499755859e+00 1.621165752410888672e+00 -3.032067120075225830e-01
3.230000000000000000e+03 2.219504547119140625e+01 -5.588137149810791016e+00 2.211305379867553711e+00 1.124571919441223145e+00 1.000763177871704102e+00 -3.272741436958312988e-01
3.231000000000000000e+03 2.190094566345214844e+01 -4.636958122253417969e+00 3.363282203674316406e+00 1.136441230773925781e+00 1.349917054176330566e+00 3.417803719639778137e-02
3.232000000000000000e+03 3.490911102294921875e+01 -4.579659938812255859e+00 3.874213248491287231e-02 5.194496512413024902e-01 1.674575358629226685e-01 -3.596389293670654297e-01
3.233000000000000000e+03 3.753561401367187500e+01 -1.464670658111572266e+00 5.599796772003173828e-01 4.473587870597839355e-01 3.022015392780303955e-01 -1.563066393136978149e-01
3.234000000000000000e+03 2.490955352783203125e+01 -5.079087257385253906e+00 1.611246585845947266e+00 7.498297095298767090e-01 7.083228826522827148e-01 -6.724508851766586304e-02
3.235000000000000000e+03 2.489117240905761719e+01 -4.209588050842285156e+00 2.151534318923950195e+00 7.766073942184448242e-01 8.784425258636474609e-01 2.539227008819580078e-01
3.236000000000000000e+03 2.406424140930175781e+01 -5.227394580841064453e+00 1.844199061393737793e+00 8.002659678459167480e-01 7.933394908905029297e-01 -1.296218782663345337e-01
3.237000000000000000e+03 2.584550094604492188e+01 -4.216498851776123047e+00 1.767924904823303223e+00 7.856291532516479492e-01 7.660662531852722168e-01 1.949329972267150879e-01
3.238000000000000000e+03 2.588833808898925781e+01 -3.207108497619628906e+00 2.179891824722290039e+00 9.035170674324035645e-01 9.250226616859436035e-01 6.164215207099914551e-01
3.239000000000000000e+03 3.063543128967285156e+01 -2.089203834533691406e+00 1.207484602928161621e+00 8.805111050605773926e-01 6.263987421989440918e-01 1.501089185476303101e-01
3.240000000000000000e+03 3.017225646972656250e+01 -3.226809263229370117e+00 1.010850667953491211e+00 8.275071382522583008e-01 5.515073537826538086e-01 1.877151615917682648e-02
3.241000000000000000e+03 2.960306739807128906e+01 -9.720519185066223145e-01 1.630467295646667480e+00 1.124541163444519043e+00 8.265025615692138672e-01 4.796952009201049805e-01
3.242000000000000000e+03 2.951622772216796875e+01 -1.930193424224853516e+00 1.448523998260498047e+00 1.041403651237487793e+00 7.469782829284667969e-01 3.350844979286193848e-01
3.243000000000000000e+03 2.386015510559082031e+01 -3.456510305404663086e+00 3.070181846618652344e+00 8.575516939163208008e-01 1.178320050239562988e+00 7.401838898658752441e-01
3.244000000000000000e+03 2.261230278015136719e+01 -3.923201799392700195e+00 3.543741941452026367e+00 9.304336309432983398e-01 1.342252612113952637e+00 5.420325398445129395e-01
3.245000000000000000e+03 3.252478790283203125e+01 9.026780724525451660e-01 1.553460955619812012e+00 1.014636039733886719e+00 7.704291343688964844e-01 3.747367262840270996e-01
3.246000000000000000e+03 3.877445220947265625e+01 -3.573511600494384766e+00 -2.554689534008502960e-02 3.733207583427429199e-01 1.043321564793586731e-01 -3.183684647083282471e-01
3.247000000000000000e+03 2.806516838073730469e+01 -3.597518444061279297e+00 1.326227903366088867e+00 8.494502305984497070e-01 6.527034044265747070e-01 1.757774204015731812e-01
3.248000000000000000e+03 6.545999908447265625e+01 5.097945213317871094e+00 -6.416308879852294922e-02 4.422742366790771484e+00 1.307573795318603516e+00 -1.766190171241760254e+00
3.249000000000000000e+03 6.470468139648437500e+01 3.982449769973754883e+00 -4.844219237565994263e-02 3.995567083358764648e+00 1.184137463569641113e+00 -1.947011470794677734e+00
3.250000000000000000e+03 4.305398178100585938e+01 -2.389060258865356445e+00 1.456750906072556973e-03 2.189379036426544189e-01 6.611839681863784790e-02 -2.387581914663314819e-01
3.251000000000000000e+03 3.630099487304687500e+01 -3.087701797485351562e+00 3.102826178073883057e-01 4.791958928108215332e-01 2.368435561656951904e-01 -2.655805945396423340e-01
3.252000000000000000e+03 3.401828002929687500e+01 1.347184032201766968e-01 1.230448842048645020e+00 7.722596526145935059e-01 6.008125543594360352e-01 1.640491038560867310e-01
3.253000000000000000e+03 3.361005020141601562e+01 -2.755592584609985352e+00 6.783419251441955566e-01 6.550242304801940918e-01 4.000098407268524170e-01 -1.384712308645248413e-01
3.254000000000000000e+03 3.575117111206054688e+01 -4.168560028076171875e+00 1.106449142098426819e-01 4.920815825462341309e-01 1.808179467916488647e-01 -3.410971760749816895e-01
3.255000000000000000e+03 3.520240020751953125e+01 2.096599197387695312e+01 3.222419619560241699e-01 1.945626378059387207e+00 6.803604960441589355e-01 6.719257831573486328e-01
3.256000000000000000e+03 3.061679649353027344e+01 -8.941367268562316895e-01 1.476928114891052246e+00 1.064832091331481934e+00 7.625280618667602539e-01 3.641000092029571533e-01
3.257000000000000000e+03 6.281612396240234375e+01 2.448208427429199219e+01 4.684695899486541748e-01 3.921788930892944336e+00 1.317077517509460449e+00 -6.048434376716613770e-01
3.258000000000000000e+03 3.964974975585937500e+01 -3.176074743270874023e+00 9.046860039234161377e-03 3.256721794605255127e-01 1.004157140851020813e-01 -2.950719892978668213e-01
3.259000000000000000e+03 2.028065872192382812e+01 -5.794315814971923828e+00 2.334670305252075195e+00 2.050033330917358398e+00 1.315411090850830078e+00 -4.324068427085876465e-01
3.260000000000000000e+03 1.986854362487792969e+01 -5.357387542724609375e+00 3.110410213470458984e+00 2.389150619506835938e+00 1.649868249893188477e+00 -3.965152502059936523e-01
3.261000000000000000e+03 2.225413703918457031e+01 -4.218494415283203125e+00 3.557203769683837891e+00 1.004395842552185059e+00 1.368479967117309570e+00 3.295782804489135742e-01
3.262000000000000000e+03 2.094262695312500000e+01 -4.274891853332519531e+00 4.255995750427246094e+00 1.482791423797607422e+00 1.721636176109313965e+00 1.100080609321594238e-01
3.263000000000000000e+03 2.092169761657714844e+01 -4.855274200439453125e+00 3.556053161621093750e+00 1.573744058609008789e+00 1.538939118385314941e+00 -1.816763579845428467e-01
3.264000000000000000e+03 2.158925247192382812e+01 -2.930762767791748047e+00 4.809122085571289062e+00 1.099178075790405273e+00 1.772490143775939941e+00 1.146063327789306641e+00
3.265000000000000000e+03 2.022192382812500000e+01 -5.067737102508544922e+00 3.495319843292236328e+00 2.102083921432495117e+00 1.679221153259277344e+00 -3.049327433109283447e-01
3.266000000000000000e+03 2.119500350952148438e+01 -5.734628677368164062e+00 2.333017110824584961e+00 1.519910454750061035e+00 1.155878305435180664e+00 -4.394820332527160645e-01
3.267000000000000000e+03 3.223694610595703125e+01 -3.198078632354736328e+00 7.358916997909545898e-01 7.137984633445739746e-01 4.349070489406585693e-01 -1.119509413838386536e-01
3.268000000000000000e+03 2.845820999145507812e+01 -1.764798998832702637e+00 1.734993815422058105e+00 1.110655665397644043e+00 8.536948561668395996e-01 5.246396660804748535e-01
3.269000000000000000e+03 2.269146919250488281e+01 -4.426170825958251953e+00 3.089370012283325195e+00 9.117862582206726074e-01 1.200346946716308594e+00 1.984202265739440918e-01
3.270000000000000000e+03 3.191653251647949219e+01 -1.974613428115844727e+00 1.048894286155700684e+00 8.245704174041748047e-01 5.620393753051757812e-01 5.504034459590911865e-02
3.271000000000000000e+03 3.817279434204101562e+01 -2.226490497589111328e+00 3.873326480388641357e-01 4.092395603656768799e-01 2.389716655015945435e-01 -2.234605103731155396e-01
3.272000000000000000e+03 3.522788619995117188e+01 -1.644798636436462402e+00 7.313430905342102051e-01 5.947667360305786133e-01 3.978329300880432129e-01 -9.637154638767242432e-02
3.273000000000000000e+03 6.760782623291015625e+01 3.000179290771484375e+00 -6.306919455528259277e-01 5.763188838958740234e+00 1.539749026298522949e+00 -1.924336075782775879e+00
3.274000000000000000e+03 3.534300613403320312e+01 -6.262592077255249023e-01 9.394241571426391602e-01 6.246395111083984375e-01 4.692191183567047119e-01 2.302612364292144775e-02
3.275000000000000000e+03 3.497308731079101562e+01 -2.732859134674072266e+00 5.512266755104064941e-01 5.751437544822692871e-01 3.379111289978027344e-01 -1.938889771699905396e-01
3.276000000000000000e+03 3.172388648986816406e+01 -6.803421378135681152e-01 1.381551265716552734e+00 9.540570974349975586e-01 7.006825208663940430e-01 2.495891004800796509e-01
3.277000000000000000e+03 3.516287612915039062e+01 2.427073669433593750e+01 2.830763459205627441e-01 1.880622506141662598e+00 6.491096615791320801e-01 4.707658588886260986e-01
3.278000000000000000e+03 3.288446426391601562e+01 -3.084768354892730713e-01 1.299046874046325684e+00 8.770253658294677734e-01 6.528216600418090820e-01 2.000565826892852783e-01
3.279000000000000000e+03 6.082405090332031250e+01 2.461681747436523438e+01 5.268919467926025391e-01 3.637697458267211914e+00 1.249376773834228516e+00 -6.124627590179443359e-01
3.280000000000000000e+03 4.019477081298828125e+01 -2.391028881072998047e+00 1.751470714807510376e-01 2.983673810958862305e-01 1.420543342828750610e-01 -2.490857541561126709e-01
3.281000000000000000e+03 2.194152641296386719e+01 -3.845697402954101562e+00 3.946319103240966797e+00 1.015807151794433594e+00 1.488637924194335938e+00 4.784894585609436035e-01
3.282000000000000000e+03 2.149715995788574219e+01 -4.135224342346191406e+00 4.021049976348876953e+00 1.184065341949462891e+00 1.561534523963928223e+00 2.520676851272583008e-01
3.283000000000000000e+03 2.251276588439941406e+01 -4.991200923919677734e+00 2.693596601486206055e+00 9.914799332618713379e-01 1.105522990226745605e+00 -9.665678441524505615e-02
3.284000000000000000e+03 2.323888969421386719e+01 -5.229300975799560547e+00 2.108409404754638672e+00 8.867154717445373535e-01 8.985374569892883301e-01 -1.563982367515563965e-01
3.285000000000000000e+03 3.643404006958007812e+01 -1.762074828147888184e+00 5.826649069786071777e-01 4.935379922389984131e-01 3.228608667850494385e-01 -1.439115256071090698e-01
3.286000000000000000e+03 3.329064178466796875e+01 -1.548673510551452637e+00 9.729766845703125000e-01 7.324703335762023926e-01 5.116341114044189453e-01 7.991572783794254065e-05
3.287000000000000000e+03 6.294868850708007812e+01 2.678068733215332031e+01 4.282739162445068359e-01 3.979438304901123047e+00 1.322313666343688965e+00 -5.221196413040161133e-01
3.288000000000000000e+03 2.154245567321777344e+01 -5.165291786193847656e+00 2.985924482345581055e+00 1.289428114891052246e+00 1.282605767250061035e+00 -2.362738698720932007e-01
3.289000000000000000e+03 3.306885528564453125e+01 2.477264976501464844e+01 1.876169443130493164e-01 1.761188983917236328e+00 5.846417546272277832e-01 3.697860836982727051e-01
3.290000000000000000e+03 4.852388000488281250e+01 2.370899963378906250e+01 1.072010159492492676e+00 1.510729670524597168e+00 7.748219370841979980e-01 2.231584638357162476e-01
3.291000000000000000e+03 6.571360778808593750e+01 2.835774040222167969e+01 3.410436809062957764e-01 4.343851566314697266e+00 1.405468583106994629e+00 -4.624262452125549316e-01
3.292000000000000000e+03 7.063014221191406250e+01 -3.814006042480468750e+01 4.868877306580543518e-02 7.209441184997558594e+00 2.177438974380493164e+00 7.028973847627639771e-02
3.293000000000000000e+03 1.908373641967773438e+01 -3.278058242797851562e+01 -2.826128005981445312e-01 9.206137061119079590e-01 1.914002746343612671e-01 -1.498527079820632935e-01
3.294000000000000000e+03 2.539748954772949219e+01 2.743381690979003906e+01 1.578693687915802002e-01 1.136872053146362305e+00 3.884223997592926025e-01 2.054780870676040649e-01
3.295000000000000000e+03 1.687402725219726562e+01 2.696185111999511719e+01 -7.570674270391464233e-02 9.711894392967224121e-01 2.686448097229003906e-01 3.857708871364593506e-01
3.296000000000000000e+03 1.153678798675537109e+01 3.728149795532226562e+01 2.073969133198261261e-02 6.832379102706909180e-01 2.111932784318923950e-01 5.090366676449775696e-02
3.297000000000000000e+03 5.898716735839843750e+01 2.419550704956054688e+01 5.773429870605468750e-01 3.357619762420654297e+00 1.180488824844360352e+00 -6.240127682685852051e-01
3.298000000000000000e+03 6.046411514282226562e+01 2.712949943542480469e+01 5.214152932167053223e-01 3.564711809158325195e+00 1.225838065147399902e+00 -5.161417722702026367e-01
3.299000000000000000e+03 6.363515472412109375e+01 -3.620289230346679688e+01 1.627175062894821167e-01 3.588248014450073242e+00 1.125289678573608398e+00 2.279830574989318848e-01
3.300000000000000000e+03 6.520706176757812500e+01 -3.382143020629882812e+01 -1.487689763307571411e-01 4.581584930419921875e+00 1.329844832420349121e+00 3.438436985015869141e-01
3.301000000000000000e+03 1.265119838714599609e+01 -4.100848770141601562e+01 -1.838306039571762085e-01 2.007027387619018555e+00 5.469590425491333008e-01 -2.134199254214763641e-02
3.302000000000000000e+03 1.831907463073730469e+01 2.511429977416992188e+01 -4.858772084116935730e-02 9.157212972640991211e-01 2.601400613784790039e-01 4.870693087577819824e-01
3.303000000000000000e+03 1.796280097961425781e+01 -3.521914672851562500e+01 -2.534584105014801025e-01 1.107815742492675781e+00 2.563072144985198975e-01 -1.392619907855987549e-01
3.304000000000000000e+03 1.234380722045898438e+01 -3.814228439331054688e+01 -2.187566459178924561e-01 2.091549396514892578e+00 5.618378520011901855e-01 3.739530802704393864e-04
3.305000000000000000e+03 3.168494606018066406e+01 -4.084927749633789062e+01 -1.638005822896957397e-01 -1.868073046207427979e-01 -1.051823645830154419e-01 1.471093203872442245e-02
3.306000000000000000e+03 6.697023773193359375e+01 -3.775580215454101562e+01 1.360542923212051392e-01 5.269445896148681641e+00 1.621650099754333496e+00 2.006450295448303223e-01
3.307000000000000000e+03 1.487001800537109375e+01 2.887598419189453125e+01 -1.022904962301254272e-01 9.506174325942993164e-01 2.544980943202972412e-01 2.447102516889572144e-01
3.308000000000000000e+03 7.610580444335937500e+01 -3.652334213256835938e+01 -8.926562219858169556e-02 1.020481491088867188e+01 3.034664869308471680e+00 4.661305248737335205e-02
3.309000000000000000e+03 2.870720291137695312e+01 -3.722101593017578125e+01 -2.110351473093032837e-01 -8.585719764232635498e-02 -8.906770497560501099e-02 1.060385257005691528e-01
3.310000000000000000e+03 5.903954696655273438e+01 -3.535403823852539062e+01 1.768167316913604736e-01 1.486034393310546875e+00 4.988553524017333984e-01 1.585735529661178589e-01
3.311000000000000000e+03 3.733737182617187500e+01 2.490392112731933594e+01 3.785448670387268066e-01 1.913763523101806641e+00 6.876925230026245117e-01 4.887138605117797852e-01
3.312000000000000000e+03 3.422718811035156250e+01 2.708793449401855469e+01 2.660894691944122314e-01 1.744714021682739258e+00 6.032410264015197754e-01 3.249911069869995117e-01
3.313000000000000000e+03 5.962499141693115234e+00 -3.793407440185546875e+01 -1.611500531435012817e-01 3.039577722549438477e+00 8.635283112525939941e-01 1.650291234254837036e-01
3.314000000000000000e+03 2.204339599609375000e+01 -3.820447540283203125e+01 -1.140069067478179932e-01 4.967000484466552734e-01 1.148079410195350647e-01 -1.892023719847202301e-02
3.315000000000000000e+03 1.075852108001708984e+01 3.164040374755859375e+01 -8.943898975849151611e-02 7.302645444869995117e-01 1.922476738691329956e-01 6.466628611087799072e-02
3.316000000000000000e+03 3.568925857543945312e+01 2.927045249938964844e+01 3.530577123165130615e-01 1.768889188766479492e+00 6.365841031074523926e-01 2.923190891742706299e-01
3.317000000000000000e+03 3.883741760253906250e+01 2.562409591674804688e+01 4.520271420478820801e-01 1.937738656997680664e+00 7.169297337532043457e-01 4.946198761463165283e-01
3.318000000000000000e+03 7.968959331512451172e+00 4.101285171508789062e+01 5.238645710051059723e-03 4.950401782989501953e-01 1.500836461782455444e-01 3.738349536433815956e-03
3.319000000000000000e+03 3.627817916870117188e+01 3.648262405395507812e+01 4.356363117694854736e-01 1.747588872909545898e+00 6.549675464630126953e-01 1.202952861785888672e-01
3.320000000000000000e+03 4.327683639526367188e+01 3.635627365112304688e+01 5.906392931938171387e-01 2.047349929809570312e+00 7.913967370986938477e-01 1.094913557171821594e-01
3.321000000000000000e+03 2.232864761352539062e+01 -4.110347366333007812e+01 -7.187235355377197266e-02 4.873536527156829834e-01 1.246443912386894226e-01 -2.892073057591915131e-02
3.322000000000000000e+03 7.169322204589843750e+01 -4.099261093139648438e+01 8.862882107496261597e-02 7.780918121337890625e+00 2.360864162445068359e+00 -5.297941970638930798e-04
3.323000000000000000e+03 4.771080780029296875e+01 3.701173019409179688e+01 6.563723683357238770e-01 2.328817367553710938e+00 8.955568671226501465e-01 3.669016063213348389e-02
3.324000000000000000e+03 6.242856597900390625e+01 3.619005584716796875e+01 3.964010179042816162e-01 3.897230625152587891e+00 1.288089513778686523e+00 -2.119687646627426147e-01
3.325000000000000000e+03 6.833001708984375000e+01 3.734883499145507812e+01 2.083988785743713379e-01 4.612923145294189453e+00 1.446396589279174805e+00 -1.528254449367523193e-01
3.326000000000000000e+03 2.076128959655761719e+01 3.448686981201171875e+01 1.498664617538452148e-01 9.990516304969787598e-01 3.446754217147827148e-01 1.485521942377090454e-01
3.327000000000000000e+03 2.365114593505859375e+01 3.666193389892578125e+01 2.168488502502441406e-01 1.110812664031982422e+00 3.982984423637390137e-01 9.567467868328094482e-02
3.328000000000000000e+03 1.388796424865722656e+01 3.489353179931640625e+01 1.832732930779457092e-02 7.905674576759338379e-01 2.426684498786926270e-01 9.949100017547607422e-02
3.329000000000000000e+03 5.376004028320312500e+01 2.566894149780273438e+01 8.549184203147888184e-01 2.377256393432617188e+00 9.696524143218994141e-01 -3.967657089233398438e-01
3.330000000000000000e+03 1.877141761779785156e+01 2.889982032775878906e+01 4.728293791413307190e-02 9.396682977676391602e-01 2.960853576660156250e-01 3.028804659843444824e-01
3.331000000000000000e+03 1.727076530456542969e+01 -3.102198791503906250e+01 -3.491452932357788086e-01 1.196017503738403320e+00 2.540616691112518311e-01 -2.285981774330139160e-01
3.332000000000000000e+03 1.705354118347167969e+01 3.200972747802734375e+01 2.933950535953044891e-02 9.173074960708618164e-01 2.839941084384918213e-01 2.018369734287261963e-01
3.333000000000000000e+03 6.437455749511718750e+01 3.201617431640625000e+01 3.672897517681121826e-01 4.095939636230468750e+00 1.338968753814697266e+00 -3.619746565818786621e-01
3.334000000000000000e+03 5.662902832031250000e+01 2.500534248352050781e+01 6.782641410827636719e-01 2.881112098693847656e+00 1.067812800407409668e+00 -5.639589428901672363e-01
3.335000000000000000e+03 1.176148128509521484e+01 3.327230072021484375e+01 -3.722606971859931946e-02 7.354594469070434570e-01 2.094700038433074951e-01 8.898659050464630127e-02
3.336000000000000000e+03 4.757270812988281250e+01 2.629542160034179688e+01 9.344045519828796387e-01 1.790358662605285645e+00 8.174289464950561523e-01 2.493019700050354004e-01
3.337000000000000000e+03 2.288992309570312500e+01 3.238692092895507812e+01 1.847405731678009033e-01 1.067415714263916016e+00 3.756468594074249268e-01 1.796207875013351440e-01
3.338000000000000000e+03 2.157800102233886719e+01 3.021886062622070312e+01 1.434793919324874878e-01 9.969040155410766602e-01 3.421150147914886475e-01 2.433042228221893311e-01
3.339000000000000000e+03 6.574111938476562500e+01 3.502638244628906250e+01 2.951950132846832275e-01 4.313534736633300781e+00 1.382618904113769531e+00 -2.145902514457702637e-01
3.340000000000000000e+03 6.663560485839843750e+01 3.070133399963378906e+01 2.827085554599761963e-01 4.479814052581787109e+00 1.428756833076477051e+00 -3.602604866027832031e-01
3.341000000000000000e+03 5.634981155395507812e+01 2.826752090454101562e+01 6.838937401771545410e-01 2.924266576766967773e+00 1.082448124885559082e+00 -4.170759916305541992e-01
3.342000000000000000e+03 5.483039474487304688e+01 3.262236785888671875e+01 6.672694087028503418e-01 2.854578495025634766e+00 1.056554317474365234e+00 -2.146155983209609985e-01
3.343000000000000000e+03 5.782263565063476562e+01 3.124626541137695312e+01 5.938209295272827148e-01 3.221981525421142578e+00 1.144740700721740723e+00 -3.150708973407745361e-01
3.344000000000000000e+03 4.178482437133789062e+01 3.149152946472167969e+01 5.761879682540893555e-01 1.962007880210876465e+00 7.614587545394897461e-01 2.677792310714721680e-01
3.345000000000000000e+03 3.967283630371093750e+01 3.435227584838867188e+01 5.042557716369628906e-01 1.892307519912719727e+00 7.189689874649047852e-01 1.785180419683456421e-01
3.346000000000000000e+03 4.464435958862304688e+01 3.298723220825195312e+01 6.531985998153686523e-01 2.070092439651489258e+00 8.169872760772705078e-01 1.712474375963211060e-01
3.347000000000000000e+03 8.308655738830566406e+00 3.821639633178710938e+01 1.263931766152381897e-02 5.261032581329345703e-01 1.616227775812149048e-01 1.706480793654918671e-02
3.348000000000000000e+03 5.275357055664062500e+01 2.701202392578125000e+01 8.572159409523010254e-01 2.306058645248413086e+00 9.489824175834655762e-01 -2.773519754409790039e-01
3.349000000000000000e+03 4.609746551513671875e+01 2.819960594177246094e+01 7.932606339454650879e-01 1.962085127830505371e+00 8.266037702560424805e-01 2.609305977821350098e-01
3.350000000000000000e+03 4.822231292724609375e+01 3.040799331665039062e+01 7.799414396286010742e-01 2.154912710189819336e+00 8.804562687873840332e-01 9.589025378227233887e-02
3.351000000000000000e+03 4.803445816040039062e+01 3.357407379150390625e+01 6.980892419815063477e-01 2.262322425842285156e+00 8.881235122680664062e-01 6.225749477744102478e-02
3.352000000000000000e+03 2.483152770996093750e+01 3.102963066101074219e+01 2.079297602176666260e-01 1.150383830070495605e+00 4.074940979480743408e-01 1.807773560285568237e-01
3.353000000000000000e+03 2.808597183227539062e+01 3.404177093505859375e+01 2.684884369373321533e-01 1.316475391387939453e+00 4.754891693592071533e-01 1.320341974496841431e-01
3.354000000000000000e+03 2.873932456970214844e+01 3.125100326538085938e+01 2.490859925746917725e-01 1.360799074172973633e+00 4.829655289649963379e-01 1.683383285999298096e-01
3.355000000000000000e+03 6.341897583007812500e+01 2.929640960693359375e+01 4.034042656421661377e-01 4.052593708038330078e+00 1.336799502372741699e+00 -4.717594087123870850e-01
3.356000000000000000e+03 3.773859405517578125e+01 2.757478904724121094e+01 3.914448916912078857e-01 1.873146295547485352e+00 6.793773770332336426e-01 3.865367174148559570e-01
3.357000000000000000e+03 3.018988037109375000e+01 2.946244430541992188e+01 2.292081415653228760e-01 1.477873086929321289e+00 5.121243596076965332e-01 2.012417912483215332e-01
3.358000000000000000e+03 2.775941467285156250e+01 3.735306167602539062e+01 2.803268134593963623e-01 1.307379484176635742e+00 4.763118922710418701e-01 7.797370105981826782e-02
3.359000000000000000e+03 3.197465705871582031e+01 3.729671859741210938e+01 3.540388941764831543e-01 1.526155471801757812e+00 5.640583038330078125e-01 8.532963693141937256e-02
3.360000000000000000e+03 5.151337432861328125e+01 3.341050720214843750e+01 7.079219818115234375e-01 2.553988456726074219e+00 9.785731434822082520e-01 -6.535659730434417725e-02
3.361000000000000000e+03 1.321236991882324219e+01 -2.623383283615112305e+00 6.174979686737060547e+00 -3.303311467170715332e-01 1.753394484519958496e+00 2.354623794555664062e+00
3.362000000000000000e+03 1.259382629394531250e+01 -2.810633182525634766e+00 4.746694087982177734e+00 -3.260301053524017334e-01 1.326199173927307129e+00 2.400059700012207031e+00
3.363000000000000000e+03 1.302480220794677734e+01 -2.591489315032958984e+00 5.476025104522705078e+00 -1.689902096986770630e-01 1.592110395431518555e+00 2.208913326263427734e+00
3.364000000000000000e+03 1.430483245849609375e+01 -3.071984291076660156e+00 8.695386886596679688e+00 2.202787160873413086e+00 3.269452333450317383e+00 5.348369121551513672e+00
3.365000000000000000e+03 1.488059329986572266e+01 -3.284089565277099609e+00 8.158290863037109375e+00 6.032079219818115234e+00 4.257111072540283203e+00 6.764538288116455078e+00
3.366000000000000000e+03 1.627211761474609375e+01 -3.398978948593139648e+00 6.583501338958740234e+00 1.161136627197265625e+01 5.458460330963134766e+00 1.851114988327026367e+00
3.367000000000000000e+03 1.684705924987792969e+01 -3.508584260940551758e+00 6.934687614440917969e+00 9.488581657409667969e+00 4.926980495452880859e+00 4.068520665168762207e-01
3.368000000000000000e+03 1.754886817932128906e+01 -2.584052085876464844e+00 1.065657234191894531e+01 6.233904838562011719e+00 5.067142963409423828e+00 5.870838761329650879e-01
3.369000000000000000e+03 1.769983482360839844e+01 -1.417458295822143555e+00 9.638460159301757812e+00 5.923368453979492188e+00 4.668548583984375000e+00 3.908850193023681641e+00
3.370000000000000000e+03 1.717990875244140625e+01 -1.069496273994445801e+00 8.424693107604980469e+00 8.636382102966308594e+00 5.118322849273681641e+00 5.001487731933593750e+00
3.371000000000000000e+03 1.752345848083496094e+01 -1.117133975028991699e+00 8.627953529357910156e+00 7.108571052551269531e+00 4.720957279205322266e+00 4.494827270507812500e+00
3.372000000000000000e+03 1.734300231933593750e+01 -3.340625166893005371e-01 4.818712711334228516e+00 7.872870922088623047e+00 3.807475090026855469e+00 3.873513460159301758e+00
3.373000000000000000e+03 1.686300659179687500e+01 -7.499764859676361084e-02 2.707372188568115234e+00 9.158498764038085938e+00 3.559761285781860352e+00 2.449370861053466797e+00
3.374000000000000000e+03 1.521812725067138672e+01 1.132093667984008789e-01 1.109343409538269043e+00 5.712213993072509766e+00 2.046467304229736328e+00 -2.910964488983154297e+00
3.375000000000000000e+03 1.503935146331787109e+01 1.684977710247039795e-01 1.268284082412719727e+00 5.069447517395019531e+00 1.901319503784179688e+00 -2.882813215255737305e+00
3.376000000000000000e+03 1.487810039520263672e+01 2.448260039091110229e-01 1.211029291152954102e+00 4.185263156890869141e+00 1.618887782096862793e+00 -2.794464111328125000e+00
3.377000000000000000e+03 1.480240345001220703e+01 8.918523788452148438e-01 4.174690842628479004e-01 4.151893615722656250e+00 1.370808720588684082e+00 -2.582144260406494141e+00
3.378000000000000000e+03 1.368910312652587891e+01 1.229459643363952637e+00 2.325843423604965210e-01 2.203701019287109375e+00 7.308856248855590820e-01 -2.054500818252563477e+00
3.379000000000000000e+03 1.587827205657958984e+01 1.729851150512695312e+01 -3.998008668422698975e-01 2.301190614700317383e+00 5.704169273376464844e-01 9.600389003753662109e-01
3.380000000000000000e+03 4.346678543090820312e+01 7.811928272247314453e+00 7.223589420318603516e-01 5.757963657379150391e-01 3.894466161727905273e-01 -3.074445426464080811e-01
3.381000000000000000e+03 4.156665802001953125e+01 1.174869346618652344e+01 3.438069224357604980e-01 1.860311031341552734e+00 6.612353920936584473e-01 6.189962625503540039e-01
3.382000000000000000e+03 4.918334579467773438e+01 2.074773597717285156e+01 1.281516909599304199e+00 6.836095452308654785e-01 5.895379185676574707e-01 1.923456341028213501e-01
3.383000000000000000e+03 5.623299407958984375e+01 1.556963920593261719e+01 1.179672479629516602e+00 3.663503408432006836e+00 1.452952742576599121e+00 -1.108243703842163086e+00
3.384000000000000000e+03 3.504557037353515625e+01 -3.953894042968750000e+01 -2.656777501106262207e-01 -2.036345452070236206e-01 -1.407936811447143555e-01 2.231402136385440826e-02
3.385000000000000000e+03 1.627098464965820312e+01 4.456687569618225098e-01 8.113021254539489746e-01 8.066016197204589844e+00 2.663195371627807617e+00 -3.433406352996826172e-01
3.386000000000000000e+03 1.548181056976318359e+01 -3.952098369598388672e+00 4.873011589050292969e+00 8.505182266235351562e+00 4.013458251953125000e+00 5.030300140380859375e+00
3.387000000000000000e+03 1.577817821502685547e+01 -3.999090433120727539e+00 4.546727180480957031e+00 9.119680404663085938e+00 4.099922180175781250e+00 4.167380332946777344e+00
3.388000000000000000e+03 1.614266777038574219e+01 6.466819643974304199e-01 4.746680557727813721e-01 7.631998538970947266e+00 2.431999921798706055e+00 -9.351401329040527344e-01
3.389000000000000000e+03 1.796132087707519531e+01 -8.038446307182312012e-03 4.570448875427246094e+00 5.693644523620605469e+00 3.079227924346923828e+00 3.722878217697143555e+00
3.390000000000000000e+03 1.565089702606201172e+01 1.118180871009826660e+00 2.426117658615112305e-02 5.953756809234619141e+00 1.793405294418334961e+00 -1.899197340011596680e+00
3.391000000000000000e+03 1.320870685577392578e+01 -3.997116327285766602e+00 5.048287868499755859e+00 1.318623900413513184e+00 1.910073637962341309e+00 4.861489772796630859e+00
3.392000000000000000e+03 1.373746395111083984e+01 -4.102610111236572266e+00 5.360500812530517578e+00 2.355782032012939453e+00 2.314884901046752930e+00 5.500324249267578125e+00
3.393000000000000000e+03 1.401841640472412109e+01 -3.647369623184204102e+00 6.433673381805419922e+00 2.551494836807250977e+00 2.695550441741943359e+00 5.599671363830566406e+00
3.394000000000000000e+03 1.445386028289794922e+01 -3.411420106887817383e+00 7.871268272399902344e+00 3.601614713668823242e+00 3.441864967346191406e+00 6.090664863586425781e+00
3.395000000000000000e+03 1.472058296203613281e+01 -4.016634464263916016e+00 5.526131629943847656e+00 5.289654254913330078e+00 3.244735717773437500e+00 6.096480846405029297e+00
3.396000000000000000e+03 1.495226383209228516e+01 -4.048309803009033203e+00 5.240921020507812500e+00 6.299818515777587891e+00 3.462221860885620117e+00 5.906130790710449219e+00
3.397000000000000000e+03 1.594999122619628906e+01 -3.891143083572387695e+00 4.743420124053955078e+00 9.535923957824707031e+00 4.283803462982177734e+00 3.474115610122680664e+00
3.398000000000000000e+03 1.668305015563964844e+01 -3.902020215988159180e+00 5.331817150115966797e+00 9.146252632141113281e+00 4.343420982360839844e+00 1.150202155113220215e+00
3.399000000000000000e+03 1.742881202697753906e+01 -4.036870002746582031e+00 5.562608242034912109e+00 6.761721611022949219e+00 3.697299003601074219e+00 1.006899476051330566e-01
3.400000000000000000e+03 1.698053359985351562e+01 -3.846625328063964844e+00 5.802069187164306641e+00 8.187516212463378906e+00 4.196875572204589844e+00 5.311865806579589844e-01
3.401000000000000000e+03 1.767112731933593750e+01 -3.223257541656494141e+00 8.415328979492187500e+00 6.126336097717285156e+00 4.362499237060546875e+00 -7.603396475315093994e-02
3.402000000000000000e+03 1.739395332336425781e+01 -3.055157423019409180e+00 9.167453765869140625e+00 7.129619598388671875e+00 4.889122009277343750e+00 -9.665829688310623169e-02
3.403000000000000000e+03 1.793314743041992188e+01 -2.417709827423095703e+00 1.006054401397705078e+01 4.931455135345458984e+00 4.497599601745605469e+00 1.222670555114746094e+00
3.404000000000000000e+03 1.806922340393066406e+01 -1.628097057342529297e+00 9.471614837646484375e+00 4.642269611358642578e+00 4.234165191650390625e+00 3.175510406494140625e+00
3.405000000000000000e+03 1.802522850036621094e+01 -1.380316615104675293e+00 9.074013710021972656e+00 4.894902229309082031e+00 4.190674781799316406e+00 3.695329189300537109e+00
3.406000000000000000e+03 1.743109130859375000e+01 -9.505146145820617676e-01 7.882240772247314453e+00 7.786398410797119141e+00 4.700591564178466797e+00 4.653293132781982422e+00
3.407000000000000000e+03 1.743417358398437500e+01 -7.485334277153015137e-01 6.771022796630859375e+00 7.735256671905517578e+00 4.351883888244628906e+00 4.522309303283691406e+00
3.408000000000000000e+03 1.771797561645507812e+01 -9.857253432273864746e-01 7.730379104614257812e+00 6.217576026916503906e+00 4.184386253356933594e+00 4.233180046081542969e+00
3.409000000000000000e+03 1.340612792968750000e+01 2.011293411254882812e+00 -2.720232009887695312e-01 2.319889068603515625e+00 6.143597364425659180e-01 -1.876779317855834961e+00
3.410000000000000000e+03 1.287813854217529297e+01 1.555763363838195801e+00 -1.498508155345916748e-01 1.559866905212402344e+00 4.230048060417175293e-01 -1.493358731269836426e+00
3.411000000000000000e+03 1.229713344573974609e+01 1.709277510643005371e+00 -3.211785256862640381e-01 1.178316831588745117e+00 2.571415007114410400e-01 -1.192235350608825684e+00
3.412000000000000000e+03 1.374283671379089355e+00 -3.290803909301757812e+00 -6.491296738386154175e-02 -4.753382802009582520e-01 -1.620753705501556396e-01 -4.106068611145019531e-01
3.413000000000000000e+03 2.297247695922851562e+01 -1.367920112609863281e+01 -5.131284236907958984e+00 3.544480800628662109e-01 -1.433050870895385742e+00 8.998101353645324707e-01
3.414000000000000000e+03 1.751177787780761719e+01 1.902438354492187500e+01 -3.288167715072631836e-01 9.745969772338867188e-01 1.937340646982192993e-01 1.017182469367980957e+00
3.415000000000000000e+03 1.492718505859375000e+01 -3.694125747680664062e+01 -2.382025420665740967e-01 1.674653053283691406e+00 4.309351444244384766e-01 -4.059646278619766235e-02
3.416000000000000000e+03 1.632312202453613281e+01 7.548434734344482422e-01 4.703332781791687012e-01 7.490455150604248047e+00 2.388236522674560547e+00 -3.270201981067657471e-01
3.417000000000000000e+03 1.543975543975830078e+01 -4.172573089599609375e+00 4.559957027435302734e+00 7.764734268188476562e+00 3.697407484054565430e+00 4.958588600158691406e+00
3.418000000000000000e+03 1.563180732727050781e+01 -4.123402595520019531e+00 4.452722072601318359e+00 8.501584053039550781e+00 3.886291742324829102e+00 4.382804393768310547e+00
3.419000000000000000e+03 1.762614822387695312e+01 -8.236615657806396484e-01 7.138707637786865234e+00 6.702686309814453125e+00 4.152418136596679688e+00 4.372502803802490234e+00
3.420000000000000000e+03 1.789629173278808594e+01 -6.218975186347961426e-01 6.382158279418945312e+00 5.886436939239501953e+00 3.680578470230102539e+00 4.134861946105957031e+00
3.421000000000000000e+03 1.427079105377197266e+01 -3.911323308944702148e+00 5.958010196685791016e+00 3.656090259552001953e+00 2.884230136871337891e+00 5.996932983398437500e+00
3.422000000000000000e+03 1.402412414550781250e+01 -3.958250761032104492e+00 5.894383430480957031e+00 2.811830043792724609e+00 2.611864089965820312e+00 5.788705348968505859e+00
3.423000000000000000e+03 1.792657279968261719e+01 -3.101438760757446289e+00 8.554009437561035156e+00 5.397884845733642578e+00 4.185568332672119141e+00 1.598039418458938599e-01
3.424000000000000000e+03 5.996467971801757812e+01 1.849449920654296875e+01 6.788406372070312500e-01 3.509923696517944336e+00 1.256629228591918945e+00 -7.622582912445068359e-01
3.425000000000000000e+03 1.534253978729248047e+01 2.172866106033325195e+00 -7.565497159957885742e-01 4.377247333526611328e+00 1.086209297180175781e+00 -1.999269008636474609e+00
3.426000000000000000e+03 1.389099693298339844e+01 1.429491043090820312e+00 1.455916017293930054e-01 2.528775691986083984e+00 8.023102283477783203e-01 -2.175124883651733398e+00
3.427000000000000000e+03 1.244811153411865234e+01 3.125712013244628906e+01 -7.749269157648086548e-02 8.221101164817810059e-01 2.233852148056030273e-01 1.276537925004959106e-01
3.428000000000000000e+03 1.786114883422851562e+01 -2.624984025955200195e+00 9.962436676025390625e+00 5.272310733795166016e+00 4.570424079895019531e+00 7.347240447998046875e-01
3.429000000000000000e+03 1.801119995117187500e+01 -1.134931206703186035e+00 8.351199150085449219e+00 5.179141521453857422e+00 4.059102535247802734e+00 4.002393245697021484e+00
3.430000000000000000e+03 1.283966445922851562e+01 -4.298377990722656250e+00 4.253903388977050781e+00 1.102527618408203125e+00 1.606929302215576172e+00 4.898742675781250000e+00
3.431000000000000000e+03 3.056518077850341797e+00 3.730727005004882812e+01 5.680702161043882370e-03 2.510426044464111328e-01 7.701698690652847290e-02 -1.184376887977123260e-02
3.432000000000000000e+03 7.811785888671875000e+01 -3.583525848388671875e+01 -7.640526443719863892e-02 1.102073669433593750e+01 3.283299446105957031e+00 9.310454130172729492e-02
3.433000000000000000e+03 1.444175910949707031e+01 -4.605580806732177734e+00 4.156330585479736328e+00 4.218380451202392578e+00 2.512413501739501953e+00 5.761943817138671875e+00
3.434000000000000000e+03 1.507820796966552734e+01 -4.333101749420166016e+00 4.397366523742675781e+00 6.433582782745361328e+00 3.249284744262695312e+00 5.380203247070312500e+00
3.435000000000000000e+03 1.803419876098632812e+01 2.847368717193603516e+00 -5.548222661018371582e-01 1.689873337745666504e+00 3.405153155326843262e-01 7.280914783477783203e-01
3.436000000000000000e+03 2.973260688781738281e+01 -3.472600936889648438e+01 -3.715032041072845459e-01 -1.683257222175598145e-01 -1.619486808776855469e-01 1.800893396139144897e-01
3.437000000000000000e+03 1.415103816986083984e+01 -4.258782863616943359e+00 5.041815280914306641e+00 3.579552650451660156e+00 2.586410522460937500e+00 5.822228431701660156e+00
3.438000000000000000e+03 1.694830322265625000e+01 -4.949774265289306641e+00 3.127899646759033203e+00 6.467896938323974609e+00 2.878739118576049805e+00 1.360455036163330078e+00
3.439000000000000000e+03 2.732227087020874023e+00 -4.596884727478027344e+00 -1.399488002061843872e-01 -1.992826014757156372e-01 -1.017694249749183655e-01 -6.498876214027404785e-01
3.440000000000000000e+03 3.462940454483032227e+00 -5.662807941436767578e+00 -2.451018095016479492e-01 3.023936748504638672e-01 1.718756370246410370e-02 -7.202582359313964844e-01
3.441000000000000000e+03 5.992047786712646484e+00 -3.579676055908203125e+01 -1.698865145444869995e-01 3.062840700149536133e+00 8.678862452507019043e-01 1.961319744586944580e-01
3.442000000000000000e+03 7.043693542480468750e+01 -4.485373497009277344e+00 -1.516639232635498047e+00 1.151646804809570312e+01 2.999948501586914062e+00 -6.160804033279418945e-01
3.443000000000000000e+03 6.350559616088867188e+01 -4.123889923095703125e+00 -8.515232205390930176e-01 2.297189682722091675e-01 -1.865412890911102295e-01 -2.593692064285278320e+00
3.444000000000000000e+03 1.377224922180175781e+01 -3.499467849731445312e+01 -3.238418400287628174e-01 2.033914089202880859e+00 5.130216479301452637e-01 -1.307306904345750809e-02
3.445000000000000000e+03 6.827857971191406250e+00 -1.002541255950927734e+01 -7.025511860847473145e-01 6.739965915679931641e+00 1.811224341392517090e+00 -2.460751384496688843e-01
3.446000000000000000e+03 1.448673152923583984e+01 -3.909041404724121094e+00 5.935184955596923828e+00 4.358468055725097656e+00 3.088095903396606445e+00 6.006001949310302734e+00
3.447000000000000000e+03 1.577723312377929688e+01 -4.368347167968750000e+00 3.987291812896728516e+00 8.133527755737304688e+00 3.636245727539062500e+00 3.930426597595214844e+00
3.448000000000000000e+03 1.736493110656738281e+01 4.344090819358825684e-01 2.450559139251708984e+00 6.869215488433837891e+00 2.795932531356811523e+00 2.377784252166748047e+00
3.449000000000000000e+03 1.688065528869628906e+01 3.540677428245544434e-01 1.815784454345703125e+00 8.106437683105468750e+00 2.976666450500488281e+00 1.624489188194274902e+00
3.450000000000000000e+03 2.988529682159423828e+00 -3.328485012054443359e+00 -1.962932497262954712e-01 -2.888133004307746887e-02 -6.755237281322479248e-02 -5.194858312606811523e-01
3.451000000000000000e+03 3.615781784057617188e+00 -4.023700237274169922e+00 -2.176511287689208984e-01 1.512904763221740723e-01 -1.990819722414016724e-02 -5.435084104537963867e-01
3.452000000000000000e+03 4.908856201171875000e+01 2.235347557067871094e+01 1.189226388931274414e+00 1.247403621673583984e+00 7.309889793395996094e-01 1.338289976119995117e-01
3.453000000000000000e+03 1.595634746551513672e+01 2.076764488220214844e+01 -4.137198626995086670e-01 1.474481582641601562e+00 3.182285130023956299e-01 7.319309711456298828e-01
3.454000000000000000e+03 1.772836685180664062e+01 -3.898493766784667969e+00 6.093305587768554688e+00 6.041735649108886719e+00 3.640512466430664062e+00 -1.477129012346267700e-01
3.455000000000000000e+03 1.800074768066406250e+01 -4.403025150299072266e+00 4.886792182922363281e+00 5.125610351562500000e+00 3.003720760345458984e+00 -6.956171989440917969e-02
3.456000000000000000e+03 1.847450637817382812e+01 -3.470985889434814453e+00 7.083384037017822266e+00 4.126788616180419922e+00 3.363051652908325195e+00 2.774351648986339569e-02
3.457000000000000000e+03 1.224221801757812500e+01 -4.161677837371826172e+00 3.745935201644897461e+00 6.658608317375183105e-01 1.323538780212402344e+00 4.215448856353759766e+00
3.458000000000000000e+03 1.595943260192871094e+01 -4.196611881256103516e+00 4.151504516601562500e+00 8.751767158508300781e+00 3.870981693267822266e+00 3.441560268402099609e+00
3.459000000000000000e+03 3.387908220291137695e+00 3.609689712524414062e+01 8.819933049380779266e-03 2.791590094566345215e-01 8.639368414878845215e-02 4.647808149456977844e-03
3.460000000000000000e+03 1.486332321166992188e+01 -4.534852504730224609e+00 4.094901084899902344e+00 5.496630191802978516e+00 2.877459287643432617e+00 5.556232452392578125e+00
3.461000000000000000e+03 1.855639076232910156e+01 -1.354535818099975586e+00 8.305256843566894531e+00 3.886886596679687500e+00 3.657643079757690430e+00 3.442162990570068359e+00
3.462000000000000000e+03 1.860608673095703125e+01 -1.108268737792968750e+00 7.782616615295410156e+00 3.890465974807739258e+00 3.501924753189086914e+00 3.632237911224365234e+00
3.463000000000000000e+03 1.791635704040527344e+01 6.114337444305419922e-01 3.019900321960449219e+00 5.309645652770996094e+00 2.498863935470581055e+00 2.901077270507812500e+00
3.464000000000000000e+03 1.894266510009765625e+01 2.042236626148223877e-01 4.658940315246582031e+00 3.481569766998291016e+00 2.442153215408325195e+00 3.864759683609008789e+00
3.465000000000000000e+03 1.767861366271972656e+01 7.064357995986938477e-01 2.280141115188598633e+00 5.731754779815673828e+00 2.403568744659423828e+00 2.382623672485351562e+00
3.466000000000000000e+03 1.709477233886718750e+01 7.860478162765502930e-01 1.398380041122436523e+00 6.665444850921630859e+00 2.419147491455078125e+00 1.282198429107666016e+00
3.467000000000000000e+03 1.466761112213134766e+01 2.076444387435913086e+00 -5.071091651916503906e-01 3.743487119674682617e+00 9.709133505821228027e-01 -2.270175457000732422e+00
3.468000000000000000e+03 1.348177909851074219e+01 2.658984899520874023e+00 -6.283074021339416504e-01 2.789739847183227539e+00 6.484297513961791992e-01 -1.805096507072448730e+00
3.469000000000000000e+03 4.009819793701171875e+01 2.356245040893554688e+01 5.072935223579406738e-01 1.987580537796020508e+00 7.484622001647949219e-01 6.113383173942565918e-01
3.470000000000000000e+03 1.460083198547363281e+01 -4.322346210479736328e+00 4.858187675476074219e+00 4.792366981506347656e+00 2.895166397094726562e+00 5.836555004119873047e+00
3.471000000000000000e+03 1.465912246704101562e+01 -4.766444206237792969e+00 3.747427940368652344e+00 4.789720058441162109e+00 2.561144351959228516e+00 5.531416416168212891e+00
3.472000000000000000e+03 1.824189186096191406e+01 -3.083604574203491211e+00 8.298189163208007812e+00 4.486345291137695312e+00 3.835360288619995117e+00 3.210696280002593994e-01
3.473000000000000000e+03 2.012939453125000000e+01 2.402441024780273438e+00 1.892503142356872559e+00 1.624631762504577637e+00 1.055140495300292969e+00 3.481900453567504883e+00
3.474000000000000000e+03 4.088909912109375000e+01 5.498260021209716797e+00 1.074759244918823242e+00 5.696422457695007324e-01 4.933204650878906250e-01 1.078537404537200928e-01
3.475000000000000000e+03 2.035272979736328125e+01 -3.115547752380371094e+01 -3.235389292240142822e-01 5.147914290428161621e-01 5.737575516104698181e-02 -9.148713946342468262e-02
3.476000000000000000e+03 1.416848564147949219e+01 -4.542475700378417969e+00 4.546583652496337891e+00 3.617725133895874023e+00 2.449292659759521484e+00 5.861046314239501953e+00
3.477000000000000000e+03 2.685912132263183594e+01 2.958695983886718750e+01 2.127590030431747437e-01 1.248561501502990723e+00 4.383961260318756104e-01 1.842068135738372803e-01
3.478000000000000000e+03 3.342797851562500000e+01 3.057167625427246094e+01 3.019563555717468262e-01 1.646341443061828613e+00 5.844893455505371094e-01 2.251586765050888062e-01
3.479000000000000000e+03 3.608601760864257812e+01 2.600273513793945312e+01 3.098605573177337646e-01 1.866843342781066895e+00 6.530111432075500488e-01 4.127155840396881104e-01
3.480000000000000000e+03 6.293587207794189453e+00 -7.995913982391357422e+00 -7.914948463439941406e-01 3.744168996810913086e+00 8.858022689819335938e-01 -8.161424845457077026e-02
3.481000000000000000e+03 2.170677757263183594e+01 2.077669715881347656e+01 -2.521449327468872070e-02 3.645403385162353516e-01 1.017977520823478699e-01 3.742148876190185547e-01
3.482000000000000000e+03 1.752691078186035156e+01 1.395503282546997070e+00 1.148744106292724609e+00 4.858677387237548828e+00 1.802226543426513672e+00 1.363652467727661133e+00
3.483000000000000000e+03 1.787544441223144531e+01 1.296729803085327148e+00 1.625635743141174316e+00 4.504705905914306641e+00 1.839102506637573242e+00 2.065326929092407227e+00
3.484000000000000000e+03 1.623044204711914062e+01 -5.561785697937011719e+00 2.012504339218139648e+00 5.634773731231689453e+00 2.294183254241943359e+00 2.841957569122314453e+00
3.485000000000000000e+03 7.184714508056640625e+01 -1.828507232666015625e+01 -3.789655268192291260e-01 1.051851272583007812e+01 3.041864156723022461e+00 -1.254912853240966797e+00
3.486000000000000000e+03 9.758911132812500000e+00 1.238852119445800781e+01 7.334570288658142090e-01 1.725645661354064941e+00 7.377308011054992676e-01 -3.321969211101531982e-01
3.487000000000000000e+03 3.776629638671875000e+01 1.098242378234863281e+01 9.300118684768676758e-01 1.630991578102111816e+00 7.683010697364807129e-01 1.111562013626098633e+00
3.488000000000000000e+03 5.126263618469238281e+00 -1.915182495117187500e+01 -6.195837259292602539e-02 3.762071847915649414e+00 1.110033988952636719e+00 2.173513650894165039e+00
3.489000000000000000e+03 1.547955608367919922e+01 -3.068670654296875000e+01 -4.266587495803833008e-01 1.742845296859741211e+00 3.948559761047363281e-01 -2.707354724407196045e-01
3.490000000000000000e+03 1.885263824462890625e+01 -1.465641379356384277e+00 7.869941711425781250e+00 3.157085180282592773e+00 3.308108091354370117e+00 3.053600072860717773e+00
3.491000000000000000e+03 1.928012657165527344e+01 -1.740397214889526367e-01 5.364066600799560547e+00 2.963958263397216797e+00 2.498407363891601562e+00 3.857678890228271484e+00
3.492000000000000000e+03 1.916755104064941406e+01 4.870375990867614746e-01 4.156531333923339844e+00 3.167963743209838867e+00 2.197348594665527344e+00 3.786231517791748047e+00
3.493000000000000000e+03 1.721237564086914062e+01 1.195307970046997070e+00 1.098200678825378418e+00 5.661640167236328125e+00 2.027952194213867188e+00 1.022121310234069824e+00
3.494000000000000000e+03 1.775114059448242188e+01 1.008845567703247070e+00 2.039993762969970703e+00 5.317748546600341797e+00 2.207322597503662109e+00 2.145975351333618164e+00
3.495000000000000000e+03 1.748165512084960938e+01 1.069696426391601562e+00 1.661895275115966797e+00 5.692215919494628906e+00 2.206233263015747070e+00 1.799162507057189941e+00
3.496000000000000000e+03 1.440188503265380859e+01 -4.919723033905029297e+00 3.573436021804809570e+00 3.936618566513061523e+00 2.253016471862792969e+00 5.668439865112304688e+00
3.497000000000000000e+03 1.484655952453613281e+01 -5.008121490478515625e+00 3.219163656234741211e+00 4.962586402893066406e+00 2.454524993896484375e+00 5.370641231536865234e+00
3.498000000000000000e+03 1.815937042236328125e+01 -4.090622901916503906e+00 5.631582736968994141e+00 4.906830310821533203e+00 3.161523818969726562e+00 -2.241069376468658447e-01
3.499000000000000000e+03 1.969320297241210938e+01 3.279895484447479248e-01 4.426794528961181641e+00 2.577010393142700195e+00 2.101141452789306641e+00 3.886164665222167969e+00
3.500000000000000000e+03 1.873085403442382812e+01 1.115327715873718262e+00 2.910181999206542969e+00 3.267851829528808594e+00 1.853410124778747559e+00 3.262372493743896484e+00
3.501000000000000000e+03 1.201013755798339844e+01 -4.563973426818847656e+00 3.244919538497924805e+00 8.301633596420288086e-01 1.222524881362915039e+00 4.405930042266845703e+00
3.502000000000000000e+03 1.885849952697753906e+01 -3.111254501342773438e+01 -3.297198116779327393e-01 8.986656665802001953e-01 1.706837564706802368e-01 -1.980974078178405762e-01
3.503000000000000000e+03 2.046029472351074219e+01 1.451824545860290527e+00 2.979722738265991211e+00 1.951708197593688965e+00 1.479429244995117188e+00 3.874033451080322266e+00
3.504000000000000000e+03 3.780315399169921875e+01 2.373766136169433594e+01 4.315212965011596680e-01 1.955203771591186523e+00 7.160175442695617676e-01 5.599719882011413574e-01
3.505000000000000000e+03 3.798577117919921875e+01 2.240831947326660156e+01 4.631593525409698486e-01 1.991276741027832031e+00 7.363308072090148926e-01 6.282262802124023438e-01
3.506000000000000000e+03 1.593593788146972656e+01 -5.854919433593750000e+00 1.635993599891662598e+00 5.107888221740722656e+00 2.023164510726928711e+00 3.376830101013183594e+00
3.507000000000000000e+03 1.530195999145507812e+01 -5.099668979644775391e+00 2.863462448120117188e+00 5.668168067932128906e+00 2.559489250183105469e+00 4.664719104766845703e+00
3.508000000000000000e+03 1.929587554931640625e+01 -9.316307902336120605e-01 6.692779064178466797e+00 2.736937522888183594e+00 2.828914880752563477e+00 3.438621282577514648e+00
3.509000000000000000e+03 3.664850616455078125e+01 2.378748512268066406e+01 3.654879033565521240e-01 1.925114035606384277e+00 6.871805787086486816e-01 5.218415856361389160e-01
3.510000000000000000e+03 1.188103008270263672e+01 5.239632606506347656e+00 -2.054461687803268433e-01 2.497026920318603516e+00 6.874742507934570312e-01 -4.979957640171051025e-01
3.511000000000000000e+03 3.692393493652343750e+01 9.547728538513183594e+00 1.108552336692810059e+00 1.472469568252563477e+00 7.743065357208251953e-01 1.075706243515014648e+00
3.512000000000000000e+03 9.115969657897949219e+00 1.183596038818359375e+01 7.344126105308532715e-01 1.454273104667663574e+00 6.566057205200195312e-01 -2.564157843589782715e-01
3.513000000000000000e+03 7.172415161132812500e+01 2.715973281860351562e+01 1.419672816991806030e-01 5.232912540435791016e+00 1.612463951110839844e+00 -3.999570012092590332e-01
3.514000000000000000e+03 3.276698303222656250e+01 1.782970046997070312e+01 1.946925818920135498e-01 2.063751697540283203e+00 6.775332689285278320e-01 9.240877628326416016e-01
3.515000000000000000e+03 3.424693679809570312e+01 1.944647979736328125e+01 2.850228250026702881e-01 1.989459276199340820e+00 6.823446154594421387e-01 7.824046611785888672e-01
3.516000000000000000e+03 3.490095901489257812e+01 1.710517311096191406e+01 4.729645252227783203e-01 2.015603780746459961e+00 7.465704679489135742e-01 1.060887813568115234e+00
3.517000000000000000e+03 3.166637420654296875e+01 9.156690597534179688e+00 1.627202272415161133e+00 2.029474973678588867e+00 1.097003102302551270e+00 1.657694816589355469e+00
3.518000000000000000e+03 6.104965591430664062e+01 2.104076766967773438e+01 5.679141283035278320e-01 3.685190677642822266e+00 1.275931477546691895e+00 -7.067165374755859375e-01
3.519000000000000000e+03 4.791328430175781250e+01 2.805220222473144531e+01 8.294891119003295898e-01 1.998675584793090820e+00 8.484494090080261230e-01 1.472012847661972046e-01
3.520000000000000000e+03 5.235414981842041016e+00 -2.038400077819824219e+01 -4.858955740928649902e-01 3.913399457931518555e+00 1.028251171112060547e+00 1.875715613365173340e+00
3.521000000000000000e+03 1.281044292449951172e+01 -7.090298652648925781e+00 6.602998375892639160e-01 1.902568459510803223e+00 7.688604593276977539e-01 5.963013172149658203e+00
3.522000000000000000e+03 1.852546882629394531e+01 -4.385932445526123047e+00 4.966312885284423828e+00 4.277499198913574219e+00 2.773143529891967773e+00 -2.709541022777557373e-01
3.523000000000000000e+03 7.450945281982421875e+01 -1.281227493286132812e+01 1.244993329048156738e+00 9.362360954284667969e+00 3.182206153869628906e+00 -1.135357260704040527e+00
3.524000000000000000e+03 1.426802062988281250e+01 -6.219635009765625000e+00 1.657974839210510254e+00 3.041543483734130859e+00 1.409855484962463379e+00 5.249564647674560547e+00
3.525000000000000000e+03 1.417804527282714844e+01 -5.885485172271728516e+00 2.183677911758422852e+00 3.131414175033569336e+00 1.594527602195739746e+00 5.481986045837402344e+00
3.526000000000000000e+03 1.825508689880371094e+01 -5.267001628875732422e+00 3.168086290359497070e+00 4.216926574707031250e+00 2.215503931045532227e+00 -9.085935540497303009e-03
3.527000000000000000e+03 7.305572509765625000e+01 -1.871352958679199219e+01 -4.051873683929443359e-01 1.003655338287353516e+01 2.889410018920898438e+00 -1.557789564132690430e+00
3.528000000000000000e+03 7.432617187500000000e+01 -1.999670028686523438e+01 -4.786987900733947754e-01 9.647006034851074219e+00 2.750492095947265625e+00 -1.534980535507202148e+00
3.529000000000000000e+03 1.818813705444335938e+01 -4.563214778900146484e+00 4.534127712249755859e+00 4.648825645446777344e+00 2.754885911941528320e+00 -1.149881929159164429e-01
3.530000000000000000e+03 1.846498489379882812e+01 -4.664072036743164062e+00 4.550844192504882812e+00 4.268267631530761719e+00 2.645733356475830078e+00 -2.439608424901962280e-01
3.531000000000000000e+03 3.131470680236816406e+01 1.227130508422851562e+01 7.828699350357055664e-01 2.324023723602294922e+00 9.320681095123291016e-01 1.686315178871154785e+00
3.532000000000000000e+03 1.266661834716796875e+01 2.129887199401855469e+01 -4.409767687320709229e-01 1.613007783889770508e+00 3.516093194484710693e-01 2.320538312196731567e-01
3.533000000000000000e+03 1.326623821258544922e+01 2.231301307678222656e+01 -4.069281816482543945e-01 1.437316298484802246e+00 3.091164231300354004e-01 2.882255315780639648e-01
3.534000000000000000e+03 1.505531883239746094e+01 -5.250267505645751953e+00 2.726320505142211914e+00 5.066650390625000000e+00 2.337891340255737305e+00 4.903301715850830078e+00
3.535000000000000000e+03 6.108724975585937500e+01 6.762820720672607422e+00 3.904688060283660889e-01 2.849093198776245117e+00 9.718685746192932129e-01 -1.259808778762817383e+00
3.536000000000000000e+03 1.194838428497314453e+01 -5.149665355682373047e+00 2.372667312622070312e+00 1.453502058982849121e+00 1.147850871086120605e+00 4.932497501373291016e+00
3.537000000000000000e+03 2.260402488708496094e+01 6.829127073287963867e-01 3.282174110412597656e+00 2.000485897064208984e+00 1.584797978401184082e+00 3.464276313781738281e+00
3.538000000000000000e+03 2.053419876098632812e+01 6.565487384796142578e-01 3.893631219863891602e+00 1.931296944618225098e+00 1.747478485107421875e+00 3.937745094299316406e+00
3.539000000000000000e+03 3.621629333496093750e+01 8.279200553894042969e+00 1.283838272094726562e+00 1.325524687767028809e+00 7.828088998794555664e-01 1.000644683837890625e+00
3.540000000000000000e+03 1.408859634399414062e+01 -7.305705070495605469e+00 2.880005836486816406e-01 1.999549984931945801e+00 6.862651705741882324e-01 5.253456592559814453e+00
3.541000000000000000e+03 6.341435623168945312e+01 1.866789627075195312e+01 5.583321452140808105e-01 3.994681835174560547e+00 1.365904211997985840e+00 -8.088272809982299805e-01
3.542000000000000000e+03 1.966653060913085938e+01 2.499921417236328125e+01 2.297476865351200104e-02 8.446612954139709473e-01 2.602908313274383545e-01 4.582359790802001953e-01
3.543000000000000000e+03 5.380855178833007812e+01 -1.398549437522888184e+00 -1.548639237880706787e-01 1.004044488072395325e-01 -1.633783988654613495e-02 -3.704483807086944580e-01
3.544000000000000000e+03 4.118107223510742188e+01 -5.164147019386291504e-01 5.043591260910034180e-01 2.834818065166473389e-01 2.363522797822952271e-01 -1.335511952638626099e-01
3.545000000000000000e+03 3.116912841796875000e+01 2.014136123657226562e+01 -7.193717360496520996e-02 1.894117832183837891e+00 5.466542243957519531e-01 5.274137258529663086e-01
3.546000000000000000e+03 1.320543575286865234e+01 2.361009597778320312e+01 -3.717918395996093750e-01 1.318306565284729004e+00 2.839544117450714111e-01 2.800836265087127686e-01
3.547000000000000000e+03 1.806080627441406250e+01 -4.774478435516357422e+00 4.040368080139160156e+00 4.779548168182373047e+00 2.645974874496459961e+00 6.972675770521163940e-02
3.548000000000000000e+03 1.926344299316406250e+01 -3.989009857177734375e+00 5.680453777313232422e+00 3.005232572555541992e+00 2.605705976486206055e+00 -6.340243667364120483e-02
3.549000000000000000e+03 1.936389732360839844e+01 -4.444123744964599609e+00 4.743271827697753906e+00 2.912878036499023438e+00 2.296844959259033203e+00 -2.448599487543106079e-01
3.550000000000000000e+03 1.985582542419433594e+01 -4.316586017608642578e+00 4.733710765838623047e+00 2.321616649627685547e+00 2.116598129272460938e+00 -8.723811805248260498e-02
3.551000000000000000e+03 6.019475555419921875e+01 6.344219684600830078e+00 4.487934708595275879e-01 2.390032529830932617e+00 8.516477942466735840e-01 -1.125251770019531250e+00
3.552000000000000000e+03 7.363359928131103516e+00 4.915585517883300781e+00 1.193630769848823547e-01 3.392230868339538574e-01 1.375758498907089233e-01 3.855511248111724854e-01
3.553000000000000000e+03 7.463689422607421875e+01 -3.801151990890502930e+00 -3.773803114891052246e-01 9.000422477722167969e+00 2.586912631988525391e+00 1.120380878448486328e+00
3.554000000000000000e+03 1.153447532653808594e+01 2.196604919433593750e+01 -3.938130438327789307e-01 1.400708079338073730e+00 3.020685017108917236e-01 4.559800401329994202e-02
3.555000000000000000e+03 1.456471729278564453e+01 -6.473923206329345703e+00 1.188774108886718750e+00 3.124414682388305664e+00 1.293956637382507324e+00 5.023249626159667969e+00
3.556000000000000000e+03 7.482468414306640625e+01 -5.847743034362792969e+00 1.834554821252822876e-01 9.070433616638183594e+00 2.776166677474975586e+00 1.241310000419616699e+00
3.557000000000000000e+03 3.957949066162109375e+01 -1.964148283004760742e+00 3.191747367382049561e-01 3.240192532539367676e-01 1.929582059383392334e-01 -2.226023226976394653e-01
3.558000000000000000e+03 7.472068786621093750e+01 1.639087498188018799e-02 -7.599582076072692871e-01 8.431484222412109375e+00 2.301457881927490234e+00 3.716509938240051270e-01
3.559000000000000000e+03 1.822593879699707031e+01 -7.171335220336914062e+00 1.135714128613471985e-01 2.874961853027343750e+00 8.965600132942199707e-01 5.503408908843994141e-01
3.560000000000000000e+03 6.654961395263671875e+01 2.101597547531127930e+00 -5.604947209358215332e-01 5.215029716491699219e+00 1.396360516548156738e+00 -2.205799341201782227e+00
3.561000000000000000e+03 2.674228858947753906e+01 -6.502265334129333496e-01 2.225984096527099609e+00 1.549905896186828613e+00 1.132766962051391602e+00 1.252002596855163574e+00
3.562000000000000000e+03 8.075230598449707031e+00 2.299720382690429688e+01 -2.529350817203521729e-01 9.046891927719116211e-01 1.955262422561645508e-01 -1.783475875854492188e-01
3.563000000000000000e+03 8.346055030822753906e+00 2.177402114868164062e+01 -2.694857418537139893e-01 1.032718896865844727e+00 2.289699465036392212e-01 -2.374564260244369507e-01
3.564000000000000000e+03 3.764653396606445312e+01 2.933092594146728516e+00 1.207681894302368164e+00 6.097562313079833984e-01 5.452314615249633789e-01 2.282054424285888672e-01
3.565000000000000000e+03 5.532026672363281250e+01 -7.109410762786865234e-01 -8.045670390129089355e-02 2.022295147180557251e-01 3.653184324502944946e-02 -4.788845479488372803e-01
3.566000000000000000e+03 5.730335235595703125e+01 1.610716581344604492e+00 4.127093553543090820e-01 6.599721312522888184e-01 3.218044340610504150e-01 -7.259696125984191895e-01
3.567000000000000000e+03 6.959470272064208984e+00 -2.471464347839355469e+01 -9.103469848632812500e-01 3.931567430496215820e+00 9.063661694526672363e-01 9.419557452201843262e-01
3.568000000000000000e+03 6.968517303466796875e+01 1.921898460388183594e+01 2.567132413387298584e-01 5.163562297821044922e+00 1.626082658767700195e+00 -7.303622364997863770e-01
3.569000000000000000e+03 7.062746429443359375e+01 -2.583860588073730469e+01 -9.686699509620666504e-01 8.164339065551757812e+00 2.158700704574584961e+00 -1.789755076169967651e-01
3.570000000000000000e+03 2.302481269836425781e+01 -1.056859970092773438e+00 3.858123064041137695e+00 1.295910835266113281e+00 1.546210169792175293e+00 2.404660224914550781e+00
3.571000000000000000e+03 8.092285156250000000e+00 -2.356104469299316406e+01 -1.036263346672058105e+00 4.617575645446777344e+00 1.074393630027770996e+00 7.405553460121154785e-01
3.572000000000000000e+03 6.990370941162109375e+01 3.763706684112548828e+00 -7.143793702125549316e-01 6.636942863464355469e+00 1.776769042015075684e+00 -1.371501803398132324e+00
3.573000000000000000e+03 7.303900718688964844e+00 2.384002876281738281e+01 -2.125774770975112915e-01 7.548484206199645996e-01 1.626812815666198730e-01 -1.845341324806213379e-01
3.574000000000000000e+03 1.999492454528808594e+01 -6.573602199554443359e+00 1.272941946983337402e+00 2.118805885314941406e+00 1.017524361610412598e+00 -3.886864483356475830e-01
3.575000000000000000e+03 2.114950561523437500e+01 -3.205715656280517578e+00 5.056983470916748047e+00 1.232645511627197266e+00 1.886888742446899414e+00 8.870074748992919922e-01
3.576000000000000000e+03 6.886614990234375000e+01 4.349195480346679688e+00 -5.119375586509704590e-01 5.979923248291015625e+00 1.640395760536193848e+00 -1.569258689880371094e+00
3.577000000000000000e+03 8.639348983764648438e+00 -2.687032318115234375e+01 -8.153122663497924805e-01 3.601808071136474609e+00 8.359487652778625488e-01 4.478776156902313232e-01
3.578000000000000000e+03 7.097830200195312500e+01 -2.698315048217773438e+01 -8.735336065292358398e-01 8.095837593078613281e+00 2.166691064834594727e+00 -2.024925649166107178e-01
3.579000000000000000e+03 6.692414093017578125e+01 -2.518721961975097656e+01 -1.027263998985290527e+00 6.148244857788085938e+00 1.536294221878051758e+00 5.220386385917663574e-01
3.580000000000000000e+03 6.421170043945312500e+01 8.798874855041503906e+00 2.731997668743133545e-01 4.013258934020996094e+00 1.285937666893005371e+00 -1.386866569519042969e+00
3.581000000000000000e+03 3.758570098876953125e+01 -3.433055639266967773e+00 1.279759705066680908e-01 4.096978008747100830e-01 1.613021343946456909e-01 -2.961710989475250244e-01
3.582000000000000000e+03 1.880018424987792969e+01 -6.837160587310791016e+00 6.653004288673400879e-01 2.738077878952026367e+00 1.021013498306274414e+00 7.119259238243103027e-02
3.583000000000000000e+03 1.917183685302734375e+01 -6.850067138671875000e+00 7.786746025085449219e-01 2.487129211425781250e+00 9.797411561012268066e-01 -9.765841066837310791e-02
3.584000000000000000e+03 4.118539047241210938e+01 -6.170863151550292969e+00 -7.129544019699096680e-01 2.931413650512695312e-01 -1.259438991546630859e-01 -4.753663539886474609e-01
3.585000000000000000e+03 2.643618965148925781e+01 -6.829506874084472656e+00 1.635120362043380737e-01 7.350965738296508789e-01 2.695825994014739990e-01 -4.896298050880432129e-01
3.586000000000000000e+03 2.660310554504394531e+01 -5.377758502960205078e+00 9.762740135192871094e-01 7.448711991310119629e-01 5.163435935974121094e-01 -1.836382746696472168e-01
3.587000000000000000e+03 4.055316162109375000e+01 -7.246691703796386719e+00 -9.729866385459899902e-01 3.142554163932800293e-01 -1.976193785667419434e-01 -5.217611193656921387e-01
3.588000000000000000e+03 7.305068969726562500e+01 1.222772979736328125e+01 3.183549642562866211e-02 6.284673213958740234e+00 1.894952654838562012e+00 -7.932004332542419434e-01
3.589000000000000000e+03 3.440173721313476562e+01 -1.000831365585327148e+00 9.510221481323242188e-01 6.802763342857360840e-01 4.893895685672760010e-01 9.363226592540740967e-03
3.590000000000000000e+03 6.576859283447265625e+01 3.427211284637451172e+00 -2.508128881454467773e-01 4.584279537200927734e+00 1.300040006637573242e+00 -2.007803440093994141e+00
3.591000000000000000e+03 7.134946441650390625e+01 7.070593833923339844e+00 -2.839016914367675781e-01 6.394410133361816406e+00 1.833152532577514648e+00 -1.044528722763061523e+00
3.592000000000000000e+03 6.715382385253906250e+01 3.753268718719482422e+00 -3.883430957794189453e-01 5.290007591247558594e+00 1.470499396324157715e+00 -1.827759742736816406e+00
3.593000000000000000e+03 3.223975372314453125e+01 -9.122814178466796875e+00 -1.297929048538208008e+00 5.881600379943847656e-01 -2.129306942224502563e-01 -5.979620218276977539e-01
3.594000000000000000e+03 2.729482841491699219e+01 -6.703423500061035156e+00 7.735620439052581787e-02 7.021723985671997070e-01 2.338585853576660156e-01 -4.629523754119873047e-01
3.595000000000000000e+03 3.899141693115234375e+01 -5.700225830078125000e+00 -5.066305994987487793e-01 3.569702506065368652e-01 -4.489810764789581299e-02 -4.646361172199249268e-01
3.596000000000000000e+03 6.776086425781250000e+01 7.873765945434570312e+00 -4.787283018231391907e-02 5.170206546783447266e+00 1.536700129508972168e+00 -1.430593967437744141e+00
3.597000000000000000e+03 4.004353332519531250e+01 -4.578585147857666016e+00 -3.163977861404418945e-01 3.203650712966918945e-01 1.190185314044356346e-03 -3.843104243278503418e-01
3.598000000000000000e+03 2.575861930847167969e+01 -6.676064968109130859e+00 3.235040903091430664e-01 7.357473373413085938e-01 3.177754282951354980e-01 -5.172644257545471191e-01
3.599000000000000000e+03 7.173131561279296875e+01 7.912382125854492188e+00 -1.941027045249938965e-01 6.452742576599121094e+00 1.877591967582702637e+00 -9.708349108695983887e-01
3.600000000000000000e+03 2.889399909973144531e+01 -7.046941757202148438e+00 -2.172365784645080566e-01 6.819135546684265137e-01 1.394031047821044922e-01 -4.925256371498107910e-01
3.601000000000000000e+03 2.227036285400390625e+01 -3.487943887710571289e+00 4.055260658264160156e+00 9.465209841728210449e-01 1.500534415245056152e+00 7.742497920989990234e-01
3.602000000000000000e+03 3.399863052368164062e+01 -5.419546127319335938e+00 -1.431034654378890991e-01 5.392417907714843750e-01 1.188415065407752991e-01 -4.398048520088195801e-01
3.603000000000000000e+03 7.072233581542968750e+01 8.915177345275878906e+00 -1.215875819325447083e-01 6.051743030548095703e+00 1.779046654701232910e+00 -1.101184368133544922e+00
3.604000000000000000e+03 3.101614189147949219e+01 -6.572562217712402344e+00 -2.387739121913909912e-01 6.438610553741455078e-01 1.215261444449424744e-01 -4.669045209884643555e-01
3.605000000000000000e+03 3.326139068603515625e+01 -4.991355419158935547e+00 6.524214893579483032e-02 5.970769524574279785e-01 1.986957192420959473e-01 -3.678697347640991211e-01
3.606000000000000000e+03 3.081610107421875000e+01 -5.694812297821044922e+00 1.068063452839851379e-01 6.679604053497314453e-01 2.324300110340118408e-01 -3.685674369335174561e-01
3.607000000000000000e+03 1.560462093353271484e+01 -1.804115653038024902e+00 4.219204711914062500e+01 2.700311183929443359e+00 1.346770763397216797e+01 -4.867686271667480469e+00
3.608000000000000000e+03 1.560126399993896484e+01 -1.823292255401611328e+00 4.747406768798828125e+01 4.060710906982421875e+00 1.546043395996093750e+01 5.670836925506591797e+00
3.609000000000000000e+03 1.560170364379882812e+01 -1.842755794525146484e+00 4.895403671264648438e+01 9.327855110168457031e+00 1.748456764221191406e+01 1.239011764526367188e+01
3.610000000000000000e+03 1.560592460632324219e+01 -1.861761212348937988e+00 4.742230224609375000e+01 1.562659740447998047e+01 1.891467094421386719e+01 1.801838111877441406e+01
3.611000000000000000e+03 1.561376380920410156e+01 -1.879581332206726074e+00 4.457442092895507812e+01 2.359227561950683594e+01 2.045000839233398438e+01 2.135404777526855469e+01
3.612000000000000000e+03 1.562492370605468750e+01 -1.895534157752990723e+00 3.990011596679687500e+01 3.107576751708984375e+01 2.129276466369628906e+01 2.282081031799316406e+01
3.613000000000000000e+03 1.563897514343261719e+01 -1.909009099006652832e+00 3.558205795288085938e+01 3.851098251342773438e+01 2.222791099548339844e+01 2.183591079711914062e+01
3.614000000000000000e+03 1.565538120269775391e+01 -1.919490575790405273e+00 3.107882118225097656e+01 4.413386154174804688e+01 2.256380462646484375e+01 1.914480018615722656e+01
3.615000000000000000e+03 1.567351341247558594e+01 -1.926577448844909668e+00 2.831914138793945312e+01 4.815377426147460938e+01 2.294187545776367188e+01 1.500064945220947266e+01
3.616000000000000000e+03 1.569267940521240234e+01 -1.929998636245727539e+00 2.654669570922851562e+01 4.979871368408203125e+01 2.290362358093261719e+01 1.030018520355224609e+01
3.617000000000000000e+03 1.571214485168457031e+01 -1.929623126983642578e+00 2.682958030700683594e+01 4.961875915527343750e+01 2.293450164794921875e+01 5.730597496032714844e+00
3.618000000000000000e+03 1.573116397857666016e+01 -1.925465226173400879e+00 2.810824966430664062e+01 4.759515380859375000e+01 2.271102142333984375e+01 1.837224841117858887e+00
3.619000000000000000e+03 1.574900913238525391e+01 -1.917684197425842285e+00 3.063117599487304688e+01 4.462231445312500000e+01 2.257604789733886719e+01 -8.130234479904174805e-01
3.620000000000000000e+03 1.576499938964843750e+01 -1.906577706336975098e+00 3.362112426757812500e+01 4.098207855224609375e+01 2.238096046447753906e+01 -2.171501398086547852e+00
3.621000000000000000e+03 1.577852058410644531e+01 -1.892570734024047852e+00 3.677777099609375000e+01 3.743228530883789062e+01 2.226301765441894531e+01 -2.120002031326293945e+00
3.622000000000000000e+03 1.578905582427978516e+01 -1.876199364662170410e+00 3.967955017089843750e+01 3.428231811523437500e+01 2.218856048583984375e+01 -7.856276631355285645e-01
3.623000000000000000e+03 1.579620265960693359e+01 -1.858090162277221680e+00 4.188564300537109375e+01 3.198361968994140625e+01 2.216077804565429688e+01 1.610006451606750488e+00
3.624000000000000000e+03 1.579968738555908203e+01 -1.838935971260070801e+00 4.318692779541015625e+01 3.091979980468750000e+01 2.223201942443847656e+01 4.909906387329101562e+00
3.625000000000000000e+03 1.579937648773193359e+01 -1.819469928741455078e+00 4.305682754516601562e+01 3.102539825439453125e+01 2.222466850280761719e+01 8.591145515441894531e+00
3.626000000000000000e+03 1.579528141021728516e+01 -1.800436854362487793e+00 4.146178817749023438e+01 3.286349868774414062e+01 2.229758644104003906e+01 1.227705192565917969e+01
3.627000000000000000e+03 1.578755950927734375e+01 -1.782565236091613770e+00 3.814977264404296875e+01 3.577744293212890625e+01 2.217816543579101562e+01 1.532657051086425781e+01
3.628000000000000000e+03 1.577650547027587891e+01 -1.766539096832275391e+00 3.344640731811523438e+01 3.993410491943359375e+01 2.201415252685546875e+01 1.714798927307128906e+01
3.629000000000000000e+03 1.576254367828369141e+01 -1.752971410751342773e+00 2.769677543640136719e+01 4.424008941650390625e+01 2.158105850219726562e+01 1.732687759399414062e+01
3.630000000000000000e+03 1.574620723724365234e+01 -1.742381691932678223e+00 2.155130767822265625e+01 4.826989746093750000e+01 2.094636154174804688e+01 1.557360935211181641e+01
3.631000000000000000e+03 1.572812175750732422e+01 -1.735175013542175293e+00 1.579282283782958984e+01 5.090329360961914062e+01 2.000883483886718750e+01 1.215801906585693359e+01
3.632000000000000000e+03 1.570897865295410156e+01 -1.731627225875854492e+00 1.095172882080078125e+01 5.171859741210937500e+01 1.880109786987304688e+01 7.300439357757568359e+00
3.633000000000000000e+03 1.568951225280761719e+01 -1.731874108314514160e+00 7.328114032745361328e+00 5.012972259521484375e+01 1.723735046386718750e+01 2.025557518005371094e+00
3.634000000000000000e+03 1.567046546936035156e+01 -1.735906243324279785e+00 5.369820594787597656e+00 4.625513458251953125e+01 1.548748683929443359e+01 -3.329184770584106445e+00
3.635000000000000000e+03 1.565256881713867188e+01 -1.743569254875183105e+00 4.330292701721191406e+00 4.037075042724609375e+01 1.341031265258789062e+01 -7.733839988708496094e+00
3.636000000000000000e+03 1.563650608062744141e+01 -1.754569888114929199e+00 4.957146644592285156e+00 3.261971282958984375e+01 1.127305793762207031e+01 -1.105057048797607422e+01
3.637000000000000000e+03 1.562289237976074219e+01 -1.768487334251403809e+00 6.001701354980468750e+00 2.399370384216308594e+01 8.998620986938476562e+00 -1.261607742309570312e+01
3.638000000000000000e+03 1.561224842071533203e+01 -1.784788727760314941e+00 1.116002750396728516e+01 1.151733303070068359e+01 6.803208351135253906e+00 -1.067102050781250000e+01
