# el_label, x, y, sXX, sYY, sZZ, sXY
1.000000000000000000e+00 9.702937126159667969e+00 -2.983934059739112854e-02 8.524220466613769531e+00 -2.492142915725708008e+00 1.809623241424560547e+00 -1.453804492950439453e+00
2.000000000000000000e+00 9.504896163940429688e+00 -4.973223432898521423e-02 9.268297195434570312e+00 1.184197902679443359e+00 3.135748624801635742e+00 1.431477546691894531e+00
3.000000000000000000e+00 9.306854248046875000e+00 -6.962513178586959839e-02 6.602667331695556641e+00 -4.903730750083923340e-01 1.833688259124755859e+00 5.129876136779785156e-01
4.000000000000000000e+00 9.108813285827636719e+00 -8.951802551746368408e-02 5.371441841125488281e+00 3.303137719631195068e-01 1.710526704788208008e+00 6.475405097007751465e-01
5.000000000000000000e+00 9.714455604553222656e+00 -8.718428760766983032e-02 2.086516952514648438e+01 -1.753854632377624512e+00 5.733394622802734375e+00 3.764261722564697266e+00
6.000000000000000000e+00 9.524093627929687500e+00 -1.453071534633636475e-01 1.193364810943603516e+01 6.886138319969177246e-01 3.786678791046142578e+00 2.678997516632080078e+00
7.000000000000000000e+00 9.333730697631835938e+00 -2.034300118684768677e-01 1.045170116424560547e+01 1.173314094543457031e+00 3.487504720687866211e+00 3.102197885513305664e+00
8.000000000000000000e+00 9.143367767333984375e+00 -2.615528702735900879e-01 8.335351943969726562e+00 2.422530204057693481e-01 2.573281526565551758e+00 2.312093257904052734e+00
9.000000000000000000e+00 9.736933708190917969e+00 -1.411830335855484009e-01 2.396154212951660156e+01 3.108728170394897461e+00 8.121081352233886719e+00 1.067560577392578125e+01
1.000000000000000000e+01 9.561555862426757812e+00 -2.353050708770751953e-01 1.627099800109863281e+01 2.365346908569335938e+00 5.590903282165527344e+00 6.489501953125000000e+00
1.100000000000000000e+01 9.386178970336914062e+00 -3.294270932674407959e-01 1.216556835174560547e+01 2.406932592391967773e+00 4.371750354766845703e+00 5.380795478820800781e+00
1.200000000000000000e+01 9.210802078247070312e+00 -4.235491156578063965e-01 1.051951885223388672e+01 2.347308397293090820e+00 3.860048294067382812e+00 5.013976097106933594e+00
1.300000000000000000e+01 9.769508361816406250e+00 -1.897630989551544189e-01 2.408606338500976562e+01 1.016421794891357422e+01 1.027508449554443359e+01 1.557124423980712891e+01
1.400000000000000000e+01 9.615847587585449219e+00 -3.162718117237091064e-01 1.677146339416503906e+01 6.371625900268554688e+00 6.942926883697509766e+00 1.038643550872802734e+01
1.500000000000000000e+01 9.462185859680175781e+00 -4.427805542945861816e-01 1.353512668609619141e+01 5.390296936035156250e+00 5.677627086639404297e+00 8.376869201660156250e+00
1.600000000000000000e+01 9.308525085449218750e+00 -5.692892670631408691e-01 1.109542846679687500e+01 4.604818344116210938e+00 4.710073947906494141e+00 7.309298038482666016e+00
1.700000000000000000e+01 9.810929298400878906e+00 -2.310599088668823242e-01 2.118170738220214844e+01 1.816021919250488281e+01 1.180257797241210938e+01 1.826507568359375000e+01
1.800000000000000000e+01 9.684882164001464844e+00 -3.850998580455780029e-01 1.603505325317382812e+01 1.196785354614257812e+01 8.400872230529785156e+00 1.297745800018310547e+01
1.900000000000000000e+01 9.558835029602050781e+00 -5.391398072242736816e-01 1.271601772308349609e+01 9.461543083190917969e+00 6.653268337249755859e+00 1.061063003540039062e+01
2.000000000000000000e+01 9.432787895202636719e+00 -6.931797266006469727e-01 1.080192279815673828e+01 8.284978866577148438e+00 5.726070404052734375e+00 9.272121429443359375e+00
2.100000000000000000e+01 9.859606742858886719e+00 -2.634885013103485107e-01 1.796521949768066406e+01 2.625496482849121094e+01 1.326605510711669922e+01 1.827635574340820312e+01
2.200000000000000000e+01 9.766011238098144531e+00 -4.391474723815917969e-01 1.374792480468750000e+01 1.783517837524414062e+01 9.474930763244628906e+00 1.384748935699462891e+01
2.300000000000000000e+01 9.672415733337402344e+00 -6.148064732551574707e-01 1.132979393005371094e+01 1.444876670837402344e+01 7.733568191528320312e+00 1.158897781372070312e+01
2.400000000000000000e+01 9.578820228576660156e+00 -7.904654741287231445e-01 9.349328041076660156e+00 1.232415962219238281e+01 6.502046585083007812e+00 1.018765068054199219e+01
2.500000000000000000e+01 9.913672447204589844e+00 -2.858042120933532715e-01 1.470888328552246094e+01 3.301396560668945312e+01 1.431685447692871094e+01 1.603779792785644531e+01
2.600000000000000000e+01 9.856121063232421875e+00 -4.763403236865997314e-01 1.171811008453369141e+01 2.351692199707031250e+01 1.057050895690917969e+01 1.291659164428710938e+01
2.700000000000000000e+01 9.798569679260253906e+00 -6.668764352798461914e-01 9.345828056335449219e+00 1.906273841857910156e+01 8.522569656372070312e+00 1.110711383819580078e+01
2.800000000000000000e+01 9.741018295288085938e+00 -8.574125766754150391e-01 7.931244850158691406e+00 1.663850975036621094e+01 7.370926380157470703e+00 9.903420448303222656e+00
2.900000000000000000e+01 9.971052169799804688e+00 -2.971505522727966309e-01 1.307977962493896484e+01 3.800399780273437500e+01 1.532513332366943359e+01 1.218116283416748047e+01
3.000000000000000000e+01 9.951753616333007812e+00 -4.952509105205535889e-01 9.965084075927734375e+00 2.792377662658691406e+01 1.136665821075439453e+01 1.058405876159667969e+01
3.100000000000000000e+01 9.932455062866210938e+00 -6.933512687683105469e-01 8.048250198364257812e+00 2.311059951782226562e+01 9.347654342651367188e+00 9.292522430419921875e+00
3.200000000000000000e+01 9.913155555725097656e+00 -8.914516568183898926e-01 6.628064632415771484e+00 1.994244194030761719e+01 7.971151828765869141e+00 8.447827339172363281e+00
3.300000000000000000e+01 1.002954196929931641e+01 -2.970920503139495850e-01 1.290619182586669922e+01 4.061707687377929688e+01 1.605698013305664062e+01 7.695320606231689453e+00
3.400000000000000000e+01 1.004923725128173828e+01 -4.951534271240234375e-01 9.517320632934570312e+00 3.090441703796386719e+01 1.212652111053466797e+01 7.341693401336669922e+00
3.500000000000000000e+01 1.006893157958984375e+01 -6.932148337364196777e-01 7.457499504089355469e+00 2.573837280273437500e+01 9.958761215209960938e+00 6.678767204284667969e+00
3.600000000000000000e+01 1.008862686157226562e+01 -8.912761807441711426e-01 6.125640869140625000e+00 2.245856475830078125e+01 8.575262069702148438e+00 6.027431011199951172e+00
3.700000000000000000e+01 1.008689880371093750e+01 -2.856309711933135986e-01 1.447957038879394531e+01 4.112803649902343750e+01 1.668228340148925781e+01 3.451184988021850586e+00
3.800000000000000000e+01 1.014483070373535156e+01 -4.760516285896301270e-01 1.024417972564697266e+01 3.212085723876953125e+01 1.270951080322265625e+01 3.950112342834472656e+00
3.900000000000000000e+01 1.020276355743408203e+01 -6.664722561836242676e-01 8.040381431579589844e+00 2.697945976257324219e+01 1.050595188140869141e+01 3.675496339797973633e+00
4.000000000000000000e+01 1.026069545745849609e+01 -8.568928837776184082e-01 6.528486251831054688e+00 2.367430686950683594e+01 9.060837745666503906e+00 3.521341800689697266e+00
4.100000000000000000e+01 1.014091968536376953e+01 -2.632071673870086670e-01 1.724294471740722656e+01 3.999317550659179688e+01 1.717083549499511719e+01 2.276199311017990112e-01
4.200000000000000000e+01 1.023486614227294922e+01 -4.386786222457885742e-01 1.216106414794921875e+01 3.173914909362792969e+01 1.317006397247314453e+01 9.254199862480163574e-01
4.300000000000000000e+01 1.032881259918212891e+01 -6.141500473022460938e-01 9.616326332092285156e+00 2.689454460144042969e+01 1.095326137542724609e+01 1.094874978065490723e+00
4.400000000000000000e+01 1.042275905609130859e+01 -7.896215319633483887e-01 7.982532978057861328e+00 2.351174926757812500e+01 9.448284149169921875e+00 1.074340462684631348e+00
4.500000000000000000e+01 1.018953227996826172e+01 -2.306813150644302368e-01 2.055903053283691406e+01 3.772965240478515625e+01 1.748660469055175781e+01 -1.706071138381958008e+00
4.600000000000000000e+01 1.031588745117187500e+01 -3.844688534736633301e-01 1.489347076416015625e+01 3.030208969116210938e+01 1.355866813659667969e+01 -1.073895335197448730e+00
4.700000000000000000e+01 1.044224262237548828e+01 -5.382564067840576172e-01 1.196465873718261719e+01 2.558212471008300781e+01 1.126403522491455078e+01 -7.940708398818969727e-01
4.800000000000000000e+01 1.056859779357910156e+01 -6.920439004898071289e-01 1.005850887298583984e+01 2.255098342895507812e+01 9.782847404479980469e+00 -5.987178683280944824e-01
4.900000000000000000e+01 1.023087024688720703e+01 -1.893017292022705078e-01 2.390786361694335938e+01 3.529979705810546875e+01 1.776229858398437500e+01 -2.152498722076416016e+00
5.000000000000000000e+01 1.038478469848632812e+01 -3.155028820037841797e-01 1.784385299682617188e+01 2.804515457153320312e+01 1.376670169830322266e+01 -1.917047739028930664e+00
5.100000000000000000e+01 1.053869819641113281e+01 -4.417040348052978516e-01 1.463863372802734375e+01 2.385659408569335938e+01 1.154856777191162109e+01 -1.538128614425659180e+00
5.200000000000000000e+01 1.069261169433593750e+01 -5.679051876068115234e-01 1.244755935668945312e+01 2.078906440734863281e+01 9.970987319946289062e+00 -1.360301733016967773e+00
5.300000000000000000e+01 1.026334762573242188e+01 -1.406566202640533447e-01 2.662438583374023438e+01 3.283266448974609375e+01 1.783711433410644531e+01 -1.401229500770568848e+00
5.400000000000000000e+01 1.043891334533691406e+01 -2.344277054071426392e-01 2.053503417968750000e+01 2.599320793151855469e+01 1.395847225189208984e+01 -1.442141413688659668e+00
5.500000000000000000e+01 1.061447906494140625e+01 -3.281987905502319336e-01 1.704443740844726562e+01 2.179142951965332031e+01 1.165075969696044922e+01 -1.214172482490539551e+00
5.600000000000000000e+01 1.079004383087158203e+01 -4.219698905944824219e-01 1.470368099212646484e+01 1.923313522338867188e+01 1.018104553222656250e+01 -1.050057411193847656e+00
5.700000000000000000e+01 1.028571796417236328e+01 -8.661302924156188965e-02 2.846031570434570312e+01 3.121754455566406250e+01 1.790335845947265625e+01 3.101515769958496094e-01
5.800000000000000000e+01 1.047619628906250000e+01 -1.443550437688827515e-01 2.234946250915527344e+01 2.418622398376464844e+01 1.396070575714111328e+01 7.498677074909210205e-02
5.900000000000000000e+01 1.066667461395263672e+01 -2.020970582962036133e-01 1.873574829101562500e+01 2.040077018737792969e+01 1.174095535278320312e+01 5.609632655978202820e-02
6.000000000000000000e+01 1.085715293884277344e+01 -2.598390877246856689e-01 1.629443550109863281e+01 1.773876571655273438e+01 1.020995998382568359e+01 1.588597744703292847e-01
6.100000000000000000e+01 1.029712104797363281e+01 -2.924515865743160248e-02 2.906762313842773438e+01 3.024196434020996094e+01 1.779287528991699219e+01 2.634969711303710938e+00
6.200000000000000000e+01 1.049520206451416016e+01 -4.874193295836448669e-02 2.298970985412597656e+01 2.346949195861816406e+01 1.393776035308837891e+01 2.217978000640869141e+00
6.300000000000000000e+01 1.069328308105468750e+01 -6.823870539665222168e-02 1.927044677734375000e+01 1.961359786987304688e+01 1.166521358489990234e+01 1.957196950912475586e+00
6.400000000000000000e+01 1.089136409759521484e+01 -8.773547410964965820e-02 1.689732170104980469e+01 1.706797599792480469e+01 1.018958950042724609e+01 1.801408290863037109e+00
6.500000000000000000e+01 1.029712104797363281e+01 2.924515865743160248e-02 2.837593841552734375e+01 3.039237594604492188e+01 1.763049507141113281e+01 5.082919120788574219e+00
6.600000000000000000e+01 1.049520206451416016e+01 4.874193295836448669e-02 2.221153259277343750e+01 2.369194221496582031e+01 1.377104282379150391e+01 4.546914577484130859e+00
6.700000000000000000e+01 1.069328308105468750e+01 6.823870539665222168e-02 1.858687210083007812e+01 1.990148544311523438e+01 1.154650783538818359e+01 3.941172122955322266e+00
6.800000000000000000e+01 1.089136409759521484e+01 8.773547410964965820e-02 1.616414642333984375e+01 1.720845985412597656e+01 1.001178264617919922e+01 3.571690082550048828e+00
6.900000000000000000e+01 1.028571796417236328e+01 8.661302924156188965e-02 2.629755973815917969e+01 3.159396553039550781e+01 1.736745834350585938e+01 7.345876693725585938e+00
7.000000000000000000e+01 1.047619628906250000e+01 1.443550437688827515e-01 2.011250495910644531e+01 2.490856742858886719e+01 1.350632190704345703e+01 6.392539024353027344e+00
7.100000000000000000e+01 1.066667461395263672e+01 2.020970582962036133e-01 1.669294548034667969e+01 2.108251571655273438e+01 1.133263778686523438e+01 5.590988159179687500e+00
7.200000000000000000e+01 1.085715293884277344e+01 2.598390877246856689e-01 1.443422412872314453e+01 1.824402427673339844e+01 9.803474426269531250e+00 5.010817527770996094e+00
7.300000000000000000e+01 1.026334762573242188e+01 1.406566202640533447e-01 2.293409156799316406e+01 3.356250381469726562e+01 1.694897842407226562e+01 8.841477394104003906e+00
7.400000000000000000e+01 1.043891334533691406e+01 2.344277054071426392e-01 1.695829582214355469e+01 2.700123596191406250e+01 1.318785953521728516e+01 7.348699092864990234e+00
7.500000000000000000e+01 1.061447906494140625e+01 3.281987905502319336e-01 1.389064788818359375e+01 2.271042823791503906e+01 1.098032283782958984e+01 6.394141674041748047e+00
7.600000000000000000e+01 1.079004383087158203e+01 4.219698905944824219e-01 1.201071357727050781e+01 1.999387359619140625e+01 9.601375579833984375e+00 5.695277690887451172e+00
7.700000000000000000e+01 1.023087024688720703e+01 1.893017292022705078e-01 1.865942192077636719e+01 3.629656219482421875e+01 1.648679542541503906e+01 9.090004920959472656e+00
7.800000000000000000e+01 1.038478469848632812e+01 3.155028820037841797e-01 1.318948268890380859e+01 2.915019989013671875e+01 1.270190429687500000e+01 7.116477489471435547e+00
7.900000000000000000e+01 1.053869819641113281e+01 4.417040348052978516e-01 1.065772247314453125e+01 2.472272682189941406e+01 1.061413478851318359e+01 6.037554264068603516e+00
8.000000000000000000e+01 1.069261169433593750e+01 5.679051876068115234e-01 8.989021301269531250e+00 2.162014389038085938e+01 9.182749748229980469e+00 5.359126567840576172e+00
8.100000000000000000e+01 1.018953227996826172e+01 2.306813150644302368e-01 1.390204715728759766e+01 3.895441055297851562e+01 1.585693740844726562e+01 7.807678699493408203e+00
8.200000000000000000e+01 1.031588745117187500e+01 3.844688534736633301e-01 9.465546607971191406e+00 3.105417442321777344e+01 1.215591621398925781e+01 5.505241394042968750e+00
8.300000000000000000e+01 1.044224262237548828e+01 5.382564067840576172e-01 7.424495220184326172e+00 2.626587295532226562e+01 1.010711002349853516e+01 4.568323135375976562e+00
8.400000000000000000e+01 1.056859779357910156e+01 6.920439004898071289e-01 6.038154125213623047e+00 2.308432960510253906e+01 8.736745834350585938e+00 4.007931709289550781e+00
8.500000000000000000e+01 1.014091968536376953e+01 2.632071673870086670e-01 9.445493698120117188e+00 4.089645385742187500e+01 1.510258388519287109e+01 4.873015403747558594e+00
8.600000000000000000e+01 1.023486614227294922e+01 4.386786222457885742e-01 6.332639694213867188e+00 3.200235748291015625e+01 1.150049877166748047e+01 2.726976394653320312e+00
8.700000000000000000e+01 1.032881259918212891e+01 6.141500473022460938e-01 4.701090335845947266e+00 2.695522880554199219e+01 9.496895790100097656e+00 2.124886989593505859e+00
8.800000000000000000e+01 1.042275905609130859e+01 7.896215319633483887e-01 3.801767110824584961e+00 2.366869735717773438e+01 8.241139411926269531e+00 1.846480369567871094e+00
8.900000000000000000e+01 1.008689880371093750e+01 2.856309711933135986e-01 6.124531745910644531e+00 4.134844207763671875e+01 1.424189186096191406e+01 5.636404752731323242e-01
9.000000000000000000e+01 1.014483070373535156e+01 4.760516285896301270e-01 4.146961212158203125e+00 3.153212928771972656e+01 1.070372772216796875e+01 -7.898930907249450684e-01
9.100000000000000000e+01 1.020276355743408203e+01 6.664722561836242676e-01 3.044457674026489258e+00 2.638451957702636719e+01 8.828693389892578125e+00 -8.971419930458068848e-01
9.200000000000000000e+01 1.026069545745849609e+01 8.568928837776184082e-01 2.269548892974853516e+00 2.301087188720703125e+01 7.584125995635986328e+00 -9.074841737747192383e-01
9.300000000000000000e+01 1.002954196929931641e+01 2.970920503139495850e-01 4.368750572204589844e+00 3.963982391357421875e+01 1.320257282257080078e+01 -4.429668426513671875e+00
9.400000000000000000e+01 1.004923725128173828e+01 4.951534271240234375e-01 3.315206289291381836e+00 2.944172096252441406e+01 9.827077865600585938e+00 -4.448623657226562500e+00
9.500000000000000000e+01 1.006893157958984375e+01 6.932148337364196777e-01 2.422415256500244141e+00 2.432298278808593750e+01 8.023619651794433594e+00 -4.022263526916503906e+00
9.600000000000000000e+01 1.008862686157226562e+01 8.912761807441711426e-01 1.790558099746704102e+00 2.115373420715332031e+01 6.883287906646728516e+00 -3.601574659347534180e+00
9.700000000000000000e+01 9.971052169799804688e+00 2.971505522727966309e-01 4.540741443634033203e+00 3.562805175781250000e+01 1.205063819885253906e+01 -9.187411308288574219e+00
9.800000000000000000e+01 9.951753616333007812e+00 4.952509105205535889e-01 3.660113573074340820e+00 2.563738250732421875e+01 8.789248466491699219e+00 -7.589088916778564453e+00
9.900000000000000000e+01 9.932455062866210938e+00 6.933512687683105469e-01 2.835748910903930664e+00 2.100193023681640625e+01 7.151303768157958984e+00 -6.606294631958007812e+00
1.000000000000000000e+02 9.913155555725097656e+00 8.914516568183898926e-01 2.270931720733642578e+00 1.804629325866699219e+01 6.095167160034179688e+00 -5.813530445098876953e+00
1.010000000000000000e+02 9.913672447204589844e+00 2.858042120933532715e-01 6.146533966064453125e+00 2.946233367919921875e+01 1.068266010284423828e+01 -1.263820266723632812e+01
1.020000000000000000e+02 9.856121063232421875e+00 4.763403236865997314e-01 4.989240646362304688e+00 2.060464668273925781e+01 7.678165912628173828e+00 -9.687129974365234375e+00
1.030000000000000000e+02 9.798569679260253906e+00 6.668764352798461914e-01 3.898546457290649414e+00 1.652023887634277344e+01 6.125635623931884766e+00 -8.080739974975585938e+00
1.040000000000000000e+02 9.741018295288085938e+00 8.574125766754150391e-01 3.281741142272949219e+00 1.423105907440185547e+01 5.253839969635009766e+00 -7.097991466522216797e+00
1.050000000000000000e+02 9.859606742858886719e+00 2.634885013103485107e-01 8.739948272705078125e+00 2.194738388061523438e+01 9.206199645996093750e+00 -1.412175464630126953e+01
1.060000000000000000e+02 9.766011238098144531e+00 4.391474723815917969e-01 6.402568817138671875e+00 1.478307914733886719e+01 6.355694293975830078e+00 -1.018289470672607422e+01
1.070000000000000000e+02 9.672415733337402344e+00 6.148064732551574707e-01 5.297562599182128906e+00 1.166030311584472656e+01 5.087359905242919922e+00 -8.317944526672363281e+00
1.080000000000000000e+02 9.578820228576660156e+00 7.904654741287231445e-01 4.244349479675292969e+00 9.821162223815917969e+00 4.219653606414794922e+00 -7.052467346191406250e+00
1.090000000000000000e+02 9.810929298400878906e+00 2.310599088668823242e-01 1.074156856536865234e+01 1.408813953399658203e+01 7.448912620544433594e+00 -1.317960357666015625e+01
1.100000000000000000e+02 9.684882164001464844e+00 3.850998580455780029e-01 7.580437660217285156e+00 8.964064598083496094e+00 4.963350772857666016e+00 -9.087554931640625000e+00
1.110000000000000000e+02 9.558835029602050781e+00 5.391398072242736816e-01 5.917676448822021484e+00 6.969932556152343750e+00 3.866282701492309570e+00 -7.063768386840820312e+00
1.120000000000000000e+02 9.432787895202636719e+00 6.931797266006469727e-01 4.946024417877197266e+00 5.946349143981933594e+00 3.267712116241455078e+00 -6.086514472961425781e+00
1.130000000000000000e+02 9.769508361816406250e+00 1.897630989551544189e-01 1.151565265655517578e+01 6.802158355712890625e+00 5.495343208312988281e+00 -1.007219791412353516e+01
1.140000000000000000e+02 9.615847587585449219e+00 3.162718117237091064e-01 7.101141929626464844e+00 4.035190582275390625e+00 3.340899705886840820e+00 -6.408121585845947266e+00
1.150000000000000000e+02 9.462185859680175781e+00 4.427805542945861816e-01 5.579041957855224609e+00 3.226762294769287109e+00 2.641741275787353516e+00 -4.941889762878417969e+00
1.160000000000000000e+02 9.308525085449218750e+00 5.692892670631408691e-01 4.364051818847656250e+00 3.043025970458984375e+00 2.222123384475708008e+00 -4.089032649993896484e+00
1.170000000000000000e+02 9.736933708190917969e+00 1.411830335855484009e-01 9.043848037719726562e+00 1.329352259635925293e+00 3.111960172653198242e+00 -5.434449195861816406e+00
1.180000000000000000e+02 9.561555862426757812e+00 2.353050708770751953e-01 5.048726558685302734e+00 4.832360446453094482e-01 1.659588813781738281e+00 -2.951656579971313477e+00
1.190000000000000000e+02 9.386178970336914062e+00 3.294270932674407959e-01 3.047213315963745117e+00 1.197702646255493164e+00 1.273474812507629395e+00 -2.259652853012084961e+00
1.200000000000000000e+02 9.210802078247070312e+00 4.235491156578063965e-01 2.730850934982299805e+00 1.219693303108215332e+00 1.185163259506225586e+00 -2.237289905548095703e+00
1.210000000000000000e+02 9.714455604553222656e+00 8.718428760766983032e-02 3.397275447845458984e+00 -2.506075382232666016e+00 2.673600316047668457e-01 1.880052834749221802e-01
1.220000000000000000e+02 9.524093627929687500e+00 1.453071534633636475e-01 -7.144206762313842773e-01 -1.957095265388488770e-01 -2.730390429496765137e-01 5.451720952987670898e-02
1.230000000000000000e+02 9.333730697631835938e+00 2.034300118684768677e-01 1.225013360381126404e-01 5.026839375495910645e-01 1.875555813312530518e-01 -8.648023605346679688e-01
1.240000000000000000e+02 9.143367767333984375e+00 2.615528702735900879e-01 -3.022142946720123291e-01 -4.564332216978073120e-02 -1.043572872877120972e-01 -3.585801422595977783e-01
1.250000000000000000e+02 9.702937126159667969e+00 2.983934059739112854e-02 -1.127955913543701172e+01 -2.271175622940063477e+00 -4.065220355987548828e+00 3.216799020767211914e+00
1.260000000000000000e+02 9.504896163940429688e+00 4.973223432898521423e-02 -4.613657951354980469e+00 7.477633357048034668e-01 -1.159768342971801758e+00 -1.365014463663101196e-01
1.270000000000000000e+02 9.306854248046875000e+00 6.962513178586959839e-02 -4.382329940795898438e+00 -3.776037395000457764e-01 -1.427980065345764160e+00 3.665964901447296143e-01
1.280000000000000000e+02 9.108813285827636719e+00 8.951802551746368408e-02 -3.875290870666503906e+00 1.558765321969985962e-01 -1.115824341773986816e+00 1.539580523967742920e-01
1.290000000000000000e+02 1.158342361450195312e-01 -9.552106857299804688e-01 -2.147236093878746033e-02 -8.219964802265167236e-02 -3.110160306096076965e-02 -2.934298664331436157e-02
1.300000000000000000e+02 9.452310949563980103e-02 -5.196542143821716309e-01 -1.370514463633298874e-02 -1.702521368861198425e-02 -9.219107218086719513e-03 -1.472959481179714203e-02
1.310000000000000000e+02 8.047272264957427979e-02 -3.348883092403411865e-01 3.016766393557190895e-03 1.860318443505093455e-04 9.608395048417150974e-04 1.068561105057597160e-03
1.320000000000000000e+02 6.704595088958740234e-01 -1.189597725868225098e+00 -2.599930204451084137e-02 -1.101342812180519104e-01 -4.084007441997528076e-02 -1.403716653585433960e-01
1.330000000000000000e+02 4.989198446273803711e-01 -1.392871141433715820e+00 -1.932890526950359344e-02 -1.483266204595565796e-01 -5.029666051268577576e-02 -1.227228641510009766e-01
1.340000000000000000e+02 6.919136643409729004e-01 -1.388064265251159668e+00 -1.673504710197448730e-02 -1.526629924774169922e-01 -5.081941187381744385e-02 -1.315745860338211060e-01
1.350000000000000000e+02 2.494502544403076172e+00 -1.354987144470214844e+00 -4.316497594118118286e-02 4.929674044251441956e-02 1.839529606513679028e-03 -2.017114311456680298e-01
1.360000000000000000e+02 2.919969081878662109e+00 -1.376239299774169922e+00 -2.655967511236667633e-02 1.090076789259910583e-01 2.473440207540988922e-02 -1.592143177986145020e-01
1.370000000000000000e+02 2.470916032791137695e+00 -1.059127449989318848e+00 -1.411006599664688110e-01 2.702896669507026672e-02 -3.422150760889053345e-02 -1.847738325595855713e-01
1.380000000000000000e+02 2.876306295394897461e+00 -9.978117346763610840e-01 -1.997318118810653687e-01 6.613024324178695679e-02 -4.008047282695770264e-02 -1.582541912794113159e-01
1.390000000000000000e+02 2.802544832229614258e+00 -6.208453774452209473e-01 -3.750837445259094238e-01 1.241880096495151520e-02 -1.087994799017906189e-01 -1.596749424934387207e-01
1.400000000000000000e+02 3.299050569534301758e+00 -1.486306041479110718e-01 -7.994490861892700195e-01 -1.511186244897544384e-03 -2.402880787849426270e-01 -4.467036575078964233e-02
1.410000000000000000e+02 3.092912435531616211e+00 -1.450943201780319214e-01 -7.468228936195373535e-01 -5.446851719170808792e-04 -2.242102771997451782e-01 -4.058503732085227966e-02
1.420000000000000000e+02 3.699659109115600586e+00 -1.269613206386566162e-01 -8.854628205299377441e-01 -1.392878498882055283e-02 -2.698174715042114258e-01 -3.468656912446022034e-02
1.430000000000000000e+02 3.894185304641723633e+00 -1.247326359152793884e-01 -9.219646453857421875e-01 1.950566843152046204e-02 -2.707377076148986816e-01 -2.456994168460369110e-02
1.440000000000000000e+02 5.521253585815429688e+00 -1.368425250053405762e+00 9.374796152114868164e-01 3.995563685894012451e-01 4.011107981204986572e-01 7.828719615936279297e-01
1.450000000000000000e+02 5.718832492828369141e+00 -1.378246426582336426e+00 1.102877736091613770e+00 4.366245865821838379e-01 4.618507027626037598e-01 8.760198950767517090e-01
1.460000000000000000e+02 5.892667293548583984e+00 -1.387828886508941650e-01 -6.888827085494995117e-01 2.459621243178844452e-02 -1.992859542369842529e-01 5.217073485255241394e-02
1.470000000000000000e+02 5.484801769256591797e+00 -1.456770151853561401e-01 -8.382410407066345215e-01 2.752112224698066711e-02 -2.432159781455993652e-01 3.423805534839630127e-02
1.480000000000000000e+02 6.314941406250000000e+00 -1.399257540702819824e+00 1.746973395347595215e+00 6.409341096878051758e-01 7.163722515106201172e-01 1.424811005592346191e+00
1.490000000000000000e+02 6.297612190246582031e+00 -1.303483098745346069e-01 -4.801428020000457764e-01 2.975083328783512115e-02 -1.351175904273986816e-01 7.214996218681335449e-02
1.500000000000000000e+02 6.114730358123779297e+00 -1.392511487007141113e+00 1.497314691543579102e+00 5.196672677993774414e-01 6.050945520401000977e-01 1.178251862525939941e+00
1.510000000000000000e+02 6.672454357147216797e+00 -1.408431291580200195e+00 2.115051507949829102e+00 8.326321244239807129e-01 8.843050599098205566e-01 1.748374462127685547e+00
1.520000000000000000e+02 7.689256191253662109e+00 -1.350958108901977539e+00 3.899317741394042969e+00 1.479088902473449707e+00 1.613522052764892578e+00 3.092629909515380859e+00
1.530000000000000000e+02 8.410909652709960938e+00 -3.483122587203979492e-01 4.129347324371337891e+00 1.635694205760955811e-01 1.287875056266784668e+00 1.337215781211853027e+00
1.540000000000000000e+02 8.302818298339843750e+00 -1.324055194854736328e+00 5.265788078308105469e+00 2.740036964416503906e+00 2.401747465133666992e+00 4.625634193420410156e+00
1.550000000000000000e+02 9.688844680786132812e+00 -1.044457077980041504e+00 6.746919631958007812e+00 1.486145114898681641e+01 6.482511043548583984e+00 9.078149795532226562e+00
1.560000000000000000e+02 1.025903892517089844e+01 -1.133519649505615234e+00 5.045982360839843750e+00 2.044088745117187500e+01 7.646060943603515625e+00 4.055539131164550781e+00
1.570000000000000000e+02 1.073481464385986328e+01 -1.144141316413879395e+00 6.394064903259277344e+00 1.864060020446777344e+01 7.510399818420410156e+00 4.655872583389282227e-01
1.580000000000000000e+02 1.108393096923828125e+01 -2.791437804698944092e-01 1.450105476379394531e+01 1.554791736602783203e+01 9.014691352844238281e+00 2.388324290513992310e-01
1.590000000000000000e+02 1.110609245300292969e+01 -8.639926463365554810e-02 1.493347072601318359e+01 1.516530799865722656e+01 9.029633522033691406e+00 1.838638305664062500e+00
1.600000000000000000e+02 1.125073242187500000e+01 3.355023860931396484e-01 1.194837570190429688e+01 1.444843959808349609e+01 7.919044494628906250e+00 4.049569606781005859e+00
1.610000000000000000e+02 1.096120643615722656e+01 5.763402581214904785e-01 9.817833900451660156e+00 1.796037292480468750e+01 8.333461761474609375e+00 5.142397403717041016e+00
1.620000000000000000e+02 1.065928459167480469e+01 8.806247115135192871e-01 4.566373348236083984e+00 2.087315177917480469e+01 7.631857395172119141e+00 3.199316263198852539e+00
1.630000000000000000e+02 9.162257194519042969e+00 1.101857781410217285e+00 3.390125513076782227e+00 5.094511985778808594e+00 2.545391321182250977e+00 -4.788038730621337891e+00
1.640000000000000000e+02 8.909451484680175781e+00 1.364026308059692383e+00 2.764916181564331055e+00 4.358422756195068359e+00 2.137001752853393555e+00 -4.017260551452636719e+00
1.650000000000000000e+02 8.948912620544433594e+00 3.158051371574401855e-01 -4.088295996189117432e-01 1.709533333778381348e-01 -7.136288285255432129e-02 -4.732394218444824219e-01
1.660000000000000000e+02 8.910804748535156250e+00 1.078275069594383240e-01 -3.631595611572265625e+00 -1.162483394145965576e-01 -1.124353170394897461e+00 1.664566695690155029e-01
1.670000000000000000e+02 8.536369323730468750e+00 3.947198987007141113e-01 -9.192022681236267090e-01 1.508806794881820679e-01 -2.304964810609817505e-01 -2.466564476490020752e-01
1.680000000000000000e+02 9.712758064270019531e+00 1.387733101844787598e+00 1.732281088829040527e+00 1.250011348724365234e+01 4.269718170166015625e+00 -5.039515495300292969e+00
1.690000000000000000e+02 9.905720710754394531e+00 1.375819563865661621e+00 1.292178511619567871e+00 1.469740962982177734e+01 4.796876430511474609e+00 -4.315324306488037109e+00
1.700000000000000000e+02 8.702444076538085938e+00 1.370556354522705078e+00 2.642464160919189453e+00 3.154736280441284180e+00 1.739160180091857910e+00 -3.349871397018432617e+00
1.710000000000000000e+02 8.508754730224609375e+00 1.347165107727050781e-01 -3.335999250411987305e+00 -2.503537759184837341e-02 -1.008310437202453613e+00 1.106213033199310303e-01
1.720000000000000000e+02 8.101596832275390625e+00 1.356433868408203125e+00 1.659585237503051758e+00 1.312426328659057617e+00 8.916034698486328125e-01 -1.688612461090087891e+00
1.730000000000000000e+02 8.103774070739746094e+00 1.460121721029281616e-01 -3.155274629592895508e+00 -3.237771987915039062e-02 -9.562957286834716797e-01 6.910769641399383545e-02
1.740000000000000000e+02 5.695895671844482422e+00 1.386821031570434570e+00 -2.977128326892852783e-01 1.173011809587478638e-01 -5.412349477410316467e-02 1.752433627843856812e-01
1.750000000000000000e+02 5.114307403564453125e+00 1.096266388893127441e+00 -6.687116622924804688e-01 2.591722458600997925e-02 -1.928383260965347290e-01 3.153696656227111816e-01
1.760000000000000000e+02 5.508736133575439453e+00 1.152617573738098145e+00 -5.826619267463684082e-01 4.718305543065071106e-02 -1.606436669826507568e-01 2.708503901958465576e-01
1.770000000000000000e+02 3.705371618270874023e+00 1.385451078414916992e+00 -3.789085149765014648e-01 -3.580206306651234627e-03 -1.147466152906417847e-01 3.976382613182067871e-01
1.780000000000000000e+02 3.707933187484741211e+00 1.598374396562576294e-01 -1.064771413803100586e+00 3.226735861971974373e-04 -3.193346261978149414e-01 8.043559640645980835e-02
1.790000000000000000e+02 4.129785537719726562e+00 8.771088123321533203e-01 -7.427265048027038574e-01 1.084929390344768763e-04 -2.227854132652282715e-01 3.327217996120452881e-01
1.800000000000000000e+02 3.529339075088500977e+00 6.908538937568664551e-01 -7.102843523025512695e-01 -1.463126577436923981e-02 -2.174746841192245483e-01 2.696949541568756104e-01
1.810000000000000000e+02 3.317279100418090820e+00 1.370108008384704590e+00 -3.605532050132751465e-01 -1.755139604210853577e-02 -1.134313791990280151e-01 4.133734405040740967e-01
1.820000000000000000e+02 3.117893695831298828e+00 1.336868524551391602e+00 -3.328825533390045166e-01 -3.190119937062263489e-02 -1.094351261854171753e-01 4.058047533035278320e-01
1.830000000000000000e+02 3.043033838272094727e+00 8.875674605369567871e-01 -4.964092969894409180e-01 -1.749194785952568054e-02 -1.541703641414642334e-01 3.205861151218414307e-01
1.840000000000000000e+02 2.487853288650512695e+00 1.092489838600158691e+00 -3.209502995014190674e-01 -4.920551925897598267e-02 -1.110467463731765747e-01 3.364175558090209961e-01
1.850000000000000000e+02 2.895749568939208984e+00 1.686940938234329224e-01 -6.811646223068237305e-01 2.433659938105847687e-05 -2.043420821428298950e-01 6.895036995410919189e-02
1.860000000000000000e+02 2.300387144088745117e+00 1.371603012084960938e+00 -2.367347180843353271e-01 -7.228002697229385376e-02 -9.270442277193069458e-02 3.646352887153625488e-01
1.870000000000000000e+02 9.027634263038635254e-01 1.380576014518737793e+00 -5.481166020035743713e-02 -1.488448828458786011e-01 -6.109696254134178162e-02 1.841912120580673218e-01
1.880000000000000000e+02 7.064817547798156738e-01 1.379356741905212402e+00 -2.352483570575714111e-02 -1.739662736654281616e-01 -5.924733355641365051e-02 1.476928293704986572e-01
1.890000000000000000e+02 5.074881911277770996e-01 1.412107199430465698e-01 -3.040530020371079445e-03 -5.535617005079984665e-03 -2.572844037786126137e-03 5.560273770242929459e-03
1.900000000000000000e+02 1.111962795257568359e+00 1.164401471614837646e-01 -5.453404411673545837e-02 -9.069847874343395233e-03 -1.908116787672042847e-02 1.580132544040679932e-02
1.910000000000000000e+02 3.042126297950744629e-01 1.387158036231994629e+00 -4.302622750401496887e-03 -1.642662584781646729e-01 -5.057066306471824646e-02 7.681450247764587402e-02
1.920000000000000000e+02 1.001381948590278625e-01 9.661881327629089355e-01 4.565683659166097641e-03 -3.690394014120101929e-02 -9.701477363705635071e-03 1.124269422143697739e-02
1.930000000000000000e+02 9.696643054485321045e-02 7.573472261428833008e-01 -5.943250376731157303e-03 -1.347469538450241089e-02 -5.825383588671684265e-03 9.816502220928668976e-03
1.940000000000000000e+02 9.930790960788726807e-02 3.400205671787261963e-01 -1.885785604827105999e-03 2.796337706968188286e-03 2.731656713876873255e-04 -5.060444236733019352e-04
1.950000000000000000e+02 9.669021517038345337e-02 5.493029952049255371e-01 -7.196777150966227055e-04 -3.956407454097643495e-05 -2.277725288877263665e-04 2.699185861274600029e-03
1.960000000000000000e+02 3.021513521671295166e-01 1.321522593498229980e-01 1.403279136866331100e-03 -1.448852010071277618e-03 -1.367184631817508489e-05 1.910727587528526783e-04
1.970000000000000000e+02 9.223401546478271484e-01 1.477951705455780029e-01 -3.242585808038711548e-02 1.691414043307304382e-03 -9.220333769917488098e-03 1.159619633108377457e-02
1.980000000000000000e+02 1.470306277275085449e+00 1.393156498670578003e-01 -1.565746366977691650e-01 -8.041863329708576202e-03 -4.938495159149169922e-02 3.311952576041221619e-02
1.990000000000000000e+02 1.504559159278869629e+00 1.359539151191711426e+00 -1.175595223903656006e-01 -1.318428814411163330e-01 -7.482072710990905762e-02 2.727499604225158691e-01
2.000000000000000000e+02 1.882001399993896484e+00 1.690664887428283691e-01 -2.840840518474578857e-01 -2.371226670220494270e-03 -8.593658357858657837e-02 5.296906456351280212e-02
2.010000000000000000e+02 1.675266385078430176e+00 1.561140567064285278e-01 -2.174986302852630615e-01 -9.402274154126644135e-03 -6.807027012109756470e-02 4.593577235937118530e-02
2.020000000000000000e+02 2.088147163391113281e+00 1.728044748306274414e-01 -3.504823148250579834e-01 -2.806843025609850883e-03 -1.059867441654205322e-01 5.557179450988769531e-02
2.030000000000000000e+02 1.910987615585327148e+00 1.378558754920959473e+00 -1.705751270055770874e-01 -1.035407409071922302e-01 -8.223476260900497437e-02 3.296317756175994873e-01
2.040000000000000000e+02 3.938179492950439453e+00 4.657450318336486816e-01 -9.742915630340576172e-01 -6.709891837090253830e-03 -2.943004369735717773e-01 2.086115628480911255e-01
2.050000000000000000e+02 4.308200359344482422e+00 1.459887772798538208e-01 -1.371438980102539062e+00 4.588602110743522644e-03 -4.100551009178161621e-01 7.636676728725433350e-02
2.060000000000000000e+02 5.096124649047851562e+00 1.248127669095993042e-01 -1.787783265113830566e+00 2.270472235977649689e-03 -5.356538295745849609e-01 6.644497066736221313e-02
2.070000000000000000e+02 6.690669059753417969e+00 1.378771901130676270e+00 1.020933240652084351e-01 2.812861204147338867e-01 1.150138303637504578e-01 -1.705635040998458862e-01
2.080000000000000000e+02 7.113923072814941406e+00 3.806204199790954590e-01 -1.962480187416076660e+00 4.710081033408641815e-03 -5.873310565948486328e-01 1.328010559082031250e-01
2.090000000000000000e+02 7.700154304504394531e+00 1.426025778055191040e-01 -3.009740829467773438e+00 -1.689195074141025543e-02 -9.079898595809936523e-01 8.649012446403503418e-02
2.100000000000000000e+02 7.701015472412109375e+00 6.891489624977111816e-01 -6.540226340293884277e-01 1.007200777530670166e-01 -1.659907698631286621e-01 -1.357589662075042725e-01
2.110000000000000000e+02 9.123010635375976562e+00 7.135878205299377441e-01 3.638304948806762695e+00 2.583776473999023438e+00 1.866624474525451660e+00 -3.639888763427734375e+00
2.120000000000000000e+02 9.280339241027832031e+00 8.688903450965881348e-01 4.057882308959960938e+00 5.111229419708251953e+00 2.750733375549316406e+00 -5.081184864044189453e+00
2.130000000000000000e+02 1.029301166534423828e+01 1.328771829605102539e+00 1.066951751708984375e+00 1.783392524719238281e+01 5.670263290405273438e+00 -1.597275853157043457e+00
2.140000000000000000e+02 1.085127162933349609e+01 -7.153082489967346191e-01 1.081324100494384766e+01 1.873429298400878906e+01 8.864260673522949219e+00 -1.071910023689270020e+00
2.150000000000000000e+02 1.038669395446777344e+01 -1.044695854187011719e+00 5.795562267303466797e+00 2.119412803649902344e+01 8.096907615661621094e+00 2.727536201477050781e+00
2.160000000000000000e+02 1.023865318298339844e+01 -1.373344063758850098e+00 3.989140510559082031e+00 1.827356147766113281e+01 6.678811073303222656e+00 4.552782535552978516e+00
2.170000000000000000e+02 8.705793380737304688e+00 -4.061450958251953125e-01 6.042017459869384766e+00 5.520666837692260742e-01 1.978225350379943848e+00 2.204738140106201172e+00
2.180000000000000000e+02 7.281956672668457031e+00 -1.351641416549682617e+00 3.129215717315673828e+00 9.703279733657836914e-01 1.229863047599792480e+00 2.360299825668334961e+00
2.190000000000000000e+02 6.853759765625000000e+00 -1.359755992889404297e+00 2.377830982208251953e+00 7.798749208450317383e-01 9.473117589950561523e-01 1.835341453552246094e+00
2.200000000000000000e+02 6.702738761901855469e+00 -1.331013590097427368e-01 -1.846558004617691040e-01 4.073844477534294128e-02 -4.317520931363105774e-02 1.067471951246261597e-01
2.210000000000000000e+02 5.115441322326660156e+00 -1.330337047576904297e+00 6.209868192672729492e-01 3.326691985130310059e-01 2.860968112945556641e-01 5.533675551414489746e-01
2.220000000000000000e+02 2.153861999511718750e+00 -1.689965426921844482e-01 -4.154103398323059082e-01 7.545711006969213486e-03 -1.223593875765800476e-01 -6.187327951192855835e-02
2.230000000000000000e+02 2.294748306274414062e+00 -1.361813902854919434e+00 -4.477792978286743164e-02 3.010218404233455658e-02 -4.402724094688892365e-03 -1.857319623231887817e-01
2.240000000000000000e+02 1.729924559593200684e+00 -4.902286231517791748e-01 -2.320914715528488159e-01 -1.537337247282266617e-02 -7.423945516347885132e-02 -1.207839846611022949e-01
2.250000000000000000e+02 1.307962417602539062e+00 -1.655665636062622070e-01 -1.756975054740905762e-01 8.907709270715713501e-03 -5.003693699836730957e-02 -4.366070777177810669e-02
2.260000000000000000e+02 1.026552543044090271e-01 -1.392542600631713867e+00 -6.363341957330703735e-02 -1.739380508661270142e-01 -7.127144187688827515e-02 -3.966566175222396851e-02
2.270000000000000000e+02 9.305203437805175781e+00 -8.744363784790039062e-01 9.107384681701660156e+00 7.405035495758056641e+00 4.953725814819335938e+00 8.454672813415527344e+00
2.280000000000000000e+02 1.704760074615478516e+00 -1.067720770835876465e+00 -9.450519084930419922e-02 -2.713860757648944855e-02 -3.649313747882843018e-02 -1.885614693164825439e-01
2.290000000000000000e+02 3.718739748001098633e+00 4.421119987964630127e-01 -9.003956913948059082e-01 -6.424107123166322708e-03 -2.720459401607513428e-01 2.009099721908569336e-01
2.300000000000000000e+02 9.469409942626953125e+00 9.639760851860046387e-01 3.822979211807250977e+00 8.687654495239257812e+00 3.753190040588378906e+00 -6.297667026519775391e+00
2.310000000000000000e+02 3.109212875366210938e+00 -1.420225858688354492e+00 4.509086534380912781e-02 1.344347000122070312e-01 5.385766923427581787e-02 -7.097962498664855957e-02
2.320000000000000000e+02 3.673345804214477539e+00 -1.356542825698852539e+00 7.951419800519943237e-02 1.568293422460556030e-01 7.090306282043457031e-02 -8.224993944168090820e-03
2.330000000000000000e+02 9.901885986328125000e+00 -1.074750423431396484e+00 5.704047679901123047e+00 1.815213775634765625e+01 7.156855583190917969e+00 7.698850631713867188e+00
2.340000000000000000e+02 1.107758998870849609e+01 1.039674431085586548e-01 1.467369651794433594e+01 1.547037506103515625e+01 9.043221473693847656e+00 3.267916440963745117e+00
2.350000000000000000e+02 1.089429092407226562e+01 9.207270741462707520e-01 5.579230308532714844e+00 1.860085487365722656e+01 7.254025459289550781e+00 4.027201175689697266e+00
2.360000000000000000e+02 1.080690765380859375e+01 1.168788671493530273e+00 3.503212928771972656e+00 1.803341102600097656e+01 6.460987567901611328e+00 2.538990020751953125e+00
2.370000000000000000e+02 1.065894412994384766e+01 1.228479743003845215e+00 2.393341064453125000e+00 1.876156044006347656e+01 6.346470355987548828e+00 1.415001153945922852e+00
2.380000000000000000e+02 1.009926033020019531e+01 1.109326839447021484e+00 1.402428150177001953e+00 1.876225471496582031e+01 6.049404621124267578e+00 -3.396274566650390625e+00
2.390000000000000000e+02 9.517053604125976562e+00 1.392658829689025879e+00 2.266970872879028320e+00 9.725272178649902344e+00 3.597672939300537109e+00 -5.463132858276367188e+00
2.400000000000000000e+02 7.899786949157714844e+00 1.355904221534729004e+00 1.385033249855041504e+00 1.015426635742187500e+00 7.201379537582397461e-01 -1.342815041542053223e+00
2.410000000000000000e+02 7.492914676666259766e+00 1.346846580505371094e+00 8.154723644256591797e-01 6.102765798568725586e-01 4.277246892452239990e-01 -7.993371486663818359e-01
2.420000000000000000e+02 6.091519355773925781e+00 1.358504295349121094e+00 -2.018157988786697388e-01 1.602040678262710571e-01 -1.248352136462926865e-02 7.239966094493865967e-02
2.430000000000000000e+02 4.462540626525878906e+00 1.066448926925659180e+00 -6.481398940086364746e-01 7.618892006576061249e-03 -1.921562999486923218e-01 3.549797832965850830e-01
2.440000000000000000e+02 4.094229698181152344e+00 1.372979164123535156e+00 -4.074625968933105469e-01 9.495276957750320435e-03 -1.193901970982551575e-01 3.857295811176300049e-01
2.450000000000000000e+02 1.286486506462097168e+00 1.162464618682861328e+00 -1.140802130103111267e-01 -1.130961999297142029e-01 -6.815292686223983765e-02 2.216528952121734619e-01
2.460000000000000000e+02 1.014702394604682922e-01 1.391971230506896973e+00 3.248326480388641357e-02 -9.562546014785766602e-02 -1.894265785813331604e-02 1.098773907870054245e-03
2.470000000000000000e+02 1.003239825367927551e-01 1.273108571767807007e-01 1.049812766723334789e-03 7.313608657568693161e-04 5.343520897440612316e-04 -9.405447635799646378e-04
2.480000000000000000e+02 7.329292297363281250e-01 4.319826960563659668e-01 -4.717976599931716919e-02 -2.185439132153987885e-02 -2.071024663746356964e-02 4.234709963202476501e-02
2.490000000000000000e+02 1.386239290237426758e+00 3.766362667083740234e-01 -1.488342285156250000e-01 -1.503820344805717468e-02 -4.916172847151756287e-02 8.897913992404937744e-02
2.500000000000000000e+02 2.292985677719116211e+00 1.655435413122177124e-01 -4.247051775455474854e-01 -8.459171280264854431e-03 -1.299493014812469482e-01 6.306724995374679565e-02
2.510000000000000000e+02 2.695286035537719727e+00 1.684379279613494873e-01 -5.972009301185607910e-01 -1.992434263229370117e-03 -1.797580122947692871e-01 6.852253526449203491e-02
2.520000000000000000e+02 3.501118183135986328e+00 4.493677020072937012e-01 -8.167816400527954102e-01 -5.987407173961400986e-03 -2.468307167291641235e-01 1.981746405363082886e-01
2.530000000000000000e+02 4.504174232482910156e+00 1.370491534471511841e-01 -1.472204089164733887e+00 -1.475048717111349106e-03 -4.421037435531616211e-01 7.279288768768310547e-02
2.540000000000000000e+02 5.468919277191162109e+00 4.039701819419860840e-01 -1.579237580299377441e+00 -8.927004411816596985e-03 -4.764493703842163086e-01 1.854211091995239258e-01
2.550000000000000000e+02 5.696718215942382812e+00 1.538996994495391846e-01 -2.076658725738525391e+00 -6.082712672650814056e-03 -6.248224377632141113e-01 8.453468233346939087e-02
2.560000000000000000e+02 6.107610225677490234e+00 1.532623320817947388e-01 -2.270997524261474609e+00 -6.742632947862148285e-03 -6.833220720291137695e-01 8.655392378568649292e-02
2.570000000000000000e+02 6.509176254272460938e+00 1.416981220245361328e-01 -2.477835893630981445e+00 2.428414998576045036e-03 -7.426222562789916992e-01 8.443804830312728882e-02
2.580000000000000000e+02 6.906415462493896484e+00 1.331113576889038086e-01 -2.672389745712280273e+00 -1.804698817431926727e-02 -8.071309924125671387e-01 8.245025575160980225e-02
2.590000000000000000e+02 8.711063385009765625e+00 1.229138299822807312e-01 -3.459107160568237305e+00 2.993285469710826874e-02 -1.028752207756042480e+00 1.109680756926536560e-01
2.600000000000000000e+02 1.103953266143798828e+01 2.695617675781250000e-01 1.341909980773925781e+01 1.642346954345703125e+01 8.952771186828613281e+00 4.585542678833007812e+00
2.610000000000000000e+02 1.114456081390380859e+01 7.576981186866760254e-01 7.859859466552734375e+00 1.614408111572265625e+01 7.201181888580322266e+00 4.700413703918457031e+00
2.620000000000000000e+02 1.048062229156494141e+01 1.001647591590881348e+00 2.755517244338989258e+00 2.101209068298339844e+01 7.130282402038574219e+00 1.164039134979248047e+00
2.630000000000000000e+02 8.897590637207031250e+00 -1.108529567718505859e-01 4.312529563903808594e+00 -1.655681133270263672e-01 1.244088411331176758e+00 5.572831034660339355e-01
2.640000000000000000e+02 9.020002365112304688e+00 -6.818686127662658691e-01 9.053015708923339844e+00 2.913737535476684570e+00 3.590025901794433594e+00 5.499636173248291016e+00
2.650000000000000000e+02 9.486912727355957031e+00 -9.693363308906555176e-01 8.204652786254882812e+00 1.111336231231689453e+01 5.795404434204101562e+00 9.227942466735839844e+00
2.660000000000000000e+02 1.111808109283447266e+01 -4.630428850650787354e-01 1.307845211029052734e+01 1.553710079193115234e+01 8.584666252136230469e+00 -3.824975788593292236e-01
2.670000000000000000e+02 8.106524467468261719e+00 -1.612324267625808716e-01 1.906116962432861328e+00 -1.093194261193275452e-01 5.390392541885375977e-01 3.717775046825408936e-01
2.680000000000000000e+02 6.295588970184326172e+00 -3.674811720848083496e-01 6.073114275932312012e-02 1.764885708689689636e-02 2.351399883627891541e-02 2.438484430313110352e-01
2.690000000000000000e+02 5.241594791412353516e+00 -4.145678877830505371e-01 -4.144652485847473145e-01 5.372757464647293091e-02 -1.082213073968887329e-01 1.164490357041358948e-01
2.700000000000000000e+02 4.866126537322998047e+00 -3.414294123649597168e-01 -6.440813541412353516e-01 2.439859509468078613e-02 -1.859048306941986084e-01 2.904074266552925110e-02
2.710000000000000000e+02 2.643744945526123047e+00 -3.284434974193572998e-01 -5.080699324607849121e-01 2.131096320226788521e-03 -1.517816483974456787e-01 -1.025275439023971558e-01
2.720000000000000000e+02 2.499970436096191406e+00 -9.817486256361007690e-02 -5.865069031715393066e-01 -6.824347656220197678e-03 -1.779993772506713867e-01 -2.619691565632820129e-02
2.730000000000000000e+02 1.716540455818176270e+00 -1.788551807403564453e-01 -2.928671836853027344e-01 9.095195564441382885e-04 -8.758729696273803711e-02 -5.880332738161087036e-02
2.740000000000000000e+02 9.602549672126770020e-02 -1.283648163080215454e-01 -5.430880119092762470e-04 2.350196475163102150e-03 5.421325913630425930e-04 4.125740961171686649e-04
2.750000000000000000e+02 1.071215724945068359e+01 -8.493782281875610352e-01 8.776764869689941406e+00 2.012695693969726562e+01 8.671116828918457031e+00 -4.868858754634857178e-01
2.760000000000000000e+02 8.993978500366210938e+00 -1.087878465652465820e+00 7.464193344116210938e+00 5.390106678009033203e+00 3.856290102005004883e+00 6.909161090850830078e+00
2.770000000000000000e+02 1.125597381591796875e+01 -6.092246174812316895e-01 1.151068782806396484e+01 1.460386657714843750e+01 7.834366321563720703e+00 -7.873472571372985840e-01
2.780000000000000000e+02 9.019884109497070312e+00 5.161942839622497559e-01 2.010573863983154297e+00 7.031204104423522949e-01 8.141083121299743652e-01 -1.711231946945190430e+00
2.790000000000000000e+02 1.082630920410156250e+01 7.334623932838439941e-01 7.315170288085937500e+00 1.951012420654296875e+01 8.047588348388671875e+00 4.714310169219970703e+00
2.800000000000000000e+02 9.552035331726074219e+00 1.194209575653076172e+00 2.760778427124023438e+00 1.010511207580566406e+01 3.859767198562622070e+00 -5.767663002014160156e+00
2.810000000000000000e+02 1.088972091674804688e+01 -1.027581930160522461e+00 7.662851810455322266e+00 1.779469490051269531e+01 7.637263774871826172e+00 -4.045368731021881104e-01
2.820000000000000000e+02 1.125513172149658203e+01 5.939059853553771973e-01 9.485450744628906250e+00 1.510022830963134766e+01 7.375703811645507812e+00 4.781067371368408203e+00
2.830000000000000000e+02 1.131819057464599609e+01 -4.570733904838562012e-01 1.253713321685791016e+01 1.379370117187500000e+01 7.899250507354736328e+00 -8.298708498477935791e-02
2.840000000000000000e+02 1.102915954589843750e+01 -8.932558894157409668e-01 9.094620704650878906e+00 1.655055427551269531e+01 7.693552494049072266e+00 -9.338845610618591309e-01
2.850000000000000000e+02 1.134174919128417969e+01 -2.807932198047637939e-01 1.295680809020996094e+01 1.320366668701171875e+01 7.848142147064208984e+00 7.533032298088073730e-01
2.860000000000000000e+02 1.139057826995849609e+01 2.890876829624176025e-01 1.172304821014404297e+01 1.354585552215576172e+01 7.580670833587646484e+00 3.594574689865112305e+00
2.870000000000000000e+02 1.119312572479248047e+01 1.874526739120483398e-01 1.330830287933349609e+01 1.457601356506347656e+01 8.365294456481933594e+00 3.499027729034423828e+00
2.880000000000000000e+02 1.041065502166748047e+01 -1.317460656166076660e+00 4.449306488037109375e+00 1.882505607604980469e+01 6.982308864593505859e+00 3.043254852294921875e+00
2.890000000000000000e+02 1.009277725219726562e+01 -1.060697197914123535e+00 5.301456451416015625e+00 2.056156349182128906e+01 7.758905887603759766e+00 5.785909652709960938e+00
2.900000000000000000e+02 9.907473564147949219e+00 1.121070504188537598e+00 1.731151938438415527e+00 1.615031051635742188e+01 5.364439010620117188e+00 -5.075676441192626953e+00
2.910000000000000000e+02 1.048631954193115234e+01 1.271646022796630859e+00 1.670834064483642578e+00 1.871129417419433594e+01 6.114638328552246094e+00 1.083564013242721558e-01
2.920000000000000000e+02 1.057286930084228516e+01 -1.239858627319335938e+00 5.241937160491943359e+00 1.886924743652343750e+01 7.233355045318603516e+00 1.603588342666625977e+00
2.930000000000000000e+02 8.883888125419616699e-01 -1.356295228004455566e+00 -3.868489339947700500e-02 -1.029253602027893066e-01 -4.248307645320892334e-02 -1.798353344202041626e-01
2.940000000000000000e+02 3.040100336074829102e-01 -1.391423225402832031e+00 -2.101975306868553162e-02 -2.103537023067474365e-01 -6.941203773021697998e-02 -6.698402017354965210e-02
2.950000000000000000e+02 1.093045949935913086e+00 -1.335810899734497070e+00 -1.980385743081569672e-02 -1.145125702023506165e-01 -4.029492661356925964e-02 -1.710783243179321289e-01
2.960000000000000000e+02 1.500203132629394531e+00 -1.350065231323242188e+00 -2.799246087670326233e-02 -5.496449396014213562e-02 -2.488708682358264923e-02 -1.837174743413925171e-01
2.970000000000000000e+02 2.097192764282226562e+00 -1.366299629211425781e+00 -6.419841200113296509e-02 8.379510603845119476e-03 -1.674566976726055145e-02 -2.260709702968597412e-01
2.980000000000000000e+02 2.692356586456298828e+00 -1.078049063682556152e+00 -1.488595455884933472e-01 3.908688202500343323e-02 -3.293180093169212341e-02 -1.956470012664794922e-01
2.990000000000000000e+02 3.324770212173461914e+00 -1.174355626106262207e+00 -4.837923124432563782e-02 6.975360959768295288e-02 6.412313319742679596e-03 -9.924045950174331665e-02
3.000000000000000000e+02 4.124855041503906250e+00 -1.150144219398498535e+00 7.540296763181686401e-02 1.486509740352630615e-01 6.721618026494979858e-02 1.043618395924568176e-01
3.010000000000000000e+02 4.673169612884521484e+00 -1.339155793190002441e+00 3.690597414970397949e-01 2.824511528015136719e-01 1.954532712697982788e-01 3.457226157188415527e-01
3.020000000000000000e+02 6.360189914703369141e+00 -1.196414113044738770e+00 1.599841475486755371e+00 4.363990724086761475e-01 6.108721494674682617e-01 1.139940977096557617e+00
3.030000000000000000e+02 8.068883895874023438e+00 -1.039474606513977051e+00 4.829334259033203125e+00 1.448167324066162109e+00 1.883250474929809570e+00 3.247420787811279297e+00
3.040000000000000000e+02 8.091531753540039062e+00 -1.341143488883972168e+00 4.678959369659423828e+00 2.173627614974975586e+00 2.055776119232177734e+00 3.984802722930908203e+00
3.050000000000000000e+02 8.518143653869628906e+00 -1.328126549720764160e+00 5.804662704467773438e+00 3.395122289657592773e+00 2.759935617446899414e+00 5.266788959503173828e+00
3.060000000000000000e+02 9.530289649963378906e+00 -1.405190467834472656e+00 5.359241485595703125e+00 1.193593120574951172e+01 5.188551425933837891e+00 8.007043838500976562e+00
3.070000000000000000e+02 9.200761795043945312e+00 -1.108575105667114258e+00 7.622906684875488281e+00 7.479462146759033203e+00 4.530710697174072266e+00 7.809041976928710938e+00
3.080000000000000000e+02 9.713594436645507812e+00 -1.432682633399963379e+00 4.825363636016845703e+00 1.373873138427734375e+01 5.569228649139404297e+00 7.550277233123779297e+00
3.090000000000000000e+02 1.005361557006835938e+01 -1.406605482101440430e+00 4.068846225738525391e+00 1.669125556945800781e+01 6.228030681610107422e+00 5.613815307617187500e+00
3.100000000000000000e+02 8.696110725402832031e+00 1.115810751914978027e+00 2.567314147949218750e+00 2.162063598632812500e+00 1.418813347816467285e+00 -2.781947135925292969e+00
3.110000000000000000e+02 8.318943977355957031e+00 1.107985258102416992e+00 1.659523606300354004e+00 1.075726866722106934e+00 8.205751180648803711e-01 -1.643418073654174805e+00
3.120000000000000000e+02 8.301010131835937500e+00 1.368102073669433594e+00 1.940117120742797852e+00 1.685753107070922852e+00 1.087761044502258301e+00 -2.122729063034057617e+00
3.130000000000000000e+02 7.696302413940429688e+00 1.353312492370605469e+00 1.021577715873718262e+00 7.115148901939392090e-01 5.199277400970458984e-01 -9.819660186767578125e-01
3.140000000000000000e+02 7.086571216583251953e+00 1.363262772560119629e+00 3.633618056774139404e-01 3.865406215190887451e-01 2.249707281589508057e-01 -4.104483723640441895e-01
3.150000000000000000e+02 6.295311927795410156e+00 1.356781244277954102e+00 -1.375898569822311401e-01 1.790667772293090820e-01 1.244307868182659149e-02 2.067939750850200653e-02
3.160000000000000000e+02 6.853132724761962891e+00 1.123047709465026855e+00 -1.901774257421493530e-01 1.816396713256835938e-01 -2.561324276030063629e-03 -1.084039956331253052e-01
3.170000000000000000e+02 5.500124454498291016e+00 1.383009076118469238e+00 -3.645497858524322510e-01 9.328006207942962646e-02 -8.138091862201690674e-02 2.357605248689651489e-01
3.180000000000000000e+02 5.101686954498291016e+00 1.365977764129638672e+00 -3.820463120937347412e-01 6.445032358169555664e-02 -9.527879208326339722e-02 3.112156391143798828e-01
3.190000000000000000e+02 4.679098129272460938e+00 1.089977860450744629e+00 -6.538798809051513672e-01 1.215479150414466858e-02 -1.925175338983535767e-01 3.393508493900299072e-01
3.200000000000000000e+02 4.692054748535156250e+00 1.359875679016113281e+00 -4.181906282901763916e-01 2.627851068973541260e-02 -1.175736412405967712e-01 3.497044146060943604e-01
3.210000000000000000e+02 4.073109626770019531e+00 1.115261077880859375e+00 -5.604283809661865234e-01 -2.031698590144515038e-03 -1.687380373477935791e-01 3.604480624198913574e-01
3.220000000000000000e+02 4.261375904083251953e+00 1.089777827262878418e+00 -6.221598386764526367e-01 2.350414637476205826e-03 -1.859428286552429199e-01 3.549868464469909668e-01
3.230000000000000000e+02 3.370482921600341797e+00 1.137103438377380371e+00 -4.480780363082885742e-01 -2.493554912507534027e-02 -1.419040709733963013e-01 3.731193244457244873e-01
3.240000000000000000e+02 3.355420589447021484e+00 8.239315748214721680e-01 -6.084498763084411621e-01 -1.161151006817817688e-02 -1.860184073448181152e-01 3.073233366012573242e-01
3.250000000000000000e+02 2.907274961471557617e+00 1.331713795661926270e+00 -3.024119734764099121e-01 -4.448419809341430664e-02 -1.040688529610633850e-01 3.885126411914825439e-01
3.260000000000000000e+02 2.497857809066772461e+00 1.363923430442810059e+00 -2.487453073263168335e-01 -6.902373582124710083e-02 -9.533071517944335938e-02 3.655412495136260986e-01
3.270000000000000000e+02 1.712112069129943848e+00 1.357282161712646484e+00 -1.472020298242568970e-01 -1.153384149074554443e-01 -7.876212894916534424e-02 3.004132211208343506e-01
3.280000000000000000e+02 5.158184766769409180e-01 1.148278355598449707e+00 -2.045539766550064087e-02 -1.222678050398826599e-01 -4.281696304678916931e-02 9.550885856151580811e-02
3.290000000000000000e+02 5.066074728965759277e-01 1.382435321807861328e+00 -1.944405026733875275e-02 -1.422040313482284546e-01 -4.849442467093467712e-02 1.018055751919746399e-01
3.300000000000000000e+02 1.299041390419006348e+00 -1.344434380531311035e+00 -6.466674059629440308e-02 -7.019134610891342163e-02 -4.045742377638816833e-02 -2.288146167993545532e-01
3.310000000000000000e+02 1.699975848197937012e+00 -1.355569839477539062e+00 -5.308987945318222046e-02 -4.472332447767257690e-02 -2.934396080672740936e-02 -2.497283369302749634e-01
3.320000000000000000e+02 1.902339577674865723e+00 -1.086406946182250977e+00 -1.194677501916885376e-01 -1.321310270577669144e-02 -3.980425372719764709e-02 -2.291395515203475952e-01
3.330000000000000000e+02 3.901492595672607422e+00 -1.116383552551269531e+00 -2.336700074374675751e-02 1.362591832876205444e-01 3.386765718460083008e-02 -2.666317392140626907e-03
3.340000000000000000e+02 4.295088768005371094e+00 -1.396833062171936035e+00 2.893680930137634277e-01 2.690356075763702393e-01 1.675211191177368164e-01 2.467097043991088867e-01
3.350000000000000000e+02 4.898310184478759766e+00 -1.326452493667602539e+00 4.642754793167114258e-01 2.675562798976898193e-01 2.195495367050170898e-01 4.066885709762573242e-01
3.360000000000000000e+02 5.189235210418701172e+00 -1.027584314346313477e+00 3.511267900466918945e-01 1.865741610527038574e-01 1.613102853298187256e-01 3.487952053546905518e-01
3.370000000000000000e+02 5.320949077606201172e+00 -1.354625225067138672e+00 8.000874519348144531e-01 3.243817090988159180e-01 3.373407423496246338e-01 6.304101943969726562e-01
3.380000000000000000e+02 5.764801025390625000e+00 -1.137822866439819336e+00 9.229149222373962402e-01 3.192346692085266113e-01 3.726448714733123779e-01 7.356505393981933594e-01
3.390000000000000000e+02 7.065707683563232422e+00 -1.340578079223632812e+00 2.708079099655151367e+00 9.293321967124938965e-01 1.091223359107971191e+00 2.095954656600952148e+00
3.400000000000000000e+02 7.867691516876220703e+00 -1.045733809471130371e+00 4.206201553344726562e+00 1.060694336891174316e+00 1.580068707466125488e+00 2.774986267089843750e+00
3.410000000000000000e+02 8.726363182067871094e+00 -1.351821899414062500e+00 6.239806652069091797e+00 4.635329246520996094e+00 3.262540817260742188e+00 6.236379146575927734e+00
3.420000000000000000e+02 9.130440711975097656e+00 -1.369238615036010742e+00 6.207851886749267578e+00 7.649491786956787109e+00 4.157203197479248047e+00 7.526290893554687500e+00
3.430000000000000000e+02 9.318794250488281250e+00 1.382393121719360352e+00 2.533160924911499023e+00 7.549811363220214844e+00 3.024891614913940430e+00 -5.173605442047119141e+00
3.440000000000000000e+02 9.116800308227539062e+00 1.368067383766174316e+00 2.734267950057983398e+00 5.788643836975097656e+00 2.556873559951782227e+00 -4.606300354003906250e+00
3.450000000000000000e+02 7.289333343505859375e+00 1.351579427719116211e+00 6.130680441856384277e-01 4.851437509059906006e-01 3.294635415077209473e-01 -5.958453416824340820e-01
3.460000000000000000e+02 6.666684150695800781e+00 1.139312386512756348e+00 -2.544024288654327393e-01 1.460310220718383789e-01 -3.251142427325248718e-02 -3.574090078473091125e-02
3.470000000000000000e+02 5.690845012664794922e+00 1.169502496719360352e+00 -5.490410327911376953e-01 6.147649139165878296e-02 -1.462693661451339722e-01 2.409358322620391846e-01
3.480000000000000000e+02 4.897675514221191406e+00 1.088674783706665039e+00 -6.708955764770507812e-01 2.639820054173469543e-02 -1.933492124080657959e-01 3.351987004280090332e-01
3.490000000000000000e+02 3.899146795272827148e+00 1.380541920661926270e+00 -3.978899419307708740e-01 5.102481227368116379e-03 -1.178362444043159485e-01 3.922767937183380127e-01
3.500000000000000000e+02 3.887932062149047852e+00 1.137910962104797363e+00 -5.228768587112426758e-01 -2.019396051764488220e-03 -1.574688702821731567e-01 3.698636293411254883e-01
3.510000000000000000e+02 1.941070795059204102e+00 1.156734108924865723e+00 -2.096352726221084595e-01 -7.819635421037673950e-02 -8.634948730468750000e-02 3.020082116127014160e-01
3.520000000000000000e+02 9.954800605773925781e+00 -1.239313125610351562e+00 4.822270393371582031e+00 1.743886756896972656e+01 6.678341865539550781e+00 6.800449848175048828e+00
3.530000000000000000e+02 5.880936145782470703e+00 -3.953866362571716309e-01 -1.656679809093475342e-01 1.219075359404087067e-02 -4.604316875338554382e-02 1.786959618330001831e-01
3.540000000000000000e+02 7.868466854095458984e+00 -4.396730363368988037e-01 2.626000642776489258e+00 1.000179350376129150e-01 8.178055882453918457e-01 8.973585963249206543e-01
3.550000000000000000e+02 8.323198318481445312e+00 4.218527972698211670e-01 -1.155792355537414551e+00 3.680301457643508911e-02 -3.356968164443969727e-01 -1.176278144121170044e-01
3.560000000000000000e+02 7.904225349426269531e+00 4.247169494628906250e-01 -1.530702710151672363e+00 3.738406300544738770e-02 -4.479955732822418213e-01 1.076120045036077499e-02
3.570000000000000000e+02 4.701137542724609375e+00 1.260974556207656860e-01 -1.578142046928405762e+00 3.816684707999229431e-03 -4.722976386547088623e-01 7.059487700462341309e-02
3.580000000000000000e+02 7.303282260894775391e+00 1.354932188987731934e-01 -2.853328227996826172e+00 -9.021490812301635742e-03 -8.587048649787902832e-01 6.481406837701797485e-02
3.590000000000000000e+02 7.303153038024902344e+00 -1.278868615627288818e-01 4.015725255012512207e-01 -3.037151135504245758e-02 1.113603115081787109e-01 1.655731946229934692e-01
3.600000000000000000e+02 6.533110141754150391e+00 4.080563485622406006e-01 -1.855683088302612305e+00 1.543117407709360123e-02 -5.520755648612976074e-01 1.612502336502075195e-01
3.610000000000000000e+02 7.104721069335937500e+00 1.325948536396026611e-01 -2.771428823471069336e+00 2.414595149457454681e-02 -8.241848945617675781e-01 7.924432307481765747e-02
3.620000000000000000e+02 8.112528800964355469e+00 4.328442811965942383e-01 -1.341144204139709473e+00 3.065450489521026611e-02 -3.931469023227691650e-01 -3.159707784652709961e-02
3.630000000000000000e+02 8.929835319519042969e+00 -3.179746866226196289e-01 6.988449096679687500e+00 6.363286375999450684e-01 2.287433385848999023e+00 2.157357454299926758e+00
3.640000000000000000e+02 8.596513748168945312e+00 -2.476141005754470825e-01 4.059591770172119141e+00 2.934012711048126221e-01 1.305897951126098633e+00 9.003701210021972656e-01
3.650000000000000000e+02 8.319588661193847656e+00 -1.394328922033309937e-01 2.281965255737304688e+00 7.637530216015875340e-04 6.848186850547790527e-01 2.886190712451934814e-01
3.660000000000000000e+02 7.896694183349609375e+00 -1.483428627252578735e-01 1.465074896812438965e+00 1.719780564308166504e-01 4.911158680915832520e-01 3.377808332443237305e-01
3.670000000000000000e+02 4.690986156463623047e+00 -1.297260075807571411e-01 -9.711172580718994141e-01 2.581376582384109497e-02 -2.835910320281982422e-01 -8.730749250389635563e-04
3.680000000000000000e+02 2.994648516178131104e-01 3.495013415813446045e-01 -5.098325666040182114e-03 -8.622878231108188629e-03 -4.116361029446125031e-03 2.789261052384972572e-03
3.690000000000000000e+02 2.688107252120971680e+00 -1.198066771030426025e-01 -6.363919377326965332e-01 -5.311747547239065170e-03 -1.925110965967178345e-01 -3.422311320900917053e-02
3.700000000000000000e+02 3.072667360305786133e+00 -4.050358831882476807e-01 -5.389766693115234375e-01 2.362831961363554001e-03 -1.609841585159301758e-01 -1.095721945166587830e-01
3.710000000000000000e+02 3.301852226257324219e+00 -4.238827824592590332e-01 -5.576088428497314453e-01 2.023250609636306763e-02 -1.612129062414169312e-01 -8.105242252349853516e-02
3.720000000000000000e+02 3.299222469329833984e+00 1.583903282880783081e-01 -8.674648404121398926e-01 3.362526651471853256e-03 -2.592307031154632568e-01 7.543665915727615356e-02
3.730000000000000000e+02 3.911753177642822266e+00 1.607409417629241943e-01 -1.165751814842224121e+00 -2.443666337057948112e-03 -3.504586517810821533e-01 8.132757246494293213e-02
3.740000000000000000e+02 2.494956493377685547e+00 1.634936779737472534e-01 -5.114909410476684570e-01 3.624602977652102709e-04 -1.533385515213012695e-01 6.752102822065353394e-02
3.750000000000000000e+02 3.097318887710571289e+00 1.619818061590194702e-01 -7.692733407020568848e-01 -7.274864241480827332e-03 -2.329644560813903809e-01 7.365754246711730957e-02
3.760000000000000000e+02 3.199888706207275391e+00 6.661611199378967285e-01 -6.260826587677001953e-01 -1.474981848150491714e-02 -1.922497451305389404e-01 2.645296454429626465e-01
3.770000000000000000e+02 3.502358675003051758e+00 -1.408780515193939209e-01 -8.435567021369934082e-01 1.368761342018842697e-02 -2.489607185125350952e-01 -3.242148086428642273e-02
3.780000000000000000e+02 2.450752735137939453e+00 -2.514180839061737061e-01 -4.792236387729644775e-01 -2.413889626041054726e-03 -1.444912552833557129e-01 -8.621511608362197876e-02
3.790000000000000000e+02 1.939509868621826172e+00 -1.946533620357513428e-01 -3.570789396762847900e-01 -5.686543881893157959e-03 -1.088296398520469666e-01 -5.693938955664634705e-02
3.800000000000000000e+02 1.963103652000427246e+00 -5.278034210205078125e-01 -2.846083045005798340e-01 -4.484863020479679108e-03 -8.672795444726943970e-02 -1.554054468870162964e-01
3.810000000000000000e+02 6.975221633911132812e-01 -1.828634589910507202e-01 -4.141084849834442139e-02 -1.421651709824800491e-02 -1.668820902705192566e-02 -2.359780855476856232e-02
3.820000000000000000e+02 2.311627268791198730e-01 -3.789996504783630371e-01 -1.026090420782566071e-02 -1.105311885476112366e-02 -6.394207011908292770e-03 -1.060837320983409882e-02
3.830000000000000000e+02 4.852280616760253906e-01 -1.750710308551788330e-01 -2.006297558546066284e-02 -2.766026649624109268e-03 -6.848700344562530518e-03 -1.587600260972976685e-02
3.840000000000000000e+02 1.108332395553588867e+00 -1.638900786638259888e-01 -1.227401569485664368e-01 -1.526277326047420502e-02 -4.140087962150573730e-02 -3.535010293126106262e-02
3.850000000000000000e+02 5.902637958526611328e+00 1.572605222463607788e-01 -2.173121213912963867e+00 3.489815164357423782e-03 -6.508893966674804688e-01 8.587443083524703979e-02
3.860000000000000000e+02 6.129099369049072266e+00 4.393589794635772705e-01 -1.711970567703247070e+00 8.055451326072216034e-03 -5.111744999885559082e-01 1.897510886192321777e-01
3.870000000000000000e+02 4.142144203186035156e+00 4.426609277725219727e-01 -1.049291253089904785e+00 -1.753796939738094807e-03 -3.153135180473327637e-01 2.055101990699768066e-01
3.880000000000000000e+02 6.708186626434326172e+00 1.365282684564590454e-01 -2.575873613357543945e+00 7.370532024651765823e-03 -7.705509066581726074e-01 7.697716355323791504e-02
3.890000000000000000e+02 7.697260856628417969e+00 -1.324286907911300659e-01 1.066069602966308594e+00 -4.076657071709632874e-02 3.075909018516540527e-01 2.420616000890731812e-01
3.900000000000000000e+02 7.104060173034667969e+00 -1.367662101984024048e-01 1.691305786371231079e-01 6.726866215467453003e-02 7.091976702213287354e-02 1.371697336435317993e-01
3.910000000000000000e+02 5.630605220794677734e+00 -8.765625953674316406e-01 4.798417985439300537e-01 1.810594946146011353e-01 1.982703953981399536e-01 4.660859405994415283e-01
3.920000000000000000e+02 5.046647071838378906e+00 -3.743271827697753906e-01 -5.675194263458251953e-01 1.657212711870670319e-02 -1.652841866016387939e-01 5.274746194481849670e-02
3.930000000000000000e+02 4.523074150085449219e+00 3.954443335533142090e-01 -1.251766324043273926e+00 -6.622171495109796524e-04 -3.757285475730895996e-01 1.900340914726257324e-01
3.940000000000000000e+02 4.711832046508789062e+00 3.474344015121459961e-01 -1.373934507369995117e+00 -2.751447993887268240e-07 -4.121804237365722656e-01 1.721946299076080322e-01
3.950000000000000000e+02 7.698516368865966797e+00 4.180117547512054443e-01 -1.733646988868713379e+00 4.648618027567863464e-02 -5.061482191085815430e-01 5.003488063812255859e-02
3.960000000000000000e+02 6.700313091278076172e+00 -3.808155059814453125e-01 5.210500359535217285e-01 3.480257093906402588e-02 1.667557805776596069e-01 3.439334630966186523e-01
3.970000000000000000e+02 6.088542938232421875e+00 -3.830642998218536377e-01 -6.655983626842498779e-02 6.546080112457275391e-02 -3.297099319752305746e-04 2.209813743829727173e-01
3.980000000000000000e+02 4.089779376983642578e+00 -1.334567815065383911e-01 -9.468423128128051758e-01 -1.194827910512685776e-02 -2.876371741294860840e-01 -2.308392338454723358e-02
3.990000000000000000e+02 1.088611483573913574e-01 -1.175893902778625488e+00 3.724634647369384766e-02 -1.234178692102432251e-01 -2.585145644843578339e-02 -1.090331468731164932e-02
4.000000000000000000e+02 1.197042241692543030e-01 -7.250900864601135254e-01 7.635360118001699448e-03 -4.411535710096359253e-02 -1.094399858266115189e-02 -1.307038869708776474e-02
4.010000000000000000e+02 3.080295920372009277e-01 1.164847373962402344e+00 4.055530298501253128e-03 -9.026001393795013428e-02 -2.586134523153305054e-02 3.945309668779373169e-02
4.020000000000000000e+02 3.398019671440124512e-01 -9.332243800163269043e-01 1.986068440601229668e-03 -9.037996828556060791e-02 -2.651816979050636292e-02 -5.131018161773681641e-02
4.030000000000000000e+02 1.505174279212951660e+00 -1.053133010864257812e+00 -1.089146733283996582e-01 -3.879283741116523743e-02 -4.431225359439849854e-02 -2.251432985067367554e-01
4.040000000000000000e+02 9.072464108467102051e-01 -1.675877422094345093e-01 -7.879723608493804932e-02 4.990924149751663208e-03 -2.214189246296882629e-02 -3.311674669384956360e-02
4.050000000000000000e+02 3.997492194175720215e-01 -4.502246081829071045e-01 -1.931490376591682434e-02 -3.235670551657676697e-02 -1.550148334354162216e-02 -3.209463134407997131e-02
4.060000000000000000e+02 6.008073329925537109e+00 -9.523974061012268066e-01 8.851236104965209961e-01 2.293630987405776978e-01 3.343460261821746826e-01 6.871590018272399902e-01
4.070000000000000000e+02 8.651900291442871094e+00 8.789014220237731934e-01 2.028895139694213867e+00 1.303863406181335449e+00 9.998275041580200195e-01 -2.016383647918701172e+00
4.080000000000000000e+02 1.731535434722900391e+00 7.469242811203002930e-01 -2.212537378072738647e-01 -4.574890434741973877e-02 -8.010079711675643921e-02 2.012348175048828125e-01
4.090000000000000000e+02 3.018066883087158203e-01 9.518908262252807617e-01 -1.535121444612741470e-02 -6.806628406047821045e-02 -2.502525039017200470e-02 4.692521318793296814e-02
4.100000000000000000e+02 6.622801303863525391e+00 9.074098467826843262e-01 -7.506907582283020020e-01 7.428262382745742798e-02 -2.029224485158920288e-01 8.692599087953567505e-02
4.110000000000000000e+02 5.909246444702148438e+00 4.538686871528625488e-01 -1.617171645164489746e+00 -4.651083145290613174e-03 -4.865468144416809082e-01 2.002296149730682373e-01
4.120000000000000000e+02 6.162439823150634766e+00 7.207787036895751953e-01 -1.173187494277954102e+00 2.346725203096866608e-02 -3.449160754680633545e-01 1.972517818212509155e-01
4.130000000000000000e+02 6.994360446929931641e+00 8.569750189781188965e-01 -6.490241289138793945e-01 1.008957922458648682e-01 -1.644385010004043579e-01 1.929413899779319763e-02
4.140000000000000000e+02 5.450508117675781250e+00 -8.567239046096801758e-01 3.280910551548004150e-01 1.470893621444702148e-01 1.425541192293167114e-01 3.450470268726348877e-01
4.150000000000000000e+02 2.871636390686035156e+00 7.811645865440368652e-01 -5.003132224082946777e-01 -1.817093975841999054e-02 -1.555452495813369751e-01 2.807223200798034668e-01
4.160000000000000000e+02 5.379126071929931641e+00 -1.084372639656066895e+00 5.599283576011657715e-01 2.427673786878585815e-01 2.408087104558944702e-01 5.204815864562988281e-01
4.170000000000000000e+02 1.398319959640502930e+00 7.668839693069458008e-01 -1.536745280027389526e-01 -5.303501337766647339e-02 -6.201286241412162781e-02 1.690576076507568359e-01
4.180000000000000000e+02 6.539139270782470703e+00 -7.426691055297851562e-01 1.120359659194946289e+00 2.064315229654312134e-01 3.980373740196228027e-01 7.205830812454223633e-01
4.190000000000000000e+02 8.926049232482910156e+00 1.086104631423950195e+00 3.118551492691040039e+00 3.272742509841918945e+00 1.917388200759887695e+00 -3.721887350082397461e+00
4.200000000000000000e+02 8.306077003479003906e+00 -5.263161063194274902e-01 4.636010646820068359e+00 3.560258746147155762e-01 1.497610926628112793e+00 1.793078184127807617e+00
4.210000000000000000e+02 7.307789921760559082e-01 8.630416393280029297e-01 -4.846432805061340332e-02 -7.803666591644287109e-02 -3.795029595494270325e-02 9.507602453231811523e-02
4.220000000000000000e+02 1.100474834442138672e+00 1.160607099533081055e+00 -8.463654667139053345e-02 -1.078660488128662109e-01 -5.775078013539314270e-02 1.873590201139450073e-01
4.230000000000000000e+02 7.306941032409667969e+00 3.945715725421905518e-01 -1.933139324188232422e+00 4.023792594671249390e-02 -5.678704380989074707e-01 1.271305382251739502e-01
4.240000000000000000e+02 7.039049625396728516e+00 -1.044562935829162598e+00 2.309806346893310547e+00 4.887748658657073975e-01 8.395743966102600098e-01 1.507217049598693848e+00
4.250000000000000000e+02 1.023482680320739746e-01 1.177505373954772949e+00 -1.393582765012979507e-02 -7.174967229366302490e-02 -2.570565044879913330e-02 2.187342382967472076e-02
4.260000000000000000e+02 2.894755125045776367e+00 4.842920303344726562e-01 -5.880600214004516602e-01 -1.326292846351861954e-02 -1.803968846797943115e-01 1.982554793357849121e-01
4.270000000000000000e+02 2.489332199096679688e+00 -7.762782573699951172e-01 -2.815561592578887939e-01 1.544942241162061691e-02 -7.983202487230300903e-02 -1.931471526622772217e-01
4.280000000000000000e+02 2.900695800781250000e-01 7.499809861183166504e-01 -7.773258723318576813e-03 -3.606900945305824280e-02 -1.315268129110336304e-02 2.429326251149177551e-02
4.290000000000000000e+02 5.359550952911376953e+00 8.854522109031677246e-01 -9.007260799407958984e-01 1.258268859237432480e-02 -2.664430141448974609e-01 2.915808558464050293e-01
4.300000000000000000e+02 5.542640686035156250e+00 9.272234439849853516e-01 -8.537871837615966797e-01 3.395229205489158630e-02 -2.459504604339599609e-01 2.663267254829406738e-01
4.310000000000000000e+02 2.289767265319824219e+00 4.532178044319152832e-01 -3.973302841186523438e-01 -1.141140237450599670e-02 -1.226225048303604126e-01 1.600448042154312134e-01
4.320000000000000000e+02 5.462149143218994141e+00 -6.578353047370910645e-01 3.891102224588394165e-02 1.115534678101539612e-01 4.513934627175331116e-02 2.658241391181945801e-01
4.330000000000000000e+02 2.269171953201293945e+00 -1.086358547210693359e+00 -1.314081549644470215e-01 2.914172597229480743e-03 -3.854819387197494507e-02 -2.157607376575469971e-01
4.340000000000000000e+02 2.378907203674316406e+00 6.428192853927612305e-01 -3.926473557949066162e-01 -2.026995643973350525e-02 -1.238752007484436035e-01 2.247893959283828735e-01
4.350000000000000000e+02 6.141150951385498047e+00 -8.237398862838745117e-01 8.250712156295776367e-01 2.101621925830841064e-01 3.105700314044952393e-01 6.199445128440856934e-01
4.360000000000000000e+02 6.323180675506591797e+00 1.092329025268554688e+00 -5.209159851074218750e-01 9.137256443500518799e-02 -1.288630217313766479e-01 1.109863743185997009e-01
4.370000000000000000e+02 1.305986762046813965e+00 -1.038612484931945801e+00 -6.478869169950485229e-02 -6.875669211149215698e-02 -4.006361588835716248e-02 -1.733224689960479736e-01
4.380000000000000000e+02 8.587377548217773438e+00 -7.035877108573913574e-01 6.510157108306884766e+00 1.208403468132019043e+00 2.315568208694458008e+00 3.424961090087890625e+00
4.390000000000000000e+02 8.888291358947753906e+00 8.244770765304565430e-01 2.813018560409545898e+00 1.905452609062194824e+00 1.415541291236877441e+00 -2.759273290634155273e+00
4.400000000000000000e+02 9.206407070159912109e-01 -9.558174610137939453e-01 -5.514583736658096313e-02 -9.475369006395339966e-02 -4.496985673904418945e-02 -1.488638967275619507e-01
4.410000000000000000e+02 7.071588516235351562e+00 -7.870962619781494141e-01 1.984453439712524414e+00 3.154795765876770020e-01 6.899799108505249023e-01 1.126361370086669922e+00
4.420000000000000000e+02 6.807122230529785156e+00 8.832761049270629883e-01 -7.072957158088684082e-01 7.416472584009170532e-02 -1.899392902851104736e-01 5.690060555934906006e-02
4.430000000000000000e+02 2.893933951854705811e-01 5.528285503387451172e-01 -1.339671015739440918e-02 -1.907838508486747742e-02 -9.742528200149536133e-03 1.461176853626966476e-02
4.440000000000000000e+02 8.357096672058105469e+00 7.064750790596008301e-01 6.261980533599853516e-01 4.300508797168731689e-01 3.168746829032897949e-01 -8.253415226936340332e-01
4.450000000000000000e+02 8.270479202270507812e+00 -1.023632287979125977e+00 5.440408229827880859e+00 1.637091994285583496e+00 2.123250007629394531e+00 3.697428941726684570e+00
4.460000000000000000e+02 7.560356140136718750e+00 -5.348212122917175293e-01 2.334630966186523438e+00 2.546322643756866455e-01 7.767789363861083984e-01 9.546867012977600098e-01
4.470000000000000000e+02 7.259362220764160156e+00 1.051796913146972656e+00 -7.386191934347152710e-02 2.361493557691574097e-01 4.868623241782188416e-02 -2.465552091598510742e-01
4.480000000000000000e+02 7.634734630584716797e+00 -7.674847245216369629e-01 3.091329574584960938e+00 3.896118998527526855e-01 1.044282436370849609e+00 1.580093145370483398e+00
4.490000000000000000e+02 7.500674247741699219e+00 -1.233047172427177429e-01 7.041814923286437988e-01 8.782491087913513184e-02 2.376019209623336792e-01 2.084422558546066284e-01
4.500000000000000000e+02 8.504671096801757812e+00 -5.204694271087646484e-01 5.442925453186035156e+00 8.842597007751464844e-01 1.898155450820922852e+00 2.312796592712402344e+00
4.510000000000000000e+02 8.111049652099609375e+00 1.055274009704589844e+00 1.163830280303955078e+00 7.727736830711364746e-01 5.809811949729919434e-01 -1.184939503669738770e+00
4.520000000000000000e+02 7.257553100585937500e+00 -1.072890400886535645e+00 2.785493612289428711e+00 7.404733300209045410e-01 1.057790040969848633e+00 1.881463289260864258e+00
4.530000000000000000e+02 7.485047340393066406e+00 1.028296947479248047e+00 1.424695104360580444e-01 2.789892554283142090e-01 1.264376342296600342e-01 -3.827612698078155518e-01
4.540000000000000000e+02 7.503221988677978516e+00 -3.444402813911437988e-01 1.436833500862121582e+00 8.193586021661758423e-03 4.335081279277801514e-01 4.990968108177185059e-01
4.550000000000000000e+02 7.271910309791564941e-01 -4.768870770931243896e-01 -5.961488559842109680e-02 -2.287194877862930298e-02 -2.474604919552803040e-02 -7.401839643716812134e-02
4.560000000000000000e+02 5.073539614677429199e-01 3.733407557010650635e-01 -1.757062971591949463e-02 -1.539668533951044083e-02 -9.890194982290267944e-03 1.673016697168350220e-02
4.570000000000000000e+02 5.345447063446044922e-01 -5.940663814544677734e-01 -3.571546822786331177e-02 -4.171835631132125854e-02 -2.323014847934246063e-02 -5.423889309167861938e-02
4.580000000000000000e+02 8.786366462707519531e+00 -1.085190057754516602e+00 6.909428119659423828e+00 3.968369960784912109e+00 3.263339281082153320e+00 5.828713893890380859e+00
4.590000000000000000e+02 8.593629837036132812e+00 -1.034714937210083008e+00 6.552814006805419922e+00 2.595826387405395508e+00 2.744591951370239258e+00 4.903449058532714844e+00
4.600000000000000000e+02 6.814255237579345703e+00 -9.600764513015747070e-01 1.888193964958190918e+00 4.144650399684906006e-01 6.907976865768432617e-01 1.239985704421997070e+00
4.610000000000000000e+02 6.570720672607421875e+00 6.667274236679077148e-01 -1.261977910995483398e+00 1.704232953488826752e-02 -3.734806776046752930e-01 1.738538742065429688e-01
4.620000000000000000e+02 1.317675113677978516e+00 -7.443127632141113281e-01 -1.338876783847808838e-01 -2.236244641244411469e-02 -4.687503725290298462e-02 -1.661835014820098877e-01
4.630000000000000000e+02 1.223283410072326660e+00 8.314480781555175781e-01 -1.202052533626556396e-01 -7.060663402080535889e-02 -5.724356696009635925e-02 1.616110801696777344e-01
4.640000000000000000e+02 1.124009132385253906e+00 9.628332853317260742e-01 -1.060089990496635437e-01 -8.780972659587860107e-02 -5.814561620354652405e-02 1.694531291723251343e-01
4.650000000000000000e+02 1.105970025062561035e+00 -1.018557906150817871e+00 -8.001440763473510742e-02 -4.891186952590942383e-02 -3.867788240313529968e-02 -1.754129827022552490e-01
4.660000000000000000e+02 6.378637790679931641e+00 -9.857322573661804199e-01 1.351088047027587891e+00 3.155832886695861816e-01 5.000014305114746094e-01 9.467338323593139648e-01
4.670000000000000000e+02 5.866957187652587891e+00 1.163851737976074219e+00 -5.052199363708496094e-01 7.498727738857269287e-02 -1.290697902441024780e-01 2.005806714296340942e-01
4.680000000000000000e+02 1.514773011207580566e+00 -7.613509893417358398e-01 -1.385072171688079834e-01 -3.358818590641021729e-02 -5.162862315773963928e-02 -1.573730409145355225e-01
4.690000000000000000e+02 1.444802045822143555e+00 9.431028366088867188e-01 -1.514723002910614014e-01 -7.599979639053344727e-02 -6.824163347482681274e-02 2.053302377462387085e-01
4.700000000000000000e+02 5.619352817535400391e+00 7.003617882728576660e-01 -1.190970182418823242e+00 2.032445510849356651e-03 -3.566813170909881592e-01 2.510326504707336426e-01
4.710000000000000000e+02 5.872273445129394531e+00 -6.479326486587524414e-01 3.085780739784240723e-01 1.301576197147369385e-01 1.316207051277160645e-01 3.737252652645111084e-01
4.720000000000000000e+02 1.927343726158142090e+00 -8.159897327423095703e-01 -1.741202026605606079e-01 -1.441717892885208130e-02 -5.656121298670768738e-02 -1.778882443904876709e-01
4.730000000000000000e+02 1.836697220802307129e+00 4.731300473213195801e-01 -2.645590901374816895e-01 -1.885731704533100128e-02 -8.502492308616638184e-02 1.445730924606323242e-01
4.740000000000000000e+02 4.484950065612792969e+00 -4.092569947242736816e-01 -6.048591136932373047e-01 3.646083548665046692e-02 -1.705194711685180664e-01 1.817775145173072815e-02
4.750000000000000000e+02 5.682041645050048828e+00 4.423465132713317871e-01 -1.577148556709289551e+00 -3.371740691363811493e-03 -4.741560816764831543e-01 1.939829289913177490e-01
4.760000000000000000e+02 2.226099729537963867e+00 -6.453637480735778809e-01 -2.692788541316986084e-01 1.291454304009675980e-03 -8.039622008800506592e-02 -1.586083471775054932e-01
4.770000000000000000e+02 2.478810548782348633e+00 4.491901397705078125e-01 -4.619054496288299561e-01 -1.317269913852214813e-02 -1.425234526395797729e-01 1.659850776195526123e-01
4.780000000000000000e+02 5.702065944671630859e+00 9.720186591148376465e-01 -8.113759160041809082e-01 2.640633657574653625e-02 -2.354908585548400879e-01 2.592206001281738281e-01
4.790000000000000000e+02 9.861344695091247559e-01 4.200553297996520996e-01 -8.041050285100936890e-02 -2.184333093464374542e-02 -3.067614883184432983e-02 6.550421565771102905e-02
4.800000000000000000e+02 6.865882396697998047e+00 -6.946779489517211914e-01 1.477659344673156738e+00 1.746128499507904053e-01 4.956816434860229492e-01 8.193110823631286621e-01
4.810000000000000000e+02 2.091331005096435547e+00 -1.111598134040832520e+00 -1.049881950020790100e-01 3.037581453099846840e-03 -3.058518283069133759e-02 -2.000408172607421875e-01
4.820000000000000000e+02 7.375257492065429688e+00 -5.870767831802368164e-01 2.080598592758178711e+00 1.550313681364059448e-01 6.706889867782592773e-01 9.409699440002441406e-01
4.830000000000000000e+02 8.118208885192871094e+00 7.375722527503967285e-01 1.824935823678970337e-01 2.743582129478454590e-01 1.370555460453033447e-01 -5.704317688941955566e-01
4.840000000000000000e+02 7.182654380798339844e+00 8.083785176277160645e-01 -6.709212064743041992e-01 8.552029728889465332e-02 -1.756202727556228638e-01 -1.490644831210374832e-02
4.850000000000000000e+02 8.061659812927246094e+00 -7.544200420379638672e-01 4.368819713592529297e+00 6.038932800292968750e-01 1.491813898086547852e+00 2.198342561721801758e+00
4.860000000000000000e+02 2.288366317749023438e+00 1.105708003044128418e+00 -2.721650004386901855e-01 -5.915550887584686279e-02 -9.939615428447723389e-02 3.176067471504211426e-01
4.870000000000000000e+02 1.893611550331115723e+00 8.765718936920166016e-01 -2.466969639062881470e-01 -4.691581055521965027e-02 -8.808383345603942871e-02 2.347880452871322632e-01
4.880000000000000000e+02 5.572792530059814453e+00 -1.114845037460327148e+00 7.460468411445617676e-01 2.576172649860382080e-01 3.010992109775543213e-01 5.846130847930908203e-01
4.890000000000000000e+02 3.494744300842285156e+00 -7.762568593025207520e-01 -3.062821626663208008e-01 4.469628632068634033e-02 -7.847575843334197998e-02 -7.941991835832595825e-02
4.900000000000000000e+02 4.491045475006103516e+00 -1.396871507167816162e-01 -9.735890626907348633e-01 -9.962219744920730591e-03 -2.950653731822967529e-01 -1.858862489461898804e-02
4.910000000000000000e+02 6.093074798583984375e+00 -6.247726082801818848e-01 4.437461495399475098e-01 7.495255023241043091e-02 1.556096076965332031e-01 4.042993783950805664e-01
4.920000000000000000e+02 1.616156101226806641e+00 4.187647104263305664e-01 -2.046365290880203247e-01 -2.331209182739257812e-02 -6.838458776473999023e-02 1.159811839461326599e-01
4.930000000000000000e+02 8.265336036682128906e+00 -7.771984934806823730e-01 5.064511299133300781e+00 9.827794432640075684e-01 1.814187169075012207e+00 2.752166748046875000e+00
4.940000000000000000e+02 3.040254831314086914e+00 -6.597338318824768066e-01 -3.674630522727966309e-01 2.696875855326652527e-02 -1.021482869982719421e-01 -1.190318912267684937e-01
4.950000000000000000e+02 3.182293653488159180e+00 -1.286990880966186523e+00 -2.664347365498542786e-02 1.444710493087768555e-01 3.534827381372451782e-02 -9.479360282421112061e-02
4.960000000000000000e+02 3.700124979019165039e+00 -8.394787311553955078e-01 -2.654629945755004883e-01 5.637414753437042236e-02 -6.272665411233901978e-02 -8.025516569614410400e-02
4.970000000000000000e+02 3.234292745590209961e+00 -8.975617885589599609e-01 -2.256797999143600464e-01 4.492911696434020996e-02 -5.422520264983177185e-02 -1.055439785122871399e-01
4.980000000000000000e+02 4.274090766906738281e+00 6.616340279579162598e-01 -9.330801963806152344e-01 -6.950896698981523514e-03 -2.820093333721160889e-01 2.710860967636108398e-01
4.990000000000000000e+02 4.685798168182373047e+00 8.589065670967102051e-01 -8.528041839599609375e-01 1.572781614959239960e-02 -2.511229217052459717e-01 3.325818181037902832e-01
5.000000000000000000e+02 4.787053108215332031e+00 -5.285969376564025879e-01 -4.212181270122528076e-01 3.978056460618972778e-02 -1.144312694668769836e-01 6.236390024423599243e-02
5.010000000000000000e+02 5.083986759185791016e+00 3.485971391201019287e-01 -1.523463964462280273e+00 2.053910167887806892e-03 -4.564230144023895264e-01 1.644784063100814819e-01
5.020000000000000000e+02 3.631146907806396484e+00 8.523319959640502930e-01 -6.480042338371276855e-01 -1.272447220981121063e-02 -1.982186138629913330e-01 3.267928361892700195e-01
5.030000000000000000e+02 4.899170875549316406e+00 1.217303648591041565e-01 -1.685403108596801758e+00 -1.551686320453882217e-03 -5.060864686965942383e-01 6.745630502700805664e-02
5.040000000000000000e+02 4.058701515197753906e+00 -3.757579624652862549e-01 -6.653139591217041016e-01 1.884138584136962891e-02 -1.939417719841003418e-01 -3.462386503815650940e-02
5.050000000000000000e+02 4.264520168304443359e+00 -4.013584554195404053e-01 -6.351408362388610840e-01 1.392516493797302246e-02 -1.863646954298019409e-01 -2.262795902788639069e-02
5.060000000000000000e+02 3.877544403076171875e+00 -3.376358151435852051e-01 -7.008274793624877930e-01 1.775874174199998379e-03 -2.097154706716537476e-01 -4.988005384802818298e-02
5.070000000000000000e+02 3.712341070175170898e+00 1.157479882240295410e+00 -4.905199706554412842e-01 -1.052699517458677292e-02 -1.503140926361083984e-01 3.781396746635437012e-01
5.080000000000000000e+02 4.289303779602050781e+00 -1.402549445629119873e-01 -9.613586068153381348e-01 1.299058925360441208e-02 -2.845104038715362549e-01 -1.674650795757770538e-02
5.090000000000000000e+02 7.154691219329833984e-01 1.531558632850646973e-01 -1.622622460126876831e-02 -1.468369038775563240e-03 -5.308378022164106369e-03 1.177884265780448914e-02
5.100000000000000000e+02 1.283971667289733887e+00 1.132958233356475830e-01 -1.041983738541603088e-01 1.330638420768082142e-03 -3.086031973361968994e-02 2.451215684413909912e-02
5.110000000000000000e+02 1.194373726844787598e+00 2.879570126533508301e-01 -1.094464585185050964e-01 -1.211209595203399658e-02 -3.646756708621978760e-02 6.079511716961860657e-02
5.120000000000000000e+02 1.338330149650573730e+00 5.902330279350280762e-01 -1.439990997314453125e-01 -3.309658169746398926e-02 -5.312870070338249207e-02 1.202618107199668884e-01
5.130000000000000000e+02 2.866396605968475342e-01 -1.433311402797698975e-01 -2.431654604151844978e-03 -1.056297961622476578e-02 -3.898390335962176323e-03 -4.243495408445596695e-03
5.140000000000000000e+02 9.295687675476074219e-01 -4.499128460884094238e-01 -8.898863196372985840e-02 -2.901834435760974884e-02 -3.540209308266639709e-02 -7.926708459854125977e-02
5.150000000000000000e+02 1.123660087585449219e+00 -4.487942457199096680e-01 -1.241375058889389038e-01 -6.136106792837381363e-03 -3.908208385109901428e-02 -9.940519183874130249e-02
5.160000000000000000e+02 1.509488821029663086e+00 -1.704776585102081299e-01 -2.302000522613525391e-01 -1.765082590281963348e-02 -7.435526698827743530e-02 -4.429841414093971252e-02
5.170000000000000000e+02 1.318691968917846680e+00 -4.570011496543884277e-01 -1.537490189075469971e-01 -2.672194316983222961e-02 -5.414128676056861877e-02 -1.052446216344833374e-01
5.180000000000000000e+02 1.519290566444396973e+00 -4.702608585357666016e-01 -2.013206630945205688e-01 -5.222142674028873444e-03 -6.196283921599388123e-02 -1.296674758195877075e-01
5.190000000000000000e+02 2.330801010131835938e+00 -1.092834845185279846e-01 -5.033693313598632812e-01 1.780340075492858887e-02 -1.456697881221771240e-01 -4.021767899394035339e-02
5.200000000000000000e+02 2.330002546310424805e+00 -4.076521396636962891e-01 -4.106454551219940186e-01 8.193800225853919983e-03 -1.207354962825775146e-01 -1.233590766787528992e-01
5.210000000000000000e+02 2.854635238647460938e+00 -3.763575851917266846e-01 -5.150159597396850586e-01 -8.615987608209252357e-04 -1.547632664442062378e-01 -9.587042033672332764e-02
5.220000000000000000e+02 2.888637542724609375e+00 -1.353092640638351440e-01 -6.940104365348815918e-01 -1.721587963402271271e-03 -2.087195962667465210e-01 -4.287165030837059021e-02
5.230000000000000000e+02 3.525556325912475586e+00 -4.008805751800537109e-01 -6.068273782730102539e-01 -2.584432251751422882e-03 -1.828235387802124023e-01 -8.497021347284317017e-02
5.240000000000000000e+02 3.712824344635009766e+00 -3.425129950046539307e-01 -6.854476332664489746e-01 2.595347724854946136e-02 -1.978482455015182495e-01 -5.342476442456245422e-02
5.250000000000000000e+02 3.153147101402282715e-01 -1.170158624649047852e+00 -1.291894912719726562e-02 -1.422670334577560425e-01 -4.655579477548599243e-02 -8.480010926723480225e-02
5.260000000000000000e+02 1.098998665809631348e+00 1.383973240852355957e+00 -7.593220472335815430e-02 -1.548845618963241577e-01 -6.924503296613693237e-02 2.133742272853851318e-01
5.270000000000000000e+02 9.132696986198425293e-01 1.139184236526489258e+00 -5.914120376110076904e-02 -1.255368143320083618e-01 -5.540340393781661987e-02 1.564666628837585449e-01
5.280000000000000000e+02 1.297700524330139160e+00 1.380959510803222656e+00 -9.061678498983383179e-02 -1.376834958791732788e-01 -6.849008053541183472e-02 2.429883629083633423e-01
5.290000000000000000e+02 2.104677677154541016e+00 1.142934083938598633e+00 -2.414353936910629272e-01 -6.822659075260162354e-02 -9.289859980344772339e-02 3.128511607646942139e-01
5.300000000000000000e+02 2.105922222137451172e+00 1.380057573318481445e+00 -2.009812295436859131e-01 -8.428544551134109497e-02 -8.557999879121780396e-02 3.522201478481292725e-01
5.310000000000000000e+02 2.472120761871337891e+00 8.260114192962646484e-01 -3.809163868427276611e-01 -2.902568131685256958e-02 -1.229826211929321289e-01 2.769591510295867920e-01
5.320000000000000000e+02 2.684350728988647461e+00 1.070449829101562500e+00 -3.542014360427856445e-01 -3.823858126997947693e-02 -1.177320107817649841e-01 3.489181399345397949e-01
5.330000000000000000e+02 5.014388561248779297e-01 -1.180073738098144531e+00 -1.911794766783714294e-02 -1.368105262517929077e-01 -4.677854105830192566e-02 -1.054374575614929199e-01
5.340000000000000000e+02 1.898589730262756348e+00 -1.361667275428771973e+00 -4.986580461263656616e-02 1.221002195961773396e-03 -1.459344010800123215e-02 -2.061788439750671387e-01
5.350000000000000000e+02 2.706937789916992188e+00 -1.351746082305908203e+00 -2.004154957830905914e-02 5.888503417372703552e-02 1.165304519236087799e-02 -1.553611159324645996e-01
5.360000000000000000e+02 3.278998136520385742e+00 -1.419653534889221191e+00 5.446782335638999939e-02 1.222316846251487732e-01 5.300985276699066162e-02 -1.028505191206932068e-01
5.370000000000000000e+02 3.459973573684692383e+00 -1.375302791595458984e+00 4.243290051817893982e-02 1.795321106910705566e-01 6.658950448036193848e-02 -7.943509146571159363e-03
5.380000000000000000e+02 3.894383430480957031e+00 -1.369561672210693359e+00 1.520311981439590454e-01 2.118289768695831299e-01 1.091580539941787720e-01 1.073661223053932190e-01
5.390000000000000000e+02 4.101588249206542969e+00 -1.380870103836059570e+00 2.248982489109039307e-01 2.263438403606414795e-01 1.353726238012313843e-01 1.433188021183013916e-01
5.400000000000000000e+02 4.473862648010253906e+00 -1.373406052589416504e+00 3.357548713684082031e-01 2.082442939281463623e-01 1.631997525691986084e-01 2.605221271514892578e-01
5.410000000000000000e+02 4.413926601409912109e+00 -9.825900197029113770e-01 3.329413756728172302e-02 1.273826509714126587e-01 4.820303618907928467e-02 1.415513604879379272e-01
5.420000000000000000e+02 4.651007652282714844e+00 -1.034792780876159668e+00 1.464799046516418457e-01 1.397628337144851685e-01 8.587282150983810425e-02 1.860571801662445068e-01
5.430000000000000000e+02 2.698109626770019531e+00 1.353659868240356445e+00 -2.700822949409484863e-01 -5.960229411721229553e-02 -9.890537708997726440e-02 3.796963691711425781e-01
5.440000000000000000e+02 3.203837871551513672e+00 1.046766161918640137e+00 -4.629945755004882812e-01 -2.354398369789123535e-02 -1.459615677595138550e-01 3.575970530509948730e-01
5.450000000000000000e+02 3.536650180816650391e+00 1.156954050064086914e+00 -4.581590592861175537e-01 -1.770568080246448517e-02 -1.427594274282455444e-01 3.819223046302795410e-01
5.460000000000000000e+02 3.511688947677612305e+00 1.383489131927490234e+00 -3.845801353454589844e-01 -1.273712981492280960e-02 -1.191951781511306763e-01 4.043219089508056641e-01
5.470000000000000000e+02 4.290624618530273438e+00 1.364819407463073730e+00 -4.137140214443206787e-01 1.161244791001081467e-02 -1.206304654479026794e-01 3.737861812114715576e-01
5.480000000000000000e+02 4.488964080810546875e+00 1.358513236045837402e+00 -4.171936213970184326e-01 2.383549511432647705e-02 -1.180074363946914673e-01 3.556166887283325195e-01
5.490000000000000000e+02 4.898042678833007812e+00 1.361506700515747070e+00 -4.037026166915893555e-01 4.262464493513107300e-02 -1.083233878016471863e-01 3.308886289596557617e-01
5.500000000000000000e+02 5.317640781402587891e+00 1.127145648002624512e+00 -6.245217323303222656e-01 4.063181579113006592e-02 -1.751669794321060181e-01 2.853940725326538086e-01
5.510000000000000000e+02 5.302229404449462891e+00 1.374965667724609375e+00 -3.827920258045196533e-01 7.041040807962417603e-02 -9.371448308229446411e-02 2.849568724632263184e-01
5.520000000000000000e+02 6.038267612457275391e+00 1.127481818199157715e+00 -5.170795917510986328e-01 9.717512130737304688e-02 -1.259713470935821533e-01 1.785651743412017822e-01
5.530000000000000000e+02 5.891308784484863281e+00 1.382144212722778320e+00 -2.404629737138748169e-01 1.437602937221527100e-01 -2.901080437004566193e-02 1.165122538805007935e-01
5.540000000000000000e+02 5.990163803100585938e+00 9.407597780227661133e-01 -8.463208079338073730e-01 3.705432638525962830e-02 -2.427799403667449951e-01 2.188336700201034546e-01
5.550000000000000000e+02 6.492058277130126953e+00 1.148414731025695801e+00 -3.196870684623718262e-01 1.509851366281509399e-01 -5.061057955026626587e-02 2.780789509415626526e-02
5.560000000000000000e+02 6.495021343231201172e+00 1.377065539360046387e+00 -1.604140177369117737e-02 2.177048325538635254e-01 6.049902737140655518e-02 -7.388255745172500610e-02
5.570000000000000000e+02 6.886942863464355469e+00 1.372913599014282227e+00 2.217604517936706543e-01 3.182950317859649658e-01 1.620166450738906860e-01 -2.866908609867095947e-01
5.580000000000000000e+02 7.049162387847900391e+00 1.097934365272521973e+00 -1.160348206758499146e-01 2.089782953262329102e-01 2.788304351270198822e-02 -1.821106076240539551e-01
5.590000000000000000e+02 7.699464797973632812e+00 1.070272088050842285e+00 4.933871626853942871e-01 4.441390037536621094e-01 2.812578380107879639e-01 -6.304930448532104492e-01
5.600000000000000000e+02 7.895280361175537109e+00 1.076510429382324219e+00 8.104452490806579590e-01 5.343545079231262207e-01 4.034399390220642090e-01 -8.635384440422058105e-01
5.610000000000000000e+02 8.438706398010253906e+00 9.416235089302062988e-01 1.584950208663940430e+00 9.703849554061889648e-01 7.666005492210388184e-01 -1.599358439445495605e+00
5.620000000000000000e+02 8.499334335327148438e+00 1.141542434692382812e+00 2.204590082168579102e+00 1.722514271736145020e+00 1.178131341934204102e+00 -2.270781040191650391e+00
5.630000000000000000e+02 8.500323295593261719e+00 1.375605583190917969e+00 2.265872240066528320e+00 2.286506175994873047e+00 1.365713477134704590e+00 -2.653901576995849609e+00
5.640000000000000000e+02 9.372192382812500000e+00 1.157221794128417969e+00 3.245226144790649414e+00 7.787578582763671875e+00 3.309841394424438477e+00 -5.628997325897216797e+00
5.650000000000000000e+02 1.009897041320800781e+01 1.360965251922607422e+00 1.011380314826965332e+00 1.645299148559570312e+01 5.239311695098876953e+00 -3.206095695495605469e+00
5.660000000000000000e+02 1.029183864593505859e+01 1.070809483528137207e+00 1.715672850608825684e+00 2.038139915466308594e+01 6.629121780395507812e+00 -1.200947165489196777e+00
5.670000000000000000e+02 1.094621753692626953e+01 1.065440058708190918e+00 4.272826194763183594e+00 1.753442955017089844e+01 6.542176246643066406e+00 3.234818220138549805e+00
5.680000000000000000e+02 1.105038261413574219e+01 9.287655949592590332e-01 6.177697181701660156e+00 1.688985824584960938e+01 6.920266628265380859e+00 4.322614669799804688e+00
5.690000000000000000e+02 1.134867191314697266e+01 4.438386559486389160e-01 1.084925842285156250e+01 1.410898971557617188e+01 7.487474441528320312e+00 4.261580467224121094e+00
5.700000000000000000e+02 1.137658119201660156e+01 1.111932620406150818e-01 1.273125648498535156e+01 1.343965053558349609e+01 7.851272106170654297e+00 2.852994680404663086e+00
5.710000000000000000e+02 1.135768222808837891e+01 -8.660465478897094727e-02 1.319926357269287109e+01 1.321146583557128906e+01 7.923218727111816406e+00 1.747050881385803223e+00
5.720000000000000000e+02 1.114956474304199219e+01 -7.495307922363281250e-01 1.036042118072509766e+01 1.539408683776855469e+01 7.726352214813232422e+00 -9.535541534423828125e-01
5.730000000000000000e+02 1.055389499664306641e+01 -9.605528712272644043e-01 6.975408554077148438e+00 2.114389610290527344e+01 8.435791969299316406e+00 8.321651220321655273e-01
5.740000000000000000e+02 9.789915084838867188e+00 -1.310788512229919434e+00 5.017529487609863281e+00 1.523430538177490234e+01 6.075550556182861328e+00 7.627399444580078125e+00
5.750000000000000000e+02 9.878663063049316406e+00 -1.433499455451965332e+00 4.111282348632812500e+00 1.588936614990234375e+01 6.000194549560546875e+00 6.729062080383300781e+00
5.760000000000000000e+02 9.613013267517089844e+00 -1.223307251930236816e+00 6.046392440795898438e+00 1.346627521514892578e+01 5.853800296783447266e+00 8.404396057128906250e+00
5.770000000000000000e+02 9.401084899902343750e+00 -1.164552330970764160e+00 7.052488803863525391e+00 1.023536682128906250e+01 5.186356544494628906e+00 8.663327217102050781e+00
5.780000000000000000e+02 9.330183982849121094e+00 -1.384363412857055664e+00 5.951785087585449219e+00 9.929808616638183594e+00 4.764478206634521484e+00 7.880571842193603516e+00
5.790000000000000000e+02 8.930303573608398438e+00 -1.360448479652404785e+00 6.330770015716552734e+00 6.113546848297119141e+00 3.733294963836669922e+00 6.916457653045654297e+00
5.800000000000000000e+02 8.432847976684570312e+00 -8.934742808341979980e-01 5.818187236785888672e+00 1.693238854408264160e+00 2.253427743911743164e+00 3.616369962692260742e+00
5.810000000000000000e+02 7.889681339263916016e+00 -1.347106099128723145e+00 4.336845397949218750e+00 1.860655546188354492e+00 1.859250187873840332e+00 3.560312747955322266e+00
5.820000000000000000e+02 7.666182994842529297e+00 -1.057257175445556641e+00 3.760830640792846680e+00 9.689392447471618652e-01 1.418931007385253906e+00 2.448435306549072266e+00
5.830000000000000000e+02 7.463826179504394531e+00 -1.071149468421936035e+00 3.267518043518066406e+00 7.043728828430175781e-01 1.191567301750183105e+00 2.058037757873535156e+00
5.840000000000000000e+02 7.487630367279052734e+00 -1.353373289108276367e+00 3.502905607223510742e+00 1.307063460350036621e+00 1.442990660667419434e+00 2.769468307495117188e+00
5.850000000000000000e+02 6.558133602142333984e+00 -1.260167956352233887e+00 1.936116576194763184e+00 5.529552102088928223e-01 7.467215657234191895e-01 1.431196093559265137e+00
5.860000000000000000e+02 6.502818107604980469e+00 -1.416561841964721680e+00 1.888382673263549805e+00 6.866993904113769531e-01 7.725245952606201172e-01 1.523568153381347656e+00
5.870000000000000000e+02 5.915615558624267578e+00 -1.386669874191284180e+00 1.304942250251770020e+00 4.912833869457244873e-01 5.388677120208740234e-01 1.052419543266296387e+00
5.880000000000000000e+02 6.147385597229003906e+00 -1.184150934219360352e+00 1.328996658325195312e+00 3.920083343982696533e-01 5.163014531135559082e-01 1.006247162818908691e+00
5.890000000000000000e+02 5.952733516693115234e+00 -1.164222836494445801e+00 1.090821504592895508e+00 3.263781666755676270e-01 4.251599013805389404e-01 8.306970596313476562e-01
5.900000000000000000e+02 2.070889949798583984e+00 4.941557049751281738e-01 -3.313476145267486572e-01 -1.683229394257068634e-02 -1.044539660215377808e-01 1.653203815221786499e-01
5.910000000000000000e+02 4.889294624328613281e+00 -1.243731975555419922e-01 -9.525710344314575195e-01 -1.552680227905511856e-02 -2.904293537139892578e-01 1.651473226957023144e-03
5.920000000000000000e+02 5.086661815643310547e+00 -1.319323629140853882e-01 -9.233888983726501465e-01 1.866496726870536804e-02 -2.714171707630157471e-01 1.050432864576578140e-02
5.930000000000000000e+02 5.283787727355957031e+00 -1.421496123075485229e-01 -8.894941210746765137e-01 -7.497188635170459747e-03 -2.690973877906799316e-01 1.338702999055385590e-02
5.940000000000000000e+02 5.454619407653808594e+00 -4.220358133316040039e-01 -3.145906925201416016e-01 1.163558848202228546e-02 -9.088653326034545898e-02 1.230326071381568909e-01
5.950000000000000000e+02 5.032251358032226562e+00 -9.147278070449829102e-01 2.031299918889999390e-01 1.367555707693099976e-01 1.019656658172607422e-01 2.880914211273193359e-01
5.960000000000000000e+02 5.672704696655273438e+00 -4.032779037952423096e-01 -2.442045211791992188e-01 5.694650486111640930e-02 -5.617740377783775330e-02 1.589484512805938721e-01
5.970000000000000000e+02 5.689333438873291016e+00 -1.425580382347106934e-01 -7.712270021438598633e-01 -1.213410217314958572e-02 -2.350083291530609131e-01 3.892615437507629395e-02
5.980000000000000000e+02 6.094984531402587891e+00 -1.345948725938796997e-01 -5.937214493751525879e-01 -1.282645110040903091e-02 -1.819643676280975342e-01 5.630373209714889526e-02
5.990000000000000000e+02 6.499288082122802734e+00 -3.624794781208038330e-01 2.453899979591369629e-01 6.986969709396362305e-02 9.457790851593017578e-02 2.939748764038085938e-01
6.000000000000000000e+02 6.500439167022705078e+00 -1.290287375450134277e-01 -3.442314863204956055e-01 -1.123859267681837082e-02 -1.066410243511199951e-01 8.338768780231475830e-02
6.010000000000000000e+02 6.907692909240722656e+00 -4.148274362087249756e-01 8.727831244468688965e-01 1.056004390120506287e-01 2.935150563716888428e-01 4.682250618934631348e-01
6.020000000000000000e+02 6.903815746307373047e+00 -1.389468610286712646e-01 -1.382278278470039368e-02 -2.969476953148841858e-02 -1.305526588112115860e-02 1.136377826333045959e-01
6.030000000000000000e+02 7.121029853820800781e+00 -4.067460894584655762e-01 1.131559610366821289e+00 2.919537574052810669e-02 3.482264876365661621e-01 4.944174587726593018e-01
6.040000000000000000e+02 7.673297882080078125e+00 -3.812748491764068604e-01 2.022214174270629883e+00 2.297571897506713867e-01 6.755914092063903809e-01 7.747117280960083008e-01
6.050000000000000000e+02 8.090831756591796875e+00 -4.654213786125183105e-01 3.556429624557495117e+00 3.018155992031097412e-01 1.157473564147949219e+00 1.280825495719909668e+00
6.060000000000000000e+02 8.513357162475585938e+00 -9.385216236114501953e-02 2.700280904769897461e+00 -9.070429205894470215e-02 7.828729748725891113e-01 2.195021808147430420e-01
6.070000000000000000e+02 8.694006919860839844e+00 -9.929644316434860229e-02 3.530576944351196289e+00 3.190460801124572754e-01 1.154886960983276367e+00 4.950669705867767334e-01
6.080000000000000000e+02 8.780900955200195312e+00 -5.805974006652832031e-01 7.356397151947021484e+00 1.439935803413391113e+00 2.638899803161621094e+00 3.445669412612915039e+00
6.090000000000000000e+02 9.002408027648925781e+00 -5.003924965858459473e-01 8.703349113464355469e+00 1.509508609771728516e+00 3.063857316970825195e+00 4.146397113800048828e+00
6.100000000000000000e+02 2.677865982055664062e+00 4.797182679176330566e-01 -5.128355622291564941e-01 -1.020478922873735428e-02 -1.569121032953262329e-01 1.840398162603378296e-01
6.110000000000000000e+02 3.502223491668701172e+00 1.595564931631088257e-01 -9.645957350730895996e-01 -6.180978380143642426e-03 -2.912330031394958496e-01 7.706512510776519775e-02
6.120000000000000000e+02 4.110939979553222656e+00 1.544675827026367188e-01 -1.266107320785522461e+00 1.869848347268998623e-03 -3.792712688446044922e-01 8.123346418142318726e-02
6.130000000000000000e+02 4.331385135650634766e+00 4.170958399772644043e-01 -1.162249684333801270e+00 8.285296498797833920e-04 -3.484263718128204346e-01 1.989943683147430420e-01
6.140000000000000000e+02 4.723761558532714844e+00 6.832276582717895508e-01 -1.023585915565490723e+00 -2.170893363654613495e-03 -3.077270686626434326e-01 2.691178619861602783e-01
6.150000000000000000e+02 5.272310256958007812e+00 3.729754388332366943e-01 -1.563015341758728027e+00 -1.823801314458250999e-03 -4.694517254829406738e-01 1.760492473840713501e-01
6.160000000000000000e+02 5.293497562408447266e+00 1.325630992650985718e-01 -1.883208990097045898e+00 -4.800420720130205154e-03 -5.664027929306030273e-01 6.788036227226257324e-02
6.170000000000000000e+02 5.232282638549804688e+00 6.048842072486877441e-01 -1.255419850349426270e+00 -2.425671089440584183e-03 -3.773536384105682373e-01 2.459204196929931641e-01
6.180000000000000000e+02 8.746415138244628906e+00 3.600572347640991211e-01 -6.702064871788024902e-01 3.408502042293548584e-02 -1.908364295959472656e-01 -3.353676497936248779e-01
6.190000000000000000e+02 8.305797576904296875e+00 1.427644640207290649e-01 -3.230828523635864258e+00 -2.206816105172038078e-03 -9.699105620384216309e-01 9.436959773302078247e-02
6.200000000000000000e+02 7.901810646057128906e+00 1.449706256389617920e-01 -3.090919256210327148e+00 3.449835628271102905e-02 -9.169263243675231934e-01 7.406872510910034180e-02
6.210000000000000000e+02 7.500181674957275391e+00 4.128713011741638184e-01 -1.867608308792114258e+00 -1.891831494867801666e-02 -5.659579634666442871e-01 9.638711810111999512e-02
6.220000000000000000e+02 7.501165390014648438e+00 1.396588683128356934e-01 -2.925874471664428711e+00 -2.757701091468334198e-03 -8.785896301269531250e-01 7.366347312927246094e-02
6.230000000000000000e+02 6.921849727630615234e+00 3.830473423004150391e-01 -1.973358750343322754e+00 6.360750179737806320e-03 -5.900993943214416504e-01 1.330245137214660645e-01
6.240000000000000000e+02 6.729214191436767578e+00 3.933477997779846191e-01 -1.928730607032775879e+00 -2.802819653879851103e-04 -5.787032842636108398e-01 1.558638066053390503e-01
6.250000000000000000e+02 6.333845615386962891e+00 4.256263971328735352e-01 -1.788710117340087891e+00 8.963634609244763851e-04 -5.363441109657287598e-01 1.689786463975906372e-01
6.260000000000000000e+02 6.309340953826904297e+00 1.476686298847198486e-01 -2.373715639114379883e+00 2.867929870262742043e-03 -7.112543582916259766e-01 8.951441198587417603e-02
6.270000000000000000e+02 5.493331432342529297e+00 1.431408077478408813e-01 -1.978987932205200195e+00 -6.567940115928649902e-03 -5.956667661666870117e-01 7.654283195734024048e-02
6.280000000000000000e+02 8.807046890258789062e+00 5.908421874046325684e-01 1.526281118392944336e+00 6.873072385787963867e-01 6.640765070915222168e-01 -1.424039721488952637e+00
6.290000000000000000e+02 9.641102790832519531e+00 1.027891039848327637e+00 2.949055433273315430e+00 1.209407615661621094e+01 4.512939453125000000e+00 -6.349232673645019531e+00
6.300000000000000000e+02 9.723552703857421875e+00 1.164067268371582031e+00 2.258828878402709961e+00 1.323022747039794922e+01 4.646717071533203125e+00 -5.765622615814208984e+00
6.310000000000000000e+02 9.169920921325683594e+00 -7.426183819770812988e-01 9.449821472167968750e+00 4.778031349182128906e+00 4.268355846405029297e+00 6.908288002014160156e+00
6.320000000000000000e+02 9.013514518737792969e+00 -8.671277761459350586e-01 8.335248947143554688e+00 4.490105628967285156e+00 3.847606420516967773e+00 6.505053043365478516e+00
6.330000000000000000e+02 1.013618946075439453e+01 -1.204873919486999512e+00 4.709171295166015625e+00 1.889557838439941406e+01 7.081425189971923828e+00 5.248713493347167969e+00
6.340000000000000000e+02 1.096621036529541016e+01 -5.681729912757873535e-01 1.268333148956298828e+01 1.706273841857910156e+01 8.923821449279785156e+00 -1.032713770866394043e+00
6.350000000000000000e+02 1.110134124755859375e+01 4.364140033721923828e-01 1.151707267761230469e+01 1.626134872436523438e+01 8.333526611328125000e+00 4.723029136657714844e+00
6.360000000000000000e+02 1.073451900482177734e+01 1.042677521705627441e+00 3.774714708328247070e+00 1.940853881835937500e+01 6.954976081848144531e+00 2.721179246902465820e+00
6.370000000000000000e+02 7.196813225746154785e-01 1.133157849311828613e+00 -4.632596299052238464e-02 -1.064263284206390381e-01 -4.582568630576133728e-02 1.229708045721054077e-01
6.380000000000000000e+02 5.095959901809692383e-01 9.234093427658081055e-01 -1.994745805859565735e-02 -6.987719237804412842e-02 -2.694739401340484619e-02 5.951217189431190491e-02
6.390000000000000000e+02 9.473596811294555664e-01 8.759135007858276367e-01 -7.678082585334777832e-02 -6.667664647102355957e-02 -4.303724318742752075e-02 1.207087561488151550e-01
6.400000000000000000e+02 8.585849761962890625e+00 6.451504826545715332e-01 1.029195547103881836e+00 4.802355468273162842e-01 4.528293311595916748e-01 -1.051942467689514160e+00
6.410000000000000000e+02 3.430184721946716309e-01 -6.891425848007202148e-01 -2.127327397465705872e-02 -5.327628925442695618e-02 -2.236486971378326416e-02 -5.373010039329528809e-02
6.420000000000000000e+02 8.211489915847778320e-01 -1.136243939399719238e+00 -3.388779237866401672e-02 -8.733116090297698975e-02 -3.636568412184715271e-02 -1.372801363468170166e-01
6.430000000000000000e+02 7.618465423583984375e-01 -8.771122694015502930e-01 -5.140716955065727234e-02 -6.344247609376907349e-02 -3.445489332079887390e-02 -1.167711392045021057e-01
6.440000000000000000e+02 1.128251910209655762e+00 -7.265512347221374512e-01 -9.618800878524780273e-02 -5.186435952782630920e-02 -4.441571235656738281e-02 -1.361467391252517700e-01
6.450000000000000000e+02 7.798145771026611328e+00 8.820459842681884766e-01 1.698964536190032959e-01 2.877237498760223389e-01 1.372860521078109741e-01 -4.759882688522338867e-01
6.460000000000000000e+02 7.292043209075927734e+00 6.492977738380432129e-01 -1.051989078521728516e+00 6.772524118423461914e-02 -2.952791452407836914e-01 2.513845823705196381e-02
6.470000000000000000e+02 7.491149425506591797e+00 7.071627378463745117e-01 -7.700703144073486328e-01 1.017204597592353821e-01 -2.005049586296081543e-01 -6.407342851161956787e-02
6.480000000000000000e+02 7.897399425506591797e+00 6.969326734542846680e-01 -3.438721001148223877e-01 1.874437183141708374e-01 -4.692851379513740540e-02 -3.066242337226867676e-01
6.490000000000000000e+02 7.121828079223632812e+00 6.090865731239318848e-01 -1.341735243797302246e+00 3.036734834313392639e-02 -3.934103548526763916e-01 9.318226575851440430e-02
6.500000000000000000e+02 6.947204589843750000e+00 6.253395080566406250e-01 -1.330843687057495117e+00 2.798387780785560608e-02 -3.908579349517822266e-01 1.299876123666763306e-01
6.510000000000000000e+02 6.761960983276367188e+00 6.432615518569946289e-01 -1.298217296600341797e+00 3.533691540360450745e-02 -3.788641393184661865e-01 1.520927846431732178e-01
6.520000000000000000e+02 6.371105194091796875e+00 7.061058282852172852e-01 -1.190755724906921387e+00 2.432062104344367981e-02 -3.499305248260498047e-01 1.886997520923614502e-01
6.530000000000000000e+02 5.778918266296386719e+00 8.067899346351623535e-01 -1.077888131141662598e+00 1.866538263857364655e-02 -3.177668154239654541e-01 2.322313934564590454e-01
6.540000000000000000e+02 5.950025081634521484e+00 7.224904298782348633e-01 -1.167621850967407227e+00 1.469587534666061401e-02 -3.458777964115142822e-01 2.184469103813171387e-01
6.550000000000000000e+02 5.419727802276611328e+00 6.486015915870666504e-01 -1.242625355720520020e+00 2.693225862458348274e-03 -3.719796240329742432e-01 2.498490214347839355e-01
6.560000000000000000e+02 5.058570861816406250e+00 5.610458850860595703e-01 -1.259116053581237793e+00 6.975732278078794479e-03 -3.756421208381652832e-01 2.387936711311340332e-01
6.570000000000000000e+02 6.443637371063232422e+00 9.457973241806030273e-01 -7.289698123931884766e-01 6.238852441310882568e-02 -1.999743878841400146e-01 1.115385144948959351e-01
6.580000000000000000e+02 8.837642669677734375e+00 -7.290750741958618164e-01 7.859865188598632812e+00 2.097805023193359375e+00 2.987301111221313477e+00 4.546897888183593750e+00
6.590000000000000000e+02 8.703968048095703125e+00 -8.356453180313110352e-01 7.029502391815185547e+00 2.334669351577758789e+00 2.809251546859741211e+00 4.429987907409667969e+00
6.600000000000000000e+02 8.839380264282226562e+00 -8.827289342880249023e-01 7.847979068756103516e+00 3.172332525253295898e+00 3.306093454360961914e+00 5.607049465179443359e+00
6.610000000000000000e+02 7.849783420562744141e+00 -7.420578598976135254e-01 3.697304248809814453e+00 5.691340565681457520e-01 1.279931545257568359e+00 1.823637127876281738e+00
6.620000000000000000e+02 7.432171344757080078e+00 -8.125846982002258301e-01 2.713703393936157227e+00 5.265172719955444336e-01 9.720661640167236328e-01 1.546695709228515625e+00
6.630000000000000000e+02 7.247812271118164062e+00 -8.348821401596069336e-01 2.440404891967773438e+00 3.661465942859649658e-01 8.419654369354248047e-01 1.333869934082031250e+00
6.640000000000000000e+02 6.707566261291503906e+00 -1.137985229492187500e+00 1.982146978378295898e+00 5.376067161560058594e-01 7.559261322021484375e-01 1.392976284027099609e+00
6.650000000000000000e+02 6.152390956878662109e+00 9.818547368049621582e-01 -7.105733752250671387e-01 6.802447140216827393e-02 -1.927646696567535400e-01 1.682264655828475952e-01
6.660000000000000000e+02 5.166089534759521484e+00 8.400604128837585449e-01 -9.446505904197692871e-01 9.133880957961082458e-03 -2.806549966335296631e-01 2.964693307876586914e-01
6.670000000000000000e+02 4.488036632537841797e+00 7.870783209800720215e-01 -8.815980553627014160e-01 1.436497434042394161e-03 -2.640484571456909180e-01 3.048574626445770264e-01
6.680000000000000000e+02 3.789488315582275391e+00 9.651583433151245117e-01 -6.032135486602783203e-01 -1.126726344227790833e-02 -1.843442320823669434e-01 3.628730475902557373e-01
6.690000000000000000e+02 3.485383033752441406e+00 9.789987802505493164e-01 -5.579537749290466309e-01 -1.258075702935457230e-02 -1.711603552103042603e-01 3.605841696262359619e-01
6.700000000000000000e+02 3.102208375930786133e+00 4.528451859951019287e-01 -6.655845046043395996e-01 -4.507754929363727570e-03 -2.010276764631271362e-01 1.907672286033630371e-01
6.710000000000000000e+02 2.668821096420288086e+00 7.853702306747436523e-01 -4.436084628105163574e-01 -2.402303926646709442e-02 -1.402894407510757446e-01 2.776962816715240479e-01
6.720000000000000000e+02 2.879905700683593750e+00 1.040180444717407227e+00 -3.984011411666870117e-01 -3.179571777582168579e-02 -1.290590614080429077e-01 3.555603623390197754e-01
6.730000000000000000e+02 2.283032178878784180e+00 8.337278962135314941e-01 -3.310001492500305176e-01 -3.717351332306861877e-02 -1.104521006345748901e-01 2.651290893554687500e-01
6.740000000000000000e+02 2.023591279983520508e+00 9.913223981857299805e-01 -2.595961987972259521e-01 -5.731953680515289307e-02 -9.507472068071365356e-02 2.843794524669647217e-01
6.750000000000000000e+02 1.773169398307800293e+00 1.094848155975341797e+00 -1.893240064382553101e-01 -8.102118968963623047e-02 -8.110356330871582031e-02 2.726176381111145020e-01
6.760000000000000000e+02 1.610540509223937988e+00 9.875396490097045898e-01 -1.708486527204513550e-01 -7.349728792905807495e-02 -7.330378144979476929e-02 2.329935282468795776e-01
6.770000000000000000e+02 7.322433948516845703e+00 -3.674551546573638916e-01 1.299041271209716797e+00 1.278601288795471191e-01 4.280704259872436523e-01 4.981581568717956543e-01
6.780000000000000000e+02 7.189186573028564453e+00 -6.365131139755249023e-01 1.838184118270874023e+00 2.508759796619415283e-01 6.267180442810058594e-01 9.464783072471618652e-01
6.790000000000000000e+02 6.494585990905761719e+00 -5.667870044708251953e-01 6.538150310516357422e-01 5.251975730061531067e-02 2.119004279375076294e-01 4.508036077022552490e-01
6.800000000000000000e+02 6.665716648101806641e+00 -6.086487770080566406e-01 1.002319574356079102e+00 1.738503426313400269e-01 3.528510034084320068e-01 6.430295705795288086e-01
6.810000000000000000e+02 5.662438392639160156e+00 -6.451626420021057129e-01 1.346173286437988281e-01 6.256037205457687378e-02 5.915331095457077026e-02 2.932774722576141357e-01
6.820000000000000000e+02 5.153976440429687500e+00 -6.769131422042846680e-01 -7.080714404582977295e-02 8.495099842548370361e-02 4.243155941367149353e-03 1.792694479227066040e-01
6.830000000000000000e+02 4.689115524291992188e+00 -3.678166568279266357e-01 -6.223436594009399414e-01 -5.278942990116775036e-04 -1.868614554405212402e-01 1.487318240106105804e-02
6.840000000000000000e+02 4.881676197052001953e+00 -8.163195252418518066e-01 -3.257964923977851868e-02 9.858950972557067871e-02 1.980295963585376740e-02 1.553829610347747803e-01
6.850000000000000000e+02 4.461433410644531250e+00 -6.964415907859802246e-01 -2.813993990421295166e-01 5.211762338876724243e-02 -6.878452748060226440e-02 3.572062775492668152e-02
6.860000000000000000e+02 4.224597930908203125e+00 -6.622968316078186035e-01 -3.402864038944244385e-01 6.328520178794860840e-02 -8.310036361217498779e-02 2.306194789707660675e-02
6.870000000000000000e+02 3.801926136016845703e+00 -5.143706202507019043e-01 -5.050764083862304688e-01 1.044829934835433960e-02 -1.483884304761886597e-01 -5.730121210217475891e-02
6.880000000000000000e+02 3.630661249160766602e+00 -6.272665858268737793e-01 -4.292412102222442627e-01 4.603981226682662964e-02 -1.149604171514511108e-01 -7.096765935420989990e-02
6.890000000000000000e+02 2.568556547164916992e+00 -5.380747914314270020e-01 -3.598860800266265869e-01 -1.317681162618100643e-03 -1.083611249923706055e-01 -1.341866701841354370e-01
6.900000000000000000e+02 1.276379942893981934e+00 9.805626869201660156e-01 -1.257476210594177246e-01 -7.963569462299346924e-02 -6.161499395966529846e-02 1.870040297508239746e-01
6.910000000000000000e+02 1.473438262939453125e+00 1.130170464515686035e+00 -1.445902287960052490e-01 -9.558815509080886841e-02 -7.205351442098617554e-02 2.426334470510482788e-01
6.920000000000000000e+02 6.174290180206298828e+00 -9.929761886596679688e-01 1.134771704673767090e+00 2.802832126617431641e-01 4.245164394378662109e-01 7.990809082984924316e-01
6.930000000000000000e+02 5.829972267150878906e+00 -8.968052864074707031e-01 6.557353138923645020e-01 1.756197661161422729e-01 2.494065314531326294e-01 5.383138656616210938e-01
6.940000000000000000e+02 5.305361270904541016e+00 -7.824894189834594727e-01 1.391431391239166260e-01 9.696061164140701294e-02 7.083112746477127075e-02 2.885086834430694580e-01
6.950000000000000000e+02 4.869118213653564453e+00 -1.037578105926513672e+00 2.395226806402206421e-01 1.950590312480926514e-01 1.303745210170745850e-01 2.826433181762695312e-01
6.960000000000000000e+02 4.970853805541992188e+00 -6.024886965751647949e-01 -2.291542291641235352e-01 6.400012224912643433e-02 -4.954623058438301086e-02 1.362228840589523315e-01
6.970000000000000000e+02 6.597208976745605469e+00 -9.410620927810668945e-01 1.519923448562622070e+00 2.707131803035736084e-01 5.371909737586975098e-01 9.742087721824645996e-01
6.980000000000000000e+02 1.099483966827392578e+00 6.637505888938903809e-01 -1.078874245285987854e-01 -4.259430617094039917e-02 -4.514451697468757629e-02 1.132021769881248474e-01
6.990000000000000000e+02 4.873821258544921875e+00 8.694833517074584961e-01 -8.717833757400512695e-01 9.362376295030117035e-03 -2.587262988090515137e-01 3.203452527523040771e-01
7.000000000000000000e+02 4.735702037811279297e+00 5.310602784156799316e-01 -1.217911362648010254e+00 -5.274986382573843002e-03 -3.669559061527252197e-01 2.162245362997055054e-01
7.010000000000000000e+02 4.781222641468048096e-01 7.325435876846313477e-01 -2.951358258724212646e-02 -5.489837005734443665e-02 -2.532358653843402863e-02 5.414742603898048401e-02
7.020000000000000000e+02 6.524793505668640137e-01 6.480366587638854980e-01 -4.979991912841796875e-02 -3.957218304276466370e-02 -2.681163139641284943e-02 6.150081008672714233e-02
7.030000000000000000e+02 5.329104065895080566e-01 -9.645437002182006836e-01 -2.832033112645149231e-02 -8.536608517169952393e-02 -3.410592675209045410e-02 -9.897235035896301270e-02
7.040000000000000000e+02 7.783585786819458008e-01 -7.012048959732055664e-01 -5.629842728376388550e-02 -5.843576788902282715e-02 -3.442025929689407349e-02 -9.606070071458816528e-02
7.050000000000000000e+02 6.917028427124023438e-01 -1.030764341354370117e+00 -4.339876398444175720e-02 -1.006272882223129272e-01 -4.320781305432319641e-02 -1.336358636617660522e-01
7.060000000000000000e+02 6.293925642967224121e-01 -7.808761000633239746e-01 -3.548884391784667969e-02 -7.139188796281814575e-02 -3.206422179937362671e-02 -9.508974850177764893e-02
7.070000000000000000e+02 9.472883939743041992e-01 -7.062159180641174316e-01 -8.014466613531112671e-02 -3.328778222203254700e-02 -3.402973338961601257e-02 -1.254059374332427979e-01
7.080000000000000000e+02 4.776030778884887695e-01 5.666073560714721680e-01 -2.415965311229228973e-02 -2.612854167819023132e-02 -1.508645899593830109e-02 2.479166537523269653e-02
7.090000000000000000e+02 1.538459300994873047e+00 6.425859332084655762e-01 -1.847048550844192505e-01 -3.576652333140373230e-02 -6.614141911268234253e-02 1.563405394554138184e-01
7.100000000000000000e+02 5.843770027160644531e+00 9.733428359031677246e-01 -8.235784769058227539e-01 4.141977801918983459e-02 -2.346476167440414429e-01 2.445234656333923340e-01
7.110000000000000000e+02 4.688058853149414062e+00 -7.520776391029357910e-01 -1.585029065608978271e-01 8.089950680732727051e-02 -2.328102104365825653e-02 1.143325120210647583e-01
7.120000000000000000e+02 1.718168497085571289e+00 -7.818244099617004395e-01 -1.816250383853912354e-01 -1.611155271530151367e-02 -5.932097509503364563e-02 -2.011184394359588623e-01
7.130000000000000000e+02 2.141017913818359375e+00 -8.937534093856811523e-01 -2.019236534833908081e-01 1.342243049293756485e-02 -5.655036866664886475e-02 -2.051011770963668823e-01
7.140000000000000000e+02 3.295278072357177734e+00 4.408143162727355957e-01 -7.535994052886962891e-01 -9.737330488860607147e-03 -2.290010154247283936e-01 1.906334161758422852e-01
7.150000000000000000e+02 3.908945798873901367e+00 7.542336583137512207e-01 -7.869819402694702148e-01 -9.559361264109611511e-03 -2.389623820781707764e-01 2.964604496955871582e-01
7.160000000000000000e+02 4.898604869842529297e+00 3.364383876323699951e-01 -1.467419505119323730e+00 5.294081754982471466e-03 -4.386376440525054932e-01 1.647953987121582031e-01
7.170000000000000000e+02 4.172647476196289062e+00 -9.147674441337585449e-01 -1.340633928775787354e-01 9.324833750724792480e-02 -1.224451698362827301e-02 2.273933589458465576e-02
7.180000000000000000e+02 4.341487407684326172e+00 -1.208051443099975586e+00 1.676614135503768921e-01 2.017701715230941772e-01 1.108294725418090820e-01 1.662135422229766846e-01
7.190000000000000000e+02 3.930785894393920898e+00 -8.624976873397827148e-01 -2.020503133535385132e-01 8.438628911972045898e-02 -3.529920801520347595e-02 -1.662685652263462543e-03
7.200000000000000000e+02 3.666007995605468750e+00 -1.085257411003112793e+00 -6.846667826175689697e-02 1.036299765110015869e-01 1.054898928850889206e-02 -1.293440535664558411e-02
7.210000000000000000e+02 3.434339046478271484e+00 -1.001948237419128418e+00 -1.751589477062225342e-01 8.644405752420425415e-02 -2.661446668207645416e-02 -1.019836440682411194e-01
7.220000000000000000e+02 3.152985572814941406e+00 -1.041568875312805176e+00 -1.756536364555358887e-01 9.157297015190124512e-02 -2.522419951856136322e-02 -1.238419860601425171e-01
7.230000000000000000e+02 3.014698266983032227e+00 -1.173652768135070801e+00 -7.144949585199356079e-02 5.383894219994544983e-02 -5.283165723085403442e-03 -1.441119015216827393e-01
7.240000000000000000e+02 3.278838396072387695e+00 -6.853585243225097656e-01 -3.698211610317230225e-01 2.895000949501991272e-02 -1.022613421082496643e-01 -1.310987174510955811e-01
7.250000000000000000e+02 5.003881931304931641e+00 7.624759674072265625e-01 -9.957599639892578125e-01 4.485895857214927673e-03 -2.973822057247161865e-01 2.871543467044830322e-01
7.260000000000000000e+02 4.868101119995117188e+00 7.044153809547424316e-01 -1.049283385276794434e+00 -5.545316729694604874e-03 -3.164485991001129150e-01 2.725573182106018066e-01
7.270000000000000000e+02 2.721965551376342773e+00 -8.490000367164611816e-01 -2.396703660488128662e-01 1.653856784105300903e-02 -6.693954020738601685e-02 -1.626597493886947632e-01
7.280000000000000000e+02 6.305780887603759766e+00 -5.861872434616088867e-01 5.529309511184692383e-01 1.179242506623268127e-01 2.012565582990646362e-01 4.415448307991027832e-01
7.290000000000000000e+02 6.341193199157714844e+00 -7.839299440383911133e-01 9.536210298538208008e-01 1.517506986856460571e-01 3.316115140914916992e-01 6.572576165199279785e-01
7.300000000000000000e+02 2.076251029968261719e+00 7.923982143402099609e-01 -2.860879302024841309e-01 -4.039293900132179260e-02 -9.794425964355468750e-02 2.400039881467819214e-01
7.310000000000000000e+02 3.048688173294067383e+00 -8.854083418846130371e-01 -2.338987290859222412e-01 2.282281033694744110e-02 -6.332277506589889526e-02 -1.620782315731048584e-01
7.320000000000000000e+02 3.992599487304687500e+00 -6.138769388198852539e-01 -4.364783763885498047e-01 3.935962542891502380e-02 -1.191356182098388672e-01 -4.147103056311607361e-02
7.330000000000000000e+02 4.893347263336181641e+00 5.319082140922546387e-01 -1.238817334175109863e+00 1.785614527761936188e-03 -3.711095154285430908e-01 2.265893071889877319e-01
7.340000000000000000e+02 4.594274997711181641e+00 5.978508591651916504e-01 -1.091510415077209473e+00 2.345857676118612289e-03 -3.267493546009063721e-01 2.427899092435836792e-01
7.350000000000000000e+02 3.709774494171142578e+00 6.789032220840454102e-01 -7.782681584358215332e-01 -1.016291324049234390e-02 -2.365293204784393311e-01 2.670974433422088623e-01
7.360000000000000000e+02 5.240033864974975586e-01 -1.041046905517578125e+01 1.116823628544807434e-01 -1.780582189559936523e+00 -5.006699562072753906e-01 -2.362403273582458496e-01
7.370000000000000000e+02 9.771765708923339844e+00 -1.171022415161132812e+01 -9.764929413795471191e-01 1.488040065765380859e+01 4.171172142028808594e+00 5.584543228149414062e+00
7.380000000000000000e+02 1.091901588439941406e+01 -1.175814914703369141e+01 -2.225620985031127930e+00 4.933679580688476562e+00 8.124176263809204102e-01 4.446444034576416016e+00
7.390000000000000000e+02 1.225215721130371094e+01 -1.158423233032226562e+01 -1.112341117858886719e+01 -1.237649679183959961e+00 -3.708318471908569336e+00 1.919247865676879883e+00
7.400000000000000000e+02 1.369180870056152344e+01 -1.182264518737792969e+01 -1.150981616973876953e+01 -1.272872328758239746e+00 -3.834806442260742188e+00 3.303629398345947266e+00
7.410000000000000000e+02 1.649727249145507812e+01 -1.293081665039062500e+01 -7.849493026733398438e+00 -1.366520047187805176e+00 -2.764803886413574219e+00 3.106325864791870117e+00
7.420000000000000000e+02 1.775183677673339844e+01 -1.364756488800048828e+01 -6.597398757934570312e+00 -1.053203463554382324e+00 -2.295180797576904297e+00 2.761004924774169922e+00
7.430000000000000000e+02 1.900395774841308594e+01 -1.426462745666503906e+01 -6.331174373626708984e+00 -1.080711364746093750e+00 -2.223565816879272461e+00 2.527925252914428711e+00
7.440000000000000000e+02 2.276442909240722656e+01 -1.605954742431640625e+01 -4.289463043212890625e+00 -4.966933429241180420e-01 -1.435846924781799316e+00 1.630270242691040039e+00
7.450000000000000000e+02 2.515752601623535156e+01 -1.437626361846923828e+01 -3.891305685043334961e+00 2.255104482173919678e-01 -1.099738597869873047e+00 7.755323648452758789e-01
7.460000000000000000e+02 2.328359222412109375e+01 3.325649499893188477e-01 2.426862478256225586e+00 1.644038915634155273e+00 1.221270442008972168e+00 1.672413587570190430e+00
7.470000000000000000e+02 2.493527984619140625e+01 6.665755271911621094e+00 4.105611324310302734e+00 6.127357959747314453e+00 3.069890737533569336e+00 3.998932600021362305e+00
7.480000000000000000e+02 2.397977066040039062e+01 5.849736213684082031e+00 5.758715152740478516e+00 4.439103603363037109e+00 3.059345483779907227e+00 4.512030124664306641e+00
7.490000000000000000e+02 1.641346573829650879e+00 -1.176724624633789062e+01 1.942235529422760010e-01 -1.055179312825202942e-01 2.661168761551380157e-02 -5.813373923301696777e-01
7.500000000000000000e+02 6.077772378921508789e-01 -1.717160606384277344e+01 1.573179960250854492e-01 -1.183747529983520508e+00 -3.079288601875305176e-01 5.128908157348632812e-01
7.510000000000000000e+02 1.171900272369384766e+01 -1.856953430175781250e+01 2.432495594024658203e+00 5.327855110168457031e+00 2.328105211257934570e+00 -3.715301275253295898e+00
7.520000000000000000e+02 9.762657165527343750e+00 -1.631906318664550781e+01 2.837053060531616211e+00 1.563101959228515625e+01 5.540421962738037109e+00 -5.681000709533691406e+00
7.530000000000000000e+02 9.202338218688964844e+00 -1.496603298187255859e+01 3.529083728790283203e+00 2.550859451293945312e+01 8.711303710937500000e+00 -2.977637529373168945e+00
7.540000000000000000e+02 9.342785835266113281e+00 -1.285958576202392578e+01 4.462836265563964844e+00 2.434601020812988281e+01 8.642653465270996094e+00 4.618182659149169922e+00
7.550000000000000000e+02 1.892382025718688965e+00 -1.841390037536621094e+01 1.727166920900344849e-01 1.896702408790588379e+00 6.208257079124450684e-01 1.488964676856994629e+00
7.560000000000000000e+02 7.006009817123413086e-01 -2.404293251037597656e+01 -1.392132639884948730e-01 4.341505527496337891e+00 1.260687708854675293e+00 4.248585700988769531e-01
7.570000000000000000e+02 8.710215568542480469e+00 -3.032965469360351562e+01 -5.625753998756408691e-01 4.919529438018798828e+00 1.307086229324340820e+00 9.108479321002960205e-02
7.580000000000000000e+02 1.759563827514648438e+01 -4.116940307617187500e+01 1.714184731245040894e-01 1.772140383720397949e+00 5.830676555633544922e-01 -1.549737341701984406e-02
7.590000000000000000e+02 2.702227592468261719e+01 -4.103774642944335938e+01 2.111369669437408447e-01 -3.535423427820205688e-02 5.273481830954551697e-02 4.657532274723052979e-02
7.600000000000000000e+02 2.570003890991210938e+01 -3.812068939208984375e+01 1.652748435735702515e-01 3.442239388823509216e-02 5.990917235612869263e-02 6.325164437294006348e-02
7.610000000000000000e+02 3.028057670593261719e+01 -3.625611114501953125e+01 -1.278483122587203979e-01 -2.478237897157669067e-01 -1.127016320824623108e-01 2.021254897117614746e-01
7.620000000000000000e+02 3.280365371704101562e+01 -3.213560485839843750e+01 -5.281579494476318359e-01 -8.209554105997085571e-02 -1.830760389566421509e-01 1.455948054790496826e-01
7.630000000000000000e+02 2.820883750915527344e+01 -3.281717681884765625e+01 -4.747550785541534424e-01 -2.680858671665191650e-01 -2.228522896766662598e-01 3.080224692821502686e-01
7.640000000000000000e+02 2.866739273071289062e+01 -3.117924118041992188e+01 -9.099463820457458496e-01 -1.905146539211273193e-01 -3.301383256912231445e-01 3.959903120994567871e-01
7.650000000000000000e+02 2.533633613586425781e+01 -3.152125740051269531e+01 -5.424110293388366699e-01 -1.673080027103424072e-01 -2.129157036542892456e-01 3.110699653625488281e-01
7.660000000000000000e+02 2.732672119140625000e+01 -3.064999389648437500e+01 -9.337108731269836426e-01 -2.887353897094726562e-01 -3.667338788509368896e-01 4.517674148082733154e-01
7.670000000000000000e+02 1.789070701599121094e+01 -2.652846145629882812e+01 -4.066214859485626221e-01 8.528801798820495605e-01 1.338776051998138428e-01 -2.714197635650634766e-01
7.680000000000000000e+02 1.874829483032226562e+01 -2.547439193725585938e+01 -3.151118159294128418e-01 1.912722736597061157e-01 -3.715186566114425659e-02 1.152671799063682556e-01
7.690000000000000000e+02 1.573449993133544922e+01 -2.249835777282714844e+01 4.570912122726440430e-01 1.143767237663269043e+00 4.802575409412384033e-01 -8.585897684097290039e-01
7.700000000000000000e+02 1.473483562469482422e+01 -2.151831817626953125e+01 8.903709650039672852e-01 1.843559980392456055e+00 8.201792836189270020e-01 -1.206976890563964844e+00
7.710000000000000000e+02 1.088029289245605469e+01 -1.973361587524414062e+01 5.143163800239562988e-01 7.903991699218750000e+00 2.525492429733276367e+00 -2.697680473327636719e+00
7.720000000000000000e+02 1.406181907653808594e+01 -2.450334930419921875e+01 -2.823141217231750488e-01 2.999499797821044922e+00 8.151556849479675293e-01 -1.012746930122375488e+00
7.730000000000000000e+02 1.126995372772216797e+01 -2.375311279296875000e+01 -7.780439257621765137e-01 5.516527175903320312e+00 1.421545028686523438e+00 -9.157316088676452637e-01
7.740000000000000000e+02 2.208577394485473633e+00 -2.679212570190429688e+01 -1.297563463449478149e-01 5.506423950195312500e+00 1.613000273704528809e+00 6.343494653701782227e-01
7.750000000000000000e+02 7.673178315162658691e-01 -3.090914535522460938e+01 -1.786523871123790741e-02 6.493906497955322266e+00 1.942812323570251465e+00 1.076508834958076477e-01
7.760000000000000000e+02 9.082989692687988281e+00 -3.793438339233398438e+01 -7.455889135599136353e-02 4.403176784515380859e+00 1.298585414886474609e+00 -1.215389650315046310e-02
7.770000000000000000e+02 2.189755439758300781e+01 -3.871561813354492188e+01 2.276840955018997192e-01 6.984889507293701172e-01 2.778519093990325928e-01 -1.494005694985389709e-02
7.780000000000000000e+02 1.449660897254943848e+00 -3.585280227661132812e+01 -2.518791332840919495e-02 6.595882415771484375e+00 1.971208333969116211e+00 -2.432255633175373077e-02
7.790000000000000000e+02 6.242294907569885254e-01 -3.751664352416992188e+01 -2.403209917247295380e-02 6.769591331481933594e+00 2.023667812347412109e+00 -3.849055618047714233e-02
7.800000000000000000e+02 4.948182106018066406e+00 -4.012623214721679688e+01 2.132428251206874847e-02 5.702898502349853516e+00 1.717266798019409180e+00 9.218183904886245728e-02
7.810000000000000000e+02 2.226316452026367188e+00 -3.798750686645507812e+01 -3.664535656571388245e-02 6.357638359069824219e+00 1.896297931671142578e+00 -5.736623704433441162e-02
7.820000000000000000e+02 3.686626434326171875e+01 -3.712816619873046875e+01 -1.760800480842590332e-01 -2.084098458290100098e-01 -1.153469756245613098e-01 4.048784449696540833e-02
7.830000000000000000e+02 3.845502471923828125e+01 -3.284773254394531250e+01 -3.696624934673309326e-01 -4.120009392499923706e-02 -1.232587769627571106e-01 -3.120563179254531860e-02
7.840000000000000000e+02 3.706177902221679688e+01 -3.262188720703125000e+01 -3.464875817298889160e-01 -2.556417835876345634e-03 -1.047131940722465515e-01 7.732259575277566910e-03
7.850000000000000000e+02 4.290924835205078125e+01 -3.854973602294921875e+01 -1.022702548652887344e-02 -3.472187221050262451e-01 -1.072337254881858826e-01 -1.540894508361816406e-01
7.860000000000000000e+02 4.723191452026367188e+01 -3.110821723937988281e+01 -1.034837841987609863e+00 -1.545129865407943726e-01 -3.568052351474761963e-01 -4.234537780284881592e-01
7.870000000000000000e+02 4.303918838500976562e+01 -3.225703430175781250e+01 -5.545243620872497559e-01 -1.115004792809486389e-01 -1.998074501752853394e-01 -1.894055753946304321e-01
7.880000000000000000e+02 4.208752059936523438e+01 -3.491012191772460938e+01 -2.977706789970397949e-01 -1.995816677808761597e-01 -1.492057144641876221e-01 -2.031731307506561279e-01
7.890000000000000000e+02 4.822576522827148438e+01 -3.885652923583984375e+01 2.574309110641479492e-01 -4.104245007038116455e-01 -4.589807614684104919e-02 -2.247758060693740845e-01
7.900000000000000000e+02 5.232824707031250000e+01 -3.897020721435546875e+01 4.829747676849365234e-01 -1.759205944836139679e-02 1.396148055791854858e-01 -9.650395810604095459e-02
7.910000000000000000e+02 4.994616317749023438e+01 -3.027593803405761719e+01 -1.435318708419799805e+00 -3.545472025871276855e-01 -5.369597673416137695e-01 -6.637036800384521484e-01
7.920000000000000000e+02 4.858442306518554688e+01 -3.071724891662597656e+01 -1.307739138603210449e+00 -2.687524259090423584e-01 -4.729474782943725586e-01 -5.333436131477355957e-01
7.930000000000000000e+02 5.654690933227539062e+01 -3.867054367065429688e+01 5.440357923507690430e-01 8.787268996238708496e-01 4.268288016319274902e-01 -1.039523724466562271e-02
7.940000000000000000e+02 5.723806762695312500e+01 -4.124471664428710938e+01 6.073144674301147461e-01 1.105325222015380859e+00 5.137919187545776367e-01 1.991575770080089569e-02
7.950000000000000000e+02 6.129169082641601562e+01 -2.903875923156738281e+01 -5.045210123062133789e-01 2.093105316162109375e+00 4.765753149986267090e-01 3.939537703990936279e-01
7.960000000000000000e+02 6.175392150878906250e+01 -2.259703445434570312e+01 -1.222032904624938965e-01 8.928794264793395996e-01 2.312028408050537109e-01 2.692886590957641602e-01
7.970000000000000000e+02 6.074935150146484375e+01 -2.362926292419433594e+01 -5.509484410285949707e-01 2.895991504192352295e-01 -7.840477675199508667e-02 -1.083269715309143066e-01
7.980000000000000000e+02 5.854326629638671875e+01 -2.540901184082031250e+01 -1.309230089187622070e+00 -4.266309142112731934e-01 -5.207583308219909668e-01 -7.608221173286437988e-01
7.990000000000000000e+02 5.619062805175781250e+01 -2.696060180664062500e+01 -1.637687444686889648e+00 -5.486993789672851562e-01 -6.559160351753234863e-01 -9.290035367012023926e-01
8.000000000000000000e+02 5.690691757202148438e+01 -2.810793113708496094e+01 -1.117348909378051758e+00 -1.790219694375991821e-01 -3.889112770557403564e-01 -4.908954501152038574e-01
8.010000000000000000e+02 6.212532806396484375e+01 -4.090367889404296875e+01 4.535717070102691650e-01 3.129831552505493164e+00 1.075020909309387207e+00 5.729420855641365051e-02
8.020000000000000000e+02 6.073481369018554688e+01 -3.790108489990234375e+01 3.731939494609832764e-01 2.527919769287109375e+00 8.703340888023376465e-01 1.866294592618942261e-01
8.030000000000000000e+02 7.226162719726562500e+01 -3.127338600158691406e+01 -3.823775053024291992e-01 8.199187278747558594e+00 2.345042943954467773e+00 -6.347922235727310181e-02
8.040000000000000000e+02 6.725672912597656250e+01 -2.199770927429199219e+01 -8.802088499069213867e-01 7.353009223937988281e+00 1.941840171813964844e+00 8.529298305511474609e-01
8.050000000000000000e+02 7.931936645507812500e+01 -2.225555419921875000e+01 2.326848730444908142e-02 9.526173591613769531e+00 2.864832639694213867e+00 -3.201906681060791016e-01
8.060000000000000000e+02 7.801441192626953125e+01 -1.650122451782226562e+01 4.835120588541030884e-02 7.375280380249023438e+00 2.227089643478393555e+00 -1.048622012138366699e+00
8.070000000000000000e+02 7.933124542236328125e+01 -1.246195983886718750e+01 1.156050115823745728e-01 4.519151687622070312e+00 1.390426993370056152e+00 -1.481138765811920166e-01
8.080000000000000000e+02 7.804412841796875000e+01 -9.522992134094238281e+00 2.376820296049118042e-01 6.113892555236816406e+00 1.905472278594970703e+00 3.773421645164489746e-01
8.090000000000000000e+02 7.931305694580078125e+01 -5.467278957366943359e+00 -8.868296444416046143e-02 6.185716152191162109e+00 1.829109907150268555e+00 3.737119734287261963e-01
8.100000000000000000e+02 7.309427642822265625e+01 2.217644691467285156e+00 -8.251485824584960938e-01 7.924377441406250000e+00 2.129768610000610352e+00 -5.123965144157409668e-01
8.110000000000000000e+02 6.184367752075195312e+01 1.247702217102050781e+01 5.770482420921325684e-01 3.502188682556152344e+00 1.223771095275878906e+00 -1.271701693534851074e+00
8.120000000000000000e+02 5.544667053222656250e+01 1.174513626098632812e+01 1.641877144575119019e-01 2.959272861480712891e+00 9.370381832122802734e-01 -7.996706664562225342e-02
8.130000000000000000e+02 5.697010803222656250e+01 1.255830574035644531e+01 4.754264652729034424e-01 3.339877367019653320e+00 1.144591212272644043e+00 -9.432655572891235352e-01
8.140000000000000000e+02 5.513420867919921875e+01 1.037235832214355469e+01 1.434612721204757690e-01 2.101938724517822266e+00 6.736200451850891113e-01 2.590290606021881104e-01
8.150000000000000000e+02 5.362921905517578125e+01 7.862542629241943359e+00 4.288761913776397705e-01 3.470436930656433105e-01 2.327759563922882080e-01 2.398089319467544556e-01
8.160000000000000000e+02 5.242010116577148438e+01 6.956859111785888672e+00 8.287756443023681641e-01 1.809876412153244019e-01 3.029289841651916504e-01 2.040404379367828369e-01
8.170000000000000000e+02 5.101589965820312500e+01 6.429915904998779297e+00 1.296195268630981445e+00 6.414503604173660278e-02 4.081020951271057129e-01 1.833062320947647095e-01
8.180000000000000000e+02 4.955529022216796875e+01 4.131891727447509766e+00 9.306120276451110840e-01 2.650586068630218506e-01 3.587011992931365967e-01 -2.159085571765899658e-01
8.190000000000000000e+02 4.971226501464843750e+01 6.094097137451171875e+00 1.692004919052124023e+00 1.491615772247314453e-01 5.523499846458435059e-01 -4.903639853000640869e-02
8.200000000000000000e+02 4.533853530883789062e+01 7.971457958221435547e+00 7.080991864204406738e-01 4.342271089553833008e-01 3.426978886127471924e-01 -5.561723709106445312e-01
8.210000000000000000e+02 4.325461578369140625e+01 6.966838836669921875e+00 9.259110093116760254e-01 5.903598070144653320e-01 4.548812508583068848e-01 -2.953539788722991943e-01
8.220000000000000000e+02 3.922734069824218750e+01 6.090052127838134766e+00 9.958735108375549316e-01 8.555032014846801758e-01 5.554130077362060547e-01 2.458517104387283325e-01
8.230000000000000000e+02 2.629691886901855469e+01 4.221432685852050781e+00 3.266614913940429688e+00 2.851404666900634766e+00 1.835405826568603516e+00 1.400945901870727539e+00
8.240000000000000000e+02 2.861638259887695312e+01 5.171968936920166016e+00 2.862341403961181641e+00 2.039938211441040039e+00 1.470683932304382324e+00 1.079449653625488281e+00
8.250000000000000000e+02 2.704523468017578125e+01 -9.986907243728637695e-01 1.324744343757629395e+00 1.427668929100036621e+00 8.257239460945129395e-01 3.764027357101440430e-01
8.260000000000000000e+02 2.724161720275878906e+01 -2.532131433486938477e+00 7.788072228431701660e-01 1.171647906303405762e+00 5.851365327835083008e-01 1.256612390279769897e-01
8.270000000000000000e+02 2.983421325683593750e+01 -1.312767410278320312e+01 -2.915566682815551758e+00 5.208747386932373047e-01 -7.184075713157653809e-01 7.191755808889865875e-03
8.280000000000000000e+02 3.899125671386718750e+01 -1.726300048828125000e+01 -2.725259542465209961e+00 1.278276592493057251e-01 -7.792295217514038086e-01 -4.140544235706329346e-01
8.290000000000000000e+02 3.896471405029296875e+01 -1.851916122436523438e+01 -2.802604198455810547e+00 3.231060132384300232e-02 -8.310880661010742188e-01 -2.517370879650115967e-01
8.300000000000000000e+02 4.255678558349609375e+01 -1.560191917419433594e+01 -2.563821077346801758e+00 7.414973527193069458e-02 -7.469014525413513184e-01 -6.202713847160339355e-01
8.310000000000000000e+02 4.427275466918945312e+01 -1.744128036499023438e+01 -2.803410530090332031e+00 -2.494693249464035034e-01 -9.158639907836914062e-01 -8.459563851356506348e-01
8.320000000000000000e+02 5.062702560424804688e+01 -1.496942996978759766e+01 -2.498317003250122070e+00 -5.339129567146301270e-01 -9.096690416336059570e-01 -1.245450496673583984e+00
8.330000000000000000e+02 4.912878417968750000e+01 -5.935302734375000000e+00 -1.428898811340332031e+00 1.196368336677551270e-01 -3.927786052227020264e-01 -5.246416926383972168e-01
8.340000000000000000e+02 4.635838317871093750e+01 7.067804813385009766e+00 1.361617326736450195e+00 5.360067486763000488e-01 5.692872405052185059e-01 -6.861246824264526367e-01
8.350000000000000000e+02 4.673097610473632812e+01 -4.689849853515625000e+00 -9.823240637779235840e-01 2.133922576904296875e-01 -2.306795269250869751e-01 -4.300205409526824951e-01
8.360000000000000000e+02 4.774941253662109375e+01 -3.986536502838134766e+00 -8.668656945228576660e-01 1.782772243022918701e-01 -2.065765261650085449e-01 -3.997993171215057373e-01
8.370000000000000000e+02 3.862602233886718750e+01 -4.869044303894042969e+00 -6.561793684959411621e-01 5.075209140777587891e-01 -4.459752887487411499e-02 -4.365446269512176514e-01
8.380000000000000000e+02 3.930892562866210938e+01 4.651906967163085938e+00 9.805430769920349121e-01 6.641476154327392578e-01 4.934072196483612061e-01 1.367497146129608154e-01
8.390000000000000000e+02 6.713941955566406250e+01 -4.081866455078125000e+01 2.309368252754211426e-01 5.339084148406982422e+00 1.671006321907043457e+00 1.009300798177719116e-01
8.400000000000000000e+02 7.183380889892578125e+01 -4.102782058715820312e+01 6.458038836717605591e-02 7.796128749847412109e+00 2.358212709426879883e+00 1.210241764783859253e-02
8.410000000000000000e+02 7.926790618896484375e+01 -3.336690521240234375e+01 -1.857435889542102814e-02 1.144328117370605469e+01 3.427412033081054688e+00 -2.525849081575870514e-02
8.420000000000000000e+02 7.786237335205078125e+01 -3.051630401611328125e+01 -7.451637089252471924e-02 1.063304901123046875e+01 3.167559862136840820e+00 -1.566514074802398682e-01
8.430000000000000000e+02 7.929199218750000000e+01 -2.643929862976074219e+01 -5.341979861259460449e-02 1.080941963195800781e+01 3.226800203323364258e+00 -1.691768914461135864e-01
8.440000000000000000e+02 7.792380523681640625e+01 -2.358560943603515625e+01 -9.394102543592453003e-02 9.747211456298828125e+00 2.895981073379516602e+00 -6.682953238487243652e-01
8.450000000000000000e+02 7.797287750244140625e+01 -4.165948486328125000e+01 1.864302605390548706e-01 1.080159187316894531e+01 3.296406507492065430e+00 5.238427594304084778e-02
8.460000000000000000e+02 7.738288116455078125e+01 -3.817788696289062500e+01 -1.066163331270217896e-01 1.052921962738037109e+01 3.126780986785888672e+00 1.573483198881149292e-01
8.470000000000000000e+02 7.806806182861328125e+01 -2.437986135482788086e+00 -1.063617467880249023e-01 7.917185306549072266e+00 2.343247175216674805e+00 6.622321605682373047e-01
8.480000000000000000e+02 7.935578918457031250e+01 2.870701074600219727e+00 -3.110615350306034088e-02 8.837036132812500000e+00 2.641778945922851562e+00 4.106315970420837402e-02
8.490000000000000000e+02 7.237164306640625000e+01 1.083410835266113281e+01 -1.125017739832401276e-02 6.288840770721435547e+00 1.883277177810668945e+00 -9.859577417373657227e-01
8.500000000000000000e+02 6.105263519287109375e+01 1.885241889953613281e+01 7.257419228553771973e-01 3.581127882003784180e+00 1.292060971260070801e+00 -8.276044130325317383e-01
8.510000000000000000e+02 5.437226104736328125e+01 1.884011650085449219e+01 9.226248264312744141e-01 2.549824714660644531e+00 1.041734814643859863e+00 -1.207978606224060059e+00
8.520000000000000000e+02 5.350611877441406250e+01 1.746098518371582031e+01 1.452859282493591309e+00 1.595560312271118164e+00 9.145258665084838867e-01 -1.411949396133422852e+00
8.530000000000000000e+02 7.806916809082031250e+01 4.412077426910400391e+00 -8.435134589672088623e-02 8.436186790466308594e+00 2.505550384521484375e+00 -7.336904108524322510e-02
8.540000000000000000e+02 7.935243225097656250e+01 8.431987762451171875e+00 3.313349792733788490e-03 8.404607772827148438e+00 2.522376298904418945e+00 -8.791255205869674683e-02
8.550000000000000000e+02 7.260519409179687500e+01 1.670350646972656250e+01 1.512309461832046509e-01 5.840180397033691406e+00 1.797423362731933594e+00 -7.874453663825988770e-01
8.560000000000000000e+02 5.995929718017578125e+01 2.568346214294433594e+01 6.051188111305236816e-01 3.466064453125000000e+00 1.221354961395263672e+00 -6.571930050849914551e-01
8.570000000000000000e+02 5.584102630615234375e+01 2.605136108398437500e+01 7.910840511322021484e-01 2.792895317077636719e+00 1.075193762779235840e+00 -6.193557381629943848e-01
8.580000000000000000e+02 5.249634933471679688e+01 4.078075790405273438e+01 7.715544104576110840e-01 2.720427751541137695e+00 1.047594666481018066e+00 -3.630740195512771606e-02
8.590000000000000000e+02 4.236194992065429688e+01 4.042060470581054688e+01 8.103938698768615723e-01 2.040755510330200195e+00 8.553448319435119629e-01 2.040527947247028351e-02
8.600000000000000000e+02 3.739579391479492188e+01 4.073377227783203125e+01 7.373944520950317383e-01 1.856007933616638184e+00 7.780207395553588867e-01 3.434934839606285095e-02
8.610000000000000000e+02 4.131069564819335938e+01 3.650822448730468750e+01 7.858608961105346680e-01 1.975502014160156250e+00 8.284088969230651855e-01 7.769034057855606079e-02
8.620000000000000000e+02 3.588816070556640625e+01 3.076475334167480469e+01 6.031671762466430664e-01 1.813338637351989746e+00 7.249517440795898438e-01 2.235191315412521362e-01
8.630000000000000000e+02 3.833917617797851562e+01 2.272815895080566406e+01 5.293311476707458496e-01 1.928372502326965332e+00 7.373110651969909668e-01 5.201171636581420898e-01
8.640000000000000000e+02 3.915748977661132812e+01 1.133848094940185547e+01 7.717883586883544922e-01 1.595070004463195801e+00 7.100574970245361328e-01 7.885887622833251953e-01
8.650000000000000000e+02 3.915915298461914062e+01 1.020646667480468750e+01 8.096934556961059570e-01 1.464801549911499023e+00 6.823484897613525391e-01 7.091989517211914062e-01
8.660000000000000000e+02 4.159445190429687500e+01 1.170230007171630859e+01 3.888626694679260254e-01 1.878254413604736328e+00 6.801351308822631836e-01 4.116711914539337158e-01
8.670000000000000000e+02 4.297171401977539062e+01 7.923949718475341797e+00 7.139583826065063477e-01 7.737102508544921875e-01 4.463005959987640381e-01 -2.828555405139923096e-01
8.680000000000000000e+02 7.805690002441406250e+01 1.134288501739501953e+01 -1.313163526356220245e-02 7.614703178405761719e+00 2.280471563339233398e+00 -3.079105913639068604e-01
8.690000000000000000e+02 7.932629394531250000e+01 1.679413986206054688e+01 1.309195626527070999e-02 7.057057857513427734e+00 2.121044874191284180e+00 -9.539492428302764893e-02
8.700000000000000000e+02 7.121591186523437500e+01 2.243842697143554688e+01 2.056987136602401733e-01 5.281862258911132812e+00 1.646268367767333984e+00 -6.458141207695007324e-01
8.710000000000000000e+02 6.367541885375976562e+01 2.892198562622070312e+01 4.481950402259826660e-01 4.010660171508789062e+00 1.337656497955322266e+00 -5.216233134269714355e-01
8.720000000000000000e+02 5.700618743896484375e+01 3.750679397583007812e+01 6.573247909545898438e-01 3.182834148406982422e+00 1.152047634124755859e+00 -1.561353057622909546e-01
8.730000000000000000e+02 4.748158264160156250e+01 4.044118881225585938e+01 8.268580436706542969e-01 2.299438714981079102e+00 9.378890395164489746e-01 -4.222500137984752655e-03
8.740000000000000000e+02 7.793932342529296875e+01 1.973198890686035156e+01 8.865732699632644653e-03 6.488363265991210938e+00 1.949168682098388672e+00 -2.419300973415374756e-01
8.750000000000000000e+02 7.930704498291015625e+01 2.377201271057128906e+01 -4.864829126745462418e-03 6.222548961639404297e+00 1.865305185317993164e+00 -6.152646616101264954e-02
8.760000000000000000e+02 7.285765838623046875e+01 2.907036781311035156e+01 1.153500303626060486e-01 5.226710319519042969e+00 1.602618098258972168e+00 -3.572089672088623047e-01
8.770000000000000000e+02 6.230691146850585938e+01 4.063258743286132812e+01 4.506592452526092529e-01 3.853812694549560547e+00 1.291341662406921387e+00 -7.701140642166137695e-02
8.780000000000000000e+02 5.736382293701171875e+01 4.083137512207031250e+01 6.402432918548583984e-01 3.233654260635375977e+00 1.162169337272644043e+00 -4.958814755082130432e-02
8.790000000000000000e+02 7.649230957031250000e+01 2.265299606323242188e+01 4.875732958316802979e-02 6.024573326110839844e+00 1.821999073028564453e+00 -3.273233175277709961e-01
8.800000000000000000e+02 7.926521301269531250e+01 2.933022117614746094e+01 1.098120352253317833e-03 5.801056861877441406e+00 1.740646481513977051e+00 -3.931713476777076721e-02
8.810000000000000000e+02 7.145429992675781250e+01 3.805204010009765625e+01 1.368404924869537354e-01 4.888291358947753906e+00 1.507539629936218262e+00 -1.114382445812225342e-01
8.820000000000000000e+02 7.922200012207031250e+01 3.212287139892578125e+01 9.335406124591827393e-03 5.660583496093750000e+00 1.700975775718688965e+00 -3.145713359117507935e-02
8.830000000000000000e+02 7.920096588134765625e+01 3.765470504760742188e+01 -2.743836725130677223e-03 5.468446731567382812e+00 1.639710783958435059e+00 -2.512872777879238129e-02
8.840000000000000000e+02 7.760076141357421875e+01 3.915243530273437500e+01 -6.188919651322066784e-04 5.402057647705078125e+00 1.620431661605834961e+00 -6.118789315223693848e-02
8.850000000000000000e+02 3.255883789062500000e+01 4.077183532714843750e+01 6.453036069869995117e-01 1.766625046730041504e+00 7.235785722732543945e-01 2.798150479793548584e-02
8.860000000000000000e+02 3.040966224670410156e+01 3.076736450195312500e+01 5.197892785072326660e-01 1.686027526855468750e+00 6.617450714111328125e-01 2.349636852741241455e-01
8.870000000000000000e+02 2.839013099670410156e+01 2.269123077392578125e+01 2.028589099645614624e-01 1.497968554496765137e+00 5.102482438087463379e-01 2.791607677936553955e-01
8.880000000000000000e+02 2.756424522399902344e+01 1.558968830108642578e+01 -6.849187016487121582e-01 1.927032589912414551e+00 3.726341426372528076e-01 5.726382732391357422e-01
8.890000000000000000e+02 2.708586311340332031e+01 9.994557380676269531e+00 1.025180578231811523e+00 3.948765993118286133e+00 1.492184042930603027e+00 1.895051836967468262e+00
8.900000000000000000e+02 2.715274810791015625e+01 1.251880836486816406e+01 -2.243443280458450317e-01 2.659944295883178711e+00 7.306799888610839844e-01 1.276554226875305176e+00
8.910000000000000000e+02 2.249094963073730469e+01 4.028503799438476562e+01 3.642354309558868408e-01 1.818074703216552734e+00 6.546930670738220215e-01 8.062981814146041870e-02
8.920000000000000000e+02 2.704301261901855469e+01 3.253862762451171875e+01 4.836298227310180664e-01 1.670046210289001465e+00 6.461028456687927246e-01 2.555013597011566162e-01
8.930000000000000000e+02 2.034630393981933594e+01 2.398509788513183594e+01 2.413922399282455444e-01 1.524478435516357422e+00 5.297611951828002930e-01 9.341128468513488770e-01
8.940000000000000000e+02 1.993569946289062500e+01 1.675139617919921875e+01 -1.009503602981567383e+00 -4.137225821614265442e-02 -3.152627646923065186e-01 8.839953541755676270e-01
8.950000000000000000e+02 2.171210861206054688e+01 1.746185874938964844e+01 -5.388567447662353516e-01 -2.988839447498321533e-01 -2.513222098350524902e-01 5.987834334373474121e-01
8.960000000000000000e+02 2.239438819885253906e+01 1.571389198303222656e+01 -2.014207124710083008e+00 -6.244788765907287598e-01 -7.916058301925659180e-01 1.019467473030090332e+00
8.970000000000000000e+02 2.403811836242675781e+01 1.612740135192871094e+01 -1.108737587928771973e+00 3.519894480705261230e-01 -2.270244657993316650e-01 2.157940268516540527e-01
8.980000000000000000e+02 2.349409675598144531e+01 1.498200035095214844e+01 -1.457130193710327148e+00 -5.603730082511901855e-01 -6.052509546279907227e-01 8.606737256050109863e-01
8.990000000000000000e+02 2.563280487060546875e+01 1.245522022247314453e+01 -3.644318282604217529e-01 1.989787101745605469e+00 4.876065850257873535e-01 3.007150292396545410e-01
9.000000000000000000e+02 2.575127029418945312e+01 1.117772102355957031e+01 2.599738538265228271e-01 3.384378433227539062e+00 1.093305706977844238e+00 3.878000080585479736e-01
9.010000000000000000e+02 2.577110862731933594e+01 9.861172676086425781e+00 4.115951061248779297e-02 4.559474945068359375e+00 1.380190372467041016e+00 6.855878829956054688e-01
9.020000000000000000e+02 2.578312683105468750e+01 8.582317352294921875e+00 1.629139661788940430e+00 6.354202747344970703e+00 2.395002603530883789e+00 2.079011201858520508e+00
9.030000000000000000e+02 2.612429046630859375e+01 7.258715152740478516e+00 3.261394500732421875e+00 5.314677715301513672e+00 2.572821617126464844e+00 2.554974317550659180e+00
9.040000000000000000e+02 1.739363670349121094e+01 4.057380294799804688e+01 1.976045817136764526e-01 1.933491945266723633e+00 6.393289566040039062e-01 6.670145690441131592e-02
9.050000000000000000e+02 2.258052062988281250e+01 3.642955780029296875e+01 3.625346422195434570e-01 1.797418475151062012e+00 6.479859352111816406e-01 2.112293839454650879e-01
9.060000000000000000e+02 1.497311401367187500e+01 3.403157424926757812e+01 2.751588262617588043e-02 2.095304965972900391e+00 6.368463039398193359e-01 2.571213245391845703e-01
9.070000000000000000e+02 1.491878795623779297e+01 2.093846893310546875e+01 -4.878305494785308838e-01 3.481431722640991211e+00 8.980804085731506348e-01 1.053946852684020996e+00
9.080000000000000000e+02 1.777687263488769531e+01 1.649992752075195312e+01 8.630068302154541016e-01 1.229273438453674316e+00 6.276841163635253906e-01 1.596093177795410156e+00
9.090000000000000000e+02 1.862059020996093750e+01 1.751533889770507812e+01 1.010050904005765915e-02 8.999240398406982422e-01 2.730073630809783936e-01 1.487856507301330566e+00
9.100000000000000000e+02 1.258752155303955078e+01 4.096549987792968750e+01 5.779553204774856567e-02 2.035274982452392578e+00 6.279211640357971191e-01 2.338669076561927795e-02
9.110000000000000000e+02 8.079740524291992188e+00 4.103164291381835938e+01 6.230596918612718582e-03 2.046344995498657227e+00 6.157726645469665527e-01 7.812717929482460022e-03
9.120000000000000000e+02 7.938201427459716797e+00 2.379819869995117188e+01 -3.312784135341644287e-01 2.655784130096435547e+00 6.973517537117004395e-01 -2.732640206813812256e-01
9.130000000000000000e+02 1.309952831268310547e+01 1.545243740081787109e+01 8.728326559066772461e-01 5.721590518951416016e+00 1.978326916694641113e+00 4.119423031806945801e-01
9.140000000000000000e+02 1.322296619415283203e+01 1.005116367340087891e+01 2.765252590179443359e-01 7.746878147125244141e+00 2.407021045684814453e+00 1.103494405746459961e+00
9.150000000000000000e+02 1.585587263107299805e-01 2.375550746917724609e+00 -1.181665528565645218e-02 -3.829964101314544678e-01 -1.184439212083816528e-01 4.556874185800552368e-02
9.160000000000000000e+02 1.118295955657958984e+01 1.290833711624145508e+00 3.802774190902709961e+00 1.558863449096679688e+01 5.817422389984130859e+00 3.278124094009399414e+00
9.170000000000000000e+02 1.788151359558105469e+01 4.135480880737304688e+00 -5.371792912483215332e-01 -1.979696512222290039e+00 -7.550627589225769043e-01 2.009177207946777344e+00
9.180000000000000000e+02 1.641243171691894531e+01 5.934436798095703125e+00 -2.961061239242553711e+00 -1.860933184623718262e+00 -1.446598291397094727e+00 2.498692035675048828e+00
9.190000000000000000e+02 1.554863452911376953e+01 6.873531341552734375e+00 -1.909583449363708496e+00 3.229480981826782227e-01 -4.759905934333801270e-01 1.116110920906066895e+00
9.200000000000000000e+02 1.484454250335693359e+01 7.861886024475097656e+00 -4.270217120647430420e-01 5.642578601837158203e+00 1.564666986465454102e+00 -7.865564525127410889e-02
9.210000000000000000e+02 1.442702484130859375e+01 1.100980854034423828e+01 1.011853367090225220e-01 1.021795082092285156e+01 3.095740795135498047e+00 7.942324280738830566e-01
9.220000000000000000e+02 1.451192760467529297e+01 1.238454151153564453e+01 1.401843428611755371e+00 1.098922443389892578e+01 3.717320442199707031e+00 1.951591610908508301e+00
9.230000000000000000e+02 1.495745563507080078e+01 1.371263122558593750e+01 2.378716945648193359e+00 9.425365447998046875e+00 3.541224718093872070e+00 3.375774621963500977e+00
9.240000000000000000e+02 1.674182510375976562e+01 1.578569316864013672e+01 2.754997730255126953e+00 3.201884508132934570e+00 1.787064671516418457e+00 2.548752784729003906e+00
9.250000000000000000e+02 1.578587436676025391e+01 1.484798049926757812e+01 2.911520481109619141e+00 5.915501594543457031e+00 2.648106575012207031e+00 3.713290929794311523e+00
9.260000000000000000e+02 1.394927692413330078e+01 1.631622886657714844e+01 3.156147301197052002e-01 5.776297092437744141e+00 1.827573537826538086e+00 6.794418096542358398e-01
9.270000000000000000e+02 2.003539800643920898e+00 4.164575958251953125e+01 -4.189924336969852448e-03 1.998602151870727539e+00 5.983237028121948242e-01 -1.216667005792260170e-03
9.280000000000000000e+02 4.133533477783203125e+00 3.794542694091796875e+01 -8.233004249632358551e-03 2.014727354049682617e+00 6.019483208656311035e-01 -5.855529103428125381e-03
9.290000000000000000e+02 2.249995946884155273e+00 3.569194030761718750e+01 -5.259072408080101013e-03 1.989854335784912109e+00 5.953785777091979980e-01 -1.399411913007497787e-02
9.300000000000000000e+02 2.049388170242309570e+00 2.907978248596191406e+01 -2.249953709542751312e-02 1.868491888046264648e+00 5.537977218627929688e-01 -9.502108395099639893e-02
9.310000000000000000e+02 2.038884639739990234e+00 2.342762947082519531e+01 -3.519704937934875488e-02 1.502433538436889648e+00 4.401709437370300293e-01 -2.569919228553771973e-01
9.320000000000000000e+02 1.913012385368347168e+00 1.776676559448242188e+01 8.213554392568767071e-04 7.676169276237487793e-01 2.305314838886260986e-01 -3.499322533607482910e-01
9.330000000000000000e+02 1.752016425132751465e+00 1.217963886260986328e+01 2.043999731540679932e-02 7.983526214957237244e-03 8.527057245373725891e-03 -2.091867923736572266e-01
9.340000000000000000e+02 1.672561049461364746e+00 9.206608772277832031e+00 2.963424287736415863e-02 -2.610089182853698730e-01 -6.941239535808563232e-02 -1.132959350943565369e-01
9.350000000000000000e+02 1.096559429168701172e+01 -1.372488260269165039e+00 5.567309379577636719e+00 1.632658004760742188e+01 6.568166732788085938e+00 3.415778875350952148e-01
9.360000000000000000e+02 1.763009834289550781e+01 6.868169903755187988e-01 4.818471908569335938e+00 -5.969952791929244995e-02 1.427631735801696777e+00 2.168694734573364258e+00
9.370000000000000000e+02 1.971251487731933594e+01 1.052846014499664307e-02 3.877231121063232422e+00 2.498986572027206421e-01 1.238138914108276367e+00 2.302052259445190430e+00
9.380000000000000000e+02 2.080231666564941406e+01 -1.033387303352355957e+00 3.054684638977050781e+00 5.369011759757995605e-01 1.077475786209106445e+00 1.675782442092895508e+00
9.390000000000000000e+02 1.076809597015380859e+01 -1.474140763282775879e+00 4.701999664306640625e+00 1.684227371215820312e+01 6.463282108306884766e+00 1.192535400390625000e+00
9.400000000000000000e+02 9.523299217224121094e+00 -1.746317028999328613e+00 4.158615589141845703e+00 1.143078517913818359e+01 4.676820278167724609e+00 7.177309513092041016e+00
9.410000000000000000e+02 1.212964248657226562e+01 -1.050073337554931641e+01 -4.265578269958496094e+00 8.489071130752563477e-01 -1.025001406669616699e+00 5.220390319824218750e+00
9.420000000000000000e+02 2.185695838928222656e+01 4.590865612030029297e+00 6.114879131317138672e+00 1.626543641090393066e+00 2.322426795959472656e+00 2.959475040435791016e+00
9.430000000000000000e+02 2.291094970703125000e+01 5.155923366546630859e+00 6.641765594482421875e+00 2.962178945541381836e+00 2.881183385848999023e+00 3.813400268554687500e+00
9.440000000000000000e+02 2.003575897216796875e+01 3.966637372970581055e+00 4.188411712646484375e+00 7.008736729621887207e-01 1.466785669326782227e+00 2.221018791198730469e+00
9.450000000000000000e+02 2.011897659301757812e+01 2.599092483520507812e+00 3.220131158828735352e+00 6.010217070579528809e-01 1.146345853805541992e+00 3.268166303634643555e+00
9.460000000000000000e+02 6.691754150390625000e+01 -7.031016826629638672e+00 2.978739023208618164e+00 8.438182830810546875e+00 3.425076484680175781e+00 -5.332882881164550781e+00
9.470000000000000000e+02 6.820742034912109375e+01 -7.279215335845947266e+00 2.439152002334594727e+00 1.551096630096435547e+01 5.385035514831542969e+00 -4.218763351440429688e+00
9.480000000000000000e+02 6.859253692626953125e+01 -9.964492797851562500e+00 1.426890850067138672e+00 2.495466232299804688e+01 7.914465904235839844e+00 -2.270027399063110352e+00
9.490000000000000000e+02 6.939297485351562500e+01 -1.270422935485839844e+01 2.763175725936889648e+00 1.934115600585937500e+01 6.631299495697021484e+00 1.081948161125183105e+00
9.500000000000000000e+02 7.051844024658203125e+01 -1.408250141143798828e+01 1.681088685989379883e+00 1.350636482238769531e+01 4.556235790252685547e+00 -5.238338112831115723e-01
9.510000000000000000e+02 6.704801177978515625e+01 -1.796433067321777344e+01 6.506506800651550293e-01 9.075655937194824219e+00 2.917891979217529297e+00 2.344516515731811523e+00
9.520000000000000000e+02 6.621687316894531250e+01 -1.706529426574707031e+01 2.073225736618041992e+00 7.888600826263427734e+00 2.988548040390014648e+00 3.941737413406372070e+00
9.530000000000000000e+02 6.266508483886718750e+01 -2.374613189697265625e+01 -4.916628599166870117e-01 2.240365028381347656e+00 5.246106386184692383e-01 5.842798948287963867e-01
9.540000000000000000e+02 6.829543304443359375e+01 -2.278134346008300781e+01 -1.036386609077453613e+00 7.725473880767822266e+00 2.006726026535034180e+00 4.414628744125366211e-01
9.550000000000000000e+02 2.265924263000488281e+01 -3.016437911987304688e+01 -5.665432810783386230e-01 -6.904009263962507248e-03 -1.720341891050338745e-01 1.811650246381759644e-01
9.560000000000000000e+02 2.098942375183105469e+01 -2.726158714294433594e+01 -8.213564753532409668e-01 -1.379174739122390747e-01 -2.877821922302246094e-01 4.036580622196197510e-01
9.570000000000000000e+02 1.982037734985351562e+01 -2.642760276794433594e+01 -6.478707194328308105e-01 -1.139525398612022400e-01 -2.285469919443130493e-01 2.550932765007019043e-01
9.580000000000000000e+02 2.669116210937500000e+01 -1.734334945678710938e+01 -3.890330553054809570e+00 -1.814716160297393799e-01 -1.221540689468383789e+00 9.746870994567871094e-01
9.590000000000000000e+02 3.074126434326171875e+01 -1.823394393920898438e+01 -3.431406974792480469e+00 -1.028978172689676285e-02 -1.032508969306945801e+00 4.531438648700714111e-01
9.600000000000000000e+02 2.936456680297851562e+01 -1.420270347595214844e+01 -3.152727842330932617e+00 4.155593812465667725e-01 -8.211505413055419922e-01 1.757924407720565796e-01
9.610000000000000000e+02 3.272024154663085938e+01 -1.598525714874267578e+01 -3.067586660385131836e+00 3.075778186321258545e-01 -8.280026316642761230e-01 4.754484444856643677e-02
9.620000000000000000e+02 3.374576950073242188e+01 -1.730407714843750000e+01 -3.118520736694335938e+00 2.086884975433349609e-01 -8.729496598243713379e-01 4.261079058051109314e-02
9.630000000000000000e+02 5.425194549560546875e+01 -1.295076084136962891e+01 -2.797917127609252930e+00 -8.344677090644836426e-01 -1.089715480804443359e+00 -1.588394165039062500e+00
9.640000000000000000e+02 5.893217086791992188e+01 -9.951555252075195312e+00 -3.823636054992675781e+00 -1.388044357299804688e+00 -1.563504099845886230e+00 -2.281593561172485352e+00
9.650000000000000000e+02 5.535179519653320312e+01 -6.347108364105224609e+00 -2.142463445663452148e+00 -2.215114980936050415e-01 -7.091925144195556641e-01 -7.658323049545288086e-01
9.660000000000000000e+02 5.462530517578125000e+01 5.758957386016845703e+00 6.489534974098205566e-01 5.527015924453735352e-01 3.604965209960937500e-01 -5.404930189251899719e-02
9.670000000000000000e+02 5.450883102416992188e+01 9.069801330566406250e+00 1.941630691289901733e-01 9.203181266784667969e-01 3.343443572521209717e-01 2.911907434463500977e-01
9.680000000000000000e+02 5.806649398803710938e+01 -9.085201263427734375e+00 -3.495823144912719727e+00 -9.119349718093872070e-01 -1.322327375411987305e+00 -1.750861763954162598e+00
9.690000000000000000e+02 6.280426406860351562e+01 -5.021716594696044922e+00 -1.666324734687805176e+00 -6.769363880157470703e-01 -7.029783725738525391e-01 -1.907711863517761230e+00
9.700000000000000000e+02 6.224340820312500000e+01 -9.093467146158218384e-02 -8.832826465368270874e-02 1.626956105232238770e+00 4.615883529186248779e-01 -2.070310592651367188e+00
9.710000000000000000e+02 6.082843017578125000e+01 4.731673240661621094e+00 2.705145180225372314e-01 2.274539232254028320e+00 7.635161280632019043e-01 -1.380041599273681641e+00
9.720000000000000000e+02 4.741133499145507812e+01 1.882942581176757812e+01 1.016372084617614746e+00 3.374813795089721680e-01 4.061560630798339844e-01 4.706137478351593018e-01
9.730000000000000000e+02 4.495061111450195312e+01 1.760583686828613281e+01 1.403858304023742676e+00 1.325855374336242676e+00 8.189141154289245605e-01 1.219307422637939453e+00
9.740000000000000000e+02 4.088580322265625000e+01 1.602987289428710938e+01 8.884665966033935547e-01 2.030998468399047852e+00 8.758395314216613770e-01 7.854449152946472168e-01
9.750000000000000000e+02 4.251791763305664062e+01 1.629714584350585938e+01 1.053518414497375488e+00 2.514917373657226562e+00 1.070530772209167480e+00 1.001372456550598145e+00
9.760000000000000000e+02 4.284105682373046875e+01 1.464461040496826172e+01 7.241811156272888184e-01 2.984967947006225586e+00 1.112744688987731934e+00 1.000806927680969238e+00
9.770000000000000000e+02 5.790150451660156250e+01 1.501896476745605469e+01 9.827810525894165039e-01 3.210997343063354492e+00 1.258133530616760254e+00 -9.473816752433776855e-01
9.780000000000000000e+02 5.779278945922851562e+01 1.825196456909179688e+01 8.326039314270019531e-01 3.278081655502319336e+00 1.233205676078796387e+00 -8.662418723106384277e-01
9.790000000000000000e+02 5.561216735839843750e+01 1.311602687835693359e+01 1.058837175369262695e-01 3.676906108856201172e+00 1.134836912155151367e+00 -3.734761476516723633e-01
9.800000000000000000e+02 4.554273986816406250e+01 1.970162391662597656e+01 9.553675651550292969e-01 1.277370929718017578e+00 6.698215603828430176e-01 9.114579558372497559e-01
9.810000000000000000e+02 3.809600448608398438e+01 -7.152291774749755859e+00 -1.169634699821472168e+00 5.222273468971252441e-01 -1.942222118377685547e-01 -5.079883337020874023e-01
9.820000000000000000e+02 3.258779525756835938e+01 -1.117076206207275391e+01 -2.242884397506713867e+00 6.326538920402526855e-01 -4.830691814422607422e-01 -3.330369591712951660e-01
9.830000000000000000e+02 4.241061019897460938e+01 -1.456201553344726562e+01 -2.479883670806884766e+00 1.386663466691970825e-01 -7.023651599884033203e-01 -6.469159126281738281e-01
9.840000000000000000e+02 4.417536544799804688e+01 -1.377010059356689453e+01 -2.385870218276977539e+00 4.625326395034790039e-02 -7.018850445747375488e-01 -7.426669597625732422e-01
9.850000000000000000e+02 5.040889739990234375e+01 -1.220289516448974609e+01 -2.508824348449707031e+00 -2.712126970291137695e-01 -8.340110778808593750e-01 -1.107473373413085938e+00
9.860000000000000000e+02 4.813737869262695312e+01 -6.548108577728271484e+00 -1.489912033081054688e+00 1.512634903192520142e-01 -4.015945792198181152e-01 -5.483911037445068359e-01
9.870000000000000000e+02 5.816320037841796875e+01 -5.780947685241699219e+00 -2.240307569503784180e+00 -4.016021192073822021e-01 -7.925729155540466309e-01 -8.901783227920532227e-01
9.880000000000000000e+02 6.346315383911132812e+01 -6.940654754638671875e+00 -5.762972831726074219e+00 -1.458017110824584961e+00 -2.166296958923339844e+00 -2.602023601531982422e+00
9.890000000000000000e+02 6.849871063232421875e+01 -4.631791114807128906e+00 -2.382911205291748047e+00 1.073223304748535156e+01 2.504796504974365234e+00 -3.119713068008422852e+00
9.900000000000000000e+02 6.717473602294921875e+01 -5.667954444885253906e+00 -2.953665018081665039e+00 9.744770050048828125e+00 2.037331342697143555e+00 -4.813122272491455078e+00
9.910000000000000000e+02 5.363610076904296875e+01 3.176087141036987305e+00 5.769180655479431152e-01 2.601866722106933594e-01 2.511314153671264648e-01 -2.727337479591369629e-01
9.920000000000000000e+02 2.215337371826171875e+01 -1.449599170684814453e+01 -4.757995128631591797e+00 -1.730986982583999634e-01 -1.479328155517578125e+00 1.424940466880798340e+00
9.930000000000000000e+02 3.669717407226562500e+01 -1.369247531890869141e+01 -2.495157480239868164e+00 4.060167968273162842e-01 -6.267422437667846680e-01 -3.933072388172149658e-01
9.940000000000000000e+02 1.389006328582763672e+01 -3.093531036376953125e+01 -4.617954492568969727e-01 3.131718635559082031e+00 8.009769916534423828e-01 -3.592312633991241455e-01
9.950000000000000000e+02 1.909348869323730469e+01 -2.988316917419433594e+01 -3.506439030170440674e-01 9.054776430130004883e-01 1.664501279592514038e-01 -1.756379306316375732e-01
9.960000000000000000e+02 5.393415451049804688e+00 -3.367089080810546875e+01 -2.240412086248397827e-01 5.472136497497558594e+00 1.574428558349609375e+00 1.485388725996017456e-01
9.970000000000000000e+02 6.284518051147460938e+01 -2.924982452392578125e+01 -4.969827234745025635e-01 3.153483629226684570e+00 7.969502806663513184e-01 5.317749381065368652e-01
9.980000000000000000e+02 7.454424285888671875e+01 -3.289605331420898438e+01 -1.707618534564971924e-01 9.142966270446777344e+00 2.691661357879638672e+00 -5.767174437642097473e-02
9.990000000000000000e+02 6.697255706787109375e+01 -1.588374423980712891e+01 2.249555826187133789e+00 1.104661178588867188e+01 3.988850355148315430e+00 4.290634632110595703e+00
1.000000000000000000e+03 7.334207916259765625e+01 4.661909103393554688e+00 -4.845884144306182861e-01 7.412657260894775391e+00 2.078420639038085938e+00 -6.929086446762084961e-01
1.001000000000000000e+03 7.329815673828125000e+01 1.124117946624755859e+01 2.161814644932746887e-02 6.472517967224121094e+00 1.948240756988525391e+00 -8.645864725112915039e-01
1.002000000000000000e+03 6.102236175537109375e+01 1.163858985900878906e+01 5.469487309455871582e-01 3.305066585540771484e+00 1.155604600906372070e+00 -1.214639544486999512e+00
1.003000000000000000e+03 7.236104583740234375e+01 1.793877220153808594e+01 1.672999709844589233e-01 5.718012809753417969e+00 1.765593886375427246e+00 -7.594490051269531250e-01
1.004000000000000000e+03 6.083385086059570312e+01 1.720070266723632812e+01 8.501600027084350586e-01 3.508229494094848633e+00 1.307516813278198242e+00 -9.338957071304321289e-01
1.005000000000000000e+03 4.967264175415039062e+01 1.914420700073242188e+01 9.422056078910827637e-01 2.745346426963806152e-01 3.650220632553100586e-01 -6.932312995195388794e-02
1.006000000000000000e+03 5.093923568725585938e+01 1.870585250854492188e+01 9.606547355651855469e-01 2.931157946586608887e-01 3.761311471462249756e-01 -4.657209515571594238e-01
1.007000000000000000e+03 4.836148071289062500e+01 2.242064476013183594e+01 1.179611086845397949e+00 1.107485651969909668e+00 6.861290335655212402e-01 1.453287303447723389e-01
1.008000000000000000e+03 4.957477188110351562e+01 3.340927505493164062e+01 8.724811673164367676e-01 2.315289020538330078e+00 9.563310146331787109e-01 -8.450807631015777588e-02
1.009000000000000000e+03 5.122880935668945312e+01 2.805738449096679688e+01 9.657990336418151855e-01 2.160755872726440430e+00 9.379665255546569824e-01 -2.497984766960144043e-01
1.010000000000000000e+03 4.243067550659179688e+01 3.170798492431640625e+01 7.870713472366333008e-01 1.922004580497741699e+00 8.127228021621704102e-01 1.717738509178161621e-01
1.011000000000000000e+03 4.088785171508789062e+01 2.907956504821777344e+01 7.178121805191040039e-01 1.877360343933105469e+00 7.785517573356628418e-01 2.687250375747680664e-01
1.012000000000000000e+03 4.664676284790039062e+01 2.352403831481933594e+01 1.025559067726135254e+00 1.454536676406860352e+00 7.440287470817565918e-01 3.978030681610107422e-01
1.013000000000000000e+03 4.449850463867187500e+01 2.363383674621582031e+01 8.618752956390380859e-01 1.661569237709045410e+00 7.570333480834960938e-01 5.174016952514648438e-01
1.014000000000000000e+03 4.771143341064453125e+01 2.107810211181640625e+01 1.198641061782836914e+00 9.022575020790100098e-01 6.302695274353027344e-01 3.853372037410736084e-01
1.015000000000000000e+03 5.409627151489257812e+01 2.330311775207519531e+01 8.947839736938476562e-01 2.369654893875122070e+00 9.793316721916198730e-01 -7.520208954811096191e-01
1.016000000000000000e+03 5.283469390869140625e+01 2.277246475219726562e+01 1.016599535942077637e+00 1.953028202056884766e+00 8.908883333206176758e-01 -6.981667876243591309e-01
1.017000000000000000e+03 2.642076492309570312e+01 1.789428520202636719e+01 -5.158031582832336426e-01 1.351963043212890625e+00 2.508479654788970947e-01 1.775271296501159668e-01
1.018000000000000000e+03 1.218336677551269531e+01 1.026303291320800781e+01 4.331124424934387207e-01 7.080711841583251953e+00 2.254147291183471680e+00 1.413319230079650879e+00
1.019000000000000000e+03 1.856986284255981445e+00 1.636820983886718750e+01 1.690313220024108887e-02 5.502491593360900879e-01 1.701456904411315918e-01 -3.296107947826385498e-01
1.020000000000000000e+03 7.146810150146484375e+01 2.568626213073730469e+01 1.821340471506118774e-01 5.183880329132080078e+00 1.609804272651672363e+00 -5.218517184257507324e-01
1.021000000000000000e+03 6.557952880859375000e+01 2.765905952453613281e+01 3.820748627185821533e-01 4.319937229156494141e+00 1.410603642463684082e+00 -5.504034757614135742e-01
1.022000000000000000e+03 3.506576919555664062e+01 2.550072669982910156e+01 4.483085274696350098e-01 1.839424371719360352e+00 6.863198876380920410e-01 3.397859632968902588e-01
1.023000000000000000e+03 2.976821899414062500e+01 2.100858116149902344e+01 7.209393382072448730e-02 1.696046352386474609e+00 5.304420590400695801e-01 3.371272385120391846e-01
1.024000000000000000e+03 2.326609039306640625e+01 2.460365104675292969e+01 3.629760742187500000e-01 1.313846349716186523e+00 5.030466914176940918e-01 5.889169573783874512e-01
1.025000000000000000e+03 1.946506881713867188e+01 2.248671531677246094e+01 1.735168546438217163e-01 1.554876446723937988e+00 5.185179710388183594e-01 1.175622344017028809e+00
1.026000000000000000e+03 7.677968978881835938e+00 2.506457519531250000e+01 -3.119897246360778809e-01 2.536982536315917969e+00 6.674978733062744141e-01 -2.413917183876037598e-01
1.027000000000000000e+03 7.141545104980468750e+01 2.807357788085937500e+01 1.739129424095153809e-01 5.087802886962890625e+00 1.578514814376831055e+00 -4.364248216152191162e-01
1.028000000000000000e+03 5.659801864624023438e+01 3.427861785888671875e+01 6.846176385879516602e-01 3.106455087661743164e+00 1.137321829795837402e+00 -2.681887745857238770e-01
1.029000000000000000e+03 3.972845077514648438e+01 3.309824371337890625e+01 7.328584790229797363e-01 1.893406867980957031e+00 7.878796458244323730e-01 1.587110608816146851e-01
1.030000000000000000e+03 3.307922363281250000e+01 3.095401382446289062e+01 5.634304881095886230e-01 1.750459551811218262e+00 6.941670179367065430e-01 2.234059721231460571e-01
1.031000000000000000e+03 2.339505195617675781e+01 3.360119247436523438e+01 3.636371493339538574e-01 1.746599793434143066e+00 6.330710649490356445e-01 3.220512866973876953e-01
1.032000000000000000e+03 1.737314224243164062e+01 3.251128387451171875e+01 9.265026450157165527e-02 2.030121088027954102e+00 6.368314027786254883e-01 3.745112419128417969e-01
1.033000000000000000e+03 2.024526834487915039e+00 3.180808830261230469e+01 -1.492007263004779816e-02 1.943306565284729004e+00 5.785159468650817871e-01 -4.754394292831420898e-02
1.034000000000000000e+03 1.176960915327072144e-01 -1.985354661941528320e+00 1.386698521673679352e-02 -3.570951819419860840e-01 -1.029684618115425110e-01 -1.686099544167518616e-02
1.035000000000000000e+03 7.009882926940917969e-01 -1.689897537231445312e+00 -4.865861963480710983e-03 -1.650179773569107056e-01 -5.096515268087387085e-02 -1.438821107149124146e-01
1.036000000000000000e+03 2.479983091354370117e+00 -1.623971819877624512e+00 3.401228412985801697e-02 4.137409850955009460e-02 2.261591516435146332e-02 -1.667887121438980103e-01
1.037000000000000000e+03 2.660759925842285156e+00 -1.655817031860351562e+00 3.155953064560890198e-02 1.371505409479141235e-01 5.061302334070205688e-02 -1.551554352045059204e-01
1.038000000000000000e+03 2.016187906265258789e+00 -4.161789703369140625e+01 1.224618628621101379e-01 6.487563133239746094e+00 1.983007550239562988e+00 -3.378070145845413208e-02
1.039000000000000000e+03 1.268953919410705566e+00 -4.006459426879882812e+01 -5.642333999276161194e-02 6.535940170288085938e+00 1.943855047225952148e+00 -1.092680916190147400e-01
1.040000000000000000e+03 4.960092306137084961e-01 -3.628246307373046875e+01 -1.038070116192102432e-02 6.828057289123535156e+00 2.045303106307983398e+00 7.118225563317537308e-03
1.041000000000000000e+03 6.223436594009399414e-01 -3.510460281372070312e+01 1.354614621959626675e-03 6.799271583557128906e+00 2.040187835693359375e+00 2.141454629600048065e-02
1.042000000000000000e+03 8.033244609832763672e-01 -3.376991653442382812e+01 -2.197143808007240295e-02 6.744680404663085938e+00 2.016812801361083984e+00 4.491738975048065186e-02
1.043000000000000000e+03 7.562199234962463379e-01 -2.952960014343261719e+01 -3.263397514820098877e-02 6.273742198944091797e+00 1.872332453727722168e+00 1.543909758329391479e-01
1.044000000000000000e+03 7.472809553146362305e-01 -2.815851020812988281e+01 -3.569151507690548897e-03 5.975442409515380859e+00 1.791561961174011230e+00 1.868709176778793335e-01
1.045000000000000000e+03 7.345866560935974121e-01 -2.678873062133789062e+01 -8.085238188505172729e-02 5.575542449951171875e+00 1.648406982421875000e+00 2.667551934719085693e-01
1.046000000000000000e+03 6.883901953697204590e-01 -2.266242790222167969e+01 7.607069611549377441e-02 3.444013357162475586e+00 1.056025147438049316e+00 4.926402270793914795e-01
1.047000000000000000e+03 6.791483759880065918e-01 -2.127985763549804688e+01 -1.549504548311233521e-01 2.405317068099975586e+00 6.751099824905395508e-01 5.627359747886657715e-01
1.048000000000000000e+03 2.019533634185791016e+00 -2.120134735107421875e+01 -4.238465800881385803e-02 3.493597269058227539e+00 1.035363793373107910e+00 1.437348008155822754e+00
1.049000000000000000e+03 6.615295410156250000e-01 -1.990273475646972656e+01 1.320829391479492188e-01 1.221982836723327637e+00 4.062197208404541016e-01 6.071209907531738281e-01
1.050000000000000000e+03 5.886721611022949219e-01 -1.581442928314208984e+01 2.728051692247390747e-02 -2.109663009643554688e+00 -6.247147321701049805e-01 2.893729209899902344e-01
1.051000000000000000e+03 5.743771195411682129e-01 -1.445875740051269531e+01 8.965901285409927368e-02 -2.632527112960815430e+00 -7.628604173660278320e-01 1.570125073194503784e-01
1.052000000000000000e+03 1.718285322189331055e+00 -1.440384006500244141e+01 4.234047234058380127e-01 -1.219496596604585648e-02 1.233629211783409119e-01 1.942104548215866089e-01
1.053000000000000000e+03 5.610147118568420410e-01 -1.310594749450683594e+01 1.235594227910041809e-01 -2.688609600067138672e+00 -7.695150375366210938e-01 -1.006283164024353027e-01
1.054000000000000000e+03 5.078046917915344238e-01 -9.065936088562011719e+00 -1.427165716886520386e-01 -1.217837452888488770e+00 -4.081662297248840332e-01 -1.731539666652679443e-01
1.055000000000000000e+03 5.083619356155395508e-01 -7.722633361816406250e+00 8.141291886568069458e-02 -8.159728050231933594e-01 -2.203679680824279785e-01 -1.153055876493453979e-01
1.056000000000000000e+03 1.636762738227844238e+00 -6.662041187286376953e+00 -5.495052784681320190e-02 4.425348639488220215e-01 1.162753030657768250e-01 -4.065338149666786194e-02
1.057000000000000000e+03 7.114846038818359375e+01 -3.816760635375976562e+01 3.547490388154983521e-02 7.453860282897949219e+00 2.246800661087036133e+00 9.125391393899917603e-02
1.058000000000000000e+03 4.883008575439453125e+01 -3.661289978027343750e+01 1.035749018192291260e-01 -3.889577984809875488e-01 -8.561486750841140747e-02 -3.287853598594665527e-01
1.059000000000000000e+03 3.071223831176757812e+01 -3.811323547363281250e+01 2.426957711577415466e-02 -2.409654855728149414e-01 -6.500877439975738525e-02 1.658615618944168091e-01
1.060000000000000000e+03 1.276396751403808594e+01 -4.105635833740234375e+01 2.836053818464279175e-02 3.182934045791625977e+00 9.633883833885192871e-01 -6.498935818672180176e-02
1.061000000000000000e+03 7.896858215332031250e+01 4.017893600463867188e+01 -2.752061747014522552e-02 5.389628887176513672e+00 1.608632445335388184e+00 -3.205676749348640442e-02
1.062000000000000000e+03 7.920725250244140625e+01 3.895555877685546875e+01 1.615013740956783295e-02 5.435215473175048828e+00 1.635409712791442871e+00 -1.373573765158653259e-02
1.063000000000000000e+03 7.634233093261718750e+01 3.696927261352539062e+01 1.686585135757923126e-02 5.331956863403320312e+00 1.604646801948547363e+00 -5.438252538442611694e-02
1.064000000000000000e+03 7.921437835693359375e+01 3.491921997070312500e+01 7.706282660365104675e-03 5.557401180267333984e+00 1.669532179832458496e+00 -2.838268689811229706e-02
1.065000000000000000e+03 7.759895324707031250e+01 3.369483184814453125e+01 1.418044790625572205e-02 5.493906974792480469e+00 1.652426242828369141e+00 -8.183351904153823853e-02
1.066000000000000000e+03 7.920726013183593750e+01 3.352729415893554688e+01 -6.792736705392599106e-03 5.607211589813232422e+00 1.680125594139099121e+00 -2.721792086958885193e-02
1.067000000000000000e+03 7.924452209472656250e+01 3.072179222106933594e+01 -5.290631088428199291e-04 5.726514339447021484e+00 1.717795491218566895e+00 -3.830938041210174561e-02
1.068000000000000000e+03 7.636947631835937500e+01 2.814274406433105469e+01 4.242901504039764404e-02 5.625326156616210938e+00 1.700326442718505859e+00 -2.250049710273742676e-01
1.069000000000000000e+03 7.929692077636718750e+01 2.655082893371582031e+01 -4.476747009903192520e-03 5.987656116485595703e+00 1.794953823089599609e+00 -5.011039972305297852e-02
1.070000000000000000e+03 7.645184326171875000e+01 2.544988441467285156e+01 4.412832856178283691e-02 5.811877727508544922e+00 1.756801843643188477e+00 -2.706409096717834473e-01
1.071000000000000000e+03 7.930391693115234375e+01 2.516324234008789062e+01 1.039043348282575607e-02 6.099201679229736328e+00 1.832877635955810547e+00 -5.736305192112922668e-02
1.072000000000000000e+03 7.931513214111328125e+01 2.098468399047851562e+01 -5.675260443240404129e-03 6.511961936950683594e+00 1.951886057853698730e+00 -7.426305860280990601e-02
1.073000000000000000e+03 7.931737518310546875e+01 1.958880996704101562e+01 1.262705121189355850e-02 6.679317474365234375e+00 2.007583379745483398e+00 -8.313401788473129272e-02
1.074000000000000000e+03 7.932082366943359375e+01 1.819199943542480469e+01 -6.961099803447723389e-03 6.860222339630126953e+00 2.055978298187255859e+00 -8.731351047754287720e-02
1.075000000000000000e+03 7.934093475341796875e+01 1.400700855255126953e+01 1.325404644012451172e-02 7.488016605377197266e+00 2.250381231307983398e+00 -1.029987782239913940e-01
1.076000000000000000e+03 7.934560394287109375e+01 1.261310005187988281e+01 -1.120961550623178482e-02 7.718556404113769531e+00 2.312204122543334961e+00 -1.033746153116226196e-01
1.077000000000000000e+03 7.934922790527343750e+01 1.121901226043701172e+01 9.853417985141277313e-03 7.954285144805908203e+00 2.389241695404052734e+00 -1.036130413413047791e-01
1.078000000000000000e+03 7.935242462158203125e+01 7.041492462158203125e+00 -1.606605947017669678e-02 8.596947669982910156e+00 2.574264526367187500e+00 -7.310612499713897705e-02
1.079000000000000000e+03 7.935324859619140625e+01 5.651157855987548828e+00 -8.849102072417736053e-03 8.748413085937500000e+00 2.621869325637817383e+00 -4.616174474358558655e-02
1.080000000000000000e+03 7.935395050048828125e+01 4.261497020721435547e+00 -1.897226646542549133e-02 8.838560104370117188e+00 2.645876169204711914e+00 -1.593785360455513000e-02
1.081000000000000000e+03 7.935801696777343750e+01 9.725202620029449463e-02 -6.048793345689773560e-02 8.481442451477050781e+00 2.526286363601684570e+00 1.691269576549530029e-01
1.082000000000000000e+03 7.935826110839843750e+01 -1.285977602005004883e+00 1.994065381586551666e-02 8.108095169067382812e+00 2.438410758972167969e+00 2.002710551023483276e-01
1.083000000000000000e+03 7.802707672119140625e+01 -3.825371503829956055e+00 -1.455984264612197876e-01 7.586214542388916016e+00 2.232184886932373047e+00 8.989433646202087402e-01
1.084000000000000000e+03 7.933609008789062500e+01 -4.065033435821533203e+00 7.164893299341201782e-02 6.890000343322753906e+00 2.088494777679443359e+00 3.278369605541229248e-01
1.085000000000000000e+03 7.931917572021484375e+01 -8.265983581542968750e+00 -4.478282108902931213e-02 4.902072906494140625e+00 1.457186937332153320e+00 2.898381650447845459e-01
1.086000000000000000e+03 7.804478454589843750e+01 -1.092310810089111328e+01 3.872061669826507568e-01 5.976142883300781250e+00 1.909004688262939453e+00 1.878674700856208801e-02
1.087000000000000000e+03 7.934262847900390625e+01 -1.107085227966308594e+01 5.006762221455574036e-03 4.346270084381103516e+00 1.305383086204528809e+00 -1.000325009226799011e-02
1.088000000000000000e+03 7.932456970214843750e+01 -1.524308300018310547e+01 2.357647195458412170e-02 5.644073486328125000e+00 1.700294971466064453e+00 -3.566668927669525146e-01
1.089000000000000000e+03 7.806002044677734375e+01 -1.791262435913085938e+01 -6.356675643473863602e-03 7.879973888397216797e+00 2.362085103988647461e+00 -1.080065727233886719e+00
1.090000000000000000e+03 7.934388732910156250e+01 -1.804077148437500000e+01 -4.915247857570648193e-02 7.298155784606933594e+00 2.174700975418090820e+00 -4.148357510566711426e-01
1.091000000000000000e+03 7.930619812011718750e+01 -2.365567016601562500e+01 -6.794408708810806274e-02 1.006398296356201172e+01 2.998811721801757812e+00 -2.673237621784210205e-01
1.092000000000000000e+03 7.788144683837890625e+01 -2.498580551147460938e+01 -1.488234400749206543e-01 1.004203796386718750e+01 2.967964410781860352e+00 -5.415848493576049805e-01
1.093000000000000000e+03 7.929682922363281250e+01 -2.504994392395019531e+01 1.240368373692035675e-02 1.048483943939208984e+01 3.149173021316528320e+00 -2.146788835525512695e-01
1.094000000000000000e+03 7.929178619384765625e+01 -2.921864509582519531e+01 -3.669783845543861389e-02 1.121979427337646484e+01 3.354928970336914062e+00 -9.589563310146331787e-02
1.095000000000000000e+03 7.782562255859375000e+01 -3.187343406677246094e+01 -2.215772680938243866e-02 1.065985393524169922e+01 3.191308975219726562e+00 -8.715657144784927368e-02
1.096000000000000000e+03 7.928020477294921875e+01 -3.199061584472656250e+01 -9.174202568829059601e-03 1.140434551239013672e+01 3.418551445007324219e+00 -5.245853215456008911e-02
1.097000000000000000e+03 7.924082946777343750e+01 -3.610573577880859375e+01 2.264124900102615356e-02 1.136080646514892578e+01 3.415034294128417969e+00 1.654201000928878784e-02
1.098000000000000000e+03 7.919684600830078125e+01 -3.745891571044921875e+01 -7.531611621379852295e-02 1.124348545074462891e+01 3.350450754165649414e+00 8.280326426029205322e-02
1.099000000000000000e+03 7.903379058837890625e+01 -3.878731536865234375e+01 2.087127976119518280e-02 1.106609916687011719e+01 3.326091051101684570e+00 1.064668521285057068e-01
1.100000000000000000e+03 7.867562103271484375e+01 -4.013059234619140625e+01 -6.284440308809280396e-02 1.088264656066894531e+01 3.245940685272216797e+00 1.540181040763854980e-01
1.101000000000000000e+03 1.250533771514892578e+01 3.785893249511718750e+01 3.962896391749382019e-02 2.058257579803466797e+00 6.293659806251525879e-01 8.138905465602874756e-02
1.102000000000000000e+03 2.763322830200195312e+01 4.051385498046875000e+01 5.217884778976440430e-01 1.746831059455871582e+00 6.805858612060546875e-01 5.750554800033569336e-02
1.103000000000000000e+03 5.265881347656250000e+01 3.739956283569335938e+01 7.793805599212646484e-01 2.704423904418945312e+00 1.045141339302062988e+00 -1.043405756354331970e-01
1.104000000000000000e+03 6.729805755615234375e+01 4.070854187011718750e+01 2.749366462230682373e-01 4.403244972229003906e+00 1.403454422950744629e+00 -6.715915352106094360e-02
1.105000000000000000e+03 4.332213997840881348e-01 1.980235934257507324e+00 -1.831478439271450043e-02 -2.917650043964385986e-01 -9.302393347024917603e-02 1.177906692028045654e-01
1.106000000000000000e+03 4.677388668060302734e+00 1.778850317001342773e+00 -1.373803168535232544e-01 6.805154681205749512e-02 -2.079862914979457855e-02 3.131395280361175537e-01
1.107000000000000000e+03 1.288081407546997070e+00 6.326565742492675781e+00 5.774198099970817566e-02 -6.219856142997741699e-01 -1.692730784416198730e-01 5.374689772725105286e-02
1.108000000000000000e+03 5.531945824623107910e-01 9.262398719787597656e+00 1.260421797633171082e-02 -1.054180026054382324e+00 -3.124727606773376465e-01 -4.803835600614547729e-02
1.109000000000000000e+03 5.874789953231811523e-01 1.212119007110595703e+01 1.221910491585731506e-02 -7.525275945663452148e-01 -2.220925390720367432e-01 -8.092978596687316895e-02
1.110000000000000000e+03 6.172705888748168945e-01 1.635358619689941406e+01 2.288619522005319595e-03 -3.385974839329719543e-02 -9.471339173614978790e-03 -1.247812658548355103e-01
1.111000000000000000e+03 6.358169317245483398e-01 1.776282691955566406e+01 3.299223491922020912e-03 2.545814216136932373e-01 7.736419141292572021e-02 -1.310513466596603394e-01
1.112000000000000000e+03 6.736764311790466309e-01 2.200198554992675781e+01 -5.958060268312692642e-03 1.063989996910095215e+00 3.174095749855041504e-01 -1.123448088765144348e-01
1.113000000000000000e+03 6.786954998970031738e-01 2.341581153869628906e+01 -1.048980560153722763e-02 1.280943155288696289e+00 3.811360001564025879e-01 -9.499961882829666138e-02
1.114000000000000000e+03 6.820846199989318848e-01 2.482991409301757812e+01 -5.010921508073806763e-03 1.462205886840820312e+00 4.371584951877593994e-01 -7.907646149396896362e-02
1.115000000000000000e+03 6.814770698547363281e-01 2.906800270080566406e+01 -7.457870524376630783e-03 1.808754682540893555e+00 5.403890013694763184e-01 -3.527129441499710083e-02
1.116000000000000000e+03 6.747170686721801758e-01 3.047125816345214844e+01 -2.861140994355082512e-03 1.871305346488952637e+00 5.605332255363464355e-01 -2.468754909932613373e-02
1.117000000000000000e+03 2.045803070068359375e+00 3.046557044982910156e+01 -2.147288806736469269e-02 1.912775278091430664e+00 5.673907399177551270e-01 -7.016181200742721558e-02
1.118000000000000000e+03 6.653928160667419434e-01 3.186135292053222656e+01 -3.896533045917749405e-03 1.915466189384460449e+00 5.734708905220031738e-01 -1.737395487725734711e-02
1.119000000000000000e+03 7.514276504516601562e-01 3.600467300415039062e+01 -4.457376198843121529e-04 1.976919889450073242e+00 5.929422378540039062e-01 -5.743461661040782928e-03
1.120000000000000000e+03 2.676412582397460938e+00 3.819724655151367188e+01 -3.148011164739727974e-03 2.000848293304443359e+00 5.993101000785827637e-01 -9.568065404891967773e-03
1.121000000000000000e+03 9.744304418563842773e-01 3.873738861083984375e+01 -5.628139479085803032e-04 1.991888880729675293e+00 5.973978042602539062e-01 -3.461800748482346535e-03
1.122000000000000000e+03 1.285686373710632324e+00 4.010683441162109375e+01 6.733560585416853428e-04 1.996691584587097168e+00 5.992094874382019043e-01 -3.713973099365830421e-03
1.123000000000000000e+03 2.825208663940429688e+00 1.788825035095214844e+00 -1.662371158599853516e-01 -6.558458507061004639e-02 -6.954650580883026123e-02 4.203130304813385010e-01
1.124000000000000000e+03 2.071082830429077148e+00 1.657918572425842285e+00 -1.406183540821075439e-01 -1.213604882359504700e-01 -7.859364897012710571e-02 3.677497804164886475e-01
1.125000000000000000e+03 1.710302114486694336e+00 1.621781229972839355e+00 -1.151037439703941345e-01 -1.444725990295410156e-01 -7.787290215492248535e-02 3.334461450576782227e-01
1.126000000000000000e+03 1.521019101142883301e+00 1.670832037925720215e+00 -9.813868999481201172e-02 -1.720002442598342896e-01 -8.104167878627777100e-02 3.121035099029541016e-01
1.127000000000000000e+03 1.313654303550720215e+00 1.707607626914978027e+00 -7.885938882827758789e-02 -1.904318183660507202e-01 -8.078736066818237305e-02 2.822630703449249268e-01
1.128000000000000000e+03 8.928406834602355957e-01 1.673913121223449707e+00 -2.747475355863571167e-02 -2.228828519582748413e-01 -7.510728389024734497e-02 2.118457406759262085e-01
1.129000000000000000e+03 8.267380595207214355e-01 2.028637170791625977e+00 -2.675459720194339752e-02 -3.126416206359863281e-01 -1.018188670277595520e-01 1.961680352687835693e-01
1.130000000000000000e+03 5.264943838119506836e-01 1.633687973022460938e+00 -7.346789818257093430e-03 -2.113711386919021606e-01 -6.561537832021713257e-02 1.086434125900268555e-01
1.131000000000000000e+03 1.145858478546142578e+01 -7.510891556739807129e-01 1.024775505065917969e+01 1.325673294067382812e+01 7.051346302032470703e+00 -7.173127532005310059e-01
1.132000000000000000e+03 1.133049869537353516e+01 -9.084129333496093750e-01 9.231437683105468750e+00 1.412389564514160156e+01 7.006600379943847656e+00 -8.318880200386047363e-01
1.133000000000000000e+03 1.155762672424316406e+01 -5.557016730308532715e-01 1.115630245208740234e+01 1.226825237274169922e+01 7.027366161346435547e+00 -4.884088784456253052e-02
1.134000000000000000e+03 1.167326831817626953e+01 3.202567100524902344e-01 1.058994388580322266e+01 1.180204391479492188e+01 6.717596530914306641e+00 3.256593465805053711e+00
1.135000000000000000e+03 1.130142402648925781e+01 1.095699191093444824e+00 5.446767330169677734e+00 1.513422012329101562e+01 6.174296379089355469e+00 4.104816436767578125e+00
1.136000000000000000e+03 1.140846633911132812e+01 9.122222661972045898e-01 6.846551895141601562e+00 1.433300209045410156e+01 6.353866100311279297e+00 4.311548709869384766e+00
1.137000000000000000e+03 1.101054954528808594e+01 1.452256798744201660e+00 2.564327716827392578e+00 1.590246772766113281e+01 5.540038585662841797e+00 2.361084461212158203e+00
1.138000000000000000e+03 1.079597568511962891e+01 1.580538868904113770e+00 1.334994435310363770e+00 1.623775100708007812e+01 5.271823883056640625e+00 1.086526393890380859e+00
1.139000000000000000e+03 1.057375049591064453e+01 1.666953563690185547e+00 6.900683045387268066e-01 1.593336009979248047e+01 4.987028598785400391e+00 -1.992750465869903564e-01
1.140000000000000000e+03 2.577079963684082031e+01 1.388640308380126953e+01 -7.268221974372863770e-01 1.377859711647033691e+00 1.953112483024597168e-01 4.921315908432006836e-01
1.141000000000000000e+03 2.122048759460449219e+01 3.734433174133300781e+00 4.829375267028808594e+00 1.456046104431152344e+00 1.885626435279846191e+00 2.566610097885131836e+00
1.142000000000000000e+03 6.786875152587890625e+01 -1.685630035400390625e+01 7.437301278114318848e-01 1.082427406311035156e+01 3.470401287078857422e+00 2.541304349899291992e+00
1.143000000000000000e+03 6.539423370361328125e+01 -1.821593093872070312e+01 1.810777902603149414e+00 5.527822971343994141e+00 2.201580286026000977e+00 2.944756507873535156e+00
1.144000000000000000e+03 6.451275634765625000e+01 -1.932737731933593750e+01 1.182163238525390625e+00 3.449851512908935547e+00 1.389604449272155762e+00 2.122008562088012695e+00
1.145000000000000000e+03 6.269324493408203125e+01 -2.151122093200683594e+01 2.227696031332015991e-01 1.483531236648559570e+00 5.118902325630187988e-01 7.590837478637695312e-01
1.146000000000000000e+03 5.967260742187500000e+01 -2.456017303466796875e+01 -9.376045465469360352e-01 -9.001005440950393677e-02 -3.082843720912933350e-01 -4.946469664573669434e-01
1.147000000000000000e+03 5.737846374511718750e+01 -2.620560836791992188e+01 -1.545513987541198730e+00 -5.290001034736633301e-01 -6.223542094230651855e-01 -9.039922356605529785e-01
1.148000000000000000e+03 5.498386764526367188e+01 -2.768493652343750000e+01 -1.731942176818847656e+00 -5.339236259460449219e-01 -6.797597408294677734e-01 -9.248887300491333008e-01
1.149000000000000000e+03 5.250176239013671875e+01 -2.905318450927734375e+01 -1.600123882293701172e+00 -4.590789675712585449e-01 -6.177608966827392578e-01 -8.773249387741088867e-01
1.150000000000000000e+03 4.588542938232421875e+01 -3.152300262451171875e+01 -8.322198987007141113e-01 -1.490608602762222290e-01 -2.943842411041259766e-01 -3.180531561374664307e-01
1.151000000000000000e+03 4.000640106201171875e+01 -3.288587188720703125e+01 -4.106371998786926270e-01 -4.639005288481712341e-02 -1.371081769466400146e-01 -7.922193408012390137e-02
1.152000000000000000e+03 3.571511077880859375e+01 -3.263911056518554688e+01 -3.767834901809692383e-01 -6.543329358100891113e-02 -1.326650381088256836e-01 6.353851407766342163e-02
1.153000000000000000e+03 3.143875122070312500e+01 -3.181032943725585938e+01 -6.647655367851257324e-01 -4.837841168045997620e-02 -2.139431834220886230e-01 2.227571010589599609e-01
1.154000000000000000e+03 3.005163764953613281e+01 -3.154401206970214844e+01 -8.228710293769836426e-01 -1.593384593725204468e-01 -2.946628630161285400e-01 2.857362031936645508e-01
1.155000000000000000e+03 2.473712730407714844e+01 -2.935214614868164062e+01 -9.751911163330078125e-01 -2.651152610778808594e-01 -3.720919191837310791e-01 4.814520180225372314e-01
1.156000000000000000e+03 2.221516227722167969e+01 -2.799696731567382812e+01 -9.011041522026062012e-01 -2.264354228973388672e-01 -3.382618725299835205e-01 4.292555153369903564e-01
1.157000000000000000e+03 2.346036911010742188e+01 -2.869409561157226562e+01 -9.544791579246520996e-01 -2.175189852714538574e-01 -3.515994250774383545e-01 4.929538071155548096e-01
1.158000000000000000e+03 1.373397254943847656e+01 -2.054104804992675781e+01 1.271910905838012695e+00 2.460381507873535156e+00 1.119687795639038086e+00 -1.904065847396850586e+00
1.159000000000000000e+03 1.273567867279052734e+01 -1.955703544616699219e+01 1.884654998779296875e+00 3.824480056762695312e+00 1.712740540504455566e+00 -2.481863975524902344e+00
1.160000000000000000e+03 1.064816188812255859e+01 -1.754955863952636719e+01 3.226472616195678711e+00 1.028570175170898438e+01 4.053652286529541016e+00 -4.477855682373046875e+00
1.161000000000000000e+03 1.671278190612792969e+01 -1.085351753234863281e+01 -5.862639427185058594e+00 -2.093012630939483643e-01 -1.821582198143005371e+00 9.895894527435302734e-01
1.162000000000000000e+03 2.025611495971679688e+01 -1.487680721282958984e+01 -5.606050491333007812e+00 -1.031313300132751465e+00 -1.991209149360656738e+00 2.359158039093017578e+00
1.163000000000000000e+03 2.150257301330566406e+01 -1.549414730072021484e+01 -4.743449211120605469e+00 -7.622155547142028809e-01 -1.651699542999267578e+00 2.011211633682250977e+00
1.164000000000000000e+03 2.405509948730468750e+01 -1.654123497009277344e+01 -4.175077438354492188e+00 -3.629696369171142578e-01 -1.361414194107055664e+00 1.362077713012695312e+00
1.165000000000000000e+03 2.938301658630371094e+01 -1.799776840209960938e+01 -3.478726863861083984e+00 -1.789645105600357056e-02 -1.048987030982971191e+00 6.362941265106201172e-01
1.166000000000000000e+03 3.210887527465820312e+01 -1.841644668579101562e+01 -3.349613189697265625e+00 5.205446388572454453e-03 -1.003322362899780273e+00 3.445191979408264160e-01
1.167000000000000000e+03 3.347694396972656250e+01 -1.856788635253906250e+01 -3.094356775283813477e+00 7.285503298044204712e-02 -9.064505696296691895e-01 1.968331485986709595e-01
1.168000000000000000e+03 3.759455490112304688e+01 -1.858515930175781250e+01 -3.012791395187377930e+00 1.786902174353599548e-02 -8.984767198562622070e-01 -1.759002953767776489e-01
1.169000000000000000e+03 3.505791854858398438e+01 -1.736452865600585938e+01 -3.008016347885131836e+00 1.861296594142913818e-01 -8.465660214424133301e-01 -3.330484032630920410e-02
1.170000000000000000e+03 4.031892395019531250e+01 -1.839954757690429688e+01 -2.556871652603149414e+00 3.811824321746826172e-02 -7.556260824203491211e-01 -3.908837139606475830e-01
1.171000000000000000e+03 4.557505798339843750e+01 -1.702960777282714844e+01 -2.832236289978027344e+00 -2.613881826400756836e-01 -9.280873537063598633e-01 -8.544288277626037598e-01
1.172000000000000000e+03 4.397510910034179688e+01 -1.635598182678222656e+01 -2.628147363662719727e+00 -1.206956207752227783e-01 -8.246529102325439453e-01 -7.131202816963195801e-01
1.173000000000000000e+03 4.687131500244140625e+01 -1.661408042907714844e+01 -2.564769983291625977e+00 -2.207825481891632080e-01 -8.356657624244689941e-01 -8.898972868919372559e-01
1.174000000000000000e+03 4.813871002197265625e+01 -1.611787986755371094e+01 -2.517861604690551758e+00 -3.444809913635253906e-01 -8.587028384208679199e-01 -1.019598960876464844e+00
1.175000000000000000e+03 5.229593276977539062e+01 -1.261667156219482422e+01 -2.638182640075683594e+00 -5.610227584838867188e-01 -9.597615599632263184e-01 -1.304965734481811523e+00
1.176000000000000000e+03 5.304495239257812500e+01 -1.362990951538085938e+01 -2.827464818954467773e+00 -8.180118203163146973e-01 -1.093642950057983398e+00 -1.513828039169311523e+00
1.177000000000000000e+03 5.543541336059570312e+01 -1.223297214508056641e+01 -2.873682498931884766e+00 -9.900933504104614258e-01 -1.159132719039916992e+00 -1.740854620933532715e+00
1.178000000000000000e+03 5.776727676391601562e+01 -1.071453189849853516e+01 -3.469971418380737305e+00 -1.300296425819396973e+00 -1.431080341339111328e+00 -2.111718416213989258e+00
1.179000000000000000e+03 6.124977493286132812e+01 -8.431883811950683594e+00 -4.629570960998535156e+00 -1.497736454010009766e+00 -1.838192224502563477e+00 -2.598543405532836914e+00
1.180000000000000000e+03 6.422389984130859375e+01 -5.973460674285888672e+00 -3.710363864898681641e+00 -7.918434143066406250e-01 -1.350662112236022949e+00 -2.376124382019042969e+00
1.181000000000000000e+03 5.612982559204101562e+01 1.574258613586425781e+01 1.319106698036193848e+00 3.715893507003784180e+00 1.510500073432922363e+00 -1.192730426788330078e+00
1.182000000000000000e+03 4.750097274780273438e+01 6.368952274322509766e+00 1.901053786277770996e+00 3.456898927688598633e-01 6.740230917930603027e-01 -4.442550241947174072e-01
1.183000000000000000e+03 4.314821243286132812e+01 9.169591903686523438e+00 5.156971812248229980e-01 9.410794377326965332e-01 4.370329976081848145e-01 -3.124799430370330811e-01
1.184000000000000000e+03 1.498847484588623047e+01 6.273601055145263672e+00 -2.631655454635620117e+00 3.850451469421386719e+00 3.656388223171234131e-01 9.010779261589050293e-01
1.185000000000000000e+03 1.150284385681152344e+01 7.250556945800781250e-01 8.351218223571777344e+00 1.349856090545654297e+01 6.554933547973632812e+00 4.318875312805175781e+00
1.186000000000000000e+03 1.110528469085693359e+01 -1.207953810691833496e+00 6.963496685028076172e+00 1.562250137329101562e+01 6.775799274444580078e+00 -4.282938838005065918e-01
1.187000000000000000e+03 1.129908561706542969e+01 -1.577203392982482910e+00 5.349819183349609375e+00 1.400804615020751953e+01 5.807359695434570312e+00 1.844484545290470123e-02
1.188000000000000000e+03 1.121179676055908203e+01 -1.045717120170593262e+00 8.170574188232421875e+00 1.510543060302734375e+01 6.982801437377929688e+00 -8.687255382537841797e-01
1.189000000000000000e+03 1.163395595550537109e+01 -3.577578365802764893e-01 1.162593650817871094e+01 1.181834888458251953e+01 7.033285617828369141e+00 7.117963433265686035e-01
1.190000000000000000e+03 1.168129825592041016e+01 -1.441894024610519409e-01 1.157394504547119141e+01 1.138833141326904297e+01 6.888682842254638672e+00 1.580648660659790039e+00
1.191000000000000000e+03 1.170823764801025391e+01 8.940356969833374023e-02 1.126336383819580078e+01 1.130412769317626953e+01 6.770247459411621094e+00 2.432502985000610352e+00
1.192000000000000000e+03 9.629365921020507812e+00 -2.245181322097778320e+00 2.435737133026123047e+00 1.145595550537109375e+01 4.167507648468017578e+00 6.182786941528320312e+00
1.193000000000000000e+03 9.666286468505859375e+00 1.650391101837158203e+00 1.149423718452453613e+00 1.108717727661132812e+01 3.670980215072631836e+00 -4.587028503417968750e+00
1.194000000000000000e+03 1.026593017578125000e+01 -1.911331415176391602e+00 2.746003389358520508e+00 1.519963645935058594e+01 5.383691787719726562e+00 4.423015117645263672e+00
1.195000000000000000e+03 1.057116127014160156e+01 -1.550204634666442871e+00 3.815479993820190430e+00 1.706830215454101562e+01 6.265134811401367188e+00 2.510878324508666992e+00
1.196000000000000000e+03 1.158819007873535156e+01 5.299216508865356445e-01 9.648241996765136719e+00 1.260638999938964844e+01 6.676389217376708984e+00 4.043986320495605469e+00
1.197000000000000000e+03 1.136686420440673828e+01 -1.328800916671752930e+00 6.726722240447998047e+00 1.398843669891357422e+01 6.214547634124755859e+00 -5.540053248405456543e-01
1.198000000000000000e+03 3.262598812580108643e-01 -1.728001117706298828e+00 1.815814292058348656e-03 -2.287637293338775635e-01 -6.808437407016754150e-02 -9.829501062631607056e-02
1.199000000000000000e+03 4.567472636699676514e-01 -1.999745368957519531e+00 5.311228800565004349e-03 -2.213794440031051636e-01 -6.482046097517013550e-02 -1.039620935916900635e-01
1.200000000000000000e+03 5.081332325935363770e-01 -1.676746368408203125e+00 -4.279099870473146439e-03 -2.086599022150039673e-01 -6.388170272111892700e-02 -1.048399880528450012e-01
1.201000000000000000e+03 6.548895239830017090e-01 -2.448693752288818359e+00 6.430345028638839722e-02 -2.657980918884277344e-01 -6.044838950037956238e-02 -1.366821974515914917e-01
1.202000000000000000e+03 5.223937630653381348e-01 -4.967824935913085938e+00 5.753657966852188110e-02 -5.935587882995605469e-01 -1.608066558837890625e-01 1.831454783678054810e-02
1.203000000000000000e+03 1.118861436843872070e+00 -1.707805991172790527e+00 -7.214410696178674698e-03 -1.167679727077484131e-01 -3.719471395015716553e-02 -2.139549404382705688e-01
1.204000000000000000e+03 1.536463379859924316e+00 -1.675484538078308105e+00 -6.104771047830581665e-03 -9.539937973022460938e-02 -3.045124560594558716e-02 -2.582202553749084473e-01
1.205000000000000000e+03 1.915902733802795410e+00 -1.638388514518737793e+00 -7.566732354462146759e-03 8.394082076847553253e-03 2.482049458194524050e-04 -2.308989316225051880e-01
1.206000000000000000e+03 2.109695672988891602e+00 -1.634232759475708008e+00 1.054923422634601593e-02 4.819572716951370239e-02 1.762348785996437073e-02 -1.855978965759277344e-01
1.207000000000000000e+03 1.845337033271789551e+00 -1.856102705001831055e+00 4.451640322804450989e-02 -1.797428913414478302e-02 7.962633855640888214e-03 -2.226521372795104980e-01
1.208000000000000000e+03 2.482031345367431641e+00 -1.871197104454040527e+00 6.335860490798950195e-02 8.210877329111099243e-02 4.364021494984626770e-02 -1.797690689563751221e-01
1.209000000000000000e+03 5.576744079589843750e-01 -6.352385044097900391e+00 -1.173452362418174744e-01 -6.158030629158020020e-01 -2.199444919824600220e-01 -3.426084667444229126e-02
1.210000000000000000e+03 2.889495134353637695e+00 -1.949540019035339355e+00 1.632294952869415283e-01 1.545446962118148804e-01 9.533225744962692261e-02 -8.998171985149383545e-02
1.211000000000000000e+03 3.058071374893188477e+00 -1.670429110527038574e+00 9.073452651500701904e-02 1.989478319883346558e-01 8.690471202135086060e-02 -8.155222982168197632e-02
1.212000000000000000e+03 2.048371791839599609e+00 -5.696384906768798828e+00 -1.138794124126434326e-01 7.727915644645690918e-01 1.976736485958099365e-01 1.391451060771942139e-01
1.213000000000000000e+03 2.857170820236206055e+00 -1.668417096138000488e+00 8.803831040859222412e-02 1.322556883096694946e-01 6.608819961547851562e-02 -9.291645139455795288e-02
1.214000000000000000e+03 1.528496861457824707e+00 -9.167485237121582031e+00 -5.863115563988685608e-02 2.389221489429473877e-01 5.408729985356330872e-02 -4.852514266967773438e-01
1.215000000000000000e+03 3.260985612869262695e+00 -1.729446530342102051e+00 1.648778319358825684e-01 2.068235725164413452e-01 1.115104183554649353e-01 1.079479139298200607e-02
1.216000000000000000e+03 3.484683990478515625e+00 -1.720459342002868652e+00 2.089270353317260742e-01 2.400192171335220337e-01 1.346838772296905518e-01 2.092839777469635010e-02
1.217000000000000000e+03 3.699473619461059570e+00 -1.706538200378417969e+00 2.808139622211456299e-01 2.969891130924224854e-01 1.733409166336059570e-01 1.444841623306274414e-01
1.218000000000000000e+03 3.584101200103759766e+00 -2.050467967987060547e+00 3.037344813346862793e-01 4.141610860824584961e-01 2.153686583042144775e-01 1.639519780874252319e-01
1.219000000000000000e+03 4.096557617187500000e+00 -1.672442793846130371e+00 3.826216757297515869e-01 3.470349311828613281e-01 2.188969850540161133e-01 2.753339707851409912e-01
1.220000000000000000e+03 4.734802246093750000e+00 -1.703831672668457031e+00 6.629358530044555664e-01 4.213024079799652100e-01 3.252714872360229492e-01 5.265375971794128418e-01
1.221000000000000000e+03 4.935936450958251953e+00 -1.655892014503479004e+00 7.609578967094421387e-01 5.136438608169555664e-01 3.823805153369903564e-01 6.515776515007019043e-01
1.222000000000000000e+03 5.501298427581787109e+00 -1.626766204833984375e+00 1.082772135734558105e+00 5.560204982757568359e-01 4.916377961635589600e-01 9.309729337692260742e-01
1.223000000000000000e+03 5.506688594818115234e+00 -1.875140666961669922e+00 1.179772496223449707e+00 7.607024908065795898e-01 5.821425318717956543e-01 1.158729434013366699e+00
1.224000000000000000e+03 5.893968105316162109e+00 -1.636841773986816406e+00 1.418973803520202637e+00 6.779018044471740723e-01 6.290626525878906250e-01 1.249176502227783203e+00
1.225000000000000000e+03 6.292499542236328125e+00 -1.653961658477783203e+00 1.813857197761535645e+00 8.237951397895812988e-01 7.912957072257995605e-01 1.602484345436096191e+00
1.226000000000000000e+03 6.492491722106933594e+00 -1.650439143180847168e+00 2.052376270294189453e+00 9.296093583106994629e-01 8.945956826210021973e-01 1.825616002082824707e+00
1.227000000000000000e+03 6.692180156707763672e+00 -1.639612913131713867e+00 2.292113304138183594e+00 9.857699275016784668e-01 9.833649396896362305e-01 1.972365021705627441e+00
1.228000000000000000e+03 7.090859413146972656e+00 -1.652375698089599609e+00 2.889304161071777344e+00 1.355657935142517090e+00 1.273488640785217285e+00 2.605363130569458008e+00
1.229000000000000000e+03 7.299316406250000000e+00 -1.678853034973144531e+00 3.207726716995239258e+00 1.630877375602722168e+00 1.451581239700317383e+00 3.033765077590942383e+00
1.230000000000000000e+03 7.505909919738769531e+00 -1.666039943695068359e+00 3.488459825515747070e+00 1.790144562721252441e+00 1.583581328392028809e+00 3.271224975585937500e+00
1.231000000000000000e+03 7.704220294952392578e+00 -1.662090778350830078e+00 3.895839452743530273e+00 2.244101524353027344e+00 1.841982245445251465e+00 3.798951625823974609e+00
1.232000000000000000e+03 7.907981872558593750e+00 -1.659104347229003906e+00 4.191225528717041016e+00 2.513287067413330078e+00 2.011353731155395508e+00 4.137123107910156250e+00
1.233000000000000000e+03 8.290399551391601562e+00 -1.786904096603393555e+00 4.555822849273681641e+00 3.966470956802368164e+00 2.556688070297241211e+00 5.295728206634521484e+00
1.234000000000000000e+03 8.680851936340332031e+00 -1.640368103981018066e+00 4.975465774536132812e+00 5.302586555480957031e+00 3.083415746688842773e+00 6.112864017486572266e+00
1.235000000000000000e+03 9.301389694213867188e+00 -1.713021636009216309e+00 4.429284572601318359e+00 9.776526451110839844e+00 4.261743545532226562e+00 7.295370578765869141e+00
1.236000000000000000e+03 9.869793891906738281e+00 1.730920672416687012e+00 6.912810802459716797e-01 1.269275951385498047e+01 4.015212059020996094e+00 -3.784721851348876953e+00
1.237000000000000000e+03 9.298575401306152344e+00 1.621355056762695312e+00 2.093857526779174805e+00 7.844515323638916016e+00 2.981511831283569336e+00 -4.759256839752197266e+00
1.238000000000000000e+03 8.699289321899414062e+00 1.643357157707214355e+00 2.309558629989624023e+00 3.986942529678344727e+00 1.888950347900390625e+00 -3.522319793701171875e+00
1.239000000000000000e+03 8.493744850158691406e+00 1.654845237731933594e+00 2.255193710327148438e+00 3.051037311553955078e+00 1.591869354248046875e+00 -3.020093679428100586e+00
1.240000000000000000e+03 8.283939361572265625e+00 1.670647501945495605e+00 2.026036262512207031e+00 2.393377542495727539e+00 1.325824141502380371e+00 -2.486043214797973633e+00
1.241000000000000000e+03 8.061075210571289062e+00 1.691078901290893555e+00 1.782501578330993652e+00 1.864294767379760742e+00 1.094038963317871094e+00 -2.058560609817504883e+00
1.242000000000000000e+03 7.657260417938232422e+00 1.648297429084777832e+00 1.300599336624145508e+00 1.088238120079040527e+00 7.166512608528137207e-01 -1.325093507766723633e+00
1.243000000000000000e+03 7.674066066741943359e+00 1.900330901145935059e+00 1.473121404647827148e+00 1.519070625305175781e+00 8.976576328277587891e-01 -1.613043069839477539e+00
1.244000000000000000e+03 7.450805187225341797e+00 1.634191751480102539e+00 1.056904554367065430e+00 8.882087469100952148e-01 5.835340023040771484e-01 -1.041204094886779785e+00
1.245000000000000000e+03 7.104942321777343750e+00 1.575161099433898926e+00 7.232767343521118164e-01 5.441489815711975098e-01 3.802277147769927979e-01 -6.509042382240295410e-01
1.246000000000000000e+03 6.918067455291748047e+00 1.599660634994506836e+00 5.322939753532409668e-01 5.120378732681274414e-01 3.132995367050170898e-01 -4.548590779304504395e-01
1.247000000000000000e+03 6.539711475372314453e+00 1.879230499267578125e+00 5.807712674140930176e-01 5.167112350463867188e-01 3.292447328567504883e-01 -3.882734477519989014e-01
1.248000000000000000e+03 6.312644481658935547e+00 1.615252494812011719e+00 2.241249084472656250e-01 2.968424558639526367e-01 1.562902033329010010e-01 -1.213142424821853638e-01
1.249000000000000000e+03 6.327881813049316406e+00 1.834859728813171387e+00 4.161859750747680664e-01 4.094107747077941895e-01 2.476790249347686768e-01 -2.237982898950576782e-01
1.250000000000000000e+03 5.919642448425292969e+00 1.630033850669860840e+00 4.799028858542442322e-02 2.057793438434600830e-01 7.613088935613632202e-02 4.706425219774246216e-02
1.251000000000000000e+03 5.286421298980712891e+00 1.703016519546508789e+00 -7.770951092243194580e-02 1.478258669376373291e-01 2.103490568697452545e-02 2.039620280265808105e-01
1.252000000000000000e+03 4.533145427703857422e+00 1.780895948410034180e+00 -1.518460214138031006e-01 7.638452202081680298e-02 -2.263844944536685944e-02 3.423266112804412842e-01
1.253000000000000000e+03 1.426142811775207520e+00 7.760360240936279297e+00 4.696124792098999023e-02 -5.069076418876647949e-01 -1.379839181900024414e-01 -4.092214629054069519e-02
1.254000000000000000e+03 4.381000518798828125e+00 1.840328812599182129e+00 -1.239763945341110229e-01 4.326869547367095947e-02 -2.421231009066104889e-02 3.585514426231384277e-01
1.255000000000000000e+03 4.126637935638427734e+00 1.646931886672973633e+00 -2.496656179428100586e-01 2.956367284059524536e-02 -6.603058427572250366e-02 3.943247497081756592e-01
1.256000000000000000e+03 3.274193286895751953e+00 1.705896854400634766e+00 -2.001785486936569214e-01 -3.055095858871936798e-02 -6.921885162591934204e-02 4.229021966457366943e-01
1.257000000000000000e+03 2.719387054443359375e+00 1.636086583137512207e+00 -2.006867080926895142e-01 -6.439895182847976685e-02 -7.952570170164108276e-02 4.159948825836181641e-01
1.258000000000000000e+03 2.777418136596679688e+00 2.342763662338256836e+00 -2.327894093468785286e-03 -8.587523549795150757e-02 -2.646094001829624176e-02 4.247897267341613770e-01
1.259000000000000000e+03 2.512093782424926758e+00 1.710664510726928711e+00 -1.710993498563766479e-01 -8.430260419845581055e-02 -7.662058621644973755e-02 4.127279520034790039e-01
1.260000000000000000e+03 2.280760526657104492e+00 1.711797833442687988e+00 -1.452475488185882568e-01 -1.043200641870498657e-01 -7.487028092145919800e-02 3.941585421562194824e-01
1.261000000000000000e+03 1.885289072990417480e+00 1.618054747581481934e+00 -1.371244788169860840e-01 -1.259791553020477295e-01 -7.893109321594238281e-02 3.448719084262847900e-01
1.262000000000000000e+03 6.291620135307312012e-01 1.887580037117004395e+00 -2.549501694738864899e-02 -2.740881443023681641e-01 -8.987495303153991699e-02 1.550289690494537354e-01
1.263000000000000000e+03 9.951538085937500000e+00 -1.682023644447326660e+00 3.440608024597167969e+00 1.491435241699218750e+01 5.506488323211669922e+00 5.987881183624267578e+00
1.264000000000000000e+03 1.727600669860839844e+01 5.044578552246093750e+00 -2.958436250686645508e+00 -2.397161722183227539e+00 -1.606679439544677734e+00 2.740370750427246094e+00
1.265000000000000000e+03 1.908910369873046875e+01 2.318342447280883789e+00 3.740646839141845703e+00 -3.095979690551757812e-01 1.029314637184143066e+00 3.210708379745483398e+00
1.266000000000000000e+03 2.856368446350097656e+01 9.062216758728027344e+00 1.816211223602294922e+00 2.713065862655639648e+00 1.358783125877380371e+00 1.802184343338012695e+00
1.267000000000000000e+03 1.577882575988769531e+01 1.654140663146972656e+01 5.073044300079345703e-01 4.709669113159179688e+00 1.565092086791992188e+00 1.898767352104187012e+00
1.268000000000000000e+03 1.398918151855468750e+01 1.449298095703125000e+01 1.556365489959716797e+00 7.217185497283935547e+00 2.632065296173095703e+00 1.187255144119262695e+00
1.269000000000000000e+03 1.599039363861083984e+01 1.930780410766601562e+01 -3.986767232418060303e-01 3.647174596786499023e+00 9.745493531227111816e-01 1.555798649787902832e+00
1.270000000000000000e+03 2.118499374389648438e+01 1.630670166015625000e+01 -2.008738040924072266e+00 -4.466990530490875244e-01 -7.366311550140380859e-01 8.371446132659912109e-01
1.271000000000000000e+03 2.052293205261230469e+01 1.813380241394042969e+01 1.689765229821205139e-02 6.427594274282455444e-02 2.435207925736904144e-02 1.163705229759216309e+00
1.272000000000000000e+03 1.127253723144531250e+01 1.831198215484619141e+00 1.807568907737731934e+00 1.413514804840087891e+01 4.782814979553222656e+00 2.235855817794799805e+00
1.273000000000000000e+03 2.449196815490722656e+01 1.422006511688232422e+01 -8.957612514495849609e-01 2.345445454120635986e-01 -1.983650028705596924e-01 5.058207511901855469e-01
1.274000000000000000e+03 2.234065246582031250e+01 1.861083030700683594e+01 -2.592113614082336426e-02 1.174860596656799316e-01 2.746947854757308960e-02 5.681315660476684570e-01
1.275000000000000000e+03 2.567334175109863281e+01 5.414235591888427734e+00 3.764837026596069336e+00 3.721219062805175781e+00 2.245816946029663086e+00 1.892812013626098633e+00
1.276000000000000000e+03 2.461473846435546875e+01 4.817313671112060547e+00 4.126652240753173828e+00 3.965339899063110352e+00 2.427597522735595703e+00 2.552977323532104492e+00
1.277000000000000000e+03 1.658222961425781250e+01 1.748964309692382812e+01 7.173823565244674683e-02 3.777026653289794922e+00 1.154629468917846680e+00 2.160887718200683594e+00
1.278000000000000000e+03 1.489683341979980469e+01 1.553943729400634766e+01 1.296573877334594727e+00 6.368194580078125000e+00 2.299430370330810547e+00 1.842094302177429199e+00
1.279000000000000000e+03 2.707834625244140625e+01 1.125060653686523438e+01 1.295878589153289795e-01 3.017892599105834961e+00 9.442440867424011230e-01 1.219960212707519531e+00
1.280000000000000000e+03 1.331981277465820312e+01 1.119529342651367188e+01 9.793962836265563965e-01 8.483872413635253906e+00 2.838980674743652344e+00 1.365452885627746582e+00
1.281000000000000000e+03 1.296261501312255859e+01 1.373160076141357422e+01 1.665096163749694824e+00 6.621586799621582031e+00 2.486004829406738281e+00 7.508587241172790527e-01
1.282000000000000000e+03 2.357076835632324219e+01 4.239781856536865234e+00 4.431109428405761719e+00 3.228891134262084961e+00 2.298000097274780273e+00 2.760863542556762695e+00
1.283000000000000000e+03 2.504594230651855469e+01 1.556669330596923828e+01 -1.144893646240234375e+00 1.001308083534240723e+00 -4.307566583156585693e-02 2.493280172348022461e-01
1.284000000000000000e+03 2.290305328369140625e+01 1.678476905822753906e+01 -1.022321939468383789e+00 -1.860054880380630493e-01 -3.624982237815856934e-01 3.325712680816650391e-01
1.285000000000000000e+03 2.756876945495605469e+01 7.583529472351074219e+00 2.769292354583740234e+00 2.913779497146606445e+00 1.704921603202819824e+00 1.810974836349487305e+00
1.286000000000000000e+03 2.724451255798339844e+01 8.785141944885253906e+00 2.111458301544189453e+00 3.279956102371215820e+00 1.617424368858337402e+00 2.287725925445556641e+00
1.287000000000000000e+03 1.576357364654541016e+01 5.406111240386962891e+00 -2.200313329696655273e+00 1.038115024566650391e+00 -3.486595153808593750e-01 1.160424232482910156e+00
1.288000000000000000e+03 2.219416427612304688e+01 3.158463716506958008e+00 4.004846096038818359e+00 2.186183691024780273e+00 1.857308983802795410e+00 2.849930047988891602e+00
1.289000000000000000e+03 2.310153579711914062e+01 2.864903450012207031e+00 3.483304977416992188e+00 2.567380189895629883e+00 1.815205574035644531e+00 2.286854028701782227e+00
1.290000000000000000e+03 1.401768493652343750e+01 8.619500160217285156e+00 -2.957838587462902069e-02 7.773851394653320312e+00 2.323282003402709961e+00 7.193027734756469727e-01
1.291000000000000000e+03 1.436631679534912109e+01 9.742743492126464844e+00 3.077169656753540039e-01 9.277315139770507812e+00 2.875509738922119141e+00 2.865667641162872314e-01
1.292000000000000000e+03 3.254721403121948242e+00 -3.887685394287109375e+01 -7.485645264387130737e-02 6.281010627746582031e+00 1.861846208572387695e+00 -2.143356390297412872e-02
1.293000000000000000e+03 1.756951689720153809e+00 -1.573389911651611328e+01 3.990138769149780273e-01 4.200789928436279297e-01 2.457278668880462646e-01 9.096950292587280273e-01
1.294000000000000000e+03 2.250086069107055664e+00 -2.817359542846679688e+01 -1.653025150299072266e-01 5.767738342285156250e+00 1.680730819702148438e+00 5.314090251922607422e-01
1.295000000000000000e+03 1.748121023178100586e+00 -3.704269027709960938e+01 -4.041448980569839478e-02 6.504962921142578125e+00 1.939364433288574219e+00 -2.504918910562992096e-02
1.296000000000000000e+03 8.477422595024108887e-01 -3.877471160888671875e+01 2.353874733671545982e-03 6.668119907379150391e+00 2.001142263412475586e+00 -5.099040269851684570e-02
1.297000000000000000e+03 2.411147832870483398e+00 -3.390504837036132812e+01 -7.997391372919082642e-02 6.259513854980468750e+00 1.853862047195434570e+00 1.133616343140602112e-01
1.298000000000000000e+03 7.849915027618408203e-01 -3.231029129028320312e+01 -1.614792831242084503e-02 6.648376941680908203e+00 1.989668726921081543e+00 7.782927900552749634e-02
1.299000000000000000e+03 2.271829843521118164e+00 -2.955544281005859375e+01 -9.890660643577575684e-02 5.964866638183593750e+00 1.759788036346435547e+00 3.615385591983795166e-01
1.300000000000000000e+03 2.328064680099487305e+00 -3.238399505615234375e+01 -7.425287365913391113e-02 6.190177440643310547e+00 1.834777355194091797e+00 1.913002133369445801e-01
1.301000000000000000e+03 3.312309741973876953e+00 -2.257927131652832031e+01 -3.729319572448730469e-01 5.009878158569335938e+00 1.391083836555480957e+00 1.591967821121215820e+00
1.302000000000000000e+03 7.176710963249206543e-01 -2.541767311096191406e+01 2.812496386468410492e-02 5.038180351257324219e+00 1.519891500473022461e+00 3.163580596446990967e-01
1.303000000000000000e+03 2.036643266677856445e+00 -2.261953163146972656e+01 -2.646891176700592041e-01 4.216458797454833984e+00 1.185530900955200195e+00 1.285828351974487305e+00
1.304000000000000000e+03 2.147854566574096680e+00 -2.540824508666992188e+01 -2.467591911554336548e-01 5.177546024322509766e+00 1.479236125946044922e+00 8.700314164161682129e-01
1.305000000000000000e+03 1.977045774459838867e+00 -1.979194068908691406e+01 -1.264058202505111694e-01 2.789803743362426758e+00 7.990193367004394531e-01 1.506761789321899414e+00
1.306000000000000000e+03 6.336784362792968750e-01 -1.853372573852539062e+01 -9.950371086597442627e-02 7.413420244120061398e-04 -2.962871082127094269e-02 5.541164278984069824e-01
1.307000000000000000e+03 3.003599166870117188e+00 -1.692459869384765625e+01 5.722078680992126465e-01 3.081729412078857422e+00 1.096181154251098633e+00 1.743875980377197266e+00
1.308000000000000000e+03 1.687768101692199707e+00 -1.307908058166503906e+01 2.997719943523406982e-01 -1.128954663872718811e-01 5.606295540928840637e-02 -1.485558450222015381e-01
1.309000000000000000e+03 5.435385107994079590e-01 -1.175777053833007812e+01 -6.438130140304565430e-02 -2.329359292984008789e+00 -7.181221246719360352e-01 -1.709886640310287476e-01
1.310000000000000000e+03 2.649792671203613281e+00 -1.048892879486083984e+01 -4.690637066960334778e-02 2.021674156188964844e+00 5.924303531646728516e-01 -8.159611821174621582e-01
1.311000000000000000e+03 2.848266363143920898e+00 -1.434451198577880859e+01 1.018731355667114258e+00 2.243986606597900391e+00 9.788153767585754395e-01 5.269418358802795410e-01
1.312000000000000000e+03 2.293344736099243164e+00 -1.617329120635986328e+00 1.027197763323783875e-02 4.537519440054893494e-02 1.669415272772312164e-02 -1.946467310190200806e-01
1.313000000000000000e+03 1.329668045043945312e+00 -1.705619931221008301e+00 2.642258629202842712e-02 -9.711334109306335449e-02 -2.120722644031047821e-02 -1.829957365989685059e-01
1.314000000000000000e+03 4.339499175548553467e-01 -3.679946184158325195e+00 -2.000006847083568573e-02 -5.558631420135498047e-01 -1.727589666843414307e-01 -3.045428358018398285e-02
1.315000000000000000e+03 8.243371009826660156e+00 -1.208578300476074219e+01 -1.936230361461639404e-01 1.445067119598388672e+01 4.277114391326904297e+00 -1.950204610824584961e+00
1.316000000000000000e+03 7.514282226562500000e+00 -1.283347702026367188e+01 3.318002462387084961e+00 1.205804538726806641e+01 4.612814426422119141e+00 -8.694769144058227539e-01
1.317000000000000000e+03 6.834062194824218750e+01 -8.655118942260742188e+00 4.505274295806884766e+00 2.241093254089355469e+01 8.074861526489257812e+00 -5.436356544494628906e+00
1.318000000000000000e+03 6.871960449218750000e+01 -1.130581569671630859e+01 1.653803467750549316e+00 2.346556854248046875e+01 7.535811424255371094e+00 7.950668931007385254e-01
1.319000000000000000e+03 5.568842315673828125e+01 1.442913722991943359e+01 7.991027832031250000e-01 4.351474761962890625e+00 1.545173287391662598e+00 -1.143781781196594238e+00
1.320000000000000000e+03 9.992575645446777344e+00 -1.059288978576660156e+01 -5.786967277526855469e+00 1.066389465332031250e+01 1.463078379631042480e+00 5.072976589202880859e+00
1.321000000000000000e+03 6.338883209228515625e+01 -3.978951215744018555e+00 -1.112566232681274414e+00 1.100190058350563049e-01 -3.007641732692718506e-01 -2.481116533279418945e+00
1.322000000000000000e+03 6.566263580322265625e+01 -6.609114646911621094e+00 -2.837636470794677734e+00 2.765212655067443848e-01 -7.683346271514892578e-01 -2.766589879989624023e+00
1.323000000000000000e+03 4.310343170166015625e+01 1.049370098114013672e+01 2.642171680927276611e-01 1.367742657661437988e+00 4.895879328250885010e-01 -2.947289347648620605e-01
1.324000000000000000e+03 4.284636688232421875e+01 1.182900810241699219e+01 1.892498284578323364e-01 2.051344633102416992e+00 6.721783280372619629e-01 3.806678578257560730e-02
1.325000000000000000e+03 4.385952377319335938e+01 1.682976150512695312e+01 1.307963490486145020e+00 2.393671512603759766e+00 1.110490560531616211e+00 1.365553975105285645e+00
1.326000000000000000e+03 4.617166900634765625e+01 1.825760650634765625e+01 1.209061145782470703e+00 7.204558253288269043e-01 5.788550972938537598e-01 7.835568189620971680e-01
1.327000000000000000e+03 7.639289093017578125e+01 -3.715079498291015625e+01 -1.214761808514595032e-01 1.016687297821044922e+01 3.013618946075439453e+00 6.209680065512657166e-02
1.328000000000000000e+03 7.925575256347656250e+01 -3.474011993408203125e+01 -2.731876261532306671e-02 1.141759777069091797e+01 3.417083740234375000e+00 1.980695500969886780e-02
1.329000000000000000e+03 7.929148101806640625e+01 -2.782855415344238281e+01 8.225690573453903198e-03 1.104692077636718750e+01 3.316544055938720703e+00 -1.278153806924819946e-01
1.330000000000000000e+03 7.765468597412109375e+01 3.225043487548828125e+01 1.103963423520326614e-02 5.552769660949707031e+00 1.669142842292785645e+00 -9.610762447118759155e-02
1.331000000000000000e+03 7.923101043701171875e+01 3.629770660400390625e+01 -1.203543972223997116e-03 5.511183738708496094e+00 1.652994155883789062e+00 -2.125479280948638916e-02
1.332000000000000000e+03 7.933418273925781250e+01 -2.085304069519042969e+01 -6.623695045709609985e-02 8.881599426269531250e+00 2.644608497619628906e+00 -3.600470125675201416e-01
1.333000000000000000e+03 7.786302947998046875e+01 -2.637159729003906250e+01 -8.174656331539154053e-02 1.025487041473388672e+01 3.051937341690063477e+00 -4.075850248336791992e-01
1.334000000000000000e+03 7.928875732421875000e+01 -3.060777091979980469e+01 3.316575894132256508e-04 1.132940196990966797e+01 3.398920297622680664e+00 -6.253246217966079712e-02
1.335000000000000000e+03 7.777944946289062500e+01 -3.321379470825195312e+01 -6.324444711208343506e-02 1.065618801116943359e+01 3.177883148193359375e+00 -5.646722763776779175e-02
1.336000000000000000e+03 7.388232421875000000e+01 -3.685668182373046875e+01 -1.409208402037620544e-03 8.732499122619628906e+00 2.619326829910278320e+00 -4.235094413161277771e-02
1.337000000000000000e+03 7.651692199707031250e+01 -3.920495605468750000e+01 -1.832795562222599983e-03 1.047834205627441406e+01 3.142952680587768555e+00 4.754250496625900269e-02
1.338000000000000000e+03 7.802314758300781250e+01 1.412756061553955078e+01 -1.157515565864741802e-03 7.207101821899414062e+00 2.161783218383789062e+00 -3.006698191165924072e-01
1.339000000000000000e+03 7.933385467529296875e+01 1.539908027648925781e+01 -9.713424369692802429e-03 7.265799999237060547e+00 2.176826000213623047e+00 -9.729279577732086182e-02
1.340000000000000000e+03 7.792954254150390625e+01 2.113414001464843750e+01 2.504768222570419312e-02 6.339914798736572266e+00 1.909488797187805176e+00 -2.228420823812484741e-01
1.341000000000000000e+03 7.931121063232421875e+01 2.237843322753906250e+01 1.154166460037231445e-02 6.360387325286865234e+00 1.911578655242919922e+00 -6.985241174697875977e-02
1.342000000000000000e+03 7.771730041503906250e+01 3.083169364929199219e+01 1.719076372683048248e-02 5.612556457519531250e+00 1.688924074172973633e+00 -1.032389998435974121e-01
1.343000000000000000e+03 7.783766937255859375e+01 2.806472778320312500e+01 1.019778661429882050e-02 5.772740840911865234e+00 1.734881639480590820e+00 -1.336967796087265015e-01
1.344000000000000000e+03 7.928337097167968750e+01 2.794014167785644531e+01 7.529507391154766083e-03 5.888338088989257812e+00 1.768760204315185547e+00 -4.794893413782119751e-02
1.345000000000000000e+03 7.789648437500000000e+01 2.531502723693847656e+01 9.271264076232910156e-03 5.965352535247802734e+00 1.792387127876281738e+00 -1.674638241529464722e-01
1.346000000000000000e+03 7.790813446044921875e+01 2.392797470092773438e+01 2.209281176328659058e-02 6.079498291015625000e+00 1.830477237701416016e+00 -1.866124570369720459e-01
1.347000000000000000e+03 7.795340728759765625e+01 1.832651901245117188e+01 2.311847358942031860e-02 6.651475906372070312e+00 2.002378225326538086e+00 -2.607976496219635010e-01
1.348000000000000000e+03 7.797399902343750000e+01 1.691827583312988281e+01 5.437351297587156296e-03 6.824874401092529297e+00 2.049093484878540039e+00 -2.750599086284637451e-01
1.349000000000000000e+03 7.804224395751953125e+01 1.273554134368896484e+01 1.384502835571765900e-02 7.409404754638671875e+00 2.226974964141845703e+00 -3.060783743858337402e-01
1.350000000000000000e+03 7.678603363037109375e+01 1.142058467864990234e+01 2.296571386978030205e-03 7.294645786285400391e+00 2.189082622528076172e+00 -4.783752858638763428e-01
1.351000000000000000e+03 7.806710052490234375e+01 8.559929847717285156e+00 -3.133530542254447937e-02 8.011280059814453125e+00 2.393983364105224609e+00 -2.758578062057495117e-01
1.352000000000000000e+03 7.935186004638671875e+01 9.824425697326660156e+00 -1.366001460701227188e-02 8.185665130615234375e+00 2.451601743698120117e+00 -9.798105061054229736e-02
1.353000000000000000e+03 7.934416198730468750e+01 -1.944717597961425781e+01 3.398523479700088501e-02 8.125449180603027344e+00 2.447830438613891602e+00 -4.062726497650146484e-01
1.354000000000000000e+03 7.932263183593750000e+01 -1.384909629821777344e+01 3.806085139513015747e-02 4.985543727874755859e+00 1.507081389427185059e+00 -2.981809973716735840e-01
1.355000000000000000e+03 7.930416107177734375e+01 -6.867522239685058594e+00 1.054401844739913940e-01 5.504574298858642578e+00 1.683004379272460938e+00 3.294087648391723633e-01
1.356000000000000000e+03 7.807414245605468750e+01 2.809581160545349121e-01 -1.180428713560104370e-01 8.380254745483398438e+00 2.478663444519042969e+00 3.284505605697631836e-01
1.357000000000000000e+03 7.935718536376953125e+01 1.482122898101806641e+00 -1.057168561965227127e-02 8.729270935058593750e+00 2.615609645843505859e+00 8.285383135080337524e-02
1.358000000000000000e+03 7.679488372802734375e+01 7.285209655761718750e+00 -9.287584573030471802e-02 7.832646846771240234e+00 2.321931362152099609e+00 -3.966759145259857178e-01
1.359000000000000000e+03 7.777654266357421875e+01 2.944670104980468750e+01 1.700914278626441956e-02 5.687814712524414062e+00 1.711447119712829590e+00 -1.282390058040618896e-01
1.360000000000000000e+03 7.594815063476562500e+01 3.541587448120117188e+01 3.479193150997161865e-02 5.317856311798095703e+00 1.605794548988342285e+00 -9.886761754751205444e-02
1.361000000000000000e+03 7.806550598144531250e+01 9.949389457702636719e+00 -5.226672627031803131e-03 7.818935394287109375e+00 2.344112634658813477e+00 -2.927793264389038086e-01
1.362000000000000000e+03 7.678929138183593750e+01 4.419386386871337891e-01 -3.530468642711639404e-01 8.376226425170898438e+00 2.406953811645507812e+00 4.350257217884063721e-01
1.363000000000000000e+03 7.807378387451171875e+01 3.026469230651855469e+00 -1.042632013559341431e-01 8.500173568725585938e+00 2.518773078918457031e+00 2.203356847167015076e-02
1.364000000000000000e+03 7.807485961914062500e+01 -1.078684210777282715e+00 -1.713679432868957520e-01 8.161087989807128906e+00 2.396915912628173828e+00 5.618048310279846191e-01
1.365000000000000000e+03 7.935256958007812500e+01 -2.670362949371337891e+00 -1.081550270318984985e-01 7.558245658874511719e+00 2.235027313232421875e+00 3.212876617908477783e-01
1.366000000000000000e+03 7.796029663085937500e+01 -8.105952262878417969e+00 2.551690340042114258e-01 6.397828102111816406e+00 1.995899081230163574e+00 6.931784749031066895e-01
1.367000000000000000e+03 7.793811798095703125e+01 -5.245040416717529297e+00 9.088143706321716309e-02 7.153958320617675781e+00 2.173451900482177734e+00 9.158948659896850586e-01
1.368000000000000000e+03 7.933892059326171875e+01 -9.668519020080566406e+00 1.569493561983108521e-01 4.469970703125000000e+00 1.388076066970825195e+00 1.458123624324798584e-01
1.369000000000000000e+03 7.798255920410156250e+01 -1.229701137542724609e+01 2.676938772201538086e-01 6.179536342620849609e+00 1.934169054031372070e+00 -4.154470860958099365e-01
1.370000000000000000e+03 7.933419799804687500e+01 -1.664031410217285156e+01 4.708579182624816895e-02 6.442017555236816406e+00 1.946731090545654297e+00 -4.327498376369476318e-01
1.371000000000000000e+03 7.802707672119140625e+01 -2.075377464294433594e+01 -6.353496015071868896e-02 8.934864997863769531e+00 2.661398887634277344e+00 -9.216992259025573730e-01
1.372000000000000000e+03 7.806352233886718750e+01 -1.933332633972167969e+01 -8.485868573188781738e-02 8.435418128967285156e+00 2.505167961120605469e+00 -9.946237206459045410e-01
1.373000000000000000e+03 4.582902908325195312e+01 4.338682651519775391e+00 9.817306399345397949e-01 3.079567551612854004e-01 3.869062066078186035e-01 -1.729669123888015747e-01
1.374000000000000000e+03 4.567856979370117188e+01 6.161644935607910156e+00 1.311784386634826660e+00 2.733314931392669678e-01 4.755347669124603271e-01 -2.910849153995513916e-01
1.375000000000000000e+03 5.657960128784179688e+01 1.126463890075683594e+01 2.163926810026168823e-01 2.831135511398315430e+00 9.142584204673767090e-01 -4.494402706623077393e-01
1.376000000000000000e+03 6.971000671386718750e+01 -8.417887687683105469e+00 2.954533100128173828e+00 1.522951602935791016e+01 5.455214977264404297e+00 -9.498271346092224121e-02
1.377000000000000000e+03 6.834552001953125000e+01 -5.880221843719482422e+00 -1.958614230155944824e+00 1.195541381835937500e+01 2.999039888381958008e+00 -2.308510541915893555e+00
1.378000000000000000e+03 4.861711120605468750e+01 5.417601108551025391e+00 1.502735257148742676e+00 2.576012313365936279e-01 5.281009674072265625e-01 -2.255687415599822998e-01
1.379000000000000000e+03 5.169003677368164062e+01 5.227788925170898438e+00 1.076504588127136230e+00 8.591488003730773926e-02 3.487258553504943848e-01 -1.279138028621673584e-01
1.380000000000000000e+03 1.315727519989013672e+01 -9.986517906188964844e+00 -4.383769035339355469e+00 -3.931374847888946533e-01 -1.433071970939636230e+00 2.997016191482543945e+00
1.381000000000000000e+03 6.834464263916015625e+01 -1.355998420715332031e+01 2.282628059387207031e+00 1.924484825134277344e+01 6.458242893218994141e+00 3.861408472061157227e+00
1.382000000000000000e+03 6.767836761474609375e+01 -1.470001411437988281e+01 1.910007953643798828e+00 1.366160583496093750e+01 4.671483993530273438e+00 4.902504920959472656e+00
1.383000000000000000e+03 5.063728713989257812e+01 2.077116203308105469e+01 1.265913963317871094e+00 9.029704928398132324e-01 6.506653428077697754e-01 -4.698863625526428223e-01
1.384000000000000000e+03 4.858400344848632812e+01 1.997969245910644531e+01 1.089042663574218750e+00 4.835325479507446289e-01 4.717725813388824463e-01 1.696135401725769043e-01
1.385000000000000000e+03 5.171897506713867188e+01 1.998374748229980469e+01 1.141049385070800781e+00 1.113469362258911133e+00 6.763556003570556641e-01 -7.829034924507141113e-01
1.386000000000000000e+03 5.224895858764648438e+01 1.815103149414062500e+01 1.266856312751770020e+00 8.928638100624084473e-01 6.479160189628601074e-01 -8.453617095947265625e-01
1.387000000000000000e+03 6.210982131958007812e+01 -5.924524307250976562e+00 -2.715840101242065430e+00 -7.040608525276184082e-01 -1.025970339775085449e+00 -1.277021527290344238e+00
1.388000000000000000e+03 4.165016555786132812e+01 -1.816689109802246094e+01 -2.546590566635131836e+00 -5.845997482538223267e-02 -7.815151214599609375e-01 -5.732738971710205078e-01
1.389000000000000000e+03 4.026872253417968750e+01 -1.714114761352539062e+01 -2.705839157104492188e+00 1.325919181108474731e-01 -7.719742059707641602e-01 -4.964856207370758057e-01
1.390000000000000000e+03 3.484626388549804688e+01 -1.863614463806152344e+01 -3.033092737197875977e+00 7.087354362010955811e-02 -8.886657357215881348e-01 2.108063921332359314e-02
1.391000000000000000e+03 2.011865997314453125e+01 -2.855524444580078125e+01 -4.968197941780090332e-01 2.627666294574737549e-01 -7.021594792604446411e-02 -5.388418212532997131e-03
1.392000000000000000e+03 4.277763366699218750e+01 1.324638366699218750e+01 1.826068907976150513e-01 2.616720914840698242e+00 8.397983312606811523e-01 4.317609071731567383e-01
1.393000000000000000e+03 4.144087219238281250e+01 1.310483074188232422e+01 5.875243544578552246e-01 2.198984384536743164e+00 8.359525799751281738e-01 8.065147399902343750e-01
1.394000000000000000e+03 4.125323867797851562e+01 1.450897121429443359e+01 8.881264328956604004e-01 2.025564908981323242e+00 8.741073608398437500e-01 9.004269838333129883e-01
1.395000000000000000e+03 5.464345550537109375e+01 2.202958106994628906e+01 8.741227984428405762e-01 2.377111196517944336e+00 9.753701686859130859e-01 -8.207958340644836426e-01
1.396000000000000000e+03 5.464524459838867188e+01 1.659374046325683594e+01 1.523840427398681641e+00 3.208860635757446289e+00 1.419810295104980469e+00 -1.671428561210632324e+00
1.397000000000000000e+03 5.492176818847656250e+01 7.174909114837646484e+00 5.111879110336303711e-01 8.629798889160156250e-01 4.122503399848937988e-01 9.809143841266632080e-02
1.398000000000000000e+03 3.424522018432617188e+01 -3.257152938842773438e+01 -4.381989836692810059e-01 -1.784247718751430511e-02 -1.368124336004257202e-01 1.095462739467620850e-01
1.399000000000000000e+03 2.094721603393554688e+01 -1.390613937377929688e+01 -5.163774490356445312e+00 -3.473694026470184326e-01 -1.653343200683593750e+00 1.504600405693054199e+00
1.400000000000000000e+03 1.747019004821777344e+01 -1.181256103515625000e+01 -6.523263931274414062e+00 -2.468402534723281860e-01 -2.031031131744384766e+00 1.467432618141174316e+00
1.401000000000000000e+03 3.111250877380371094e+01 -1.701628303527832031e+01 -3.290197134017944336e+00 1.443548649549484253e-01 -9.437526464462280273e-01 3.335739076137542725e-01
1.402000000000000000e+03 3.398480987548828125e+01 -1.607531929016113281e+01 -2.952903032302856445e+00 2.881962954998016357e-01 -7.994120717048645020e-01 -5.779003351926803589e-02
1.403000000000000000e+03 5.160114765167236328e+00 -1.534675598144531250e+01 2.380077123641967773e+00 6.519265651702880859e+00 2.669802904129028320e+00 1.172304272651672363e+00
1.404000000000000000e+03 9.746170997619628906e+00 -1.888382530212402344e+01 1.251206994056701660e-01 1.016996383666992188e+01 3.088525295257568359e+00 -1.888230562210083008e+00
1.405000000000000000e+03 7.022365570068359375e+01 -1.089774799346923828e+01 3.323980569839477539e+00 1.663845252990722656e+01 5.988729953765869141e+00 -5.086545944213867188e-01
1.406000000000000000e+03 1.513488769531250000e+01 -1.230173683166503906e+01 -9.742891311645507812e+00 -1.499136328697204590e+00 -3.372608423233032227e+00 3.391615390777587891e+00
1.407000000000000000e+03 1.542913722991943359e+01 -1.108545970916748047e+01 -7.171140670776367188e+00 -7.636962532997131348e-01 -2.380450963973999023e+00 1.542683959007263184e+00
1.408000000000000000e+03 1.191657257080078125e+01 -2.065038871765136719e+01 5.936914086341857910e-01 5.131261825561523438e+00 1.717485904693603516e+00 -2.343617916107177734e+00
1.409000000000000000e+03 4.668331909179687500e+01 2.026072120666503906e+01 1.104484558105468750e+00 1.002346515655517578e+00 6.320493221282958984e-01 6.449620723724365234e-01
1.410000000000000000e+03 5.920198059082031250e+01 -2.653093147277832031e+01 -9.405888915061950684e-01 4.182914197444915771e-01 -1.566892415285110474e-01 -2.053545862436294556e-01
1.411000000000000000e+03 5.296407699584960938e+01 1.935929679870605469e+01 1.046691775321960449e+00 1.515301823616027832e+00 7.685980796813964844e-01 -1.088624477386474609e+00
1.412000000000000000e+03 3.637120819091796875e+01 -1.737316322326660156e+01 -2.902925014495849609e+00 1.317618340253829956e-01 -8.313488960266113281e-01 -1.464989334344863892e-01
1.413000000000000000e+03 5.070787811279296875e+01 -3.190068244934082031e+01 -7.647776007652282715e-01 -4.570350050926208496e-01 -3.665437996387481689e-01 -5.448709726333618164e-01
1.414000000000000000e+03 5.125324249267578125e+01 -2.971564865112304688e+01 -1.535573482513427734e+00 -4.579547345638275146e-01 -5.980584621429443359e-01 -7.803136110305786133e-01
1.415000000000000000e+03 4.275227737426757812e+01 -1.670630836486816406e+01 -2.654702186584472656e+00 -1.452499814331531525e-02 -8.007681965827941895e-01 -6.495204567909240723e-01
1.416000000000000000e+03 4.296801376342773438e+01 -1.783898925781250000e+01 -2.628548860549926758e+00 -1.464412659406661987e-01 -8.324970006942749023e-01 -7.326430082321166992e-01
1.417000000000000000e+03 4.448201751708984375e+01 -3.189704513549804688e+01 -6.922937035560607910e-01 -8.870890736579895020e-02 -2.343007773160934448e-01 -2.786973416805267334e-01
1.418000000000000000e+03 4.796673965454101562e+01 -3.255773544311523438e+01 -6.385227441787719727e-01 -3.440695405006408691e-01 -2.947776913642883301e-01 -4.950402379035949707e-01
1.419000000000000000e+03 4.667574310302734375e+01 -3.324352645874023438e+01 -5.312088727951049805e-01 -2.765164375305175781e-01 -2.423175871372222900e-01 -4.494398832321166992e-01
1.420000000000000000e+03 4.382655715942382812e+01 2.097028350830078125e+01 7.447519302368164062e-01 1.723494410514831543e+00 7.404739260673522949e-01 7.060686945915222168e-01
1.421000000000000000e+03 2.602754592895507812e+01 -3.000640678405761719e+01 -9.284574985504150391e-01 -2.222204655408859253e-01 -3.452033996582031250e-01 5.046219229698181152e-01
1.422000000000000000e+03 2.671071815490722656e+01 -3.228907012939453125e+01 -5.028879046440124512e-01 -1.952779293060302734e-01 -2.094497531652450562e-01 3.120964765548706055e-01
1.423000000000000000e+03 4.993309020996093750e+01 -1.387290287017822266e+01 -2.573934078216552734e+00 -3.537838160991668701e-01 -8.783153295516967773e-01 -1.178522944450378418e+00
1.424000000000000000e+03 5.183830642700195312e+01 -1.431189060211181641e+01 -2.633352756500244141e+00 -7.070873379707336426e-01 -1.002132058143615723e+00 -1.406171441078186035e+00
1.425000000000000000e+03 3.112518692016601562e+01 -3.307445526123046875e+01 -4.744159579277038574e-01 -1.935856640338897705e-01 -2.004004865884780884e-01 2.583234012126922607e-01
1.426000000000000000e+03 6.788874053955078125e+01 -1.889630317687988281e+01 -2.477734237909317017e-01 9.159434318542480469e+00 2.673498392105102539e+00 1.365168809890747070e+00
1.427000000000000000e+03 5.374465179443359375e+01 -2.836878585815429688e+01 -1.692689061164855957e+00 -4.703973829746246338e-01 -6.489259004592895508e-01 -8.988650441169738770e-01
1.428000000000000000e+03 5.775129318237304688e+01 -2.929126167297363281e+01 -6.904030442237854004e-01 2.592719197273254395e-01 -1.293393373489379883e-01 -1.259314715862274170e-01
1.429000000000000000e+03 6.993213653564453125e+01 -9.670907974243164062e+00 4.044974327087402344e+00 1.708474540710449219e+01 6.338915824890136719e+00 -1.024401187896728516e+00
1.430000000000000000e+03 3.242839050292968750e+01 -1.718758773803710938e+01 -3.153559923171997070e+00 1.651650518178939819e-01 -8.965184688568115234e-01 1.489577293395996094e-01
1.431000000000000000e+03 4.637495803833007812e+01 -1.548036384582519531e+01 -2.585119009017944336e+00 -1.895530670881271362e-01 -8.324016332626342773e-01 -9.585177302360534668e-01
1.432000000000000000e+03 3.226868820190429688e+01 -3.344510650634765625e+01 -4.358409345149993896e-01 -9.235171228647232056e-02 -1.584577858448028564e-01 2.299194931983947754e-01
1.433000000000000000e+03 2.892709732055664062e+01 -1.533283424377441406e+01 -3.400895595550537109e+00 2.851609289646148682e-01 -9.347203969955444336e-01 3.712155818939208984e-01
1.434000000000000000e+03 5.737845611572265625e+01 1.379065799713134766e+01 8.693053126335144043e-01 3.068724393844604492e+00 1.181408882141113281e+00 -1.072380542755126953e+00
1.435000000000000000e+03 6.870165252685546875e+01 -1.581304931640625000e+01 5.067698359489440918e-01 1.417039108276367188e+01 4.403148174285888672e+00 1.867830634117126465e+00
1.436000000000000000e+03 4.436100006103515625e+01 8.815704345703125000e+00 5.441000461578369141e-01 6.263912916183471680e-01 3.511474132537841797e-01 -4.760619699954986572e-01
1.437000000000000000e+03 6.124674606323242188e+01 -6.748119354248046875e+00 -3.945122718811035156e+00 -7.385364770889282227e-01 -1.405097723007202148e+00 -1.527409791946411133e+00
1.438000000000000000e+03 6.237868881225585938e+01 -7.664103031158447266e+00 -5.283559322357177734e+00 -1.578612327575683594e+00 -2.058651447296142578e+00 -2.790262937545776367e+00
1.439000000000000000e+03 5.462918090820312500e+01 -1.127163791656494141e+01 -2.904579877853393555e+00 -6.577358841896057129e-01 -1.068694710731506348e+00 -1.525692462921142578e+00
1.440000000000000000e+03 6.621962738037109375e+01 -1.910237312316894531e+01 4.041768610477447510e-01 6.804175853729248047e+00 2.162505865097045898e+00 2.201495885848999023e+00
1.441000000000000000e+03 5.036943054199218750e+01 2.996903419494628906e+00 6.867074370384216309e-01 1.711496114730834961e-01 2.573571205139160156e-01 -2.659832537174224854e-01
1.442000000000000000e+03 2.338034057617187500e+01 -1.501855945587158203e+01 -4.372629642486572266e+00 -9.859108924865722656e-02 -1.341366171836853027e+00 1.308249831199645996e+00
1.443000000000000000e+03 4.471777725219726562e+01 7.008790016174316406e+00 1.072432041168212891e+00 4.261211156845092773e-01 4.495659768581390381e-01 -4.907099008560180664e-01
1.444000000000000000e+03 4.156174087524414062e+01 -3.265345382690429688e+01 -4.667321145534515381e-01 -5.453190580010414124e-02 -1.563792079687118530e-01 -1.232080534100532532e-01
1.445000000000000000e+03 4.363757324218750000e+01 -3.397079086303710938e+01 -3.946449458599090576e-01 -1.863783448934555054e-01 -1.743069887161254883e-01 -2.666214406490325928e-01
1.446000000000000000e+03 5.212448883056640625e+01 -3.124384307861328125e+01 -8.252626061439514160e-01 -4.103155732154846191e-01 -3.706734478473663330e-01 -5.812175869941711426e-01
1.447000000000000000e+03 1.778277778625488281e+01 -1.010944271087646484e+01 -4.306311607360839844e+00 8.439837396144866943e-02 -1.266574025154113770e+00 4.243225753307342529e-01
1.448000000000000000e+03 6.366393661499023438e+01 -2.488670158386230469e+01 -6.927128434181213379e-01 3.571342229843139648e+00 8.635887503623962402e-01 7.087033987045288086e-01
1.449000000000000000e+03 6.362488174438476562e+01 -2.257054328918457031e+01 -2.546844482421875000e-01 3.107181549072265625e+00 8.557491302490234375e-01 9.223073124885559082e-01
1.450000000000000000e+03 2.803391456604003906e+01 -1.768602752685546875e+01 -3.733559131622314453e+00 -1.349393427371978760e-01 -1.160549521446228027e+00 8.193043470382690430e-01
1.451000000000000000e+03 2.638938140869140625e+01 -1.467440605163574219e+01 -3.686275243759155273e+00 2.202738970518112183e-01 -1.039800405502319336e+00 6.330611109733581543e-01
1.452000000000000000e+03 4.001840591430664062e+01 -3.537698364257812500e+01 -2.669958472251892090e-01 -1.627697199583053589e-01 -1.289296597242355347e-01 -1.072896644473075867e-01
1.453000000000000000e+03 4.756006240844726562e+01 -1.497989177703857422e+01 -2.546370506286621094e+00 -1.869005411863327026e-01 -8.199813365936279297e-01 -9.837129116058349609e-01
1.454000000000000000e+03 4.518229293823242188e+01 -1.593902778625488281e+01 -2.543484210968017578e+00 -1.989854872226715088e-01 -8.227409124374389648e-01 -8.450223803520202637e-01
1.455000000000000000e+03 6.009498596191406250e+01 -9.190819740295410156e+00 -4.228493690490722656e+00 -1.455920577049255371e+00 -1.705324292182922363e+00 -2.439255952835083008e+00
1.456000000000000000e+03 5.804400634765625000e+01 -2.729650306701660156e+01 -1.023521184921264648e+00 -4.141985625028610229e-02 -3.194823265075683594e-01 -3.882801532745361328e-01
1.457000000000000000e+03 3.768627166748046875e+01 -1.733822631835937500e+01 -2.806894302368164062e+00 1.033967733383178711e-01 -8.110492229461669922e-01 -2.811582684516906738e-01
1.458000000000000000e+03 3.621955490112304688e+01 -1.862916946411132812e+01 -3.067539691925048828e+00 3.379185497760772705e-02 -9.101243615150451660e-01 -1.038470864295959473e-01
1.459000000000000000e+03 6.360362243652343750e+01 -2.041679382324218750e+01 6.615366339683532715e-01 2.325779914855957031e+00 8.961949348449707031e-01 1.286485195159912109e+00
1.460000000000000000e+03 2.536399841308593750e+01 -1.696484947204589844e+01 -4.028083801269531250e+00 -2.600724697113037109e-01 -1.286446928977966309e+00 1.155351042747497559e+00
1.461000000000000000e+03 2.589054107666015625e+01 -1.582808208465576172e+01 -3.889122962951660156e+00 5.386163946241140366e-03 -1.165121078491210938e+00 8.999995589256286621e-01
1.462000000000000000e+03 5.055912399291992188e+01 -7.931844711303710938e+00 -1.968617081642150879e+00 -2.725302008911967278e-03 -5.914027094841003418e-01 -7.277888059616088867e-01
1.463000000000000000e+03 5.497669982910156250e+01 -9.627558708190917969e+00 -2.860650062561035156e+00 -4.822305142879486084e-01 -1.002864122390747070e+00 -1.309210896492004395e+00
1.464000000000000000e+03 2.135300445556640625e+01 -2.943018150329589844e+01 -5.306088328361511230e-01 1.635816395282745361e-01 -1.101081520318984985e-01 1.295475065708160400e-01
1.465000000000000000e+03 6.537412261962890625e+01 -2.025010299682617188e+01 1.615993082523345947e-01 5.374827861785888672e+00 1.660928130149841309e+00 1.745732426643371582e+00
1.466000000000000000e+03 2.400629234313964844e+01 -3.080967140197753906e+01 -5.524548292160034180e-01 -4.701061546802520752e-02 -1.798396259546279907e-01 3.015989959239959717e-01
1.467000000000000000e+03 3.632981109619140625e+01 -3.408956527709960938e+01 -3.374573290348052979e-01 -8.293715119361877441e-02 -1.261183470487594604e-01 6.768298894166946411e-02
1.468000000000000000e+03 4.939030838012695312e+01 -1.556356048583984375e+01 -2.547099828720092773e+00 -4.535295665264129639e-01 -9.001888632774353027e-01 -1.130380988121032715e+00
1.469000000000000000e+03 3.349031448364257812e+01 -3.431635284423828125e+01 -3.371722996234893799e-01 -1.380991339683532715e-01 -1.425814330577850342e-01 1.713251620531082153e-01
1.470000000000000000e+03 6.955743408203125000e+01 -1.488564491271972656e+01 6.510698199272155762e-01 1.418953514099121094e+01 4.452181339263916016e+00 -1.064265891909599304e-01
1.471000000000000000e+03 5.660187530517578125e+01 -1.147749519348144531e+01 -3.153445243835449219e+00 -1.183098196983337402e+00 -1.300963044166564941e+00 -1.937939763069152832e+00
1.472000000000000000e+03 5.578406524658203125e+01 -1.056170177459716797e+01 -3.055824279785156250e+00 -7.530540823936462402e-01 -1.142663478851318359e+00 -1.584679126739501953e+00
1.473000000000000000e+03 5.331052017211914062e+01 -3.039365768432617188e+01 -9.604412913322448730e-01 -3.048001229763031006e-01 -3.795724213123321533e-01 -6.133010387420654297e-01
1.474000000000000000e+03 1.773473930358886719e+01 -2.447805786132812500e+01 -9.852022677659988403e-02 3.863258957862854004e-01 8.634170144796371460e-02 -2.021085172891616821e-01
1.475000000000000000e+03 1.896246337890625000e+01 -2.756711196899414062e+01 -4.713360071182250977e-01 6.229159235954284668e-01 4.547397792339324951e-02 -8.500208705663681030e-02
1.476000000000000000e+03 5.449481201171875000e+01 -2.960210800170898438e+01 -1.058459997177124023e+00 -3.041304051876068115e-01 -4.087771177291870117e-01 -6.008147001266479492e-01
1.477000000000000000e+03 6.451336669921875000e+01 -2.140336608886718750e+01 -5.313167721033096313e-02 3.949791908264160156e+00 1.168998003005981445e+00 1.401337504386901855e+00
1.478000000000000000e+03 4.919849395751953125e+01 -3.217649459838867188e+01 -6.889125704765319824e-01 -3.425577580928802490e-01 -3.094410896301269531e-01 -5.597212910652160645e-01
1.479000000000000000e+03 2.980123710632324219e+01 -1.678640937805175781e+01 -3.466500759124755859e+00 1.532890200614929199e-01 -9.939634799957275391e-01 4.407528638839721680e-01
1.480000000000000000e+03 5.917757797241210938e+01 -8.324732780456542969e+00 -3.721432209014892578e+00 -9.293726086616516113e-01 -1.395241498947143555e+00 -1.786797285079956055e+00
1.481000000000000000e+03 5.111276245117187500e+01 -1.325957775115966797e+01 -2.629919767379760742e+00 -4.227627813816070557e-01 -9.158047437667846680e-01 -1.216024756431579590e+00
1.482000000000000000e+03 2.717860221862792969e+01 -1.617529869079589844e+01 -3.720594882965087891e+00 3.228544816374778748e-02 -1.106492877006530762e+00 7.413656115531921387e-01
1.483000000000000000e+03 1.390739250183105469e+01 -2.254577445983886719e+01 2.541543841361999512e-01 2.864627361297607422e+00 9.356344938278198242e-01 -1.414629220962524414e+00
1.484000000000000000e+03 1.489863300323486328e+01 -2.350766181945800781e+01 1.265221983194351196e-01 2.297384977340698242e+00 7.271721363067626953e-01 -9.545146226882934570e-01
1.485000000000000000e+03 1.673399734497070312e+01 -2.348448944091796875e+01 2.163383662700653076e-01 8.268931508064270020e-01 3.129694461822509766e-01 -4.197338521480560303e-01
1.486000000000000000e+03 1.688015365600585938e+01 -2.549420356750488281e+01 -2.100890427827835083e-01 1.285209655761718750e+00 3.225362002849578857e-01 -3.924791812896728516e-01
1.487000000000000000e+03 1.588995170593261719e+01 -2.448795127868652344e+01 -8.865598589181900024e-02 1.607645511627197266e+00 4.556968808174133301e-01 -7.197798490524291992e-01
1.488000000000000000e+03 8.363060355186462402e-01 3.737126541137695312e+01 -8.303342619910836220e-04 1.985743045806884766e+00 5.954738259315490723e-01 -4.395395051687955856e-03
1.489000000000000000e+03 6.909459829330444336e-01 3.462911605834960938e+01 -1.255398849025368690e-03 1.964260458946228027e+00 5.889015197753906250e-01 -7.162401918321847916e-03
1.490000000000000000e+03 6.637594699859619141e-01 3.324612808227539062e+01 -2.320708241313695908e-03 1.945484280586242676e+00 5.829490423202514648e-01 -1.097964029759168625e-02
1.491000000000000000e+03 6.841142773628234863e-01 2.765750885009765625e+01 -4.158867988735437393e-03 1.723145961761474609e+00 5.156961083412170410e-01 -4.744610562920570374e-02
1.492000000000000000e+03 6.839850544929504395e-01 2.624482345581054688e+01 -1.069530099630355835e-02 1.609060049057006836e+00 4.795094132423400879e-01 -6.267265975475311279e-02
1.493000000000000000e+03 3.433115959167480469e+00 2.630105400085449219e+01 -8.345381170511245728e-02 1.886130571365356445e+00 5.408030152320861816e-01 -2.306756228208541870e-01
1.494000000000000000e+03 3.421107530593872070e+00 2.488014221191406250e+01 -9.065538644790649414e-02 1.838234424591064453e+00 5.242736935615539551e-01 -2.883046865463256836e-01
1.495000000000000000e+03 2.068306922912597656e+00 3.441269683837890625e+01 -8.023933507502079010e-03 1.981102466583251953e+00 5.919235348701477051e-01 -2.118098363280296326e-02
1.496000000000000000e+03 1.997314214706420898e+00 3.312030410766601562e+01 -1.244132500141859055e-02 1.963955283164978027e+00 5.854541659355163574e-01 -3.247090429067611694e-02
1.497000000000000000e+03 3.309234857559204102e+00 3.925461578369140625e+01 -3.977308981120586395e-03 2.005005598068237305e+00 6.003085374832153320e-01 -4.235476721078157425e-03
1.498000000000000000e+03 6.651978492736816406e-01 2.058935546875000000e+01 -4.294207319617271423e-03 8.153732419013977051e-01 2.433237135410308838e-01 -1.228982061147689819e-01
1.499000000000000000e+03 6.523703932762145996e-01 1.917593383789062500e+01 -3.422782756388187408e-03 5.426519513130187988e-01 1.617687493562698364e-01 -1.312813758850097656e-01
1.500000000000000000e+03 6.000688672065734863e-01 1.494622325897216797e+01 1.218835078179836273e-02 -3.032090961933135986e-01 -8.730622380971908569e-02 -1.073304042220115662e-01
1.501000000000000000e+03 5.886569619178771973e-01 1.353696155548095703e+01 -1.447804737836122513e-03 -5.427425503730773926e-01 -1.632570922374725342e-01 -9.486510604619979858e-02
1.502000000000000000e+03 4.842290282249450684e-01 7.837399959564208984e+00 4.761465359479188919e-03 -1.146687150001525879e+00 -3.425776958465576172e-01 -2.379502728581428528e-02
1.503000000000000000e+03 4.279274046421051025e-01 6.416245937347412109e+00 1.796831563115119934e-02 -1.159845948219299316e+00 -3.425633013248443604e-01 1.105793751776218414e-02
1.504000000000000000e+03 3.475910425186157227e-01 4.999440670013427734e+00 -2.155491150915622711e-03 -1.061296343803405762e+00 -3.190355300903320312e-01 4.028473794460296631e-02
1.505000000000000000e+03 3.929591655731201172e+00 1.678261160850524902e+00 -2.380943000316619873e-01 2.002933435142040253e-02 -6.541948765516281128e-02 4.083472788333892822e-01
1.506000000000000000e+03 1.792772769927978516e+00 1.071323013305664062e+01 3.898945823311805725e-02 -9.653053432703018188e-02 -1.726232282817363739e-02 -1.671387404203414917e-01
1.507000000000000000e+03 5.902616977691650391e-01 1.069459819793701172e+01 1.247092848643660545e-03 -9.233259558677673340e-01 -2.766236662864685059e-01 -6.490863114595413208e-02
1.508000000000000000e+03 1.760690689086914062e+00 1.358306312561035156e+01 3.050254471600055695e-02 1.389141380786895752e-01 5.082500725984573364e-02 -2.450087219476699829e-01
1.509000000000000000e+03 1.960958361625671387e+00 1.917967414855957031e+01 -1.210916880518198013e-02 9.806778430938720703e-01 2.905706167221069336e-01 -3.484026789665222168e-01
1.510000000000000000e+03 2.048192501068115234e+00 2.484439086914062500e+01 -4.049446061253547668e-02 1.629778027534484863e+00 4.767850637435913086e-01 -2.116670608520507812e-01
1.511000000000000000e+03 1.101108074188232422e+00 1.703327178955078125e+00 -5.117700248956680298e-02 -1.965692490339279175e-01 -7.432387769222259521e-02 2.537161409854888916e-01
1.512000000000000000e+03 2.437768363952636719e+01 -1.160898494720458984e+01 -3.324947834014892578e+00 5.275182127952575684e-01 -8.392288684844970703e-01 2.294491082429885864e-01
1.513000000000000000e+03 9.079767465591430664e-01 -1.697752594947814941e+00 1.868404820561408997e-02 -1.797132045030593872e-01 -4.830874502658843994e-02 -1.583120822906494141e-01
1.514000000000000000e+03 4.695827484130859375e+00 1.598691463470458984e+00 -2.366165220737457275e-01 5.385834723711013794e-02 -5.482745170593261719e-02 3.291412293910980225e-01
1.515000000000000000e+03 6.806693673133850098e-01 -2.062199592590332031e+00 1.646438427269458771e-02 -2.613964974880218506e-01 -7.347963005304336548e-02 -1.274328231811523438e-01
1.516000000000000000e+03 2.230967044830322266e+00 -1.849612712860107422e+00 7.366961240768432617e-02 3.528742492198944092e-02 3.268710896372795105e-02 -1.792801022529602051e-01
1.517000000000000000e+03 1.649930477142333984e+00 -2.011876583099365234e+00 4.462052509188652039e-02 9.908244013786315918e-03 1.635863073170185089e-02 -2.065777629613876343e-01
1.518000000000000000e+03 3.902590513229370117e+00 -1.693221807479858398e+00 3.204405903816223145e-01 2.967257499694824219e-01 1.851499080657958984e-01 1.659077405929565430e-01
1.519000000000000000e+03 4.016479492187500000e+00 -1.975875258445739746e+00 4.246515929698944092e-01 4.710053205490112305e-01 2.686970829963684082e-01 3.085719645023345947e-01
1.520000000000000000e+03 4.296875476837158203e+00 -1.702187538146972656e+00 4.477128684520721436e-01 3.449518978595733643e-01 2.377994358539581299e-01 3.117003142833709717e-01
1.521000000000000000e+03 4.510409832000732422e+00 -1.711889386177062988e+00 5.410529971122741699e-01 4.179989099502563477e-01 2.877155542373657227e-01 4.460648298263549805e-01
1.522000000000000000e+03 5.114343643188476562e+00 -1.621203660964965820e+00 8.609015941619873047e-01 4.245713949203491211e-01 3.856419026851654053e-01 7.206022143363952637e-01
1.523000000000000000e+03 5.312941551208496094e+00 -1.889345407485961914e+00 1.065814614295959473e+00 6.751114130020141602e-01 5.222778320312500000e-01 9.924565553665161133e-01
1.524000000000000000e+03 5.874569892883300781e+00 -1.909755229949951172e+00 1.546284317970275879e+00 8.978604674339294434e-01 7.332434654235839844e-01 1.513442754745483398e+00
1.525000000000000000e+03 6.691846370697021484e+00 -1.909231662750244141e+00 2.347816228866577148e+00 1.432572722434997559e+00 1.134116649627685547e+00 2.428706407546997070e+00
1.526000000000000000e+03 8.144764900207519531e+00 -1.816450595855712891e+00 4.321411609649658203e+00 3.496326208114624023e+00 2.345321416854858398e+00 4.977892875671386719e+00
1.527000000000000000e+03 8.488086700439453125e+00 -1.612942099571228027e+00 5.012391567230224609e+00 4.295398235321044922e+00 2.792336940765380859e+00 5.709509849548339844e+00
1.528000000000000000e+03 8.884513854980468750e+00 -1.687164187431335449e+00 4.915746212005615234e+00 6.682253360748291016e+00 3.479399919509887695e+00 6.726499080657958984e+00
1.529000000000000000e+03 8.075124740600585938e+00 -2.347521543502807617e+00 3.207080364227294922e+00 4.617551326751708984e+00 2.347389459609985352e+00 5.172163963317871094e+00
1.530000000000000000e+03 9.093618392944335938e+00 -1.693601369857788086e+00 4.791302680969238281e+00 7.995663642883300781e+00 3.836089849472045898e+00 7.028090953826904297e+00
1.531000000000000000e+03 9.353797912597656250e+00 -2.340520143508911133e+00 2.660092830657958984e+00 9.767464637756347656e+00 3.728267192840576172e+00 6.337445735931396484e+00
1.532000000000000000e+03 9.187546730041503906e+00 -2.006973743438720703e+00 3.767919540405273438e+00 9.223416328430175781e+00 3.897400617599487305e+00 6.906744003295898438e+00
1.533000000000000000e+03 1.008830451965332031e+01 -2.014145135879516602e+00 2.503951311111450195e+00 1.427370834350585938e+01 5.033298015594482422e+00 5.131142139434814453e+00
1.534000000000000000e+03 1.010601425170898438e+01 1.740291953086853027e+00 4.442625045776367188e-01 1.405752563476562500e+01 4.350536346435546875e+00 -2.778848171234130859e+00
1.535000000000000000e+03 9.099989891052246094e+00 1.629000902175903320e+00 2.271975278854370117e+00 6.283663749694824219e+00 2.566691875457763672e+00 -4.430393695831298828e+00
1.536000000000000000e+03 7.162442207336425781e+00 1.712163925170898438e+00 8.734533190727233887e-01 7.016844749450683594e-01 4.725413620471954346e-01 -7.823926806449890137e-01
1.537000000000000000e+03 6.975822448730468750e+00 1.793409585952758789e+00 8.611649870872497559e-01 7.182769179344177246e-01 4.738325476646423340e-01 -7.193402051925659180e-01
1.538000000000000000e+03 6.515759468078613281e+00 1.622255206108093262e+00 3.197301626205444336e-01 3.473078310489654541e-01 2.001113891601562500e-01 -2.199640870094299316e-01
1.539000000000000000e+03 5.971210479736328125e+00 1.878736853599548340e+00 2.924024760723114014e-01 3.288562893867492676e-01 1.863776296377182007e-01 -8.150558173656463623e-02
1.540000000000000000e+03 5.508403301239013672e+00 1.703422307968139648e+00 -2.034728601574897766e-02 1.742266565561294556e-01 4.616380855441093445e-02 1.609282940626144409e-01
1.541000000000000000e+03 5.078048229217529297e+00 1.652222752571105957e+00 -1.616849899291992188e-01 1.087848767638206482e-01 -1.587003655731678009e-02 2.592562139034271240e-01
1.542000000000000000e+03 3.722926378250122070e+00 1.702480673789978027e+00 -2.270556390285491943e-01 1.210417319089174271e-02 -6.448543816804885864e-02 4.204440116882324219e-01
1.543000000000000000e+03 3.498658657073974609e+00 1.730163693428039551e+00 -2.015301287174224854e-01 -4.712140187621116638e-03 -6.187267974019050598e-02 4.266346096992492676e-01
1.544000000000000000e+03 3.798572301864624023e+00 2.093812704086303711e+00 -3.658273443579673767e-02 4.566094651818275452e-02 2.723463578149676323e-03 3.934305012226104736e-01
1.545000000000000000e+03 3.762100934982299805e+00 2.427068233489990234e+00 8.364491164684295654e-02 6.470113992691040039e-02 4.450381547212600708e-02 3.637543916702270508e-01
1.546000000000000000e+03 3.072460651397705078e+00 1.639346003532409668e+00 -2.095637321472167969e-01 -5.062916502356529236e-02 -7.805787026882171631e-02 4.150968194007873535e-01
1.547000000000000000e+03 1.503803968429565430e+00 2.736651659011840820e+00 1.626979745924472809e-02 -2.830112874507904053e-01 -8.002243936061859131e-02 3.455252051353454590e-01
1.548000000000000000e+03 1.018053531646728516e+01 2.159717798233032227e+00 8.267660625278949738e-03 1.267653083801269531e+01 3.805439472198486328e+00 -2.282024145126342773e+00
1.549000000000000000e+03 1.037521934509277344e+01 -1.616554379463195801e+00 3.431770801544189453e+00 1.682974243164062500e+01 6.078454017639160156e+00 3.644005775451660156e+00
1.550000000000000000e+03 1.205073451995849609e+01 -2.524839341640472412e-01 1.032124900817871094e+01 9.913785934448242188e+00 6.070510387420654297e+00 1.098000168800354004e+00
1.551000000000000000e+03 1.509853172302246094e+01 4.868300437927246094e+00 -1.311183452606201172e+00 3.493005037307739258e+00 6.545464396476745605e-01 8.603990077972412109e-01
1.552000000000000000e+03 1.169025230407714844e+01 -9.023416042327880859e-01 9.157317161560058594e+00 1.199504184722900391e+01 6.345707416534423828e+00 -5.497384667396545410e-01
1.553000000000000000e+03 1.033850479125976562e+01 1.697588562965393066e+00 4.253032803535461426e-01 1.529558467864990234e+01 4.716266155242919922e+00 -1.508517861366271973e+00
1.554000000000000000e+03 1.622514367103576660e+00 2.016194820404052734e+00 -6.109106168150901794e-02 -1.957438290119171143e-01 -7.705046981573104858e-02 3.543211817741394043e-01
1.555000000000000000e+03 1.072507262229919434e+00 2.150075674057006836e+00 -2.903896756470203400e-02 -3.131510019302368164e-01 -1.026569902896881104e-01 2.833877503871917725e-01
1.556000000000000000e+03 1.606166005134582520e+00 -2.639848232269287109e+00 7.467787712812423706e-02 2.934492751955986023e-02 3.120684064924716949e-02 -1.461379230022430420e-01
1.557000000000000000e+03 1.219703292846679688e+01 1.631397056579589844e+01 3.047405481338500977e-01 5.135362148284912109e+00 1.632030844688415527e+00 4.986669495701789856e-02
1.558000000000000000e+03 4.024111175537109375e+01 -1.590566635131835938e+01 -2.619416475296020508e+00 1.932461261749267578e-01 -7.278511524200439453e-01 -5.233644247055053711e-01
1.559000000000000000e+03 4.151710128784179688e+01 -1.696246910095214844e+01 -2.640055179595947266e+00 8.735949546098709106e-02 -7.658087015151977539e-01 -5.582769513130187988e-01
1.560000000000000000e+03 3.019999694824218750e+01 -1.561516857147216797e+01 -3.250547647476196289e+00 2.839972972869873047e-01 -8.899651169776916504e-01 2.617670595645904541e-01
1.561000000000000000e+03 3.146099090576171875e+01 -1.583535480499267578e+01 -3.154715061187744141e+00 2.984255254268646240e-01 -8.568868637084960938e-01 1.305481046438217163e-01
1.562000000000000000e+03 2.988433074951171875e+01 5.597131252288818359e+00 2.622490406036376953e+00 1.740658998489379883e+00 1.308944821357727051e+00 1.078942656517028809e+00
1.563000000000000000e+03 2.680017852783203125e+01 5.930352210998535156e+00 3.542516946792602539e+00 3.109756708145141602e+00 1.995682120323181152e+00 1.767940878868103027e+00
1.564000000000000000e+03 1.291721630096435547e+01 -2.159350395202636719e+01 4.601527154445648193e-01 4.065436840057373047e+00 1.357676863670349121e+00 -1.746421337127685547e+00
1.565000000000000000e+03 5.053394317626953125e+01 4.745311737060546875e+00 1.011372685432434082e+00 1.695042848587036133e-01 3.542630970478057861e-01 -2.211495488882064819e-01
1.566000000000000000e+03 5.226241302490234375e+01 4.039862155914306641e+00 7.740293145179748535e-01 1.623706519603729248e-01 2.809199690818786621e-01 -1.962934881448745728e-01
1.567000000000000000e+03 2.863973045349121094e+01 1.244547939300537109e+01 9.059168398380279541e-02 2.574613332748413086e+00 7.995615005493164062e-01 1.405025601387023926e+00
1.568000000000000000e+03 2.839812278747558594e+01 1.120723438262939453e+01 6.378465890884399414e-01 2.841398715972900391e+00 1.043773651123046875e+00 1.926010131835937500e+00
1.569000000000000000e+03 4.696060180664062500e+01 -1.384834384918212891e+01 -2.459865093231201172e+00 -1.095071732997894287e-01 -7.708116769790649414e-01 -9.561641812324523926e-01
1.570000000000000000e+03 4.925692367553710938e+01 -1.278213214874267578e+01 -2.482450008392333984e+00 -1.922121196985244751e-01 -8.023986816406250000e-01 -1.038569331169128418e+00
1.571000000000000000e+03 3.539953613281250000e+01 -1.490600013732910156e+01 -2.720477581024169922e+00 3.552904129028320312e-01 -7.095561027526855469e-01 -2.471760064363479614e-01
1.572000000000000000e+03 1.422839260101318359e+01 7.060568809509277344e+00 -2.448722600936889648e+00 6.115525245666503906e+00 1.100040674209594727e+00 1.500684618949890137e+00
1.573000000000000000e+03 5.147149658203125000e+01 -3.389377212524414062e+01 -1.472932696342468262e-01 -3.057940304279327393e-01 -1.359261870384216309e-01 -3.873370289802551270e-01
1.574000000000000000e+03 5.086346435546875000e+01 -1.056797695159912109e+01 -2.406270265579223633e+00 -1.793163567781448364e-01 -7.756759524345397949e-01 -1.006888508796691895e+00
1.575000000000000000e+03 4.634258270263671875e+01 -1.271959018707275391e+01 -2.340841054916381836e+00 6.313065532594919205e-03 -7.003583908081054688e-01 -8.596889972686767578e-01
1.576000000000000000e+03 2.462763023376464844e+01 -1.545481586456298828e+01 -4.058362960815429688e+00 -4.947711154818534851e-02 -1.232352018356323242e+00 1.092554450035095215e+00
1.577000000000000000e+03 2.396137619018554688e+01 -1.401307868957519531e+01 -4.121931552886962891e+00 1.869315654039382935e-01 -1.180500030517578125e+00 8.801125288009643555e-01
1.578000000000000000e+03 2.848740196228027344e+01 -1.649998664855957031e+01 -3.555203914642333984e+00 1.182582452893257141e-01 -1.031083703041076660e+00 5.606592297554016113e-01
1.579000000000000000e+03 6.462083435058593750e+01 -2.357334136962890625e+01 -6.452996134757995605e-01 4.292702198028564453e+00 1.094220757484436035e+00 9.654426574707031250e-01
1.580000000000000000e+03 6.547649383544921875e+01 -2.233064842224121094e+01 -5.639545917510986328e-01 5.369930744171142578e+00 1.441792964935302734e+00 1.130853891372680664e+00
1.581000000000000000e+03 3.783626174926757812e+01 -1.485566520690917969e+01 -2.600138187408447266e+00 3.102514147758483887e-01 -6.869660019874572754e-01 -4.103923738002777100e-01
1.582000000000000000e+03 2.335370063781738281e+01 -3.224241256713867188e+01 -3.053829073905944824e-01 1.299079656600952148e-01 -5.264248326420783997e-02 1.067446395754814148e-01
1.583000000000000000e+03 2.455907249450683594e+01 -3.292970657348632812e+01 -2.465886175632476807e-01 1.744003593921661377e-02 -6.874457746744155884e-02 2.126923054456710815e-01
1.584000000000000000e+03 3.813037395477294922e+00 -2.960051727294921875e+01 -2.714547812938690186e-01 5.752663612365722656e+00 1.644362688064575195e+00 5.195052623748779297e-01
1.585000000000000000e+03 4.185524463653564453e+00 -3.715743637084960938e+01 -9.833601117134094238e-02 5.979149341583251953e+00 1.764243960380554199e+00 1.005931496620178223e-01
1.586000000000000000e+03 2.806589126586914062e+00 -3.685570144653320312e+01 -7.302762567996978760e-02 6.266333580017089844e+00 1.857991814613342285e+00 -3.530413657426834106e-02
1.587000000000000000e+03 1.581187725067138672e+00 -1.045946502685546875e+01 -6.564296036958694458e-02 1.057029739022254944e-01 1.201800443232059479e-02 -5.803387761116027832e-01
1.588000000000000000e+03 1.814631938934326172e+00 -1.706530761718750000e+01 1.755428016185760498e-01 1.133195042610168457e+00 3.926213681697845459e-01 1.154659032821655273e+00
1.589000000000000000e+03 3.577458620071411133e+00 -2.536205863952636719e+01 -4.016182422637939453e-01 5.467577457427978516e+00 1.519787788391113281e+00 1.072871565818786621e+00
1.590000000000000000e+03 3.791878223419189453e+00 -2.819222640991210938e+01 -3.101752400398254395e-01 5.704568386077880859e+00 1.618317961692810059e+00 6.339703202247619629e-01
1.591000000000000000e+03 3.327279090881347656e+00 -2.112790679931640625e+01 -3.521143198013305664e-01 4.838582992553710938e+00 1.345940589904785156e+00 1.935935258865356445e+00
1.592000000000000000e+03 4.009677886962890625e+00 -1.304457187652587891e+01 1.475185632705688477e+00 4.479513645172119141e+00 1.786409735679626465e+00 -3.975931107997894287e-01
1.593000000000000000e+03 1.524005889892578125e+00 -7.902937412261962891e+00 -2.228905409574508667e-01 3.532711267471313477e-01 3.911417722702026367e-02 -2.448992282152175903e-01
1.594000000000000000e+03 2.543478012084960938e+00 -9.255497932434082031e+00 -3.591217696666717529e-01 1.950725555419921875e+00 4.774811267852783203e-01 -5.391606688499450684e-01
1.595000000000000000e+03 2.906927824020385742e+00 -1.563630294799804688e+01 8.511921167373657227e-01 2.623490333557128906e+00 1.042404770851135254e+00 1.026308298110961914e+00
1.596000000000000000e+03 2.082425117492675781e+00 -2.402095603942871094e+01 -1.445138752460479736e-01 4.733063220977783203e+00 1.376564741134643555e+00 1.013103008270263672e+00
1.597000000000000000e+03 2.289471864700317383e+00 -3.095043754577636719e+01 -9.328610450029373169e-02 6.093848228454589844e+00 1.800168633460998535e+00 2.833467125892639160e-01
1.598000000000000000e+03 3.808944940567016602e+00 -3.239852523803710938e+01 -1.680873334407806396e-01 5.825618267059326172e+00 1.697259187698364258e+00 2.439340502023696899e-01
1.599000000000000000e+03 3.711677551269531250e+00 -2.677714920043945312e+01 -4.228767454624176025e-01 5.618940353393554688e+00 1.558819055557250977e+00 9.103893041610717773e-01
1.600000000000000000e+03 4.362380027770996094e+00 -1.799183845520019531e+01 5.316531658172607422e-01 5.397138595581054688e+00 1.778637528419494629e+00 2.301770925521850586e+00
1.601000000000000000e+03 3.289770841598510742e+00 -1.964706039428710938e+01 -1.437192596495151520e-02 4.326685905456542969e+00 1.293694257736206055e+00 2.064112424850463867e+00
1.602000000000000000e+03 8.766506195068359375e+00 -1.123473644256591797e+01 -3.242936849594116211e+00 1.763076019287109375e+01 4.316347122192382812e+00 1.254236459732055664e+00
1.603000000000000000e+03 3.976022720336914062e+00 -3.385363006591796875e+01 -1.473926305770874023e-01 5.779438018798828125e+00 1.689613580703735352e+00 1.692517399787902832e-01
1.604000000000000000e+03 4.258616924285888672e+00 -3.542086410522460938e+01 -1.560844033956527710e-01 5.776329517364501953e+00 1.686073541641235352e+00 1.379829198122024536e-01
1.605000000000000000e+03 5.526171875000000000e+01 -3.075278091430664062e+01 -6.136606335639953613e-01 -7.449768483638763428e-02 -2.064474970102310181e-01 -3.293191790580749512e-01
1.606000000000000000e+03 4.399022674560546875e+01 6.132553577423095703e+00 1.052399754524230957e+00 4.124881327152252197e-01 4.394663870334625244e-01 -2.340152561664581299e-01
1.607000000000000000e+03 9.122448921203613281e+00 -1.033093070983886719e+01 -4.636064052581787109e+00 1.323008537292480469e+01 2.578206300735473633e+00 4.294970035552978516e+00
1.608000000000000000e+03 8.475245475769042969e+00 -1.380203628540039062e+01 5.778746604919433594e+00 2.217694473266601562e+01 8.386707305908203125e+00 8.499010801315307617e-01
1.609000000000000000e+03 7.900433540344238281e+00 -1.564895725250244141e+01 3.509907245635986328e+00 1.350161647796630859e+01 5.103457450866699219e+00 1.598541140556335449e+00
1.610000000000000000e+03 2.765088272094726562e+01 -1.500547981262207031e+01 -3.525051593780517578e+00 2.741674184799194336e-01 -9.752652645111083984e-01 4.796744287014007568e-01
1.611000000000000000e+03 7.565353393554687500e+01 -1.047360229492187500e+01 1.173231840133666992e+00 8.186888694763183594e+00 2.808036088943481445e+00 1.744268536567687988e-01
1.612000000000000000e+03 7.152762603759765625e+01 -1.048940944671630859e+01 3.454643011093139648e+00 1.303706550598144531e+01 4.947512626647949219e+00 -5.270608067512512207e-01
1.613000000000000000e+03 1.148589420318603516e+01 -8.699438095092773438e+00 -3.112088680267333984e+00 5.240152359008789062e+00 6.384190320968627930e-01 5.106406211853027344e+00
1.614000000000000000e+03 1.331010627746582031e+01 1.248885822296142578e+01 1.746657729148864746e+00 7.679226398468017578e+00 2.827765226364135742e+00 1.418507933616638184e+00
1.615000000000000000e+03 1.223693847656250000e+01 1.126781177520751953e+01 1.128191232681274414e+00 6.525549888610839844e+00 2.296122312545776367e+00 1.204032301902770996e+00
1.616000000000000000e+03 5.879134368896484375e+01 1.308000946044921875e+01 6.910079717636108398e-01 3.208574056625366211e+00 1.169874548912048340e+00 -1.044885516166687012e+00
1.617000000000000000e+03 5.346967315673828125e+01 -1.195558452606201172e+01 -2.755035400390625000e+00 -6.443678736686706543e-01 -1.019820928573608398e+00 -1.450613498687744141e+00
1.618000000000000000e+03 7.468560028076171875e+01 -3.429399490356445312e+01 -1.058610454201698303e-01 9.227149009704589844e+00 2.736386299133300781e+00 -5.756824836134910583e-02
1.619000000000000000e+03 7.771875000000000000e+01 -3.587791824340820312e+01 -8.556652814149856567e-02 1.070924949645996094e+01 3.187104940414428711e+00 9.883220493793487549e-02
1.620000000000000000e+03 7.539123535156250000e+01 -2.193728065490722656e+01 -4.355264306068420410e-01 9.495156288146972656e+00 2.717889070510864258e+00 -1.230018377304077148e+00
1.621000000000000000e+03 7.787289428710937500e+01 -2.914028549194335938e+01 -5.363051965832710266e-02 1.054122543334960938e+01 3.146278381347656250e+00 -2.128427028656005859e-01
1.622000000000000000e+03 7.375361633300781250e+01 -3.841970062255859375e+01 -2.717977017164230347e-02 8.625113487243652344e+00 2.579380035400390625e+00 -1.026232466101646423e-01
1.623000000000000000e+03 7.503255462646484375e+01 1.987806320190429688e+01 7.499358057975769043e-02 6.043195724487304688e+00 1.835456848144531250e+00 -5.127078294754028320e-01
1.624000000000000000e+03 7.799852752685546875e+01 1.551689529418945312e+01 2.129840664565563202e-02 7.011994361877441406e+00 2.109987974166870117e+00 -2.906459867954254150e-01
1.625000000000000000e+03 7.761088562011718750e+01 3.511717224121093750e+01 5.862714722752571106e-03 5.465388774871826172e+00 1.641375541687011719e+00 -6.379370391368865967e-02
1.626000000000000000e+03 7.417121887207031250e+01 3.385241317749023438e+01 7.053980976343154907e-02 5.198713779449462891e+00 1.580776095390319824e+00 -1.733714491128921509e-01
1.627000000000000000e+03 7.797498321533203125e+01 -2.217046546936035156e+01 -1.440921872854232788e-01 9.392230033874511719e+00 2.774441242218017578e+00 -8.016690611839294434e-01
1.628000000000000000e+03 7.655939483642578125e+01 -2.349656677246093750e+01 -3.151873946189880371e-01 9.591876983642578125e+00 2.783006906509399414e+00 -9.212146401405334473e-01
1.629000000000000000e+03 7.644252014160156250e+01 -3.043690109252929688e+01 -1.105023398995399475e-01 9.973359107971191406e+00 2.958857059478759766e+00 -2.022597938776016235e-01
1.630000000000000000e+03 7.774436187744140625e+01 -3.455562973022460938e+01 -6.439948827028274536e-02 1.071895217895507812e+01 3.196365833282470703e+00 -2.834415249526500702e-02
1.631000000000000000e+03 7.454821777343750000e+01 -3.556657028198242188e+01 -1.819283068180084229e-01 9.008689880371093750e+00 2.648028373718261719e+00 -1.405214518308639526e-02
1.632000000000000000e+03 7.786684417724609375e+01 -2.775721359252929688e+01 -1.067098602652549744e-01 1.042588710784912109e+01 3.095753192901611328e+00 -3.099166750907897949e-01
1.633000000000000000e+03 7.645391845703125000e+01 -2.909135627746582031e+01 -1.683473885059356689e-01 9.966011047363281250e+00 2.939299106597900391e+00 -2.904222011566162109e-01
1.634000000000000000e+03 7.642673492431640625e+01 -2.771772575378417969e+01 -2.040076702833175659e-01 9.909247398376464844e+00 2.911571741104125977e+00 -3.999692797660827637e-01
1.635000000000000000e+03 7.643864440917968750e+01 -2.491599082946777344e+01 -2.605854868888854980e-01 9.705537796020507812e+00 2.833485603332519531e+00 -7.350785136222839355e-01
1.636000000000000000e+03 7.639558410644531250e+01 -2.631973838806152344e+01 -2.800851464271545410e-01 9.824823379516601562e+00 2.863421440124511719e+00 -5.846406817436218262e-01
1.637000000000000000e+03 7.620106506347656250e+01 -3.440258789062500000e+01 -1.525725722312927246e-01 9.877391815185546875e+00 2.917445659637451172e+00 -2.017004415392875671e-02
1.638000000000000000e+03 7.359906768798828125e+01 -2.926907920837402344e+01 -4.143743216991424561e-01 8.905863761901855469e+00 2.547446966171264648e+00 -3.231898844242095947e-01
1.639000000000000000e+03 7.634079742431640625e+01 -3.175370597839355469e+01 -1.349236369132995605e-01 9.978814125061035156e+00 2.953166961669921875e+00 -1.368887573480606079e-01
1.640000000000000000e+03 7.499691009521484375e+01 -4.041967010498046875e+01 9.483082592487335205e-02 9.492851257324218750e+00 2.876304626464843750e+00 -1.205370277166366577e-01
1.641000000000000000e+03 7.791916656494140625e+01 2.253063964843750000e+01 8.649527095258235931e-03 6.203980445861816406e+00 1.863788962364196777e+00 -2.023495435714721680e-01
1.642000000000000000e+03 7.652221679687500000e+01 1.983361053466796875e+01 4.917529970407485962e-02 6.279280185699462891e+00 1.898536682128906250e+00 -3.828037083148956299e-01
1.643000000000000000e+03 7.502393341064453125e+01 2.276017570495605469e+01 7.029811292886734009e-02 5.832785129547119141e+00 1.770924925804138184e+00 -4.355266988277435303e-01
1.644000000000000000e+03 7.650145721435546875e+01 2.124939918518066406e+01 3.578916192054748535e-02 6.148339271545410156e+00 1.855238556861877441e+00 -3.556839227676391602e-01
1.645000000000000000e+03 7.674617767333984375e+01 1.280835151672363281e+01 2.812304534018039703e-03 7.108535766601562500e+00 2.133404254913330078e+00 -4.848722815513610840e-01
1.646000000000000000e+03 7.555445861816406250e+01 8.732995033264160156e+00 -9.538259357213973999e-02 7.340395927429199219e+00 2.173503875732421875e+00 -6.128991842269897461e-01
1.647000000000000000e+03 7.670144653320312500e+01 1.418982982635498047e+01 3.230146318674087524e-02 6.925718784332275391e+00 2.087406158447265625e+00 -4.724662303924560547e-01
1.648000000000000000e+03 7.648059844970703125e+01 2.405982780456542969e+01 3.391636162996292114e-02 5.910686492919921875e+00 1.783380866050720215e+00 -2.950716912746429443e-01
1.649000000000000000e+03 7.787871551513671875e+01 2.668709945678710938e+01 1.968004740774631500e-02 5.863477230072021484e+00 1.764947056770324707e+00 -1.528157591819763184e-01
1.650000000000000000e+03 7.666631317138671875e+01 -2.206597518920898438e+01 -2.468525022268295288e-01 9.371147155761718750e+00 2.737288475036621094e+00 -1.113109111785888672e+00
1.651000000000000000e+03 7.361438751220703125e+01 -1.772054672241210938e+01 -1.663437038660049438e-01 1.011694622039794922e+01 2.985180616378784180e+00 -1.671007394790649414e+00
1.652000000000000000e+03 7.676657867431640625e+01 -2.064285659790039062e+01 -2.172084152698516846e-01 9.140937805175781250e+00 2.677118778228759766e+00 -1.247952938079833984e+00
1.653000000000000000e+03 7.554685211181640625e+01 -8.352681159973144531e+00 8.411213159561157227e-01 8.441940307617187500e+00 2.784918308258056641e+00 1.063981652259826660e+00
1.654000000000000000e+03 7.797228240966796875e+01 -1.508915615081787109e+01 1.679865866899490356e-01 6.875159263610839844e+00 2.112943887710571289e+00 -1.004810452461242676e+00
1.655000000000000000e+03 7.556268310546875000e+01 -2.107410430908203125e+00 -5.376853346824645996e-01 8.675492286682128906e+00 2.441342115402221680e+00 8.415764570236206055e-01
1.656000000000000000e+03 7.661537170410156250e+01 -8.059014320373535156e+00 4.251842498779296875e-01 7.648527145385742188e+00 2.422113418579101562e+00 8.940193653106689453e-01
1.657000000000000000e+03 7.806775665283203125e+01 5.793687343597412109e+00 -6.211712583899497986e-02 8.334432601928710938e+00 2.481694459915161133e+00 -1.775419265031814575e-01
1.658000000000000000e+03 7.558880615234375000e+01 4.617056369781494141e+00 -3.037962317466735840e-01 7.874250411987304688e+00 2.271136283874511719e+00 -3.290187120437622070e-01
1.659000000000000000e+03 7.772830963134765625e+01 3.643595886230468750e+01 2.108476124703884125e-03 5.444342136383056641e+00 1.633935213088989258e+00 -6.697492301464080811e-02
1.660000000000000000e+03 7.806655883789062500e+01 7.175868034362792969e+00 -3.484493121504783630e-02 8.185888290405273438e+00 2.445312976837158203e+00 -2.286529242992401123e-01
1.661000000000000000e+03 7.679878997802734375e+01 5.910496234893798828e+00 -1.328407526016235352e-01 7.988628387451171875e+00 2.356736183166503906e+00 -3.006217181682586670e-01
1.662000000000000000e+03 7.680837249755859375e+01 -2.223620176315307617e+00 -3.363700211048126221e-01 8.258178710937500000e+00 2.376542568206787109e+00 9.050236344337463379e-01
1.663000000000000000e+03 7.684639739990234375e+01 -9.450132369995117188e+00 6.046251654624938965e-01 7.243977069854736328e+00 2.354580640792846680e+00 5.483404397964477539e-01
1.664000000000000000e+03 7.671453857421875000e+01 -1.643106460571289062e+01 7.310692965984344482e-02 8.220374107360839844e+00 2.488044261932373047e+00 -1.484265685081481934e+00
1.665000000000000000e+03 7.451086425781250000e+01 3.230288696289062500e+01 7.793930172920227051e-02 5.271650314331054688e+00 1.604876995086669922e+00 -2.056560367345809937e-01
1.666000000000000000e+03 7.402888488769531250e+01 3.569184875488281250e+01 6.954323500394821167e-02 5.160288333892822266e+00 1.568949460983276367e+00 -1.400552839040756226e-01
1.667000000000000000e+03 7.614958953857421875e+01 3.089647865295410156e+01 3.968853503465652466e-02 5.489438533782958984e+00 1.658738136291503906e+00 -1.819654256105422974e-01
1.668000000000000000e+03 7.655825042724609375e+01 1.841270637512207031e+01 3.400254249572753906e-02 6.419020175933837891e+00 1.935906767845153809e+00 -4.122840464115142822e-01
1.669000000000000000e+03 7.660653686523437500e+01 1.698818206787109375e+01 4.245658591389656067e-02 6.582166194915771484e+00 1.987386822700500488e+00 -4.383488297462463379e-01
1.670000000000000000e+03 7.680532073974609375e+01 1.003516292572021484e+01 -3.586060926318168640e-02 7.482750415802001953e+00 2.234066963195800781e+00 -4.743758440017700195e-01
1.671000000000000000e+03 7.795399475097656250e+01 -1.367974472045898438e+01 2.946323752403259277e-01 6.446466922760009766e+00 2.022329807281494141e+00 -6.717406511306762695e-01
1.672000000000000000e+03 7.661998748779296875e+01 -1.498919105529785156e+01 4.182322621345520020e-01 8.034176826477050781e+00 2.535722732543945312e+00 -1.304668664932250977e+00
1.673000000000000000e+03 7.789260864257812500e+01 -6.677990913391113281e+00 8.936624974012374878e-03 6.791051864624023438e+00 2.039996623992919922e+00 8.765090107917785645e-01
1.674000000000000000e+03 7.807586669921875000e+01 1.647354960441589355e+00 -1.428713649511337280e-01 8.471184730529785156e+00 2.498493909835815430e+00 2.076924741268157959e-01
1.675000000000000000e+03 7.678510284423828125e+01 -8.949022889137268066e-01 -3.241648077964782715e-01 8.370560646057128906e+00 2.413918733596801758e+00 6.106484532356262207e-01
1.676000000000000000e+03 7.680886077880859375e+01 4.533135414123535156e+00 -1.903649270534515381e-01 8.145022392272949219e+00 2.386397361755371094e+00 -2.060223370790481567e-01
1.677000000000000000e+03 7.681410980224609375e+01 3.155043125152587891e+00 -2.463485449552536011e-01 8.248548507690429688e+00 2.400659799575805664e+00 -1.690057292580604553e-02
1.678000000000000000e+03 7.655268096923828125e+01 -4.976363182067871094e+00 -8.830753713846206665e-02 8.163288116455078125e+00 2.422494173049926758e+00 1.302651405334472656e+00
1.679000000000000000e+03 7.678849792480468750e+01 -3.572531223297119141e+00 -2.320006787776947021e-01 8.168261528015136719e+00 2.380878210067749023e+00 1.015203118324279785e+00
1.680000000000000000e+03 7.654138183593750000e+01 -1.352866935729980469e+01 6.737296581268310547e-01 7.795022010803222656e+00 2.540625572204589844e+00 -1.010373592376708984e+00
1.681000000000000000e+03 7.679993438720703125e+01 -1.076283931732177734e+01 7.388496994972229004e-01 7.314946174621582031e+00 2.416138648986816406e+00 9.386479854583740234e-03
1.682000000000000000e+03 7.473612213134765625e+01 -7.718091011047363281e+00 8.672394752502441406e-01 8.988708496093750000e+00 2.956784248352050781e+00 1.147201538085937500e+00
1.683000000000000000e+03 7.685132598876953125e+01 -1.923293495178222656e+01 -1.418002992868423462e-01 8.789019584655761719e+00 2.594165802001953125e+00 -1.402523279190063477e+00
1.684000000000000000e+03 3.901788330078125000e+01 -1.601333808898925781e+01 -2.675424575805664062e+00 2.177402526140213013e-01 -7.373053431510925293e-01 -4.496562480926513672e-01
1.685000000000000000e+03 6.088325500488281250e+01 -5.063932418823242188e+00 -2.061686754226684570e+00 -5.682910084724426270e-01 -7.889932990074157715e-01 -1.372693181037902832e+00
1.686000000000000000e+03 5.556176757812500000e+01 8.543993949890136719e+00 1.442639529705047607e-01 1.539906978607177734e+00 5.052512884140014648e-01 4.811965301632881165e-02
1.687000000000000000e+03 1.708166694641113281e+01 3.685427188873291016e+00 1.540482878684997559e+00 -1.296306371688842773e+00 7.325296103954315186e-02 1.678914666175842285e+00
1.688000000000000000e+03 1.647448348999023438e+01 4.545241832733154297e+00 -6.296536922454833984e-01 -1.441812068223953247e-01 -2.321504652500152588e-01 1.227099180221557617e+00
1.689000000000000000e+03 5.693245315551757812e+01 -9.830679893493652344e+00 -3.266295433044433594e+00 -8.606562018394470215e-01 -1.238085508346557617e+00 -1.676602005958557129e+00
1.690000000000000000e+03 5.384866333007812500e+01 -1.030632209777832031e+01 -2.728744029998779297e+00 -4.538488686084747314e-01 -9.547778964042663574e-01 -1.280038475990295410e+00
1.691000000000000000e+03 8.353352546691894531e+00 -1.699242973327636719e+01 1.167523503303527832e+00 1.434212017059326172e+01 4.652893066406250000e+00 3.852229714393615723e-01
1.692000000000000000e+03 1.503707981109619141e+01 -2.545750617980957031e+01 -2.827228903770446777e-01 2.496098995208740234e+00 6.640128493309020996e-01 -7.263638377189636230e-01
1.693000000000000000e+03 5.976963043212890625e+01 -2.772270393371582031e+01 -7.155580520629882812e-01 9.868770241737365723e-01 8.139568567276000977e-02 9.644450247287750244e-02
1.694000000000000000e+03 6.024891281127929688e+01 -7.548811435699462891e+00 -3.924745321273803711e+00 -8.825736641883850098e-01 -1.442195773124694824e+00 -1.791852355003356934e+00
1.695000000000000000e+03 5.572120285034179688e+01 -2.887529563903808594e+01 -1.105086803436279297e+00 -2.802405357360839844e-01 -4.155982136726379395e-01 -5.365516543388366699e-01
1.696000000000000000e+03 5.875901031494140625e+01 -2.836110877990722656e+01 -7.532804012298583984e-01 5.586080551147460938e-01 -5.840170010924339294e-02 -7.427924871444702148e-02
1.697000000000000000e+03 1.785634422302246094e+01 -3.115551376342773438e+01 -2.524974942207336426e-01 1.430630564689636230e+00 3.534399271011352539e-01 -3.247496485710144043e-01
1.698000000000000000e+03 2.188084602355957031e+01 -3.178435897827148438e+01 -2.751397490501403809e-01 3.321230411529541016e-01 1.709498651325702667e-02 9.173273108899593353e-03
1.699000000000000000e+03 1.210782527923583984e+01 -2.266170692443847656e+01 -2.879285216331481934e-01 4.777132034301757812e+00 1.346760988235473633e+00 -1.466796755790710449e+00
1.700000000000000000e+03 2.571013069152832031e+01 1.661012458801269531e+01 -8.031472563743591309e-01 1.219589114189147949e+00 1.249325424432754517e-01 2.223028093576431274e-01
1.701000000000000000e+03 3.754002571105957031e+00 3.527687835693359375e+01 -1.641415618360042572e-02 2.014237165451049805e+00 5.993468761444091797e-01 -1.987712457776069641e-02
1.702000000000000000e+03 2.053197145462036133e+00 2.767302894592285156e+01 -3.291565552353858948e-02 1.809069871902465820e+00 5.328462719917297363e-01 -1.282903552055358887e-01
1.703000000000000000e+03 3.470966339111328125e+00 3.048666381835937500e+01 -4.471744224429130554e-02 1.981035709381103516e+00 5.808954834938049316e-01 -9.145457297563552856e-02
1.704000000000000000e+03 2.053771257400512695e+00 2.626106071472167969e+01 -3.459485992789268494e-02 1.730690836906433105e+00 5.088287591934204102e-01 -1.676313877105712891e-01
1.705000000000000000e+03 3.424788713455200195e+00 2.771355247497558594e+01 -7.060828804969787598e-02 1.929410696029663086e+00 5.576407313346862793e-01 -1.810055077075958252e-01
1.706000000000000000e+03 5.930944919586181641e+00 2.957413482666015625e+01 -1.306220740079879761e-01 2.147616147994995117e+00 6.050982475280761719e-01 -1.110189929604530334e-01
1.707000000000000000e+03 3.481195211410522461e+00 3.182595062255859375e+01 -3.884791210293769836e-02 1.990106463432312012e+00 5.853775739669799805e-01 -7.081274688243865967e-02
1.708000000000000000e+03 3.416256904602050781e+00 2.911418914794921875e+01 -6.363119930028915405e-02 1.964286208152770996e+00 5.701965093612670898e-01 -1.318968385457992554e-01
1.709000000000000000e+03 6.002834796905517578e+00 3.797009658813476562e+01 -1.327457930892705917e-02 2.047982454299926758e+00 6.104123592376708984e-01 3.006696468219161034e-03
1.710000000000000000e+03 2.458909273147583008e+00 3.696334838867187500e+01 -3.774202195927500725e-03 1.994848847389221191e+00 5.973224043846130371e-01 -1.092256419360637665e-02
1.711000000000000000e+03 3.394470214843750000e+00 3.413071823120117188e+01 -2.200675196945667267e-02 2.007538795471191406e+00 5.956596732139587402e-01 -2.889528311789035797e-02
1.712000000000000000e+03 3.318686485290527344e+00 3.305398178100585938e+01 -2.952800318598747253e-02 2.002484321594238281e+00 5.918869376182556152e-01 -4.799554124474525452e-02
1.713000000000000000e+03 2.026790857315063477e+00 2.201039314270019531e+01 -3.736517205834388733e-02 1.355276823043823242e+00 3.953734934329986572e-01 -2.950705885887145996e-01
1.714000000000000000e+03 3.402374505996704102e+00 2.345727157592773438e+01 -9.517306089401245117e-02 1.776063442230224609e+00 5.042670965194702148e-01 -3.555998504161834717e-01
1.715000000000000000e+03 2.001520633697509766e+00 2.059666824340820312e+01 -2.513114176690578461e-02 1.182215571403503418e+00 3.471253216266632080e-01 -3.342460095882415771e-01
1.716000000000000000e+03 3.395612001419067383e+00 2.202894783020019531e+01 -7.927677035331726074e-02 1.679657220840454102e+00 4.801141321659088135e-01 -4.216379821300506592e-01
1.717000000000000000e+03 2.919673204421997070e+00 1.231356430053710938e+01 6.619182229042053223e-02 6.668104529380798340e-01 2.199006974697113037e-01 -2.970798909664154053e-01
1.718000000000000000e+03 3.205820798873901367e+00 1.776148033142089844e+01 -1.786126813385635614e-04 1.282938003540039062e+00 3.848278224468231201e-01 -5.008984804153442383e-01
1.719000000000000000e+03 1.070895910263061523e+00 4.863317966461181641e+00 5.101827159523963928e-02 -6.570423841476440430e-01 -1.818072348833084106e-01 1.483040899038314819e-01
1.720000000000000000e+03 2.326076507568359375e+00 7.632104873657226562e+00 7.190629094839096069e-02 1.059661153703927994e-02 2.475087158381938934e-02 -5.652910843491554260e-02
1.721000000000000000e+03 1.800688028335571289e+00 1.497582244873046875e+01 2.964374236762523651e-02 3.296732306480407715e-01 1.077950969338417053e-01 -2.986962795257568359e-01
1.722000000000000000e+03 3.111087083816528320e+00 1.636955261230468750e+01 3.975083678960800171e-02 1.108908534049987793e+00 3.445978164672851562e-01 -4.806427359580993652e-01
1.723000000000000000e+03 3.428894758224487305e+00 9.903277397155761719e+00 8.155513554811477661e-02 8.745111823081970215e-01 2.868198752403259277e-01 -2.229985743761062622e-01
1.724000000000000000e+03 3.007604122161865234e+00 1.097190189361572266e+01 7.164511084556579590e-02 6.639273166656494141e-01 2.206717282533645630e-01 -2.482326626777648926e-01
1.725000000000000000e+03 2.936174392700195312e+00 1.364735889434814453e+01 7.025439292192459106e-02 7.953454852104187012e-01 2.596799731254577637e-01 -3.661467432975769043e-01
1.726000000000000000e+03 4.391896247863769531e+00 1.633543205261230469e+01 7.259819656610488892e-02 1.704167962074279785e+00 5.330298542976379395e-01 -5.592983365058898926e-01
1.727000000000000000e+03 6.628730773925781250e+01 -2.114573860168457031e+01 -4.764673411846160889e-01 6.358283042907714844e+00 1.764544725418090820e+00 1.365407347679138184e+00
1.728000000000000000e+03 5.717704010009765625e+01 -8.193191528320312500e+00 -3.077073335647583008e+00 -5.768553018569946289e-01 -1.096178650856018066e+00 -1.312297821044921875e+00
1.729000000000000000e+03 5.609052658081054688e+01 -8.922012329101562500e+00 -2.969161987304687500e+00 -5.347625613212585449e-01 -1.051177382469177246e+00 -1.312982082366943359e+00
1.730000000000000000e+03 1.599314880371093750e+01 -2.646061515808105469e+01 -3.845594227313995361e-01 1.901142358779907227e+00 4.549748599529266357e-01 -6.129416227340698242e-01
1.731000000000000000e+03 3.127642059326171875e+01 -3.425788497924804688e+01 -3.344061076641082764e-01 -1.944209188222885132e-01 -1.586481034755706787e-01 2.396111041307449341e-01
1.732000000000000000e+03 2.593265914916992188e+01 -3.414496231079101562e+01 -1.522897332906723022e-01 -1.289693564176559448e-01 -8.437772840261459351e-02 1.790180951356887817e-01
1.733000000000000000e+03 3.321263504028320312e+01 -3.728218078613281250e+01 -9.291118383407592773e-02 -2.321184873580932617e-01 -9.750889986753463745e-02 1.415347009897232056e-01
1.734000000000000000e+03 1.210081958770751953e+01 1.235578250885009766e+01 1.295875668525695801e+00 6.196019172668457031e+00 2.247568368911743164e+00 7.013959884643554688e-01
1.735000000000000000e+03 4.355061721801757812e+01 -3.653267669677734375e+01 -1.640741676092147827e-01 -2.943418920040130615e-01 -1.375248134136199951e-01 -2.304530292749404907e-01
1.736000000000000000e+03 4.509457397460937500e+01 -3.358466339111328125e+01 -4.422565102577209473e-01 -2.444279044866561890e-01 -2.060053199529647827e-01 -3.506395816802978516e-01
1.737000000000000000e+03 5.337923812866210938e+01 -3.288815307617187500e+01 -2.457381188869476318e-01 -1.314301341772079468e-01 -1.131504774093627930e-01 -3.634406626224517822e-01
1.738000000000000000e+03 4.659792709350585938e+01 -3.606317520141601562e+01 -6.261159479618072510e-02 -3.654260337352752686e-01 -1.284112930297851562e-01 -3.408378660678863525e-01
1.739000000000000000e+03 5.651935195922851562e+01 -3.012053489685058594e+01 -6.400935649871826172e-01 9.655203670263290405e-02 -1.630624681711196899e-01 -2.467416077852249146e-01
1.740000000000000000e+03 6.158913803100585938e+01 -2.486524009704589844e+01 -6.803235411643981934e-01 1.553503155708312988e+00 2.619538605213165283e-01 3.140866458415985107e-01
1.741000000000000000e+03 3.498788070678710938e+01 -3.564847946166992188e+01 -2.513267695903778076e-01 -1.392898857593536377e-01 -1.171849966049194336e-01 1.193105429410934448e-01
1.742000000000000000e+03 5.429712677001953125e+01 -3.156519317626953125e+01 -4.931095540523529053e-01 -9.581401199102401733e-02 -1.766770631074905396e-01 -3.683080077171325684e-01
1.743000000000000000e+03 5.271416091918945312e+01 -1.096136760711669922e+01 -2.629978179931640625e+00 -3.962893486022949219e-01 -9.078802466392517090e-01 -1.211796164512634277e+00
1.744000000000000000e+03 4.485601425170898438e+01 -3.509564590454101562e+01 -2.450277507305145264e-01 -2.953145802021026611e-01 -1.621026992797851562e-01 -3.248647153377532959e-01
1.745000000000000000e+03 2.268928146362304688e+01 3.769421339035034180e+00 4.248171806335449219e+00 2.811911344528198242e+00 2.118025064468383789e+00 2.813395500183105469e+00
1.746000000000000000e+03 6.956534576416015625e+01 -1.691988563537597656e+01 8.318937383592128754e-03 1.170532989501953125e+01 3.514094591140747070e+00 -8.721011690795421600e-03
1.747000000000000000e+03 7.049449920654296875e+01 -1.608739280700683594e+01 6.018024682998657227e-01 1.232729721069335938e+01 3.878730058670043945e+00 -2.003834694623947144e-01
1.748000000000000000e+03 2.327577400207519531e+01 -3.374750137329101562e+01 -1.167025789618492126e-01 2.616899907588958740e-01 4.349622130393981934e-02 6.913318485021591187e-02
1.749000000000000000e+03 2.974141120910644531e+01 -3.301783752441406250e+01 -4.656030237674713135e-01 -1.835228204727172852e-01 -1.947377473115921021e-01 3.265056014060974121e-01
1.750000000000000000e+03 4.924085235595703125e+01 -3.368771743774414062e+01 -2.914788126945495605e-01 -3.800598084926605225e-01 -2.014615833759307861e-01 -4.807582497596740723e-01
1.751000000000000000e+03 2.143017196655273438e+01 1.651111006736755371e+00 3.096963882446289062e+00 1.358541607856750488e+00 1.336651682853698730e+00 2.831432819366455078e+00
1.752000000000000000e+03 1.017155838012695312e+01 -2.090991020202636719e+01 -6.824210286140441895e-01 7.746833324432373047e+00 2.119323730468750000e+00 -1.194095969200134277e+00
1.753000000000000000e+03 1.859531974792480469e+01 -1.259429264068603516e+01 -6.179083824157714844e+00 -4.184041917324066162e-01 -1.979246377944946289e+00 1.853098034858703613e+00
1.754000000000000000e+03 9.185007095336914062e+00 -2.025103759765625000e+01 -7.322177290916442871e-01 8.936182975769042969e+00 2.461189508438110352e+00 -5.209814906120300293e-01
1.755000000000000000e+03 6.708756256103515625e+01 -1.999903106689453125e+01 -4.059008657932281494e-01 7.964600563049316406e+00 2.267609834671020508e+00 1.389657735824584961e+00
1.756000000000000000e+03 1.411495399475097656e+01 -1.070967006683349609e+01 -6.984381198883056641e+00 -1.002025365829467773e+00 -2.395921945571899414e+00 1.895244240760803223e+00
1.757000000000000000e+03 4.669154357910156250e+01 5.298666000366210938e+00 1.149574398994445801e+00 3.982028067111968994e-01 4.643331468105316162e-01 -1.758295297622680664e-01
1.758000000000000000e+03 4.141937255859375000e+01 -1.577821350097656250e+01 -2.615878582000732422e+00 1.471919268369674683e-01 -7.406060099601745605e-01 -5.828568339347839355e-01
1.759000000000000000e+03 2.122125434875488281e+01 1.941465759277343750e+01 1.556361913681030273e-01 4.145088791847229004e-01 1.710435152053833008e-01 9.823492765426635742e-01
1.760000000000000000e+03 2.806359672546386719e+01 6.360794067382812500e+00 3.136416673660278320e+00 2.693985462188720703e+00 1.749120712280273438e+00 1.537881731986999512e+00
1.761000000000000000e+03 2.892866516113281250e+01 7.926426410675048828e+00 2.333272695541381836e+00 2.373072624206542969e+00 1.411903619766235352e+00 1.857339859008789062e+00
1.762000000000000000e+03 4.800602340698242188e+01 -3.483708572387695312e+01 -1.672745794057846069e-01 -3.783607780933380127e-01 -1.636905968189239502e-01 -4.130718708038330078e-01
1.763000000000000000e+03 2.281134986877441406e+01 -1.351401805877685547e+01 -4.413329124450683594e+00 1.383143067359924316e-01 -1.282504439353942871e+00 9.476664066314697266e-01
1.764000000000000000e+03 2.345824813842773438e+01 1.788990211486816406e+01 -4.033683836460113525e-01 2.649660706520080566e-01 -4.152069240808486938e-02 1.661373376846313477e-01
1.765000000000000000e+03 2.413742828369140625e+01 3.120518922805786133e+00 3.203954696655273438e+00 2.995465040206909180e+00 1.859825849533081055e+00 2.032239198684692383e+00
1.766000000000000000e+03 4.181319808959960938e+01 1.812991142272949219e+01 8.435142636299133301e-01 2.001550674438476562e+00 8.535194993019104004e-01 7.106317281723022461e-01
1.767000000000000000e+03 5.601354217529296875e+01 4.182247638702392578e+00 5.014707446098327637e-01 7.280507683753967285e-01 3.688564300537109375e-01 -3.881193399429321289e-01
1.768000000000000000e+03 5.308124160766601562e+01 5.669927120208740234e+00 8.818783760070800781e-01 2.034159451723098755e-01 3.255883157253265381e-01 4.679116886109113693e-03
1.769000000000000000e+03 2.460412216186523438e+01 1.726542472839355469e+01 -7.034381628036499023e-01 7.196473479270935059e-01 4.862745292484760284e-03 9.652227163314819336e-02
1.770000000000000000e+03 3.818399810791015625e+01 1.505942916870117188e+01 7.803353071212768555e-01 1.824372649192810059e+00 7.814124226570129395e-01 9.240073561668395996e-01
1.771000000000000000e+03 4.171810913085937500e+01 1.036005592346191406e+01 4.661806821823120117e-01 1.544622659683227539e+00 6.032410264015197754e-01 2.187483608722686768e-01
1.772000000000000000e+03 1.594345378875732422e+01 -2.844442367553710938e+01 -4.386448264122009277e-01 2.123992919921875000e+00 5.056043863296508789e-01 -5.386929512023925781e-01
1.773000000000000000e+03 5.568656158447265625e+01 1.803161239624023438e+01 8.074715137481689453e-01 3.054151296615600586e+00 1.158486843109130859e+00 -8.934267163276672363e-01
1.774000000000000000e+03 5.916815185546875000e+01 1.769213485717773438e+01 8.749562501907348633e-01 3.296080827713012695e+00 1.251311063766479492e+00 -8.084604740142822266e-01
1.775000000000000000e+03 5.165759277343750000e+01 2.197354888916015625e+01 1.132835507392883301e+00 1.506026744842529297e+00 7.916586399078369141e-01 -6.094070672988891602e-01
1.776000000000000000e+03 5.010344314575195312e+01 1.362194776535034180e+00 3.049243092536926270e-01 1.522933542728424072e-01 1.371653079986572266e-01 -2.772828340530395508e-01
1.777000000000000000e+03 1.114225006103515625e+01 -2.175037574768066406e+01 -4.093145132064819336e-01 6.429327487945556641e+00 1.806003928184509277e+00 -1.583379983901977539e+00
1.778000000000000000e+03 1.542240619659423828e+01 1.823170471191406250e+01 -1.783776134252548218e-01 4.194977283477783203e+00 1.204979896545410156e+00 1.530071735382080078e+00
1.779000000000000000e+03 5.223930358886718750e+01 2.411442184448242188e+01 1.030315995216369629e+00 1.978469014167785645e+00 9.026355147361755371e-01 -5.228173732757568359e-01
1.780000000000000000e+03 4.957469558715820312e+01 2.176603889465332031e+01 1.230049848556518555e+00 1.043213367462158203e+00 6.819789409637451172e-01 -1.216013655066490173e-01
1.781000000000000000e+03 3.984989166259765625e+01 1.420733547210693359e+01 8.015982508659362793e-01 1.905772328376770020e+00 8.122112154960632324e-01 8.699544668197631836e-01
1.782000000000000000e+03 1.975782394409179688e+01 -1.327331352233886719e+01 -5.475350856781005859e+00 -5.020457506179809570e-01 -1.793218970298767090e+00 1.693091034889221191e+00
1.783000000000000000e+03 5.248017120361328125e+01 2.103450012207031250e+01 1.124194145202636719e+00 1.527825474739074707e+00 7.956058382987976074e-01 -8.515934944152832031e-01
1.784000000000000000e+03 5.700053787231445312e+01 1.706420898437500000e+01 1.042178988456726074e+00 3.172988176345825195e+00 1.264550089836120605e+00 -8.313071131706237793e-01
1.785000000000000000e+03 1.950820922851562500e+01 -1.162648868560791016e+01 -4.961110591888427734e+00 5.430970340967178345e-02 -1.472040176391601562e+00 7.653214335441589355e-01
1.786000000000000000e+03 1.999405288696289062e+01 2.024212646484375000e+01 2.330962419509887695e-01 9.576277136802673340e-01 3.572171926498413086e-01 1.290186405181884766e+00
1.787000000000000000e+03 1.927712631225585938e+01 1.890008544921875000e+01 5.628426373004913330e-02 9.633259177207946777e-01 3.058830499649047852e-01 1.600241422653198242e+00
1.788000000000000000e+03 5.613052368164062500e+01 9.916520118713378906e+00 1.562044024467468262e-01 2.215169906616210938e+00 7.114123106002807617e-01 -2.714966833591461182e-01
1.789000000000000000e+03 5.775614547729492188e+01 1.069064521789550781e+01 3.156255781650543213e-01 2.817159891128540039e+00 9.398356080055236816e-01 -8.599833250045776367e-01
1.790000000000000000e+03 1.885456657409667969e+01 4.130586147308349609e+00 5.407753586769104004e-01 -8.740312457084655762e-01 -9.997676312923431396e-02 2.156558752059936523e+00
1.791000000000000000e+03 4.177031707763671875e+01 9.053677558898925781e+00 5.507591962814331055e-01 1.253950834274291992e+00 5.414130091667175293e-01 1.233517657965421677e-02
1.792000000000000000e+03 4.311305999755859375e+01 1.865141487121582031e+01 7.114665508270263672e-01 1.999999284744262695e+00 8.134397268295288086e-01 7.343777418136596680e-01
1.793000000000000000e+03 4.031634902954101562e+01 1.768025207519531250e+01 8.343334197998046875e-01 2.043519735336303711e+00 8.633559942245483398e-01 7.247793078422546387e-01
1.794000000000000000e+03 4.252232742309570312e+01 2.040937995910644531e+01 7.345465421676635742e-01 1.899282932281494141e+00 7.901488542556762695e-01 7.310860753059387207e-01
1.795000000000000000e+03 4.123139190673828125e+01 1.980214118957519531e+01 6.425597667694091797e-01 2.014101266860961914e+00 7.969983220100402832e-01 6.662489771842956543e-01
1.796000000000000000e+03 1.846374130249023438e+01 3.293850421905517578e+00 3.509533882141113281e+00 -1.125225186347961426e+00 7.152926325798034668e-01 2.698927879333496094e+00
1.797000000000000000e+03 2.051715278625488281e+01 1.308932542800903320e+00 3.634283542633056641e+00 6.647948622703552246e-01 1.289723515510559082e+00 2.774699687957763672e+00
1.798000000000000000e+03 7.158476257324218750e+01 -1.333545494079589844e+01 2.389367580413818359e+00 1.346209526062011719e+01 4.755438804626464844e+00 -9.688211679458618164e-01
1.799000000000000000e+03 7.075516510009765625e+01 -1.211900901794433594e+01 2.682547092437744141e+00 1.490679454803466797e+01 5.276802539825439453e+00 -6.576321721076965332e-01
1.800000000000000000e+03 4.011290359497070312e+01 1.286311912536621094e+01 7.437722086906433105e-01 1.797263622283935547e+00 7.623107433319091797e-01 8.335372209548950195e-01
1.801000000000000000e+03 4.042480468750000000e+01 1.024360179901123047e+01 6.199668049812316895e-01 1.511011362075805664e+00 6.392934322357177734e-01 4.373059868812561035e-01
1.802000000000000000e+03 5.611017608642578125e+01 5.493996143341064453e+00 4.999665021896362305e-01 1.030166149139404297e+00 4.590397775173187256e-01 -2.990928888320922852e-01
1.803000000000000000e+03 4.874891662597656250e+01 -1.444477272033691406e+01 -2.503624677658081055e+00 -2.818597555160522461e-01 -8.356453776359558105e-01 -1.071460604667663574e+00
1.804000000000000000e+03 6.957402801513671875e+01 -7.156695365905761719e+00 8.198562860488891602e-01 1.555293750762939453e+01 4.911838054656982422e+00 -9.320861846208572388e-02
1.805000000000000000e+03 1.223419570922851562e+01 1.474330425262451172e+01 1.043531894683837891e+00 5.632877349853515625e+00 2.002922773361206055e+00 2.313473820686340332e-01
1.806000000000000000e+03 6.596399688720703125e+01 -5.299692153930664062e+00 -7.005524039268493652e-01 4.142466545104980469e+00 1.032574176788330078e+00 -5.789488792419433594e+00
1.807000000000000000e+03 5.856250762939453125e+01 1.631594276428222656e+01 1.087519288063049316e+00 3.311845064163208008e+00 1.319809317588806152e+00 -9.328120350837707520e-01
1.808000000000000000e+03 7.282649230957031250e+01 -4.011389255523681641e+00 -9.263510107994079590e-01 1.014642238616943359e+01 2.766021490097045898e+00 7.521297931671142578e-01
1.809000000000000000e+03 6.953411865234375000e+01 -4.749223709106445312e+00 -2.231792926788330078e+00 1.167357349395751953e+01 2.832534074783325195e+00 -1.337582826614379883e+00
1.810000000000000000e+03 2.168707656860351562e+01 -1.293542957305908203e+01 -4.608489990234375000e+00 7.018735259771347046e-02 -1.361490845680236816e+00 9.699853658676147461e-01
1.811000000000000000e+03 2.057499122619628906e+01 -1.230547809600830078e+01 -4.878797054290771484e+00 5.368772521615028381e-02 -1.447532892227172852e+00 9.724468588829040527e-01
1.812000000000000000e+03 6.628366088867187500e+01 -4.095152378082275391e+00 -1.737357258796691895e+00 5.692774295806884766e+00 1.186625123023986816e+00 -4.125429153442382812e+00
1.813000000000000000e+03 4.870734691619873047e+00 4.035606002807617188e+01 -4.661193117499351501e-03 2.021856546401977539e+00 6.051586270332336426e-01 2.841664711013436317e-03
1.814000000000000000e+03 4.432731628417968750e+00 2.848908424377441406e+00 3.324950933456420898e-01 2.748218774795532227e-01 1.821950972080230713e-01 1.682440936565399170e-01
1.815000000000000000e+03 7.068990707397460938e+00 1.968848109245300293e+00 1.042630791664123535e+00 9.072970151901245117e-01 5.849783420562744141e-01 -9.246612191200256348e-01
1.816000000000000000e+03 7.048860073089599609e+00 -1.940783858299255371e+00 2.823534727096557617e+00 1.716600894927978516e+00 1.362040758132934570e+00 2.960968494415283203e+00
1.817000000000000000e+03 7.395363807678222656e+00 2.048254251480102539e+00 1.281555056571960449e+00 1.394200325012207031e+00 8.027266263961791992e-01 -1.349654078483581543e+00
1.818000000000000000e+03 7.139291763305664062e+00 -2.294723987579345703e+00 2.740884065628051758e+00 2.421805381774902344e+00 1.548806786537170410e+00 3.552227973937988281e+00
1.819000000000000000e+03 7.759286880493164062e+00 2.178471326828002930e+00 1.515179157257080078e+00 2.124900817871093750e+00 1.092023968696594238e+00 -1.938227772712707520e+00
1.820000000000000000e+03 6.492613315582275391e+00 -1.961017608642578125e+00 2.115263938903808594e+00 1.262758255004882812e+00 1.013406634330749512e+00 2.137256622314453125e+00
1.821000000000000000e+03 8.326936721801757812e+00 2.342026472091674805e+00 1.548741340637207031e+00 3.786851167678833008e+00 1.600677728652954102e+00 -2.853708982467651367e+00
1.822000000000000000e+03 5.943979740142822266e+00 -2.123296976089477539e+00 1.644647598266601562e+00 1.078109145164489746e+00 8.168269991874694824e-01 1.730031371116638184e+00
1.823000000000000000e+03 8.496809005737304688e+00 1.957033872604370117e+00 1.916657924652099609e+00 3.736119985580444336e+00 1.695833325386047363e+00 -3.095412731170654297e+00
1.824000000000000000e+03 5.585255146026611328e+00 -2.109504222869873047e+00 1.379840731620788574e+00 9.245611429214477539e-01 6.913205981254577637e-01 1.409470200538635254e+00
1.825000000000000000e+03 6.020452022552490234e+00 -2.355307579040527344e+00 1.667200565338134766e+00 1.485244870185852051e+00 9.457336068153381348e-01 2.055821180343627930e+00
1.826000000000000000e+03 8.927481651306152344e+00 2.198902130126953125e+00 1.461445450782775879e+00 6.102880477905273438e+00 2.269297838211059570e+00 -3.688704490661621094e+00
1.827000000000000000e+03 8.756363868713378906e+00 -2.475875854492187500e+00 2.839234590530395508e+00 7.139448165893554688e+00 2.993604660034179688e+00 6.079087734222412109e+00
1.828000000000000000e+03 8.785639762878417969e+00 -2.011459350585937500e+00 4.082056522369384766e+00 6.915436267852783203e+00 3.299247741699218750e+00 6.488996505737304688e+00
1.829000000000000000e+03 9.140478134155273438e+00 2.163016319274902344e+00 1.295813441276550293e+00 7.259320259094238281e+00 2.566540002822875977e+00 -3.903623104095458984e+00
1.830000000000000000e+03 9.310572624206542969e+00 1.855918884277343750e+00 1.536317229270935059e+00 8.077700614929199219e+00 2.884205341339111328e+00 -4.348988533020019531e+00
1.831000000000000000e+03 4.522641658782958984e+00 -2.151876449584960938e+00 7.152467370033264160e-01 6.275246143341064453e-01 4.028314054012298584e-01 6.276426315307617188e-01
1.832000000000000000e+03 4.224195480346679688e+00 -7.409626483917236328e+00 -8.952569365501403809e-01 4.119771957397460938e+00 9.673545360565185547e-01 5.239236950874328613e-01
1.833000000000000000e+03 4.259386539459228516e+00 -2.123345375061035156e+00 6.021509766578674316e-01 5.686784982681274414e-01 3.512488603591918945e-01 5.338023304939270020e-01
1.834000000000000000e+03 3.328841447830200195e+00 -2.396846055984497070e+00 3.620097041130065918e-01 4.070281088352203369e-01 2.307113409042358398e-01 1.656330078840255737e-01
1.835000000000000000e+03 3.085620641708374023e+00 -2.149038076400756836e+00 2.094875276088714600e-01 3.342877030372619629e-01 1.631325632333755493e-01 6.878023501485586166e-03
1.836000000000000000e+03 4.210266113281250000e+00 1.924462676048278809e+00 -8.202497661113739014e-02 6.730595231056213379e-02 -4.415707197040319443e-03 3.596599102020263672e-01
1.837000000000000000e+03 9.968767166137695312e+00 2.394214630126953125e+00 -2.971848845481872559e-02 1.134101295471191406e+01 3.393388271331787109e+00 -2.732967615127563477e+00
1.838000000000000000e+03 9.339069366455078125e+00 2.080844163894653320e+00 1.234006643295288086e+00 8.311078071594238281e+00 2.863525390625000000e+00 -4.157541275024414062e+00
1.839000000000000000e+03 1.191038417816162109e+01 6.430948376655578613e-01 8.579544067382812500e+00 1.134508514404296875e+01 5.977388858795166016e+00 3.732826232910156250e+00
1.840000000000000000e+03 1.082922458648681641e+01 -1.719245910644531250e+00 3.845779180526733398e+00 1.579437541961669922e+01 5.892046451568603516e+00 1.582904219627380371e+00
1.841000000000000000e+03 1.076426410675048828e+01 -1.967550754547119141e+00 3.020748853683471680e+00 1.481527137756347656e+01 5.350806236267089844e+00 2.206412315368652344e+00
1.842000000000000000e+03 1.105776023864746094e+01 1.953425645828247070e+00 9.523907899856567383e-01 1.428428077697753906e+01 4.571001529693603516e+00 1.185171008110046387e+00
1.843000000000000000e+03 1.163585186004638672e+01 -1.113191008567810059e+00 8.061451911926269531e+00 1.252131366729736328e+01 6.174829483032226562e+00 -7.097312211990356445e-01
1.844000000000000000e+03 1.174040317535400391e+01 1.055373549461364746e+00 6.213587284088134766e+00 1.257339477539062500e+01 5.636094570159912109e+00 3.955702781677246094e+00
1.845000000000000000e+03 1.164181137084960938e+01 1.859241485595703125e+00 2.428083181381225586e+00 1.270193099975585938e+01 4.539004325866699219e+00 2.753362894058227539e+00
1.846000000000000000e+03 1.399458646774291992e+00 -2.147025585174560547e+00 3.363066166639328003e-02 -1.492889970541000366e-01 -3.469749912619590759e-02 -2.498754411935806274e-01
1.847000000000000000e+03 2.818891048431396484e+00 1.979094505310058594e+00 -1.221965551376342773e-01 -6.349992007017135620e-02 -5.570894107222557068e-02 4.373044967651367188e-01
1.848000000000000000e+03 9.100745320320129395e-01 -2.074614524841308594e+00 -7.050426676869392395e-03 -1.806817948818206787e-01 -5.631966888904571533e-02 -1.682876646518707275e-01
1.849000000000000000e+03 1.796187639236450195e+00 1.821469306945800781e+00 -1.060239374637603760e-01 -1.465815901756286621e-01 -7.578165829181671143e-02 3.582887053489685059e-01
1.850000000000000000e+03 2.945376634597778320e+00 2.195864915847778320e+00 -4.070447012782096863e-02 -5.270817130804061890e-02 -2.802379243075847626e-02 4.309946596622467041e-01
1.851000000000000000e+03 1.846799850463867188e+00 2.615614175796508789e+00 2.335170051082968712e-03 -2.157221585512161255e-01 -6.401609629392623901e-02 3.750344216823577881e-01
1.852000000000000000e+03 2.183341741561889648e+00 -4.444204330444335938e+00 1.114890947937965393e-01 6.618221998214721680e-01 2.319933772087097168e-01 1.668125540018081665e-01
1.853000000000000000e+03 1.360052585601806641e+00 2.188110828399658203e+00 -3.812737390398979187e-02 -2.573145925998687744e-01 -8.863259106874465942e-02 3.259193301200866699e-01
1.854000000000000000e+03 2.145663261413574219e+00 2.084579944610595703e+00 -7.195940613746643066e-02 -1.474274545907974243e-01 -6.581605970859527588e-02 3.965495824813842773e-01
1.855000000000000000e+03 1.455244064331054688e+00 -4.809258937835693359e+00 1.424979697912931442e-02 8.313895761966705322e-02 2.921662665903568268e-02 -4.623373970389366150e-02
1.856000000000000000e+03 1.097465133666992188e+01 -1.065189552307128906e+01 -5.733844757080078125e+00 6.857442855834960938e+00 3.370793759822845459e-01 6.968579769134521484e+00
1.857000000000000000e+03 1.387916183471679688e+01 -9.204908370971679688e+00 -3.419431447982788086e+00 5.477811098098754883e-01 -8.614950776100158691e-01 2.443586349487304688e+00
1.858000000000000000e+03 1.179045009613037109e+01 -9.518929481506347656e+00 -4.186568737030029297e+00 4.625302314758300781e+00 1.316200345754623413e-01 5.368545532226562500e+00
1.859000000000000000e+03 3.904938125610351562e+01 -1.478958797454833984e+01 -2.544085264205932617e+00 2.888125777244567871e-01 -6.765817999839782715e-01 -4.815955460071563721e-01
1.860000000000000000e+03 3.694586753845214844e+00 -1.046357631683349609e+01 -2.566068768501281738e-01 4.158865451812744141e+00 1.170677542686462402e+00 -7.428582310676574707e-01
1.861000000000000000e+03 3.941497802734375000e+01 1.563241577148437500e+01 8.335763812065124512e-01 1.911742568016052246e+00 8.235957026481628418e-01 8.962764143943786621e-01
1.862000000000000000e+03 2.826717376708984375e+00 -1.305038833618164062e+01 7.873875498771667480e-01 2.060834884643554688e+00 8.544667363166809082e-01 -4.145171940326690674e-01
1.863000000000000000e+03 3.948953390121459961e+00 -1.174115657806396484e+01 4.635808467864990234e-01 4.385916233062744141e+00 1.454849123954772949e+00 -9.324125647544860840e-01
1.864000000000000000e+03 2.171992301940917969e+00 2.689123630523681641e+00 9.977933019399642944e-03 -1.847570836544036865e-01 -5.243374779820442200e-02 3.931849896907806396e-01
1.865000000000000000e+03 1.124485206604003906e+01 1.125409030914306641e+01 7.661612629890441895e-01 5.886374473571777344e+00 1.995760679244995117e+00 8.052204847335815430e-01
1.866000000000000000e+03 5.726795578002929688e+01 9.417507171630859375e+00 1.857373267412185669e-01 2.357414960861206055e+00 7.629456520080566406e-01 -5.242019891738891602e-01
1.867000000000000000e+03 1.441222190856933594e+01 5.651150226593017578e+00 -2.424083948135375977e+00 5.260851383209228516e+00 8.510302901268005371e-01 1.210623621940612793e+00
1.868000000000000000e+03 1.297757911682128906e+01 6.887942790985107422e+00 -2.268958330154418945e+00 7.480935096740722656e+00 1.563593029975891113e+00 1.426283359527587891e+00
1.869000000000000000e+03 1.198641109466552734e+01 9.365945816040039062e+00 -1.753828376531600952e-01 6.950519084930419922e+00 2.032540798187255859e+00 1.224312305450439453e+00
1.870000000000000000e+03 4.473368453979492188e+01 -1.484540748596191406e+01 -2.504834413528442383e+00 -5.300477147102355957e-02 -7.673517465591430664e-01 -7.973685860633850098e-01
1.871000000000000000e+03 4.024565887451171875e+01 -1.469151115417480469e+01 -2.530051946640014648e+00 2.578613758087158203e-01 -6.816571950912475586e-01 -5.466602444648742676e-01
1.872000000000000000e+03 3.524772262573242188e+01 -1.611999320983886719e+01 -2.879023551940917969e+00 2.735463082790374756e-01 -7.816432118415832520e-01 -1.525520980358123779e-01
1.873000000000000000e+03 3.057952499389648438e+01 -1.449733924865722656e+01 -3.073935985565185547e+00 4.159184396266937256e-01 -7.974052429199218750e-01 8.754563331604003906e-02
1.874000000000000000e+03 6.010618209838867188e+01 -5.888745784759521484e+00 -2.510166406631469727e+00 -6.045261025428771973e-01 -9.344077706336975098e-01 -1.087369322776794434e+00
1.875000000000000000e+03 5.869573974609375000e+01 -3.412840843200683594e+00 -1.126400947570800781e+00 -1.634379327297210693e-01 -3.869516551494598389e-01 -9.222888946533203125e-01
1.876000000000000000e+03 5.156641769409179688e+01 -1.159430885314941406e+01 -2.574310302734375000e+00 -3.295072019100189209e-01 -8.711452484130859375e-01 -1.161552667617797852e+00
1.877000000000000000e+03 4.860211944580078125e+01 -1.169769477844238281e+01 -2.357278347015380859e+00 -6.852463632822036743e-02 -7.277408838272094727e-01 -9.475494623184204102e-01
1.878000000000000000e+03 3.418291091918945312e+01 -1.488232707977294922e+01 -2.812716484069824219e+00 3.852640986442565918e-01 -7.282356619834899902e-01 -1.579259783029556274e-01
1.879000000000000000e+03 3.650859451293945312e+01 -1.612377357482910156e+01 -2.785148382186889648e+00 2.398009002208709717e-01 -7.636042237281799316e-01 -2.499041557312011719e-01
1.880000000000000000e+03 2.248796653747558594e+01 -1.196698093414306641e+01 -3.986575126647949219e+00 3.522362112998962402e-01 -1.090301752090454102e+00 5.187865495681762695e-01
1.881000000000000000e+03 1.300031661987304688e+01 1.710183334350585938e+01 7.496753334999084473e-02 5.088980674743652344e+00 1.549184441566467285e+00 3.886502981185913086e-01
1.882000000000000000e+03 1.138506698608398438e+01 1.558616256713867188e+01 6.239500641822814941e-01 4.887489318847656250e+00 1.653431892395019531e+00 -1.051240488886833191e-01
1.883000000000000000e+03 4.747327041625976562e+01 -1.221890163421630859e+01 -2.342944622039794922e+00 -3.197452798485755920e-02 -7.124757170677185059e-01 -9.095224738121032715e-01
1.884000000000000000e+03 4.810722351074218750e+01 -1.332863616943359375e+01 -2.478654146194458008e+00 -1.259551942348480225e-01 -7.813827991485595703e-01 -1.001487374305725098e+00
1.885000000000000000e+03 4.583242034912109375e+01 -1.435484313964843750e+01 -2.454980134963989258e+00 -8.751573413610458374e-02 -7.627487778663635254e-01 -8.642146587371826172e-01
1.886000000000000000e+03 4.138927078247070312e+01 -1.459731292724609375e+01 -2.485356569290161133e+00 1.874593645334243774e-01 -6.893692016601562500e-01 -5.895779132843017578e-01
1.887000000000000000e+03 5.018252182006835938e+01 -9.540241241455078125e+00 -2.217366456985473633e+00 -5.459924414753913879e-02 -6.815896630287170410e-01 -8.628398776054382324e-01
1.888000000000000000e+03 4.148861694335937500e+01 -1.339243698120117188e+01 -2.351633071899414062e+00 2.418629527091979980e-01 -6.329310536384582520e-01 -6.158353090286254883e-01
1.889000000000000000e+03 3.661989974975585938e+01 -1.489322757720947266e+01 -2.653042316436767578e+00 3.360981345176696777e-01 -6.950832605361938477e-01 -3.353669345378875732e-01
1.890000000000000000e+03 3.776760101318359375e+01 -1.608833503723144531e+01 -2.709934949874877930e+00 2.263174802064895630e-01 -7.450852394104003906e-01 -3.605946004390716553e-01
1.891000000000000000e+03 5.417559814453125000e+01 -8.679154396057128906e+00 -2.564816236495971680e+00 -3.023466467857360840e-01 -8.601488471031188965e-01 -1.054707288742065430e+00
1.892000000000000000e+03 3.177540969848632812e+01 -1.470413970947265625e+01 -2.980485200881958008e+00 4.095245897769927979e-01 -7.712881565093994141e-01 1.291713118553161621e-02
1.893000000000000000e+03 2.109680938720703125e+01 2.626183271408081055e+00 3.466684341430664062e+00 1.473641872406005859e+00 1.482097864151000977e+00 2.781000614166259766e+00
1.894000000000000000e+03 1.550993061065673828e+01 -1.009247589111328125e+01 -4.787739276885986328e+00 -2.605579793453216553e-01 -1.514489173889160156e+00 7.968845963478088379e-01
1.895000000000000000e+03 7.351298332214355469e+00 -1.450650405883789062e+01 4.882598876953125000e+00 1.221680927276611328e+01 5.129822731018066406e+00 1.981064677238464355e-01
1.896000000000000000e+03 2.748789787292480469e+01 -1.219475269317626953e+01 -2.999528646469116211e+00 5.630111694335937500e-01 -7.309552431106567383e-01 8.197534829378128052e-02
1.897000000000000000e+03 4.037836074829101562e+00 -1.552063941955566406e+01 1.345362663269042969e+00 4.607550621032714844e+00 1.785874009132385254e+00 1.451817750930786133e+00
1.898000000000000000e+03 3.129199028015136719e+00 -1.824527549743652344e+01 2.057914435863494873e-01 3.827385187149047852e+00 1.209952950477600098e+00 1.901471495628356934e+00
1.899000000000000000e+03 7.012516498565673828e+00 -2.101600646972656250e+01 -9.599606394767761230e-01 7.844793796539306641e+00 2.065449953079223633e+00 1.172055840492248535e+00
1.900000000000000000e+03 6.181435108184814453e+00 -2.100856208801269531e+01 -9.356049299240112305e-01 7.457669734954833984e+00 1.956619501113891602e+00 1.535226941108703613e+00
1.901000000000000000e+03 4.580312728881835938e+00 -1.930132102966308594e+01 -9.557309746742248535e-02 6.151246070861816406e+00 1.816701889038085938e+00 2.259480953216552734e+00
1.902000000000000000e+03 7.095140457153320312e+00 -1.860545730590820312e+01 5.838193465024232864e-03 1.021449756622314453e+01 3.066100597381591797e+00 1.824473857879638672e+00
1.903000000000000000e+03 3.425181865692138672e+00 -2.396805191040039062e+01 -4.989323914051055908e-01 5.295744419097900391e+00 1.439043641090393066e+00 1.399029612541198730e+00
1.904000000000000000e+03 4.490851879119873047e+00 -2.252303123474121094e+01 -6.930208802223205566e-01 5.855916500091552734e+00 1.548868656158447266e+00 1.777260661125183105e+00
1.905000000000000000e+03 5.407903194427490234e+00 -2.822794151306152344e+01 -5.617032647132873535e-01 5.653479099273681641e+00 1.527532696723937988e+00 6.987980604171752930e-01
1.906000000000000000e+03 5.010949134826660156e+00 -2.523843383789062500e+01 -7.423811554908752441e-01 5.854107379913330078e+00 1.533517837524414062e+00 1.166735887527465820e+00
1.907000000000000000e+03 4.730668544769287109e+00 -2.383566474914550781e+01 -7.048127055168151855e-01 5.846743106842041016e+00 1.542579174041748047e+00 1.386783361434936523e+00
1.908000000000000000e+03 5.262139320373535156e+00 -2.672471237182617188e+01 -6.161506175994873047e-01 5.734696865081787109e+00 1.535563826560974121e+00 8.300044536590576172e-01
1.909000000000000000e+03 7.909313201904296875e+00 -2.371571159362792969e+01 -1.075336337089538574e+00 6.688352584838867188e+00 1.683904886245727539e+00 5.693684816360473633e-01
1.910000000000000000e+03 3.797453403472900391e+00 -3.099790954589843750e+01 -1.983269602060317993e-01 5.825165271759033203e+00 1.688051462173461914e+00 3.420968353748321533e-01
1.911000000000000000e+03 5.313930034637451172e+00 -3.115114593505859375e+01 -3.287418782711029053e-01 5.530456542968750000e+00 1.560514330863952637e+00 3.476031720638275146e-01
1.912000000000000000e+03 2.512034416198730469e+00 -8.097369194030761719e+00 -3.537514805793762207e-01 1.732291221618652344e+00 4.135619103908538818e-01 -2.255443036556243896e-01
1.913000000000000000e+03 2.767420053482055664e+00 -1.176543712615966797e+01 3.227947950363159180e-01 2.189455986022949219e+00 7.536752223968505859e-01 -6.687293052673339844e-01
1.914000000000000000e+03 5.166853904724121094e+00 -3.243629837036132812e+01 -2.342672049999237061e-01 5.560223579406738281e+00 1.597786903381347656e+00 2.426669001579284668e-01
1.915000000000000000e+03 6.118364334106445312e+00 -3.524735260009765625e+01 -1.616961807012557983e-01 5.194830894470214844e+00 1.509940505027770996e+00 1.089180260896682739e-01
1.916000000000000000e+03 4.962994098663330078e+00 -1.429000663757324219e+01 2.191045999526977539e+00 6.265949726104736328e+00 2.537098646163940430e+00 7.496538758277893066e-01
1.917000000000000000e+03 6.646840095520019531e+00 -1.348758506774902344e+01 4.450512409210205078e+00 1.127408409118652344e+01 4.717379093170166016e+00 -3.558106720447540283e-01
1.918000000000000000e+03 5.060005664825439453e+00 -1.149547863006591797e+01 2.811172008514404297e-01 7.104964256286621094e+00 2.215824365615844727e+00 -8.590455055236816406e-01
1.919000000000000000e+03 2.612471103668212891e+00 -7.051528453826904297e+00 -3.586378991603851318e-01 1.769596576690673828e+00 4.232876002788543701e-01 1.753056049346923828e-02
1.920000000000000000e+03 6.651063537597656250e+01 -2.319235801696777344e+01 -8.820261359214782715e-01 6.215787887573242188e+00 1.600128531455993652e+00 8.844678997993469238e-01
1.921000000000000000e+03 1.574490451812744141e+01 4.063869953155517578e+00 3.339591324329376221e-01 1.471300601959228516e+00 5.415779352188110352e-01 1.220918655395507812e+00
1.922000000000000000e+03 6.040876007080078125e+01 -2.578593444824218750e+01 -8.317204713821411133e-01 9.058587551116943359e-01 2.224149741232395172e-02 7.727828621864318848e-02
1.923000000000000000e+03 3.297185134887695312e+01 -1.482104778289794922e+01 -2.884686231613159180e+00 3.913047015666961670e-01 -7.480145096778869629e-01 -8.511063456535339355e-02
1.924000000000000000e+03 5.126539230346679688e+01 3.561404705047607422e+00 7.782186865806579590e-01 1.460490077733993530e-01 2.772803008556365967e-01 -2.340550124645233154e-01
1.925000000000000000e+03 2.417264366149902344e+01 -3.560457229614257812e+01 3.060870058834552765e-02 1.433134377002716064e-01 5.217664316296577454e-02 9.354262053966522217e-02
1.926000000000000000e+03 7.544835662841796875e+01 1.281161117553710938e+01 3.153422474861145020e-02 6.809160709381103516e+00 2.052208423614501953e+00 -6.326743364334106445e-01
1.927000000000000000e+03 7.545242309570312500e+01 -7.610379457473754883e-01 -6.417744159698486328e-01 8.608605384826660156e+00 2.390049219131469727e+00 6.285032629966735840e-01
1.928000000000000000e+03 7.402791595458984375e+01 -1.110013484954833984e+01 1.898222804069519043e+00 9.822759628295898438e+00 3.516294956207275391e+00 -9.490618482232093811e-03
1.929000000000000000e+03 7.492926025390625000e+01 -1.577345275878906250e+01 4.090423583984375000e-01 9.198864936828613281e+00 2.882372379302978516e+00 -1.656912207603454590e+00
1.930000000000000000e+03 7.639196014404296875e+01 -6.516730785369873047e+00 2.941236793994903564e-01 7.944121360778808594e+00 2.471473455429077148e+00 1.210538864135742188e+00
1.931000000000000000e+03 7.484393310546875000e+01 -6.462556362152099609e+00 3.128467500209808350e-01 9.250695228576660156e+00 2.869062662124633789e+00 1.392702102661132812e+00
1.932000000000000000e+03 7.571871185302734375e+01 -3.346465826034545898e+00 -4.145689010620117188e-01 8.610630989074707031e+00 2.458818674087524414e+00 1.190350770950317383e+00
1.933000000000000000e+03 7.520923614501953125e+01 -1.160513877868652344e+01 1.384419441223144531e+00 8.886816978454589844e+00 3.081370830535888672e+00 -4.872877001762390137e-01
1.934000000000000000e+03 7.657806396484375000e+01 -1.209854602813720703e+01 7.918655276298522949e-01 7.524309635162353516e+00 2.494852542877197266e+00 -4.667381346225738525e-01
1.935000000000000000e+03 7.354590606689453125e+01 -1.193015670776367188e+01 2.131899356842041016e+00 1.063369274139404297e+01 3.829677581787109375e+00 -7.765942811965942383e-01
1.936000000000000000e+03 7.526583099365234375e+01 -1.367249202728271484e+01 1.108774065971374512e+00 9.008108139038085938e+00 3.035064697265625000e+00 -1.200221896171569824e+00
1.937000000000000000e+03 7.541723632812500000e+01 -4.402971267700195312e+00 -2.702381908893585205e-01 8.866518974304199219e+00 2.578884124755859375e+00 1.237138032913208008e+00
1.938000000000000000e+03 7.680638885498046875e+01 1.789876699447631836e+00 -3.004948198795318604e-01 8.363466262817382812e+00 2.418891429901123047e+00 1.324492692947387695e-01
1.939000000000000000e+03 7.555443572998046875e+01 1.919277548789978027e+00 -4.952922165393829346e-01 8.236104011535644531e+00 2.322243690490722656e+00 5.051434785127639771e-02
1.940000000000000000e+03 7.555452728271484375e+01 5.990087509155273438e+00 -2.217852175235748291e-01 7.693848133087158203e+00 2.241618871688842773e+00 -4.788151979446411133e-01
1.941000000000000000e+03 7.571659088134765625e+01 -1.912249183654785156e+01 -1.946378350257873535e-01 9.253749847412109375e+00 2.717733621597290039e+00 -1.563323974609375000e+00
1.942000000000000000e+03 7.036522674560546875e+01 3.258288192749023438e+01 1.808897107839584351e-01 4.842346668243408203e+00 1.506970882415771484e+00 -3.211072385311126709e-01
1.943000000000000000e+03 7.594184112548828125e+01 3.384301757812500000e+01 3.785438090562820435e-02 5.361585617065429688e+00 1.619832038879394531e+00 -1.267396211624145508e-01
1.944000000000000000e+03 7.449906158447265625e+01 3.095847320556640625e+01 7.203675806522369385e-02 5.321065425872802734e+00 1.617930650711059570e+00 -2.448828518390655518e-01
1.945000000000000000e+03 7.606906890869140625e+01 3.232698440551757812e+01 3.613546490669250488e-02 5.410012245178222656e+00 1.633844256401062012e+00 -1.517581641674041748e-01
1.946000000000000000e+03 7.439678955078125000e+01 3.350677490234375000e+00 -5.347570776939392090e-01 7.872749805450439453e+00 2.201397657394409180e+00 -3.618673086166381836e-01
1.947000000000000000e+03 7.550368499755859375e+01 5.888665318489074707e-01 -6.026514172554016113e-01 8.470450401306152344e+00 2.360339879989624023e+00 2.281188964843750000e-01
1.948000000000000000e+03 7.558737182617187500e+01 3.258712768554687500e+00 -4.044428467750549316e-01 8.094763755798339844e+00 2.307096242904663086e+00 -2.017307132482528687e-01
1.949000000000000000e+03 7.369691467285156250e+01 -1.885918617248535156e+01 -3.692014515399932861e-01 1.006295680999755859e+01 2.908126592636108398e+00 -1.475013732910156250e+00
1.950000000000000000e+03 7.685157012939453125e+01 -1.784028816223144531e+01 -1.544914953410625458e-02 8.502479553222656250e+00 2.546109199523925781e+00 -1.408699512481689453e+00
1.951000000000000000e+03 7.537259674072265625e+01 -1.481737709045410156e+01 4.799275994300842285e-01 9.027462005615234375e+00 2.852216958999633789e+00 -1.546479105949401855e+00
1.952000000000000000e+03 7.680258178710937500e+01 8.658285140991210938e+00 -4.864386469125747681e-02 7.662771701812744141e+00 2.284238338470458984e+00 -4.330313205718994141e-01
1.953000000000000000e+03 7.553234863281250000e+01 7.368743419647216797e+00 -1.423608064651489258e-01 7.509742259979248047e+00 2.210214376449584961e+00 -5.409966707229614258e-01
1.954000000000000000e+03 7.665486145019531250e+01 1.557513618469238281e+01 2.296398580074310303e-02 6.751623630523681641e+00 2.032376289367675781e+00 -4.571735262870788574e-01
1.955000000000000000e+03 7.530523681640625000e+01 1.556195926666259766e+01 6.183986738324165344e-02 6.487183570861816406e+00 1.964707016944885254e+00 -6.098222732543945312e-01
1.956000000000000000e+03 7.557621765136718750e+01 1.008002471923828125e+01 -3.411704301834106445e-02 7.168362140655517578e+00 2.140273571014404297e+00 -6.205896735191345215e-01
1.957000000000000000e+03 7.430722808837890625e+01 8.809253692626953125e+00 -1.028655469417572021e-01 7.008379459381103516e+00 2.071654081344604492e+00 -7.482376694679260254e-01
1.958000000000000000e+03 7.396726226806640625e+01 1.549352169036865234e+01 8.383154869079589844e-02 6.212958335876464844e+00 1.889036893844604492e+00 -7.375661134719848633e-01
1.959000000000000000e+03 7.536256408691406250e+01 1.417937946319580078e+01 3.544394299387931824e-02 6.651757717132568359e+00 2.006160497665405273e+00 -6.273396611213684082e-01
1.960000000000000000e+03 7.522991943359375000e+01 1.698453330993652344e+01 6.308083236217498779e-02 6.321724891662597656e+00 1.915441632270812988e+00 -5.812400579452514648e-01
1.961000000000000000e+03 7.503276824951171875e+01 -2.911736679077148438e+01 -2.391021847724914551e-01 9.466367721557617188e+00 2.768179655075073242e+00 -2.992690801620483398e-01
1.962000000000000000e+03 7.421849822998046875e+01 -2.199080657958984375e+01 -6.110255122184753418e-01 9.509493827819824219e+00 2.669540643692016602e+00 -1.217211961746215820e+00
1.963000000000000000e+03 7.500180816650390625e+01 2.133783721923828125e+01 8.476007729768753052e-02 5.928828716278076172e+00 1.804076552391052246e+00 -4.722256660461425781e-01
1.964000000000000000e+03 7.492784118652343750e+01 -2.480717468261718750e+01 -5.066025853157043457e-01 9.437388420104980469e+00 2.679235935211181641e+00 -7.993661165237426758e-01
1.965000000000000000e+03 7.484866333007812500e+01 -2.630566787719726562e+01 -4.375193715095520020e-01 9.384272575378417969e+00 2.684026002883911133e+00 -6.123030185699462891e-01
1.966000000000000000e+03 7.525383758544921875e+01 -2.335915946960449219e+01 -4.794312715530395508e-01 9.469675064086914062e+00 2.697073221206665039e+00 -1.025344252586364746e+00
1.967000000000000000e+03 7.264742279052734375e+01 2.671118736267089844e+01 1.284015327692031860e-01 5.304505348205566406e+00 1.629872083663940430e+00 -4.313319325447082520e-01
1.968000000000000000e+03 7.348744201660156250e+01 2.293669128417968750e+01 1.301108300685882568e-01 5.594348430633544922e+00 1.717337727546691895e+00 -5.210578441619873047e-01
1.969000000000000000e+03 7.643680572509765625e+01 2.679438972473144531e+01 3.286813944578170776e-02 5.723089218139648438e+00 1.726787090301513672e+00 -2.437709569931030273e-01
1.970000000000000000e+03 7.497346496582031250e+01 2.690264320373535156e+01 7.627025991678237915e-02 5.555037975311279297e+00 1.689392566680908203e+00 -3.303982913494110107e-01
1.971000000000000000e+03 7.622848510742187500e+01 2.951822471618652344e+01 3.942168876528739929e-02 5.551681041717529297e+00 1.677330732345581055e+00 -1.905038207769393921e-01
1.972000000000000000e+03 7.493614196777343750e+01 2.812087440490722656e+01 6.628084927797317505e-02 5.487243652343750000e+00 1.666057348251342773e+00 -2.872959673404693604e-01
1.973000000000000000e+03 7.481681823730468750e+01 -3.155948638916015625e+01 -1.935551166534423828e-01 9.291766166687011719e+00 2.729463338851928711e+00 -1.154421940445899963e-01
1.974000000000000000e+03 7.614220428466796875e+01 -3.579407501220703125e+01 -1.298118978738784790e-01 9.952339172363281250e+00 2.946758031845092773e+00 -3.395902365446090698e-02
1.975000000000000000e+03 7.623205566406250000e+01 -3.306126022338867188e+01 -6.418378651142120361e-02 9.975024223327636719e+00 2.973252296447753906e+00 -7.768927514553070068e-02
1.976000000000000000e+03 7.508796691894531250e+01 -3.037869262695312500e+01 -2.169890850782394409e-01 9.485032081604003906e+00 2.780413150787353516e+00 -2.205689549446105957e-01
1.977000000000000000e+03 7.452231597900390625e+01 2.952815628051757812e+01 8.091672509908676147e-02 5.389114856719970703e+00 1.641009449958801270e+00 -2.802114486694335938e-01
1.978000000000000000e+03 1.417826461791992188e+01 -2.639608001708984375e+01 -5.076273679733276367e-01 2.969831705093383789e+00 7.386612892150878906e-01 -7.631026506423950195e-01
1.979000000000000000e+03 1.695616722106933594e+01 -2.754155158996582031e+01 -3.924484848976135254e-01 1.591139793395996094e+00 3.596073985099792480e-01 -3.998139500617980957e-01
1.980000000000000000e+03 4.798749446868896484e+00 2.206362533569335938e+01 -1.569725275039672852e-01 2.055112600326538086e+00 5.694419741630554199e-01 -4.678261578083038330e-01
1.981000000000000000e+03 3.353829860687255859e+00 2.060228729248046875e+01 -6.562466174364089966e-02 1.572525262832641602e+00 4.520701766014099121e-01 -4.604233801364898682e-01
1.982000000000000000e+03 4.805881023406982422e+00 2.492815589904785156e+01 -1.575911641120910645e-01 2.057005643844604492e+00 5.698243379592895508e-01 -3.201984167098999023e-01
1.983000000000000000e+03 4.723542213439941406e+00 2.915642929077148438e+01 -1.006738990545272827e-01 2.059283971786499023e+00 5.875830054283142090e-01 -1.463846862316131592e-01
1.984000000000000000e+03 4.537175655364990234e+00 1.774829292297363281e+01 4.842435941100120544e-03 1.801695823669433594e+00 5.419614911079406738e-01 -5.887132883071899414e-01
1.985000000000000000e+03 3.274735450744628906e+00 1.917564582824707031e+01 -2.944255806505680084e-02 1.443815231323242188e+00 4.243117868900299072e-01 -4.970569312572479248e-01
1.986000000000000000e+03 4.569832324981689453e+00 1.915555953979492188e+01 -5.492193996906280518e-02 1.880870461463928223e+00 5.477845668792724609e-01 -5.794442296028137207e-01
1.987000000000000000e+03 6.085452079772949219e+00 2.233611869812011719e+01 -2.107347995042800903e-01 2.331270694732666016e+00 6.361607909202575684e-01 -4.606446027755737305e-01
1.988000000000000000e+03 4.833347797393798828e+00 2.637149810791015625e+01 -1.402381062507629395e-01 2.073596715927124023e+00 5.800076127052307129e-01 -2.519975006580352783e-01
1.989000000000000000e+03 4.750436782836914062e+00 2.351076698303222656e+01 -1.552095860242843628e-01 2.042865991592407227e+00 5.662969350814819336e-01 -3.844383060932159424e-01
1.990000000000000000e+03 3.004821300506591797e+00 1.499779129028320312e+01 7.202299684286117554e-02 9.455082416534423828e-01 3.052593767642974854e-01 -4.195605814456939697e-01
1.991000000000000000e+03 5.156769752502441406e+00 3.198926734924316406e+01 -6.793468445539474487e-02 2.068947792053222656e+00 6.003039479255676270e-01 -6.296203285455703735e-02
1.992000000000000000e+03 5.824596405029296875e+00 3.606883621215820312e+01 -2.587849833071231842e-02 2.059469938278198242e+00 6.100774407386779785e-01 -1.642129500396549702e-03
1.993000000000000000e+03 4.189249992370605469e+00 1.137576580047607422e+01 1.377934813499450684e-01 1.429030537605285645e+00 4.700472056865692139e-01 -2.979653179645538330e-01
1.994000000000000000e+03 4.142645359039306641e+00 1.372841072082519531e+01 1.350064873695373535e-01 1.426450490951538086e+00 4.684370756149291992e-01 -4.338831901550292969e-01
1.995000000000000000e+03 4.548241615295410156e+00 3.344748687744140625e+01 -4.375530406832695007e-02 2.043741703033447266e+00 5.999959111213684082e-01 -4.223414137959480286e-02
1.996000000000000000e+03 4.957335948944091797e+00 3.042353057861328125e+01 -9.044932574033737183e-02 2.077237844467163086e+00 5.960365533828735352e-01 -9.568141400814056396e-02
1.997000000000000000e+03 7.315577507019042969e+00 1.112450027465820312e+01 2.230259180068969727e-01 3.407559156417846680e+00 1.089175462722778320e+00 -1.072926968336105347e-01
1.998000000000000000e+03 1.323555660247802734e+01 -2.549926948547363281e+01 -5.220032930374145508e-01 3.797643661499023438e+00 9.826921224594116211e-01 -7.909652590751647949e-01
1.999000000000000000e+03 2.690657138824462891e+00 8.897401809692382812e+00 9.357394278049468994e-02 3.601393699645996094e-01 1.361140012741088867e-01 -1.590205132961273193e-01
2.000000000000000000e+03 4.364390850067138672e+00 1.047865867614746094e+01 1.079903990030288696e-01 1.526988744735717773e+00 4.904937148094177246e-01 -2.708067893981933594e-01
2.001000000000000000e+03 3.196799516677856445e+00 7.468864440917968750e+00 1.446843296289443970e-01 5.839676856994628906e-01 2.185955941677093506e-01 -1.189234331250190735e-01
2.002000000000000000e+03 6.570527648925781250e+01 -2.449005126953125000e+01 -8.611698746681213379e-01 5.428951740264892578e+00 1.370334625244140625e+00 7.880442738533020020e-01
2.003000000000000000e+03 2.181843519210815430e+00 6.375163555145263672e+00 1.415224820375442505e-01 -1.362443566322326660e-01 1.583440462127327919e-03 3.656079992651939392e-02
2.004000000000000000e+03 1.764466285705566406e+01 2.822497844696044922e+00 3.235752105712890625e+00 -1.093087077140808105e+00 6.427994966506958008e-01 2.454854011535644531e+00
2.005000000000000000e+03 1.815081977844238281e+01 1.907186627388000488e+00 4.208456039428710938e+00 -5.559496879577636719e-01 1.095751881599426270e+00 2.682524681091308594e+00
2.006000000000000000e+03 5.524283218383789062e+01 -7.993291854858398438e+00 -2.614031076431274414e+00 -3.300615847110748291e-01 -8.832277655601501465e-01 -1.032053947448730469e+00
2.007000000000000000e+03 5.822328186035156250e+01 -7.441562652587890625e+00 -3.115448236465454102e+00 -5.819466114044189453e-01 -1.109218478202819824e+00 -1.285420775413513184e+00
2.008000000000000000e+03 5.565370178222656250e+01 -3.199781608581542969e+01 -2.914138138294219971e-01 1.464284807443618774e-01 -4.349559918045997620e-02 -1.644090116024017334e-01
2.009000000000000000e+03 4.327733612060546875e+01 -1.430614185333251953e+01 -2.448382854461669922e+00 9.766046702861785889e-02 -7.052167057991027832e-01 -6.968936920166015625e-01
2.010000000000000000e+03 8.439757347106933594e+00 -1.849572181701660156e+01 -2.395621687173843384e-01 1.139208698272705078e+01 3.345757246017456055e+00 -3.401957750320434570e-01
2.011000000000000000e+03 6.641386508941650391e+00 -1.612654685974121094e+01 2.388026475906372070e+00 1.016066551208496094e+01 3.764607667922973633e+00 1.387849330902099609e+00
2.012000000000000000e+03 5.308493804931640625e+01 -9.332396507263183594e+00 -2.515296697616577148e+00 -2.589064836502075195e-01 -8.322609663009643555e-01 -1.046142816543579102e+00
2.013000000000000000e+03 5.551966094970703125e+01 -3.371358871459960938e+01 6.812333595007658005e-03 3.024812936782836914e-01 9.278809279203414917e-02 -9.843014925718307495e-02
2.014000000000000000e+03 5.341602325439453125e+01 4.341526031494140625e+00 7.509418725967407227e-01 2.649031579494476318e-01 3.047535121440887451e-01 -2.055651396512985229e-01
2.015000000000000000e+03 6.218198013305664062e+01 -3.173472881317138672e+00 -6.444613933563232422e-01 2.585975825786590576e-01 -1.157591417431831360e-01 -1.833208680152893066e+00
2.016000000000000000e+03 4.679595184326171875e+01 3.373083114624023438e+00 7.721964120864868164e-01 3.209789395332336426e-01 3.279526233673095703e-01 -1.455176770687103271e-01
2.017000000000000000e+03 4.769067382812500000e+01 4.358267307281494141e+00 1.019227504730224609e+00 3.639600574970245361e-01 4.149562716484069824e-01 -2.441356480121612549e-01
2.018000000000000000e+03 8.696115493774414062e+00 -2.136121940612792969e+01 -1.069028735160827637e+00 7.913146495819091797e+00 2.053235292434692383e+00 5.728013440966606140e-02
2.019000000000000000e+03 1.105617713928222656e+01 1.214941692352294922e+01 9.817909002304077148e-01 5.445929527282714844e+00 1.928316116333007812e+00 6.548548936843872070e-01
2.020000000000000000e+03 1.189748859405517578e+01 1.337279224395751953e+01 1.327129364013671875e+00 5.833746433258056641e+00 2.148262739181518555e+00 5.435557961463928223e-01
2.021000000000000000e+03 1.868819427490234375e+01 -9.305803298950195312e+00 -2.985354900360107422e+00 2.396769374608993530e-01 -8.237034082412719727e-01 7.599537074565887451e-02
2.022000000000000000e+03 1.854893112182617188e+01 -1.089200401306152344e+01 -4.646878719329833984e+00 4.445096850395202637e-02 -1.380728244781494141e+00 6.406062245368957520e-01
2.023000000000000000e+03 2.039134597778320312e+01 -3.098071670532226562e+01 -2.998740673065185547e-01 5.048674345016479492e-01 6.149800494313240051e-02 -1.125979870557785034e-01
2.024000000000000000e+03 2.123861122131347656e+01 -3.372471237182617188e+01 -9.391120821237564087e-02 6.047136783599853516e-01 1.532407402992248535e-01 -1.038908958435058594e-01
2.025000000000000000e+03 1.796883392333984375e+01 -2.869747924804687500e+01 -3.899766802787780762e-01 1.160440444946289062e+00 2.311391234397888184e-01 -3.367916643619537354e-01
2.026000000000000000e+03 4.231750488281250000e+01 6.399052143096923828e+00 9.219869971275329590e-01 6.109443902969360352e-01 4.598793983459472656e-01 -1.284206062555313110e-01
2.027000000000000000e+03 4.401971054077148438e+01 4.391292095184326172e+00 9.218718409538269043e-01 3.541923463344573975e-01 3.828192651271820068e-01 -1.428882926702499390e-01
2.028000000000000000e+03 5.824463272094726562e+01 1.190229701995849609e+01 5.642745494842529297e-01 2.895845890045166016e+00 1.038036108016967773e+00 -9.806295633316040039e-01
2.029000000000000000e+03 3.206634521484375000e+01 -3.557164001464843750e+01 -2.170016169548034668e-01 -1.865927875041961670e-01 -1.210783198475837708e-01 2.202379107475280762e-01
2.030000000000000000e+03 4.184552001953125000e+01 7.676331520080566406e+00 7.734186649322509766e-01 8.699991106986999512e-01 4.930253326892852783e-01 -8.800797164440155029e-02
2.031000000000000000e+03 6.251314926147460938e+01 -2.625731849670410156e+01 -7.001422047615051270e-01 2.603099107742309570e+00 5.708870887756347656e-01 5.412217974662780762e-01
2.032000000000000000e+03 5.884526443481445312e+01 -3.049555397033691406e+01 -3.740954995155334473e-01 1.042665958404541016e+00 2.005711346864700317e-01 1.590625643730163574e-01
2.033000000000000000e+03 4.544164657592773438e+01 -3.783432006835937500e+01 4.916419461369514465e-02 -3.999278545379638672e-01 -1.052291020750999451e-01 -2.208841592073440552e-01
2.034000000000000000e+03 2.142296981811523438e+01 -1.135690021514892578e+01 -3.988277196884155273e+00 3.070930242538452148e-01 -1.104355216026306152e+00 3.939132094383239746e-01
2.035000000000000000e+03 4.614266586303710938e+01 2.153901100158691406e+01 1.042348980903625488e+00 1.292924284934997559e+00 7.005819678306579590e-01 6.165720224380493164e-01
2.036000000000000000e+03 3.793831253051757812e+01 -3.495579910278320312e+01 -2.857587039470672607e-01 -1.138390228152275085e-01 -1.198793202638626099e-01 -1.063334289938211441e-02
2.037000000000000000e+03 3.827400207519531250e+01 -4.097721862792968750e+01 -2.243929915130138397e-02 -3.166912198066711426e-01 -1.017391532659530640e-01 7.909726351499557495e-03
2.038000000000000000e+03 2.729063606262207031e+01 1.391027641296386719e+01 -6.377228498458862305e-01 2.422276973724365234e+00 5.353662371635437012e-01 8.682713508605957031e-01
2.039000000000000000e+03 5.574377059936523438e+01 -3.604270172119140625e+01 3.365865945816040039e-01 5.901872515678405762e-01 2.780321538448333740e-01 -5.173163115978240967e-02
2.040000000000000000e+03 6.467256927490234375e+01 -4.738191604614257812e+00 -5.598815679550170898e-01 7.677319645881652832e-01 6.235511973500251770e-02 -3.460587739944458008e+00
2.041000000000000000e+03 7.124060058593750000e+01 -9.352461814880371094e+00 3.067323207855224609e+00 1.301740169525146484e+01 4.825417518615722656e+00 6.182373166084289551e-01
2.042000000000000000e+03 7.102412414550781250e+01 -8.173229217529296875e+00 2.031445026397705078e+00 1.386746883392333984e+01 4.769674301147460938e+00 6.005036830902099609e-01
2.043000000000000000e+03 5.205591201782226562e+01 -3.636692810058593750e+01 2.411721944808959961e-01 -1.650623083114624023e-01 2.283296547830104828e-02 -2.462323457002639771e-01
2.044000000000000000e+03 7.263666534423828125e+01 -1.784402275085449219e+01 -2.705833911895751953e-01 1.064516448974609375e+01 3.112374305725097656e+00 -1.374636888504028320e+00
2.045000000000000000e+03 7.155339813232421875e+01 -1.533900737762451172e+01 6.659874916076660156e-01 1.244205570220947266e+01 3.932413101196289062e+00 -1.102956771850585938e+00
2.046000000000000000e+03 6.953883361816406250e+01 -5.899843215942382812e+00 -9.252986907958984375e-01 1.337641906738281250e+01 3.735336065292358398e+00 -1.121308088302612305e+00
2.047000000000000000e+03 6.766424560546875000e+01 -3.279753446578979492e+00 -2.127110958099365234e+00 8.044272422790527344e+00 1.775148391723632812e+00 -3.408378601074218750e+00
2.048000000000000000e+03 6.000485420227050781e+00 -2.353969383239746094e+01 -9.762535691261291504e-01 6.460403919219970703e+00 1.645245194435119629e+00 1.260124206542968750e+00
2.049000000000000000e+03 1.035910797119140625e+01 -2.281647491455078125e+01 -9.504342079162597656e-01 6.377799987792968750e+00 1.628209829330444336e+00 -7.104229331016540527e-01
2.050000000000000000e+03 5.945125579833984375e+01 1.428506755828857422e+01 8.486835956573486328e-01 3.257183313369750977e+00 1.231760025024414062e+00 -1.138558626174926758e+00
2.051000000000000000e+03 6.870501708984375000e+01 -1.786191940307617188e+01 -2.624209523200988770e-01 1.125803947448730469e+01 3.298685550689697266e+00 1.032801151275634766e+00
2.052000000000000000e+03 7.347578430175781250e+01 -1.647521591186523438e+01 3.246969878673553467e-01 1.057105922698974609e+01 3.268726825714111328e+00 -1.595795631408691406e+00
2.053000000000000000e+03 6.155828857421875000e+01 -4.172328948974609375e+00 -1.493517637252807617e+00 -1.348292678594589233e-01 -4.885040819644927979e-01 -1.459753036499023438e+00
2.054000000000000000e+03 6.041561508178710938e+01 -3.394209146499633789e+00 -9.694108366966247559e-01 -1.432449817657470703e-01 -3.337967395782470703e-01 -1.246081352233886719e+00
2.055000000000000000e+03 6.874289703369140625e+01 -1.979511451721191406e+01 -8.002906441688537598e-01 9.678492546081542969e+00 2.663460493087768555e+00 5.682913064956665039e-01
2.056000000000000000e+03 7.549349975585937500e+01 4.016552352905273438e+01 4.070956632494926453e-02 5.249329566955566406e+00 1.587011814117431641e+00 -2.030544169247150421e-02
2.057000000000000000e+03 1.464287185668945312e+01 -9.754473686218261719e+00 -3.817419290542602539e+00 -1.828627288341522217e-01 -1.200084686279296875e+00 1.573859691619873047e+00
2.058000000000000000e+03 4.716486740112304688e+01 2.218237686157226562e+01 1.074858427047729492e+00 1.299943685531616211e+00 7.124406695365905762e-01 4.221048653125762939e-01
2.059000000000000000e+03 2.230156707763671875e+01 9.067894816398620605e-01 2.902571201324462891e+00 1.500586271286010742e+00 1.320947289466857910e+00 2.180382013320922852e+00
2.060000000000000000e+03 2.289487648010253906e+01 1.850624322891235352e+00 2.920110225677490234e+00 2.249541044235229492e+00 1.550895333290100098e+00 2.270132780075073242e+00
2.061000000000000000e+03 2.938418579101562500e+01 6.760973930358886719e+00 2.608495235443115234e+00 1.888151764869689941e+00 1.348994016647338867e+00 1.444090962409973145e+00
2.062000000000000000e+03 7.100878238677978516e+00 -1.984466361999511719e+01 -7.956565618515014648e-01 8.956812858581542969e+00 2.448346853256225586e+00 1.118110656738281250e+00
2.063000000000000000e+03 2.399535179138183594e+01 1.895508384704589844e+01 -1.404840797185897827e-01 5.673906207084655762e-01 1.280719637870788574e-01 2.376896142959594727e-01
2.064000000000000000e+03 2.684284973144531250e+01 -1.344007492065429688e+01 -3.398975610733032227e+00 4.388857185840606689e-01 -8.880269527435302734e-01 3.363884985446929932e-01
2.065000000000000000e+03 2.557630348205566406e+01 -1.327364349365234375e+01 -3.576521635055541992e+00 4.127493202686309814e-01 -9.491316676139831543e-01 4.592567384243011475e-01
2.066000000000000000e+03 2.391828918457031250e+01 1.164593219757080078e+00 2.546791076660156250e+00 2.116892337799072266e+00 1.399105072021484375e+00 1.621288061141967773e+00
2.067000000000000000e+03 5.943211364746093750e+01 1.125090312957763672e+01 4.717819988727569580e-01 3.068550109863281250e+00 1.062099695205688477e+00 -1.100721716880798340e+00
2.068000000000000000e+03 6.000606536865234375e+01 1.234910869598388672e+01 6.335550546646118164e-01 3.171583175659179688e+00 1.141541481018066406e+00 -1.203994989395141602e+00
2.069000000000000000e+03 2.179761314392089844e+01 2.318144416809082031e+01 3.356038928031921387e-01 1.197493910789489746e+00 4.599293470382690430e-01 8.039311766624450684e-01
2.070000000000000000e+03 2.210124588012695312e+01 2.068491172790527344e+01 2.808952629566192627e-01 6.955657005310058594e-01 2.929382920265197754e-01 7.412018775939941406e-01
2.071000000000000000e+03 7.195617675781250000e+01 -1.158216953277587891e+01 2.792898178100585938e+00 1.291815567016601562e+01 4.713315963745117188e+00 -5.821669101715087891e-01
2.072000000000000000e+03 2.353413963317871094e+01 -1.254343795776367188e+01 -3.904268741607666016e+00 3.553923368453979492e-01 -1.064662933349609375e+00 5.470196008682250977e-01
2.073000000000000000e+03 2.514255142211914062e+01 1.848184585571289062e+01 -3.462559878826141357e-01 8.873165249824523926e-01 1.623181551694869995e-01 1.261294037103652954e-01
2.074000000000000000e+03 1.738779640197753906e+01 -3.411573410034179688e+01 -7.850293070077896118e-02 1.644029617309570312e+00 4.696579873561859131e-01 -2.589385807514190674e-01
2.075000000000000000e+03 1.474088764190673828e+01 1.725959968566894531e+01 -4.191453754901885986e-02 5.237483024597167969e+00 1.558670520782470703e+00 1.363437533378601074e+00
2.076000000000000000e+03 6.973199367523193359e+00 1.775340461730957031e+01 -3.325212514027953148e-03 2.787725687026977539e+00 8.353201150894165039e-01 -6.209987998008728027e-01
2.077000000000000000e+03 7.258087921142578125e+01 -1.447297382354736328e+01 1.190399646759033203e+00 1.129210281372070312e+01 3.744750738143920898e+00 -1.458692073822021484e+00
2.078000000000000000e+03 6.000186157226562500e+01 2.093339729309082031e+01 6.923120021820068359e-01 3.448744058609008789e+00 1.242316842079162598e+00 -7.795763611793518066e-01
2.079000000000000000e+03 5.346758651733398438e+01 2.055103492736816406e+01 9.798833727836608887e-01 2.004332304000854492e+00 8.952646851539611816e-01 -1.060517907142639160e+00
2.080000000000000000e+03 5.074254226684570312e+01 2.322764587402343750e+01 1.154093265533447266e+00 1.504059791564941406e+00 7.974458932876586914e-01 -3.658155202865600586e-01
2.081000000000000000e+03 3.739053726196289062e+01 1.410549259185791016e+01 7.608551383018493652e-01 1.790363550186157227e+00 7.653656005859375000e-01 1.005066514015197754e+00
2.082000000000000000e+03 7.249510955810546875e+01 -9.071107864379882812e+00 2.221592903137207031e+00 1.165076541900634766e+01 4.161707401275634766e+00 4.436523318290710449e-01
2.083000000000000000e+03 3.022649192810058594e+01 8.325175285339355469e+00 2.006048440933227539e+00 1.889215707778930664e+00 1.168579220771789551e+00 1.590263962745666504e+00
2.084000000000000000e+03 2.829276466369628906e+01 1.014119243621826172e+01 1.310778021812438965e+00 2.591332674026489258e+00 1.170633196830749512e+00 2.010808467864990234e+00
2.085000000000000000e+03 4.864643859863281250e+01 3.309755086898803711e+00 7.954734563827514648e-01 2.838706076145172119e-01 3.238032162189483643e-01 -2.225684970617294312e-01
2.086000000000000000e+03 2.788803863525390625e+01 1.749505805969238281e+01 -4.847122728824615479e-01 1.757630825042724609e+00 3.818755745887756348e-01 3.773358166217803955e-01
2.087000000000000000e+03 1.506994056701660156e+01 -2.735854911804199219e+01 -4.596570730209350586e-01 2.621638059616088867e+00 6.485943198204040527e-01 -5.913075208663940430e-01
2.088000000000000000e+03 1.727845764160156250e+01 1.853650093078613281e+01 1.469126939773559570e-01 2.651938438415527344e+00 8.396553397178649902e-01 2.077335596084594727e+00
2.089000000000000000e+03 4.508407974243164062e+01 2.121635246276855469e+01 8.806766271591186523e-01 1.582952380180358887e+00 7.390887141227722168e-01 7.175932526588439941e-01
2.090000000000000000e+03 1.791975402832031250e+01 1.978227806091308594e+01 3.226067172363400459e-03 1.966215133666992188e+00 5.908323526382446289e-01 1.729064345359802246e+00
2.091000000000000000e+03 1.432200241088867188e+01 1.885495185852050781e+01 -4.890035688877105713e-01 4.485602855682373047e+00 1.198979735374450684e+00 1.010965943336486816e+00
2.092000000000000000e+03 4.033147430419921875e+01 1.154104900360107422e+01 6.315455436706542969e-01 1.769128203392028809e+00 7.202021479606628418e-01 7.158485651016235352e-01
2.093000000000000000e+03 4.640675544738769531e+00 2.156133651733398438e+00 1.044166758656501770e-01 1.575007885694503784e-01 7.857523858547210693e-02 2.720914185047149658e-01
2.094000000000000000e+03 4.830025196075439453e+00 -2.468150377273559570e+00 9.227353930473327637e-01 9.266874194145202637e-01 5.548268556594848633e-01 9.947735071182250977e-01
2.095000000000000000e+03 4.806877136230468750e+00 -2.747005701065063477e+00 9.111633896827697754e-01 1.129071116447448730e+00 6.120703220367431641e-01 1.150623679161071777e+00
2.096000000000000000e+03 7.830357074737548828e+00 -2.150828361511230469e+00 3.442791461944580078e+00 3.429626226425170898e+00 2.061725378036499023e+00 4.607271671295166016e+00
2.097000000000000000e+03 6.281440734863281250e+00 -2.333862304687500000e+00 1.864982724189758301e+00 1.573247432708740234e+00 1.031468987464904785e+00 2.257604360580444336e+00
2.098000000000000000e+03 9.117535591125488281e+00 2.609913587570190430e+00 7.488964796066284180e-01 7.205692768096923828e+00 2.386376857757568359e+00 -3.401210069656372070e+00
2.099000000000000000e+03 7.647310256958007812e+00 -2.383285760879516602e+00 2.986487150192260742e+00 3.618285894393920898e+00 1.981431961059570312e+00 4.474713325500488281e+00
2.100000000000000000e+03 6.699833869934082031e+00 2.284716606140136719e+00 8.881093263626098633e-01 9.939427971839904785e-01 5.646156072616577148e-01 -7.711764574050903320e-01
2.101000000000000000e+03 7.314752101898193359e+00 -2.387582778930664062e+00 2.691941261291503906e+00 2.910647630691528320e+00 1.680776596069335938e+00 3.811973810195922852e+00
2.102000000000000000e+03 3.057650566101074219e+00 6.507653713226318359e+00 2.064045369625091553e-01 3.962105512619018555e-01 1.807845234870910645e-01 -3.102559596300125122e-02
2.103000000000000000e+03 6.044809341430664062e+00 2.468957662582397461e+00 6.695590615272521973e-01 6.735246777534484863e-01 4.029251337051391602e-01 -3.837120532989501953e-01
2.104000000000000000e+03 5.803957462310791016e+00 2.317457199096679688e+00 5.299235582351684570e-01 4.989016652107238770e-01 3.086475729942321777e-01 -1.922133266925811768e-01
2.105000000000000000e+03 5.603155136108398438e+00 2.061071157455444336e+00 2.685744762420654297e-01 3.169543445110321045e-01 1.756586432456970215e-01 1.288049668073654175e-02
2.106000000000000000e+03 5.382090568542480469e+00 2.307633161544799805e+00 3.386630117893218994e-01 3.436555266380310059e-01 2.046955525875091553e-01 2.518132515251636505e-02
2.107000000000000000e+03 4.991381645202636719e+00 1.927997589111328125e+00 5.394270643591880798e-03 1.480270773172378540e-01 4.602640494704246521e-02 2.436786144971847534e-01
2.108000000000000000e+03 4.642776012420654297e+00 2.550169944763183594e+00 2.570355832576751709e-01 2.214152961969375610e-01 1.435352563858032227e-01 1.922881603240966797e-01
2.109000000000000000e+03 3.530291795730590820e+00 2.735562086105346680e+00 1.440292894840240479e-01 5.872602388262748718e-02 6.082659587264060974e-02 3.583649396896362305e-01
2.110000000000000000e+03 4.081721782684326172e+00 2.632580757141113281e+00 1.899807751178741455e-01 1.528911590576171875e-01 1.028615757822990417e-01 2.895088493824005127e-01
2.111000000000000000e+03 1.268598175048828125e+01 -3.712146878242492676e-01 8.572564125061035156e+00 7.652837753295898438e+00 4.867620468139648438e+00 9.571008682250976562e-01
2.112000000000000000e+03 1.165864658355712891e+01 -1.366379499435424805e+00 6.842642784118652344e+00 1.247169113159179688e+01 5.794300079345703125e+00 -5.542296767234802246e-01
2.113000000000000000e+03 1.014754486083984375e+01 -2.484638929367065430e+00 1.621446132659912109e+00 1.268705368041992188e+01 4.292550086975097656e+00 4.656335353851318359e+00
2.114000000000000000e+03 1.040846920013427734e+01 2.103923797607421875e+00 5.077549815177917480e-02 1.379912281036376953e+01 4.154969692230224609e+00 -1.307671904563903809e+00
2.115000000000000000e+03 9.979393959045410156e+00 3.043500900268554688e+00 -5.259066820144653320e-01 1.006326389312744141e+01 2.861207008361816406e+00 -2.159805774688720703e+00
2.116000000000000000e+03 1.276867294311523438e+01 9.491414576768875122e-02 8.422808647155761719e+00 7.491474628448486328e+00 4.774284839630126953e+00 1.847963333129882812e+00
2.117000000000000000e+03 1.207702827453613281e+01 2.281033806502819061e-02 1.009671211242675781e+01 9.877520561218261719e+00 5.992269992828369141e+00 2.024781942367553711e+00
2.118000000000000000e+03 1.157523441314697266e+01 1.505013465881347656e+00 3.710072278976440430e+00 1.326087284088134766e+01 5.091283798217773438e+00 3.307932376861572266e+00
2.119000000000000000e+03 9.713452339172363281e+00 -2.720416784286499023e+00 1.481678962707519531e+00 1.098846721649169922e+01 3.741043806076049805e+00 5.473894596099853516e+00
2.120000000000000000e+03 1.167340087890625000e+01 -1.637948393821716309e+00 5.675820350646972656e+00 1.207323932647705078e+01 5.324717998504638672e+00 -2.986277341842651367e-01
2.121000000000000000e+03 1.370403099060058594e+01 6.331870555877685547e+00 -2.436414241790771484e+00 6.532712936401367188e+00 1.228889584541320801e+00 1.253606200218200684e+00
2.122000000000000000e+03 1.037566184997558594e+01 2.420887947082519531e+00 -2.881176471710205078e-01 1.232752990722656250e+01 3.611823797225952148e+00 -1.475894570350646973e+00
2.123000000000000000e+03 1.255991935729980469e+01 1.145964741706848145e+00 5.969830513000488281e+00 8.918070793151855469e+00 4.466370582580566406e+00 3.221032857894897461e+00
2.124000000000000000e+03 1.186621856689453125e+01 -1.080881953239440918e+00 8.112037658691406250e+00 1.113895988464355469e+01 5.775299549102783203e+00 -4.883188605308532715e-01
2.125000000000000000e+03 2.617370843887329102e+00 -5.096917629241943359e+00 3.423236310482025146e-02 1.042591929435729980e+00 3.230473101139068604e-01 2.508628070354461670e-01
2.126000000000000000e+03 3.307520151138305664e+00 2.351023197174072266e+00 3.287771716713905334e-03 -2.764748409390449524e-03 1.569069863762706518e-04 4.131455719470977783e-01
2.127000000000000000e+03 1.138854861259460449e+00 -2.137022495269775391e+00 6.461831927299499512e-02 -2.153791338205337524e-01 -4.522824659943580627e-02 -1.637154817581176758e-01
2.128000000000000000e+03 1.167037248611450195e+00 3.171937465667724609e+00 2.196971699595451355e-02 -4.426007568836212158e-01 -1.261893063783645630e-01 2.732501327991485596e-01
2.129000000000000000e+03 3.833166837692260742e+00 -2.300211191177368164e+00 4.794696271419525146e-01 5.095580220222473145e-01 2.967082858085632324e-01 3.560393154621124268e-01
2.130000000000000000e+03 3.684967994689941406e+00 -3.390774965286254883e+00 4.183662831783294678e-01 1.131542444229125977e+00 4.649726152420043945e-01 5.769362449645996094e-01
2.131000000000000000e+03 2.057544469833374023e+00 -2.059519290924072266e+00 9.456962347030639648e-02 8.878912031650543213e-02 5.500762164592742920e-02 -1.670445054769515991e-01
2.132000000000000000e+03 2.564733028411865234e+00 -2.209381580352783203e+00 1.682419031858444214e-01 1.999237388372421265e-01 1.104496940970420837e-01 -7.185743749141693115e-02
2.133000000000000000e+03 3.022631406784057617e+00 2.469900131225585938e+00 2.552802674472332001e-02 -3.963983431458473206e-02 -4.233542364090681076e-03 4.180628061294555664e-01
2.134000000000000000e+03 7.280294299125671387e-01 3.548573732376098633e+00 2.036145329475402832e-02 -6.181199550628662109e-01 -1.793275475502014160e-01 1.916576623916625977e-01
2.135000000000000000e+03 8.680494427680969238e-01 2.477552175521850586e+00 -1.638797856867313385e-02 -3.954328596591949463e-01 -1.235462501645088196e-01 2.363928258419036865e-01
2.136000000000000000e+03 1.257548093795776367e+00 -3.741793632507324219e+00 1.110934168100357056e-01 -1.371969580650329590e-01 -7.831061258912086487e-03 -3.294196724891662598e-02
2.137000000000000000e+03 1.715120315551757812e+01 -9.343536376953125000e+00 -3.394830942153930664e+00 8.163424581289291382e-02 -9.939590096473693848e-01 3.014273643493652344e-01
2.138000000000000000e+03 1.586716079711914062e+01 -9.371294975280761719e+00 -3.249215602874755859e+00 5.271752178668975830e-02 -9.589494466781616211e-01 8.545563817024230957e-01
2.139000000000000000e+03 1.564800167083740234e+01 2.844452142715454102e+00 2.720801115036010742e+00 1.678553581237792969e+00 1.319806456565856934e+00 1.667956709861755371e+00
2.140000000000000000e+03 1.682279014587402344e+01 4.881931841373443604e-01 5.117230415344238281e+00 4.250363707542419434e-01 1.662680029869079590e+00 1.875239253044128418e+00
2.141000000000000000e+03 2.869942426681518555e+00 -6.194649696350097656e+00 -1.906534284353256226e-01 1.680333614349365234e+00 4.469040632247924805e-01 2.766318917274475098e-01
2.142000000000000000e+03 1.092916774749755859e+01 -9.696921348571777344e+00 -4.195042133331298828e+00 5.958006858825683594e+00 5.288894176483154297e-01 5.632634639739990234e+00
2.143000000000000000e+03 8.344072341918945312e+00 -9.958598136901855469e+00 -4.365533351898193359e+00 1.358835792541503906e+01 2.766847133636474609e+00 1.739282011985778809e+00
2.144000000000000000e+03 2.077559089660644531e+01 8.858755230903625488e-02 3.301349163055419922e+00 6.681407094001770020e-01 1.190846920013427734e+00 2.260257244110107422e+00
2.145000000000000000e+03 4.188897132873535156e+00 -1.673738098144531250e+01 1.034078598022460938e+00 5.140507221221923828e+00 1.852375745773315430e+00 1.729886770248413086e+00
2.146000000000000000e+03 3.430301189422607422e+00 -8.226863861083984375e+00 -6.557376384735107422e-01 3.241558074951171875e+00 7.757461071014404297e-01 -1.085233315825462341e-01
2.147000000000000000e+03 3.467302322387695312e+00 -7.287036418914794922e+00 -5.679718255996704102e-01 2.849351406097412109e+00 6.844139099121093750e-01 2.457720786333084106e-01
2.148000000000000000e+03 3.619295358657836914e+00 -6.482090473175048828e+00 -4.937683343887329102e-01 2.812062740325927734e+00 6.954882740974426270e-01 5.197797417640686035e-01
2.149000000000000000e+03 2.040761375427246094e+01 -1.070655155181884766e+01 -3.808058500289916992e+00 2.516277134418487549e-01 -1.066929221153259277e+00 3.307574093341827393e-01
2.150000000000000000e+03 3.512670755386352539e+00 -9.288471221923828125e+00 -6.351645588874816895e-01 3.475888013839721680e+00 8.522170186042785645e-01 -4.671616256237030029e-01
2.151000000000000000e+03 2.661500930786132812e+00 3.142849445343017578e+00 1.155306771397590637e-01 -7.148938626050949097e-02 1.321238745003938675e-02 3.697694838047027588e-01
2.152000000000000000e+03 6.162583541870117188e+01 -1.312142133712768555e+00 -1.900745183229446411e-01 9.247601628303527832e-01 2.204056978225708008e-01 -1.773337006568908691e+00
2.153000000000000000e+03 6.103412246704101562e+01 -2.414734125137329102e+00 -6.421272158622741699e-01 3.308605253696441650e-01 -9.338000416755676270e-02 -1.533053040504455566e+00
2.154000000000000000e+03 2.583629798889160156e+01 2.549741744995117188e+00 2.666596412658691406e+00 2.503990650177001953e+00 1.551176071166992188e+00 1.205065369606018066e+00
2.155000000000000000e+03 2.521733665466308594e+01 3.679353952407836914e+00 3.224231719970703125e+00 2.985093593597412109e+00 1.862797617912292480e+00 1.528560280799865723e+00
2.156000000000000000e+03 5.395339012145996094e+00 1.265317058563232422e+01 2.228752523660659790e-01 2.151269674301147461e+00 7.122434973716735840e-01 -3.518719077110290527e-01
2.157000000000000000e+03 1.344872474670410156e+01 7.681052207946777344e+00 -1.521777272224426270e+00 6.784220218658447266e+00 1.578732848167419434e+00 1.648952484130859375e+00
2.158000000000000000e+03 1.258359718322753906e+01 -9.122159957885742188e+00 -2.877310991287231445e+00 2.428448438644409180e+00 -1.346587687730789185e-01 4.824176788330078125e+00
2.159000000000000000e+03 3.539742946624755859e+00 8.435078620910644531e+00 1.324502974748611450e-01 9.268864989280700684e-01 3.178010582923889160e-01 -2.038246542215347290e-01
2.160000000000000000e+03 4.973281478881835938e+01 -1.114779281616210938e+01 -2.380538463592529297e+00 -1.189877316355705261e-01 -7.498579025268554688e-01 -9.719251990318298340e-01
2.161000000000000000e+03 4.797897338867187500e+01 -1.062784767150878906e+01 -2.189870119094848633e+00 2.591682225465774536e-02 -6.491859555244445801e-01 -8.416933417320251465e-01
2.162000000000000000e+03 4.587775421142578125e+01 2.464565515518188477e+00 6.086490750312805176e-01 2.986010909080505371e-01 2.721750438213348389e-01 -1.672511994838714600e-01
2.163000000000000000e+03 4.488253402709960938e+01 5.252652645111083984e+00 1.031134963035583496e+00 3.650354444980621338e-01 4.188511073589324951e-01 -2.019121944904327393e-01
2.164000000000000000e+03 3.905746078491210938e+01 8.910803794860839844e+00 8.687477707862854004e-01 1.272882461547851562e+00 6.424890756607055664e-01 5.397980213165283203e-01
2.165000000000000000e+03 6.026651763916015625e+01 1.562418842315673828e+01 8.655229210853576660e-01 3.350967407226562500e+00 1.264947056770324707e+00 -1.019925713539123535e+00
2.166000000000000000e+03 1.144504833221435547e+01 1.418207550048828125e+01 1.189926981925964355e+00 5.283290386199951172e+00 1.941965103149414062e+00 1.510594934225082397e-01
2.167000000000000000e+03 1.096060276031494141e+01 1.354943752288818359e+01 1.044767737388610840e+00 5.163650035858154297e+00 1.862525224685668945e+00 2.076059579849243164e-01
2.168000000000000000e+03 3.204296112060546875e+01 -1.363234519958496094e+01 -2.779732704162597656e+00 4.886527657508850098e-01 -6.873239874839782715e-01 -1.163935512304306030e-01
2.169000000000000000e+03 3.019716644287109375e+01 -1.070840835571289062e+01 -2.267773628234863281e+00 6.808462738990783691e-01 -4.760781824588775635e-01 -2.557415962219238281e-01
2.170000000000000000e+03 1.947787857055664062e+01 1.131507277488708496e+00 3.940252780914306641e+00 1.384082436561584473e-01 1.223598361015319824e+00 2.732780933380126953e+00
2.171000000000000000e+03 5.957991409301757812e+01 1.920504760742187500e+01 7.557166814804077148e-01 3.418539524078369141e+00 1.252276897430419922e+00 -8.437895178794860840e-01
2.172000000000000000e+03 5.107759094238281250e+01 1.888017773628234863e+00 4.083928763866424561e-01 1.513641476631164551e-01 1.679271161556243896e-01 -2.832889556884765625e-01
2.173000000000000000e+03 5.471032333374023438e+01 3.070487737655639648e+00 5.000181794166564941e-01 3.801892101764678955e-01 2.640622258186340332e-01 -3.568884432315826416e-01
2.174000000000000000e+03 7.926905155181884766e+00 -1.068571949005126953e+01 -2.259866476058959961e+00 1.176852226257324219e+01 2.852596759796142578e+00 2.340481057763099670e-02
2.175000000000000000e+03 5.233483886718750000e+01 -8.347248077392578125e+00 -2.244617700576782227e+00 -1.349558383226394653e-01 -7.138720154762268066e-01 -8.650830984115600586e-01
2.176000000000000000e+03 7.366459369659423828e+00 -1.134645557403564453e+01 -5.109087824821472168e-01 1.213465976715087891e+01 3.487125158309936523e+00 2.282336652278900146e-01
2.177000000000000000e+03 4.066172409057617188e+01 2.128461074829101562e+01 6.339017748832702637e-01 1.937016248703002930e+00 7.712754011154174805e-01 6.058552861213684082e-01
2.178000000000000000e+03 4.182310867309570312e+01 2.220285415649414062e+01 6.356812119483947754e-01 1.886449337005615234e+00 7.566391825675964355e-01 5.903853178024291992e-01
2.179000000000000000e+03 1.775212407112121582e+00 4.612809181213378906e+00 1.320693790912628174e-01 -3.648644387722015381e-01 -6.983852386474609375e-02 2.151850908994674683e-01
2.180000000000000000e+03 2.160896539688110352e+00 3.078060865402221680e+00 6.872777640819549561e-02 -2.172461450099945068e-01 -4.455551132559776306e-02 3.790960311889648438e-01
2.181000000000000000e+03 2.415003395080566406e+01 -9.991877555847167969e+00 -2.589398145675659180e+00 6.218564510345458984e-01 -5.902625322341918945e-01 -4.398314654827117920e-02
2.182000000000000000e+03 2.450723838806152344e+01 -1.306794166564941406e+01 -3.837852239608764648e+00 3.697718381881713867e-01 -1.040424108505249023e+00 5.705776214599609375e-01
2.183000000000000000e+03 1.327052688598632812e+01 -8.564667701721191406e+00 -2.460917711257934570e+00 1.664626359939575195e+00 -2.388873845338821411e-01 3.129125595092773438e+00
2.184000000000000000e+03 7.086436462402343750e+01 -6.971179008483886719e+00 9.836256504058837891e-01 1.261968231201171875e+01 4.080992221832275391e+00 6.296469569206237793e-01
2.185000000000000000e+03 7.393323516845703125e+01 -3.793986320495605469e+00 -7.441901564598083496e-01 9.695076942443847656e+00 2.685266256332397461e+00 1.081549644470214844e+00
2.186000000000000000e+03 4.025815200805664062e+01 -1.353774642944335938e+01 -2.363021612167358398e+00 3.044840991497039795e-01 -6.175612211227416992e-01 -5.568466782569885254e-01
2.187000000000000000e+03 3.672163009643554688e+01 -1.253925704956054688e+01 -2.310548067092895508e+00 4.698986113071441650e-01 -5.521948337554931641e-01 -4.401301145553588867e-01
2.188000000000000000e+03 7.128602600097656250e+01 -2.681211662292480469e+01 -7.830033898353576660e-01 8.228336334228515625e+00 2.233599662780761719e+00 -2.350160479545593262e-01
2.189000000000000000e+03 6.944520568847656250e+01 -2.343105316162109375e+01 -1.114308357238769531e+00 8.337965965270996094e+00 2.167097330093383789e+00 1.969649083912372589e-02
2.190000000000000000e+03 5.337844085693359375e+01 -7.722669601440429688e+00 -2.254114151000976562e+00 -1.561390608549118042e-01 -7.230759263038635254e-01 -8.428414463996887207e-01
2.191000000000000000e+03 6.661029815673828125e+01 -3.007718086242675781e+00 -1.266435027122497559e+00 5.817801475524902344e+00 1.365409970283508301e+00 -3.910317897796630859e+00
2.192000000000000000e+03 5.198148727416992188e+01 -9.960934638977050781e+00 -2.458473920822143555e+00 -2.242627888917922974e-01 -8.048210144042968750e-01 -1.034683585166931152e+00
2.193000000000000000e+03 5.412353038787841797e+00 -2.971959495544433594e+01 -4.298796355724334717e-01 5.616877555847167969e+00 1.556099414825439453e+00 4.469911456108093262e-01
2.194000000000000000e+03 6.847050666809082031e+00 -2.659335327148437500e+01 -8.796367049217224121e-01 5.833652973175048828e+00 1.486204862594604492e+00 6.759707927703857422e-01
2.195000000000000000e+03 3.550469207763671875e+01 -1.372693061828613281e+01 -2.557198047637939453e+00 4.370374977588653564e-01 -6.360481977462768555e-01 -3.228308260440826416e-01
2.196000000000000000e+03 6.894750213623046875e+01 -2.166570663452148438e+01 -1.050086617469787598e+00 8.799442291259765625e+00 2.324806690216064453e+00 2.468073368072509766e-01
2.197000000000000000e+03 6.799636077880859375e+01 -2.086462974548339844e+01 -8.132526278495788574e-01 8.239421844482421875e+00 2.227850914001464844e+00 7.759718894958496094e-01
2.198000000000000000e+03 5.565815925598144531e+00 -2.232845878601074219e+01 -9.251204133033752441e-01 6.620518207550048828e+00 1.708619356155395508e+00 1.532942652702331543e+00
2.199000000000000000e+03 6.872701263427734375e+01 -3.479526758193969727e+00 -1.965183615684509277e+00 9.119912147521972656e+00 2.146418571472167969e+00 -2.473742246627807617e+00
2.200000000000000000e+03 6.741481781005859375e+01 -4.427025794982910156e+00 -1.565026998519897461e+00 7.896989345550537109e+00 1.899588704109191895e+00 -3.981800794601440430e+00
2.201000000000000000e+03 5.625904560089111328e+00 -1.767169570922851562e+01 7.171236276626586914e-01 7.940816879272460938e+00 2.597382068634033203e+00 2.080303668975830078e+00
2.202000000000000000e+03 4.993435382843017578e+00 -2.036848258972167969e+01 -4.009302556514739990e-01 6.329835891723632812e+00 1.778671741485595703e+00 2.095840930938720703e+00
2.203000000000000000e+03 6.035710334777832031e+00 -1.998808860778808594e+01 -5.247991681098937988e-01 7.881364345550537109e+00 2.206969499588012695e+00 2.084199666976928711e+00
2.204000000000000000e+03 8.733273506164550781e+00 -2.289296340942382812e+01 -1.205761909484863281e+00 6.936326503753662109e+00 1.719169378280639648e+00 1.960190087556838989e-01
2.205000000000000000e+03 6.415703773498535156e+00 -2.498336029052734375e+01 -9.463510513305664062e-01 6.144235134124755859e+00 1.559365153312683105e+00 9.093218445777893066e-01
2.206000000000000000e+03 9.715123176574707031e+00 -3.513859558105468750e+01 -2.652080953121185303e-01 4.225845813751220703e+00 1.188191294670104980e+00 -1.978384889662265778e-02
2.207000000000000000e+03 6.826885700225830078e+00 -3.154749298095703125e+01 -3.923625648021697998e-01 5.278128147125244141e+00 1.465729713439941406e+00 2.308869808912277222e-01
2.208000000000000000e+03 4.440921306610107422e+00 -2.125034713745117188e+01 -4.772201180458068848e-01 5.840735435485839844e+00 1.609054565429687500e+00 1.977998495101928711e+00
2.209000000000000000e+03 5.099552631378173828e+00 -1.331835651397705078e+01 2.587131977081298828e+00 6.676960945129394531e+00 2.779227972030639648e+00 -5.283440351486206055e-01
2.210000000000000000e+03 7.116002082824707031e+00 -2.827002334594726562e+01 -7.068677544593811035e-01 5.528044223785400391e+00 1.446352958679199219e+00 4.193024933338165283e-01
2.211000000000000000e+03 7.314983367919921875e+01 3.175758934020996094e+01 1.024150997400283813e-01 5.165356636047363281e+00 1.580331444740295410e+00 -2.746037542819976807e-01
2.212000000000000000e+03 7.377490997314453125e+01 2.761193847656250000e+01 1.048804223537445068e-01 5.400049686431884766e+00 1.651479005813598633e+00 -3.627255558967590332e-01
2.213000000000000000e+03 7.667855739593505859e+00 -3.409538650512695312e+01 -2.518805563449859619e-01 4.922608375549316406e+00 1.401218295097351074e+00 8.037452399730682373e-02
2.214000000000000000e+03 7.383232879638671875e+01 -3.070887184143066406e+01 -2.905275225639343262e-01 8.990776062011718750e+00 2.610074520111083984e+00 -1.608755141496658325e-01
2.215000000000000000e+03 5.819259643554687500e+00 -1.404141139984130859e+01 3.458564996719360352e+00 7.786712169647216797e+00 3.373583316802978516e+00 2.898098528385162354e-01
2.216000000000000000e+03 7.498920440673828125e+01 -2.775587844848632812e+01 -3.921190798282623291e-01 9.425057411193847656e+00 2.709881305694580078e+00 -4.521473348140716553e-01
2.217000000000000000e+03 7.340720367431640625e+01 2.143374252319335938e+01 1.281141638755798340e-01 5.664185523986816406e+00 1.737689852714538574e+00 -5.787690281867980957e-01
2.218000000000000000e+03 7.504991149902343750e+01 2.415958595275878906e+01 8.042984455823898315e-02 5.729574203491210938e+00 1.743001222610473633e+00 -4.008111059665679932e-01
2.219000000000000000e+03 7.064571380615234375e+01 -2.143120002746582031e+01 -1.019204020500183105e+00 9.477166175842285156e+00 2.537388801574707031e+00 -3.775689899921417236e-01
2.220000000000000000e+03 7.553572845458984375e+01 -2.050064277648925781e+01 -3.820183277130126953e-01 9.367986679077148438e+00 2.695790529251098633e+00 -1.457239866256713867e+00
2.221000000000000000e+03 7.328254699707031250e+01 -2.251267623901367188e+01 -7.823562622070312500e-01 9.451967239379882812e+00 2.600883245468139648e+00 -1.064491152763366699e+00
2.222000000000000000e+03 7.512005615234375000e+01 1.842643165588378906e+01 8.398716151714324951e-02 6.177587032318115234e+00 1.878472328186035156e+00 -5.460031628608703613e-01
2.223000000000000000e+03 7.554364013671875000e+01 1.143859672546386719e+01 -1.302540209144353867e-02 6.991179943084716797e+00 2.093446493148803711e+00 -6.422524452209472656e-01
2.224000000000000000e+03 7.388215637207031250e+01 1.688736915588378906e+01 1.130547896027565002e-01 6.084027290344238281e+00 1.859124660491943359e+00 -7.008264064788818359e-01
2.225000000000000000e+03 7.396972656250000000e+01 1.409853935241699219e+01 7.081440091133117676e-02 6.346269607543945312e+00 1.925125122070312500e+00 -7.683201432228088379e-01
2.226000000000000000e+03 7.425564575195312500e+01 7.428379058837890625e+00 -2.036744505167007446e-01 7.182141780853271484e+00 2.093540191650390625e+00 -7.422346472740173340e-01
2.227000000000000000e+03 7.442885589599609375e+01 4.655236244201660156e+00 -4.263896048069000244e-01 7.683094978332519531e+00 2.177011728286743164e+00 -5.393904447555541992e-01
2.228000000000000000e+03 7.373540496826171875e+01 -1.528449249267578125e+01 5.995951294898986816e-01 1.053684329986572266e+01 3.340931653976440430e+00 -1.624222159385681152e+00
2.229000000000000000e+03 7.409931182861328125e+01 -5.367094278335571289e-01 -9.839269518852233887e-01 8.853294372558593750e+00 2.360810041427612305e+00 2.123060971498489380e-01
2.230000000000000000e+03 7.431948089599609375e+01 2.056704282760620117e+00 -7.009921073913574219e-01 8.180427551269531250e+00 2.243830680847167969e+00 -2.448240518569946289e-01
2.231000000000000000e+03 7.197547912597656250e+01 2.353112602233886719e+01 1.780784577131271362e-01 5.339752674102783203e+00 1.655349254608154297e+00 -5.724183320999145508e-01
2.232000000000000000e+03 7.493232727050781250e+01 2.558902931213378906e+01 7.021890580654144287e-02 5.621102333068847656e+00 1.707396268844604492e+00 -3.596518337726593018e-01
2.233000000000000000e+03 7.352349853515625000e+01 -7.736105918884277344e+00 1.015604853630065918e+00 1.051469802856445312e+01 3.459090948104858398e+00 1.135518550872802734e+00
2.234000000000000000e+03 7.354090881347656250e+01 2.544687271118164062e+01 1.206518262624740601e-01 5.469769477844238281e+00 1.677126407623291016e+00 -4.296835958957672119e-01
2.235000000000000000e+03 7.437814331054687500e+01 1.010249996185302734e+01 -6.286145001649856567e-02 6.884916305541992188e+00 2.046616315841674805e+00 -7.773287296295166016e-01
2.236000000000000000e+03 7.582817077636718750e+01 -9.463120460510253906e+00 8.432077765464782715e-01 8.076999664306640625e+00 2.676062345504760742e+00 4.444214999675750732e-01
2.237000000000000000e+03 7.263214874267578125e+01 -1.261083221435546875e+01 2.092897415161132812e+00 1.149021530151367188e+01 4.074934005737304688e+00 -9.244561791419982910e-01
2.238000000000000000e+03 6.980812835693359375e+01 -3.749393224716186523e+00 -2.140941143035888672e+00 1.065204524993896484e+01 2.553331375122070312e+00 -1.556483149528503418e+00
2.239000000000000000e+03 7.191441345214843750e+01 -5.517470836639404297e+00 -3.018460869789123535e-01 1.129333496093750000e+01 3.297446727752685547e+00 8.587959408760070801e-01
2.240000000000000000e+03 7.438396453857421875e+01 -1.431967353820800781e+01 1.104072213172912598e+00 9.805842399597167969e+00 3.272974491119384766e+00 -1.497815847396850586e+00
2.241000000000000000e+03 7.444847869873046875e+01 -5.042991638183593750e+00 -1.491251736879348755e-01 9.271436691284179688e+00 2.736693382263183594e+00 1.331906676292419434e+00
2.242000000000000000e+03 7.466605377197265625e+01 -1.777914810180664062e+01 -4.689596965909004211e-02 9.783818244934082031e+00 2.921076774597167969e+00 -1.693474411964416504e+00
2.243000000000000000e+03 7.573633575439453125e+01 -1.782746887207031250e+01 -7.212013751268386841e-02 8.968674659729003906e+00 2.668966531753540039e+00 -1.722391486167907715e+00
2.244000000000000000e+03 7.376575469970703125e+01 -2.095382881164550781e+01 -6.454482674598693848e-01 9.715067863464355469e+00 2.720885753631591797e+00 -1.310665488243103027e+00
2.245000000000000000e+03 7.453705596923828125e+01 -2.362610578536987305e+00 -8.348227739334106445e-01 9.176902770996093750e+00 2.502623796463012695e+00 8.663803935050964355e-01
2.246000000000000000e+03 7.366385650634765625e+01 -2.661081075668334961e+00 -9.913504719734191895e-01 9.476265907287597656e+00 2.545474767684936523e+00 6.194571256637573242e-01
2.247000000000000000e+03 7.352510833740234375e+01 -2.433232498168945312e+01 -6.913421750068664551e-01 9.222693443298339844e+00 2.559405565261840820e+00 -8.228012323379516602e-01
2.248000000000000000e+03 7.433087921142578125e+01 6.012436866760253906e+00 -3.006931543350219727e-01 7.401477813720703125e+00 2.130235433578491211e+00 -6.406354308128356934e-01
2.249000000000000000e+03 7.228216552734375000e+01 3.347069549560546875e+01 1.312995702028274536e-01 5.024912357330322266e+00 1.546863555908203125e+00 -2.554360330104827881e-01
2.250000000000000000e+03 7.167118072509765625e+01 3.557723999023437500e+01 1.334941089153289795e-01 4.907047271728515625e+00 1.512162327766418457e+00 -1.925402730703353882e-01
2.251000000000000000e+03 7.412602233886718750e+01 1.271341609954833984e+01 3.874596953392028809e-02 6.510722637176513672e+00 1.964840531349182129e+00 -7.843641042709350586e-01
2.252000000000000000e+03 7.435786437988281250e+01 1.137915706634521484e+01 2.737095346674323082e-03 6.714303016662597656e+00 2.015111923217773438e+00 -7.733139991760253906e-01
2.253000000000000000e+03 7.267247772216796875e+01 -3.315055084228515625e+01 -1.811467409133911133e-01 8.398149490356445312e+00 2.465101003646850586e+00 1.086539961397647858e-02
2.254000000000000000e+03 7.346453857421875000e+01 1.984835052490234375e+01 1.359359771013259888e-01 5.784734249114990234e+00 1.776201009750366211e+00 -6.336022019386291504e-01
2.255000000000000000e+03 7.363539123535156250e+01 1.832596397399902344e+01 1.197225004434585571e-01 5.915041446685791016e+00 1.810429096221923828e+00 -6.723440885543823242e-01
2.256000000000000000e+03 7.363310241699218750e+01 -2.790223503112792969e+01 -4.329799115657806396e-01 8.943115234375000000e+00 2.553040504455566406e+00 -3.818333745002746582e-01
2.257000000000000000e+03 4.809749126434326172e+00 2.781031990051269531e+01 -1.219276860356330872e-01 2.065919160842895508e+00 5.831974744796752930e-01 -1.900804042816162109e-01
2.258000000000000000e+03 6.192472457885742188e+00 2.802024078369140625e+01 -1.741170883178710938e-01 2.213204145431518555e+00 6.117261648178100586e-01 -1.556207090616226196e-01
2.259000000000000000e+03 2.916058921813964844e+01 4.030758857727050781e+00 2.543375968933105469e+00 1.808082103729248047e+00 1.305437445640563965e+00 7.782349586486816406e-01
2.260000000000000000e+03 2.741604232788085938e+01 4.717324256896972656e+00 3.069602966308593750e+00 2.589688301086425781e+00 1.697787284851074219e+00 1.173450946807861328e+00
2.261000000000000000e+03 6.048367023468017578e+00 2.355559921264648438e+01 -2.327825874090194702e-01 2.302093982696533203e+00 6.207934617996215820e-01 -3.850649595260620117e-01
2.262000000000000000e+03 5.899795913696289062e+01 -5.025324821472167969e+00 -1.998938202857971191e+00 -3.706110417842864990e-01 -7.108647823333740234e-01 -9.862052202224731445e-01
2.263000000000000000e+03 5.627010726928710938e+01 -7.277432441711425781e+00 -2.596486806869506836e+00 -3.546078801155090332e-01 -8.853284120559692383e-01 -9.850424528121948242e-01
2.264000000000000000e+03 7.145630359649658203e+00 1.622803688049316406e+01 1.743637919425964355e-01 2.878606796264648438e+00 9.158911705017089844e-01 -5.826966166496276855e-01
2.265000000000000000e+03 8.957546234130859375e+00 1.476957416534423828e+01 5.124928355216979980e-01 3.818245172500610352e+00 1.299221396446228027e+00 -3.416003286838531494e-01
2.266000000000000000e+03 4.740112781524658203e+00 2.058477210998535156e+01 -1.142638400197029114e-01 2.003193855285644531e+00 5.666790008544921875e-01 -5.439055562019348145e-01
2.267000000000000000e+03 4.206772804260253906e+00 1.499591350555419922e+01 1.190961375832557678e-01 1.533138513565063477e+00 4.956704080104827881e-01 -5.147088766098022461e-01
2.268000000000000000e+03 4.128616809844970703e+00 1.250370502471923828e+01 1.273187547922134399e-01 1.399651288986206055e+00 4.580909907817840576e-01 -3.688690066337585449e-01
2.269000000000000000e+03 6.229596614837646484e+00 2.494253349304199219e+01 -2.271082848310470581e-01 2.301333904266357422e+00 6.222676634788513184e-01 -3.060909211635589600e-01
2.270000000000000000e+03 1.329414272308349609e+01 -2.732107162475585938e+01 -6.192465424537658691e-01 3.596504211425781250e+00 8.931773304939270020e-01 -5.754731297492980957e-01
2.271000000000000000e+03 7.127291679382324219e+00 3.229490280151367188e+01 -9.624988585710525513e-02 2.146940946578979492e+00 6.152073144912719727e-01 -2.446326427161693573e-02
2.272000000000000000e+03 6.805072307586669922e+00 2.131448364257812500e+01 -2.342420816421508789e-01 2.548083782196044922e+00 6.941525340080261230e-01 -5.014549493789672852e-01
2.273000000000000000e+03 5.996872425079345703e+00 2.030670738220214844e+01 -1.565471440553665161e-01 2.342247724533081055e+00 6.557101607322692871e-01 -5.493119359016418457e-01
2.274000000000000000e+03 6.262133121490478516e+00 1.693058776855468750e+01 8.327813446521759033e-02 2.429077625274658203e+00 7.537067532539367676e-01 -6.252131462097167969e-01
2.275000000000000000e+03 5.412129878997802734e+00 1.383168888092041016e+01 2.135639786720275879e-01 2.124969720840454102e+00 7.015600800514221191e-01 -4.548819959163665771e-01
2.276000000000000000e+03 1.223709201812744141e+01 1.943298339843750000e+01 -4.509215652942657471e-01 4.169081211090087891e+00 1.115447878837585449e+00 1.659474074840545654e-01
2.277000000000000000e+03 3.854742050170898438e+01 1.385662746429443359e+01 8.177984952926635742e-01 1.764134049415588379e+00 7.745797634124755859e-01 9.695560932159423828e-01
2.278000000000000000e+03 3.756772994995117188e+01 1.193563079833984375e+01 8.722058534622192383e-01 1.609710097312927246e+00 7.445747852325439453e-01 1.001827597618103027e+00
2.279000000000000000e+03 5.439093780517578125e+01 -7.054984092712402344e+00 -2.216382980346679688e+00 -1.931463032960891724e-01 -7.228587865829467773e-01 -8.132560253143310547e-01
2.280000000000000000e+03 5.455376815795898438e+01 1.816388607025146484e+00 3.143331706523895264e-01 2.627682089805603027e-01 1.731304228305816650e-01 -3.802757561206817627e-01
2.281000000000000000e+03 5.469071960449218750e+01 4.367207527160644531e+00 6.590386629104614258e-01 4.584132730960845947e-01 3.352355659008026123e-01 -2.357540577650070190e-01
2.282000000000000000e+03 5.742773056030273438e+00 8.920729637145996094e+00 8.971566706895828247e-02 2.459881782531738281e+00 7.648792862892150879e-01 -2.913548350334167480e-01
2.283000000000000000e+03 5.252066612243652344e+00 3.462844085693359375e+01 -4.299876093864440918e-02 2.058586835861206055e+00 6.046764254570007324e-01 -2.573109045624732971e-02
2.284000000000000000e+03 5.372034072875976562e+00 1.155233478546142578e+01 1.738620102405548096e-01 2.165856838226318359e+00 7.019156217575073242e-01 -3.123905360698699951e-01
2.285000000000000000e+03 1.217714786529541016e+01 -2.766865539550781250e+01 -7.218715548515319824e-01 4.111306667327880859e+00 1.016830563545227051e+00 -5.220715403556823730e-01
2.286000000000000000e+03 1.248194408416748047e+01 -2.650365447998046875e+01 -7.298247218132019043e-01 4.041804313659667969e+00 9.935938715934753418e-01 -6.527142524719238281e-01
2.287000000000000000e+03 5.803365707397460938e+01 -3.321989059448242188e+01 7.006147410720586777e-03 1.050772309303283691e+00 3.173335492610931396e-01 1.426218748092651367e-01
2.288000000000000000e+03 5.903813171386718750e+01 -1.292297363281250000e+00 -3.870834708213806152e-01 3.437981903553009033e-01 -1.298558060079813004e-02 -1.065226912498474121e+00
2.289000000000000000e+03 5.974377059936523438e+01 -4.246653079986572266e+00 -1.544632911682128906e+00 -2.212775200605392456e-01 -5.297731161117553711e-01 -9.593844413757324219e-01
2.290000000000000000e+03 6.007571411132812500e+01 -3.201454544067382812e+01 -1.265850216150283813e-01 1.761609315872192383e+00 4.905072748661041260e-01 3.141025304794311523e-01
2.291000000000000000e+03 9.489508628845214844e+00 -2.199186706542968750e+01 -9.693337678909301758e-01 7.480126380920410156e+00 1.953237771987915039e+00 -4.038291573524475098e-01
2.292000000000000000e+03 8.159673690795898438e+00 -1.990784645080566406e+01 -7.045542597770690918e-01 9.103440284729003906e+00 2.519665956497192383e+00 3.549557626247406006e-01
2.293000000000000000e+03 6.939594745635986328e+00 -1.733809089660644531e+01 1.243115425109863281e+00 9.647083282470703125e+00 3.267059564590454102e+00 2.012984991073608398e+00
2.294000000000000000e+03 1.307819652557373047e+01 -2.357992362976074219e+01 -2.439691573381423950e-01 3.986616849899291992e+00 1.122794270515441895e+00 -1.185436487197875977e+00
2.295000000000000000e+03 5.782200813293457031e+00 -1.254797363281250000e+01 1.529836773872375488e+00 7.794771194458007812e+00 2.797382354736328125e+00 -1.195840001106262207e+00
2.296000000000000000e+03 6.479906463623046875e+01 -2.591669464111328125e+01 -8.098228573799133301e-01 4.508967399597167969e+00 1.109743356704711914e+00 7.375565767288208008e-01
2.297000000000000000e+03 6.764002227783203125e+01 -2.398230934143066406e+01 -1.062629699707031250e+00 7.102314949035644531e+00 1.811905622482299805e+00 5.382533669471740723e-01
2.298000000000000000e+03 4.044790267944335938e+01 8.932012557983398438e+00 7.249382734298706055e-01 1.256763696670532227e+00 5.945105552673339844e-01 3.150036036968231201e-01
2.299000000000000000e+03 4.052707672119140625e+01 7.505901813507080078e+00 8.371396064758300781e-01 9.880587458610534668e-01 5.475594997406005859e-01 1.534911245107650757e-01
2.300000000000000000e+03 1.373481941223144531e+01 1.795049285888671875e+01 -2.381033897399902344e-01 4.829537391662597656e+00 1.377430200576782227e+00 5.974002480506896973e-01
2.301000000000000000e+03 2.978859710693359375e+01 9.465226173400878906e+00 1.625850319862365723e+00 2.120905876159667969e+00 1.124026894569396973e+00 1.901566743850708008e+00
2.302000000000000000e+03 2.870577812194824219e+01 1.385069751739501953e+01 -2.457128614187240601e-01 2.352854728698730469e+00 6.321426033973693848e-01 1.202023148536682129e+00
2.303000000000000000e+03 1.949048614501953125e+01 -1.001874542236328125e+01 -3.581551551818847656e+00 2.635798156261444092e-01 -9.953915476799011230e-01 1.806954741477966309e-01
2.304000000000000000e+03 1.650173950195312500e+01 -8.703152656555175781e+00 -2.640253543853759766e+00 3.684164583683013916e-01 -6.815510988235473633e-01 4.944855272769927979e-01
2.305000000000000000e+03 6.111281585693359375e+01 -2.725217056274414062e+01 -6.901516914367675781e-01 1.775230526924133301e+00 3.255236148834228516e-01 3.542369008064270020e-01
2.306000000000000000e+03 6.524361419677734375e+01 -2.844164466857910156e+01 -6.611546277999877930e-01 4.810967922210693359e+00 1.244943976402282715e+00 5.947604775428771973e-01
2.307000000000000000e+03 4.895647048950195312e+01 1.439669966697692871e+00 3.263986408710479736e-01 2.283103764057159424e-01 1.664126962423324585e-01 -2.422991991043090820e-01
2.308000000000000000e+03 4.780381393432617188e+01 2.316494941711425781e+00 5.284758210182189941e-01 2.816451787948608398e-01 2.430362999439239502e-01 -2.137910276651382446e-01
2.309000000000000000e+03 2.641736984252929688e+01 -9.602005004882812500e+00 -2.188529729843139648e+00 6.921587586402893066e-01 -4.489113092422485352e-01 -1.615099459886550903e-01
2.310000000000000000e+03 2.333100700378417969e+01 -1.100782012939453125e+01 -3.284401655197143555e+00 4.976354539394378662e-01 -8.360298871994018555e-01 1.568995863199234009e-01
2.311000000000000000e+03 5.979057312011718750e+01 -2.910179138183593750e+01 -5.165864229202270508e-01 1.249514460563659668e+00 2.198784053325653076e-01 2.518106400966644287e-01
2.312000000000000000e+03 6.374404907226562500e+01 -2.749954414367675781e+01 -6.861336827278137207e-01 3.735293149948120117e+00 9.147478938102722168e-01 5.931000709533691406e-01
2.313000000000000000e+03 2.973943519592285156e+01 1.623186683654785156e+01 -3.350249230861663818e-01 2.138875484466552734e+00 5.411551594734191895e-01 7.698863744735717773e-01
2.314000000000000000e+03 1.642591285705566406e+01 2.063369369506835938e+01 -2.915167212486267090e-01 3.021934509277343750e+00 8.191253542900085449e-01 1.510175704956054688e+00
2.315000000000000000e+03 6.949816131591796875e+01 -1.882122039794921875e+01 -5.799911618232727051e-01 1.025301933288574219e+01 2.901908397674560547e+00 2.601013891398906708e-02
2.316000000000000000e+03 2.812902641296386719e+01 -1.384028434753417969e+01 -3.260882377624511719e+00 4.273583292961120605e-01 -8.500571846961975098e-01 2.573699653148651123e-01
2.317000000000000000e+03 1.862406730651855469e+01 2.111230659484863281e+01 8.934860676527023315e-02 1.727146387100219727e+00 5.449485182762145996e-01 1.498623847961425781e+00
2.318000000000000000e+03 5.743392944335937500e+01 5.224320411682128906e+00 3.964590132236480713e-01 1.334955573081970215e+00 5.194243788719177246e-01 -5.939119458198547363e-01
2.319000000000000000e+03 5.635807037353515625e+01 6.788089752197265625e+00 3.684432208538055420e-01 1.366621255874633789e+00 5.205193161964416504e-01 -2.777242064476013184e-01
2.320000000000000000e+03 6.204154014587402344e+00 -3.751043319702148438e+01 -1.279532760381698608e-01 5.138720512390136719e+00 1.503230094909667969e+00 1.020407006144523621e-01
2.321000000000000000e+03 7.876538276672363281e+00 -2.112565422058105469e+01 -1.096173763275146484e+00 8.159138679504394531e+00 2.118889570236206055e+00 5.951763391494750977e-01
2.322000000000000000e+03 5.921020126342773438e+01 -6.674700260162353516e+00 -3.063935756683349609e+00 -5.546306371688842773e-01 -1.085569858551025391e+00 -1.169136881828308105e+00
2.323000000000000000e+03 7.121421813964843750e+01 -1.721490669250488281e+01 -2.686410248279571533e-01 1.159700679779052734e+01 3.398509740829467773e+00 -1.046414852142333984e+00
2.324000000000000000e+03 7.030800628662109375e+01 -1.795531272888183594e+01 -2.854562997817993164e-01 1.122307777404785156e+01 3.281286478042602539e+00 -1.434022933244705200e-01
2.325000000000000000e+03 1.487215423583984375e+01 -2.916073799133300781e+01 -4.718630909919738770e-01 2.686176776885986328e+00 6.642940640449523926e-01 -4.576841294765472412e-01
2.326000000000000000e+03 7.704144954681396484e+00 1.871439170837402344e+01 -8.944964408874511719e-02 2.991822957992553711e+00 8.707120418548583984e-01 -5.670983195304870605e-01
2.327000000000000000e+03 4.729944992065429688e+01 2.614329719543457031e+01 1.010358572006225586e+00 1.728481888771057129e+00 8.216521739959716797e-01 1.353563666343688965e-01
2.328000000000000000e+03 4.164833831787109375e+01 2.558289337158203125e+01 6.968916058540344238e-01 1.851670980453491211e+00 7.645688056945800781e-01 4.142968952655792236e-01
2.329000000000000000e+03 4.816952896118164062e+01 2.422749900817871094e+01 1.121675252914428711e+00 1.469181418418884277e+00 7.772570252418518066e-01 1.003820225596427917e-01
2.330000000000000000e+03 3.868671417236328125e+01 1.720675086975097656e+01 7.179199457168579102e-01 1.904823780059814453e+00 7.868230938911437988e-01 7.737177610397338867e-01
2.331000000000000000e+03 4.685979461669921875e+01 -1.111539077758789062e+01 -2.186247825622558594e+00 6.857804954051971436e-02 -6.353009343147277832e-01 -8.162525296211242676e-01
2.332000000000000000e+03 3.980244064331054688e+01 1.932880210876464844e+01 6.427650451660156250e-01 1.971928477287292480e+00 7.844080328941345215e-01 6.282709836959838867e-01
2.333000000000000000e+03 5.399997234344482422e+00 -1.648074531555175781e+01 1.555494189262390137e+00 7.131724357604980469e+00 2.606165647506713867e+00 2.234669923782348633e+00
2.334000000000000000e+03 4.136106109619140625e+01 -1.219900035858154297e+01 -2.198615550994873047e+00 3.016234934329986572e-01 -5.690976381301879883e-01 -6.057635545730590820e-01
2.335000000000000000e+03 4.259798049926757812e+01 -1.358468532562255859e+01 -2.352663993835449219e+00 1.767125278711318970e-01 -6.527854204177856445e-01 -6.531051993370056152e-01
2.336000000000000000e+03 5.339344787597656250e+01 2.165233230590820312e+01 9.198078513145446777e-01 2.113711118698120117e+00 9.100556969642639160e-01 -8.641999363899230957e-01
2.337000000000000000e+03 4.990107345581054688e+01 2.501495170593261719e+01 1.108776688575744629e+00 1.681096315383911133e+00 8.369619250297546387e-01 -1.644736379384994507e-01
2.338000000000000000e+03 2.869767379760742188e+01 -1.270512962341308594e+01 -2.958523750305175781e+00 5.454747080802917480e-01 -7.239147424697875977e-01 5.733140558004379272e-02
2.339000000000000000e+03 4.276895523071289062e+01 -4.115653228759765625e+01 7.386084645986557007e-02 -3.963480889797210693e-01 -9.674616903066635132e-02 -7.219208031892776489e-02
2.340000000000000000e+03 5.244630050659179688e+01 -4.135764312744140625e+01 5.580348372459411621e-01 1.259299647063016891e-02 1.711883544921875000e-01 -4.695940390229225159e-02
2.341000000000000000e+03 2.474029541015625000e+01 2.047344595193862915e-01 2.021772623062133789e+00 1.743818163871765137e+00 1.129677176475524902e+00 1.070264577865600586e+00
2.342000000000000000e+03 6.963617706298828125e+01 -2.063543510437011719e+01 -9.554998278617858887e-01 9.368501663208007812e+00 2.523900508880615234e+00 -6.581225246191024780e-02
2.343000000000000000e+03 7.159860229492187500e+01 -1.966264915466308594e+01 -6.273381114006042480e-01 1.020858478546142578e+01 2.874373912811279297e+00 -8.702016472816467285e-01
2.344000000000000000e+03 7.226717376708984375e+01 -1.662766838073730469e+01 2.318718433380126953e-01 1.090230560302734375e+01 3.340253114700317383e+00 -1.448568582534790039e+00
2.345000000000000000e+03 6.076955032348632812e+01 1.344091320037841797e+01 7.141990661621093750e-01 3.340287923812866211e+00 1.216346144676208496e+00 -1.147052288055419922e+00
2.346000000000000000e+03 7.198770141601562500e+01 4.093767166137695312e+01 1.117008253931999207e-01 4.939465045928955078e+00 1.515349745750427246e+00 -3.665399178862571716e-02
2.347000000000000000e+03 2.964460372924804688e+01 1.930837249755859375e+01 -1.523418575525283813e-01 1.809645295143127441e+00 4.971910119056701660e-01 3.778076171875000000e-01
2.348000000000000000e+03 2.677591896057128906e+01 1.955801200866699219e+01 -1.460661143064498901e-01 1.348508358001708984e+00 3.607326745986938477e-01 2.068867534399032593e-01
2.349000000000000000e+03 2.308933258056640625e+01 1.968646621704101562e+01 9.150461852550506592e-02 5.411965250968933105e-01 1.898103505373001099e-01 4.588899612426757812e-01
2.350000000000000000e+03 4.784401893615722656e+00 2.845666646957397461e+00 4.108217358589172363e-01 3.697039783000946045e-01 2.341577261686325073e-01 6.822396814823150635e-02
2.351000000000000000e+03 5.117394924163818359e+00 2.607342720031738281e+00 3.961017131805419922e-01 3.827207386493682861e-01 2.336467355489730835e-01 2.930055558681488037e-02
2.352000000000000000e+03 5.070664405822753906e+00 -2.848277330398559570e+00 9.828665852546691895e-01 1.391408085823059082e+00 7.122824192047119141e-01 1.356638193130493164e+00
2.353000000000000000e+03 8.600172042846679688e+00 -2.250596046447753906e+00 3.372346878051757812e+00 6.234117507934570312e+00 2.881939411163330078e+00 6.058770179748535156e+00
2.354000000000000000e+03 9.239520072937011719e+00 2.399665832519531250e+00 8.936633467674255371e-01 7.787801742553710938e+00 2.604439496994018555e+00 -3.699323892593383789e+00
2.355000000000000000e+03 6.288423538208007812e+00 -2.713362693786621094e+00 1.780754208564758301e+00 2.078992366790771484e+00 1.157923936843872070e+00 2.645203113555908203e+00
2.356000000000000000e+03 8.155321121215820312e+00 -2.093784570693969727e+00 3.770230054855346680e+00 4.270787239074707031e+00 2.412305116653442383e+00 5.239863872528076172e+00
2.357000000000000000e+03 7.815645217895507812e+00 2.531723976135253906e+00 1.401443004608154297e+00 2.745555400848388672e+00 1.244099497795104980e+00 -2.153280496597290039e+00
2.358000000000000000e+03 8.491035461425781250e+00 -2.077121019363403320e+00 3.956117868423461914e+00 5.518304347991943359e+00 2.842326641082763672e+00 5.932541370391845703e+00
2.359000000000000000e+03 3.855829715728759766e+00 6.494353294372558594e+00 2.513826191425323486e-01 8.993218541145324707e-01 3.452113568782806396e-01 -1.660350412130355835e-01
2.360000000000000000e+03 9.428514480590820312e+00 -2.744777202606201172e+00 1.640215277671813965e+00 1.010043334960937500e+01 3.522194623947143555e+00 5.936510086059570312e+00
2.361000000000000000e+03 9.446820259094238281e+00 -3.095623254776000977e+00 1.166432380676269531e+00 9.745072364807128906e+00 3.273451566696166992e+00 5.588860988616943359e+00
2.362000000000000000e+03 1.219387054443359375e+01 6.496366262435913086e-01 8.139748573303222656e+00 9.846278190612792969e+00 5.395808219909667969e+00 3.219516754150390625e+00
2.363000000000000000e+03 1.208474445343017578e+01 -9.486574530601501465e-01 8.577618598937988281e+00 9.996762275695800781e+00 5.572314262390136719e+00 -2.820136845111846924e-01
2.364000000000000000e+03 1.263665962219238281e+01 3.987303376197814941e-01 8.238015174865722656e+00 8.051723480224609375e+00 4.886921405792236328e+00 2.545716047286987305e+00
2.365000000000000000e+03 1.633573150634765625e+01 3.255930662155151367e+00 2.073710441589355469e+00 5.125713348388671875e-01 7.758845090866088867e-01 1.571543574333190918e+00
2.366000000000000000e+03 1.260377788543701172e+01 -1.088879227638244629e+00 7.534132480621337891e+00 8.116294860839843750e+00 4.695128440856933594e+00 -9.628096222877502441e-02
2.367000000000000000e+03 1.067116165161132812e+01 2.572217941284179688e+00 -3.596720695495605469e-01 1.229746627807617188e+01 3.581338405609130859e+00 -5.797205567359924316e-01
2.368000000000000000e+03 9.740015029907226562e+00 2.698456287384033203e+00 -6.547473371028900146e-02 9.712578773498535156e+00 2.894131183624267578e+00 -2.846923351287841797e+00
2.369000000000000000e+03 1.191131973266601562e+01 1.483945965766906738e+00 4.377378463745117188e+00 1.176555824279785156e+01 4.842881202697753906e+00 3.526651382446289062e+00
2.370000000000000000e+03 4.117829799652099609e+00 -2.551001548767089844e+00 5.948007702827453613e-01 7.934554219245910645e-01 4.164768755435943604e-01 5.771594643592834473e-01
2.371000000000000000e+03 1.177995204925537109e+01 -1.934655427932739258e+00 4.685894012451171875e+00 1.157828998565673828e+01 4.879255294799804688e+00 -1.480204705148935318e-02
2.372000000000000000e+03 1.444008541107177734e+01 4.344424724578857422e+00 -6.269467473030090332e-01 4.874058246612548828e+00 1.274133563041687012e+00 1.332458615303039551e+00
2.373000000000000000e+03 3.596807956695556641e+00 -2.697418451309204102e+00 4.251861870288848877e-01 7.034634947776794434e-01 3.385949134826660156e-01 3.500239849090576172e-01
2.374000000000000000e+03 2.067722558975219727e+00 -2.922802925109863281e+00 1.823384016752243042e-01 1.256617903709411621e-01 9.240005910396575928e-02 -6.205810233950614929e-02
2.375000000000000000e+03 1.991561770439147949e+00 -3.648043394088745117e+00 1.117193549871444702e-01 2.615281939506530762e-01 1.119742691516876221e-01 -5.995815992355346680e-02
2.376000000000000000e+03 3.212776422500610352e+00 -5.520497798919677734e+00 -1.713587194681167603e-01 1.868479251861572266e+00 5.091361403465270996e-01 5.286721587181091309e-01
2.377000000000000000e+03 2.912358045578002930e+00 2.819461584091186523e+00 8.709515631198883057e-02 -5.637286975979804993e-02 9.216685779392719269e-03 3.967289030551910400e-01
2.378000000000000000e+03 2.613293170928955078e+00 2.589550256729125977e+00 1.579844765365123749e-02 -9.916797280311584473e-02 -2.501085586845874786e-02 4.160073995590209961e-01
2.379000000000000000e+03 1.505807876586914062e+01 3.580871105194091797e+00 9.426547288894653320e-01 3.497374057769775391e+00 1.332008600234985352e+00 1.380947113037109375e+00
2.380000000000000000e+03 4.265589237213134766e+00 -8.265157699584960938e+00 -9.919510483741760254e-01 4.398817539215087891e+00 1.022059917449951172e+00 1.476008147001266479e-01
2.381000000000000000e+03 5.650606632232666016e+00 -3.412161827087402344e+00 1.030823945999145508e+00 2.350441932678222656e+00 1.014379739761352539e+00 2.230275869369506836e+00
2.382000000000000000e+03 4.655826568603515625e+00 -1.032631778717041016e+01 -6.461179256439208984e-01 5.574598789215087891e+00 1.478544235229492188e+00 -7.079018354415893555e-01
2.383000000000000000e+03 1.384574127197265625e+01 5.083024978637695312e+00 -1.745869278907775879e+00 6.293527603149414062e+00 1.364297389984130859e+00 1.119456648826599121e+00
2.384000000000000000e+03 1.866398215293884277e+00 2.218144893646240234e+00 -4.498752951622009277e-02 -1.843655407428741455e-01 -6.880591809749603271e-02 3.824289739131927490e-01
2.385000000000000000e+03 2.623014688491821289e+00 -3.574509382247924805e+00 2.530675530433654785e-01 6.353151798248291016e-01 2.665148079395294189e-01 2.129666954278945923e-01
2.386000000000000000e+03 1.685601425170898438e+01 2.431732177734375000e+00 3.676393747329711914e+00 -2.893153727054595947e-01 1.016123533248901367e+00 1.924207806587219238e+00
2.387000000000000000e+03 1.651701545715332031e+01 1.296579241752624512e+00 4.793256282806396484e+00 5.079174041748046875e-01 1.590352177619934082e+00 1.917396783828735352e+00
2.388000000000000000e+03 1.132394790649414062e+01 2.138492345809936523e+00 1.100609183311462402e+00 1.290747642517089844e+01 4.202425956726074219e+00 1.726605653762817383e+00
2.389000000000000000e+03 1.518634986877441406e+01 -8.940783500671386719e+00 -3.031666517257690430e+00 5.945169329643249512e-01 -7.311448454856872559e-01 1.210044980049133301e+00
2.390000000000000000e+03 1.169018650054931641e+01 8.545686721801757812e+00 -6.575376987457275391e-01 6.939002513885498047e+00 1.884439349174499512e+00 1.306487798690795898e+00
2.391000000000000000e+03 7.072682189941406250e+01 -5.746235847473144531e+00 -5.822442770004272461e-01 1.262884712219238281e+01 3.613980770111083984e+00 6.437193155288696289e-01
2.392000000000000000e+03 9.351838111877441406e+00 -9.466130256652832031e+00 -5.020892143249511719e+00 1.076550865173339844e+01 1.723385095596313477e+00 4.586566448211669922e+00
2.393000000000000000e+03 4.407521724700927734e+00 -9.237056732177734375e+00 -9.670957922935485840e-01 5.227519989013671875e+00 1.278127193450927734e+00 -1.944995820522308350e-01
2.394000000000000000e+03 1.296816253662109375e+01 9.047487258911132812e+00 -1.634584963321685791e-01 7.446990013122558594e+00 2.185059309005737305e+00 1.402359604835510254e+00
2.395000000000000000e+03 6.905947875976562500e+01 -1.098080039024353027e+00 -1.609211325645446777e+00 7.838669776916503906e+00 1.868837594985961914e+00 -2.040170907974243164e+00
2.396000000000000000e+03 6.558290100097656250e+01 -2.527237176895141602e+00 -9.531628489494323730e-01 4.189036846160888672e+00 9.707621932029724121e-01 -3.497860908508300781e+00
2.397000000000000000e+03 1.011072826385498047e+01 -9.655767440795898438e+00 -4.662223339080810547e+00 9.206152915954589844e+00 1.363178849220275879e+00 6.160562038421630859e+00
2.398000000000000000e+03 3.047377395629882812e+01 1.117219638824462891e+01 9.568448066711425781e-01 2.119710683822631836e+00 9.229666590690612793e-01 1.730455994606018066e+00
2.399000000000000000e+03 3.016040039062500000e+01 1.251563072204589844e+01 4.009436666965484619e-01 2.416315317153930664e+00 8.451777100563049316e-01 1.630182981491088867e+00
2.400000000000000000e+03 7.366112518310546875e+01 -8.859082221984863281e+00 1.705042243003845215e+00 9.959913253784179688e+00 3.499486684799194336e+00 9.877049922943115234e-01
2.401000000000000000e+03 7.300585174560546875e+01 -1.115149211883544922e+01 2.635136365890502930e+00 1.088240432739257812e+01 4.055262088775634766e+00 -4.675577282905578613e-01
2.402000000000000000e+03 4.802088260650634766e+00 7.208637714385986328e+00 2.259378284215927124e-01 1.637927889823913574e+00 5.591597557067871094e-01 -3.323430716991424561e-01
2.403000000000000000e+03 4.291001796722412109e+00 8.092046737670898438e+00 1.614048928022384644e-01 1.383799195289611816e+00 4.635612368583679199e-01 -2.648067772388458252e-01
2.404000000000000000e+03 4.017872619628906250e+01 -1.251546478271484375e+01 -2.247531175613403320e+00 3.297791779041290283e-01 -5.753256082534790039e-01 -5.664054155349731445e-01
2.405000000000000000e+03 6.529736995697021484e+00 1.287321281433105469e+01 2.862614989280700684e-01 2.716203212738037109e+00 9.007394313812255859e-01 -3.261470794677734375e-01
2.406000000000000000e+03 1.049344730377197266e+01 1.637180900573730469e+01 2.715332508087158203e-01 4.382826328277587891e+00 1.396307826042175293e+00 -3.205374181270599365e-01
2.407000000000000000e+03 8.130208969116210938e+00 1.400544452667236328e+01 5.224769711494445801e-01 3.481322765350341797e+00 1.201139926910400391e+00 -3.205264508724212646e-01
2.408000000000000000e+03 4.740184402465820312e+01 -9.591294288635253906e+00 -1.991593599319458008e+00 1.017281115055084229e-01 -5.669596195220947266e-01 -7.471079230308532715e-01
2.409000000000000000e+03 4.908666610717773438e+01 -1.010115909576416016e+01 -2.195849418640136719e+00 -1.699503138661384583e-02 -6.638533473014831543e-01 -8.582220077514648438e-01
2.410000000000000000e+03 1.121325588226318359e+01 1.040819644927978516e+01 4.830936193466186523e-01 5.982981204986572266e+00 1.939822435379028320e+00 9.776908755302429199e-01
2.411000000000000000e+03 1.217073345184326172e+01 7.338706970214843750e+00 -1.759539365768432617e+00 7.441254615783691406e+00 1.704514622688293457e+00 1.391643166542053223e+00
2.412000000000000000e+03 2.736102104187011719e+00 4.736547946929931641e+00 2.575190067291259766e-01 3.667559102177619934e-02 8.825838565826416016e-02 1.759958267211914062e-01
2.413000000000000000e+03 7.158708190917968750e+01 -2.237315940856933594e+01 -9.837779998779296875e-01 9.271374702453613281e+00 2.486279010772705078e+00 -7.816441059112548828e-01
2.414000000000000000e+03 5.285940170288085938e+00 8.433058738708496094e+00 1.179210096597671509e-01 2.119683504104614258e+00 6.712813973426818848e-01 -3.140133023262023926e-01
2.415000000000000000e+03 5.234961509704589844e+00 1.060831260681152344e+01 1.489469408988952637e-01 2.086928367614746094e+00 6.707625985145568848e-01 -2.896381318569183350e-01
2.416000000000000000e+03 5.500660419464111328e+00 -1.008931732177734375e+01 -1.348525524139404297e+00 7.824652671813964844e+00 1.942838191986083984e+00 -3.882167339324951172e-01
2.417000000000000000e+03 1.009866237640380859e+01 9.877141952514648438e+00 1.043315529823303223e-01 5.463536262512207031e+00 1.670360445976257324e+00 6.195190548896789551e-01
2.418000000000000000e+03 3.094044303894042969e+01 -1.345632362365722656e+01 -2.848199367523193359e+00 5.076183080673217773e-01 -7.021743059158325195e-01 -4.198610037565231323e-02
2.419000000000000000e+03 2.756403732299804688e+01 -8.764212608337402344e+00 -1.762011170387268066e+00 7.604067921638488770e-01 -3.004813194274902344e-01 -2.788847684860229492e-01
2.420000000000000000e+03 1.851782798767089844e+01 9.087466597557067871e-01 4.378650665283203125e+00 -1.977291554212570190e-01 1.254276394844055176e+00 2.578064918518066406e+00
2.421000000000000000e+03 1.729595756530761719e+01 1.579802751541137695e+00 4.444345474243164062e+00 -2.696705460548400879e-01 1.252402544021606445e+00 2.311346292495727539e+00
2.422000000000000000e+03 4.266288757324218750e+01 -1.165594863891601562e+01 -2.118385076522827148e+00 2.544353902339935303e-01 -5.591849088668823242e-01 -6.549428105354309082e-01
2.423000000000000000e+03 3.070440483093261719e+01 7.175663471221923828e+00 2.194564580917358398e+00 1.708031773567199707e+00 1.170778870582580566e+00 1.400787830352783203e+00
2.424000000000000000e+03 3.129652214050292969e+01 -1.253243446350097656e+01 -2.651447296142578125e+00 5.651701092720031738e-01 -6.258831620216369629e-01 -1.575436443090438843e-01
2.425000000000000000e+03 3.098104858398437500e+01 9.933106422424316406e+00 1.380131244659423828e+00 2.005528450012207031e+00 1.015697956085205078e+00 1.643555641174316406e+00
2.426000000000000000e+03 1.326500606536865234e+01 1.944503784179687500e+01 -4.382956027984619141e-01 4.188865661621093750e+00 1.125171065330505371e+00 5.175042152404785156e-01
2.427000000000000000e+03 8.630141258239746094e+00 -9.206707954406738281e+00 -4.393115043640136719e+00 1.118121814727783203e+01 2.036431074142456055e+00 3.955650329589843750e+00
2.428000000000000000e+03 3.669574737548828125e+01 1.295043563842773438e+01 8.074298501014709473e-01 1.715678215026855469e+00 7.569324374198913574e-01 1.082520723342895508e+00
2.429000000000000000e+03 6.264355659484863281e+00 -1.501977252960205078e+01 3.102360248565673828e+00 9.548747062683105469e+00 3.795332431793212891e+00 1.568161964416503906e+00
2.430000000000000000e+03 5.355066299438476562e+01 -6.132871627807617188e+00 -1.837292432785034180e+00 -9.184199571609497070e-02 -5.787402987480163574e-01 -6.514309644699096680e-01
2.431000000000000000e+03 4.951079559326171875e+01 -8.516576766967773438e+00 -1.989679217338562012e+00 3.138884156942367554e-02 -5.874871015548706055e-01 -7.456533908843994141e-01
2.432000000000000000e+03 1.795319747924804688e+01 -8.589251518249511719e+00 -2.354162454605102539e+00 3.090427517890930176e-01 -6.135359406471252441e-01 5.879921093583106995e-02
2.433000000000000000e+03 2.531098556518554688e+01 -1.231842327117919922e+01 -3.387760877609252930e+00 5.006008744239807129e-01 -8.661480545997619629e-01 2.772114574909210205e-01
2.434000000000000000e+03 2.421566581726074219e+01 -7.987991333007812500e+00 -1.423265457153320312e+00 6.668939590454101562e-01 -2.269114553928375244e-01 -1.833695322275161743e-01
2.435000000000000000e+03 1.450319576263427734e+01 -8.454413414001464844e+00 -2.199636459350585938e+00 1.083831071853637695e+00 -3.347415924072265625e-01 1.612021923065185547e+00
2.436000000000000000e+03 3.914478302001953125e+01 -1.251975536346435547e+01 -2.240062952041625977e+00 3.880247771739959717e-01 -5.556114315986633301e-01 -5.330404639244079590e-01
2.437000000000000000e+03 3.908320617675781250e+01 -1.362180233001708984e+01 -2.416762590408325195e+00 3.456228971481323242e-01 -6.213419437408447266e-01 -5.106098651885986328e-01
2.438000000000000000e+03 5.275836563110351562e+01 1.378299117088317871e+00 2.747086584568023682e-01 1.573649346828460693e-01 1.296220868825912476e-01 -3.204198181629180908e-01
2.439000000000000000e+03 5.195773696899414062e+01 2.439608097076416016e+00 5.067423582077026367e-01 1.642934381961822510e-01 2.013107389211654663e-01 -2.790406942367553711e-01
2.440000000000000000e+03 5.126741409301757812e+01 -8.952034950256347656e+00 -2.235079765319824219e+00 -9.560908377170562744e-02 -6.992066502571105957e-01 -8.693313002586364746e-01
2.441000000000000000e+03 6.606977844238281250e+01 -2.678020858764648438e+01 -8.596339821815490723e-01 5.484930038452148438e+00 1.387588858604431152e+00 6.026245355606079102e-01
2.442000000000000000e+03 2.034218406677246094e+01 -9.177896499633789062e+00 -2.559364795684814453e+00 3.472283780574798584e-01 -6.636409163475036621e-01 -4.828981682658195496e-02
2.443000000000000000e+03 2.689733314514160156e+01 3.089082241058349609e+00 2.640239238739013672e+00 2.365668296813964844e+00 1.501772284507751465e+00 9.243195652961730957e-01
2.444000000000000000e+03 9.251036643981933594e+00 -2.692369842529296875e+01 -9.190869927406311035e-01 5.452669143676757812e+00 1.360074639320373535e+00 5.047540739178657532e-02
2.445000000000000000e+03 1.223458480834960938e+01 -2.465366363525390625e+01 -6.761202216148376465e-01 4.456405639648437500e+00 1.134085655212402344e+00 -9.251673221588134766e-01
2.446000000000000000e+03 4.314009475708007812e+01 5.348624706268310547e+00 9.482365846633911133e-01 4.623929262161254883e-01 4.231888651847839355e-01 -1.474557071924209595e-01
2.447000000000000000e+03 6.512656211853027344e+00 -2.188011550903320312e+01 -9.399125576019287109e-01 7.299496650695800781e+00 1.907875180244445801e+00 1.337156176567077637e+00
2.448000000000000000e+03 7.005128479003906250e+01 -2.781644630432128906e+01 -7.760069370269775391e-01 7.641929626464843750e+00 2.059776782989501953e+00 8.386684209108352661e-02
2.449000000000000000e+03 7.057823944091796875e+01 -3.405026626586914062e+01 -1.946455538272857666e-01 7.141795635223388672e+00 2.084145069122314453e+00 1.238373667001724243e-01
2.450000000000000000e+03 5.833387374877929688e+00 -1.886934852600097656e+01 1.627311408519744873e-01 7.563483238220214844e+00 2.317864179611206055e+00 2.153374671936035156e+00
2.451000000000000000e+03 8.872230529785156250e+00 -2.853182983398437500e+01 -8.231018185615539551e-01 5.118021011352539062e+00 1.288475871086120605e+00 1.911179721355438232e-01
2.452000000000000000e+03 7.229097747802734375e+01 -7.929952144622802734e+00 1.729403495788574219e+00 1.121479511260986328e+01 3.883259534835815430e+00 1.150430798530578613e+00
2.453000000000000000e+03 7.316105651855468750e+01 -5.306051254272460938e+00 -3.163826167583465576e-01 1.052096271514892578e+01 3.061373949050903320e+00 1.283211469650268555e+00
2.454000000000000000e+03 7.331536865234375000e+01 -3.469067382812500000e+01 -1.594212353229522705e-01 8.461041450500488281e+00 2.490485906600952148e+00 3.836986795067787170e-02
2.455000000000000000e+03 7.411239624023437500e+01 -2.311761283874511719e+01 -6.015774011611938477e-01 9.439657211303710938e+00 2.651423931121826172e+00 -1.001692056655883789e+00
2.456000000000000000e+03 7.209576416015625000e+01 -2.047017288208007812e+01 -9.048722982406616211e-01 9.930399894714355469e+00 2.707658290863037109e+00 -1.095745682716369629e+00
2.457000000000000000e+03 7.617717266082763672e+00 2.825954818725585938e+01 -2.236310690641403198e-01 2.331886291503906250e+00 6.324765682220458984e-01 -9.634578973054885864e-02
2.458000000000000000e+03 9.311926841735839844e+00 3.249108123779296875e+01 -1.134855970740318298e-01 2.214103221893310547e+00 6.301853060722351074e-01 5.515261366963386536e-02
2.459000000000000000e+03 1.217789173126220703e+01 -3.098346519470214844e+01 -5.270909070968627930e-01 3.773930311203002930e+00 9.740518331527709961e-01 -3.003458082675933838e-01
2.460000000000000000e+03 1.055793571472167969e+01 -2.895097351074218750e+01 -7.186795473098754883e-01 4.615110874176025391e+00 1.168929457664489746e+00 -1.869884282350540161e-01
2.461000000000000000e+03 7.134260559082031250e+01 1.652327537536621094e+01 1.997313648462295532e-01 5.589105129241943359e+00 1.736650943756103516e+00 -8.877714276313781738e-01
2.462000000000000000e+03 7.260910797119140625e+01 2.470525550842285156e+01 1.489672064781188965e-01 5.375033855438232422e+00 1.657200336456298828e+00 -4.987030625343322754e-01
2.463000000000000000e+03 7.052703094482421875e+01 2.446466827392578125e+01 2.243844419717788696e-01 5.080067634582519531e+00 1.591335654258728027e+00 -5.954820513725280762e-01
2.464000000000000000e+03 2.799957847595214844e+01 3.577592611312866211e+00 2.656741380691528320e+00 2.045162677764892578e+00 1.410571217536926270e+00 8.118818998336791992e-01
2.465000000000000000e+03 7.238192749023437500e+01 -2.772820281982421875e+01 -6.488074064254760742e-01 8.533314704895019531e+00 2.365352153778076172e+00 -2.749378085136413574e-01
2.466000000000000000e+03 7.123973846435546875e+01 1.035095405578613281e+01 -2.042820490896701813e-02 6.002383232116699219e+00 1.794586420059204102e+00 -1.138697862625122070e+00
2.467000000000000000e+03 7.299067687988281250e+01 8.968607902526855469e+00 -1.121949926018714905e-01 6.655807495117187500e+00 1.963083863258361816e+00 -9.330703020095825195e-01
2.468000000000000000e+03 7.462541198730468750e+01 -1.667650413513183594e+01 2.147158980369567871e-01 9.580693244934082031e+00 2.938622713088989258e+00 -1.813936829566955566e+00
2.469000000000000000e+03 7.276055908203125000e+01 -1.974524879455566406e+01 -5.657253861427307129e-01 9.973811149597167969e+00 2.822425842285156250e+00 -1.179059982299804688e+00
2.470000000000000000e+03 7.466089630126953125e+01 -1.897133636474609375e+01 -3.458862602710723877e-01 9.577033996582031250e+00 2.769344329833984375e+00 -1.673501372337341309e+00
2.471000000000000000e+03 7.467961120605468750e+01 -8.700182914733886719e+00 1.342194914817810059e+00 9.322662353515625000e+00 3.199457168579101562e+00 7.875139713287353516e-01
2.472000000000000000e+03 7.228057861328125000e+01 4.753880500793457031e+00 -5.680646896362304688e-01 7.169031143188476562e+00 1.980289936065673828e+00 -9.701692461967468262e-01
2.473000000000000000e+03 7.495268249511718750e+01 -9.734593391418457031e+00 1.278568148612976074e+00 9.116893768310546875e+00 3.118638515472412109e+00 5.914385914802551270e-01
2.474000000000000000e+03 7.393634033203125000e+01 -1.001028919219970703e+01 1.976605057716369629e+00 9.880102157592773438e+00 3.557012319564819336e+00 1.301443427801132202e-01
2.475000000000000000e+03 7.484434509277343750e+01 -3.454690933227539062e+00 -4.831154048442840576e-01 9.060673713684082031e+00 2.573267459869384766e+00 1.098236560821533203e+00
2.476000000000000000e+03 7.350499725341796875e+01 -1.353085708618164062e+01 1.777406215667724609e+00 1.075030326843261719e+01 3.758312940597534180e+00 -1.376869797706604004e+00
2.477000000000000000e+03 7.262328338623046875e+01 -2.712637662887573242e+00 -1.294291973114013672e+00 9.847678184509277344e+00 2.566015958786010742e+00 4.400403797626495361e-01
2.478000000000000000e+03 7.380307006835937500e+01 -1.659284353256225586e+00 -1.006928563117980957e+00 9.088978767395019531e+00 2.424614906311035156e+00 5.204104185104370117e-01
2.479000000000000000e+03 7.244173431396484375e+01 5.727520942687988281e+00 -4.633560478687286377e-01 6.986191749572753906e+00 1.956850647926330566e+00 -9.672508239746093750e-01
2.480000000000000000e+03 7.356812286376953125e+01 -1.995554351806640625e+01 -6.072804927825927734e-01 9.766585350036621094e+00 2.747791290283203125e+00 -1.489822626113891602e+00
2.481000000000000000e+03 8.664901733398437500e+00 1.961943817138671875e+01 -2.445747703313827515e-01 3.269153118133544922e+00 9.073735475540161133e-01 -4.654757678508758545e-01
2.482000000000000000e+03 7.018424987792968750e+00 2.307320785522460938e+01 -2.853760421276092529e-01 2.549858570098876953e+00 6.793447732925415039e-01 -3.827264904975891113e-01
2.483000000000000000e+03 7.266859436035156250e+01 1.543605232238769531e+01 1.356303393840789795e-01 5.936378002166748047e+00 1.821602582931518555e+00 -8.388439416885375977e-01
2.484000000000000000e+03 6.893488311767578125e+01 -2.469973182678222656e+01 -1.057701349258422852e+00 7.649394512176513672e+00 1.977507948875427246e+00 1.809893548488616943e-01
2.485000000000000000e+03 6.239151954650878906e+00 2.647003746032714844e+01 -2.108179628849029541e-01 2.262227535247802734e+00 6.154229044914245605e-01 -2.261689901351928711e-01
2.486000000000000000e+03 6.811547088623046875e+01 -2.602409553527832031e+01 -9.783378839492797852e-01 6.968853950500488281e+00 1.797154784202575684e+00 3.434845209121704102e-01
2.487000000000000000e+03 2.931455802917480469e+01 1.058911800384521484e+01 9.838487505912780762e-01 2.551878213882446289e+00 1.060718059539794922e+00 1.727852344512939453e+00
2.488000000000000000e+03 5.713426971435546875e+01 -4.863343715667724609e+00 -1.770217776298522949e+00 -2.091791629791259766e-01 -5.938190817832946777e-01 -7.374626398086547852e-01
2.489000000000000000e+03 5.856698513031005859e+00 1.790909767150878906e+01 -3.322902601212263107e-03 2.304187774658203125e+00 6.902594566345214844e-01 -6.246547698974609375e-01
2.490000000000000000e+03 5.549113750457763672e+00 1.606144332885742188e+01 1.144708916544914246e-01 2.164733409881591797e+00 6.837612986564636230e-01 -5.936723947525024414e-01
2.491000000000000000e+03 5.392463207244873047e+00 1.497814369201660156e+01 1.790125519037246704e-01 2.080145597457885742e+00 6.777474284172058105e-01 -5.076054334640502930e-01
2.492000000000000000e+03 5.820808410644531250e+00 1.913338470458984375e+01 -7.630653679370880127e-02 2.292516231536865234e+00 6.648629307746887207e-01 -6.125664114952087402e-01
2.493000000000000000e+03 6.563657760620117188e+00 1.377792167663574219e+01 3.222473561763763428e-01 2.661904811859130859e+00 8.952456116676330566e-01 -4.090239405632019043e-01
2.494000000000000000e+03 7.181843757629394531e+00 1.467997455596923828e+01 3.235223293304443359e-01 2.943345546722412109e+00 9.800603389739990234e-01 -4.749540090560913086e-01
2.495000000000000000e+03 3.432708358764648438e+01 -1.372735023498535156e+01 -2.622535228729248047e+00 4.521310925483703613e-01 -6.511211991310119629e-01 -2.575822770595550537e-01
2.496000000000000000e+03 7.646581172943115234e+00 2.660014343261718750e+01 -2.694268226623535156e-01 2.429605007171630859e+00 6.480534672737121582e-01 -1.554571241140365601e-01
2.497000000000000000e+03 5.938983535766601562e+01 -2.671881437301635742e+00 -8.399842381477355957e-01 9.342874586582183838e-02 -2.239666432142257690e-01 -1.022245287895202637e+00
2.498000000000000000e+03 5.858154678344726562e+01 -1.984709382057189941e+00 -5.439024567604064941e-01 1.191571950912475586e-01 -1.274235695600509644e-01 -9.105376601219177246e-01
2.499000000000000000e+03 5.766416549682617188e+01 6.460422515869140625e+00 3.794660270214080811e-01 1.702079057693481445e+00 6.244634985923767090e-01 -6.062570214271545410e-01
2.500000000000000000e+03 1.050645732879638672e+01 1.963389778137207031e+01 -3.548774123191833496e-01 3.786457538604736328e+00 1.029474020004272461e+00 -2.176931053400039673e-01
2.501000000000000000e+03 1.980874061584472656e+01 -1.058052420616149902e+00 3.532219409942626953e+00 3.244566023349761963e-01 1.157002806663513184e+00 1.719454884529113770e+00
2.502000000000000000e+03 2.191787338256835938e+01 -1.067341864109039307e-01 2.792692661285400391e+00 1.057960748672485352e+00 1.155196070671081543e+00 1.943813323974609375e+00
2.503000000000000000e+03 8.040483474731445312e+00 -2.211066436767578125e+01 -1.075211405754089355e+00 7.555393695831298828e+00 1.944054722785949707e+00 5.207117199897766113e-01
2.504000000000000000e+03 1.019141387939453125e+01 1.190443706512451172e+01 6.714328527450561523e-01 4.966990947723388672e+00 1.691527128219604492e+00 3.503401577472686768e-01
2.505000000000000000e+03 5.802261352539062500e+01 7.694678783416748047e+00 2.891639769077301025e-01 2.084645032882690430e+00 7.121427059173583984e-01 -6.760903000831604004e-01
2.506000000000000000e+03 6.688295745849609375e+01 -2.530088424682617188e+01 -9.548220038414001465e-01 6.213411331176757812e+00 1.577576875686645508e+00 5.923121571540832520e-01
2.507000000000000000e+03 7.021801757812500000e+01 -2.560508346557617188e+01 -9.849194884300231934e-01 8.101523399353027344e+00 2.134981155395507812e+00 -4.608299583196640015e-02
2.508000000000000000e+03 3.497721481323242188e+01 1.257260227203369141e+01 8.019701838493347168e-01 1.761111021041870117e+00 7.689243555068969727e-01 1.234351158142089844e+00
2.509000000000000000e+03 3.876895141601562500e+01 1.255075740814208984e+01 7.820007801055908203e-01 1.727331280708312988e+00 7.527996301651000977e-01 9.059067368507385254e-01
2.510000000000000000e+03 4.807787418365478516e+00 9.905818939208984375e+00 7.529365271329879761e-02 1.816579103469848633e+00 5.675618052482604980e-01 -2.550712227821350098e-01
2.511000000000000000e+03 7.600064754486083984e+00 9.448659896850585938e+00 1.605206914246082306e-02 3.809943914413452148e+00 1.147798776626586914e+00 -7.914532721042633057e-02
2.512000000000000000e+03 4.682694244384765625e+01 1.401962876319885254e+00 3.686532974243164062e-01 2.732086181640625000e-01 1.925585716962814331e-01 -1.911295205354690552e-01
2.513000000000000000e+03 4.341181182861328125e+01 -1.275003910064697266e+01 -2.284862995147705078e+00 1.743858754634857178e-01 -6.331431269645690918e-01 -6.965730190277099609e-01
2.514000000000000000e+03 4.328158187866210938e+01 -9.809648513793945312e+00 -1.835591197013854980e+00 2.814781367778778076e-01 -4.662339389324188232e-01 -6.310679316520690918e-01
2.515000000000000000e+03 5.373784255981445312e+01 2.626791954040527344e+01 8.966886997222900391e-01 2.405126810073852539e+00 9.905446767807006836e-01 -5.033609271049499512e-01
2.516000000000000000e+03 4.912371444702148438e+01 2.719354629516601562e+01 1.014429688453674316e+00 1.898673892021179199e+00 8.739310503005981445e-01 -6.756843626499176025e-02
2.517000000000000000e+03 4.522538375854492188e+01 -1.322988700866699219e+01 -2.367201089859008789e+00 3.408565372228622437e-02 -6.999346613883972168e-01 -8.129884600639343262e-01
2.518000000000000000e+03 4.044852447509765625e+01 6.118413925170898438e+00 9.426837563514709473e-01 7.562966942787170410e-01 5.096941590309143066e-01 9.818457812070846558e-02
2.519000000000000000e+03 4.312154006958007812e+01 3.552219390869140625e+00 7.950217723846435547e-01 3.960705399513244629e-01 3.573276996612548828e-01 -1.043180525302886963e-01
2.520000000000000000e+03 3.715320968627929688e+01 1.002814674377441406e+01 9.870572686195373535e-01 1.418456315994262695e+00 7.216540575027465820e-01 9.132027626037597656e-01
2.521000000000000000e+03 2.531542205810546875e+01 -1.060276889801025391e+01 -2.737957477569580078e+00 6.327628493309020996e-01 -6.315584182739257812e-01 -3.346529975533485413e-02
2.522000000000000000e+03 2.635268783569335938e+01 -1.146163368225097656e+01 -2.934052944183349609e+00 6.127256751060485840e-01 -6.963981986045837402e-01 6.292118132114410400e-02
2.523000000000000000e+03 3.594441604614257812e+01 1.726240730285644531e+01 5.142012834548950195e-01 1.920988678932189941e+00 7.305569648742675781e-01 8.418540954589843750e-01
2.524000000000000000e+03 3.797576904296875000e+01 -1.243987464904785156e+01 -2.262019634246826172e+00 4.207945168018341064e-01 -5.523675084114074707e-01 -4.952436685562133789e-01
2.525000000000000000e+03 3.488010025024414062e+01 -9.574166297912597656e+00 -1.765007972717285156e+00 6.111463308334350586e-01 -3.461585044860839844e-01 -4.654873311519622803e-01
2.526000000000000000e+03 5.895632171630859375e+01 1.011248970031738281e+01 3.773425221443176270e-01 2.746517658233642578e+00 9.371580481529235840e-01 -9.725216627120971680e-01
2.527000000000000000e+03 6.225473785400390625e+01 9.848389625549316406e+00 3.867233991622924805e-01 3.401138782501220703e+00 1.136358618736267090e+00 -1.337146043777465820e+00
2.528000000000000000e+03 2.298828697204589844e+01 -9.518851280212402344e+00 -2.464579820632934570e+00 5.498338937759399414e-01 -5.744237303733825684e-01 -9.549713879823684692e-02
2.529000000000000000e+03 6.854442596435546875e+01 3.125547409057617188e+01 2.494245767593383789e-01 4.669646739959716797e+00 1.475721359252929688e+00 -3.956750631332397461e-01
2.530000000000000000e+03 6.174659347534179688e+01 -3.072226142883300781e+01 -3.053632676601409912e-01 2.526610612869262695e+00 6.663742065429687500e-01 4.183091223239898682e-01
2.531000000000000000e+03 5.442808532714843750e+01 -5.417053699493408203e+00 -1.711320400238037109e+00 -1.190920993685722351e-01 -5.491237640380859375e-01 -6.021367907524108887e-01
2.532000000000000000e+03 2.891193771362304688e+01 1.528827190399169922e+01 -4.108053445816040039e-01 2.250815868377685547e+00 5.520031452178955078e-01 8.773990869522094727e-01
2.533000000000000000e+03 2.948833084106445312e+01 1.760087776184082031e+01 -2.661585211753845215e-01 1.945407509803771973e+00 5.037747025489807129e-01 5.570430755615234375e-01
2.534000000000000000e+03 1.129633235931396484e+01 1.713470077514648438e+01 1.031711697578430176e-01 4.505914211273193359e+00 1.382725596427917480e+00 -1.348593533039093018e-01
2.535000000000000000e+03 1.209473037719726562e+01 1.789439392089843750e+01 -1.749404072761535645e-01 4.604059219360351562e+00 1.328735589981079102e+00 5.509891733527183533e-02
2.536000000000000000e+03 5.729161453247070312e+01 -3.151828384399414062e+01 -2.656329870223999023e-01 5.282918810844421387e-01 7.879767566919326782e-02 -1.542399171739816666e-02
2.537000000000000000e+03 1.366110038757324219e+01 -2.935645294189453125e+01 -5.612985491752624512e-01 3.311474800109863281e+00 8.250528573989868164e-01 -5.281797647476196289e-01
2.538000000000000000e+03 1.546550655364990234e+01 -3.051477241516113281e+01 -3.887215852737426758e-01 2.405877113342285156e+00 6.051466464996337891e-01 -4.692738652229309082e-01
2.539000000000000000e+03 3.950094604492187500e+01 2.087242507934570312e+01 5.842130780220031738e-01 1.972575306892395020e+00 7.670365571975708008e-01 6.142837405204772949e-01
2.540000000000000000e+03 6.395426177978515625e+01 -2.867160320281982422e+00 -3.194257318973541260e-01 1.495808601379394531e+00 3.529148697853088379e-01 -3.022766590118408203e+00
2.541000000000000000e+03 5.995839691162109375e+01 -1.757858037948608398e+00 -3.890478312969207764e-01 3.116967678070068359e-01 -2.320531755685806274e-02 -1.191855549812316895e+00
2.542000000000000000e+03 4.544687652587890625e+01 2.254181671142578125e+01 9.051378965377807617e-01 1.570777058601379395e+00 7.427744865417480469e-01 5.426412224769592285e-01
2.543000000000000000e+03 3.789770126342773438e+01 -1.364942169189453125e+01 -2.443131923675537109e+00 3.737396895885467529e-01 -6.208176612854003906e-01 -4.565443098545074463e-01
2.544000000000000000e+03 7.097265625000000000e+01 -1.888788223266601562e+01 -7.178875207901000977e-01 1.058713150024414062e+01 2.960773229598999023e+00 -8.855998516082763672e-01
2.545000000000000000e+03 7.028743743896484375e+01 -1.970120429992675781e+01 -8.056448101997375488e-01 1.020571804046630859e+01 2.820021867752075195e+00 -2.271913588047027588e-01
2.546000000000000000e+03 5.617259597778320312e+01 2.273382949829101562e+01 7.624776363372802734e-01 2.825404167175292969e+00 1.076364517211914062e+00 -7.955735325813293457e-01
2.547000000000000000e+03 7.262535858154296875e+01 -2.150122451782226562e+01 -7.600736618041992188e-01 9.570358276367187500e+00 2.643085479736328125e+00 -9.932852387428283691e-01
2.548000000000000000e+03 2.940318298339843750e+01 -1.164654731750488281e+01 -2.622584342956542969e+00 6.288332343101501465e-01 -5.981253385543823242e-01 -1.277639418840408325e-01
2.549000000000000000e+03 7.287398529052734375e+01 -1.884818458557128906e+01 -4.473049938678741455e-01 1.011416053771972656e+01 2.900056600570678711e+00 -1.476745128631591797e+00
2.550000000000000000e+03 4.759833145141601562e+01 -4.126773834228515625e+01 3.201449811458587646e-01 -4.115045964717864990e-01 -2.740789204835891724e-02 -5.941639095544815063e-02
2.551000000000000000e+03 5.592971420288085938e+01 2.866805076599121094e+00 4.235708415508270264e-01 5.432778000831604004e-01 2.900545895099639893e-01 -4.695054888725280762e-01
2.552000000000000000e+03 4.574156570434570312e+01 2.496260643005371094e+01 9.473992586135864258e-01 1.657367825508117676e+00 7.814301252365112305e-01 3.467190861701965332e-01
2.553000000000000000e+03 4.060987091064453125e+01 2.368327140808105469e+01 6.378673911094665527e-01 1.886664748191833496e+00 7.573596239089965820e-01 5.217261910438537598e-01
2.554000000000000000e+03 3.916926574707031250e+01 7.488383769989013672e+00 9.742228388786315918e-01 1.034121155738830566e+00 6.025032401084899902e-01 4.076873958110809326e-01
2.555000000000000000e+03 6.175864028930664062e+01 1.460968875885009766e+01 7.314147949218750000e-01 3.575267076492309570e+00 1.292004585266113281e+00 -1.148034572601318359e+00
2.556000000000000000e+03 4.493979644775390625e+01 3.443166494369506836e+00 7.799423933029174805e-01 3.310684859752655029e-01 3.333032429218292236e-01 -1.335079520940780640e-01
2.557000000000000000e+03 2.856212806701660156e+01 2.494834184646606445e+00 2.207756996154785156e+00 1.787164211273193359e+00 1.198476314544677734e+00 5.628930926322937012e-01
2.558000000000000000e+03 7.422216033935546875e+01 7.646845579147338867e-01 -8.233110308647155762e-01 8.405094146728515625e+00 2.274534940719604492e+00 3.046370297670364380e-02
2.559000000000000000e+03 3.953876876831054688e+01 -3.806524658203125000e+01 -1.167142987251281738e-01 -2.629080414772033691e-01 -1.138867065310478210e-01 -6.643970310688018799e-02
2.560000000000000000e+03 7.296903991699218750e+01 7.604047775268554688e+00 -2.222220003604888916e-01 6.819010257720947266e+00 1.979036569595336914e+00 -9.065102338790893555e-01
2.561000000000000000e+03 7.319635009765625000e+01 1.019246196746826172e+01 -5.418720841407775879e-02 6.537438392639160156e+00 1.944975376129150391e+00 -9.022169709205627441e-01
2.562000000000000000e+03 6.000568866729736328e+00 -2.691297054290771484e+00 1.563064217567443848e+00 1.802508711814880371e+00 1.009671926498413086e+00 2.185727596282958984e+00
2.563000000000000000e+03 6.266536712646484375e+00 -3.090480804443359375e+00 1.475006699562072754e+00 2.539975404739379883e+00 1.204494714736938477e+00 2.731098890304565430e+00
2.564000000000000000e+03 8.894592285156250000e+00 2.483869791030883789e+00 1.079972028732299805e+00 6.264111995697021484e+00 2.203225135803222656e+00 -3.441455364227294922e+00
2.565000000000000000e+03 6.316913604736328125e+00 2.816262006759643555e+00 8.427840471267700195e-01 1.103414177894592285e+00 5.838595032691955566e-01 -6.980555057525634766e-01
2.566000000000000000e+03 5.947339534759521484e+00 2.803983449935913086e+00 7.093572020530700684e-01 8.487635254859924316e-01 4.674362242221832275e-01 -4.312322735786437988e-01
2.567000000000000000e+03 7.553965568542480469e+00 -2.994345188140869141e+00 2.035265445709228516e+00 4.301157951354980469e+00 1.900927066802978516e+00 4.481949329376220703e+00
2.568000000000000000e+03 8.917396545410156250e+00 -3.344097614288330078e+00 1.142157196998596191e+00 8.033496856689453125e+00 2.752696275711059570e+00 5.575462341308593750e+00
2.569000000000000000e+03 7.516971588134765625e+00 2.662665367126464844e+00 1.278875589370727539e+00 2.324038267135620117e+00 1.080874204635620117e+00 -1.808006644248962402e+00
2.570000000000000000e+03 6.514060020446777344e+00 -2.280994415283203125e+00 2.131248712539672852e+00 1.825262904167175293e+00 1.186953425407409668e+00 2.610262393951416016e+00
2.571000000000000000e+03 8.153908729553222656e+00 2.786359786987304688e+00 1.213316798210144043e+00 3.859249591827392578e+00 1.521770000457763672e+00 -2.563172578811645508e+00
2.572000000000000000e+03 9.117086410522460938e+00 -2.494768619537353516e+00 2.567445755004882812e+00 8.776767730712890625e+00 3.403264045715332031e+00 6.290894508361816406e+00
2.573000000000000000e+03 5.623064994812011719e+00 2.623761653900146484e+00 5.747557282447814941e-01 5.834752917289733887e-01 3.474693000316619873e-01 -2.070381343364715576e-01
2.574000000000000000e+03 7.031379222869873047e+00 -2.592405319213867188e+00 2.277815580368041992e+00 2.880494356155395508e+00 1.547492980957031250e+00 3.559093475341796875e+00
2.575000000000000000e+03 6.719057559967041016e+00 3.200704574584960938e+00 9.521812796592712402e-01 1.788481593132019043e+00 8.221988677978515625e-01 -1.139221191406250000e+00
2.576000000000000000e+03 6.842654228210449219e+00 2.539802312850952148e+00 1.064321160316467285e+00 1.306950449943542480e+00 7.113814949989318848e-01 -1.063101530075073242e+00
2.577000000000000000e+03 7.182576656341552734e+00 2.799857616424560547e+00 1.124810695648193359e+00 1.975612282752990723e+00 9.301269054412841797e-01 -1.450683832168579102e+00
2.578000000000000000e+03 8.452368736267089844e+00 -2.805523872375488281e+00 2.314096212387084961e+00 6.462255477905273438e+00 2.632905483245849609e+00 5.620440483093261719e+00
2.579000000000000000e+03 1.022065162658691406e+01 2.728991031646728516e+00 -4.783560633659362793e-01 1.118703365325927734e+01 3.212603092193603516e+00 -1.815127730369567871e+00
2.580000000000000000e+03 8.763050079345703125e+00 -2.947814702987670898e+00 1.949948787689208984e+00 7.592283248901367188e+00 2.862669706344604492e+00 5.909389495849609375e+00
2.581000000000000000e+03 1.101505184173583984e+01 -2.372196197509765625e+00 2.298451185226440430e+00 1.309644603729248047e+01 4.618469238281250000e+00 1.964030742645263672e+00
2.582000000000000000e+03 1.091937065124511719e+01 -2.619175195693969727e+00 1.723175168037414551e+00 1.250976943969726562e+01 4.269883632659912109e+00 2.531269550323486328e+00
2.583000000000000000e+03 1.101652336120605469e+01 2.633970499038696289e+00 -2.756678164005279541e-01 1.237829589843750000e+01 3.630788326263427734e+00 2.679027020931243896e-01
2.584000000000000000e+03 1.346752548217773438e+01 2.842960596084594727e+00 1.699529409408569336e+00 6.747856140136718750e+00 2.534215688705444336e+00 2.194113731384277344e+00
2.585000000000000000e+03 1.141986751556396484e+01 -2.274318933486938477e+00 3.054648876190185547e+00 1.240856647491455078e+01 4.638964653015136719e+00 9.284444451332092285e-01
2.586000000000000000e+03 1.222562694549560547e+01 1.334964990615844727e+00 5.157193660736083984e+00 1.031624221801757812e+01 4.642030715942382812e+00 3.479652881622314453e+00
2.587000000000000000e+03 1.321008872985839844e+01 5.684796333312988281e+00 -2.362937211990356445e+00 7.312174797058105469e+00 1.484771251678466797e+00 1.214706301689147949e+00
2.588000000000000000e+03 1.196633434295654297e+01 -1.335808992385864258e+00 7.133443832397460938e+00 1.076263523101806641e+01 5.368823528289794922e+00 -5.788136124610900879e-01
2.589000000000000000e+03 1.230881881713867188e+01 8.884578943252563477e-01 6.951307296752929688e+00 9.556826591491699219e+00 4.952439785003662109e+00 3.374811649322509766e+00
2.590000000000000000e+03 1.309946727752685547e+01 5.591465830802917480e-01 7.173920154571533203e+00 6.704346656799316406e+00 4.163479804992675781e+00 2.364796876907348633e+00
2.591000000000000000e+03 1.166649150848388672e+01 3.133543491363525391e+00 -3.345468640327453613e-01 1.075670814514160156e+01 3.126648426055908203e+00 1.099916577339172363e+00
2.592000000000000000e+03 4.245368957519531250e+00 3.277759790420532227e+00 3.807427585124969482e-01 3.232209086418151855e-01 2.111891061067581177e-01 1.309244632720947266e-01
2.593000000000000000e+03 3.018761157989501953e+00 -2.800859928131103516e+00 2.736601531505584717e-01 5.874351263046264648e-01 2.583285868167877197e-01 1.698213368654251099e-01
2.594000000000000000e+03 4.226259708404541016e+00 -3.229455232620239258e+00 6.046510338783264160e-01 1.272665977478027344e+00 5.631951093673706055e-01 8.833888173103332520e-01
2.595000000000000000e+03 2.178257942199707031e+00 -2.392472505569458008e+00 1.296087652444839478e-01 1.237623095512390137e-01 7.601132243871688843e-02 -1.562081128358840942e-01
2.596000000000000000e+03 3.048822402954101562e+00 -4.676398277282714844e+00 8.283609151840209961e-02 1.331925034523010254e+00 4.244283437728881836e-01 4.392920732498168945e-01
2.597000000000000000e+03 4.403913021087646484e+00 -2.809744834899902344e+00 7.504020333290100098e-01 9.680689573287963867e-01 5.155413150787353516e-01 8.716977834701538086e-01
2.598000000000000000e+03 1.272968006134033203e+01 2.060163021087646484e+00 3.102612733840942383e+00 8.808002471923828125e+00 3.573184490203857422e+00 2.908324480056762695e+00
2.599000000000000000e+03 1.385840797424316406e+01 3.345288276672363281e+00 9.037141799926757812e-01 5.947885513305664062e+00 2.055479764938354492e+00 1.742905974388122559e+00
2.600000000000000000e+03 3.245754480361938477e+00 3.108209371566772461e+00 1.798571646213531494e-01 4.552882909774780273e-02 6.761579960584640503e-02 3.385241031646728516e-01
2.601000000000000000e+03 3.866959095001220703e+00 3.038652658462524414e+00 2.671799957752227783e-01 1.885150820016860962e-01 1.367085278034210205e-01 2.542458772659301758e-01
2.602000000000000000e+03 2.773432016372680664e+00 -2.516824007034301758e+00 2.477112561464309692e-01 2.416642308235168457e-01 1.468126475811004639e-01 -3.054552339017391205e-02
2.603000000000000000e+03 2.751474380493164062e+00 -4.180682659149169922e+00 1.892212927341461182e-01 8.762366175651550293e-01 3.196373879909515381e-01 2.774408757686614990e-01
2.604000000000000000e+03 5.365377902984619141e+00 -2.931417226791381836e+00 1.145292401313781738e+00 1.619632720947265625e+00 8.294775485992431641e-01 1.726834416389465332e+00
2.605000000000000000e+03 3.237651348114013672e+00 3.923248767852783203e+00 2.999437153339385986e-01 1.316774040460586548e-01 1.294863373041152954e-01 2.049482613801956177e-01
2.606000000000000000e+03 1.438858318328857422e+01 2.367234230041503906e+00 3.113533258438110352e+00 4.593350887298583984e+00 2.312065124511718750e+00 2.117063522338867188e+00
2.607000000000000000e+03 1.502733135223388672e+01 2.453187465667724609e+00 3.037317752838134766e+00 3.101668834686279297e+00 1.841696023941040039e+00 1.813701272010803223e+00
2.608000000000000000e+03 1.256359004974365234e+01 6.188990116119384766e+00 -2.232757568359375000e+00 7.634076118469238281e+00 1.620395660400390625e+00 1.181351542472839355e+00
2.609000000000000000e+03 3.117002010345458984e+00 -3.571257829666137695e+00 2.863954603672027588e-01 8.645836710929870605e-01 3.452937304973602295e-01 3.050382733345031738e-01
2.610000000000000000e+03 1.379918098449707031e+01 3.983974933624267578e+00 -2.255810201168060303e-01 6.278644084930419922e+00 1.815918922424316406e+00 1.511906266212463379e+00
2.611000000000000000e+03 4.467353343963623047e+00 6.286543369293212891e+00 3.017373085021972656e-01 1.256927371025085449e+00 4.675993919372558594e-01 -2.616973221302032471e-01
2.612000000000000000e+03 4.268171787261962891e+00 5.313169479370117188e+00 3.759582042694091797e-01 8.796412944793701172e-01 3.766798675060272217e-01 -1.467366367578506470e-01
2.613000000000000000e+03 3.846714019775390625e+00 -5.787595272064208984e+00 -2.628531455993652344e-01 2.548481941223144531e+00 6.856886148452758789e-01 7.952817678451538086e-01
2.614000000000000000e+03 4.906805992126464844e+00 -3.593361616134643555e+00 7.022843956947326660e-01 1.929132223129272461e+00 7.894249558448791504e-01 1.476816654205322266e+00
2.615000000000000000e+03 1.330159473419189453e+01 4.577610969543457031e+00 -1.376435279846191406e+00 7.236764907836914062e+00 1.758098840713500977e+00 1.347757697105407715e+00
2.616000000000000000e+03 1.244770717620849609e+01 3.530062437057495117e+00 -3.114329874515533447e-01 9.098751068115234375e+00 2.636195182800292969e+00 1.642104148864746094e+00
2.617000000000000000e+03 3.113128423690795898e+00 5.679492950439453125e+00 2.296484708786010742e-01 3.287360072135925293e-01 1.675153523683547974e-01 1.314461883157491684e-02
2.618000000000000000e+03 3.593815326690673828e+00 3.472476243972778320e+00 2.971477806568145752e-01 1.844369173049926758e-01 1.444754153490066528e-01 2.340939939022064209e-01
2.619000000000000000e+03 1.720650672912597656e+01 -7.906635284423828125e+00 -1.439157605171203613e+00 4.843353033065795898e-01 -2.864466905593872070e-01 1.812501102685928345e-01
2.620000000000000000e+03 4.035206794738769531e+00 7.291685581207275391e+00 2.091027200222015381e-01 1.136632204055786133e+00 4.037204682826995850e-01 -2.121166884899139404e-01
2.621000000000000000e+03 9.529721260070800781e+00 -8.642412185668945312e+00 -4.052152633666992188e+00 9.315209388732910156e+00 1.578916907310485840e+00 5.237471580505371094e+00
2.622000000000000000e+03 1.083103847503662109e+01 -8.913971900939941406e+00 -3.954394578933715820e+00 7.170275688171386719e+00 9.647643566131591797e-01 5.757610797882080078e+00
2.623000000000000000e+03 1.214320468902587891e+01 -8.363746643066406250e+00 -3.039786815643310547e+00 4.617393970489501953e+00 4.732821285724639893e-01 4.419526576995849609e+00
2.624000000000000000e+03 4.728719711303710938e+00 8.802836418151855469e+00 1.216243728995323181e-01 1.695929765701293945e+00 5.452662706375122070e-01 -2.604466676712036133e-01
2.625000000000000000e+03 2.937724113464355469e+00 3.474308729171752930e+00 1.776699870824813843e-01 -8.466718718409538269e-03 5.076098069548606873e-02 3.092542290687561035e-01
2.626000000000000000e+03 1.189532947540283203e+01 6.599458694458007812e+00 -2.027032375335693359e+00 7.851372718811035156e+00 1.747302055358886719e+00 1.001833796501159668e+00
2.627000000000000000e+03 3.187753105163574219e+01 -1.048436069488525391e+01 -2.112369298934936523e+00 6.688695549964904785e-01 -4.330499470233917236e-01 -3.431776463985443115e-01
2.628000000000000000e+03 3.039303779602050781e+01 -1.212880229949951172e+01 -2.637686014175415039e+00 5.997890233993530273e-01 -6.113690733909606934e-01 -1.314800977706909180e-01
2.629000000000000000e+03 4.052706146240234375e+01 4.845162868499755859e+00 9.310874938964843750e-01 6.057307124137878418e-01 4.610454738140106201e-01 4.890405759215354919e-02
2.630000000000000000e+03 4.124100494384765625e+01 3.689793109893798828e+00 8.284538388252258301e-01 5.182970762252807617e-01 4.040252864360809326e-01 -2.753751911222934723e-02
2.631000000000000000e+03 1.032293224334716797e+01 1.056014537811279297e+01 3.499306440353393555e-01 5.452577590942382812e+00 1.740752458572387695e+00 7.221130728721618652e-01
2.632000000000000000e+03 1.054276657104492188e+01 1.292007160186767578e+01 9.653068780899047852e-01 4.948624134063720703e+00 1.774179339408874512e+00 2.598428726196289062e-01
2.633000000000000000e+03 8.738173484802246094e+00 1.319854354858398438e+01 6.238108277320861816e-01 3.879398345947265625e+00 1.350962758064270020e+00 -1.018642336130142212e-01
2.634000000000000000e+03 8.021521568298339844e+00 1.551863765716552734e+01 3.354355096817016602e-01 3.274484634399414062e+00 1.082975983619689941e+00 -5.026092529296875000e-01
2.635000000000000000e+03 1.579209136962890625e+01 -8.205863952636718750e+00 -1.843616247177124023e+00 7.481586337089538574e-01 -3.286373019218444824e-01 8.065470457077026367e-01
2.636000000000000000e+03 1.258470439910888672e+01 8.152954101562500000e+00 -8.869415521621704102e-01 7.387661933898925781e+00 1.950216054916381836e+00 1.483696937561035156e+00
2.637000000000000000e+03 6.651287555694580078e+00 -1.194994449615478516e+01 1.142565757036209106e-01 1.105891418457031250e+01 3.351951360702514648e+00 -1.236586570739746094e+00
2.638000000000000000e+03 1.874282646179199219e+01 -1.037646904587745667e-01 4.322839260101318359e+00 6.501158326864242554e-02 1.316355228424072266e+00 2.105154752731323242e+00
2.639000000000000000e+03 3.905510330200195312e+01 -1.084076309204101562e+01 -1.977194309234619141e+00 4.275044500827789307e-01 -4.649069607257843018e-01 -5.430141687393188477e-01
2.640000000000000000e+03 1.276720809936523438e+01 -7.938250064849853516e+00 -2.077360153198242188e+00 3.571779251098632812e+00 4.483256936073303223e-01 4.005062580108642578e+00
2.641000000000000000e+03 6.794754028320312500e+00 -9.586434364318847656e+00 -2.544949293136596680e+00 9.606186866760253906e+00 2.118371486663818359e+00 2.811858654022216797e-01
2.642000000000000000e+03 6.455379009246826172e+00 1.137103939056396484e+01 2.386396527290344238e-01 2.781588792800903320e+00 9.060685634613037109e-01 -2.291673719882965088e-01
2.643000000000000000e+03 7.244112396240234375e+01 -2.342684364318847656e+01 -8.518879413604736328e-01 9.245992660522460938e+00 2.518231630325317383e+00 -7.351502776145935059e-01
2.644000000000000000e+03 3.663969421386718750e+01 7.148996829986572266e+00 1.250892877578735352e+00 1.084545612335205078e+00 7.006315588951110840e-01 7.119809985160827637e-01
2.645000000000000000e+03 9.165970802307128906e+00 1.001094341278076172e+01 8.109179884195327759e-02 4.895256519317626953e+00 1.492904543876647949e+00 3.643474876880645752e-01
2.646000000000000000e+03 4.846443176269531250e+01 -9.076135635375976562e+00 -2.001556396484375000e+00 6.353033334016799927e-02 -5.814078450202941895e-01 -7.446411848068237305e-01
2.647000000000000000e+03 1.388250350952148438e+01 -7.918951511383056641e+00 -1.792163610458374023e+00 2.062310934066772461e+00 8.104424178600311279e-02 2.339900255203247070e+00
2.648000000000000000e+03 3.546600341796875000e+01 -1.044312286376953125e+01 -1.930637478828430176e+00 5.712358355522155762e-01 -4.078205227851867676e-01 -4.612989127635955811e-01
2.649000000000000000e+03 3.220991516113281250e+01 -1.262542629241943359e+01 -2.579960346221923828e+00 5.653335452079772949e-01 -6.043880581855773926e-01 -2.059289067983627319e-01
2.650000000000000000e+03 5.963684082031250000e+00 -1.105072784423828125e+01 -2.102329730987548828e-01 8.283536911010742188e+00 2.421991109848022461e+00 -7.120775580406188965e-01
2.651000000000000000e+03 7.261588573455810547e+00 -1.012405967712402344e+01 -2.530768871307373047e+00 1.145394515991210938e+01 2.676952838897705078e+00 1.010380864143371582e+00
2.652000000000000000e+03 7.300260925292968750e+01 1.232794666290283203e+01 3.565635532140731812e-02 6.328583717346191406e+00 1.909271955490112305e+00 -8.842971324920654297e-01
2.653000000000000000e+03 1.062156105041503906e+01 1.487348175048828125e+01 7.356035113334655762e-01 4.678871154785156250e+00 1.624342441558837891e+00 -1.847377121448516846e-01
2.654000000000000000e+03 7.901751518249511719e+00 1.706967353820800781e+01 9.383542835712432861e-02 3.153982400894165039e+00 9.743453264236450195e-01 -5.699251890182495117e-01
2.655000000000000000e+03 5.887152862548828125e+01 6.157055854797363281e+00 3.322173357009887695e-01 1.956954717636108398e+00 6.867516040802001953e-01 -8.934413790702819824e-01
2.656000000000000000e+03 1.877596092224121094e+01 -7.809947013854980469e+00 -1.361473798751831055e+00 3.695603609085083008e-01 -2.975740134716033936e-01 -7.804929465055465698e-02
2.657000000000000000e+03 7.329576873779296875e+01 5.824648857116699219e+00 -3.885782659053802490e-01 7.183874607086181641e+00 2.038589000701904297e+00 -8.255636096000671387e-01
2.658000000000000000e+03 3.657711410522460938e+01 1.114849948883056641e+01 9.501911997795104980e-01 1.555250287055969238e+00 7.516324520111083984e-01 1.061804890632629395e+00
2.659000000000000000e+03 3.763409042358398438e+01 8.732395172119140625e+00 1.036255002021789551e+00 1.272407054901123047e+00 6.925985813140869141e-01 7.663947939872741699e-01
2.660000000000000000e+03 3.820651245117187500e+01 1.077558040618896484e+01 8.603095412254333496e-01 1.524961709976196289e+00 7.155813574790954590e-01 8.431122303009033203e-01
2.661000000000000000e+03 2.200219154357910156e+01 -8.959515571594238281e+00 -2.198963403701782227e+00 4.687204360961914062e-01 -5.190728902816772461e-01 -1.121649369597434998e-01
2.662000000000000000e+03 2.225551605224609375e+01 -1.042883968353271484e+01 -3.144344806671142578e+00 4.493170976638793945e-01 -8.085083365440368652e-01 1.282776892185211182e-01
2.663000000000000000e+03 2.112118339538574219e+01 -8.366440773010253906e+00 -1.870448827743530273e+00 4.244869947433471680e-01 -4.337885379791259766e-01 -1.512307226657867432e-01
2.664000000000000000e+03 2.124754524230957031e+01 -9.820017814636230469e+00 -2.970387458801269531e+00 3.999072611331939697e-01 -7.711440920829772949e-01 9.240731596946716309e-03
2.665000000000000000e+03 5.260106277465820312e+01 -6.765914440155029297e+00 -1.919017314910888672e+00 -6.910725682973861694e-02 -5.964373350143432617e-01 -6.951397061347961426e-01
2.666000000000000000e+03 4.883117294311523438e+01 -7.510560035705566406e+00 -1.735913753509521484e+00 9.561062604188919067e-02 -4.920909404754638672e-01 -6.396197676658630371e-01
2.667000000000000000e+03 7.115548706054687500e+01 -2.043743705749511719e+01 -8.461909294128417969e-01 9.743358612060546875e+00 2.669150352478027344e+00 -7.925547361373901367e-01
2.668000000000000000e+03 7.323350524902343750e+01 3.457121610641479492e+00 -6.724141240119934082e-01 7.700930595397949219e+00 2.108554840087890625e+00 -6.614470481872558594e-01
2.669000000000000000e+03 7.186576843261718750e+01 2.406125068664550781e+00 -9.517621397972106934e-01 7.692150592803955078e+00 2.022116661071777344e+00 -9.423046112060546875e-01
2.670000000000000000e+03 7.295616912841796875e+01 9.652964472770690918e-01 -1.062533855438232422e+00 8.371460914611816406e+00 2.192678213119506836e+00 -4.436186552047729492e-01
2.671000000000000000e+03 7.160294342041015625e+01 -4.178153991699218750e+00 -1.389473676681518555e+00 1.102498531341552734e+01 2.890653371810913086e+00 3.902446329593658447e-01
2.672000000000000000e+03 8.135731697082519531e+00 -2.612478065490722656e+01 -9.514889717102050781e-01 5.741355895996093750e+00 1.436960101127624512e+00 4.161469638347625732e-01
2.673000000000000000e+03 9.520820617675781250e+00 -2.375930595397949219e+01 -1.085408926010131836e+00 6.468509197235107422e+00 1.614930033683776855e+00 -1.547663360834121704e-01
2.674000000000000000e+03 2.524058532714843750e+01 -7.489167690277099609e+00 -1.172376036643981934e+00 7.464296817779541016e-01 -1.277839243412017822e-01 -2.013271301984786987e-01
2.675000000000000000e+03 2.736895751953125000e+01 -1.041231536865234375e+01 -2.437007665634155273e+00 6.769241690635681152e-01 -5.280250310897827148e-01 -1.431849449872970581e-01
2.676000000000000000e+03 9.113330841064453125e+00 2.519529151916503906e+01 -3.762048482894897461e-01 2.740547180175781250e+00 7.093027234077453613e-01 -8.848652988672256470e-02
2.677000000000000000e+03 7.250602722167968750e+01 -2.555676841735839844e+01 -7.431436777114868164e-01 8.907876014709472656e+00 2.449419736862182617e+00 -5.075020790100097656e-01
2.678000000000000000e+03 7.086139678955078125e+01 3.900749683380126953e+00 -7.336589694023132324e-01 6.977293491363525391e+00 1.873090386390686035e+00 -1.254891395568847656e+00
2.679000000000000000e+03 3.327265548706054688e+01 -1.257907199859619141e+01 -2.489179611206054688e+00 5.355052351951599121e-01 -5.861023068428039551e-01 -2.730076014995574951e-01
2.680000000000000000e+03 3.316801834106445312e+01 -1.369427776336669922e+01 -2.712576627731323242e+00 4.768896400928497314e-01 -6.707061529159545898e-01 -1.763410568237304688e-01
2.681000000000000000e+03 9.593219757080078125e+00 1.715816879272460938e+01 1.098794937133789062e-01 3.841451406478881836e+00 1.185399293899536133e+00 -4.344446659088134766e-01
2.682000000000000000e+03 5.731769943237304688e+01 3.938062667846679688e+00 4.185961186885833740e-01 1.066010832786560059e+00 4.453820586204528809e-01 -6.367387771606445312e-01
2.683000000000000000e+03 5.865385437011718750e+01 4.993239402770996094e+00 3.785974383354187012e-01 1.648456573486328125e+00 6.081162095069885254e-01 -8.761676549911499023e-01
2.684000000000000000e+03 4.572271347045898438e+01 -1.158995056152343750e+01 -2.195018291473388672e+00 9.793925285339355469e-02 -6.291237473487854004e-01 -7.836871147155761719e-01
2.685000000000000000e+03 4.713636398315429688e+01 -7.182498931884765625e+00 -1.532079815864562988e+00 1.751137524843215942e-01 -4.070897996425628662e-01 -5.730667710304260254e-01
2.686000000000000000e+03 1.031035709381103516e+01 2.334102821350097656e+01 -4.521804153919219971e-01 3.056624889373779297e+00 7.813333868980407715e-01 -2.741820923984050751e-02
2.687000000000000000e+03 2.240474891662597656e+01 -6.743212699890136719e+00 -5.678982734680175781e-01 5.413059592247009277e-01 -7.977707311511039734e-03 -1.089342907071113586e-01
2.688000000000000000e+03 7.204478454589843750e+01 1.193993282318115234e+01 3.756176307797431946e-02 6.073089599609375000e+00 1.833195328712463379e+00 -1.037211298942565918e+00
2.689000000000000000e+03 2.749778747558593750e+01 2.021107673645019531e+00 2.238584756851196289e+00 1.930594921112060547e+00 1.250753879547119141e+00 6.657733917236328125e-01
2.690000000000000000e+03 3.037412261962890625e+01 4.453975200653076172e+00 2.338307380676269531e+00 1.465582489967346191e+00 1.141166925430297852e+00 7.525254487991333008e-01
2.691000000000000000e+03 7.122701168060302734e+00 -2.285346412658691406e+01 -1.141133785247802734e+00 6.899955272674560547e+00 1.727646470069885254e+00 9.003946781158447266e-01
2.692000000000000000e+03 5.777086639404296875e+01 -2.458235740661621094e+00 -7.643672227859497070e-01 6.646750122308731079e-02 -2.093699127435684204e-01 -7.037773728370666504e-01
2.693000000000000000e+03 2.031925201416015625e+01 -7.742918014526367188e+00 -1.284464478492736816e+00 3.924260139465332031e-01 -2.676115334033966064e-01 -1.528270393610000610e-01
2.694000000000000000e+03 1.952713012695312500e+01 -8.506304740905761719e+00 -2.108372926712036133e+00 3.573861122131347656e-01 -5.252960324287414551e-01 -8.691270649433135986e-02
2.695000000000000000e+03 1.115438842773437500e+01 3.002548599243164062e+01 -2.048599869012832642e-01 2.382418632507324219e+00 6.532676219940185547e-01 1.587044894695281982e-01
2.696000000000000000e+03 5.677785491943359375e+01 8.098063468933105469e+00 2.870351672172546387e-01 1.835374116897583008e+00 6.367228031158447266e-01 -3.589794039726257324e-01
2.697000000000000000e+03 2.837115859985351562e+01 -1.108893013000488281e+01 -2.543487310409545898e+00 6.661556363105773926e-01 -5.631995201110839844e-01 -1.226289942860603333e-01
2.698000000000000000e+03 2.573588371276855469e+01 -8.594397544860839844e+00 -1.824866652488708496e+00 7.142896056175231934e-01 -3.331730961799621582e-01 -2.180601060390472412e-01
2.699000000000000000e+03 5.177153015136718750e+01 7.758232355117797852e-01 1.544477641582489014e-01 1.330368667840957642e-01 8.624539524316787720e-02 -2.972694337368011475e-01
2.700000000000000000e+03 2.392859840393066406e+01 -4.708671867847442627e-01 2.017922163009643555e+00 1.578255057334899902e+00 1.078853249549865723e+00 1.220776557922363281e+00
2.701000000000000000e+03 7.151531219482421875e+01 1.869763183593750000e+01 2.057780623435974121e-01 5.508915901184082031e+00 1.714408159255981445e+00 -7.864328622817993164e-01
2.702000000000000000e+03 6.458050537109375000e+01 -1.791487216949462891e+00 -6.037197113037109375e-01 2.999295711517333984e+00 7.186728119850158691e-01 -3.319432497024536133e+00
2.703000000000000000e+03 6.280490112304687500e+01 -2.063879728317260742e+00 -3.842808008193969727e-01 9.976635575294494629e-01 1.840148270130157471e-01 -2.327129840850830078e+00
2.704000000000000000e+03 7.203108978271484375e+01 -2.936817359924316406e+01 -5.019469857215881348e-01 8.206830024719238281e+00 2.311465024948120117e+00 -1.069801822304725647e-01
2.705000000000000000e+03 6.849282073974609375e+01 -2.959899330139160156e+01 -6.389204859733581543e-01 6.570701122283935547e+00 1.779534220695495605e+00 3.383599519729614258e-01
2.706000000000000000e+03 2.629373168945312500e+01 -9.522596001625061035e-02 1.662442326545715332e+00 1.655254960060119629e+00 9.953091740608215332e-01 6.236103177070617676e-01
2.707000000000000000e+03 2.557029533386230469e+01 8.839533329010009766e-01 2.105391740798950195e+00 1.970513939857482910e+00 1.222771763801574707e+00 9.837606549263000488e-01
2.708000000000000000e+03 4.976207351684570312e+01 -2.477199316024780273e+00 -6.182745695114135742e-01 1.288174241781234741e-01 -1.468371450901031494e-01 -3.447696268558502197e-01
2.709000000000000000e+03 5.068735504150390625e+01 1.996292173862457275e-01 3.554246947169303894e-02 1.411754041910171509e-01 5.301536619663238525e-02 -2.953695356845855713e-01
2.710000000000000000e+03 3.727276992797851562e+01 1.627882575988769531e+01 6.572557091712951660e-01 1.904357910156250000e+00 7.684841156005859375e-01 8.915272951126098633e-01
2.711000000000000000e+03 4.688861465454101562e+01 -8.635774612426757812e+00 -1.820797324180603027e+00 1.479070037603378296e-01 -5.018670558929443359e-01 -6.641278862953186035e-01
2.712000000000000000e+03 4.861888504028320312e+01 2.861270606517791748e-01 1.034311354160308838e-01 2.042783945798873901e-01 9.231285750865936279e-02 -2.641695141792297363e-01
2.713000000000000000e+03 4.746936798095703125e+01 2.949083149433135986e-01 1.238024160265922546e-01 2.530531287193298340e-01 1.130566671490669250e-01 -2.337223738431930542e-01
2.714000000000000000e+03 4.716731262207031250e+01 -1.338131546974182129e+00 -2.448759675025939941e-01 2.268369793891906738e-01 -5.411695223301649094e-03 -2.878466844558715820e-01
2.715000000000000000e+03 2.649458885192871094e+01 1.487755656242370605e+00 2.155426740646362305e+00 2.022844076156616211e+00 1.253481268882751465e+00 7.925522923469543457e-01
2.716000000000000000e+03 7.011756134033203125e+01 2.684553146362304688e+01 2.188498377799987793e-01 4.956026554107666016e+00 1.552462816238403320e+00 -5.178495645523071289e-01
2.717000000000000000e+03 7.193927764892578125e+01 2.134330368041992188e+01 1.906693279743194580e-01 5.446938991546630859e+00 1.691282391548156738e+00 -6.478436589241027832e-01
2.718000000000000000e+03 6.058619308471679688e+01 1.069678115844726562e+01 4.748626649379730225e-01 3.089091539382934570e+00 1.069186210632324219e+00 -1.214872121810913086e+00
2.719000000000000000e+03 6.329574584960937500e+01 1.035569667816162109e+01 3.720412850379943848e-01 3.764201641082763672e+00 1.240872859954833984e+00 -1.431085348129272461e+00
2.720000000000000000e+03 7.059172821044921875e+01 -2.329463386535644531e+01 -1.045951128005981445e+00 8.768724441528320312e+00 2.316832065582275391e+00 -2.463472038507461548e-01
2.721000000000000000e+03 7.034889984130859375e+01 4.439683258533477783e-02 -1.409165978431701660e+00 7.983009815216064453e+00 1.972153067588806152e+00 -1.344405055046081543e+00
2.722000000000000000e+03 5.626365280151367188e+01 -5.615195274353027344e+00 -1.957196235656738281e+00 -2.388093024492263794e-01 -6.588016748428344727e-01 -7.095866799354553223e-01
2.723000000000000000e+03 5.794098663330078125e+01 -4.120175361633300781e+00 -1.434883356094360352e+00 -1.765003353357315063e-01 -4.834150969982147217e-01 -7.325262427330017090e-01
2.724000000000000000e+03 7.142076873779296875e+01 -2.753496408462524414e+00 -1.741012454032897949e+00 1.011234760284423828e+01 2.511400699615478516e+00 -4.460410177707672119e-01
2.725000000000000000e+03 6.007238864898681641e+00 9.744617462158203125e+00 8.718717098236083984e-02 2.556051492691040039e+00 7.929716110229492188e-01 -2.433997988700866699e-01
2.726000000000000000e+03 6.243958950042724609e+00 9.259662628173828125e+00 5.516975745558738708e-02 2.784402132034301758e+00 8.518715500831604004e-01 -2.524059712886810303e-01
2.727000000000000000e+03 4.491919326782226562e+01 1.620714306831359863e+00 4.483548998832702637e-01 3.053140938282012939e-01 2.261006981134414673e-01 -1.557352095842361450e-01
2.728000000000000000e+03 1.034009170532226562e+01 -2.486541366577148438e+01 -1.019280910491943359e+00 5.553223609924316406e+00 1.360182762145996094e+00 -3.609806895256042480e-01
2.729000000000000000e+03 7.651905536651611328e+00 -2.479294013977050781e+01 -1.116328120231628418e+00 6.299507141113281250e+00 1.554953694343566895e+00 6.647083163261413574e-01
2.730000000000000000e+03 6.990171051025390625e+01 -2.237918090820312500e+01 -1.091912746429443359e+00 8.791327476501464844e+00 2.309824228286743164e+00 -1.611575931310653687e-01
2.731000000000000000e+03 3.816791152954101562e+01 1.901098251342773438e+01 6.137072443962097168e-01 1.961499810218811035e+00 7.725621461868286133e-01 6.814694404602050781e-01
2.732000000000000000e+03 6.689865875244140625e+01 -2.052521705627441406e+00 -1.534938693046569824e+00 6.258594512939453125e+00 1.417096853256225586e+00 -3.274595975875854492e+00
2.733000000000000000e+03 6.611275482177734375e+01 -1.654250979423522949e+00 -1.044391393661499023e+00 4.966846942901611328e+00 1.176736712455749512e+00 -3.424750328063964844e+00
2.734000000000000000e+03 7.212107849121093750e+01 -6.755246639251708984e+00 5.563753247261047363e-01 1.186896705627441406e+01 3.727602720260620117e+00 1.256531000137329102e+00
2.735000000000000000e+03 7.341484069824218750e+01 -6.563551902770996094e+00 6.307081580162048340e-01 1.017455768585205078e+01 3.241579771041870117e+00 1.342243075370788574e+00
2.736000000000000000e+03 7.159117126464843750e+01 5.940121173858642578e+00 -4.261910617351531982e-01 6.750927448272705078e+00 1.897421002388000488e+00 -1.099938988685607910e+00
2.737000000000000000e+03 7.272001647949218750e+01 6.554656028747558594e+00 -3.068406283855438232e-01 6.940838336944580078e+00 1.990199327468872070e+00 -9.302937984466552734e-01
2.738000000000000000e+03 5.190802001953125000e+01 -5.785506248474121094e+00 -1.586604475975036621e+00 1.074199844151735306e-02 -4.727587699890136719e-01 -5.675099492073059082e-01
2.739000000000000000e+03 6.740424346923828125e+01 -2.747180557250976562e+01 -8.206326365470886230e-01 6.240259647369384766e+00 1.625888228416442871e+00 4.622465670108795166e-01
2.740000000000000000e+03 5.847431182861328125e+01 8.924612998962402344e+00 3.059291541576385498e-01 2.507196426391601562e+00 8.439376950263977051e-01 -8.457694649696350098e-01
2.741000000000000000e+03 6.165932464599609375e+01 1.078729248046875000e+01 4.391449391841888428e-01 3.366981983184814453e+00 1.141838073730468750e+00 -1.321416735649108887e+00
2.742000000000000000e+03 9.140244483947753906e+00 2.834523963928222656e+01 -2.545740306377410889e-01 2.428034067153930664e+00 6.520379781723022461e-01 6.757148657925426960e-04
2.743000000000000000e+03 7.090072631835937500e+01 1.319407939910888672e+01 1.433051973581314087e-01 5.686813354492187500e+00 1.749035477638244629e+00 -1.055764317512512207e+00
2.744000000000000000e+03 7.046641349792480469e+00 -2.994933319091796875e+01 -5.762333273887634277e-01 5.270860195159912109e+00 1.408388018608093262e+00 3.687842190265655518e-01
2.745000000000000000e+03 1.626663208007812500e+01 -3.217855834960937500e+01 -2.623686492443084717e-01 2.135853767395019531e+00 5.620455741882324219e-01 -3.104589283466339111e-01
2.746000000000000000e+03 1.682271194458007812e+01 -2.972125816345214844e+01 -3.770663440227508545e-01 1.834942221641540527e+00 4.373627603054046631e-01 -3.701337873935699463e-01
2.747000000000000000e+03 3.809881210327148438e+01 2.089952278137207031e+01 4.979891777038574219e-01 1.959416747093200684e+00 7.372217774391174316e-01 5.673758983612060547e-01
2.748000000000000000e+03 3.009892272949218750e+01 1.388260459899902344e+01 4.890740383416414261e-03 2.331624269485473633e+00 7.009544968605041504e-01 1.236431479454040527e+00
2.749000000000000000e+03 3.101673507690429688e+01 1.775103187561035156e+01 -7.749706506729125977e-02 2.039180755615234375e+00 5.885050892829895020e-01 6.741834282875061035e-01
2.750000000000000000e+03 2.815287017822265625e+01 1.934618759155273438e+01 -1.628792434930801392e-01 1.583154439926147461e+00 4.260825514793395996e-01 2.729656696319580078e-01
2.751000000000000000e+03 1.136775875091552734e+01 -2.584955406188964844e+01 -8.292083740234375000e-01 4.910353183746337891e+00 1.224343419075012207e+00 -5.218703150749206543e-01
2.752000000000000000e+03 1.226249790191650391e+01 -3.301865386962890625e+01 -3.869455158710479736e-01 3.630754947662353516e+00 9.731428623199462891e-01 -2.007817625999450684e-01
2.753000000000000000e+03 5.528962326049804688e+01 -4.689406394958496094e+00 -1.570239424705505371e+00 -1.378259062767028809e-01 -5.124195814132690430e-01 -6.054034829139709473e-01
2.754000000000000000e+03 6.039089584350585938e+01 -6.336163282394409180e-01 -1.544395983219146729e-01 7.463340759277343750e-01 1.775683313608169556e-01 -1.425247788429260254e+00
2.755000000000000000e+03 5.376721191406250000e+01 2.454774284362792969e+01 9.227526783943176270e-01 2.341929197311401367e+00 9.794045686721801758e-01 -6.162661314010620117e-01
2.756000000000000000e+03 5.174121093750000000e+01 2.586756896972656250e+01 1.011431455612182617e+00 2.050633668899536133e+00 9.186195135116577148e-01 -3.905484676361083984e-01
2.757000000000000000e+03 6.893834114074707031e+00 3.461135864257812500e+01 -5.045035108923912048e-02 2.091346979141235352e+00 6.122689843177795410e-01 -5.002328660339117050e-03
2.758000000000000000e+03 9.234280586242675781e+00 -2.558666038513183594e+01 -1.109239935874938965e+00 5.830059528350830078e+00 1.416245937347412109e+00 4.113624989986419678e-02
2.759000000000000000e+03 7.406445026397705078e+00 3.012215423583984375e+01 -1.569144576787948608e-01 2.229191780090332031e+00 6.216831803321838379e-01 -5.357174947857856750e-02
2.760000000000000000e+03 5.275419235229492188e+01 -5.291044712066650391e+00 -1.529093623161315918e+00 -3.516830131411552429e-02 -4.692785739898681641e-01 -5.407451987266540527e-01
2.761000000000000000e+03 6.285425567626953125e+01 1.334580135345458984e+01 5.876652598381042480e-01 3.726347446441650391e+00 1.294203758239746094e+00 -1.249107360839843750e+00
2.762000000000000000e+03 6.480802917480468750e+01 1.614078330993652344e+01 5.548607110977172852e-01 4.192246437072753906e+00 1.424132108688354492e+00 -1.099424600601196289e+00
2.763000000000000000e+03 3.584565734863281250e+01 -8.671489715576171875e+00 -1.510469079017639160e+00 6.004905700683593750e-01 -2.729935348033905029e-01 -4.943112730979919434e-01
2.764000000000000000e+03 7.027574157714843750e+01 -2.952952766418457031e+01 -6.168254017829895020e-01 7.499807834625244141e+00 2.064894676208496094e+00 6.360036879777908325e-02
2.765000000000000000e+03 3.199373817443847656e+01 7.637353897094726562e+00 1.888409137725830078e+00 1.450927972793579102e+00 1.001801133155822754e+00 1.292781114578247070e+00
2.766000000000000000e+03 3.146646308898925781e+01 8.773411750793457031e+00 1.700050592422485352e+00 1.726378917694091797e+00 1.027928829193115234e+00 1.575452446937561035e+00
2.767000000000000000e+03 4.447358703613281250e+01 2.640238952636718750e+01 8.570536375045776367e-01 1.792430281639099121e+00 7.948451638221740723e-01 3.227257430553436279e-01
2.768000000000000000e+03 5.351992797851562500e+01 2.159284353256225586e-01 6.856329273432493210e-03 1.488915830850601196e-01 4.672437533736228943e-02 -3.589624464511871338e-01
2.769000000000000000e+03 7.265421295166015625e+01 -1.470877528190612793e+00 -1.404687166213989258e+00 9.329103469848632812e+00 2.377324819564819336e+00 -1.101861000061035156e-01
2.770000000000000000e+03 7.280805969238281250e+01 -2.682026326656341553e-01 -1.216348886489868164e+00 8.708387374877929688e+00 2.247611522674560547e+00 -2.220829278230667114e-01
2.771000000000000000e+03 3.580499267578125000e+01 9.522421836853027344e+00 1.147601127624511719e+00 1.402976751327514648e+00 7.651733756065368652e-01 1.069414734840393066e+00
2.772000000000000000e+03 3.628934097290039062e+01 8.328520774841308594e+00 1.227711677551269531e+00 1.221652388572692871e+00 7.348092198371887207e-01 8.766651749610900879e-01
2.773000000000000000e+03 1.708443450927734375e+01 2.206522750854492188e+01 -1.914638429880142212e-01 2.473458766937255859e+00 6.845985054969787598e-01 1.322954535484313965e+00
2.774000000000000000e+03 5.606417083740234375e+01 2.855862617492675781e+01 7.551735043525695801e-01 2.900171279907226562e+00 1.096603393554687500e+00 -4.899658858776092529e-01
2.775000000000000000e+03 9.460146903991699219e+00 2.937553167343139648e+00 5.974356457591056824e-02 8.420191764831542969e+00 2.543980598449707031e+00 -2.842531442642211914e+00
2.776000000000000000e+03 8.027764320373535156e+00 -2.691704988479614258e+00 2.651268482208251953e+00 4.911283969879150391e+00 2.268765687942504883e+00 5.167076110839843750e+00
2.777000000000000000e+03 7.597434997558593750e+00 3.019314289093017578e+00 1.116905689239501953e+00 2.870174646377563477e+00 1.196124076843261719e+00 -1.931756377220153809e+00
2.778000000000000000e+03 6.700898170471191406e+00 -2.282131671905517578e+00 2.374122381210327148e+00 1.808015227317810059e+00 1.254641294479370117e+00 2.810479879379272461e+00
2.779000000000000000e+03 4.752328872680664062e+00 4.745103359222412109e+00 4.555835723876953125e-01 1.028715968132019043e+00 4.452898502349853516e-01 -2.395567744970321655e-01
2.780000000000000000e+03 8.082638740539550781e+00 2.426965236663818359e+00 1.503937602043151855e+00 3.226249217987060547e+00 1.419056057929992676e+00 -2.504269361495971680e+00
2.781000000000000000e+03 5.939067840576171875e+00 3.221648454666137695e+00 7.531019449234008789e-01 1.056118845939636230e+00 5.427662134170532227e-01 -5.435527563095092773e-01
2.782000000000000000e+03 8.400766372680664062e+00 -2.615338563919067383e+00 2.685013771057128906e+00 5.990357398986816406e+00 2.602611303329467773e+00 5.648232936859130859e+00
2.783000000000000000e+03 8.286983489990234375e+00 -3.382804155349731445e+00 1.345141291618347168e+00 6.359002113342285156e+00 2.311243057250976562e+00 5.227525711059570312e+00
2.784000000000000000e+03 7.274604320526123047e+00 3.161018133163452148e+00 1.046138763427734375e+00 2.435643196105957031e+00 1.044534564018249512e+00 -1.609185695648193359e+00
2.785000000000000000e+03 7.780589103698730469e+00 -3.017877340316772461e+00 2.051977634429931641e+00 4.872895240783691406e+00 2.077461719512939453e+00 4.899053096771240234e+00
2.786000000000000000e+03 8.018904685974121094e+00 -3.039370536804199219e+00 1.942491888999938965e+00 5.424299716949462891e+00 2.210037469863891602e+00 5.084648609161376953e+00
2.787000000000000000e+03 7.542521476745605469e+00 -2.761575937271118164e+00 2.430148124694824219e+00 3.887865543365478516e+00 1.895404100418090820e+00 4.419230937957763672e+00
2.788000000000000000e+03 9.661773681640625000e+00 3.313867092132568359e+00 -4.458276927471160889e-01 8.758049964904785156e+00 2.493666648864746094e+00 -2.295351028442382812e+00
2.789000000000000000e+03 9.391415596008300781e+00 -3.385714530944824219e+00 7.463861703872680664e-01 9.151205062866210938e+00 2.969277381896972656e+00 5.397178173065185547e+00
2.790000000000000000e+03 9.703554153442382812e+00 -3.132497310638427734e+00 8.940569162368774414e-01 1.027581024169921875e+01 3.350960016250610352e+00 5.250679492950439453e+00
2.791000000000000000e+03 1.038570594787597656e+01 -2.993083238601684570e+00 9.360654354095458984e-01 1.172927570343017578e+01 3.799602270126342773e+00 3.937276840209960938e+00
2.792000000000000000e+03 4.999183177947998047e+00 -3.205467224121093750e+00 9.285538792610168457e-01 1.608563899993896484e+00 7.611353397369384766e-01 1.503973126411437988e+00
2.793000000000000000e+03 1.081578731536865234e+01 -2.864877939224243164e+00 1.276952743530273438e+00 1.207009124755859375e+01 4.004113197326660156e+00 2.909590959548950195e+00
2.794000000000000000e+03 4.563806533813476562e+00 -3.445067644119262695e+00 7.237617969512939453e-01 1.514248847961425781e+00 6.714031696319580078e-01 1.234363794326782227e+00
2.795000000000000000e+03 1.032284259796142578e+01 3.451775312423706055e+00 -9.776697158813476562e-01 1.002005767822265625e+01 2.712716341018676758e+00 -1.229410648345947266e+00
2.796000000000000000e+03 4.691808223724365234e+00 -3.051883220672607422e+00 8.036178350448608398e-01 1.375194787979125977e+00 6.536437869071960449e-01 1.154607772827148438e+00
2.797000000000000000e+03 1.126733589172363281e+01 -2.785017728805541992e+00 1.797362208366394043e+00 1.174252033233642578e+01 4.061964511871337891e+00 1.827986598014831543e+00
2.798000000000000000e+03 3.990970611572265625e+00 3.781896352767944336e+00 3.935927748680114746e-01 3.809571862220764160e-01 2.323649823665618896e-01 1.005800887942314148e-01
2.799000000000000000e+03 3.190135240554809570e+00 -4.011011123657226562e+00 2.870219051837921143e-01 1.133191823959350586e+00 4.260641336441040039e-01 4.916286170482635498e-01
2.800000000000000000e+03 1.246390724182128906e+01 1.678654432296752930e+00 4.037381649017333984e+00 9.570667266845703125e+00 4.082414627075195312e+00 3.128751754760742188e+00
2.801000000000000000e+03 1.296402072906494141e+01 -1.412867426872253418e+00 6.556627750396728516e+00 7.333648204803466797e+00 4.167082786560058594e+00 -1.465793102979660034e-01
2.802000000000000000e+03 1.013475704193115234e+01 4.194746494293212891e+00 -1.183100104331970215e+00 8.719105720520019531e+00 2.260801553726196289e+00 -1.211562156677246094e+00
2.803000000000000000e+03 1.356901741027832031e+01 -1.400125980377197266e+00 6.277275562286376953e+00 5.581278800964355469e+00 3.557566404342651367e+00 1.133200600743293762e-01
2.804000000000000000e+03 1.296536636352539062e+01 3.204087257385253906e+00 4.734212160110473633e-01 8.156475067138671875e+00 2.588968753814697266e+00 1.888472318649291992e+00
2.805000000000000000e+03 5.982862472534179688e+00 -3.071045875549316406e+00 1.409371256828308105e+00 2.228450059890747070e+00 1.091346383094787598e+00 2.479188203811645508e+00
2.806000000000000000e+03 4.945295333862304688e+00 3.201448678970336914e+00 4.974512457847595215e-01 5.516812205314636230e-01 3.147397339344024658e-01 -5.202502757310867310e-02
2.807000000000000000e+03 5.544486045837402344e+00 7.676401615142822266e+00 1.384564042091369629e-01 2.276887416839599609e+00 7.246031761169433594e-01 -3.867213726043701172e-01
2.808000000000000000e+03 4.960985660552978516e+00 7.848425388336181641e+00 1.607594639062881470e-01 1.817435264587402344e+00 5.934584140777587891e-01 -2.998024523258209229e-01
2.809000000000000000e+03 3.820953607559204102e+00 -4.145449638366699219e+00 2.831654250621795654e-01 1.652056813240051270e+00 5.805666446685791016e-01 8.048232197761535645e-01
2.810000000000000000e+03 1.611860275268554688e+01 2.079842805862426758e+00 3.804418802261352539e+00 1.016513943672180176e+00 1.446279883384704590e+00 1.862028241157531738e+00
2.811000000000000000e+03 1.452485942840576172e+01 3.026553392410278320e+00 1.699872493743896484e+00 4.484892845153808594e+00 1.855429530143737793e+00 1.881197571754455566e+00
2.812000000000000000e+03 4.886962890625000000e+00 -7.435528278350830078e+00 -1.113160610198974609e+00 4.860403060913085938e+00 1.124172687530517578e+00 9.177647829055786133e-01
2.813000000000000000e+03 4.297379970550537109e+00 -6.660430908203125000e+00 -6.728936433792114258e-01 3.587416172027587891e+00 8.743568062782287598e-01 8.563347458839416504e-01
2.814000000000000000e+03 1.080358314514160156e+01 8.886322975158691406e+00 -4.676103293895721436e-01 6.417970657348632812e+00 1.785108089447021484e+00 9.161349534988403320e-01
2.815000000000000000e+03 1.064611339569091797e+01 -3.891910791397094727e+00 -9.190340340137481689e-02 1.005685901641845703e+01 2.989486694335937500e+00 3.828402757644653320e+00
2.816000000000000000e+03 1.541602706909179688e+01 1.746094822883605957e+00 4.280983448028564453e+00 2.147824287414550781e+00 1.928642272949218750e+00 1.891528010368347168e+00
2.817000000000000000e+03 3.759294509887695312e+00 5.794112205505371094e+00 2.869254350662231445e-01 6.769219040870666504e-01 2.891542017459869385e-01 -8.944379538297653198e-02
2.818000000000000000e+03 3.656080722808837891e+00 4.337882995605468750e+00 3.631657063961029053e-01 3.372545540332794189e-01 2.101260721683502197e-01 1.072198152542114258e-01
2.819000000000000000e+03 1.272522640228271484e+01 5.083251953125000000e+00 -1.853508830070495605e+00 7.882213115692138672e+00 1.808611273765563965e+00 1.059288859367370605e+00
2.820000000000000000e+03 5.034678459167480469e+00 -8.202093124389648438e+00 -1.469214677810668945e+00 5.865355491638183594e+00 1.318842172622680664e+00 5.265562534332275391e-01
2.821000000000000000e+03 6.380635261535644531e+00 -7.845477104187011719e+00 -2.267903566360473633e+00 7.748647212982177734e+00 1.644223093986511230e+00 1.710429310798645020e+00
2.822000000000000000e+03 1.637775421142578125e+01 -7.437054157257080078e+00 -1.056355476379394531e+00 9.802498817443847656e-01 -2.283167466521263123e-02 4.910128712654113770e-01
2.823000000000000000e+03 1.320382976531982422e+01 2.077575922012329102e-01 7.486819744110107422e+00 6.185410976409912109e+00 4.101669311523437500e+00 1.839683651924133301e+00
2.824000000000000000e+03 1.581931209564208984e+01 1.036420226097106934e+00 5.054316520690917969e+00 1.513511657714843750e+00 1.970348358154296875e+00 1.833622932434082031e+00
2.825000000000000000e+03 1.331293869018554688e+01 3.654684305191040039e+00 4.458530992269515991e-02 7.501372814178466797e+00 2.263787508010864258e+00 1.856211304664611816e+00
2.826000000000000000e+03 4.705235004425048828e+00 5.636802196502685547e+00 3.701699972152709961e-01 1.298784375190734863e+00 5.006862878799438477e-01 -2.910196483135223389e-01
2.827000000000000000e+03 8.820366859436035156e+00 -8.470038414001464844e+00 -4.124567508697509766e+00 1.007812976837158203e+01 1.786068797111511230e+00 4.021420478820800781e+00
2.828000000000000000e+03 7.683469772338867188e+00 -9.557207107543945312e+00 -2.981286048889160156e+00 1.037961769104003906e+01 2.219499349594116211e+00 1.535469532012939453e+00
2.829000000000000000e+03 1.132556247711181641e+01 7.782057762145996094e+00 -1.179605126380920410e+00 7.187909603118896484e+00 1.802491307258605957e+00 1.081710338592529297e+00
2.830000000000000000e+03 1.020472526550292969e+01 -8.849353790283203125e+00 -4.197912693023681641e+00 8.182782173156738281e+00 1.195460796356201172e+00 5.181427955627441406e+00
2.831000000000000000e+03 1.051271915435791016e+01 8.202219963073730469e+00 -7.690576314926147461e-01 6.442437171936035156e+00 1.702013850212097168e+00 7.524421215057373047e-01
2.832000000000000000e+03 6.137264251708984375e+00 1.045536994934082031e+01 1.109645515680313110e-01 2.647246360778808594e+00 8.274633288383483887e-01 -2.282188385725021362e-01
2.833000000000000000e+03 1.111045646667480469e+01 3.179523229598999023e+00 -7.447992563247680664e-01 1.102773761749267578e+01 3.084881305694580078e+00 1.627739518880844116e-01
2.834000000000000000e+03 4.458368301391601562e+00 -6.010506153106689453e+00 -5.168135166168212891e-01 3.500018596649169922e+00 8.949614763259887695e-01 1.109973788261413574e+00
2.835000000000000000e+03 1.332993793487548828e+01 -7.393057823181152344e+00 -1.432169198989868164e+00 3.197007417678833008e+00 5.294514894485473633e-01 2.760629177093505859e+00
2.836000000000000000e+03 8.933917045593261719e+00 -7.775206565856933594e+00 -3.505092620849609375e+00 9.190093040466308594e+00 1.705500006675720215e+00 4.643732547760009766e+00
2.837000000000000000e+03 1.508512401580810547e+01 -7.751259326934814453e+00 -1.494556307792663574e+00 1.394363403320312500e+00 -3.005787916481494904e-02 1.254644155502319336e+00
2.838000000000000000e+03 2.931781005859375000e+01 -8.643469810485839844e+00 -1.650410532951354980e+00 7.675243616104125977e-01 -2.648658752441406250e-01 -3.375276029109954834e-01
2.839000000000000000e+03 3.107715225219726562e+01 -1.126264476776123047e+01 -2.359914779663085938e+00 6.489883661270141602e-01 -5.132778882980346680e-01 -2.602698206901550293e-01
2.840000000000000000e+03 9.028383255004882812e+00 1.072436523437500000e+01 2.912668287754058838e-01 4.539892196655273438e+00 1.449347615242004395e+00 2.875669002532958984e-01
2.841000000000000000e+03 1.084422969818115234e+01 7.165231704711914062e+00 -1.468400955200195312e+00 7.199161052703857422e+00 1.719227910041809082e+00 6.968213319778442383e-01
2.842000000000000000e+03 9.425201416015625000e+00 1.168331527709960938e+01 4.995783567428588867e-01 4.537372112274169922e+00 1.511085033416748047e+00 2.671813666820526123e-01
2.843000000000000000e+03 7.871015071868896484e+00 1.272416019439697266e+01 4.525140225887298584e-01 3.445541620254516602e+00 1.169416666030883789e+00 -1.892522573471069336e-01
2.844000000000000000e+03 4.904395103454589844e+00 6.632447719573974609e+00 2.557171285152435303e-01 1.622957348823547363e+00 5.636023879051208496e-01 -3.466185629367828369e-01
2.845000000000000000e+03 6.130604743957519531e+00 -8.340617179870605469e+00 -1.943212747573852539e+00 7.144286155700683594e+00 1.560321927070617676e+00 1.047837376594543457e+00
2.846000000000000000e+03 5.239989757537841797e+00 -9.104339599609375000e+00 -1.310997605323791504e+00 6.249083518981933594e+00 1.481425762176513672e+00 1.528636664152145386e-01
2.847000000000000000e+03 9.931249618530273438e+00 9.159851074218750000e+00 -2.247456461191177368e-01 5.664093017578125000e+00 1.631804227828979492e+00 6.443719863891601562e-01
2.848000000000000000e+03 7.157485961914062500e+01 -9.914956241846084595e-02 -1.418790936470031738e+00 8.563056945800781250e+00 2.143279790878295898e+00 -8.522552847862243652e-01
2.849000000000000000e+03 6.222215175628662109e+00 -9.836961746215820312e+00 -1.496808171272277832e+00 8.449534416198730469e+00 2.085817813873291016e+00 3.104563653469085693e-01
2.850000000000000000e+03 2.714616775512695312e+01 5.030635595321655273e-01 1.767259478569030762e+00 1.695621490478515625e+00 1.038864254951477051e+00 5.445779561996459961e-01
2.851000000000000000e+03 2.808502960205078125e+01 1.021843314170837402e+00 1.798763275146484375e+00 1.656818509101867676e+00 1.036674499511718750e+00 4.263992309570312500e-01
2.852000000000000000e+03 2.968316459655761719e+01 2.928535223007202148e+00 2.158285379409790039e+00 1.520612597465515137e+00 1.103669404983520508e+00 4.945486485958099365e-01
2.853000000000000000e+03 2.005704307556152344e+01 -2.973273277282714844e+00 2.564811706542968750e+00 3.604182004928588867e-01 8.775689601898193359e-01 8.587276935577392578e-01
2.854000000000000000e+03 2.242966270446777344e+01 -4.451312541961669922e+00 9.401223063468933105e-01 5.595073699951171875e-01 4.498889148235321045e-01 3.024674355983734131e-01
2.855000000000000000e+03 6.687508583068847656e+00 -1.060630798339843750e+01 -1.792321443557739258e+00 1.029220390319824219e+01 2.549964904785156250e+00 -7.273995876312255859e-01
2.856000000000000000e+03 3.971649932861328125e+01 -1.169629859924316406e+01 -2.123625993728637695e+00 3.836773633956909180e-01 -5.219845771789550781e-01 -5.522540211677551270e-01
2.857000000000000000e+03 3.433252334594726562e+01 1.084529113769531250e+01 1.075581908226013184e+00 1.594413042068481445e+00 8.009984493255615234e-01 1.307121157646179199e+00
2.858000000000000000e+03 3.549363708496093750e+01 1.078385353088378906e+01 1.017445921897888184e+00 1.567499041557312012e+00 7.754834890365600586e-01 1.150829911231994629e+00
2.859000000000000000e+03 1.790926742553710938e+01 -1.994881629943847656e+00 4.066465377807617188e+00 5.375809073448181152e-01 1.381213903427124023e+00 1.058253884315490723e+00
2.860000000000000000e+03 4.587339401245117188e+01 -8.897962570190429688e+00 -1.783530950546264648e+00 2.022012025117874146e-01 -4.743989109992980957e-01 -6.603115200996398926e-01
2.861000000000000000e+03 7.120502471923828125e+01 5.041906356811523438e+00 -5.491913557052612305e-01 6.770673751831054688e+00 1.866444706916809082e+00 -1.182971000671386719e+00
2.862000000000000000e+03 6.643213748931884766e+00 8.845868110656738281e+00 1.434794347733259201e-02 3.109244823455810547e+00 9.370778203010559082e-01 -2.173342406749725342e-01
2.863000000000000000e+03 4.629726409912109375e+01 -1.001655483245849609e+01 -2.000941991806030273e+00 1.434645503759384155e-01 -5.572432279586791992e-01 -7.359873056411743164e-01
2.864000000000000000e+03 2.927138137817382812e+01 -1.012956333160400391e+01 -2.176613807678222656e+00 7.124989032745361328e-01 -4.392344951629638672e-01 -2.548883855342864990e-01
2.865000000000000000e+03 4.985050582885742188e+01 -6.912531375885009766e+00 -1.698660969734191895e+00 6.281238049268722534e-02 -4.907545745372772217e-01 -6.183170676231384277e-01
2.866000000000000000e+03 3.163481712341308594e+01 4.844585895538330078e+00 2.151810884475708008e+00 1.294190526008605957e+00 1.033800363540649414e+00 7.782652378082275391e-01
2.867000000000000000e+03 3.120106506347656250e+01 6.011285305023193359e+00 2.237341403961181641e+00 1.390358924865722656e+00 1.088310122489929199e+00 1.066039085388183594e+00
2.868000000000000000e+03 6.786606597900390625e+01 -2.175000190734863281e+00 -1.569793462753295898e+00 7.212027549743652344e+00 1.692670226097106934e+00 -2.937085628509521484e+00
2.869000000000000000e+03 6.872750091552734375e+01 -2.794710159301757812e+01 -7.797068953514099121e-01 6.914352416992187500e+00 1.840393662452697754e+00 2.487317621707916260e-01
2.870000000000000000e+03 5.434251403808593750e+01 -3.733413696289062500e+00 -1.139198660850524902e+00 -4.581089690327644348e-02 -3.555028736591339111e-01 -4.858902394771575928e-01
2.871000000000000000e+03 4.843930435180664062e+01 -4.970188617706298828e+00 -1.133006334304809570e+00 1.595248430967330933e-01 -2.920444607734680176e-01 -4.441435039043426514e-01
2.872000000000000000e+03 5.087617111206054688e+01 -6.263851165771484375e+00 -1.624158382415771484e+00 2.773567475378513336e-02 -4.789268076419830322e-01 -5.841304063796997070e-01
2.873000000000000000e+03 7.088842010498046875e+01 1.178266143798828125e+01 8.513288199901580811e-02 5.780805587768554688e+00 1.759781479835510254e+00 -1.103654503822326660e+00
2.874000000000000000e+03 7.160753631591796875e+01 8.961926460266113281e+00 -1.220522671937942505e-01 6.297996997833251953e+00 1.852783441543579102e+00 -1.087238907814025879e+00
2.875000000000000000e+03 2.271566772460937500e+01 -1.551430344581604004e+00 2.093688964843750000e+00 9.743987321853637695e-01 9.204263091087341309e-01 1.233669996261596680e+00
2.876000000000000000e+03 2.300453567504882812e+01 -5.564230680465698242e-01 2.257032632827758789e+00 1.276625275611877441e+00 1.060097336769104004e+00 1.442441344261169434e+00
2.877000000000000000e+03 7.343691349029541016e+00 1.335407924652099609e+01 3.983170092105865479e-01 3.197170495986938477e+00 1.078646302223205566e+00 -2.799983322620391846e-01
2.878000000000000000e+03 1.784054565429687500e+01 -2.227655053138732910e-01 4.732193946838378906e+00 1.410555094480514526e-01 1.461974859237670898e+00 1.887394785881042480e+00
2.879000000000000000e+03 3.669922637939453125e+01 3.502717256546020508e+00 1.136658072471618652e+00 7.324065566062927246e-01 5.607193708419799805e-01 2.155469954013824463e-01
2.880000000000000000e+03 3.792602157592773438e+01 3.444068908691406250e+00 1.018526673316955566e+00 6.656367778778076172e-01 5.052490234375000000e-01 1.522706598043441772e-01
2.881000000000000000e+03 7.145262908935546875e+01 1.541935253143310547e+01 1.838303357362747192e-01 5.670800685882568359e+00 1.756389379501342773e+00 -9.226436614990234375e-01
2.882000000000000000e+03 2.269389152526855469e+01 -8.114311218261718750e+00 -1.612415432929992676e+00 5.423173308372497559e-01 -3.210294246673583984e-01 -1.720007658004760742e-01
2.883000000000000000e+03 2.453466796875000000e+01 -8.927745819091796875e+00 -2.003153085708618164e+00 6.677446365356445312e-01 -4.006225466728210449e-01 -1.605703681707382202e-01
2.884000000000000000e+03 3.441538238525390625e+01 -1.261742305755615234e+01 -2.435734033584594727e+00 5.200510025024414062e-01 -5.747048854827880859e-01 -3.224357962608337402e-01
2.885000000000000000e+03 3.341265487670898438e+01 -1.058075618743896484e+01 -2.029754400253295898e+00 6.209508180618286133e-01 -4.226410388946533203e-01 -4.025939404964447021e-01
2.886000000000000000e+03 5.724928283691406250e+01 2.561267137527465820e+00 3.027749657630920410e-01 7.554686665534973145e-01 3.174730837345123291e-01 -6.876899003982543945e-01
2.887000000000000000e+03 1.040713310241699219e+01 2.542389106750488281e+01 -4.204229414463043213e-01 2.832265853881835938e+00 7.235528230667114258e-01 5.635803937911987305e-02
2.888000000000000000e+03 1.035607051849365234e+01 2.665797996520996094e+01 -3.457150757312774658e-01 2.646180391311645508e+00 6.901396512985229492e-01 8.016630262136459351e-02
2.889000000000000000e+03 7.122615051269531250e+01 1.437884140014648438e+01 1.661514937877655029e-01 5.651128292083740234e+00 1.745183944702148438e+00 -9.962344169616699219e-01
2.890000000000000000e+03 4.403102874755859375e+01 2.591478824615478516e+00 6.536138057708740234e-01 3.250990808010101318e-01 2.936138510704040527e-01 -1.403567492961883545e-01
2.891000000000000000e+03 3.555213546752929688e+01 -1.259921360015869141e+01 -2.372785091400146484e+00 4.889654219150543213e-01 -5.651459097862243652e-01 -3.850208520889282227e-01
2.892000000000000000e+03 3.785145187377929688e+01 -1.128569507598876953e+01 -2.063913583755493164e+00 4.676906168460845947e-01 -4.788669049739837646e-01 -5.092692971229553223e-01
2.893000000000000000e+03 9.982029914855957031e+00 1.411325740814208984e+01 8.215863108634948730e-01 4.342510223388671875e+00 1.549228906631469727e+00 -1.038567274808883667e-01
2.894000000000000000e+03 8.803569793701171875e+00 1.633990097045898438e+01 2.214296013116836548e-01 3.628572940826416016e+00 1.155000686645507812e+00 -5.057547092437744141e-01
2.895000000000000000e+03 4.202870941162109375e+01 -1.052109336853027344e+01 -1.929178118705749512e+00 3.287201523780822754e-01 -4.801373779773712158e-01 -6.127929091453552246e-01
2.896000000000000000e+03 4.391728210449218750e+01 -1.097799301147460938e+01 -2.052715539932250977e+00 2.163303941488265991e-01 -5.509155392646789551e-01 -6.850921511650085449e-01
2.897000000000000000e+03 2.548538398742675781e+01 -7.576625943183898926e-01 1.621726870536804199e+00 1.566997885704040527e+00 9.566174149513244629e-01 7.335394620895385742e-01
2.898000000000000000e+03 2.837405395507812500e+01 -9.488362312316894531e+00 -1.993080139160156250e+00 7.393172383308410645e-01 -3.761288821697235107e-01 -2.617379426956176758e-01
2.899000000000000000e+03 2.688765144348144531e+01 -7.933052062988281250e+00 -1.422186851501464844e+00 7.571519017219543457e-01 -1.995104849338531494e-01 -2.666299939155578613e-01
2.900000000000000000e+03 7.765734672546386719e+00 2.045864677429199219e+01 -2.440644055604934692e-01 2.924391508102416992e+00 8.040981292724609375e-01 -4.880742728710174561e-01
2.901000000000000000e+03 8.682207107543945312e+00 1.793954086303710938e+01 -4.085388407111167908e-02 3.444956541061401367e+00 1.021230816841125488e+00 -5.424787402153015137e-01
2.902000000000000000e+03 1.077799987792968750e+01 -2.729646110534667969e+01 -8.935834169387817383e-01 4.755915641784667969e+00 1.158699631690979004e+00 -2.056645303964614868e-01
2.903000000000000000e+03 2.182774925231933594e+01 -7.561643600463867188e+00 -1.142461895942687988e+00 4.676138460636138916e-01 -2.024544030427932739e-01 -1.552341580390930176e-01
2.904000000000000000e+03 3.318466567993164062e+01 1.776700782775878906e+01 1.814376115798950195e-01 2.028105020523071289e+00 6.628627777099609375e-01 8.047509193420410156e-01
2.905000000000000000e+03 3.629487991333007812e+01 1.496424102783203125e+01 6.665323972702026367e-01 1.833992838859558105e+00 7.501575350761413574e-01 1.044776916503906250e+00
2.906000000000000000e+03 5.822410202026367188e+01 -3.008092641830444336e-01 -1.330265402793884277e-01 4.025282561779022217e-01 8.085051178932189941e-02 -9.083600044250488281e-01
2.907000000000000000e+03 5.553562164306640625e+01 4.934909641742706299e-01 4.407155141234397888e-02 2.444681078195571899e-01 8.656189590692520142e-02 -5.092701911926269531e-01
2.908000000000000000e+03 1.041881942749023438e+01 1.796240997314453125e+01 -1.080043092370033264e-01 4.067061424255371094e+00 1.187717199325561523e+00 -3.216800689697265625e-01
2.909000000000000000e+03 5.313980865478515625e+01 -1.477051377296447754e+00 -4.205703139305114746e-01 6.539520621299743652e-02 -1.065525338053703308e-01 -3.799596428871154785e-01
2.910000000000000000e+03 4.645247650146484375e+01 -3.731489777565002441e-01 1.080307457596063614e-02 2.613276243209838867e-01 8.163921535015106201e-02 -2.242456823587417603e-01
2.911000000000000000e+03 1.128734588623046875e+01 1.874280738830566406e+01 -2.599974870681762695e-01 4.121797561645507812e+00 1.158540010452270508e+00 -6.375769525766372681e-02
2.912000000000000000e+03 7.026573944091796875e+01 -1.247246623039245605e+00 -1.746449947357177734e+00 8.780264854431152344e+00 2.110144615173339844e+00 -1.418567061424255371e+00
2.913000000000000000e+03 1.962492752075195312e+01 -7.069517135620117188e+00 -6.489824056625366211e-01 4.268146157264709473e-01 -6.665033847093582153e-02 -9.928867965936660767e-02
2.914000000000000000e+03 7.012583160400390625e+01 5.595274448394775391e+00 -4.590504765510559082e-01 6.346075534820556641e+00 1.766107439994812012e+00 -1.355181694030761719e+00
2.915000000000000000e+03 6.023152542114257812e+01 9.580171585083007812e+00 3.761038482189178467e-01 2.974807024002075195e+00 1.005273222923278809e+00 -1.154723882675170898e+00
2.916000000000000000e+03 6.351383972167968750e+01 -8.519318699836730957e-01 -1.741976439952850342e-01 2.176890611648559570e+00 6.008079051971435547e-01 -2.554709672927856445e+00
2.917000000000000000e+03 3.193044090270996094e+01 -9.032319068908691406e+00 -1.675825715065002441e+00 7.212371230125427246e-01 -2.863765656948089600e-01 -4.040623605251312256e-01
2.918000000000000000e+03 7.035453033447265625e+01 1.510122680664062500e+01 2.226211577653884888e-01 5.435255527496337891e+00 1.697363018989562988e+00 -1.009365797042846680e+00
2.919000000000000000e+03 3.266202926635742188e+01 9.266040802001953125e+00 1.479902029037475586e+00 1.589943408966064453e+00 9.209536314010620117e-01 1.393354296684265137e+00
2.920000000000000000e+03 3.160371971130371094e+01 1.279236888885498047e+01 5.794059634208679199e-01 2.056363105773925781e+00 7.907307147979736328e-01 1.438301086425781250e+00
2.921000000000000000e+03 9.242371559143066406e+00 3.025747489929199219e+01 -1.874579340219497681e-01 2.313000679016113281e+00 6.376628279685974121e-01 3.344259038567543030e-02
2.922000000000000000e+03 6.539147186279296875e+01 -8.566920757293701172e-01 -6.550506353378295898e-01 4.026539325714111328e+00 1.011446595191955566e+00 -3.026703119277954102e+00
2.923000000000000000e+03 5.347388839721679688e+01 2.166074991226196289e+00 3.729701340198516846e-01 2.180657088756561279e-01 1.773107498884201050e-01 -3.308216333389282227e-01
2.924000000000000000e+03 5.574918365478515625e+01 1.621338844299316406e+00 2.244012206792831421e-01 3.883704841136932373e-01 1.838315129280090332e-01 -5.153285861015319824e-01
2.925000000000000000e+03 6.321936416625976562e+01 -3.216125488281250000e+01 -1.845860034227371216e-01 3.397082567214965820e+00 9.637489914894104004e-01 4.173659384250640869e-01
2.926000000000000000e+03 6.437715911865234375e+01 -3.028232192993164062e+01 -4.738822877407073975e-01 4.240228652954101562e+00 1.129903912544250488e+00 4.995758235454559326e-01
2.927000000000000000e+03 5.524419403076171875e+01 -3.092230558395385742e+00 -1.001831293106079102e+00 -5.931688472628593445e-02 -3.183444440364837646e-01 -5.356341600418090820e-01
2.928000000000000000e+03 3.181049728393554688e+01 1.153828048706054688e+01 8.623919486999511719e-01 2.045343875885009766e+00 8.723207712173461914e-01 1.553023695945739746e+00
2.929000000000000000e+03 3.973821640014648438e+01 2.224715995788574219e+01 5.395407080650329590e-01 1.944861173629760742e+00 7.453205585479736328e-01 5.395904779434204102e-01
2.930000000000000000e+03 7.039072418212890625e+01 2.018403816223144531e+01 2.611176669597625732e-01 5.194846630096435547e+00 1.636789321899414062e+00 -7.757662534713745117e-01
2.931000000000000000e+03 3.016487121582031250e+01 -9.256255149841308594e+00 -1.810461521148681641e+00 7.399646639823913574e-01 -3.211490809917449951e-01 -3.409511744976043701e-01
2.932000000000000000e+03 6.899854278564453125e+01 2.542241668701171875e+01 2.754054367542266846e-01 4.832098007202148438e+00 1.532251000404357910e+00 -5.967249870300292969e-01
2.933000000000000000e+03 6.976293182373046875e+01 2.318498802185058594e+01 2.677562236785888672e-01 5.010856628417968750e+00 1.583583950996398926e+00 -6.647655963897705078e-01
2.934000000000000000e+03 3.006547737121582031e+01 1.513101005554199219e+01 -1.140481606125831604e-01 2.249961376190185547e+00 6.407739520072937012e-01 1.084082722663879395e+00
2.935000000000000000e+03 2.693765449523925781e+01 2.117568969726562500e+01 7.057373970746994019e-02 1.346240162849426270e+00 4.250441491603851318e-01 2.492190301418304443e-01
2.936000000000000000e+03 1.805761337280273438e+01 2.343329238891601562e+01 -1.936618937179446220e-03 2.061650276184082031e+00 6.179140806198120117e-01 1.147449851036071777e+00
2.937000000000000000e+03 1.480629539489746094e+01 2.844158172607421875e+01 -1.702116876840591431e-01 2.386300563812255859e+00 6.648266315460205078e-01 4.924686849117279053e-01
2.938000000000000000e+03 5.818241119384765625e+01 1.950055503845214844e+01 7.630563974380493164e-01 3.201504468917846680e+00 1.189368247985839844e+00 -7.780750393867492676e-01
2.939000000000000000e+03 5.684143447875976562e+01 1.917671775817871094e+01 8.253786563873291016e-01 3.102992773056030273e+00 1.178511381149291992e+00 -9.043373465538024902e-01
2.940000000000000000e+03 6.317695999145507812e+01 1.554820251464843750e+01 6.702950596809387207e-01 3.815509080886840820e+00 1.345741271972656250e+00 -1.108648061752319336e+00
2.941000000000000000e+03 6.265596008300781250e+01 1.715766525268554688e+01 7.084233760833740234e-01 3.770754098892211914e+00 1.343753218650817871e+00 -9.897068738937377930e-01
2.942000000000000000e+03 6.996458435058593750e+01 1.760917282104492188e+01 2.764134705066680908e-01 5.245882511138916016e+00 1.656688809394836426e+00 -9.176308512687683105e-01
2.943000000000000000e+03 7.003178405761718750e+01 1.632159996032714844e+01 2.483464032411575317e-01 5.300459861755371094e+00 1.664641976356506348e+00 -9.891903400421142578e-01
2.944000000000000000e+03 9.084030151367187500e+00 1.240093994140625000e+01 5.954145193099975586e-01 4.248569488525390625e+00 1.453195214271545410e+00 5.163250491023063660e-02
2.945000000000000000e+03 9.689499855041503906e+00 1.332866477966308594e+01 7.548293471336364746e-01 4.366551399230957031e+00 1.536414265632629395e+00 -3.073801659047603607e-02
2.946000000000000000e+03 5.614494323730468750e+01 -3.940832853317260742e+00 -1.281004428863525391e+00 -1.256086975336074829e-01 -4.219839274883270264e-01 -5.763581395149230957e-01
2.947000000000000000e+03 5.919896316528320312e+01 -2.522053420543670654e-01 -9.883897751569747925e-02 6.198699474334716797e-01 1.563092917203903198e-01 -1.064291119575500488e+00
2.948000000000000000e+03 5.788658523559570312e+01 6.082077026367187500e-01 4.357716441154479980e-02 5.447229743003845215e-01 1.764900386333465576e-01 -8.129683136940002441e-01
2.949000000000000000e+03 3.787180328369140625e+01 7.369349002838134766e+00 1.093916058540344238e+00 1.060120940208435059e+00 6.462111473083496094e-01 5.458428263664245605e-01
2.950000000000000000e+03 3.552614974975585938e+01 6.841262340545654297e+00 1.420871973037719727e+00 1.081273317337036133e+00 7.506436109542846680e-01 7.994969487190246582e-01
2.951000000000000000e+03 4.397566604614257812e+01 8.165218830108642578e-01 3.278757035732269287e-01 3.049436807632446289e-01 1.898458302021026611e-01 -1.880163252353668213e-01
2.952000000000000000e+03 6.616666412353515625e+01 -3.121807289123535156e+01 -4.441511929035186768e-01 5.268022060394287109e+00 1.447161197662353516e+00 4.723165631294250488e-01
2.953000000000000000e+03 7.028718566894531250e+01 -3.166500663757324219e+01 -3.669486641883850098e-01 7.199779033660888672e+00 2.049849033355712891e+00 1.580482721328735352e-01
2.954000000000000000e+03 7.026371002197265625e+01 8.674849510192871094e+00 -1.462772637605667114e-01 5.932361602783203125e+00 1.735825300216674805e+00 -1.293830633163452148e+00
2.955000000000000000e+03 3.447576141357421875e+01 8.921038627624511719e+00 1.365102529525756836e+00 1.358621001243591309e+00 8.171170949935913086e-01 1.146965503692626953e+00
2.956000000000000000e+03 6.408213806152343750e+01 1.413874816894531250e+01 5.561340451240539551e-01 4.001725673675537109e+00 1.367357969284057617e+00 -1.238928675651550293e+00
2.957000000000000000e+03 6.694929504394531250e+01 2.956683158874511719e+01 3.082755804061889648e-01 4.487445354461669922e+00 1.438716292381286621e+00 -4.718308150768280029e-01
2.958000000000000000e+03 9.044676780700683594e+00 2.669334411621093750e+01 -3.265008926391601562e-01 2.564223289489746094e+00 6.713167428970336914e-01 -4.712691903114318848e-02
2.959000000000000000e+03 1.218131065368652344e+01 -2.918867683410644531e+01 -6.769883632659912109e-01 3.919203519821166992e+00 9.726645350456237793e-01 -3.350723087787628174e-01
2.960000000000000000e+03 5.059671783447265625e+01 -4.362683296203613281e+00 -1.111925721168518066e+00 8.098601549863815308e-02 -3.092819154262542725e-01 -4.390031695365905762e-01
2.961000000000000000e+03 4.887388229370117188e+01 -1.485305547714233398e+00 -3.272610306739807129e-01 1.690442115068435669e-01 -4.746504500508308411e-02 -3.051864504814147949e-01
2.962000000000000000e+03 1.433986282348632812e+01 -3.280970764160156250e+01 -3.200296163558959961e-01 2.862376689910888672e+00 7.627041339874267578e-01 -3.279493451118469238e-01
2.963000000000000000e+03 9.107249259948730469e+00 2.390909957885742188e+01 -4.102366864681243896e-01 2.862029790878295898e+00 7.355379462242126465e-01 -1.490226238965988159e-01
2.964000000000000000e+03 1.280956363677978516e+01 2.143655586242675781e+01 -5.543529391288757324e-01 3.691063165664672852e+00 9.410130977630615234e-01 4.247181415557861328e-01
2.965000000000000000e+03 5.810678863525390625e+01 2.335518455505371094e+01 6.849734783172607422e-01 3.162394762039184570e+00 1.154210448265075684e+00 -7.362943291664123535e-01
2.966000000000000000e+03 4.608940887451171875e+01 2.804384422302246094e+01 9.222340583801269531e-01 1.868268728256225586e+00 8.371508717536926270e-01 1.589433550834655762e-01
2.967000000000000000e+03 6.340426445007324219e+00 3.177731752395629883e+00 8.718632459640502930e-01 1.354740858078002930e+00 6.679812073707580566e-01 -8.060834407806396484e-01
2.968000000000000000e+03 5.121073722839355469e+00 6.208696842193603516e+00 3.193225562572479248e-01 1.706516385078430176e+00 6.077516674995422363e-01 -4.170602560043334961e-01
2.969000000000000000e+03 9.588253974914550781e+00 -7.870808601379394531e+00 -3.580157279968261719e+00 8.582362174987792969e+00 1.500661492347717285e+00 4.730890274047851562e+00
2.970000000000000000e+03 8.259230613708496094e+00 3.154096603393554688e+00 8.597633838653564453e-01 4.543649196624755859e+00 1.621023774147033691e+00 -2.546714544296264648e+00
2.971000000000000000e+03 8.599969863891601562e+00 -2.691007137298583984e+00 2.504956245422363281e+00 6.562918186187744141e+00 2.720362186431884766e+00 5.847748756408691406e+00
2.972000000000000000e+03 7.699687480926513672e+00 3.392254590988159180e+00 8.653382658958435059e-01 3.432922840118408203e+00 1.289478302001953125e+00 -1.979568004608154297e+00
2.973000000000000000e+03 6.913552761077880859e+00 -2.949475765228271484e+00 1.906289935111999512e+00 3.121803045272827148e+00 1.508427977561950684e+00 3.624601602554321289e+00
2.974000000000000000e+03 1.056150817871093750e+01 -8.328797340393066406e+00 -3.409815549850463867e+00 7.218322277069091797e+00 1.142552018165588379e+00 5.140095710754394531e+00
2.975000000000000000e+03 1.116282081604003906e+01 -8.021100044250488281e+00 -3.243146181106567383e+00 6.860896587371826172e+00 1.085325121879577637e+00 4.930595397949218750e+00
2.976000000000000000e+03 1.327021789550781250e+01 -1.205253824591636658e-01 7.857612609863281250e+00 6.071622848510742188e+00 4.178770542144775391e+00 1.381198644638061523e+00
2.977000000000000000e+03 4.591167926788330078e+00 3.497481107711791992e+00 4.579913020133972168e-01 4.971300661563873291e-01 2.865363955497741699e-01 5.080759525299072266e-03
2.978000000000000000e+03 4.415122985839843750e+00 3.908812046051025391e+00 4.644492566585540771e-01 5.493553280830383301e-01 3.041413724422454834e-01 -1.419161632657051086e-02
2.979000000000000000e+03 4.906561851501464844e+00 -6.771944046020507812e+00 -9.950218200683593750e-01 4.659481525421142578e+00 1.099337935447692871e+00 1.180562496185302734e+00
2.980000000000000000e+03 4.436202049255371094e+00 -3.911827087402343750e+00 5.015375018119812012e-01 1.857773900032043457e+00 7.077934145927429199e-01 1.204422712326049805e+00
2.981000000000000000e+03 3.457746505737304688e+00 -4.440977573394775391e+00 1.917208135128021240e-01 1.463617086410522461e+00 4.966013729572296143e-01 6.313695311546325684e-01
2.982000000000000000e+03 1.321368598937988281e+01 -1.100121617317199707e+00 7.103682518005371094e+00 6.330937862396240234e+00 4.030385971069335938e+00 2.375446707010269165e-01
2.983000000000000000e+03 1.115042400360107422e+01 -3.028505802154541016e+00 1.309987545013427734e+00 1.130385208129882812e+01 3.784151792526245117e+00 2.351554155349731445e+00
2.984000000000000000e+03 1.048186492919921875e+01 -2.696317195892333984e+00 1.322378277778625488e+00 1.236187171936035156e+01 4.105275154113769531e+00 3.665769338607788086e+00
2.985000000000000000e+03 1.176688194274902344e+01 -7.668546676635742188e+00 -2.323238372802734375e+00 5.452828407287597656e+00 9.388769268989562988e-01 4.534585952758789062e+00
2.986000000000000000e+03 1.059891891479492188e+01 3.041269063949584961e+00 -8.128100633621215820e-01 1.106798267364501953e+01 3.076551914215087891e+00 -8.776749968528747559e-01
2.987000000000000000e+03 1.073744773864746094e+01 4.509639739990234375e+00 -1.566522955894470215e+00 9.151283264160156250e+00 2.275428056716918945e+00 -3.815138936042785645e-01
2.988000000000000000e+03 1.164183139801025391e+01 -2.965148687362670898e+00 1.918738603591918945e+00 1.052940368652343750e+01 3.734442472457885742e+00 1.403988003730773926e+00
2.989000000000000000e+03 1.232133674621582031e+01 2.285320520401000977e+00 2.128762960433959961e+00 1.006457233428955078e+01 3.658000469207763672e+00 2.618572473526000977e+00
2.990000000000000000e+03 6.595290660858154297e+00 -2.778317689895629883e+00 1.842840075492858887e+00 2.497205018997192383e+00 1.302013516426086426e+00 2.978467226028442383e+00
2.991000000000000000e+03 1.123002529144287109e+01 3.890461206436157227e+00 -1.302637577056884766e+00 9.949897766113281250e+00 2.594178199768066406e+00 1.037781164050102234e-01
2.992000000000000000e+03 1.158835792541503906e+01 2.610433816909790039e+00 3.590888082981109619e-01 1.149277114868164062e+01 3.555557966232299805e+00 1.404620766639709473e+00
2.993000000000000000e+03 1.260541725158691406e+01 -2.038730621337890625e+00 5.082451820373535156e+00 8.535876274108886719e+00 4.085498332977294922e+00 -2.533527016639709473e-01
2.994000000000000000e+03 1.630651092529296875e+01 -1.145357131958007812e+00 5.197712898254394531e+00 1.265464305877685547e+00 1.938953161239624023e+00 1.014136791229248047e+00
2.995000000000000000e+03 1.277094650268554688e+01 -1.742185831069946289e+00 5.940819740295410156e+00 7.937803268432617188e+00 4.163587093353271484e+00 -2.642933130264282227e-01
2.996000000000000000e+03 1.283249378204345703e+01 1.452883243560791016e+00 4.906717777252197266e+00 8.219539642333984375e+00 3.937877178192138672e+00 3.095345497131347656e+00
2.997000000000000000e+03 1.263363170623779297e+01 2.746650218963623047e+00 1.237275600433349609e+00 8.955553054809570312e+00 3.057848691940307617e+00 2.241044044494628906e+00
2.998000000000000000e+03 5.336783409118652344e+00 2.943661928176879883e+00 5.651657581329345703e-01 6.072771549224853516e-01 3.517328798770904541e-01 -1.721924990415573120e-01
2.999000000000000000e+03 1.136520290374755859e+01 -7.085310459136962891e+00 -2.441994905471801758e+00 6.834808349609375000e+00 1.317844033241271973e+00 4.273630619049072266e+00
3.000000000000000000e+03 1.072223758697509766e+01 -4.375861644744873047e+00 -4.579034447669982910e-01 9.312676429748535156e+00 2.656431913375854492e+00 3.771879196166992188e+00
3.001000000000000000e+03 4.104851722717285156e+00 4.674017906188964844e+00 3.907186985015869141e-01 6.347982287406921387e-01 3.076550960540771484e-01 -3.498193249106407166e-02
3.002000000000000000e+03 3.314840316772460938e+00 4.965880393981933594e+00 2.664762735366821289e-01 3.020021319389343262e-01 1.705435216426849365e-01 8.480257540941238403e-02
3.003000000000000000e+03 3.499303102493286133e+00 -4.942457199096679688e+00 1.141289398074150085e-01 1.691010117530822754e+00 5.415416955947875977e-01 6.950114369392395020e-01
3.004000000000000000e+03 4.095685958862304688e+00 -5.119800567626953125e+00 -8.190664649009704590e-02 2.495776891708374023e+00 7.241610884666442871e-01 1.005821228027343750e+00
3.005000000000000000e+03 7.179216384887695312e+00 -3.515539407730102539e+00 1.314961194992065430e+00 4.306222438812255859e+00 1.686354994773864746e+00 4.107726097106933594e+00
3.006000000000000000e+03 5.539951801300048828e+00 3.353933095932006836e+00 6.536062955856323242e-01 9.013387560844421387e-01 4.664835035800933838e-01 -3.603139221668243408e-01
3.007000000000000000e+03 4.433009624481201172e+00 4.975561618804931641e+00 4.250630438327789307e-01 9.027187824249267578e-01 3.983345329761505127e-01 -1.672715395689010620e-01
3.008000000000000000e+03 4.831554412841796875e+00 -4.030670642852783203e+00 5.599969625473022461e-01 2.160385370254516602e+00 8.161147236824035645e-01 1.555055379867553711e+00
3.009000000000000000e+03 5.032395839691162109e+00 -6.207078933715820312e+00 -6.962090134620666504e-01 4.194390773773193359e+00 1.049454569816589355e+00 1.517233014106750488e+00
3.010000000000000000e+03 5.779947280883789062e+00 8.139776229858398438e+00 9.858079254627227783e-02 2.470014095306396484e+00 7.705785036087036133e-01 -3.443360626697540283e-01
3.011000000000000000e+03 8.725901603698730469e+00 8.089354515075683594e+00 -4.479703009128570557e-01 5.126457691192626953e+00 1.403546214103698730e+00 2.420842461287975311e-02
3.012000000000000000e+03 9.155781745910644531e+00 3.126904249191284180e+00 1.953554600477218628e-01 7.230062484741210938e+00 2.227625370025634766e+00 -2.836027622222900391e+00
3.013000000000000000e+03 1.212492084503173828e+01 5.543954849243164062e+00 -2.164744377136230469e+00 8.272300720214843750e+00 1.832266926765441895e+00 8.374063372611999512e-01
3.014000000000000000e+03 9.906922340393066406e+00 3.735735177993774414e+00 -8.648233413696289062e-01 8.782851219177246094e+00 2.375408172607421875e+00 -1.710106372833251953e+00
3.015000000000000000e+03 5.453839302062988281e+00 6.710529804229736328e+00 2.250332385301589966e-01 2.101734161376953125e+00 6.980302333831787109e-01 -4.468982219696044922e-01
3.016000000000000000e+03 3.477709531784057617e+00 -3.774298429489135742e+00 4.063556790351867676e-01 1.066085696220397949e+00 4.417324066162109375e-01 5.877697467803955078e-01
3.017000000000000000e+03 5.440360069274902344e+00 7.190511226654052734e+00 1.874948590993881226e-01 2.163259029388427734e+00 7.052261829376220703e-01 -3.929910063743591309e-01
3.018000000000000000e+03 1.482365798950195312e+01 1.338647365570068359e+00 4.805103302001953125e+00 3.322148561477661133e+00 2.438175439834594727e+00 1.965683221817016602e+00
3.019000000000000000e+03 6.007383823394775391e+00 -9.032375335693359375e+00 -2.182856321334838867e+00 8.198506355285644531e+00 1.804695129394531250e+00 5.663585662841796875e-01
3.020000000000000000e+03 1.281979465484619141e+01 4.071963310241699219e+00 -7.575911283493041992e-01 8.184298515319824219e+00 2.228012323379516602e+00 1.379012942314147949e+00
3.021000000000000000e+03 1.350810337066650391e+01 1.525714516639709473e+00 4.742680072784423828e+00 6.220014095306396484e+00 3.288808345794677734e+00 2.634483098983764648e+00
3.022000000000000000e+03 1.319385910034179688e+01 1.174196481704711914e+00 5.712312698364257812e+00 6.915661811828613281e+00 3.788392305374145508e+00 2.728756427764892578e+00
3.023000000000000000e+03 6.905764102935791016e+00 -7.900435924530029297e+00 -2.468719720840454102e+00 8.097187042236328125e+00 1.688540101051330566e+00 2.254216909408569336e+00
3.024000000000000000e+03 9.292029380798339844e+00 3.534297943115234375e+00 -2.433733940124511719e-01 7.491212844848632812e+00 2.174351930618286133e+00 -2.392319917678833008e+00
3.025000000000000000e+03 7.662193298339843750e+00 1.168205547332763672e+01 3.285360336303710938e-01 3.479620695114135742e+00 1.142446994781494141e+00 -1.113046109676361084e-01
3.026000000000000000e+03 6.899473667144775391e+00 1.016662883758544922e+01 1.347999721765518188e-01 3.222423553466796875e+00 1.007166981697082520e+00 -1.704930514097213745e-01
3.027000000000000000e+03 9.714619636535644531e+00 8.499443054199218750e+00 -5.205222368240356445e-01 5.801036834716796875e+00 1.584154367446899414e+00 4.500695765018463135e-01
3.028000000000000000e+03 8.203866958618164062e+00 1.060088157653808594e+01 1.776131838560104370e-01 4.095972537994384766e+00 1.282075762748718262e+00 5.923617258667945862e-02
3.029000000000000000e+03 7.081458091735839844e+00 9.219540596008300781e+00 -1.726889517158269882e-03 3.483944177627563477e+00 1.044665217399597168e+00 -1.486529111862182617e-01
3.030000000000000000e+03 3.104791641235351562e+01 -9.859259605407714844e+00 -1.986637592315673828e+00 7.118690609931945801e-01 -3.824305534362792969e-01 -3.419667482376098633e-01
3.031000000000000000e+03 3.019119071960449219e+01 -7.804376602172851562e+00 -1.318114638328552246e+00 7.819260954856872559e-01 -1.608565747737884521e-01 -3.749014437198638916e-01
3.032000000000000000e+03 7.964994430541992188e+00 -8.919417381286621094e+00 -3.989970684051513672e+00 1.122173690795898438e+01 2.169529914855957031e+00 2.287982940673828125e+00
3.033000000000000000e+03 1.443619441986083984e+01 -7.256754398345947266e+00 -9.810042977333068848e-01 2.192782163619995117e+00 3.635333478450775146e-01 1.541790962219238281e+00
3.034000000000000000e+03 8.022544860839843750e+00 1.118690872192382812e+01 3.201391100883483887e-01 3.835739850997924805e+00 1.246763706207275391e+00 4.472253099083900452e-02
3.035000000000000000e+03 1.804749107360839844e+01 -7.094565868377685547e+00 -6.338860988616943359e-01 5.484381318092346191e-01 -2.563439868390560150e-02 4.637269675731658936e-02
3.036000000000000000e+03 1.708711814880371094e+01 -1.139501690864562988e+00 4.838603496551513672e+00 7.074574232101440430e-01 1.663818240165710449e+00 1.252912282943725586e+00
3.037000000000000000e+03 6.640954494476318359e+00 -9.045908927917480469e+00 -2.097441911697387695e+00 8.505088806152343750e+00 1.922294139862060547e+00 1.185645222663879395e+00
3.038000000000000000e+03 1.610051345825195312e+01 3.141514658927917480e-01 5.438066005706787109e+00 1.152764201164245605e+00 1.977249145507812500e+00 1.588475942611694336e+00
3.039000000000000000e+03 2.144396209716796875e+01 -6.296482563018798828e+00 -1.001843139529228210e-01 4.289622306823730469e-01 9.863337874412536621e-02 -5.871086940169334412e-02
3.040000000000000000e+03 1.884336662292480469e+01 -1.099322199821472168e+00 4.019218444824218750e+00 2.250833213329315186e-01 1.273290514945983887e+00 1.664530277252197266e+00
3.041000000000000000e+03 6.937916564941406250e+01 2.818785429000854492e+00 -8.974114656448364258e-01 6.629342555999755859e+00 1.719579339027404785e+00 -1.675259351730346680e+00
3.042000000000000000e+03 6.155393123626708984e+00 8.530473709106445312e+00 5.810491740703582764e-02 2.780450344085693359e+00 8.515665531158447266e-01 -3.312129080295562744e-01
3.043000000000000000e+03 9.710985183715820312e+00 1.559330463409423828e+01 4.915142953395843506e-01 4.063773155212402344e+00 1.366586208343505859e+00 -3.667576313018798828e-01
3.044000000000000000e+03 1.793082618713378906e+01 -1.121208667755126953e+00 4.455448150634765625e+00 3.429116308689117432e-01 1.439507842063903809e+00 1.449937462806701660e+00
3.045000000000000000e+03 6.628153324127197266e+00 9.622220993041992188e+00 4.317763447761535645e-02 3.049135684967041016e+00 9.276939630508422852e-01 -1.582345962524414062e-01
3.046000000000000000e+03 4.573974609375000000e+01 6.269600987434387207e-01 2.342586070299148560e-01 2.702724933624267578e-01 1.513593345880508423e-01 -2.081678360700607300e-01
3.047000000000000000e+03 4.744193649291992188e+01 -5.618835926055908203e+00 -1.233532428741455078e+00 1.875581592321395874e-01 -3.137922585010528564e-01 -4.813011288642883301e-01
3.048000000000000000e+03 6.965424346923828125e+01 1.179631996154785156e+01 1.129695102572441101e-01 5.517974376678466797e+00 1.689283251762390137e+00 -1.209721684455871582e+00
3.049000000000000000e+03 3.649673843383789062e+01 -1.037807083129882812e+01 -1.904468774795532227e+00 5.451582670211791992e-01 -4.077931344509124756e-01 -4.807209670543670654e-01
3.050000000000000000e+03 6.895202636718750000e+01 -2.325640439987182617e+00 -2.033279418945312500e+00 8.707449913024902344e+00 2.002251148223876953e+00 -2.384122848510742188e+00
3.051000000000000000e+03 5.057389450073242188e+01 -1.598612070083618164e+00 -4.053984284400939941e-01 1.178722158074378967e-01 -8.625786006450653076e-02 -3.354536890983581543e-01
3.052000000000000000e+03 5.248982238769531250e+01 -3.455010950565338135e-01 -1.156949400901794434e-01 9.984624385833740234e-02 -4.754610359668731689e-03 -3.459880352020263672e-01
3.053000000000000000e+03 3.084259986877441406e+01 3.330460309982299805e+00 2.063663244247436523e+00 1.343247056007385254e+00 1.022073030471801758e+00 5.172376036643981934e-01
3.054000000000000000e+03 4.456629180908203125e+01 -1.211312580108642578e+01 -2.209505796432495117e+00 1.312691420316696167e-01 -6.234709620475769043e-01 -7.429750561714172363e-01
3.055000000000000000e+03 3.414336013793945312e+01 1.197547340393066406e+01 8.748982548713684082e-01 1.770923256874084473e+00 7.937464714050292969e-01 1.291495800018310547e+00
3.056000000000000000e+03 3.217094802856445312e+01 1.035882759094238281e+01 1.226525425910949707e+00 1.790426731109619141e+00 9.050856828689575195e-01 1.580825805664062500e+00
3.057000000000000000e+03 2.354557037353515625e+01 -8.661069869995117188e+00 -1.905386924743652344e+00 5.742211341857910156e-01 -3.993497490882873535e-01 -1.406051665544509888e-01
3.058000000000000000e+03 2.484502792358398438e+01 -6.463124752044677734e+00 -6.562123894691467285e-01 7.405232787132263184e-01 2.529326453804969788e-02 -1.499395817518234253e-01
3.059000000000000000e+03 2.179036903381347656e+01 -1.120294332504272461e+00 2.649375200271606445e+00 8.140979409217834473e-01 1.039041996002197266e+00 1.583620548248291016e+00
3.060000000000000000e+03 6.011465454101562500e+01 1.303234338760375977e+00 1.088920980691909790e-01 1.207358360290527344e+00 3.948751091957092285e-01 -1.327000141143798828e+00
3.061000000000000000e+03 4.133287811279296875e+01 -9.544158935546875000e+00 -1.743153214454650879e+00 3.741011321544647217e-01 -4.107156097888946533e-01 -5.921638011932373047e-01
3.062000000000000000e+03 4.082915496826171875e+01 -1.114036178588867188e+01 -2.012299060821533203e+00 3.571643531322479248e-01 -4.965403974056243896e-01 -5.959329009056091309e-01
3.063000000000000000e+03 1.985108566284179688e+01 -2.085601806640625000e+00 3.068429708480834961e+00 3.548513948917388916e-01 1.026984333992004395e+00 1.212306857109069824e+00
3.064000000000000000e+03 4.782966232299804688e+01 -8.087471008300781250e+00 -1.783834338188171387e+00 1.285221129655838013e-01 -4.965936541557312012e-01 -6.603724360466003418e-01
3.065000000000000000e+03 4.617445755004882812e+01 -7.919545173645019531e+00 -1.624444961547851562e+00 2.007289826869964600e-01 -4.271147847175598145e-01 -6.088224649429321289e-01
3.066000000000000000e+03 7.170099639892578125e+01 3.073728561401367188e+01 1.526597142219543457e-01 5.047342300415039062e+00 1.560000538825988770e+00 -3.454188704490661621e-01
3.067000000000000000e+03 2.942166137695312500e+01 -7.220347404479980469e+00 -1.141196012496948242e+00 8.146027922630310059e-01 -9.797798097133636475e-02 -3.667035102844238281e-01
3.068000000000000000e+03 7.170623016357421875e+01 7.704079627990722656e+00 -2.199837863445281982e-01 6.484425067901611328e+00 1.879332423210144043e+00 -1.096455812454223633e+00
3.069000000000000000e+03 6.920561981201171875e+01 6.666000843048095703e+00 -2.875442504882812500e-01 5.803303718566894531e+00 1.654727935791015625e+00 -1.493118762969970703e+00
3.070000000000000000e+03 9.552388191223144531e+00 1.879348564147949219e+01 -1.787277609109878540e-01 3.617172479629516602e+00 1.031533360481262207e+00 -3.830186724662780762e-01
3.071000000000000000e+03 5.346547317504882812e+01 -4.500871658325195312e+00 -1.363512873649597168e+00 -4.302230849862098694e-02 -4.219605624675750732e-01 -5.159737467765808105e-01
3.072000000000000000e+03 5.582625198364257812e+01 -2.261654853820800781e+00 -7.104060649871826172e-01 1.814926788210868835e-02 -2.076770514249801636e-01 -5.306173563003540039e-01
3.073000000000000000e+03 6.648029327392578125e+01 -1.165516749024391174e-01 -9.842698574066162109e-01 5.282869338989257812e+00 1.289579868316650391e+00 -2.832323074340820312e+00
3.074000000000000000e+03 3.283328628540039062e+01 -9.727942466735839844e+00 -1.870194673538208008e+00 6.676778197288513184e-01 -3.607550561428070068e-01 -4.132616817951202393e-01
3.075000000000000000e+03 3.553816604614257812e+01 -1.151794815063476562e+01 -2.172983646392822266e+00 5.464993715286254883e-01 -4.879452884197235107e-01 -4.301588535308837891e-01
3.076000000000000000e+03 6.867951202392578125e+01 1.905231285095214844e+01 3.476468324661254883e-01 4.917132854461669922e+00 1.579433798789978027e+00 -8.805425763130187988e-01
3.077000000000000000e+03 6.848035430908203125e+01 1.755975532531738281e+01 3.538188934326171875e-01 4.914193630218505859e+00 1.580403804779052734e+00 -9.675810933113098145e-01
3.078000000000000000e+03 2.339089012145996094e+01 -7.286251544952392578e+00 -9.833521842956542969e-01 5.896095633506774902e-01 -1.181227862834930420e-01 -1.613810956478118896e-01
3.079000000000000000e+03 4.221372985839843750e+01 2.698897361755371094e+00 6.961559653282165527e-01 3.988821804523468018e-01 3.285114467144012451e-01 -1.007830724120140076e-01
3.080000000000000000e+03 4.313161087036132812e+01 1.762057781219482422e+00 5.231575369834899902e-01 3.575710654258728027e-01 2.642185986042022705e-01 -1.303467005491256714e-01
3.081000000000000000e+03 5.997990798950195312e+01 5.862715721130371094e+00 3.276050090789794922e-01 2.250798940658569336e+00 7.735211849212646484e-01 -1.141080737113952637e+00
3.082000000000000000e+03 5.857071685791015625e+01 3.764818668365478516e+00 3.349705040454864502e-01 1.316042184829711914e+00 4.953038096427917480e-01 -8.917375206947326660e-01
3.083000000000000000e+03 4.970692062377929688e+01 -5.730330944061279297e-01 -1.152692511677742004e-01 1.564142704010009766e-01 1.234350632876157761e-02 -2.920770943164825439e-01
3.084000000000000000e+03 4.944779586791992188e+01 -4.373530387878417969e+00 -1.022369980812072754e+00 1.314465850591659546e-01 -2.672770321369171143e-01 -4.190704226493835449e-01
3.085000000000000000e+03 2.855076026916503906e+01 -7.996901035308837891e+00 -1.420769929885864258e+00 7.850679755210876465e-01 -1.907105892896652222e-01 -3.170337975025177002e-01
3.086000000000000000e+03 3.585317611694335938e+01 1.192536449432373047e+01 8.978932499885559082e-01 1.652997374534606934e+00 7.652671933174133301e-01 1.161713600158691406e+00
3.087000000000000000e+03 2.085902786254882812e+01 -2.010888099670410156e+00 2.624697446823120117e+00 4.708650112152099609e-01 9.286686778068542480e-01 1.234258055686950684e+00
3.088000000000000000e+03 2.103265571594238281e+01 -7.044006824493408203e+00 -7.800783514976501465e-01 4.214422106742858887e-01 -1.075908467173576355e-01 -1.456617265939712524e-01
3.089000000000000000e+03 6.908091735839843750e+01 1.459374427795410156e+01 2.590512037277221680e-01 5.171900272369384766e+00 1.629285335540771484e+00 -1.116673946380615234e+00
3.090000000000000000e+03 7.220613861083984375e+01 1.299490642547607422e+01 9.322631359100341797e-02 6.032977581024169922e+00 1.837861061096191406e+00 -9.617690443992614746e-01
3.091000000000000000e+03 6.640630340576171875e+01 1.038528633117675781e+01 2.169939726591110229e-01 4.603531837463378906e+00 1.446157813072204590e+00 -1.425790190696716309e+00
3.092000000000000000e+03 6.266955947875976562e+01 1.144306755065917969e+01 4.766753017902374268e-01 3.631027221679687500e+00 1.232310771942138672e+00 -1.335008382797241211e+00
3.093000000000000000e+03 1.456063079833984375e+01 2.445331382751464844e+01 -3.986232876777648926e-01 2.878568410873413086e+00 7.439835667610168457e-01 7.156962156295776367e-01
3.094000000000000000e+03 4.473918533325195312e+01 -1.489866822957992554e-01 1.066792309284210205e-01 2.948774993419647217e-01 1.204670146107673645e-01 -2.115436345338821411e-01
3.095000000000000000e+03 5.977338409423828125e+01 3.703680276870727539e+00 3.075901865959167480e-01 1.666830182075500488e+00 5.923261046409606934e-01 -1.184530973434448242e+00
3.096000000000000000e+03 5.420943450927734375e+01 -1.021715879440307617e+00 -3.365813791751861572e-01 7.018659263849258423e-02 -7.991843670606613159e-02 -4.445259571075439453e-01
3.097000000000000000e+03 5.823771667480468750e+01 -1.210344552993774414e+00 -3.734928965568542480e-01 3.287496268749237061e-01 -1.342297531664371490e-02 -8.193302750587463379e-01
3.098000000000000000e+03 8.692935943603515625e+00 2.134210014343261719e+01 -3.610443174839019775e-01 3.079946041107177734e+00 8.156704902648925781e-01 -3.570672571659088135e-01
3.099000000000000000e+03 7.090914916992187500e+01 6.444370269775390625e+00 -3.563998043537139893e-01 6.386632442474365234e+00 1.809069752693176270e+00 -1.245043396949768066e+00
3.100000000000000000e+03 7.000275421142578125e+01 9.853356361389160156e+00 -9.206094779074192047e-03 5.735445022583007812e+00 1.717871665954589844e+00 -1.245489835739135742e+00
3.101000000000000000e+03 3.664843368530273438e+01 -1.144508838653564453e+01 -2.127709388732910156e+00 5.023450255393981934e-01 -4.876093268394470215e-01 -4.699004888534545898e-01
3.102000000000000000e+03 3.846895599365234375e+01 -9.846138954162597656e+00 -1.809091925621032715e+00 4.807127714157104492e-01 -3.985137641429901123e-01 -5.290503501892089844e-01
3.103000000000000000e+03 1.162039089202880859e+01 3.226884078979492188e+01 -1.131209582090377808e-01 2.242616653442382812e+00 6.388487219810485840e-01 1.625017523765563965e-01
3.104000000000000000e+03 1.072582817077636719e+01 2.814623260498046875e+01 -2.931148409843444824e-01 2.522320032119750977e+00 6.687615513801574707e-01 1.183627694845199585e-01
3.105000000000000000e+03 7.136193847656250000e+01 -2.445482063293457031e+01 -9.553820490837097168e-01 8.710131645202636719e+00 2.326424837112426758e+00 -4.731648862361907959e-01
3.106000000000000000e+03 5.240006637573242188e+01 -3.852497577667236328e+00 -1.069862961769104004e+00 2.733379974961280823e-02 -3.127587437629699707e-01 -4.270133078098297119e-01
3.107000000000000000e+03 5.470745849609375000e+01 -2.156112432479858398e+00 -6.253861784934997559e-01 2.755899913609027863e-02 -1.793481558561325073e-01 -4.418142735958099365e-01
3.108000000000000000e+03 5.692713928222656250e+01 -3.120881319046020508e+00 -9.881885647773742676e-01 -6.377399712800979614e-02 -3.155887722969055176e-01 -6.612470746040344238e-01
3.109000000000000000e+03 1.160937881469726562e+01 2.046138954162597656e+01 -4.803840219974517822e-01 3.841711282730102539e+00 1.008398175239562988e+00 1.141044422984123230e-01
3.110000000000000000e+03 1.217878246307373047e+01 2.369912338256835938e+01 -4.932119846343994141e-01 3.157511234283447266e+00 7.992897629737854004e-01 3.452034294605255127e-01
3.111000000000000000e+03 2.083118820190429688e+01 2.162616157531738281e+01 2.924390435218811035e-01 1.081956028938293457e+00 4.123185276985168457e-01 1.062211036682128906e+00
3.112000000000000000e+03 6.035578536987304688e+01 6.874778747558593750e+00 3.078326284885406494e-01 2.521944284439086914e+00 8.489331007003784180e-01 -1.185976386070251465e+00
3.113000000000000000e+03 6.086338806152343750e+01 7.896460056304931641e+00 3.268853724002838135e-01 2.858813047409057617e+00 9.557095170021057129e-01 -1.234727144241333008e+00
3.114000000000000000e+03 2.777900314331054688e+01 -3.867355287075042725e-01 1.378705739974975586e+00 1.456528306007385254e+00 8.505702018737792969e-01 3.044037222862243652e-01
3.115000000000000000e+03 7.063830566406250000e+01 2.140786361694335938e+01 2.417045682668685913e-01 5.205855846405029297e+00 1.634268045425415039e+00 -7.227004766464233398e-01
3.116000000000000000e+03 3.149886131286621094e+01 1.410931396484375000e+01 2.677141726016998291e-01 2.203030347824096680e+00 7.412233948707580566e-01 1.334743499755859375e+00
3.117000000000000000e+03 3.131795120239257812e+01 1.539457511901855469e+01 1.476019527763128281e-02 2.161394357681274414e+00 6.528463959693908691e-01 1.052051544189453125e+00
3.118000000000000000e+03 3.678279495239257812e+01 4.738877296447753906e+00 1.237637639045715332e+00 8.148645162582397461e-01 6.157506704330444336e-01 3.752241432666778564e-01
3.119000000000000000e+03 3.257871627807617188e+01 6.438867092132568359e+00 1.910093069076538086e+00 1.294653058052062988e+00 9.614238142967224121e-01 1.029058337211608887e+00
3.120000000000000000e+03 2.830685043334960938e+01 2.103757095336914062e+01 3.220035508275032043e-02 1.534716963768005371e+00 4.700751900672912598e-01 2.634608745574951172e-01
3.121000000000000000e+03 5.007960128784179688e+01 -5.304327487945556641e+00 -1.362671017646789551e+00 8.532717823982238770e-02 -3.832031488418579102e-01 -4.936485886573791504e-01
3.122000000000000000e+03 3.446765518188476562e+01 -1.154930210113525391e+01 -2.228711605072021484e+00 5.631072521209716797e-01 -4.996812939643859863e-01 -3.847424387931823730e-01
3.123000000000000000e+03 1.339625358581542969e+01 2.511266899108886719e+01 -3.960747122764587402e-01 2.841900825500488281e+00 7.337478399276733398e-01 4.678786098957061768e-01
3.124000000000000000e+03 1.229708862304687500e+01 2.750825691223144531e+01 -3.093852698802947998e-01 2.604081869125366211e+00 6.884089708328247070e-01 2.958429455757141113e-01
3.125000000000000000e+03 5.454694747924804688e+01 6.007620096206665039e-01 7.265599817037582397e-02 1.768850088119506836e-01 7.486230134963989258e-02 -4.182513058185577393e-01
3.126000000000000000e+03 6.926715087890625000e+01 -2.674603843688964844e+01 -9.128978252410888672e-01 7.383814811706542969e+00 1.941275119781494141e+00 1.551319658756256104e-01
3.127000000000000000e+03 3.799701690673828125e+01 6.032205104827880859e+00 1.127260088920593262e+00 8.793601393699645996e-01 6.019860506057739258e-01 4.091359376907348633e-01
3.128000000000000000e+03 3.304554748535156250e+01 2.324091720581054688e+01 3.025720715522766113e-01 1.818571090698242188e+00 6.363429427146911621e-01 3.664877712726593018e-01
3.129000000000000000e+03 4.321346664428710938e+01 2.283137893676757812e+01 7.710480093955993652e-01 1.782169818878173828e+00 7.659653425216674805e-01 5.874879360198974609e-01
3.130000000000000000e+03 4.328987503051757812e+01 2.465058517456054688e+01 7.621847391128540039e-01 1.800731778144836426e+00 7.688749432563781738e-01 4.739039838314056396e-01
3.131000000000000000e+03 2.631758499145507812e+01 -1.671892523765563965e+00 1.193955659866333008e+00 1.329755783081054688e+00 7.571133971214294434e-01 3.947256505489349365e-01
3.132000000000000000e+03 6.261091613769531250e+01 1.880235862731933594e+01 6.831751465797424316e-01 3.829482316970825195e+00 1.353797197341918945e+00 -8.801096677780151367e-01
3.133000000000000000e+03 6.133835983276367188e+01 2.033436775207519531e+01 6.673842668533325195e-01 3.668620824813842773e+00 1.300801515579223633e+00 -8.081063628196716309e-01
3.134000000000000000e+03 4.804058456420898438e+01 -6.297769546508789062e-01 -1.310556530952453613e-01 1.942351758480072021e-01 1.895385794341564178e-02 -2.635301947593688965e-01
3.135000000000000000e+03 1.042714691162109375e+01 -3.075037193298339844e+01 -6.312429904937744141e-01 4.372600555419921875e+00 1.122407317161560059e+00 -7.513055950403213501e-02
3.136000000000000000e+03 9.196530342102050781e+00 3.507475662231445312e+01 -4.774107411503791809e-02 2.123445749282836914e+00 6.227114200592041016e-01 4.334376007318496704e-02
3.137000000000000000e+03 7.190688323974609375e+01 -3.595551300048828125e+01 -8.841717988252639771e-02 7.717930793762207031e+00 2.288854122161865234e+00 9.604670852422714233e-02
3.138000000000000000e+03 3.323346328735351562e+01 8.206383705139160156e+00 1.607045173645019531e+00 1.429385423660278320e+00 9.109292030334472656e-01 1.260580182075500488e+00
3.139000000000000000e+03 3.779405593872070312e+01 2.280922651290893555e+00 8.925144672393798828e-01 6.121588945388793945e-01 4.514020085334777832e-01 4.022970795631408691e-02
3.140000000000000000e+03 3.801890945434570312e+01 4.710291862487792969e+00 1.080402255058288574e+00 7.517668604850769043e-01 5.496507287025451660e-01 2.457116097211837769e-01
3.141000000000000000e+03 3.558781051635742188e+01 1.371237277984619141e+01 7.173745036125183105e-01 1.809051394462585449e+00 7.579277753829956055e-01 1.123507618904113770e+00
3.142000000000000000e+03 4.513265609741210938e+01 -1.043453311920166016e+01 -2.013843297958374023e+00 1.738847047090530396e-01 -5.519875884056091309e-01 -7.093402147293090820e-01
3.143000000000000000e+03 7.007426452636718750e+01 2.956860542297363281e+01 2.001370042562484741e-01 4.885818004608154297e+00 1.525786519050598145e+00 -4.258080720901489258e-01
3.144000000000000000e+03 6.733515167236328125e+01 2.647315406799316406e+01 3.263497948646545410e-01 4.568022251129150391e+00 1.468311548233032227e+00 -5.796971321105957031e-01
3.145000000000000000e+03 6.861568450927734375e+01 2.813678169250488281e+01 2.669667005538940430e-01 4.729837894439697266e+00 1.499041438102722168e+00 -5.007518529891967773e-01
3.146000000000000000e+03 6.811898803710937500e+01 2.388318824768066406e+01 3.270143866539001465e-01 4.736698627471923828e+00 1.519113898277282715e+00 -6.781731247901916504e-01
3.147000000000000000e+03 3.951684951782226562e+01 -9.354733467102050781e+00 -1.696642518043518066e+00 4.456378221511840820e-01 -3.753013908863067627e-01 -5.613778829574584961e-01
3.148000000000000000e+03 3.782028198242187500e+01 -8.857018470764160156e+00 -1.565720319747924805e+00 5.159733295440673828e-01 -3.149240911006927490e-01 -5.283814668655395508e-01
3.149000000000000000e+03 6.680976867675781250e+01 -2.918797874450683594e+01 -6.637402176856994629e-01 5.742392539978027344e+00 1.523595690727233887e+00 4.696188569068908691e-01
3.150000000000000000e+03 8.411893844604492188e+00 -3.218466567993164062e+01 -4.584899842739105225e-01 4.721830368041992188e+00 1.279002189636230469e+00 1.417529731988906860e-01
3.151000000000000000e+03 1.496310806274414062e+01 -3.494461441040039062e+01 -1.313247680664062500e-01 2.663478612899780273e+00 7.596461772918701172e-01 -1.777990609407424927e-01
3.152000000000000000e+03 1.582809066772460938e+01 -3.729263687133789062e+01 1.423658616840839386e-02 2.261780023574829102e+00 6.828049421310424805e-01 -1.464023888111114502e-01
3.153000000000000000e+03 7.062387847900390625e+01 2.618707418441772461e+00 -9.138155579566955566e-01 7.137895107269287109e+00 1.867223858833312988e+00 -1.280512332916259766e+00
3.154000000000000000e+03 6.960977172851562500e+01 4.281051158905029297e+00 -5.943635106086730957e-01 6.307772636413574219e+00 1.714022755622863770e+00 -1.498453736305236816e+00
3.155000000000000000e+03 3.503433990478515625e+01 7.815198421478271484e+00 1.382833719253540039e+00 1.239563226699829102e+00 7.867190837860107422e-01 9.675616621971130371e-01
3.156000000000000000e+03 3.385608673095703125e+01 7.084355354309082031e+00 1.648687005043029785e+00 1.180405735969543457e+00 8.487278223037719727e-01 9.906787872314453125e-01
3.157000000000000000e+03 7.147094726562500000e+01 -1.376958489418029785e+00 -1.581773042678833008e+00 9.064534187316894531e+00 2.244828462600708008e+00 -6.416400074958801270e-01
3.158000000000000000e+03 3.669540405273437500e+01 2.305867004394531250e+01 4.437231421470642090e-01 1.916055202484130859e+00 7.079334855079650879e-01 4.572158157825469971e-01
3.159000000000000000e+03 8.265925407409667969e+00 -2.779198646545410156e+00 2.509765863418579102e+00 5.866604804992675781e+00 2.512911081314086914e+00 5.513031959533691406e+00
3.160000000000000000e+03 5.518440723419189453e+00 6.248082160949707031e+00 2.690066397190093994e-01 2.023221731185913086e+00 6.876685023307800293e-01 -4.739741384983062744e-01
3.161000000000000000e+03 7.489939212799072266e+00 3.892515897750854492e+00 6.318792700767517090e-01 3.440660715103149414e+00 1.221761941909790039e+00 -1.705086827278137207e+00
3.162000000000000000e+03 7.804301261901855469e+00 3.776441335678100586e+00 5.972468852996826172e-01 3.933152437210083008e+00 1.359119772911071777e+00 -1.933510184288024902e+00
3.163000000000000000e+03 7.120231628417968750e+00 3.642114877700805664e+00 8.380587697029113770e-01 2.609369754791259766e+00 1.034228563308715820e+00 -1.489461898803710938e+00
3.164000000000000000e+03 8.522551536560058594e+00 -3.054710865020751953e+00 1.886924266815185547e+00 6.805826663970947266e+00 2.607825279235839844e+00 5.585444450378417969e+00
3.165000000000000000e+03 6.341903209686279297e+00 -4.099465847015380859e+00 6.149476170539855957e-01 3.879788637161254883e+00 1.348420858383178711e+00 3.045025587081909180e+00
3.166000000000000000e+03 9.933253288269042969e+00 -3.615323305130004883e+00 2.380680143833160400e-01 9.997659683227539062e+00 3.070718288421630859e+00 4.836134433746337891e+00
3.167000000000000000e+03 5.156871795654296875e+00 3.576338768005371094e+00 5.848460197448730469e-01 8.087868094444274902e-01 4.180898368358612061e-01 -2.322649955749511719e-01
3.168000000000000000e+03 1.126583671569824219e+01 6.586063861846923828e+00 -1.818416714668273926e+00 7.699975490570068359e+00 1.764467597007751465e+00 7.169467210769653320e-01
3.169000000000000000e+03 4.823233127593994141e+00 -4.535205364227294922e+00 1.802937388420104980e-01 2.698830127716064453e+00 8.637371659278869629e-01 1.496833443641662598e+00
3.170000000000000000e+03 9.649076461791992188e+00 -4.141010284423828125e+00 -3.158717751502990723e-01 9.198746681213378906e+00 2.664862632751464844e+00 4.898602008819580078e+00
3.171000000000000000e+03 1.066734027862548828e+01 -3.479264020919799805e+00 4.399564862251281738e-01 1.073978805541992188e+01 3.353923320770263672e+00 3.508343696594238281e+00
3.172000000000000000e+03 6.039675712585449219e+00 3.652193307876586914e+00 7.530204057693481445e-01 1.410426378250122070e+00 6.490340828895568848e-01 -7.151665091514587402e-01
3.173000000000000000e+03 6.625284671783447266e+00 3.552208423614501953e+00 8.185145854949951172e-01 2.007586002349853516e+00 8.478301763534545898e-01 -1.095344305038452148e+00
3.174000000000000000e+03 8.689036369323730469e+00 2.901766061782836914e+00 8.165478110313415527e-01 5.588970184326171875e+00 1.921655416488647461e+00 -2.925501585006713867e+00
3.175000000000000000e+03 9.012005805969238281e+00 2.865463733673095703e+00 5.976812243461608887e-01 6.887331008911132812e+00 2.245503664016723633e+00 -3.161408424377441406e+00
3.176000000000000000e+03 1.061759757995605469e+01 3.970181941986083984e+00 -1.275933027267456055e+00 9.602638244628906250e+00 2.498011589050292969e+00 -6.786349415779113770e-01
3.177000000000000000e+03 1.396001148223876953e+01 4.408479034900665283e-01 6.492680549621582031e+00 4.723781108856201172e+00 3.364938497543334961e+00 1.836298942565917969e+00
3.178000000000000000e+03 1.249929714202880859e+01 6.780408024787902832e-01 7.584026813507080078e+00 8.656378746032714844e+00 4.872121810913085938e+00 2.928355932235717773e+00
3.179000000000000000e+03 5.866010665893554688e+00 -4.361274719238281250e+00 3.556060791015625000e-01 3.641939163208007812e+00 1.199263572692871094e+00 2.533315896987915039e+00
3.180000000000000000e+03 1.336470890045166016e+01 -1.701499462127685547e+00 5.819944858551025391e+00 6.179461956024169922e+00 3.599822044372558594e+00 -4.523411020636558533e-02
3.181000000000000000e+03 1.217413043975830078e+01 2.991197347640991211e+00 3.310782313346862793e-01 9.928722381591796875e+00 3.077940225601196289e+00 1.756359815597534180e+00
3.182000000000000000e+03 1.625515556335449219e+01 -4.177142679691314697e-01 5.431677818298339844e+00 1.147256016731262207e+00 1.973680138587951660e+00 1.352855086326599121e+00
3.183000000000000000e+03 1.836056709289550781e+01 -5.639994144439697266e+00 7.978132963180541992e-01 5.975659489631652832e-01 4.186137616634368896e-01 1.263679862022399902e-01
3.184000000000000000e+03 9.094835281372070312e+00 -3.826174736022949219e+00 2.811017930507659912e-01 8.544029235839843750e+00 2.647539138793945312e+00 5.341633796691894531e+00
3.185000000000000000e+03 1.187920856475830078e+01 3.798183441162109375e+00 -9.634283781051635742e-01 9.617385864257812500e+00 2.596187114715576172e+00 8.930342197418212891e-01
3.186000000000000000e+03 1.179563045501708984e+01 -3.501112461090087891e+00 1.234684348106384277e+00 9.407835006713867188e+00 3.192755937576293945e+00 1.766494631767272949e+00
3.187000000000000000e+03 1.594705867767333984e+01 -6.524374961853027344e+00 -2.240191698074340820e-01 1.575603127479553223e+00 4.054751992225646973e-01 6.781982183456420898e-01
3.188000000000000000e+03 1.224690151214599609e+01 4.469771385192871094e+00 -1.533712983131408691e+00 8.768324851989746094e+00 2.170383453369140625e+00 9.666872024536132812e-01
3.189000000000000000e+03 1.340033340454101562e+01 2.147701025009155273e+00 3.216216087341308594e+00 6.934421539306640625e+00 3.045191287994384766e+00 2.633892059326171875e+00
3.190000000000000000e+03 5.165707588195800781e+00 5.853024005889892578e+00 3.633392453193664551e-01 1.668811678886413574e+00 6.096453070640563965e-01 -4.340396523475646973e-01
3.191000000000000000e+03 1.305565738677978516e+01 2.457601785659790039e+00 2.372514009475708008e+00 7.990073680877685547e+00 3.108776330947875977e+00 2.544328927993774414e+00
3.192000000000000000e+03 1.159235095977783203e+01 6.017387866973876953e+00 -2.066621065139770508e+00 8.117472648620605469e+00 1.815255641937255859e+00 6.560349464416503906e-01
3.193000000000000000e+03 5.689147949218750000e+00 3.796888113021850586e+00 6.938766241073608398e-01 1.257360219955444336e+00 5.853710770606994629e-01 -5.482918620109558105e-01
3.194000000000000000e+03 4.294896602630615234e+00 -4.472542762756347656e+00 2.776746451854705811e-01 2.109991073608398438e+00 7.162997126579284668e-01 1.201730728149414062e+00
3.195000000000000000e+03 1.236565780639648438e+01 -7.359592914581298828e+00 -2.122880935668945312e+00 5.073926448822021484e+00 8.853136897087097168e-01 3.733672142028808594e+00
3.196000000000000000e+03 1.284153270721435547e+01 -6.971848487854003906e+00 -1.453545689582824707e+00 4.394832611083984375e+00 8.823860883712768555e-01 3.309134721755981445e+00
3.197000000000000000e+03 4.689169883728027344e+00 -5.426802635192871094e+00 -1.967467814683914185e-01 3.169390201568603516e+00 8.917930126190185547e-01 1.428060531616210938e+00
3.198000000000000000e+03 1.544138908386230469e+01 -6.179047107696533203e+00 1.719323992729187012e-01 2.067044258117675781e+00 6.716930270195007324e-01 7.585917115211486816e-01
3.199000000000000000e+03 7.148460388183593750e+00 -9.203141212463378906e+00 -3.224721431732177734e+00 1.067621517181396484e+01 2.235448122024536133e+00 1.378437161445617676e+00
3.200000000000000000e+03 8.158573150634765625e+00 -8.254289627075195312e+00 -3.604928970336914062e+00 9.740844726562500000e+00 1.840774655342102051e+00 3.667024135589599609e+00
3.201000000000000000e+03 4.941586971282958984e+00 5.114886760711669922e+00 4.416794478893280029e-01 1.297659397125244141e+00 5.218016505241394043e-01 -3.383925557136535645e-01
3.202000000000000000e+03 1.701058387756347656e+01 -3.306733667850494385e-01 5.116425514221191406e+00 5.266942381858825684e-01 1.692935943603515625e+00 1.571476936340332031e+00
3.203000000000000000e+03 1.745915412902832031e+01 -6.307497024536132812e+00 2.378373444080352783e-01 8.333219885826110840e-01 3.213478028774261475e-01 1.043683066964149475e-01
3.204000000000000000e+03 4.512087345123291016e+00 4.353889465332031250e+00 4.596315920352935791e-01 7.276282310485839844e-01 3.561779558658599854e-01 -9.961216896772384644e-02
3.205000000000000000e+03 7.501282215118408203e+00 -3.267175674438476562e+00 1.697812557220458984e+00 4.599630832672119141e+00 1.889232993125915527e+00 4.557979106903076172e+00
3.206000000000000000e+03 1.171308135986328125e+01 4.904047489166259766e+00 -1.803745985031127930e+00 8.767223358154296875e+00 2.089043140411376953e+00 5.183517932891845703e-01
3.207000000000000000e+03 6.049114227294921875e+00 7.545773506164550781e+00 1.086691543459892273e-01 2.672021627426147461e+00 8.342072367668151855e-01 -4.009343385696411133e-01
3.208000000000000000e+03 8.948564529418945312e+00 8.706548690795898438e+00 -2.995793223381042480e-01 5.099407196044921875e+00 1.439948439598083496e+00 2.368869781494140625e-01
3.209000000000000000e+03 1.073552513122558594e+01 6.226617813110351562e+00 -1.681739687919616699e+00 7.607601642608642578e+00 1.777758479118347168e+00 2.737899124622344971e-01
3.210000000000000000e+03 5.437313556671142578e+00 -7.374497890472412109e+00 -1.505259871482849121e+00 5.829861640930175781e+00 1.297380566596984863e+00 1.133069992065429688e+00
3.211000000000000000e+03 5.582981109619140625e+00 -6.362619876861572266e+00 -1.125779986381530762e+00 5.322763919830322266e+00 1.259095072746276855e+00 1.835255384445190430e+00
3.212000000000000000e+03 1.017360115051269531e+01 7.597711086273193359e+00 -9.886627793312072754e-01 6.542862415313720703e+00 1.666260004043579102e+00 4.995574057102203369e-01
3.213000000000000000e+03 1.546955966949462891e+01 1.660581976175308228e-01 5.724549770355224609e+00 1.997752785682678223e+00 2.316690683364868164e+00 1.498016357421875000e+00
3.214000000000000000e+03 6.042015075683593750e+00 -7.625141143798828125e+00 -1.782201528549194336e+00 6.677238941192626953e+00 1.468511223793029785e+00 1.468774437904357910e+00
3.215000000000000000e+03 5.644619464874267578e+00 -7.953209877014160156e+00 -1.654293417930603027e+00 6.579145908355712891e+00 1.477455735206604004e+00 1.248604536056518555e+00
3.216000000000000000e+03 7.420623779296875000e+00 1.051389026641845703e+01 1.650091111660003662e-01 3.484871864318847656e+00 1.094964265823364258e+00 -5.727148056030273438e-02
3.217000000000000000e+03 1.024079608917236328e+01 -7.748101711273193359e+00 -3.367981433868408203e+00 8.216113090515136719e+00 1.454439520835876465e+00 5.106923103332519531e+00
3.218000000000000000e+03 5.862751007080078125e+00 -7.268525123596191406e+00 -1.674451589584350586e+00 6.488222122192382812e+00 1.444131135940551758e+00 1.747201442718505859e+00
3.219000000000000000e+03 8.316643714904785156e+00 -7.601665019989013672e+00 -3.333088159561157227e+00 9.260931968688964844e+00 1.778353095054626465e+00 3.749837160110473633e+00
3.220000000000000000e+03 1.522368335723876953e+01 7.711640596389770508e-01 5.468943119049072266e+00 2.304366350173950195e+00 2.331992864608764648e+00 1.732410192489624023e+00
3.221000000000000000e+03 8.309975624084472656e+00 1.000526905059814453e+01 8.938024193048477173e-02 4.199932575225830078e+00 1.286793828010559082e+00 8.966051787137985229e-02
3.222000000000000000e+03 1.034145069122314453e+01 6.701966285705566406e+00 -1.431783676147460938e+00 7.135968208312988281e+00 1.711255431175231934e+00 2.089628726243972778e-01
3.223000000000000000e+03 2.460099029541015625e+01 -1.474023222923278809e+00 1.578659534454345703e+00 1.317123532295227051e+00 8.687349557876586914e-01 8.210608959197998047e-01
3.224000000000000000e+03 6.468761920928955078e+00 8.187917709350585938e+00 3.991519287228584290e-02 2.994299411773681641e+00 9.102643728256225586e-01 -3.342992365360260010e-01
3.225000000000000000e+03 6.938609600067138672e+00 8.372170448303222656e+00 -4.390409961342811584e-02 3.482742786407470703e+00 1.031651616096496582e+00 -2.356845438480377197e-01
3.226000000000000000e+03 1.558941555023193359e+01 -7.100594520568847656e+00 -6.304353475570678711e-01 1.503401160240173340e+00 2.618897259235382080e-01 8.009006977081298828e-01
3.227000000000000000e+03 1.661281013488769531e+01 -6.659974098205566406e+00 -1.287831813097000122e-01 1.074350476264953613e+00 2.836701869964599609e-01 3.676154613494873047e-01
3.228000000000000000e+03 1.899314498901367188e+01 -6.364064216613769531e+00 1.104215979576110840e-01 4.881027638912200928e-01 1.795573085546493530e-01 -5.084416270256042480e-02
3.229000000000000000e+03 1.240928363800048828e+01 -2.250508069992065430e+00 4.344042778015136719e+00 9.128265380859375000e+00 4.041692256927490234e+00 -7.301701605319976807e-02
3.230000000000000000e+03 1.384001922607421875e+01 -6.722290992736816406e+00 -7.409404516220092773e-01 3.319885015487670898e+00 7.736833691596984863e-01 2.073102712631225586e+00
3.231000000000000000e+03 2.797607994079589844e+01 -3.405488967895507812e+00 3.474094271659851074e-01 1.056522727012634277e+00 4.211796522140502930e-01 -7.177275419235229492e-02
3.232000000000000000e+03 2.862840080261230469e+01 1.014253944158554077e-01 1.457595348358154297e+00 1.421492695808410645e+00 8.637264370918273926e-01 2.384340167045593262e-01
3.233000000000000000e+03 3.102928733825683594e+01 -8.405388832092285156e+00 -1.523306846618652344e+00 7.582632899284362793e-01 -2.295130640268325806e-01 -3.926995694637298584e-01
3.234000000000000000e+03 3.100190544128417969e+01 -6.914629459381103516e+00 -1.037770271301269531e+00 7.989562749862670898e-01 -7.164418697357177734e-02 -4.139971435070037842e-01
3.235000000000000000e+03 2.554011344909667969e+01 -2.409555435180664062e+00 1.071365594863891602e+00 1.172518372535705566e+00 6.731652021408081055e-01 3.989992439746856689e-01
3.236000000000000000e+03 2.872279357910156250e+01 -6.640144348144531250e+00 -9.118892550468444824e-01 8.420966267585754395e-01 -2.093778364360332489e-02 -3.228315711021423340e-01
3.237000000000000000e+03 6.373748397827148438e+01 1.212789154052734375e+01 4.597842991352081299e-01 3.908551931381225586e+00 1.310500860214233398e+00 -1.349891185760498047e+00
3.238000000000000000e+03 5.617851638793945312e+01 -1.115232348442077637e+00 -3.486761748790740967e-01 1.101584210991859436e-01 -7.155532389879226685e-02 -5.679988265037536621e-01
3.239000000000000000e+03 1.856005668640136719e+01 -4.258862495422363281e+00 2.137306451797485352e+00 5.755361914634704590e-01 8.138527870178222656e-01 3.450814187526702881e-01
3.240000000000000000e+03 6.111748123168945312e+01 2.611485242843627930e+00 1.905066221952438354e-01 1.913001418113708496e+00 6.310523748397827148e-01 -1.581462979316711426e+00
3.241000000000000000e+03 6.687266540527343750e+01 -1.152159094810485840e+00 -1.141139864921569824e+00 5.802480220794677734e+00 1.398402094841003418e+00 -2.939714908599853516e+00
3.242000000000000000e+03 6.790425109863281250e+01 -1.033836722373962402e+00 -1.542674541473388672e+00 6.929495811462402344e+00 1.616046309471130371e+00 -2.698859453201293945e+00
3.243000000000000000e+03 1.315952396392822266e+01 -2.040661811828613281e+00 5.234992980957031250e+00 6.833319664001464844e+00 3.620493888854980469e+00 -1.745027601718902588e-01
3.244000000000000000e+03 4.796793746948242188e+01 -2.285738706588745117e+00 -4.816331863403320312e-01 1.837615221738815308e-01 -8.936149626970291138e-02 -3.166080415248870850e-01
3.245000000000000000e+03 2.910214042663574219e+01 1.463175058364868164e+00 1.833951592445373535e+00 1.506000161170959473e+00 1.001985549926757812e+00 3.359150886535644531e-01
3.246000000000000000e+03 3.201429367065429688e+01 3.694967269897460938e+00 1.882732748985290527e+00 1.139198184013366699e+00 9.065792560577392578e-01 5.068424344062805176e-01
3.247000000000000000e+03 6.921937561035156250e+01 1.074507141113281250e+01 6.990464031696319580e-02 5.462153911590576172e+00 1.659617543220520020e+00 -1.281790852546691895e+00
3.248000000000000000e+03 7.042581939697265625e+01 7.433938026428222656e+00 -2.269784659147262573e-01 6.132551193237304688e+00 1.771671891212463379e+00 -1.247898340225219727e+00
3.249000000000000000e+03 2.370910835266113281e+01 -2.354561805725097656e+00 1.533705949783325195e+00 1.056980252265930176e+00 7.772058844566345215e-01 7.827121615409851074e-01
3.250000000000000000e+03 4.397483062744140625e+01 -7.884108543395996094e+00 -1.507685184478759766e+00 2.912055552005767822e-01 -3.649438917636871338e-01 -5.765834450721740723e-01
3.251000000000000000e+03 4.056411743164062500e+01 -8.728676795959472656e+00 -1.586758971214294434e+00 4.196231663227081299e-01 -3.501407206058502197e-01 -5.578842163085937500e-01
3.252000000000000000e+03 4.018445205688476562e+01 -1.022453308105468750e+01 -1.869185566902160645e+00 4.088293313980102539e-01 -4.381068944931030273e-01 -5.669628381729125977e-01
3.253000000000000000e+03 2.288243293762207031e+01 -5.893498420715332031e+00 -9.141056239604949951e-02 5.511091351509094238e-01 1.379095762968063354e-01 -1.123079471290111542e-02
3.254000000000000000e+03 5.859807586669921875e+01 2.421234369277954102e+00 2.687511146068572998e-01 1.069894552230834961e+00 4.015937149524688721e-01 -9.313479065895080566e-01
3.255000000000000000e+03 6.091247558593750000e+01 4.264936447143554688e-01 4.051699489355087280e-02 1.231438875198364258e+00 3.815867602825164795e-01 -1.511295437812805176e+00
3.256000000000000000e+03 6.733836364746093750e+01 2.070790672302246094e+01 3.987137675285339355e-01 4.643715381622314453e+00 1.512728691101074219e+00 -8.253120779991149902e-01
3.257000000000000000e+03 6.857655334472656250e+01 1.604301834106445312e+01 3.385330438613891602e-01 4.974989891052246094e+00 1.594056844711303711e+00 -1.042722702026367188e+00
3.258000000000000000e+03 6.949156951904296875e+01 1.316897201538085938e+01 2.019916623830795288e-01 5.353300094604492188e+00 1.666587471961975098e+00 -1.145865559577941895e+00
3.259000000000000000e+03 5.216136550903320312e+01 -1.920571446418762207e+00 -5.204669237136840820e-01 5.684502795338630676e-02 -1.390865743160247803e-01 -3.637782633304595947e-01
3.260000000000000000e+03 5.148965835571289062e+01 -9.087359905242919922e-01 -2.454292923212051392e-01 9.852898865938186646e-02 -4.407009109854698181e-02 -3.238644301891326904e-01
3.261000000000000000e+03 5.969417572021484375e+01 8.434393882751464844e+00 3.348537087440490723e-01 2.621552467346191406e+00 8.869218230247497559e-01 -1.056031584739685059e+00
3.262000000000000000e+03 3.444468688964843750e+01 -1.049657440185546875e+01 -1.981087565422058105e+00 6.103971004486083984e-01 -4.112071394920349121e-01 -4.317490160465240479e-01
3.263000000000000000e+03 9.631706237792968750e+00 2.050803565979003906e+01 -3.575806319713592529e-01 3.420409202575683594e+00 9.188485741615295410e-01 -2.694358825683593750e-01
3.264000000000000000e+03 4.698748397827148438e+01 -3.021206855773925781e+00 -6.201150417327880859e-01 2.158359438180923462e-01 -1.212837249040603638e-01 -3.561716675758361816e-01
3.265000000000000000e+03 8.613843917846679688e+00 2.296777915954589844e+01 -3.805312514305114746e-01 2.883611679077148438e+00 7.509241700172424316e-01 -2.682126164436340332e-01
3.266000000000000000e+03 7.787330150604248047e+00 2.216418647766113281e+01 -3.248162567615509033e-01 2.795039653778076172e+00 7.410669922828674316e-01 -3.660948574542999268e-01
3.267000000000000000e+03 3.465027618408203125e+01 -7.788246154785156250e+00 -1.301468968391418457e+00 6.466466188430786133e-01 -1.964467167854309082e-01 -4.845066666603088379e-01
3.268000000000000000e+03 3.683695220947265625e+01 -9.491046905517578125e+00 -1.723265528678894043e+00 5.533606410026550293e-01 -3.509714901447296143e-01 -5.105957388877868652e-01
3.269000000000000000e+03 4.034348678588867188e+01 2.648092508316040039e+00 7.585668563842773438e-01 4.976069331169128418e-01 3.768521547317504883e-01 -2.707512490451335907e-02
3.270000000000000000e+03 3.916778182983398438e+01 3.247277736663818359e+00 8.854625225067138672e-01 5.814728736877441406e-01 4.400806128978729248e-01 4.754953458905220032e-02
3.271000000000000000e+03 3.435617446899414062e+01 1.429638481140136719e+01 5.717198848724365234e-01 1.920099377632141113e+00 7.475457787513732910e-01 1.189026117324829102e+00
3.272000000000000000e+03 2.050359344482421875e+01 -6.409175872802734375e+00 -9.447589516639709473e-02 4.271958470344543457e-01 9.981598705053329468e-02 -6.226006895303726196e-02
3.273000000000000000e+03 3.183770179748535156e+01 -7.545079708099365234e+00 -1.203479647636413574e+00 7.693633437156677246e-01 -1.302348822355270386e-01 -4.240010976791381836e-01
3.274000000000000000e+03 2.790628433227539062e+01 -1.807703375816345215e+00 9.126858115196228027e-01 1.232168197631835938e+00 6.434562206268310547e-01 1.171884015202522278e-01
3.275000000000000000e+03 2.787454032897949219e+01 -7.293747425079345703e+00 -1.176114201545715332e+00 8.132776021957397461e-01 -1.088509708642959595e-01 -3.028854429721832275e-01
3.276000000000000000e+03 5.262513351440429688e+01 -2.932597398757934570e+00 -8.358415961265563965e-01 2.289890497922897339e-02 -2.438828051090240479e-01 -4.102634191513061523e-01
3.277000000000000000e+03 6.528435516357421875e+01 7.993528366088867188e+00 1.118047609925270081e-01 4.221729278564453125e+00 1.300060272216796875e+00 -1.621420979499816895e+00
3.278000000000000000e+03 5.694411468505859375e+01 1.259685873985290527e+00 1.785145998001098633e-01 5.174129605293273926e-01 2.087782770395278931e-01 -6.642279028892517090e-01
3.279000000000000000e+03 5.741195297241210938e+01 -2.552592456340789795e-01 -1.034700050950050354e-01 3.302041590213775635e-01 6.802024692296981812e-02 -7.036835551261901855e-01
3.280000000000000000e+03 3.326769256591796875e+01 1.074263000488281250e+01 1.097183346748352051e+00 1.753649711608886719e+00 8.552499413490295410e-01 1.416194677352905273e+00
3.281000000000000000e+03 1.350570583343505859e+01 2.370768928527832031e+01 -4.876901805400848389e-01 3.115206480026245117e+00 7.882548570632934570e-01 5.470396280288696289e-01
3.282000000000000000e+03 3.291213989257812500e+01 1.299956893920898438e+01 6.426032185554504395e-01 1.990286111831665039e+00 7.898668050765991211e-01 1.378994464874267578e+00
3.283000000000000000e+03 3.293669891357421875e+01 1.438919830322265625e+01 4.180427491664886475e-01 2.011037588119506836e+00 7.287241220474243164e-01 1.203016519546508789e+00
3.284000000000000000e+03 2.906564903259277344e+01 -7.144378423690795898e-01 1.161812543869018555e+00 1.292269587516784668e+00 7.362246513366699219e-01 1.165748164057731628e-01
3.285000000000000000e+03 8.328795433044433594e+00 1.208441829681396484e+01 4.298634529113769531e-01 3.819663047790527344e+00 1.274857997894287109e+00 9.144915267825126648e-03
3.286000000000000000e+03 4.209357833862304688e+01 -6.560651779174804688e+00 -1.169916033744812012e+00 3.651680350303649902e-01 -2.414243966341018677e-01 -5.075213313102722168e-01
3.287000000000000000e+03 3.406114578247070312e+01 1.301582336425781250e+01 7.168826460838317871e-01 1.846106529235839844e+00 7.688967585563659668e-01 1.282118439674377441e+00
3.288000000000000000e+03 3.288007736206054688e+01 1.540776252746582031e+00 1.348413348197937012e+00 9.415012001991271973e-01 6.869744062423706055e-01 1.150450780987739563e-01
3.289000000000000000e+03 6.529630279541015625e+01 1.988642811775207520e+00 -4.145322442054748535e-01 4.204248905181884766e+00 1.136914968490600586e+00 -2.375250339508056641e+00
3.290000000000000000e+03 1.378073692321777344e+01 2.038941192626953125e+01 -5.712198019027709961e-01 3.972722768783569336e+00 1.020450949668884277e+00 7.040437459945678711e-01
3.291000000000000000e+03 1.479651069641113281e+01 1.980935287475585938e+01 -4.328986704349517822e-01 3.892385959625244141e+00 1.037846207618713379e+00 1.182193756103515625e+00
3.292000000000000000e+03 1.159991931915283203e+01 2.248946952819824219e+01 -5.345665216445922852e-01 3.374047756195068359e+00 8.518443703651428223e-01 2.072302997112274170e-01
3.293000000000000000e+03 7.045953369140625000e+01 1.323206186294555664e+00 -1.212801575660705566e+00 7.605402469635009766e+00 1.917780280113220215e+00 -1.380391597747802734e+00
3.294000000000000000e+03 5.922701644897460938e+01 7.296402454376220703e+00 3.351311385631561279e-01 2.328960657119750977e+00 7.992275953292846680e-01 -9.635146260261535645e-01
3.295000000000000000e+03 6.096991348266601562e+01 3.749009132385253906e+00 2.440436333417892456e-01 2.082006692886352539e+00 6.978151202201843262e-01 -1.454221963882446289e+00
3.296000000000000000e+03 2.973463821411132812e+01 2.263699150085449219e+01 1.885072290897369385e-01 1.644855856895446777e+00 5.500088930130004883e-01 2.908992171287536621e-01
3.297000000000000000e+03 6.889676666259765625e+01 2.045893669128417969e+01 3.210518360137939453e-01 4.931440353393554688e+00 1.575747609138488770e+00 -8.082014322280883789e-01
3.298000000000000000e+03 1.767442893981933594e+01 2.887651824951171875e+01 4.575394839048385620e-02 2.068238019943237305e+00 6.341975927352905273e-01 6.035015583038330078e-01
3.299000000000000000e+03 6.909648895263671875e+01 3.476441192626953125e+01 2.239039987325668335e-01 4.664599895477294922e+00 1.466551184654235840e+00 -2.766261100769042969e-01
3.300000000000000000e+03 4.882165145874023438e+01 -3.300450325012207031e+00 -7.659999132156372070e-01 1.520973742008209229e-01 -1.841707676649093628e-01 -3.822338581085205078e-01
3.301000000000000000e+03 2.201246070861816406e+01 2.652507400512695312e+01 3.235662281513214111e-01 1.543294548988342285e+00 5.600582361221313477e-01 6.410375833511352539e-01
3.302000000000000000e+03 3.430685043334960938e+01 5.096752643585205078e+00 1.604314327239990234e+00 9.948633909225463867e-01 7.797533273696899414e-01 6.487715244293212891e-01
3.303000000000000000e+03 5.829747009277343750e+01 2.120691299438476562e+01 6.997999548912048340e-01 3.277023315429687500e+00 1.193046927452087402e+00 -8.062329888343811035e-01
3.304000000000000000e+03 3.893197250366210938e+01 2.460343742370605469e+01 5.571973323822021484e-01 1.897645592689514160e+00 7.364528775215148926e-01 4.282687604427337646e-01
3.305000000000000000e+03 1.106860828399658203e+01 2.435019302368164062e+01 -4.713094234466552734e-01 3.020572662353515625e+00 7.647789716720581055e-01 9.991954267024993896e-02
3.306000000000000000e+03 3.099492263793945312e+01 1.655885505676269531e+01 -8.433279395103454590e-02 2.106059312820434570e+00 6.065179705619812012e-01 8.501875400543212891e-01
3.307000000000000000e+03 3.265986251831054688e+01 1.581006717681884766e+01 2.390829473733901978e-01 2.085312128067016602e+00 6.973185539245605469e-01 1.059306979179382324e+00
3.308000000000000000e+03 3.467247772216796875e+01 6.200225830078125000e+00 1.561300277709960938e+00 1.084993481636047363e+00 7.938880920410156250e-01 7.720885276794433594e-01
3.309000000000000000e+03 3.297278213500976562e+01 5.165758609771728516e+00 1.848836898803710938e+00 1.099205732345581055e+00 8.844127655029296875e-01 7.361056208610534668e-01
3.310000000000000000e+03 4.255634307861328125e+01 -8.662672996520996094e+00 -1.609557628631591797e+00 3.357025086879730225e-01 -3.821565508842468262e-01 -5.784012079238891602e-01
3.311000000000000000e+03 6.454551696777343750e+01 1.768319606781005859e-01 -4.349406957626342773e-01 3.419189691543579102e+00 8.952746987342834473e-01 -2.713507890701293945e+00
3.312000000000000000e+03 6.579048919677734375e+01 1.786033821105957031e+01 5.038790702819824219e-01 4.358834266662597656e+00 1.458814024925231934e+00 -9.886601567268371582e-01
3.313000000000000000e+03 2.386749458312988281e+01 -6.423538684844970703e+00 -5.508407354354858398e-01 6.735913753509521484e-01 3.682519495487213135e-02 -9.582106024026870728e-02
3.314000000000000000e+03 2.089707946777343750e+01 -2.854712247848510742e+00 2.309034824371337891e+00 4.568884670734405518e-01 8.297769427299499512e-01 9.223675131797790527e-01
3.315000000000000000e+03 6.627709960937500000e+01 1.673769187927246094e+01 4.793025851249694824e-01 4.486145496368408203e+00 1.489634394645690918e+00 -1.051705360412597656e+00
3.316000000000000000e+03 4.461329650878906250e+01 -9.172987937927246094e+00 -1.784764766693115234e+00 2.367234081029891968e-01 -4.644124209880828857e-01 -6.386452317237854004e-01
3.317000000000000000e+03 4.571760940551757812e+01 -5.428585052490234375e+00 -1.109290242195129395e+00 2.443212568759918213e-01 -2.594906985759735107e-01 -4.685567319393157959e-01
3.318000000000000000e+03 6.820623016357421875e+01 -3.173352622985839844e+01 -4.157951474189758301e-01 6.266269683837890625e+00 1.755142331123352051e+00 3.573789894580841064e-01
3.319000000000000000e+03 4.228620147705078125e+01 9.457477927207946777e-01 4.273218810558319092e-01 3.624610602855682373e-01 2.369348853826522827e-01 -1.615084707736968994e-01
3.320000000000000000e+03 4.136433410644531250e+01 -1.833531618118286133e+00 -8.892846852540969849e-02 3.898444473743438721e-01 9.027479588985443115e-02 -2.897471189498901367e-01
3.321000000000000000e+03 6.359038829803466797e+00 -3.291997528076171875e+01 -3.036693334579467773e-01 5.251749992370605469e+00 1.484424233436584473e+00 1.941548585891723633e-01
3.322000000000000000e+03 3.502347564697265625e+01 1.573781967163085938e+01 5.000947117805480957e-01 1.944378018379211426e+00 7.333418130874633789e-01 1.021814942359924316e+00
3.323000000000000000e+03 3.650230026245117188e+01 2.104269599914550781e+01 4.503116905689239502e-01 1.945233464241027832e+00 7.186635732650756836e-01 5.643878579139709473e-01
3.324000000000000000e+03 3.708760833740234375e+01 2.518021392822265625e+01 5.079297423362731934e-01 1.882414340972900391e+00 7.171032428741455078e-01 3.931366205215454102e-01
3.325000000000000000e+03 6.154022979736328125e+01 -3.392362594604492188e+01 5.066295713186264038e-02 2.577895641326904297e+00 7.885676026344299316e-01 3.210618495941162109e-01
3.326000000000000000e+03 5.365914154052734375e+01 -2.640524625778198242e+00 -7.844001650810241699e-01 2.036599069833755493e-02 -2.292102426290512085e-01 -4.316315352916717529e-01
3.327000000000000000e+03 6.922013854980468750e+01 2.184748268127441406e+01 2.995462417602539062e-01 4.962954998016357422e+00 1.578750371932983398e+00 -7.387631535530090332e-01
3.328000000000000000e+03 4.136933517456054688e+01 1.782636404037475586e+00 5.883907079696655273e-01 4.381897151470184326e-01 3.079741299152374268e-01 -9.877327084541320801e-02
3.329000000000000000e+03 8.108675003051757812e+00 3.662434816360473633e+00 5.313318371772766113e-01 4.490109443664550781e+00 1.506432414054870605e+00 -2.165609598159790039e+00
3.330000000000000000e+03 6.553252220153808594e+00 -3.380879878997802734e+00 1.318679809570312500e+00 3.269601345062255859e+00 1.376484394073486328e+00 3.273915290832519531e+00
3.331000000000000000e+03 5.431320667266845703e+00 5.365618228912353516e+00 4.267900288105010986e-01 1.744370102882385254e+00 6.513480544090270996e-01 -5.202378034591674805e-01
3.332000000000000000e+03 9.462024688720703125e+00 5.085471153259277344e+00 -9.985842704772949219e-01 7.046820163726806641e+00 1.814470767974853516e+00 -1.152960419654846191e+00
3.333000000000000000e+03 8.826322555541992188e+00 4.879064559936523438e+00 -5.359717607498168945e-01 6.055840015411376953e+00 1.655960559844970703e+00 -1.481485843658447266e+00
3.334000000000000000e+03 8.916837692260742188e+00 3.745406866073608398e+00 -6.655407696962356567e-02 6.460063934326171875e+00 1.918052911758422852e+00 -2.321251153945922852e+00
3.335000000000000000e+03 5.439009189605712891e+00 -5.358218193054199219e+00 -3.593600988388061523e-01 4.051245689392089844e+00 1.107565641403198242e+00 2.043233156204223633e+00
3.336000000000000000e+03 6.703486919403076172e+00 -4.248681068420410156e+00 5.326564311981201172e-01 4.456605434417724609e+00 1.496778488159179688e+00 3.615174293518066406e+00
3.337000000000000000e+03 1.027884006500244141e+01 5.916277885437011719e+00 -1.560505151748657227e+00 7.537877082824707031e+00 1.793211579322814941e+00 -1.522750258445739746e-01
3.338000000000000000e+03 5.600904941558837891e+00 -3.809727430343627930e+00 7.131599783897399902e-01 2.801763772964477539e+00 1.054477095603942871e+00 2.192283868789672852e+00
3.339000000000000000e+03 6.670977115631103516e+00 -3.638254880905151367e+00 1.151005864143371582e+00 3.671900033950805664e+00 1.446871757507324219e+00 3.423361778259277344e+00
3.340000000000000000e+03 6.301485538482666016e+00 -3.470775365829467773e+00 1.159682631492614746e+00 3.169086694717407227e+00 1.298630833625793457e+00 3.024182796478271484e+00
3.341000000000000000e+03 1.002620506286621094e+01 -4.017675399780273438e+00 -1.925303041934967041e-01 9.560907363891601562e+00 2.810513019561767578e+00 4.549465179443359375e+00
3.342000000000000000e+03 1.102927207946777344e+01 -3.262187480926513672e+00 8.834701776504516602e-01 1.106069564819335938e+01 3.583249807357788086e+00 2.732470035552978516e+00
3.343000000000000000e+03 7.000544548034667969e+00 3.361191511154174805e+00 9.610823392868041992e-01 2.219902038574218750e+00 9.542952775955200195e-01 -1.396877884864807129e+00
3.344000000000000000e+03 9.437586784362792969e+00 -3.709508180618286133e+00 3.130557537078857422e-01 9.130344390869140625e+00 2.833020210266113281e+00 5.164392948150634766e+00
3.345000000000000000e+03 1.361623954772949219e+01 6.977844983339309692e-02 7.253570079803466797e+00 5.259629249572753906e+00 3.753959894180297852e+00 1.653447508811950684e+00
3.346000000000000000e+03 7.765931129455566406e+00 -3.328978300094604492e+00 1.552975058555603027e+00 5.208919525146484375e+00 2.028568267822265625e+00 4.774385929107666016e+00
3.347000000000000000e+03 8.018216133117675781e+00 -3.359546661376953125e+00 1.497144341468811035e+00 5.740807533264160156e+00 2.171385526657104492e+00 5.081955909729003906e+00
3.348000000000000000e+03 7.901456356048583984e+00 4.166083812713623047e+00 3.359321951866149902e-01 4.287895679473876953e+00 1.387148380279541016e+00 -1.806192994117736816e+00
3.349000000000000000e+03 1.383421802520751953e+01 -3.492434620857238770e-01 6.971904754638671875e+00 4.811020374298095703e+00 3.534877538681030273e+00 1.093593478202819824e+00
3.350000000000000000e+03 8.765898704528808594e+00 -4.044092655181884766e+00 2.140143215656280518e-01 7.697928905487060547e+00 2.373583078384399414e+00 5.218983173370361328e+00
3.351000000000000000e+03 1.107822799682617188e+01 -3.871754884719848633e+00 2.056193798780441284e-01 9.776645660400390625e+00 2.994679450988769531e+00 3.045711755752563477e+00
3.352000000000000000e+03 1.171925258636474609e+01 -4.127264499664306641e+00 4.071936607360839844e-01 8.712293624877929688e+00 2.735846281051635742e+00 2.369850873947143555e+00
3.353000000000000000e+03 1.147747135162353516e+01 -3.232099056243896484e+00 1.261953830718994141e+00 1.050568675994873047e+01 3.530292272567749023e+00 1.891875028610229492e+00
3.354000000000000000e+03 1.105693626403808594e+01 5.671425342559814453e+00 -1.914823055267333984e+00 8.201224327087402344e+00 1.885920405387878418e+00 2.846549749374389648e-01
3.355000000000000000e+03 1.428535175323486328e+01 1.735954284667968750e+00 4.288090705871582031e+00 4.484516143798828125e+00 2.631782054901123047e+00 2.302287817001342773e+00
3.356000000000000000e+03 1.354769420623779297e+01 8.311172723770141602e-01 6.366247177124023438e+00 5.722458362579345703e+00 3.626611709594726562e+00 2.380302429199218750e+00
3.357000000000000000e+03 1.311308288574218750e+01 1.797253131866455078e+00 3.959485530853271484e+00 7.634768486022949219e+00 3.478276252746582031e+00 2.812919378280639648e+00
3.358000000000000000e+03 1.514089202880859375e+01 -5.715347290039062500e+00 7.068048119544982910e-01 2.523384094238281250e+00 9.690566658973693848e-01 8.280395865440368652e-01
3.359000000000000000e+03 1.171974658966064453e+01 -2.344793796539306641e+00 3.336542129516601562e+00 1.105282688140869141e+01 4.316810607910156250e+00 5.295473933219909668e-01
3.360000000000000000e+03 5.481772899627685547e+00 4.381514549255371094e+00 5.828964710235595703e-01 1.391740679740905762e+00 5.923911333084106445e-01 -5.086189508438110352e-01
3.361000000000000000e+03 1.557138824462890625e+01 -4.683043360710144043e-01 5.766822814941406250e+00 1.900304913520812988e+00 2.300138235092163086e+00 1.134327769279479980e+00
3.362000000000000000e+03 1.125515842437744141e+01 4.537182807922363281e+00 -1.639208078384399414e+00 9.142908096313476562e+00 2.251109838485717773e+00 1.577994972467422485e-01
3.363000000000000000e+03 5.929535865783691406e+00 6.698888301849365234e+00 1.672296375036239624e-01 2.511454343795776367e+00 8.036051988601684570e-01 -5.031229257583618164e-01
3.364000000000000000e+03 5.074057102203369141e+00 5.489847660064697266e+00 4.074323475360870361e-01 1.532491564750671387e+00 5.819771885871887207e-01 -4.152662158012390137e-01
3.365000000000000000e+03 1.218627643585205078e+01 -2.797935485839843750e+00 2.831498861312866211e+00 9.284743309020996094e+00 3.634872674942016602e+00 6.607092618942260742e-01
3.366000000000000000e+03 1.256951141357421875e+01 -2.478436708450317383e+00 3.890390396118164062e+00 8.554804801940917969e+00 3.733558654785156250e+00 6.532812863588333130e-02
3.367000000000000000e+03 1.619971084594726562e+01 -5.123009204864501953e+00 1.541588902473449707e+00 1.799045562744140625e+00 1.002190351486206055e+00 3.425956070423126221e-01
3.368000000000000000e+03 6.756123542785644531e+00 -8.485343933105468750e+00 -2.865615367889404297e+00 9.186063766479492188e+00 1.896134614944458008e+00 1.508753299713134766e+00
3.369000000000000000e+03 6.578753471374511719e+00 7.842222213745117188e+00 2.874341793358325958e-02 3.139073848724365234e+00 9.503451585769653320e-01 -3.523494005203247070e-01
3.370000000000000000e+03 5.115438938140869141e+00 4.556261539459228516e+00 5.130128264427185059e-01 1.190803647041320801e+00 5.111449360847473145e-01 -3.522545397281646729e-01
3.371000000000000000e+03 5.963759422302246094e+00 7.134771347045898438e+00 1.385169327259063721e-01 2.587347030639648438e+00 8.177591562271118164e-01 -4.660854637622833252e-01
3.372000000000000000e+03 5.210745334625244141e+00 -5.732910633087158203e+00 -5.782107114791870117e-01 4.279482841491699219e+00 1.110381603240966797e+00 1.765807390213012695e+00
3.373000000000000000e+03 5.946765899658203125e+00 6.223913192749023438e+00 2.289926558732986450e-01 2.446841955184936523e+00 8.027504086494445801e-01 -5.943848490715026855e-01
3.374000000000000000e+03 6.428778171539306641e+00 7.074384212493896484e+00 6.252174079418182373e-02 3.019357442855834961e+00 9.245637655258178711e-01 -4.956647455692291260e-01
3.375000000000000000e+03 1.495861721038818359e+01 -6.661325931549072266e+00 -4.398676455020904541e-01 2.168256044387817383e+00 5.185164809226989746e-01 1.181777715682983398e+00
3.376000000000000000e+03 1.692266845703125000e+01 -5.554309368133544922e+00 1.073716998100280762e+00 1.268512606620788574e+00 7.026688456535339355e-01 2.806449234485626221e-01
3.377000000000000000e+03 1.231560230255126953e+01 -6.784714221954345703e+00 -1.539673924446105957e+00 5.432291507720947266e+00 1.167785286903381348e+00 3.475119829177856445e+00
3.378000000000000000e+03 1.319607067108154297e+01 -6.346470832824707031e+00 -6.471958160400390625e-01 4.414652347564697266e+00 1.130236983299255371e+00 2.401704311370849609e+00
3.379000000000000000e+03 1.119686031341552734e+01 5.093424797058105469e+00 -1.848344564437866211e+00 8.544593811035156250e+00 2.008874893188476562e+00 1.628584712743759155e-01
3.380000000000000000e+03 1.444168090820312500e+01 -6.121009826660156250e+00 6.157298339530825615e-04 3.189047098159790039e+00 9.568988680839538574e-01 1.295923352241516113e+00
3.381000000000000000e+03 1.436261653900146484e+01 8.814711570739746094e-01 5.674986362457275391e+00 4.015578746795654297e+00 2.907169580459594727e+00 2.064872264862060547e+00
3.382000000000000000e+03 1.494711303710937500e+01 -4.485713243484497070e-01 6.045178890228271484e+00 2.764395475387573242e+00 2.642872333526611328e+00 1.146494150161743164e+00
3.383000000000000000e+03 9.535093307495117188e+00 -7.208620548248291016e+00 -2.964511871337890625e+00 8.560661315917968750e+00 1.678844928741455078e+00 4.871188163757324219e+00
3.384000000000000000e+03 9.464829444885253906e+00 7.889105319976806641e+00 -7.070086002349853516e-01 5.838749885559082031e+00 1.539522409439086914e+00 2.365674674510955811e-01
3.385000000000000000e+03 9.521516799926757812e+00 6.582784175872802734e+00 -1.095714807510375977e+00 6.464123725891113281e+00 1.610522627830505371e+00 -2.517151832580566406e-01
3.386000000000000000e+03 6.368369102478027344e+00 -6.320148468017578125e+00 -1.328030824661254883e+00 6.192873001098632812e+00 1.459452629089355469e+00 2.736013412475585938e+00
3.387000000000000000e+03 5.857897758483886719e+00 -6.914217948913574219e+00 -1.568746447563171387e+00 6.190833568572998047e+00 1.386626124382019043e+00 1.845288991928100586e+00
3.388000000000000000e+03 6.172495841979980469e+00 -5.898992061614990234e+00 -1.002067804336547852e+00 5.484453201293945312e+00 1.344715595245361328e+00 2.493869543075561523e+00
3.389000000000000000e+03 5.257751941680908203e+00 -4.424599647521972656e+00 2.982802987098693848e-01 3.136409521102905273e+00 1.030406951904296875e+00 2.062403678894042969e+00
3.390000000000000000e+03 6.521560192108154297e+00 7.468654155731201172e+00 3.282661363482475281e-02 3.121462345123291016e+00 9.462866783142089844e-01 -4.410358369350433350e-01
3.391000000000000000e+03 6.396829128265380859e+00 -7.424110412597656250e+00 -2.076548099517822266e+00 7.360843658447265625e+00 1.585288763046264648e+00 2.213577747344970703e+00
3.392000000000000000e+03 7.353214263916015625e+00 -8.656997680664062500e+00 -2.862436532974243164e+00 9.239908218383789062e+00 1.913241505622863770e+00 2.117570400238037109e+00
3.393000000000000000e+03 9.094453811645507812e+00 9.337247848510742188e+00 -1.247906833887100220e-01 5.012862205505371094e+00 1.466421484947204590e+00 2.984410226345062256e-01
3.394000000000000000e+03 7.550978660583496094e+00 9.972558021545410156e+00 6.844840198755264282e-02 3.759271860122680664e+00 1.148316144943237305e+00 -4.362001270055770874e-02
3.395000000000000000e+03 1.465422344207763672e+01 -1.452252388000488281e+00 5.722519397735595703e+00 3.381527900695800781e+00 2.731214284896850586e+00 4.580407440662384033e-01
3.396000000000000000e+03 1.083049011230468750e+01 -7.441404819488525391e+00 -2.695134401321411133e+00 6.934378147125244141e+00 1.271773099899291992e+00 4.777256488800048828e+00
3.397000000000000000e+03 3.277008056640625000e+01 -8.173344612121582031e+00 -1.430008411407470703e+00 7.154530286788940430e-01 -2.143666297197341919e-01 -4.468600153923034668e-01
3.398000000000000000e+03 6.853787422180175781e+00 -7.344370365142822266e+00 -2.327546119689941406e+00 7.717816352844238281e+00 1.617081046104431152e+00 2.404853343963623047e+00
3.399000000000000000e+03 7.521479606628417969e+00 -8.024384498596191406e+00 -3.222260713577270508e+00 9.445867538452148438e+00 1.867081999778747559e+00 2.536281347274780273e+00
3.400000000000000000e+03 5.986912536621093750e+01 2.518399477005004883e+00 2.520856559276580811e-01 1.350477576255798340e+00 4.807689785957336426e-01 -1.228161454200744629e+00
3.401000000000000000e+03 5.079288864135742188e+01 -3.233310461044311523e+00 -8.231084346771240234e-01 8.825177699327468872e-02 -2.204570025205612183e-01 -3.924177289009094238e-01
3.402000000000000000e+03 3.700171661376953125e+01 -7.850264549255371094e+00 -1.326246619224548340e+00 5.730796456336975098e-01 -2.259501069784164429e-01 -5.016790032386779785e-01
3.403000000000000000e+03 2.000654602050781250e+01 -4.243170738220214844e+00 1.670596957206726074e+00 4.071700572967529297e-01 6.233301162719726562e-01 4.185881912708282471e-01
3.404000000000000000e+03 1.884364318847656250e+01 -2.090703010559082031e+00 3.516281127929687500e+00 3.489651083946228027e-01 1.159573912620544434e+00 1.123058438301086426e+00
3.405000000000000000e+03 2.082796859741210938e+01 -4.875612258911132812e+00 1.008078217506408691e+00 4.195446372032165527e-01 4.282868802547454834e-01 2.031185179948806763e-01
3.406000000000000000e+03 1.434485626220703125e+01 -8.370987772941589355e-01 6.511728286743164062e+00 3.957191944122314453e+00 3.140676021575927734e+00 7.276167869567871094e-01
3.407000000000000000e+03 3.669040679931640625e+01 2.230673551559448242e+00 1.012974500656127930e+00 6.773218512535095215e-01 5.070888996124267578e-01 9.261213243007659912e-02
3.408000000000000000e+03 3.568611526489257812e+01 5.902098178863525391e+00 1.412232637405395508e+00 9.635280966758728027e-01 7.127282619476318359e-01 6.181901097297668457e-01
3.409000000000000000e+03 2.188910675048828125e+01 -2.023278236389160156e+00 2.207437038421630859e+00 7.217313647270202637e-01 8.787505030632019043e-01 1.143515348434448242e+00
3.410000000000000000e+03 6.557619476318359375e+01 5.821049690246582031e+00 -1.024017557501792908e-01 4.413635730743408203e+00 1.293370246887207031e+00 -1.823018789291381836e+00
3.411000000000000000e+03 3.219798660278320312e+01 -3.971267461776733398e+00 -1.245620250701904297e-01 8.250620365142822266e-01 2.101500034332275391e-01 -3.530609905719757080e-01
3.412000000000000000e+03 3.159666061401367188e+01 -3.021698713302612305e+00 2.007744014263153076e-01 9.144642353057861328e-01 3.345715999603271484e-01 -2.777532637119293213e-01
3.413000000000000000e+03 2.145887756347656250e+01 -3.983979463577270508e+00 1.392306089401245117e+00 4.968647956848144531e-01 5.667512416839599609e-01 4.646012187004089355e-01
3.414000000000000000e+03 1.996752929687500000e+01 -5.660992145538330078e+00 5.346891880035400391e-01 4.249749481678009033e-01 2.878992259502410889e-01 6.636866182088851929e-02
3.415000000000000000e+03 2.646670913696289062e+01 -3.235817670822143555e+00 5.811485052108764648e-01 1.082787513732910156e+00 4.991808235645294189e-01 1.204509437084197998e-01
3.416000000000000000e+03 2.189761161804199219e+01 -3.003551959991455078e+00 1.858538150787353516e+00 5.891660451889038086e-01 7.343112826347351074e-01 7.928194999694824219e-01
3.417000000000000000e+03 3.130189132690429688e+01 2.239023685455322266e+00 1.719196557998657227e+00 1.177886366844177246e+00 8.691248893737792969e-01 2.783363461494445801e-01
3.418000000000000000e+03 3.018122863769531250e+01 1.862308621406555176e+00 1.800060272216796875e+00 1.372419595718383789e+00 9.517439603805541992e-01 3.195995092391967773e-01
3.419000000000000000e+03 1.930551338195800781e+01 -3.547176837921142578e+00 2.488554000854492188e+00 4.434443712234497070e-01 8.795995116233825684e-01 6.336532235145568848e-01
3.420000000000000000e+03 1.706972503662109375e+01 -1.939702987670898438e+00 4.447069644927978516e+00 8.972491025924682617e-01 1.603295564651489258e+00 9.048520922660827637e-01
3.421000000000000000e+03 5.131256866455078125e+01 -2.429361820220947266e+00 -6.264578104019165039e-01 8.709421008825302124e-02 -1.618090867996215820e-01 -3.593811094760894775e-01
3.422000000000000000e+03 5.510797500610351562e+01 -4.171663522720336914e-01 -2.306835949420928955e-01 1.272739768028259277e-01 -3.102288953959941864e-02 -4.730475842952728271e-01
3.423000000000000000e+03 6.395137786865234375e+01 1.500882625579833984e+00 -1.216145381331443787e-01 3.092698574066162109e+00 8.913251757621765137e-01 -2.290507555007934570e+00
3.424000000000000000e+03 4.519080352783203125e+01 -2.834684133529663086e+00 -4.849492013454437256e-01 2.699083387851715088e-01 -6.451226025819778442e-02 -3.357576429843902588e-01
3.425000000000000000e+03 4.043795776367187500e+01 -7.331595420837402344e+00 -1.263425827026367188e+00 4.401920437812805176e-01 -2.469701319932937622e-01 -5.265391469001770020e-01
3.426000000000000000e+03 6.919277191162109375e+01 1.462660908699035645e+00 -1.074538826942443848e+00 6.873085021972656250e+00 1.739563941955566406e+00 -1.776705741882324219e+00
3.427000000000000000e+03 6.194585037231445312e+01 7.297766685485839844e+00 2.746179997920989990e-01 3.078428030014038086e+00 1.005913853645324707e+00 -1.444463133811950684e+00
3.428000000000000000e+03 4.620784378051757812e+01 -2.070784091949462891e+00 -3.589814603328704834e-01 2.454532384872436523e-01 -3.405847027897834778e-02 -2.903785109519958496e-01
3.429000000000000000e+03 2.915140914916992188e+01 -1.461592674255371094e+00 9.243922233581542969e-01 1.185146212577819824e+00 6.328614950180053711e-01 5.500365048646926880e-03
3.430000000000000000e+03 6.147256088256835938e+01 8.942837715148925781e+00 3.612501323223114014e-01 3.127868175506591797e+00 1.046735525131225586e+00 -1.328893899917602539e+00
3.431000000000000000e+03 3.525550460815429688e+01 -2.071861743927001953e+00 2.006204575300216675e-01 6.836580038070678711e-01 2.652835249900817871e-01 -2.795577049255371094e-01
3.432000000000000000e+03 3.380661010742187500e+01 -8.860270500183105469e+00 -1.598424196243286133e+00 6.567202806472778320e-01 -2.825111746788024902e-01 -4.570586979389190674e-01
3.433000000000000000e+03 3.302975845336914062e+01 1.180642223358154297e+01 9.089810848236083984e-01 1.815273165702819824e+00 8.172762989997863770e-01 1.442176103591918945e+00
3.434000000000000000e+03 2.938338279724121094e+01 -5.895337581634521484e+00 -6.474329829216003418e-01 8.653460144996643066e-01 6.537390500307083130e-02 -3.254205286502838135e-01
3.435000000000000000e+03 6.811779022216796875e+01 1.280646705627441406e+01 2.481600195169448853e-01 4.997512340545654297e+00 1.573701739311218262e+00 -1.266717553138732910e+00
3.436000000000000000e+03 4.546220397949218750e+01 -1.114587783813476562e+00 -1.233457922935485840e-01 2.689402997493743896e-01 4.367834702134132385e-02 -2.570440471172332764e-01
3.437000000000000000e+03 4.306259918212890625e+01 6.152976304292678833e-02 2.092274576425552368e-01 3.393147289752960205e-01 1.645626574754714966e-01 -1.992400288581848145e-01
3.438000000000000000e+03 2.408227729797363281e+01 -4.123229503631591797e+00 6.977027654647827148e-01 8.683558702468872070e-01 4.698175787925720215e-01 2.725880146026611328e-01
3.439000000000000000e+03 2.892926025390625000e+01 -3.198590755462646484e+00 3.389053940773010254e-01 1.022696852684020996e+00 4.084806740283966064e-01 -1.373413354158401489e-01
3.440000000000000000e+03 6.909857940673828125e+01 1.649456024169921875e-01 -1.422823309898376465e+00 7.414881706237792969e+00 1.797617554664611816e+00 -1.963038921356201172e+00
3.441000000000000000e+03 2.509394645690917969e+01 -4.945720195770263672e+00 7.688809186220169067e-02 8.297339677810668945e-01 2.719866037368774414e-01 5.231077317148447037e-03
3.442000000000000000e+03 3.313354110717773438e+01 3.984735965728759766e+00 1.765003323554992676e+00 1.034036874771118164e+00 8.397120237350463867e-01 5.110380053520202637e-01
3.443000000000000000e+03 3.174097251892089844e+01 1.177345395088195801e+00 1.416874766349792480e+00 1.071889281272888184e+00 7.466292381286621094e-01 1.279584616422653198e-01
3.444000000000000000e+03 6.259449005126953125e+01 8.244512557983398438e+00 2.843239903450012207e-01 3.419304370880126953e+00 1.111088514328002930e+00 -1.435634851455688477e+00
3.445000000000000000e+03 6.822721099853515625e+01 7.958555221557617188e+00 -1.047720760107040405e-01 5.335432529449462891e+00 1.569198131561279297e+00 -1.489159584045410156e+00
3.446000000000000000e+03 1.425736427307128906e+01 2.230430984497070312e+01 -5.140130519866943359e-01 3.315129518508911133e+00 8.403348922729492188e-01 8.255711793899536133e-01
3.447000000000000000e+03 1.566024112701416016e+01 2.324822998046875000e+01 -3.299081921577453613e-01 2.817864418029785156e+00 7.463868260383605957e-01 1.023710727691650391e+00
3.448000000000000000e+03 6.490317535400390625e+01 1.283772850036621094e+01 4.434566199779510498e-01 4.164731979370117188e+00 1.382456541061401367e+00 -1.311570525169372559e+00
3.449000000000000000e+03 6.447359466552734375e+01 1.086065196990966797e+01 3.528619706630706787e-01 4.051858425140380859e+00 1.321416139602661133e+00 -1.410461187362670898e+00
3.450000000000000000e+03 9.577624320983886719e+00 2.227352905273437500e+01 -4.322641789913177490e-01 3.136474370956420898e+00 8.112630844116210938e-01 -1.745744496583938599e-01
3.451000000000000000e+03 2.416145324707031250e+01 2.295847702026367188e+01 3.226650357246398926e-01 1.151258468627929688e+00 4.421770572662353516e-01 4.777510464191436768e-01
3.452000000000000000e+03 6.759777069091796875e+01 1.412103462219238281e+01 3.375545144081115723e-01 4.825838565826416016e+00 1.549017906188964844e+00 -1.190944433212280273e+00
3.453000000000000000e+03 3.872666549682617188e+01 2.056263446807861328e+00 7.629725933074951172e-01 5.410554409027099609e-01 3.912084102630615234e-01 -8.559838868677616119e-03
3.454000000000000000e+03 6.529138183593750000e+01 9.673463821411132812e+00 2.202355563640594482e-01 4.279315948486328125e+00 1.349865555763244629e+00 -1.503400325775146484e+00
3.455000000000000000e+03 3.450910186767578125e+01 1.778526878356933594e+01 3.476577401161193848e-01 1.969094157218933105e+00 6.950255632400512695e-01 7.862255573272705078e-01
3.456000000000000000e+03 1.062642669677734375e+01 2.143972015380859375e+01 -4.724796712398529053e-01 3.463870525360107422e+00 8.974173069000244141e-01 -5.888722091913223267e-02
3.457000000000000000e+03 6.571949005126953125e+01 1.922663307189941406e+01 5.106421709060668945e-01 4.353191375732421875e+00 1.459149956703186035e+00 -9.272978305816650391e-01
3.458000000000000000e+03 6.721224975585937500e+01 1.920569801330566406e+01 4.183516800403594971e-01 4.643758296966552734e+00 1.518633008003234863e+00 -9.091838002204895020e-01
3.459000000000000000e+03 3.801830291748046875e+01 1.226377964019775391e+00 7.054343223571777344e-01 5.683562159538269043e-01 3.821371793746948242e-01 -5.788133665919303894e-02
3.460000000000000000e+03 6.580128479003906250e+01 9.096453785896301270e-01 -6.087322831153869629e-01 4.647325038909912109e+00 1.211577892303466797e+00 -2.533126831054687500e+00
3.461000000000000000e+03 1.914657402038574219e+01 2.727588462829589844e+01 1.425050795078277588e-01 1.876101732254028320e+00 6.055819988250732422e-01 7.236657738685607910e-01
3.462000000000000000e+03 6.549620819091796875e+01 1.482463932037353516e+01 4.956388175487518311e-01 4.293106079101562500e+00 1.436623454093933105e+00 -1.181394100189208984e+00
3.463000000000000000e+03 3.378792190551757812e+01 9.865251541137695312e+00 1.245042800903320312e+00 1.577382683753967285e+00 8.467276096343994141e-01 1.331247687339782715e+00
3.464000000000000000e+03 5.647160720825195312e+01 2.077519607543945312e+01 7.438112497329711914e-01 2.900319814682006836e+00 1.093239307403564453e+00 -8.419697880744934082e-01
3.465000000000000000e+03 2.300194168090820312e+01 2.200589179992675781e+01 3.058158457279205322e-01 9.666045904159545898e-01 3.817261159420013428e-01 6.056852340698242188e-01
3.466000000000000000e+03 2.029476737976074219e+01 2.562282180786132812e+01 2.427812814712524414e-01 1.638871312141418457e+00 5.644958019256591797e-01 8.098559975624084473e-01
3.467000000000000000e+03 3.301039505004882812e+01 1.934688758850097656e+01 1.623965352773666382e-01 1.965161800384521484e+00 6.382674574851989746e-01 6.100765466690063477e-01
3.468000000000000000e+03 3.129087066650390625e+01 1.929352188110351562e+01 1.095199491828680038e-02 1.929076552391052246e+00 5.820086002349853516e-01 5.447650551795959473e-01
3.469000000000000000e+03 3.136720085144042969e+01 2.110251617431640625e+01 1.198350116610527039e-01 1.822975158691406250e+00 5.828430652618408203e-01 3.917741179466247559e-01
3.470000000000000000e+03 3.065044212341308594e+01 8.180458545684814453e-01 1.455349087715148926e+00 1.195591092109680176e+00 7.952820658683776855e-01 1.240389347076416016e-01
3.471000000000000000e+03 2.960362815856933594e+01 4.709763228893280029e-01 1.467033505439758301e+00 1.347153782844543457e+00 8.442561626434326172e-01 1.943371146917343140e-01
3.472000000000000000e+03 1.022504520416259766e+01 -3.278158569335937500e+01 -3.853961527347564697e-01 4.248580932617187500e+00 1.158955454826354980e+00 -1.141708940267562866e-01
3.473000000000000000e+03 6.252878570556640625e+01 1.304935932159423828e+00 8.535214699804782867e-03 2.272458314895629883e+00 6.842980384826660156e-01 -2.025528430938720703e+00
3.474000000000000000e+03 6.569975280761718750e+01 2.080649757385253906e+01 4.806112945079803467e-01 4.337190151214599609e+00 1.445340394973754883e+00 -8.395168781280517578e-01
3.475000000000000000e+03 6.435069274902343750e+01 1.752952384948730469e+01 5.951542258262634277e-01 4.111375331878662109e+00 1.411958932876586914e+00 -1.010533452033996582e+00
3.476000000000000000e+03 4.062886047363281250e+01 7.612432241439819336e-01 4.800637066364288330e-01 4.368956685066223145e-01 2.750878036022186279e-01 -1.386174112558364868e-01
3.477000000000000000e+03 6.778055572509765625e+01 2.117197215557098389e-01 -1.109798312187194824e+00 6.271934032440185547e+00 1.548640727996826172e+00 -2.367242813110351562e+00
3.478000000000000000e+03 6.869793415069580078e+00 3.650628566741943359e+00 8.352471590042114258e-01 2.238916873931884766e+00 9.222492575645446777e-01 -1.280570864677429199e+00
3.479000000000000000e+03 5.707980632781982422e+00 -5.936336040496826172e+00 -8.369632959365844727e-01 4.971536636352539062e+00 1.240372061729431152e+00 2.193025588989257812e+00
3.480000000000000000e+03 5.191789627075195312e+00 -4.070400714874267578e+00 4.634231030941009521e-01 2.631938934326171875e+00 9.286086559295654297e-01 1.776483058929443359e+00
3.481000000000000000e+03 7.198810577392578125e+00 -3.857440710067749023e+00 8.691866397857666016e-01 4.779055595397949219e+00 1.694472789764404297e+00 4.046926498413085938e+00
3.482000000000000000e+03 9.499088287353515625e+00 3.979341030120849609e+00 -6.963282227516174316e-01 7.756247997283935547e+00 2.117975950241088867e+00 -1.865787386894226074e+00
3.483000000000000000e+03 9.946847915649414062e+00 6.302623748779296875e+00 -1.354029655456542969e+00 7.011416435241699219e+00 1.697216033935546875e+00 -1.364917308092117310e-01
3.484000000000000000e+03 9.288553237915039062e+00 -4.277227878570556641e+00 -3.697737455368041992e-01 8.523667335510253906e+00 2.446167945861816406e+00 4.970277786254882812e+00
3.485000000000000000e+03 6.278063297271728516e+00 -4.518241882324218750e+00 2.264065295457839966e-01 4.220530033111572266e+00 1.334080934524536133e+00 3.076690912246704102e+00
3.486000000000000000e+03 4.939740657806396484e+00 4.168310642242431641e+00 5.468349456787109375e-01 9.273309111595153809e-01 4.422497451305389404e-01 -2.427949458360671997e-01
3.487000000000000000e+03 8.017931938171386719e+00 -3.679626464843750000e+00 1.028401374816894531e+00 6.052084922790527344e+00 2.124145984649658203e+00 4.958043098449707031e+00
3.488000000000000000e+03 6.199657440185546875e+00 4.057111740112304688e+00 6.860386133193969727e-01 1.842090487480163574e+00 7.584387660026550293e-01 -8.544260263442993164e-01
3.489000000000000000e+03 1.147356319427490234e+01 -3.742348194122314453e+00 5.885974168777465820e-01 9.777228355407714844e+00 3.109747648239135742e+00 2.359943628311157227e+00
3.490000000000000000e+03 7.150359630584716797e+00 4.016776561737060547e+00 6.421982049942016602e-01 2.950492143630981445e+00 1.077807068824768066e+00 -1.449660420417785645e+00
3.491000000000000000e+03 9.887547492980957031e+00 -6.621150970458984375e+00 -2.533187866210937500e+00 8.455046653747558594e+00 1.776557564735412598e+00 4.804135799407958984e+00
3.492000000000000000e+03 1.024927234649658203e+01 -4.515147209167480469e+00 -7.746546268463134766e-01 9.310004234313964844e+00 2.560604810714721680e+00 4.364940643310546875e+00
3.493000000000000000e+03 1.381074142456054688e+01 -1.120640993118286133e+00 6.579113960266113281e+00 5.005021572113037109e+00 3.475240707397460938e+00 3.594080507755279541e-01
3.494000000000000000e+03 1.492840862274169922e+01 6.285491585731506348e-02 6.058187007904052734e+00 2.729637384414672852e+00 2.636347293853759766e+00 1.325135707855224609e+00
3.495000000000000000e+03 1.033060741424560547e+01 4.664115905761718750e+00 -1.409499764442443848e+00 8.544951438903808594e+00 2.140635728836059570e+00 -7.775152325630187988e-01
3.496000000000000000e+03 1.049672412872314453e+01 5.441532611846923828e+00 -1.628050923347473145e+00 8.029691696166992188e+00 1.920492053031921387e+00 -2.553801238536834717e-01
3.497000000000000000e+03 1.253665351867675781e+01 -6.192443370819091797e+00 -1.047078847885131836e+00 5.853604793548583984e+00 1.441957831382751465e+00 3.063268899917602539e+00
3.498000000000000000e+03 1.388944721221923828e+01 -7.698118090629577637e-01 6.850751876831054688e+00 4.688630580902099609e+00 3.461814641952514648e+00 6.731483936309814453e-01
3.499000000000000000e+03 5.287520408630371094e+00 4.954817771911621094e+00 4.826379716396331787e-01 1.494517207145690918e+00 5.931465625762939453e-01 -4.687971472740173340e-01
3.500000000000000000e+03 1.388125705718994141e+01 -3.631690502166748047e+00 2.587583541870117188e+00 5.204892158508300781e+00 2.337742567062377930e+00 4.684395790100097656e-01
3.501000000000000000e+03 1.174116897583007812e+01 -2.659547805786132812e+00 2.630257129669189453e+00 1.076626491546630859e+01 4.018956661224365234e+00 8.541610836982727051e-01
3.502000000000000000e+03 5.035878181457519531e+00 -5.015095233917236328e+00 -5.475259944796562195e-02 3.355129718780517578e+00 9.901131391525268555e-01 1.773179173469543457e+00
3.503000000000000000e+03 1.066979885101318359e+01 4.966936111450195312e+00 -1.695581197738647461e+00 8.507526397705078125e+00 2.043583393096923828e+00 -2.436338216066360474e-01
3.504000000000000000e+03 1.205275726318359375e+01 -3.178632736206054688e+00 1.953765034675598145e+00 9.349353790283203125e+00 3.390935659408569336e+00 1.073478460311889648e+00
3.505000000000000000e+03 1.379436874389648438e+01 2.394334077835083008e+00 2.846091032028198242e+00 6.043111324310302734e+00 2.666760683059692383e+00 2.405702352523803711e+00
3.506000000000000000e+03 7.073644638061523438e+00 7.866688728332519531e+00 -9.372426569461822510e-02 3.658217906951904297e+00 1.069348096847534180e+00 -3.655002713203430176e-01
3.507000000000000000e+03 1.390994453430175781e+01 -2.234988689422607422e+00 4.880038261413574219e+00 5.139621257781982422e+00 3.005897760391235352e+00 3.188454732298851013e-02
3.508000000000000000e+03 1.377858161926269531e+01 -1.764264702796936035e+00 5.656843662261962891e+00 5.244319915771484375e+00 3.270349025726318359e+00 1.427174452692270279e-02
3.509000000000000000e+03 1.247031974792480469e+01 -4.531853199005126953e+00 5.109735727310180664e-01 7.175249099731445312e+00 2.305866718292236328e+00 1.889218807220458984e+00
3.510000000000000000e+03 1.467798328399658203e+01 -4.512018680572509766e+00 1.892147541046142578e+00 3.547605276107788086e+00 1.631925821304321289e+00 6.252264976501464844e-01
3.511000000000000000e+03 9.703354835510253906e+00 4.427713871002197266e+00 -9.814796447753906250e-01 7.843906879425048828e+00 2.058728218078613281e+00 -1.438606619834899902e+00
3.512000000000000000e+03 1.207760620117187500e+01 -5.575302600860595703e+00 -8.758260011672973633e-01 6.996535778045654297e+00 1.836212873458862305e+00 3.049198389053344727e+00
3.513000000000000000e+03 9.826915740966796875e+00 7.066475868225097656e+00 -1.150294542312622070e+00 6.537772178649902344e+00 1.616243243217468262e+00 1.477834582328796387e-01
3.514000000000000000e+03 1.578911590576171875e+01 -5.701137065887451172e+00 7.815169095993041992e-01 1.961189389228820801e+00 8.228119015693664551e-01 5.736833810806274414e-01
3.515000000000000000e+03 8.999850273132324219e+00 -7.145283699035644531e+00 -3.021032810211181641e+00 8.671417236328125000e+00 1.695115327835083008e+00 4.446739673614501953e+00
3.516000000000000000e+03 1.053155612945556641e+01 -6.907446384429931641e+00 -2.661047697067260742e+00 7.965486049652099609e+00 1.591331481933593750e+00 4.726027488708496094e+00
3.517000000000000000e+03 1.095993232727050781e+01 -6.613770961761474609e+00 -2.072835922241210938e+00 7.292831420898437500e+00 1.565998673439025879e+00 4.380827426910400391e+00
3.518000000000000000e+03 1.176409912109375000e+01 -6.607639789581298828e+00 -1.766774415969848633e+00 6.414502143859863281e+00 1.394318222999572754e+00 3.996417760848999023e+00
3.519000000000000000e+03 1.436109924316406250e+01 -3.501093685626983643e-01 6.531142234802246094e+00 3.845019340515136719e+00 3.112848520278930664e+00 1.101904630661010742e+00
3.520000000000000000e+03 1.203544712066650391e+01 -5.087012290954589844e+00 -3.823328614234924316e-01 7.282606124877929688e+00 2.070081949234008789e+00 2.714411973953247070e+00
3.521000000000000000e+03 8.316670417785644531e+00 9.423581123352050781e+00 -4.527290537953376770e-02 4.411654472351074219e+00 1.309914469718933105e+00 1.120401993393898010e-01
3.522000000000000000e+03 1.005017948150634766e+01 -7.126643180847167969e+00 -2.822578191757202148e+00 8.004840850830078125e+00 1.554678797721862793e+00 4.655882835388183594e+00
3.523000000000000000e+03 7.756575107574462891e+00 -4.008305072784423828e+00 6.260648965835571289e-01 5.864330768585205078e+00 1.947118759155273438e+00 4.645207881927490234e+00
3.524000000000000000e+03 8.244005203247070312e+00 8.858874320983886719e+00 -1.899500191211700439e-01 4.521234035491943359e+00 1.299385190010070801e+00 2.992013236507773399e-03
3.525000000000000000e+03 7.226306438446044922e+00 6.874330997467041016e+00 -1.099499911069869995e-01 3.775085926055908203e+00 1.099540829658508301e+00 -6.021722555160522461e-01
3.526000000000000000e+03 1.633047676086425781e+01 -6.071666717529296875e+00 5.459040403366088867e-01 1.488698005676269531e+00 6.103806495666503906e-01 3.379277586936950684e-01
3.527000000000000000e+03 7.517251491546630859e+00 8.459289550781250000e+00 -1.172593832015991211e-01 3.900103807449340820e+00 1.134853363037109375e+00 -1.678039133548736572e-01
3.528000000000000000e+03 7.019184112548828125e+00 7.406020641326904297e+00 -8.518970757722854614e-02 3.613687515258789062e+00 1.058549404144287109e+00 -4.567286074161529541e-01
3.529000000000000000e+03 1.556413650512695312e+01 -1.130704998970031738e+00 5.517434120178222656e+00 2.067919015884399414e+00 2.275605916976928711e+00 8.554660677909851074e-01
3.530000000000000000e+03 1.264860153198242188e+01 -2.829195737838745117e+00 3.265445947647094727e+00 8.112582206726074219e+00 3.413408517837524414e+00 3.006539940834045410e-01
3.531000000000000000e+03 2.182595443725585938e+01 -5.408292770385742188e+00 3.720344305038452148e-01 5.017751455307006836e-01 2.621428668498992920e-01 1.004503145813941956e-01
3.532000000000000000e+03 1.771141433715820312e+01 -4.904117107391357422e+00 1.651595473289489746e+00 9.006172418594360352e-01 7.656638026237487793e-01 2.209544628858566284e-01
3.533000000000000000e+03 2.343057823181152344e+01 -5.012337207794189453e+00 3.225587010383605957e-01 6.802624464035034180e-01 3.008463382720947266e-01 1.317444145679473877e-01
3.534000000000000000e+03 6.814571380615234375e+01 2.956815004348754883e+00 -7.083778977394104004e-01 5.914074897766113281e+00 1.561709046363830566e+00 -1.894027113914489746e+00
3.535000000000000000e+03 2.478230857849121094e+01 -3.239084959030151367e+00 8.713714480400085449e-01 9.841595888137817383e-01 5.566592812538146973e-01 3.499352931976318359e-01
3.536000000000000000e+03 1.923480606079101562e+01 -4.950190544128417969e+00 1.372959256172180176e+00 5.140225887298583984e-01 5.660945177078247070e-01 1.816471219062805176e-01
3.537000000000000000e+03 6.121720504760742188e+01 1.448026537895202637e+00 1.359840035438537598e-01 1.603535652160644531e+00 5.218558907508850098e-01 -1.621359944343566895e+00
3.538000000000000000e+03 2.581035232543945312e+01 -4.092020034790039062e+00 3.523164093494415283e-01 9.650335311889648438e-01 3.952049911022186279e-01 7.738002389669418335e-02
3.539000000000000000e+03 2.686375236511230469e+01 -5.567622661590576172e+00 -3.791587948799133301e-01 8.896372318267822266e-01 1.531435400247573853e-01 -1.700423359870910645e-01
3.540000000000000000e+03 3.179889488220214844e+01 -5.948831558227539062e+00 -7.219453454017639160e-01 8.047404885292053223e-01 2.483854070305824280e-02 -4.075824916362762451e-01
3.541000000000000000e+03 3.010497665405273438e+01 -1.528746485710144043e+00 8.129127621650695801e-01 1.080734491348266602e+00 5.680941939353942871e-01 -6.740113347768783569e-02
3.542000000000000000e+03 4.373032760620117188e+01 -8.983516097068786621e-01 -1.592205278575420380e-02 3.063629269599914551e-01 8.713226020336151123e-02 -2.444750815629959106e-01
3.543000000000000000e+03 4.597425079345703125e+01 -3.763575553894042969e+00 -7.377431392669677734e-01 2.424794137477874756e-01 -1.485791206359863281e-01 -3.772336244583129883e-01
3.544000000000000000e+03 3.215181350708007812e+01 1.168352365493774414e-01 1.083426117897033691e+00 9.693251848220825195e-01 6.158254146575927734e-01 -3.183887526392936707e-02
3.545000000000000000e+03 3.018211936950683594e+01 -6.362497329711914062e+00 -8.476483225822448730e-01 8.285404443740844727e-01 -5.732360761612653732e-03 -3.671736419200897217e-01
3.546000000000000000e+03 2.432827568054199219e+01 -5.644354820251464844e+00 -1.227809190750122070e-01 7.594009637832641602e-01 1.909860223531723022e-01 -2.176925167441368103e-02
3.547000000000000000e+03 4.533094787597656250e+01 -7.149077415466308594e+00 -1.431709170341491699e+00 2.460832744836807251e-01 -3.556877672672271729e-01 -5.433704853057861328e-01
3.548000000000000000e+03 2.729792976379394531e+01 -6.501498699188232422e+00 -8.265709280967712402e-01 8.291907310485839844e-01 7.859364268369972706e-04 -2.628122568130493164e-01
3.549000000000000000e+03 2.863706970214843750e+01 -5.464980125427246094e+00 -4.543008804321289062e-01 8.945853710174560547e-01 1.320853382349014282e-01 -2.624087333679199219e-01
3.550000000000000000e+03 3.343984222412109375e+01 -6.239875316619873047e+00 -8.754693865776062012e-01 7.166228890419006348e-01 -4.765394702553749084e-02 -4.586421251296997070e-01
3.551000000000000000e+03 3.344867324829101562e+01 -7.248511791229248047e+00 -1.137710690498352051e+00 7.087328433990478516e-01 -1.286933571100234985e-01 -4.569146633148193359e-01
3.552000000000000000e+03 4.117316818237304688e+01 -7.581663131713867188e-01 1.453390270471572876e-01 4.019214808940887451e-01 1.641781628131866455e-01 -2.236229181289672852e-01
3.553000000000000000e+03 3.892214965820312500e+01 -8.489335060119628906e+00 -1.497935652732849121e+00 4.913657009601593018e-01 -3.019709885120391846e-01 -5.302921533584594727e-01
3.554000000000000000e+03 6.784897613525390625e+01 1.575484514236450195e+00 -9.689518213272094727e-01 6.125851154327392578e+00 1.547069787979125977e+00 -2.158643484115600586e+00
3.555000000000000000e+03 4.642121887207031250e+01 -6.323578834533691406e+00 -1.338802218437194824e+00 2.196762412786483765e-01 -3.357377946376800537e-01 -5.079177021980285645e-01
3.556000000000000000e+03 4.217044830322265625e+01 -5.661025643348693848e-01 1.294334381818771362e-01 3.567202389240264893e-01 1.458460986614227295e-01 -2.307196110486984253e-01
3.557000000000000000e+03 4.154962921142578125e+01 1.475616097450256348e-01 3.093667030334472656e-01 3.998252749443054199e-01 2.127575874328613281e-01 -1.860649734735488892e-01
3.558000000000000000e+03 6.218197631835937500e+01 3.998980522155761719e+00 1.319532841444015503e-01 2.702321529388427734e+00 8.502824306488037109e-01 -1.690243482589721680e+00
3.559000000000000000e+03 6.612891387939453125e+01 8.616098403930664062e+00 1.001577004790306091e-01 4.569672107696533203e+00 1.400949001312255859e+00 -1.562052726745605469e+00
3.560000000000000000e+03 6.325300216674804688e+01 9.266191482543945312e+00 3.042515516281127930e-01 3.647973775863647461e+00 1.185667634010314941e+00 -1.468599319458007812e+00
3.561000000000000000e+03 3.555927658081054688e+01 4.821315288543701172e+00 1.375584959983825684e+00 8.989124298095703125e-01 6.823492050170898438e-01 4.745557904243469238e-01
3.562000000000000000e+03 6.240048217773437500e+01 2.717376708984375000e+00 9.696178138256072998e-02 2.567909240722656250e+00 7.994613051414489746e-01 -1.834438562393188477e+00
3.563000000000000000e+03 6.291636276245117188e+01 6.623465538024902344e+00 2.066433429718017578e-01 3.378027915954589844e+00 1.075401306152343750e+00 -1.564872384071350098e+00
3.564000000000000000e+03 2.893114471435546875e+01 -2.273145198822021484e+00 6.672135591506958008e-01 1.116353154182434082e+00 5.350700020790100098e-01 -2.964528836309909821e-02
3.565000000000000000e+03 3.688162612915039062e+01 9.209250807762145996e-01 7.466655373573303223e-01 6.135225892066955566e-01 4.080564379692077637e-01 -6.455576419830322266e-02
3.566000000000000000e+03 6.855335998535156250e+01 1.162898540496826172e+01 1.665579080581665039e-01 5.172102928161621094e+00 1.601598262786865234e+00 -1.283484101295471191e+00
3.567000000000000000e+03 6.684381866455078125e+01 1.224793434143066406e+01 2.967714965343475342e-01 4.675873756408691406e+00 1.491793513298034668e+00 -1.314727663993835449e+00
3.568000000000000000e+03 6.832323455810546875e+01 4.399273872375488281e+00 -5.331391692161560059e-01 5.808724403381347656e+00 1.582675457000732422e+00 -1.737665534019470215e+00
3.569000000000000000e+03 6.913271331787109375e+01 8.975639343261718750e+00 -6.019427999854087830e-02 5.523151397705078125e+00 1.638887166976928711e+00 -1.389348983764648438e+00
3.570000000000000000e+03 6.435669708251953125e+01 8.710540771484375000e+00 2.188006937503814697e-01 3.990095376968383789e+00 1.262668848037719727e+00 -1.530208587646484375e+00
3.571000000000000000e+03 6.368825531005859375e+01 2.939683437347412109e+00 -7.356241345405578613e-02 3.207004785537719727e+00 9.400327205657958984e-01 -2.042670488357543945e+00
3.572000000000000000e+03 6.700962829589843750e+01 1.552152729034423828e+01 4.040090441703796387e-01 4.661934375762939453e+00 1.519783020019531250e+00 -1.128848433494567871e+00
3.573000000000000000e+03 6.619363403320312500e+01 1.351599788665771484e+01 3.933803737163543701e-01 4.491241455078125000e+00 1.465386629104614258e+00 -1.270502805709838867e+00
3.574000000000000000e+03 6.564982604980468750e+01 1.158495903015136719e+01 3.233265876770019531e-01 4.388391494750976562e+00 1.413515448570251465e+00 -1.395436167716979980e+00
3.575000000000000000e+03 6.343129348754882812e+01 4.301592826843261719e+00 6.426768749952316284e-02 3.281959533691406250e+00 1.003868222236633301e+00 -1.820459961891174316e+00
3.576000000000000000e+03 6.706806182861328125e+01 1.777019119262695312e+01 4.309506714344024658e-01 4.636637687683105469e+00 1.520276546478271484e+00 -1.001939535140991211e+00
3.577000000000000000e+03 3.641639709472656250e+01 1.906550407409667969e+01 4.841227531433105469e-01 1.936994433403015137e+00 7.263351678848266602e-01 6.802981495857238770e-01
3.578000000000000000e+03 3.385906600952148438e+01 1.657564926147460938e+01 3.417451381683349609e-01 1.980356454849243164e+00 6.966304779052734375e-01 9.496346116065979004e-01
3.579000000000000000e+03 1.672963714599609375e+01 2.458632087707519531e+01 -1.565317064523696899e-01 2.379470586776733398e+00 6.668816208839416504e-01 9.828389286994934082e-01
3.580000000000000000e+03 2.545372772216796875e+01 1.986742401123046875e+01 -5.085671320557594299e-02 1.035835742950439453e+00 2.954936921596527100e-01 2.099686861038208008e-01
3.581000000000000000e+03 2.680167961120605469e+01 -4.619981765747070312e+00 2.115919487550854683e-03 9.197418689727783203e-01 2.765573263168334961e-01 -9.607029706239700317e-02
3.582000000000000000e+03 2.703356933593750000e+01 2.280918693542480469e+01 2.202122807502746582e-01 1.386062383651733398e+00 4.818823933601379395e-01 2.781418263912200928e-01
3.583000000000000000e+03 3.001973533630371094e+01 -5.344327092170715332e-01 1.116118907928466797e+00 1.172804594039916992e+00 6.866770386695861816e-01 1.954584568738937378e-02
3.584000000000000000e+03 3.108889198303222656e+01 -2.532264590263366699e-01 1.091333031654357910e+00 1.081856966018676758e+00 6.519569754600524902e-01 -3.623093361966311932e-04
3.585000000000000000e+03 3.127124214172363281e+01 2.299191665649414062e+01 2.471999078989028931e-01 1.738193869590759277e+00 5.956181287765502930e-01 3.380193710327148438e-01
3.586000000000000000e+03 3.081348800659179688e+01 2.495962905883789062e+01 3.452600240707397461e-01 1.669943809509277344e+00 6.045611500740051270e-01 2.846835553646087646e-01
3.587000000000000000e+03 6.418177795410156250e+01 1.902929115295410156e+01 5.860650539398193359e-01 4.071696758270263672e+00 1.397328495979309082e+00 -9.182320833206176758e-01
3.588000000000000000e+03 1.782761383056640625e+01 2.597152709960937500e+01 4.368405789136886597e-03 2.090709209442138672e+00 6.285232901573181152e-01 8.685665726661682129e-01
3.589000000000000000e+03 3.973866653442382812e+01 -6.382169723510742188e+00 -1.024797677993774414e+00 4.660657942295074463e-01 -1.676195561885833740e-01 -5.036474466323852539e-01
3.590000000000000000e+03 2.510528945922851562e+01 2.585196685791015625e+01 3.839728832244873047e-01 1.422821164131164551e+00 5.420382618904113770e-01 4.300376772880554199e-01
3.591000000000000000e+03 2.582756614685058594e+01 -5.944006919860839844e+00 -4.599842131137847900e-01 8.203027248382568359e-01 1.080955415964126587e-01 -1.354891955852508545e-01
3.592000000000000000e+03 2.632834053039550781e+01 -6.992702484130859375e+00 -1.025915265083312988e+00 7.840656638145446777e-01 -7.255489379167556763e-02 -2.313882261514663696e-01
3.593000000000000000e+03 6.654270935058593750e+01 1.919613838195800781e+00 -6.269042491912841797e-01 5.071810722351074219e+00 1.333471894264221191e+00 -2.340296030044555664e+00
3.594000000000000000e+03 6.284030151367187500e+01 2.389388084411621094e+01 5.369356870651245117e-01 3.922951698303222656e+00 1.337966203689575195e+00 -7.024366855621337891e-01
3.595000000000000000e+03 6.758399200439453125e+01 2.228583717346191406e+01 3.669261634349822998e-01 4.671555995941162109e+00 1.511544704437255859e+00 -7.468135356903076172e-01
3.596000000000000000e+03 6.259908676147460938e+01 2.026297378540039062e+01 6.223139166831970215e-01 3.844601154327392578e+00 1.340074539184570312e+00 -8.171461224555969238e-01
3.597000000000000000e+03 6.974087715148925781e+00 -3.874750375747680664e+00 8.412264585494995117e-01 4.532313823699951172e+00 1.612062096595764160e+00 3.890926122665405273e+00
3.598000000000000000e+03 7.928369522094726562e+00 -6.783239364624023438e+00 -2.477786064147949219e+00 8.297360420227050781e+00 1.745872378349304199e+00 3.764299392700195312e+00
3.599000000000000000e+03 7.465970039367675781e+00 -3.940378904342651367e+00 7.509284615516662598e-01 5.285526752471923828e+00 1.810936570167541504e+00 4.434589385986328125e+00
3.600000000000000000e+03 8.457980155944824219e+00 -6.991390705108642578e+00 -2.778717756271362305e+00 8.523173332214355469e+00 1.723336696624755859e+00 4.322860717773437500e+00
3.601000000000000000e+03 6.857766628265380859e+00 6.993296146392822266e+00 -2.783958241343498230e-02 3.437357187271118164e+00 1.022855281829833984e+00 -5.849738121032714844e-01
3.602000000000000000e+03 8.316629409790039062e+00 -3.954025745391845703e+00 4.641535282135009766e-01 6.849638462066650391e+00 2.194137573242187500e+00 5.063248634338378906e+00
3.603000000000000000e+03 7.648655414581298828e+00 4.595684528350830078e+00 2.254178524017333984e-01 3.958875179290771484e+00 1.255287885665893555e+00 -1.487053751945495605e+00
3.604000000000000000e+03 5.839633941650390625e+00 4.216621398925781250e+00 6.322913169860839844e-01 1.581979274749755859e+00 6.642811894416809082e-01 -6.553233265876770020e-01
3.605000000000000000e+03 8.107086181640625000e+00 -4.395318508148193359e+00 -3.328036516904830933e-02 6.700585365295410156e+00 2.000191450119018555e+00 4.702218532562255859e+00
3.606000000000000000e+03 9.270764350891113281e+00 4.656939029693603516e+00 -7.936209440231323242e-01 6.987822532653808594e+00 1.858260512351989746e+00 -1.492975592613220215e+00
3.607000000000000000e+03 7.420168876647949219e+00 -6.551764011383056641e+00 -2.015440702438354492e+00 7.496065616607666016e+00 1.644187569618225098e+00 3.617722988128662109e+00
3.608000000000000000e+03 8.705719947814941406e+00 4.380985260009765625e+00 -2.549275159835815430e-01 5.937628746032714844e+00 1.704810380935668945e+00 -1.873149037361145020e+00
3.609000000000000000e+03 5.425768375396728516e+00 -4.780431747436523438e+00 1.091693937778472900e-01 3.418652534484863281e+00 1.058346629142761230e+00 2.087856531143188477e+00
3.610000000000000000e+03 9.097121238708496094e+00 4.199064254760742188e+00 -4.590754806995391846e-01 6.765547752380371094e+00 1.891941785812377930e+00 -1.897546887397766113e+00
3.611000000000000000e+03 8.330375671386718750e+00 4.496984004974365234e+00 -8.981497585773468018e-02 5.229530334472656250e+00 1.541914701461791992e+00 -1.723692655563354492e+00
3.612000000000000000e+03 1.122005653381347656e+01 -4.282321929931640625e+00 -2.513172924518585205e-01 9.298914909362792969e+00 2.714279174804687500e+00 3.162109613418579102e+00
3.613000000000000000e+03 6.806796550750732422e+00 -6.857214927673339844e+00 -1.850202441215515137e+00 7.014356613159179688e+00 1.549246191978454590e+00 2.780895948410034180e+00
3.614000000000000000e+03 6.203051090240478516e+00 -4.921692848205566406e+00 -1.686146706342697144e-01 4.613374710083007812e+00 1.333428025245666504e+00 2.792027950286865234e+00
3.615000000000000000e+03 5.796389102935791016e+00 -4.752127647399902344e+00 1.062639802694320679e-01 3.824770927429199219e+00 1.179310441017150879e+00 2.548829078674316406e+00
3.616000000000000000e+03 4.797709465026855469e+00 3.796213865280151367e+00 5.281864404678344727e-01 7.314540743827819824e-01 3.778921663761138916e-01 -1.332251131534576416e-01
3.617000000000000000e+03 5.322935581207275391e+00 3.975410938262939453e+00 6.170414686203002930e-01 1.078076243400573730e+00 5.085353255271911621e-01 -3.771948814392089844e-01
3.618000000000000000e+03 9.810324668884277344e+00 -4.635380744934082031e+00 -8.297080993652343750e-01 8.873241424560546875e+00 2.413059949874877930e+00 4.601018905639648438e+00
3.619000000000000000e+03 6.703713893890380859e+00 -4.659987449645996094e+00 8.665790082886815071e-04 4.979780673980712891e+00 1.494194149971008301e+00 3.416909933090209961e+00
3.620000000000000000e+03 9.906710624694824219e+00 5.679203510284423828e+00 -1.361489534378051758e+00 7.298892974853515625e+00 1.781221032142639160e+00 -4.721782207489013672e-01
3.621000000000000000e+03 6.505787849426269531e+00 5.945949077606201172e+00 1.711259484291076660e-01 2.919604539871215820e+00 9.272191524505615234e-01 -7.371794581413269043e-01
3.622000000000000000e+03 5.793542861938476562e+00 5.238378524780273438e+00 4.420026838779449463e-01 2.009836673736572266e+00 7.355518341064453125e-01 -6.540529131889343262e-01
3.623000000000000000e+03 1.047019577026367188e+01 -5.039310932159423828e+00 -1.116469979286193848e+00 8.651356697082519531e+00 2.260466098785400391e+00 4.169990062713623047e+00
3.624000000000000000e+03 1.264127635955810547e+01 -5.603522777557373047e+00 -4.278956949710845947e-01 6.023742675781250000e+00 1.678754091262817383e+00 2.534186601638793945e+00
3.625000000000000000e+03 1.422750091552734375e+01 -1.253480553627014160e+00 6.187060832977294922e+00 4.247352123260498047e+00 3.130323886871337891e+00 3.962672054767608643e-01
3.626000000000000000e+03 9.633196830749511719e+00 -6.258157253265380859e+00 -2.131083250045776367e+00 8.204292297363281250e+00 1.821962714195251465e+00 4.651661872863769531e+00
3.627000000000000000e+03 1.393346405029296875e+01 1.235183715820312500e+00 5.346274375915527344e+00 5.005310058593750000e+00 3.105475425720214844e+00 2.344841957092285156e+00
3.628000000000000000e+03 1.412076854705810547e+01 -5.454284191131591797e+00 5.642123818397521973e-01 3.895185947418212891e+00 1.337819457054138184e+00 1.344596266746520996e+00
3.629000000000000000e+03 1.443778896331787109e+01 1.339493691921234131e-01 6.361414909362792969e+00 3.754253864288330078e+00 3.034700632095336914e+00 1.542148232460021973e+00
3.630000000000000000e+03 1.333661651611328125e+01 -5.619854927062988281e+00 -8.083795756101608276e-02 4.951082706451416016e+00 1.461073398590087891e+00 1.939284920692443848e+00
3.631000000000000000e+03 1.422755432128906250e+01 -1.651579618453979492e+00 5.579857826232910156e+00 4.371046543121337891e+00 2.985271215438842773e+00 2.408242225646972656e-01
3.632000000000000000e+03 1.212914848327636719e+01 -3.838088989257812500e+00 1.037664890289306641e+00 8.594743728637695312e+00 2.889722585678100586e+00 1.619400858879089355e+00
3.633000000000000000e+03 1.306650352478027344e+01 -2.670409440994262695e+00 3.828734159469604492e+00 7.183246612548828125e+00 3.303594350814819336e+00 9.201875329017639160e-02
3.634000000000000000e+03 1.629371833801269531e+01 -1.868177056312561035e+00 4.743727207183837891e+00 1.477807402610778809e+00 1.866460442543029785e+00 7.670161128044128418e-01
3.635000000000000000e+03 7.720964431762695312e+00 -7.377122402191162109e+00 -2.785251140594482422e+00 8.446181297302246094e+00 1.698278903961181641e+00 3.476856946945190430e+00
3.636000000000000000e+03 1.346134662628173828e+01 -2.435184717178344727e+00 4.536605358123779297e+00 6.058526039123535156e+00 3.178539514541625977e+00 -3.538203984498977661e-02
3.637000000000000000e+03 1.131027221679687500e+01 -6.271306514739990234e+00 -1.861675858497619629e+00 7.412520885467529297e+00 1.665253520011901855e+00 3.936755418777465820e+00
3.638000000000000000e+03 1.198920154571533203e+01 -6.074222564697265625e+00 -1.210936665534973145e+00 6.545884609222412109e+00 1.600484371185302734e+00 3.287086963653564453e+00
3.639000000000000000e+03 9.230175018310546875e+00 7.321154594421386719e+00 -8.039117455482482910e-01 5.884674549102783203e+00 1.524228930473327637e+00 -1.461635343730449677e-02
3.640000000000000000e+03 1.381988334655761719e+01 -3.264368534088134766e+00 3.329645872116088867e+00 5.361834526062011719e+00 2.607444047927856445e+00 2.564051449298858643e-01
3.641000000000000000e+03 1.439775562286376953e+01 -2.083662033081054688e+00 5.119817256927490234e+00 4.188006877899169922e+00 2.792347192764282227e+00 1.488173902034759521e-01
3.642000000000000000e+03 1.139142513275146484e+01 -4.722044467926025391e+00 -4.584439694881439209e-01 8.496144294738769531e+00 2.411310195922851562e+00 3.154258489608764648e+00
3.643000000000000000e+03 1.493115901947021484e+01 -5.121242523193359375e+00 1.264003992080688477e+00 3.050936698913574219e+00 1.294482231140136719e+00 6.831308603286743164e-01
3.644000000000000000e+03 9.509031295776367188e+00 -6.676173686981201172e+00 -2.610169887542724609e+00 8.385092735290527344e+00 1.732476949691772461e+00 4.591522216796875000e+00
3.645000000000000000e+03 8.086669921875000000e+00 8.315865516662597656e+00 -2.588875293731689453e-01 4.498106956481933594e+00 1.271765828132629395e+00 -1.098342612385749817e-01
3.646000000000000000e+03 1.489732074737548828e+01 -1.004416108131408691e+00 5.962581634521484375e+00 2.982950210571289062e+00 2.683659553527832031e+00 6.916492581367492676e-01
3.647000000000000000e+03 1.500346755981445312e+01 -2.424402475357055664e+00 4.580276489257812500e+00 3.102941036224365234e+00 2.304965257644653320e+00 2.795558869838714600e-01
3.648000000000000000e+03 1.492314720153808594e+01 -1.897866487503051758e+00 5.188248157501220703e+00 3.154783964157104492e+00 2.502909660339355469e+00 3.884161114692687988e-01
3.649000000000000000e+03 1.716116905212402344e+01 -4.119494915008544922e+00 2.531030178070068359e+00 1.189486384391784668e+00 1.116155028343200684e+00 3.500036299228668213e-01
3.650000000000000000e+03 1.696805572509765625e+01 -2.766390800476074219e+00 3.783822536468505859e+00 1.156270861625671387e+00 1.482028007507324219e+00 6.090561747550964355e-01
3.651000000000000000e+03 1.565198707580566406e+01 -4.739386558532714844e+00 1.841242790222167969e+00 2.290892601013183594e+00 1.239640593528747559e+00 4.572246670722961426e-01
3.652000000000000000e+03 1.279828548431396484e+01 -3.702477693557739258e+00 1.849240183830261230e+00 7.366414070129394531e+00 2.764696359634399414e+00 9.199384450912475586e-01
3.653000000000000000e+03 2.301444816589355469e+01 -3.415042161941528320e+00 1.293730378150939941e+00 7.418830990791320801e-01 6.106840372085571289e-01 5.812091827392578125e-01
3.654000000000000000e+03 2.062041091918945312e+01 -3.564203500747680664e+00 1.975364208221435547e+00 4.262093305587768555e-01 7.204720377922058105e-01 6.145213246345520020e-01
3.655000000000000000e+03 3.964265823364257812e+01 1.447996735572814941e+00 6.342800259590148926e-01 4.972052574157714844e-01 3.394455611705780029e-01 -7.117240875959396362e-02
3.656000000000000000e+03 1.665413665771484375e+01 -3.489623069763183594e+00 3.215463161468505859e+00 1.469597697257995605e+00 1.405518293380737305e+00 3.685159385204315186e-01
3.657000000000000000e+03 1.620981788635253906e+01 -2.583384752273559570e+00 4.257957935333251953e+00 1.764588475227355957e+00 1.806764006614685059e+00 4.396382272243499756e-01
3.658000000000000000e+03 3.279170227050781250e+01 -5.161751747131347656e+00 -5.160201787948608398e-01 7.800793647766113281e-01 7.921776920557022095e-02 -4.020621776580810547e-01
3.659000000000000000e+03 6.723683166503906250e+01 6.991910934448242188e+00 -1.391338407993316650e-01 5.038575649261474609e+00 1.469832539558410645e+00 -1.676324367523193359e+00
3.660000000000000000e+03 6.824354553222656250e+01 9.953719139099121094e+00 5.805178359150886536e-02 5.220885753631591797e+00 1.583681225776672363e+00 -1.396206140518188477e+00
3.661000000000000000e+03 2.993816184997558594e+01 -3.289547204971313477e+00 2.273650467395782471e-01 9.867689609527587891e-01 3.642401993274688721e-01 -1.908694952726364136e-01
3.662000000000000000e+03 3.419903945922851562e+01 3.854089498519897461e+00 1.541310667991638184e+00 9.050125479698181152e-01 7.338969707489013672e-01 4.138277173042297363e-01
3.663000000000000000e+03 6.749505615234375000e+01 1.104813385009765625e+01 1.908056735992431641e-01 4.896514415740966797e+00 1.526196122169494629e+00 -1.386678099632263184e+00
3.664000000000000000e+03 4.077769088745117188e+01 -6.460642337799072266e+00 -1.070788264274597168e+00 4.221170842647552490e-01 -1.946013569831848145e-01 -5.004392862319946289e-01
3.665000000000000000e+03 3.690612030029296875e+01 -3.766948282718658447e-01 5.081900358200073242e-01 5.955212116241455078e-01 3.311133682727813721e-01 -1.687990278005599976e-01
3.666000000000000000e+03 3.470170974731445312e+01 1.934775924682617188e+01 3.410942256450653076e-01 1.954525947570800781e+00 6.886860728263854980e-01 6.829465627670288086e-01
3.667000000000000000e+03 6.714715576171875000e+01 4.223121643066406250e+00 -4.175870716571807861e-01 5.238172531127929688e+00 1.446175575256347656e+00 -1.847750902175903320e+00
3.668000000000000000e+03 2.982101249694824219e+01 -5.062497615814208984e+00 -3.718427121639251709e-01 8.966677188873291016e-01 1.574474871158599854e-01 -3.063536584377288818e-01
3.669000000000000000e+03 3.082732391357421875e+01 -5.371880531311035156e+00 -5.214780569076538086e-01 8.529841899871826172e-01 9.945184737443923950e-02 -3.686313033103942871e-01
3.670000000000000000e+03 2.910437774658203125e+01 -4.070259571075439453e+00 -1.274753827601671219e-03 9.670269489288330078e-01 2.897256612777709961e-01 -2.146689891815185547e-01
3.671000000000000000e+03 4.495406341552734375e+01 -4.544985771179199219e+00 -8.470330834388732910e-01 2.700765132904052734e-01 -1.730869710445404053e-01 -4.148763418197631836e-01
3.672000000000000000e+03 4.351698303222656250e+01 -6.578039646148681641e+00 -1.223824620246887207e+00 3.262355923652648926e-01 -2.692767381668090820e-01 -5.028181076049804688e-01
3.673000000000000000e+03 4.329522323608398438e+01 -2.662063598632812500e+00 -3.604341447353363037e-01 3.273176550865173340e-01 -9.934949688613414764e-03 -3.263494968414306641e-01
3.674000000000000000e+03 4.442589950561523438e+01 -1.879094243049621582e+00 -2.365325093269348145e-01 2.964670062065124512e-01 1.798035018146038055e-02 -2.752152979373931885e-01
3.675000000000000000e+03 4.155487442016601562e+01 -7.813439369201660156e+00 -1.416461586952209473e+00 3.832712769508361816e-01 -3.099570870399475098e-01 -5.402766466140747070e-01
3.676000000000000000e+03 4.470845794677734375e+01 -6.177417755126953125e+00 -1.227469563484191895e+00 2.668022513389587402e-01 -2.882001996040344238e-01 -4.925477504730224609e-01
3.677000000000000000e+03 6.500884246826171875e+01 3.270634174346923828e+00 -2.029092907905578613e-01 3.965704441070556641e+00 1.128838539123535156e+00 -2.122048139572143555e+00
3.678000000000000000e+03 6.579773712158203125e+01 4.848949432373046875e+00 -1.869088262319564819e-01 4.420786380767822266e+00 1.270163297653198242e+00 -1.929628133773803711e+00
3.679000000000000000e+03 6.406843566894531250e+01 2.061330413818359375e+01 5.700474977493286133e-01 4.090086936950683594e+00 1.398040294647216797e+00 -8.355657458305358887e-01
3.680000000000000000e+03 3.160216522216796875e+01 -1.238427400588989258e+00 7.606735825538635254e-01 9.558438062667846680e-01 5.149552226066589355e-01 -1.409335434436798096e-01
3.681000000000000000e+03 6.803479003906250000e+01 5.819745063781738281e+00 -3.087909817695617676e-01 5.507408618927001953e+00 1.559585332870483398e+00 -1.607255220413208008e+00
3.682000000000000000e+03 6.365926361083984375e+01 7.543085098266601562e+00 1.876150369644165039e-01 3.635782718658447266e+00 1.147019267082214355e+00 -1.595730662345886230e+00
3.683000000000000000e+03 3.244353103637695312e+01 2.603929758071899414e+00 1.630875706672668457e+00 1.039184093475341797e+00 8.010179400444030762e-01 2.972785830497741699e-01
3.684000000000000000e+03 6.110983657836914062e+01 2.251837348937988281e+01 6.019556522369384766e-01 3.625429868698120117e+00 1.268215656280517578e+00 -7.447367906570434570e-01
3.685000000000000000e+03 3.642599105834960938e+01 -6.871461868286132812e+00 -1.084431767463684082e+00 5.908356904983520508e-01 -1.480788141489028931e-01 -5.123457908630371094e-01
3.686000000000000000e+03 1.238696765899658203e+01 -3.538202667236328125e+01 -1.831824779510498047e-01 3.464541912078857422e+00 9.844077825546264648e-01 -1.957032084465026855e-01
3.687000000000000000e+03 3.356866455078125000e+01 3.019103288650512695e+00 1.511615991592407227e+00 9.235868453979492188e-01 7.305608391761779785e-01 3.097887337207794189e-01
3.688000000000000000e+03 3.560393905639648438e+01 8.878934979438781738e-01 8.803469538688659668e-01 6.973844766616821289e-01 4.733194112777709961e-01 -3.610655665397644043e-02
3.689000000000000000e+03 3.529927825927734375e+01 -6.773501396179199219e+00 -1.040500640869140625e+00 6.427545547485351562e-01 -1.193238347768783569e-01 -4.787029027938842773e-01
3.690000000000000000e+03 3.508570861816406250e+01 -4.456201553344726562e+00 -3.804463744163513184e-01 6.581292748451232910e-01 8.330487459897994995e-02 -4.145199954509735107e-01
3.691000000000000000e+03 2.768823242187500000e+01 -4.595741748809814453e+00 -1.321287304162979126e-01 9.688267111778259277e-01 2.510094046592712402e-01 -1.877791732549667358e-01
3.692000000000000000e+03 6.570716857910156250e+01 2.262940979003906250e+01 4.490745961666107178e-01 4.345412254333496094e+00 1.438346147537231445e+00 -7.497386336326599121e-01
3.693000000000000000e+03 2.640505027770996094e+01 2.427739715576171875e+01 3.381601870059967041e-01 1.373335242271423340e+00 5.134486556053161621e-01 3.571877777576446533e-01
3.694000000000000000e+03 2.415251922607421875e+01 2.010986900329589844e+01 8.140278607606887817e-02 7.853396534919738770e-01 2.600227296352386475e-01 3.276651203632354736e-01
3.695000000000000000e+03 3.291093826293945312e+01 2.811568260192871094e+01 4.846450090408325195e-01 1.745497703552246094e+00 6.690428256988525391e-01 2.639978826045989990e-01
3.696000000000000000e+03 2.690245437622070312e+01 2.708729743957519531e+01 4.253153204917907715e-01 1.521618485450744629e+00 5.840801596641540527e-01 3.459433317184448242e-01
3.697000000000000000e+03 2.558218765258789062e+01 2.135677719116210938e+01 1.432382911443710327e-01 1.132075548171997070e+00 3.825941681861877441e-01 2.896516919136047363e-01
3.698000000000000000e+03 2.562824821472167969e+01 2.296270370483398438e+01 2.830424904823303223e-01 1.236631155014038086e+00 4.559020996093750000e-01 3.690423667430877686e-01
3.699000000000000000e+03 2.388588905334472656e+01 2.782649421691894531e+01 3.963519036769866943e-01 1.530058741569519043e+00 5.779231786727905273e-01 4.757007658481597900e-01
3.700000000000000000e+03 2.076600074768066406e+01 2.859006881713867188e+01 2.605454027652740479e-01 1.754382371902465820e+00 6.044783592224121094e-01 5.911526083946228027e-01
3.701000000000000000e+03 4.002322769165039062e+01 -3.519042134284973145e-01 2.662327587604522705e-01 4.493295550346374512e-01 2.146686911582946777e-01 -1.997873634099960327e-01
3.702000000000000000e+03 6.333536911010742188e+01 5.618669033050537109e+00 9.700188040733337402e-02 3.414043903350830078e+00 1.053313732147216797e+00 -1.695608496665954590e+00
3.703000000000000000e+03 3.306159973144531250e+01 2.120096969604492188e+01 2.254719734191894531e-01 1.889718413352966309e+00 6.345571279525756836e-01 4.812579751014709473e-01
3.704000000000000000e+03 2.973784065246582031e+01 2.655493736267089844e+01 4.133996367454528809e-01 1.628914356231689453e+00 6.126942038536071777e-01 2.908872663974761963e-01
3.705000000000000000e+03 8.159640312194824219e+00 -4.097825241088867188e+01 -1.609578728675842285e-02 4.639818668365478516e+00 1.387116789817810059e+00 2.788655273616313934e-02
3.706000000000000000e+03 7.441989898681640625e+01 3.776883316040039062e+01 5.503511056303977966e-02 5.158234596252441406e+00 1.563980937004089355e+00 -8.889230340719223022e-02
3.707000000000000000e+03 5.628519439697265625e+01 3.128244972229003906e+01 7.230349779129028320e-01 2.991265535354614258e+00 1.114290118217468262e+00 -3.792470693588256836e-01
3.708000000000000000e+03 5.906106948852539062e+01 3.086667060852050781e+01 6.153013706207275391e-01 3.362161159515380859e+00 1.193238735198974609e+00 -4.408769309520721436e-01
3.709000000000000000e+03 8.854728698730468750e+00 3.801078414916992188e+01 -8.256855420768260956e-03 2.070730686187744141e+00 6.187421679496765137e-01 2.532316558063030243e-02
3.710000000000000000e+03 2.914419746398925781e+01 2.399403572082519531e+01 2.867376208305358887e-01 1.561338543891906738e+00 5.544228553771972656e-01 2.891341149806976318e-01
3.711000000000000000e+03 4.810337829589843750e+01 2.948086357116699219e+01 9.405963420867919922e-01 2.025881290435791016e+00 8.899433016777038574e-01 -5.136407911777496338e-03
3.712000000000000000e+03 4.284730529785156250e+01 2.778023910522460938e+01 7.864254713058471680e-01 1.852680921554565430e+00 7.917318940162658691e-01 3.042928576469421387e-01
3.713000000000000000e+03 6.794279479980468750e+01 -3.438026809692382812e+01 -1.478299200534820557e-01 5.996045112609863281e+00 1.754464626312255859e+00 3.494079411029815674e-01
3.714000000000000000e+03 6.730583953857421875e+01 -3.749185943603515625e+01 1.102460399270057678e-01 5.508142471313476562e+00 1.685516595840454102e+00 2.119447141885757446e-01
3.715000000000000000e+03 6.375688552856445312e+01 -3.603869628906250000e+01 1.631977558135986328e-01 3.727445840835571289e+00 1.167193055152893066e+00 2.766202092170715332e-01
3.716000000000000000e+03 6.525367736816406250e+01 -3.352362442016601562e+01 -1.352793127298355103e-01 4.688412189483642578e+00 1.365939855575561523e+00 3.608193099498748779e-01
3.717000000000000000e+03 6.008404922485351562e+01 2.390016746520996094e+01 6.289935708045959473e-01 3.511274099349975586e+00 1.242080330848693848e+00 -7.142187356948852539e-01
3.718000000000000000e+03 5.841915130615234375e+01 2.825269699096679688e+01 6.621847152709960938e-01 3.231436967849731445e+00 1.168086528778076172e+00 -5.393626689910888672e-01
3.719000000000000000e+03 1.924642753601074219e+01 -3.272537612915039062e+01 -1.467477977275848389e-01 1.084533095359802246e+00 2.813355922698974609e-01 -2.085420042276382446e-01
3.720000000000000000e+03 7.095096588134765625e+00 5.572747707366943359e+00 1.171489357948303223e-01 3.541698455810546875e+00 1.097654223442077637e+00 -1.010262846946716309e+00
3.721000000000000000e+03 6.332608699798583984e+00 4.462945938110351562e+00 5.947672128677368164e-01 2.148079395294189453e+00 8.228539824485778809e-01 -9.080582857131958008e-01
3.722000000000000000e+03 8.500179290771484375e+00 6.906845092773437500e+00 -5.961575508117675781e-01 5.257062435150146484e+00 1.398271441459655762e+00 -4.670384824275970459e-01
3.723000000000000000e+03 8.217132568359375000e+00 -4.848089218139648438e+00 -6.484004259109497070e-01 7.276854038238525391e+00 1.988536000251770020e+00 4.729396343231201172e+00
3.724000000000000000e+03 8.950797080993652344e+00 -4.447012901306152344e+00 -4.455145299434661865e-01 8.240118026733398438e+00 2.338381052017211914e+00 5.075181961059570312e+00
3.725000000000000000e+03 5.848496437072753906e+00 -5.597689151763916016e+00 -5.826999545097351074e-01 4.850280761718750000e+00 1.280274271965026855e+00 2.473831653594970703e+00
3.726000000000000000e+03 7.412281036376953125e+00 -4.295592784881591797e+00 2.554556429386138916e-01 5.695732593536376953e+00 1.785356521606445312e+00 4.241446495056152344e+00
3.727000000000000000e+03 1.090802574157714844e+01 -4.858669757843017578e+00 -9.518572688102722168e-01 8.886041641235351562e+00 2.380255460739135742e+00 3.787320852279663086e+00
3.728000000000000000e+03 9.916036605834960938e+00 4.884459018707275391e+00 -1.274570226669311523e+00 7.891134738922119141e+00 1.984969377517700195e+00 -9.857990145683288574e-01
3.729000000000000000e+03 1.025823307037353516e+01 -6.412509918212890625e+00 -2.215976953506469727e+00 7.981117725372314453e+00 1.729542255401611328e+00 4.497701168060302734e+00
3.730000000000000000e+03 9.427998542785644531e+00 -4.681666851043701172e+00 -7.915772795677185059e-01 8.698707580566406250e+00 2.372138977050781250e+00 4.903802871704101562e+00
3.731000000000000000e+03 6.724884510040283203e+00 5.452350616455078125e+00 2.630919218063354492e-01 3.012115478515625000e+00 9.825622439384460449e-01 -9.345754981040954590e-01
3.732000000000000000e+03 6.328187942504882812e+00 5.558482646942138672e+00 3.069789111614227295e-01 2.651306629180908203e+00 8.874856829643249512e-01 -7.942140698432922363e-01
3.733000000000000000e+03 6.787324428558349609e+00 4.028002738952636719e+00 6.864528059959411621e-01 2.446896553039550781e+00 9.400048255920410156e-01 -1.201715826988220215e+00
3.734000000000000000e+03 1.411632728576660156e+01 -2.715849637985229492e+00 4.185895919799804688e+00 4.794754505157470703e+00 2.694195032119750977e+00 9.042711555957794189e-02
3.735000000000000000e+03 1.097306919097900391e+01 -5.898634910583496094e+00 -1.579823374748229980e+00 7.768108367919921875e+00 1.856485486030578613e+00 4.096889972686767578e+00
3.736000000000000000e+03 7.138855934143066406e+00 6.492938041687011719e+00 -3.830960020422935486e-02 3.665088176727294922e+00 1.088033556938171387e+00 -7.141284942626953125e-01
3.737000000000000000e+03 5.640926837921142578e+00 4.798780918121337891e+00 5.142123699188232422e-01 1.701017498970031738e+00 6.645689606666564941e-01 -5.948640108108520508e-01
3.738000000000000000e+03 1.322358417510986328e+01 -4.918565273284912109e+00 7.167326807975769043e-01 5.621789455413818359e+00 1.901556730270385742e+00 1.524184823036193848e+00
3.739000000000000000e+03 9.029914855957031250e+00 6.779273509979248047e+00 -8.640752434730529785e-01 5.873850345611572266e+00 1.502932429313659668e+00 -3.023557364940643311e-01
3.740000000000000000e+03 1.393706989288330078e+01 -4.740349292755126953e+00 1.221846222877502441e+00 4.710044384002685547e+00 1.779567241668701172e+00 1.043199896812438965e+00
3.741000000000000000e+03 1.254653072357177734e+01 -4.102774620056152344e+00 1.089814305305480957e+00 7.486890316009521484e+00 2.573011398315429688e+00 1.506290793418884277e+00
3.742000000000000000e+03 1.002650165557861328e+01 5.321407794952392578e+00 -1.414894223213195801e+00 7.713691711425781250e+00 1.889639258384704590e+00 -6.226235032081604004e-01
3.743000000000000000e+03 9.646922111511230469e+00 5.963220596313476562e+00 -1.258019447326660156e+00 6.980268001556396484e+00 1.716674566268920898e+00 -4.982426166534423828e-01
3.744000000000000000e+03 1.071792793273925781e+01 -5.487145423889160156e+00 -1.547474622726440430e+00 8.510926246643066406e+00 2.089035511016845703e+00 4.139538764953613281e+00
3.745000000000000000e+03 1.128318977355957031e+01 -5.662445068359375000e+00 -1.452834606170654297e+00 7.919741153717041016e+00 1.940071940422058105e+00 3.761418581008911133e+00
3.746000000000000000e+03 7.231561183929443359e+00 -7.073550224304199219e+00 -2.460168123245239258e+00 8.158326148986816406e+00 1.709447264671325684e+00 2.979108810424804688e+00
3.747000000000000000e+03 8.081871032714843750e+00 -6.223250865936279297e+00 -1.965385913848876953e+00 7.774674892425537109e+00 1.742786645889282227e+00 4.270951747894287109e+00
3.748000000000000000e+03 9.073987007141113281e+00 -6.577354431152343750e+00 -2.468271017074584961e+00 8.370520591735839844e+00 1.770674824714660645e+00 4.664077758789062500e+00
3.749000000000000000e+03 8.567675590515136719e+00 7.479535579681396484e+00 -5.430192351341247559e-01 5.135971546173095703e+00 1.377885699272155762e+00 -1.887322515249252319e-01
3.750000000000000000e+03 7.421804904937744141e+00 7.206940174102783203e+00 -1.857808828353881836e-01 3.997892618179321289e+00 1.143633484840393066e+00 -4.660452008247375488e-01
3.751000000000000000e+03 1.241802120208740234e+01 -3.468989133834838867e+00 1.930852293968200684e+00 8.323905944824218750e+00 3.076427459716796875e+00 9.956302046775817871e-01
3.752000000000000000e+03 1.011763381958007812e+01 -5.306655406951904297e+00 -1.510558962821960449e+00 8.827950477600097656e+00 2.195217370986938477e+00 4.464861392974853516e+00
3.753000000000000000e+03 8.588068008422851562e+00 -6.422380447387695312e+00 -2.319718837738037109e+00 8.313392639160156250e+00 1.798102021217346191e+00 4.362245559692382812e+00
3.754000000000000000e+03 1.328185081481933594e+01 -3.948203086853027344e+00 1.799139857292175293e+00 6.153174877166748047e+00 2.385694503784179688e+00 9.476635456085205078e-01
3.755000000000000000e+03 1.279349231719970703e+01 -3.265275239944458008e+00 2.467485666275024414e+00 7.643374443054199219e+00 3.033257961273193359e+00 6.578810811042785645e-01
3.756000000000000000e+03 1.365948486328125000e+01 -2.878669977188110352e+00 3.750230789184570312e+00 5.689057826995849609e+00 2.831786632537841797e+00 1.205990314483642578e-01
3.757000000000000000e+03 1.456101226806640625e+01 -2.536024332046508789e+00 4.428332805633544922e+00 4.028767585754394531e+00 2.537130117416381836e+00 1.842156350612640381e-01
3.758000000000000000e+03 1.606119537353515625e+01 -3.864098548889160156e+00 2.834807872772216797e+00 1.964344978332519531e+00 1.439745903015136719e+00 3.563819527626037598e-01
3.759000000000000000e+03 7.897354602813720703e+00 7.445299625396728516e+00 -3.192633688449859619e-01 4.461161136627197266e+00 1.242569446563720703e+00 -3.703539073467254639e-01
3.760000000000000000e+03 7.987068653106689453e+00 6.912186145782470703e+00 -3.759149014949798584e-01 4.656890392303466797e+00 1.284292578697204590e+00 -5.423455834388732910e-01
3.761000000000000000e+03 7.673828601837158203e+00 7.961833953857421875e+00 -2.211904227733612061e-01 4.190973758697509766e+00 1.190935015678405762e+00 -2.389181852340698242e-01
3.762000000000000000e+03 1.537417125701904297e+01 -4.152245521545410156e+00 2.395157337188720703e+00 2.759585142135620117e+00 1.546422719955444336e+00 3.927698433399200439e-01
3.763000000000000000e+03 1.487698745727539062e+01 -2.870544433593750000e+00 4.001317977905273438e+00 3.473613262176513672e+00 2.242479324340820312e+00 2.479069679975509644e-01
3.764000000000000000e+03 3.324171829223632812e+01 4.450244903564453125e-01 1.057246804237365723e+00 8.944454193115234375e-01 5.855076313018798828e-01 -7.476298604160547256e-03
3.765000000000000000e+03 3.190907478332519531e+01 -2.187593698501586914e+00 4.074961543083190918e-01 9.003813862800598145e-01 3.923632502555847168e-01 -2.159798592329025269e-01
3.766000000000000000e+03 6.644273376464843750e+01 6.185480594635009766e+00 -1.399733722209930420e-01 4.776689052581787109e+00 1.391014695167541504e+00 -1.759295821189880371e+00
3.767000000000000000e+03 6.232530593872070312e+01 5.790064334869384766e+00 2.037183493375778198e-01 2.957849025726318359e+00 9.484702348709106445e-01 -1.587820410728454590e+00
3.768000000000000000e+03 1.635533905029296875e+01 -4.479817390441894531e+00 2.112831354141235352e+00 1.783322334289550781e+00 1.168846130371093750e+00 2.774793505668640137e-01
3.769000000000000000e+03 4.224828720092773438e+01 -3.543151617050170898e+00 -5.011197328567504883e-01 3.694519102573394775e-01 -3.950033709406852722e-02 -3.687607347965240479e-01
3.770000000000000000e+03 3.544062042236328125e+01 -3.485848903656005859e+00 -1.700412929058074951e-01 6.642626523971557617e-01 1.482664048671722412e-01 -3.761127889156341553e-01
3.771000000000000000e+03 3.886048507690429688e+01 3.527770638465881348e-01 5.042781829833984375e-01 5.034895539283752441e-01 3.023303151130676270e-01 -1.380444318056106567e-01
3.772000000000000000e+03 2.998310279846191406e+01 -4.180789470672607422e+00 -1.009599268436431885e-01 9.322454929351806641e-01 2.493856698274612427e-01 -2.850974798202514648e-01
3.773000000000000000e+03 6.721590423583984375e+01 9.168954849243164062e+00 5.246119573712348938e-02 4.884429931640625000e+00 1.481067419052124023e+00 -1.509104371070861816e+00
3.774000000000000000e+03 3.808669662475585938e+01 -3.484850883483886719e+00 -2.920577228069305420e-01 5.256317257881164551e-01 7.007219642400741577e-02 -3.716261088848114014e-01
3.775000000000000000e+03 3.255516052246093750e+01 -9.545720219612121582e-01 7.742953300476074219e-01 9.200869798660278320e-01 5.083146691322326660e-01 -1.325836628675460815e-01
3.776000000000000000e+03 3.409922027587890625e+01 1.952242732048034668e+00 1.283071994781494141e+00 8.492141962051391602e-01 6.396858692169189453e-01 1.498446464538574219e-01
3.777000000000000000e+03 3.541344070434570312e+01 2.196627140045166016e+00 1.144044280052185059e+00 7.435722351074218750e-01 5.662849545478820801e-01 1.304475367069244385e-01
3.778000000000000000e+03 4.307419586181640625e+01 -4.587111473083496094e+00 -7.809516191482543945e-01 3.427975177764892578e-01 -1.314462274312973022e-01 -4.181085228919982910e-01
3.779000000000000000e+03 4.413827133178710938e+01 -3.651344776153564453e+00 -6.298464536666870117e-01 3.038477301597595215e-01 -9.779960662126541138e-02 -3.643139898777008057e-01
3.780000000000000000e+03 2.723797607421875000e+01 -3.913895606994628906e+00 3.103466331958770752e-01 1.012396931648254395e+00 3.968230485916137695e-01 -3.841437026858329773e-02
3.781000000000000000e+03 2.839780807495117188e+01 -4.250012397766113281e+00 -2.022978290915489197e-02 9.416739344596862793e-01 2.764332592487335205e-01 -1.925496757030487061e-01
3.782000000000000000e+03 3.445251464843750000e+01 -5.839616775512695312e+00 -7.986640930175781250e-01 6.736508607864379883e-01 -3.750396892428398132e-02 -4.547117948532104492e-01
3.783000000000000000e+03 3.685036468505859375e+01 -5.418257713317871094e+00 -7.034745812416076660e-01 5.768474936485290527e-01 -3.798812255263328552e-02 -4.627352952957153320e-01
3.784000000000000000e+03 6.688523864746093750e+01 5.281765460968017578e+00 -3.119072318077087402e-01 5.054936408996582031e+00 1.422908782958984375e+00 -1.874894261360168457e+00
3.785000000000000000e+03 3.754548645019531250e+01 -4.511555671691894531e+00 -5.344423055648803711e-01 5.522770285606384277e-01 5.350420717149972916e-03 -4.165999889373779297e-01
3.786000000000000000e+03 3.204938125610351562e+01 1.710654640197753906e+01 6.648082286119461060e-02 2.036326408386230469e+00 6.308422088623046875e-01 7.938432693481445312e-01
3.787000000000000000e+03 3.858879470825195312e+01 -5.806005954742431641e+00 -8.747338652610778809e-01 5.066463947296142578e-01 -1.104262322187423706e-01 -4.817680418491363525e-01
3.788000000000000000e+03 6.466297149658203125e+01 4.531486034393310547e+00 -9.519866108894348145e-02 3.897327661514282227e+00 1.140638709068298340e+00 -1.934932470321655273e+00
3.789000000000000000e+03 6.694582366943359375e+01 3.135811567306518555e+00 -5.629113316535949707e-01 5.283252239227294922e+00 1.416102290153503418e+00 -2.046634435653686523e+00
3.790000000000000000e+03 6.622731018066406250e+01 7.594142436981201172e+00 3.822071477770805359e-03 4.648341178894042969e+00 1.395648956298828125e+00 -1.613351464271545410e+00
3.791000000000000000e+03 4.261379241943359375e+01 -1.571074247360229492e+00 -9.322289377450942993e-02 3.529115319252014160e-01 7.790659368038177490e-02 -2.672085464000701904e-01
3.792000000000000000e+03 3.816349792480468750e+01 -7.832065820693969727e-01 3.340158164501190186e-01 5.324250459671020508e-01 2.599322497844696045e-01 -2.077609151601791382e-01
3.793000000000000000e+03 3.602094268798828125e+01 -4.781096458435058594e+00 -5.083657503128051758e-01 6.449310779571533203e-01 4.096959903836250305e-02 -4.259615242481231689e-01
3.794000000000000000e+03 3.084246253967285156e+01 -3.344602346420288086e+00 1.263393461704254150e-01 9.257197380065917969e-01 3.156177103519439697e-01 -2.504982650279998779e-01
3.795000000000000000e+03 5.798585510253906250e+01 2.575481986999511719e+01 6.858560442924499512e-01 3.150908231735229492e+00 1.151029348373413086e+00 -6.469156146049499512e-01
3.796000000000000000e+03 2.262333297729492188e+01 2.995745658874511719e+01 3.403971195220947266e-01 1.677987933158874512e+00 6.055155396461486816e-01 4.673961699008941650e-01
3.797000000000000000e+03 3.489949035644531250e+01 2.325077056884765625e+01 3.803009688854217529e-01 1.880754232406616211e+00 6.783165335655212402e-01 4.215249121189117432e-01
3.798000000000000000e+03 3.977585220336914062e+01 2.669072723388671875e+01 6.330380439758300781e-01 1.877000570297241211e+00 7.530115842819213867e-01 3.715644180774688721e-01
3.799000000000000000e+03 6.376815032958984375e+01 2.232626533508300781e+01 5.204614400863647461e-01 4.039188861846923828e+00 1.367895126342773438e+00 -7.563543319702148438e-01
3.800000000000000000e+03 1.209978866577148438e+01 3.488278579711914062e+01 -1.911509037017822266e-02 2.130374908447265625e+00 6.333779692649841309e-01 1.386988908052444458e-01
3.801000000000000000e+03 7.749162197113037109e+00 -4.422016143798828125e+00 9.679297357797622681e-02 6.178475856781005859e+00 1.882580757141113281e+00 4.589878082275390625e+00
3.802000000000000000e+03 8.846164703369140625e+00 6.232137203216552734e+00 -7.843733429908752441e-01 5.846894264221191406e+00 1.518756270408630371e+00 -6.917387843132019043e-01
3.803000000000000000e+03 6.679239273071289062e+00 4.454441070556640625e+00 5.509925484657287598e-01 2.584695816040039062e+00 9.407064914703369141e-01 -1.101536631584167480e+00
3.804000000000000000e+03 8.465896606445312500e+00 -5.252298355102539062e+00 -1.089674115180969238e+00 7.492158412933349609e+00 1.920745253562927246e+00 4.680438041687011719e+00
3.805000000000000000e+03 7.963632106781005859e+00 4.577569484710693359e+00 8.726119995117187500e-02 4.521460056304931641e+00 1.382616400718688965e+00 -1.599752902984619141e+00
3.806000000000000000e+03 6.995368957519531250e+00 4.658053398132324219e+00 4.421045780181884766e-01 3.057041645050048828e+00 1.049743890762329102e+00 -1.229216098785400391e+00
3.807000000000000000e+03 9.655904769897460938e+00 5.433788776397705078e+00 -1.177392601966857910e+00 7.161115646362304688e+00 1.795116901397705078e+00 -8.836322426795959473e-01
3.808000000000000000e+03 7.566824913024902344e+00 6.841175079345703125e+00 -2.360801696777343750e-01 4.229689598083496094e+00 1.198082804679870605e+00 -5.514183044433593750e-01
3.809000000000000000e+03 7.551517963409423828e+00 6.388330936431884766e+00 -2.100503742694854736e-01 4.222627162933349609e+00 1.203773021697998047e+00 -7.489944100379943848e-01
3.810000000000000000e+03 6.169027328491210938e+00 5.075185775756835938e+00 4.334646761417388916e-01 2.301589488983154297e+00 8.205162882804870605e-01 -8.007714748382568359e-01
3.811000000000000000e+03 9.969362258911132812e+00 -5.963749408721923828e+00 -1.995888948440551758e+00 8.544952392578125000e+00 1.964719176292419434e+00 4.639713287353515625e+00
3.812000000000000000e+03 7.179910182952880859e+00 -5.304862022399902344e+00 -7.726405858993530273e-01 6.249732494354248047e+00 1.643127679824829102e+00 3.705846548080444336e+00
3.813000000000000000e+03 7.529194355010986328e+00 4.835678100585937500e+00 1.862999498844146729e-01 3.927988767623901367e+00 1.234286665916442871e+00 -1.404704451560974121e+00
3.814000000000000000e+03 9.351491928100585938e+00 5.713126182556152344e+00 -1.014216542243957520e+00 6.576005935668945312e+00 1.668536782264709473e+00 -7.907281517982482910e-01
3.815000000000000000e+03 1.462249660491943359e+01 -3.269214391708374023e+00 3.491735219955444336e+00 3.904896497726440430e+00 2.218989610671997070e+00 2.498723864555358887e-01
3.816000000000000000e+03 6.895843029022216797e+00 -6.349816799163818359e+00 -1.661765933036804199e+00 6.895356178283691406e+00 1.570077061653137207e+00 2.970683813095092773e+00
3.817000000000000000e+03 7.036401748657226562e+00 -4.654595375061035156e+00 -1.638910174369812012e-01 5.537914752960205078e+00 1.612207055091857910e+00 3.781356811523437500e+00
3.818000000000000000e+03 1.109842872619628906e+01 -5.288076400756835938e+00 -1.100976109504699707e+00 8.143956184387207031e+00 2.112893819808959961e+00 3.753421545028686523e+00
3.819000000000000000e+03 1.036001968383789062e+01 -5.725537776947021484e+00 -1.633144617080688477e+00 8.244290351867675781e+00 1.983343720436096191e+00 4.359219074249267578e+00
3.820000000000000000e+03 9.125934600830078125e+00 -4.838383674621582031e+00 -8.479524254798889160e-01 8.155335426330566406e+00 2.192214965820312500e+00 4.859624385833740234e+00
3.821000000000000000e+03 9.405873298645019531e+00 -5.059913635253906250e+00 -1.183432102203369141e+00 8.564697265625000000e+00 2.214379549026489258e+00 4.726092815399169922e+00
3.822000000000000000e+03 9.768164634704589844e+00 -5.524731636047363281e+00 -1.662756919860839844e+00 8.405526161193847656e+00 2.022830724716186523e+00 4.525330543518066406e+00
3.823000000000000000e+03 9.796585083007812500e+00 -5.094994068145751953e+00 -1.184318780899047852e+00 8.628241539001464844e+00 2.233176946640014648e+00 4.662867069244384766e+00
3.824000000000000000e+03 8.729280471801757812e+00 -5.901297092437744141e+00 -1.795661926269531250e+00 8.055797576904296875e+00 1.878040790557861328e+00 4.675034046173095703e+00
3.825000000000000000e+03 9.214097976684570312e+00 -6.050764560699462891e+00 -2.103774547576904297e+00 8.411274909973144531e+00 1.892250299453735352e+00 4.591921329498291016e+00
3.826000000000000000e+03 1.156031322479248047e+01 -5.919642925262451172e+00 -1.381314754486083984e+00 7.170278549194335938e+00 1.736689209938049316e+00 3.755623340606689453e+00
3.827000000000000000e+03 1.162917327880859375e+01 -5.558902740478515625e+00 -1.003729820251464844e+00 7.349163055419921875e+00 1.903630018234252930e+00 3.344916582107543945e+00
3.828000000000000000e+03 1.192311859130859375e+01 -4.592663764953613281e+00 -5.727642402052879333e-02 8.079341888427734375e+00 2.406619787216186523e+00 2.512536048889160156e+00
3.829000000000000000e+03 1.153715324401855469e+01 -5.155847072601318359e+00 -8.748722672462463379e-01 8.043327331542968750e+00 2.150536537170410156e+00 3.273057699203491211e+00
3.830000000000000000e+03 1.296632862091064453e+01 -4.385995388031005859e+00 1.035464406013488770e+00 6.436294078826904297e+00 2.241527557373046875e+00 1.335838198661804199e+00
3.831000000000000000e+03 7.015638828277587891e+00 -5.818423271179199219e+00 -1.169411897659301758e+00 6.358797550201416016e+00 1.556815743446350098e+00 3.487684011459350586e+00
3.832000000000000000e+03 1.421818447113037109e+01 -3.157684803009033203e+00 3.544275522232055664e+00 4.663605213165283203e+00 2.462364196777343750e+00 2.403391599655151367e-01
3.833000000000000000e+03 1.259445667266845703e+01 -5.040794849395751953e+00 -6.150018051266670227e-02 6.668206214904785156e+00 1.982011795043945312e+00 2.237876415252685547e+00
3.834000000000000000e+03 1.350278186798095703e+01 -3.495190143585205078e+00 2.675016403198242188e+00 6.003212451934814453e+00 2.603468656539916992e+00 4.291064739227294922e-01
3.835000000000000000e+03 1.602140235900878906e+01 -3.259146690368652344e+00 3.531453609466552734e+00 2.030894279479980469e+00 1.668704390525817871e+00 3.937572240829467773e-01
3.836000000000000000e+03 1.539603519439697266e+01 -3.109016656875610352e+00 3.710136413574218750e+00 2.700641632080078125e+00 1.923233389854431152e+00 2.970698475837707520e-01
3.837000000000000000e+03 3.535469436645507812e+01 -5.348309516906738281e+00 -6.594938635826110840e-01 6.567813754081726074e-01 -8.137382101267576218e-04 -4.599807560443878174e-01
3.838000000000000000e+03 3.355975341796875000e+01 -6.572980880737304688e-01 7.367213964462280273e-01 8.109043836593627930e-01 4.642877280712127686e-01 -1.542344540357589722e-01
3.839000000000000000e+03 6.614877319335937500e+01 3.798286914825439453e+00 -3.739694058895111084e-01 4.707605361938476562e+00 1.300090789794921875e+00 -2.139223098754882812e+00
3.840000000000000000e+03 3.290884399414062500e+01 -2.128849744796752930e+00 3.680166900157928467e-01 8.295118212699890137e-01 3.592585623264312744e-01 -2.658638656139373779e-01
3.841000000000000000e+03 4.049577713012695312e+01 -4.851931095123291016e+00 -7.416219711303710938e-01 4.319931268692016602e-01 -9.288864582777023315e-02 -4.189723432064056396e-01
3.842000000000000000e+03 4.134490585327148438e+01 -4.346832752227783203e+00 -6.450801491737365723e-01 3.856598436832427979e-01 -7.782609760761260986e-02 -4.096312820911407471e-01
3.843000000000000000e+03 4.395296096801757812e+01 -5.419360160827636719e+00 -9.970731735229492188e-01 3.114187419414520264e-01 -2.056963294744491577e-01 -4.557445943355560303e-01
3.844000000000000000e+03 4.035000228881835938e+01 -2.200446367263793945e+00 -9.797650575637817383e-02 4.380081892013549805e-01 1.020095124840736389e-01 -3.033231794834136963e-01
3.845000000000000000e+03 3.938148880004882812e+01 -1.443250775337219238e+00 1.056592315435409546e-01 4.619574844837188721e-01 1.702850162982940674e-01 -2.629339694976806641e-01
3.846000000000000000e+03 3.965795135498046875e+01 -3.043830156326293945e+00 -2.418607771396636963e-01 4.580149054527282715e-01 6.484623998403549194e-02 -3.441455364227294922e-01
3.847000000000000000e+03 3.569657897949218750e+01 -2.812986969947814941e-01 6.159372329711914062e-01 6.675184369087219238e-01 3.850367069244384766e-01 -1.497445255517959595e-01
3.848000000000000000e+03 3.968045806884765625e+01 -5.700320720672607422e+00 -8.737141489982604980e-01 4.755757749080657959e-01 -1.194415166974067688e-01 -4.681139886379241943e-01
3.849000000000000000e+03 4.191966247558593750e+01 -5.305143356323242188e+00 -8.868719935417175293e-01 3.767018020153045654e-01 -1.530510634183883667e-01 -4.353141486644744873e-01
3.850000000000000000e+03 3.763013076782226562e+01 -1.958452343940734863e+00 1.032906323671340942e-01 5.449796319007873535e-01 1.944810748100280762e-01 -2.908076941967010498e-01
3.851000000000000000e+03 3.396362304687500000e+01 -4.644887447357177734e+00 -3.911603689193725586e-01 7.230656743049621582e-01 9.957159310579299927e-02 -4.165675938129425049e-01
3.852000000000000000e+03 6.573025512695312500e+01 6.689274311065673828e+00 -2.591648139059543610e-02 4.453160762786865234e+00 1.328173279762268066e+00 -1.738617062568664551e+00
3.853000000000000000e+03 6.450153350830078125e+01 5.779330730438232422e+00 3.763978183269500732e-02 3.853238582611083984e+00 1.167263507843017578e+00 -1.770529270172119141e+00
3.854000000000000000e+03 1.924254798889160156e+01 3.058760070800781250e+01 1.756551563739776611e-01 1.906640887260437012e+00 6.246888041496276855e-01 4.898236989974975586e-01
3.855000000000000000e+03 1.642148590087890625e+01 2.726835823059082031e+01 -1.051720306277275085e-01 2.282400131225585938e+00 6.531684398651123047e-01 6.892205476760864258e-01
3.856000000000000000e+03 3.539245223999023438e+01 2.797957420349121094e+01 5.304508805274963379e-01 1.816635966300964355e+00 7.041260600090026855e-01 2.866172492504119873e-01
3.857000000000000000e+03 3.479763412475585938e+01 2.119181060791015625e+01 3.350174129009246826e-01 1.922117829322814941e+00 6.771405935287475586e-01 5.206140279769897461e-01
3.858000000000000000e+03 1.833930397033691406e+01 -3.633543777465820312e+01 2.694566361606121063e-02 1.444106817245483398e+00 4.413157403469085693e-01 -1.985203772783279419e-01
3.859000000000000000e+03 2.130881881713867188e+01 -3.609677505493164062e+01 7.699731737375259399e-02 7.721885442733764648e-01 2.547557651996612549e-01 -9.287670254707336426e-02
3.860000000000000000e+03 1.389523315429687500e+01 3.154353332519531250e+01 -8.486181497573852539e-02 2.238658428192138672e+00 6.461390256881713867e-01 2.998348474502563477e-01
3.861000000000000000e+03 7.762388229370117188e+00 -4.924212455749511719e+00 -5.576992630958557129e-01 6.619979381561279297e+00 1.818683981895446777e+00 4.296006202697753906e+00
3.862000000000000000e+03 8.236155509948730469e+00 -5.680779457092285156e+00 -1.504115462303161621e+00 7.724304676055908203e+00 1.866056799888610840e+00 4.369707107543945312e+00
3.863000000000000000e+03 8.405589103698730469e+00 4.957932949066162109e+00 -3.119145929813385010e-01 5.398240089416503906e+00 1.525897622108459473e+00 -1.488378643989562988e+00
3.864000000000000000e+03 7.254479408264160156e+00 4.383868694305419922e+00 4.704670906066894531e-01 3.280203342437744141e+00 1.125201106071472168e+00 -1.435981631278991699e+00
3.865000000000000000e+03 9.030659675598144531e+00 5.381542205810546875e+00 -7.927196621894836426e-01 6.304834842681884766e+00 1.653634667396545410e+00 -1.144734144210815430e+00
3.866000000000000000e+03 7.015007972717285156e+00 -4.347656726837158203e+00 3.117631077766418457e-01 5.093224525451660156e+00 1.621496319770812988e+00 3.766874074935913086e+00
3.867000000000000000e+03 8.030747413635253906e+00 5.003287792205810547e+00 -1.050623804330825806e-01 4.709366798400878906e+00 1.381291270256042480e+00 -1.406251072883605957e+00
3.868000000000000000e+03 7.712253570556640625e+00 -5.474534988403320312e+00 -1.105846762657165527e+00 6.921389579772949219e+00 1.744662761688232422e+00 4.227093696594238281e+00
3.869000000000000000e+03 1.554939270019531250e+01 -2.476181507110595703e+00 4.454766750335693359e+00 2.419863939285278320e+00 2.062389135360717773e+00 4.002086520195007324e-01
3.870000000000000000e+03 1.385719394683837891e+01 -4.112854480743408203e+00 1.960163712501525879e+00 5.012659072875976562e+00 2.091846942901611328e+00 7.182049155235290527e-01
3.871000000000000000e+03 9.293813705444335938e+00 6.113640785217285156e+00 -1.041686296463012695e+00 6.412568569183349609e+00 1.611264586448669434e+00 -5.936029553413391113e-01
3.872000000000000000e+03 8.403786659240722656e+00 6.403201103210449219e+00 -5.705258846282958984e-01 5.255761146545410156e+00 1.405570507049560547e+00 -7.098108530044555664e-01
3.873000000000000000e+03 1.447389793395996094e+01 -3.971341371536254883e+00 2.324368238449096680e+00 4.091425418853759766e+00 1.924738168716430664e+00 5.261894464492797852e-01
3.874000000000000000e+03 7.564891815185546875e+00 -6.017102718353271484e+00 -1.679632425308227539e+00 7.398704051971435547e+00 1.715721487998962402e+00 3.764183759689331055e+00
3.875000000000000000e+03 1.502445507049560547e+01 -3.635087013244628906e+00 3.037451982498168945e+00 3.165211200714111328e+00 1.860798954963684082e+00 3.663739264011383057e-01
3.876000000000000000e+03 3.707583236694335938e+01 -3.011597871780395508e+00 -1.314585953950881958e-01 5.679774880409240723e-01 1.309556514024734497e-01 -3.559804856777191162e-01
3.877000000000000000e+03 3.449558639526367188e+01 -2.781743288040161133e+00 6.853602826595306396e-02 7.169510722160339355e-01 2.356461286544799805e-01 -3.311817646026611328e-01
3.878000000000000000e+03 3.341354370117187500e+01 -3.394113063812255859e+00 -3.598405420780181885e-02 7.769184708595275879e-01 2.222803235054016113e-01 -3.350665271282196045e-01
3.879000000000000000e+03 3.391885375976562500e+01 -1.748195648193359375e+00 4.015519320964813232e-01 7.726919651031494141e-01 3.522731661796569824e-01 -2.424900680780410767e-01
3.880000000000000000e+03 3.657934951782226562e+01 -1.556636571884155273e+00 2.511874735355377197e-01 6.041691899299621582e-01 2.566069960594177246e-01 -2.528560161590576172e-01
3.881000000000000000e+03 3.652542114257812500e+01 -3.960193157196044922e+00 -3.554390370845794678e-01 5.971878767013549805e-01 7.252464443445205688e-02 -3.980554640293121338e-01
3.882000000000000000e+03 3.868391799926757812e+01 -2.469320774078369141e+00 -7.189146429300308228e-02 4.989360868930816650e-01 1.281133890151977539e-01 -3.248468637466430664e-01
3.883000000000000000e+03 1.303720569610595703e+01 2.939255905151367188e+01 -2.035704255104064941e-01 2.404332876205444336e+00 6.602287888526916504e-01 3.128847181797027588e-01
3.884000000000000000e+03 1.592859268188476562e+01 3.036407661437988281e+01 -3.454120084643363953e-02 2.178232192993164062e+00 6.431072950363159180e-01 4.470952451229095459e-01
3.885000000000000000e+03 3.288592529296875000e+01 2.552910995483398438e+01 4.019266366958618164e-01 1.764717578887939453e+00 6.499932408332824707e-01 3.090869784355163574e-01
3.886000000000000000e+03 3.062103652954101562e+01 2.829860877990722656e+01 4.654520750045776367e-01 1.672029972076416016e+00 6.412445902824401855e-01 2.660324573516845703e-01
3.887000000000000000e+03 6.816423416137695312e+00 5.050233364105224609e+00 3.469626009464263916e-01 2.942286014556884766e+00 9.867746233940124512e-01 -1.027857542037963867e+00
3.888000000000000000e+03 6.667714118957519531e+00 -5.111533641815185547e+00 -4.164844453334808350e-01 5.312386035919189453e+00 1.468770503997802734e+00 3.380188465118408203e+00
3.889000000000000000e+03 7.984640598297119141e+00 6.409958839416503906e+00 -3.785956501960754395e-01 4.721251964569091797e+00 1.302796840667724609e+00 -7.345604300498962402e-01
3.890000000000000000e+03 8.251902580261230469e+00 5.347911357879638672e+00 -3.484050929546356201e-01 5.204594135284423828e+00 1.456856727600097656e+00 -1.291767954826354980e+00
3.891000000000000000e+03 7.637369155883789062e+00 5.174644947052001953e+00 2.836687304079532623e-02 4.169227123260498047e+00 1.259278178215026855e+00 -1.271896839141845703e+00
3.892000000000000000e+03 1.429950332641601562e+01 -3.543673992156982422e+00 2.931305885314941406e+00 4.409315109252929688e+00 2.202186346054077148e+00 4.074354469776153564e-01
3.893000000000000000e+03 7.216842651367187500e+00 5.199131011962890625e+00 1.646792888641357422e-01 3.616096735000610352e+00 1.134232878684997559e+00 -1.150706768035888672e+00
3.894000000000000000e+03 3.608274078369140625e+01 -2.561055183410644531e+00 5.502271279692649841e-02 6.279565691947937012e-01 2.048937827348709106e-01 -3.246937692165374756e-01
3.895000000000000000e+03 3.459910583496093750e+01 -3.847510516643524170e-01 7.064307332038879395e-01 7.417414188385009766e-01 4.344516396522521973e-01 -1.401872783899307251e-01
3.896000000000000000e+03 3.563735198974609375e+01 -1.287049651145935059e+00 3.961603045463562012e-01 6.660174131393432617e-01 3.186533153057098389e-01 -2.290785759687423706e-01
3.897000000000000000e+03 4.074884414672851562e+01 -5.598314762115478516e+00 -9.198697209358215332e-01 4.124745130538940430e-01 -1.522185504436492920e-01 -4.624162912368774414e-01
3.898000000000000000e+03 3.964862442016601562e+01 -4.986546516418457031e+00 -7.555071115493774414e-01 4.637440443038940430e-01 -8.752892166376113892e-02 -4.381007850170135498e-01
3.899000000000000000e+03 4.056385040283203125e+01 -3.634370326995849609e+00 -4.532537758350372314e-01 4.274486601352691650e-01 -7.741530425846576691e-03 -3.723468184471130371e-01
3.900000000000000000e+03 1.212017059326171875e+01 2.501298522949218750e+01 -4.261406958103179932e-01 2.873793601989746094e+00 7.342958450317382812e-01 3.333768546581268311e-01
3.901000000000000000e+03 7.523085021972656250e+01 -3.783980560302734375e+01 -8.709184080362319946e-02 9.590190887451171875e+00 2.850929737091064453e+00 -1.469997912645339966e-01
3.902000000000000000e+03 1.938745307922363281e+01 3.495315933227539062e+01 2.312209308147430420e-01 1.895685434341430664e+00 6.380718946456909180e-01 2.678037583827972412e-01
3.903000000000000000e+03 8.169774055480957031e+00 6.022072315216064453e+00 -4.236121773719787598e-01 4.952260494232177734e+00 1.358594536781311035e+00 -8.815201520919799805e-01
3.904000000000000000e+03 8.589974403381347656e+00 5.716785430908203125e+00 -6.032599210739135742e-01 5.578344345092773438e+00 1.492525219917297363e+00 -1.019628763198852539e+00
3.905000000000000000e+03 1.389468765258789062e+01 2.667876243591308594e+01 -3.098413348197937012e-01 2.624778985977172852e+00 6.944813132286071777e-01 4.830001592636108398e-01
3.906000000000000000e+03 6.622621917724609375e+01 2.460297012329101562e+01 3.991051614284515381e-01 4.416109561920166016e+00 1.444564461708068848e+00 -6.684631705284118652e-01
3.907000000000000000e+03 6.254711151123046875e+01 2.685817909240722656e+01 5.072661042213439941e-01 3.863649129867553711e+00 1.311274647712707520e+00 -6.045343875885009766e-01
3.908000000000000000e+03 6.059329986572265625e+01 2.772653770446777344e+01 5.721624493598937988e-01 3.556307792663574219e+00 1.238541126251220703e+00 -5.748578906059265137e-01
3.909000000000000000e+03 6.680274963378906250e+01 3.319049072265625000e+01 2.930425703525543213e-01 4.436814785003662109e+00 1.418957114219665527e+00 -3.435025513172149658e-01
3.910000000000000000e+03 6.504281616210937500e+01 3.111252021789550781e+01 3.764944970607757568e-01 4.213502883911132812e+00 1.376999258995056152e+00 -4.187754988670349121e-01
3.911000000000000000e+03 6.279130935668945312e+01 3.261940002441406250e+01 4.641226828098297119e-01 3.862134695053100586e+00 1.297877192497253418e+00 -3.782246708869934082e-01
3.912000000000000000e+03 6.433466339111328125e+01 2.564312171936035156e+01 4.561526477336883545e-01 4.129360198974609375e+00 1.375653862953186035e+00 -6.360440254211425781e-01
3.913000000000000000e+03 1.643497467041015625e+01 3.701337051391601562e+01 1.404100954532623291e-01 1.987434387207031250e+00 6.383533477783203125e-01 1.735945641994476318e-01
3.914000000000000000e+03 2.870983505249023438e+01 2.807532501220703125e+01 4.451360404491424561e-01 1.599761724472045898e+00 6.134693026542663574e-01 2.852585017681121826e-01
3.915000000000000000e+03 5.054290390014648438e+01 3.058252525329589844e+01 9.180681109428405762e-01 2.265003681182861328e+00 9.549215435981750488e-01 -1.602111011743545532e-01
3.916000000000000000e+03 5.360150527954101562e+01 2.854212379455566406e+01 8.725469708442687988e-01 2.514708042144775391e+00 1.016176462173461914e+00 -4.065183699131011963e-01
3.917000000000000000e+03 1.902656555175781250e+01 2.474010848999023438e+01 1.086372807621955872e-01 1.848811626434326172e+00 5.872346758842468262e-01 9.744634628295898438e-01
3.918000000000000000e+03 3.500358581542968750e+01 -3.952590179443359375e+01 -6.475395709276199341e-02 -2.439036369323730469e-01 -9.259727597236633301e-02 5.316995829343795776e-02
3.919000000000000000e+03 4.668743896484375000e+01 3.191637039184570312e+01 8.873713612556457520e-01 2.083689689636230469e+00 8.913182616233825684e-01 3.596711531281471252e-02
3.920000000000000000e+03 2.585183143615722656e+01 2.906127929687500000e+01 4.292182326316833496e-01 1.576048970222473145e+00 6.015802025794982910e-01 3.585170805454254150e-01
3.921000000000000000e+03 2.472018814086914062e+01 3.126225662231445312e+01 4.164820909500122070e-01 1.656873941421508789e+00 6.220068335533142090e-01 3.492757081985473633e-01
3.922000000000000000e+03 1.540986251831054688e+01 2.575094795227050781e+01 -2.579868137836456299e-01 2.576562166213989258e+00 6.955725550651550293e-01 7.472687959671020508e-01
3.923000000000000000e+03 3.645544815063476562e+01 3.386828231811523438e+01 6.733098626136779785e-01 1.832952141761779785e+00 7.518786191940307617e-01 1.586924791336059570e-01
3.924000000000000000e+03 2.845172119140625000e+01 -3.705216979980468750e+01 -2.527352771721780300e-04 -1.633028090000152588e-01 -4.906666278839111328e-02 1.767887324094772339e-01
3.925000000000000000e+03 5.906647872924804688e+01 -3.533268737792968750e+01 2.301166206598281860e-01 1.615698099136352539e+00 5.537444353103637695e-01 2.172738015651702881e-01
3.926000000000000000e+03 3.856032943725585938e+01 3.012489128112792969e+01 6.558232903480529785e-01 1.861224055290222168e+00 7.551141977310180664e-01 2.462386637926101685e-01
3.927000000000000000e+03 3.769881439208984375e+01 2.750057601928710938e+01 5.775371789932250977e-01 1.858736991882324219e+00 7.308822870254516602e-01 3.157600462436676025e-01
3.928000000000000000e+03 3.161268615722656250e+01 -4.082269287109375000e+01 8.563577383756637573e-02 -2.624127864837646484e-01 -5.303310602903366089e-02 3.816418349742889404e-02
3.929000000000000000e+03 6.152069854736328125e+01 3.005068397521972656e+01 5.297921299934387207e-01 3.701618194580078125e+00 1.269423127174377441e+00 -4.878110587596893311e-01
3.930000000000000000e+03 5.997599792480468750e+01 3.375645065307617188e+01 5.661894083023071289e-01 3.521377086639404297e+00 1.226269960403442383e+00 -3.423412442207336426e-01
3.931000000000000000e+03 1.816251564025878906e+01 -3.867683410644531250e+01 1.392863392829895020e-01 1.641445875167846680e+00 5.342196822166442871e-01 -1.248852983117103577e-01
3.932000000000000000e+03 2.232396507263183594e+01 -4.126787185668945312e+01 2.654870450496673584e-01 6.032378673553466797e-01 2.606174647808074951e-01 -2.900254726409912109e-02
3.933000000000000000e+03 4.466431045532226562e+01 3.456739425659179688e+01 8.374302387237548828e-01 2.069818019866943359e+00 8.721745014190673828e-01 6.174219772219657898e-02
3.934000000000000000e+03 4.823588180541992188e+01 3.663980865478515625e+01 8.431075215339660645e-01 2.299075365066528320e+00 9.426548480987548828e-01 -2.866342104971408844e-02
3.935000000000000000e+03 3.701984786987304688e+01 3.723061370849609375e+01 7.159149050712585449e-01 1.851368665695190430e+00 7.701850533485412598e-01 9.145820885896682739e-02
3.936000000000000000e+03 6.131498336791992188e+01 3.701867294311523438e+01 4.912281930446624756e-01 3.727023839950561523e+00 1.265475630760192871e+00 -2.100509107112884521e-01
3.937000000000000000e+03 6.466429901123046875e+01 3.541570663452148438e+01 3.772551119327545166e-01 4.136380672454833984e+00 1.354090690612792969e+00 -2.597849965095520020e-01
3.938000000000000000e+03 6.777911376953125000e+01 3.743670272827148438e+01 2.612961828708648682e-01 4.468152523040771484e+00 1.418834567070007324e+00 -1.830532252788543701e-01
3.939000000000000000e+03 2.856035804748535156e+01 3.679156112670898438e+01 5.381337404251098633e-01 1.724031686782836914e+00 6.786496639251708984e-01 1.380887925624847412e-01
3.940000000000000000e+03 5.301260375976562500e+01 3.417774200439453125e+01 8.007139563560485840e-01 2.660656690597534180e+00 1.038411140441894531e+00 -1.840009391307830811e-01
3.941000000000000000e+03 2.977169227600097656e+01 3.356330871582031250e+01 5.473897457122802734e-01 1.700820326805114746e+00 6.744630336761474609e-01 2.003573924303054810e-01
3.942000000000000000e+03 3.301203918457031250e+01 3.401818466186523438e+01 6.050719022750854492e-01 1.758554458618164062e+00 7.090879082679748535e-01 1.676123589277267456e-01
3.943000000000000000e+03 4.449223709106445312e+01 2.993098068237304688e+01 8.484309315681457520e-01 1.933235049247741699e+00 8.344997763633728027e-01 1.720754206180572510e-01
3.944000000000000000e+03 1.274403095245361328e+01 -3.812928771972656250e+01 -2.834225632250308990e-02 3.220695734024047852e+00 9.577060341835021973e-01 -1.021029651165008545e-01
3.945000000000000000e+03 2.553111267089843750e+01 3.522324752807617188e+01 4.482416808605194092e-01 1.732017993927001953e+00 6.540778875350952148e-01 2.024821490049362183e-01
3.946000000000000000e+03 2.800743865966796875e+01 3.011830329895019531e+01 4.751884043216705322e-01 1.626516699790954590e+00 6.305115222930908203e-01 2.841196954250335693e-01
3.947000000000000000e+03 3.277168273925781250e+01 3.733129882812500000e+01 6.332166194915771484e-01 1.765575766563415527e+00 7.196376919746398926e-01 9.921996295452117920e-02
3.948000000000000000e+03 5.335081481933593750e+01 3.120630455017089844e+01 8.343915939331054688e-01 2.607660293579101562e+00 1.032615542411804199e+00 -2.847364544868469238e-01
3.949000000000000000e+03 3.556967079639434814e-01 1.659038901329040527e+00 -1.099764928221702576e-02 -1.718489527702331543e-01 -5.485398322343826294e-02 8.852808922529220581e-02
3.950000000000000000e+03 3.140922486782073975e-01 -2.441943168640136719e+00 4.418387636542320251e-02 -4.341278970241546631e-01 -1.169832125306129456e-01 -4.805140942335128784e-02
3.951000000000000000e+03 1.726500630378723145e+00 -1.633411884307861328e+00 -1.441159565001726151e-02 -4.556691565085202456e-04 -4.460179246962070465e-03 -2.105333507061004639e-01
3.952000000000000000e+03 4.786608695983886719e+00 -2.111595630645751953e+00 8.528713583946228027e-01 7.287966609001159668e-01 4.745004177093505859e-01 8.364140987396240234e-01
3.953000000000000000e+03 5.066719055175781250e+00 -2.141071319580078125e+00 1.012209177017211914e+00 7.856758236885070801e-01 5.393655300140380859e-01 9.772430062294006348e-01
3.954000000000000000e+03 5.305404186248779297e+00 -1.628107905387878418e+00 9.364817142486572266e-01 4.990919530391693115e-01 4.306721091270446777e-01 8.337119817733764648e-01
3.955000000000000000e+03 5.686184406280517578e+00 -1.892334342002868652e+00 1.382858037948608398e+00 8.541141152381896973e-01 6.710916757583618164e-01 1.321384668350219727e+00
3.956000000000000000e+03 5.697204113006591797e+00 -1.630283951759338379e+00 1.243555426597595215e+00 6.279927492141723633e-01 5.614644885063171387e-01 1.123213529586791992e+00
3.957000000000000000e+03 6.065674781799316406e+00 -1.936426997184753418e+00 1.710444450378417969e+00 1.029100179672241211e+00 8.218633532524108887e-01 1.681534886360168457e+00
3.958000000000000000e+03 6.092796802520751953e+00 -1.645668506622314453e+00 1.646713614463806152e+00 7.770285010337829590e-01 7.271226644515991211e-01 1.479187965393066406e+00
3.959000000000000000e+03 6.271499633789062500e+00 -1.977700233459472656e+00 1.931970357894897461e+00 1.165290594100952148e+00 9.291782975196838379e-01 1.956663131713867188e+00
3.960000000000000000e+03 6.868775367736816406e+00 -1.892114043235778809e+00 2.587589025497436523e+00 1.501877903938293457e+00 1.226840019226074219e+00 2.593086004257202148e+00
3.961000000000000000e+03 6.891238689422607422e+00 -1.637863516807556152e+00 2.624255895614624023e+00 1.208714127540588379e+00 1.149891018867492676e+00 2.365601301193237305e+00
3.962000000000000000e+03 7.617440223693847656e+00 -1.921460270881652832e+00 3.519256114959716797e+00 2.572121381759643555e+00 1.827413201332092285e+00 3.942425727844238281e+00
3.963000000000000000e+03 8.106742858886718750e+00 -1.616402506828308105e+00 4.683918952941894531e+00 3.023052215576171875e+00 2.312091350555419922e+00 4.700213909149169922e+00
3.964000000000000000e+03 8.297352790832519531e+00 -1.602592229843139648e+00 4.927555561065673828e+00 3.491941690444946289e+00 2.525849103927612305e+00 5.171775817871093750e+00
3.965000000000000000e+03 8.446887016296386719e+00 -1.821663737297058105e+00 4.540173053741455078e+00 4.608384609222412109e+00 2.744567394256591797e+00 5.647795200347900391e+00
3.966000000000000000e+03 8.610296249389648438e+00 -1.892411708831787109e+00 4.461288452148437500e+00 5.487570285797119141e+00 2.984657764434814453e+00 6.079137802124023438e+00
3.967000000000000000e+03 9.745656967163085938e+00 -1.719285011291503906e+00 3.718577623367309570e+00 1.337314796447753906e+01 5.127517700195312500e+00 6.858801841735839844e+00
3.968000000000000000e+03 1.015456581115722656e+01 -1.645007133483886719e+00 3.291655302047729492e+00 1.611403846740722656e+01 5.821708202362060547e+00 5.040686607360839844e+00
3.969000000000000000e+03 1.140579605102539062e+01 -1.098943710327148438e+00 8.036990165710449219e+00 1.385580062866210938e+01 6.567837238311767578e+00 -7.900440096855163574e-01
3.970000000000000000e+03 1.183279323577880859e+01 -7.207559347152709961e-01 9.832065582275390625e+00 1.111242675781250000e+01 6.283347606658935547e+00 -2.053960859775543213e-01
3.971000000000000000e+03 1.229562759399414062e+01 -7.578449249267578125e-01 8.876278877258300781e+00 9.136050224304199219e+00 5.403698921203613281e+00 1.196689903736114502e-01
3.972000000000000000e+03 1.239891719818115234e+01 -3.200508654117584229e-03 9.251192092895507812e+00 8.513179779052734375e+00 5.329311847686767578e+00 1.761357545852661133e+00
3.973000000000000000e+03 1.203706550598144531e+01 4.373197853565216064e-01 9.281506538391113281e+00 1.023336982727050781e+01 5.854463100433349609e+00 3.154017448425292969e+00
3.974000000000000000e+03 1.181788349151611328e+01 8.477095365524291992e-01 7.593108654022216797e+00 1.188171291351318359e+01 5.842446327209472656e+00 3.954824447631835938e+00
3.975000000000000000e+03 1.165663337707519531e+01 1.268915534019470215e+00 5.129636287689208984e+00 1.301712226867675781e+01 5.444027900695800781e+00 3.753141880035400391e+00
3.976000000000000000e+03 1.067210197448730469e+01 2.138142347335815430e+00 1.637512743473052979e-01 1.405703067779541016e+01 4.266234397888183594e+00 -2.538423538208007812e-01
3.977000000000000000e+03 9.489430427551269531e+00 1.612005114555358887e+00 1.625817060470581055e+00 9.567817687988281250e+00 3.358090400695800781e+00 -4.968123435974121094e+00
3.978000000000000000e+03 8.901116371154785156e+00 1.635978102684020996e+00 2.320428609848022461e+00 5.064373970031738281e+00 2.215440750122070312e+00 -4.002560615539550781e+00
3.979000000000000000e+03 9.108589172363281250e+00 1.888115286827087402e+00 1.798652887344360352e+00 6.715979576110839844e+00 2.554389715194702148e+00 -4.210983276367187500e+00
3.980000000000000000e+03 8.910243034362792969e+00 1.909185171127319336e+00 1.933491349220275879e+00 5.678413391113281250e+00 2.283571481704711914e+00 -3.930948972702026367e+00
3.981000000000000000e+03 7.855694293975830078e+00 1.667322635650634766e+00 1.527033209800720215e+00 1.513819456100463867e+00 9.122558236122131348e-01 -1.699869155883789062e+00
3.982000000000000000e+03 7.273394584655761719e+00 1.582709431648254395e+00 8.402521610260009766e-01 6.923768520355224609e-01 4.597887098789215088e-01 -8.020971417427062988e-01
3.983000000000000000e+03 7.288298606872558594e+00 1.847995638847351074e+00 1.147459149360656738e+00 9.768701195716857910e-01 6.372987627983093262e-01 -1.044355630874633789e+00
3.984000000000000000e+03 6.718731880187988281e+00 1.618476152420043945e+00 4.199915230274200439e-01 4.084457457065582275e-01 2.485311776399612427e-01 -3.193778991699218750e-01
3.985000000000000000e+03 6.151229858398437500e+00 1.849264144897460938e+00 3.373231291770935059e-01 3.473383188247680664e-01 2.053984254598617554e-01 -1.460090130567550659e-01
3.986000000000000000e+03 6.115149021148681641e+00 1.617879629135131836e+00 1.230032593011856079e-01 2.463445365428924561e-01 1.108043342828750610e-01 -1.967829652130603790e-02
3.987000000000000000e+03 5.943016529083251953e+00 2.095811367034912109e+00 4.271096289157867432e-01 4.103238880634307861e-01 2.512300610542297363e-01 -1.634375303983688354e-01
3.988000000000000000e+03 5.792365074157714844e+00 1.926678180694580078e+00 2.419830560684204102e-01 3.028859198093414307e-01 1.634606868028640747e-01 -2.265111356973648071e-02
3.989000000000000000e+03 5.720524311065673828e+00 1.654676556587219238e+00 8.686277084052562714e-03 2.056085169315338135e-01 6.428843736648559570e-02 1.078973487019538879e-01
3.990000000000000000e+03 4.884991645812988281e+00 1.618365764617919922e+00 -2.069980800151824951e-01 7.171784341335296631e-02 -4.058407247066497803e-02 3.001963198184967041e-01
3.991000000000000000e+03 5.176150798797607422e+00 2.063647985458374023e+00 1.530108153820037842e-01 2.125927209854125977e-01 1.096810624003410339e-01 1.623464673757553101e-01
3.992000000000000000e+03 4.829705238342285156e+00 1.836853623390197754e+00 -8.276128768920898438e-02 9.835124015808105469e-02 4.676984623074531555e-03 2.880634963512420654e-01
3.993000000000000000e+03 4.507639884948730469e+00 1.598952651023864746e+00 -2.537667751312255859e-01 3.286321088671684265e-02 -6.627107411623001099e-02 3.597588241100311279e-01
3.994000000000000000e+03 4.318903923034667969e+00 1.617967247962951660e+00 -2.529495060443878174e-01 4.047061130404472351e-02 -6.374367326498031616e-02 3.700968027114868164e-01
3.995000000000000000e+03 4.021118164062500000e+00 2.037887811660766602e+00 -4.857771471142768860e-02 6.219484284520149231e-02 4.085137974470853806e-03 3.799435794353485107e-01
3.996000000000000000e+03 3.560821533203125000e+00 2.149244308471679688e+00 -3.931951150298118591e-02 1.541757769882678986e-02 -7.170580327510833740e-03 4.093606173992156982e-01
3.997000000000000000e+03 3.146882534027099609e+00 2.031459569931030273e+00 -1.051539331674575806e-01 -4.438482224941253662e-02 -4.486162588000297546e-02 4.369408786296844482e-01
3.998000000000000000e+03 2.981924057006835938e+00 1.868050217628479004e+00 -1.563778072595596313e-01 -4.543293640017509460e-02 -6.054322049021720886e-02 4.287683963775634766e-01
3.999000000000000000e+03 2.892195224761962891e+00 1.605763077735900879e+00 -2.209798097610473633e-01 -5.558554455637931824e-02 -8.296960592269897461e-02 4.203780591487884521e-01
4.000000000000000000e+03 2.600976705551147461e+00 2.077824115753173828e+00 -8.096658438444137573e-02 -9.276852011680603027e-02 -5.212053284049034119e-02 4.242159426212310791e-01
4.001000000000000000e+03 1.968342542648315430e+00 1.938449978828430176e+00 -1.036277040839195251e-01 -1.486921757459640503e-01 -7.569596171379089355e-02 3.714653849601745605e-01
4.002000000000000000e+03 7.006235718727111816e-01 1.636387944221496582e+00 -2.011907659471035004e-02 -2.218528836965560913e-01 -7.259158790111541748e-02 1.632753014564514160e-01
4.003000000000000000e+03 2.046829462051391602e-01 1.729043722152709961e+00 -8.643155917525291443e-03 -2.036777436733245850e-01 -6.369627267122268677e-02 5.583443120121955872e-02
4.004000000000000000e+03 2.341535687446594238e-01 3.625633955001831055e+00 1.047910749912261963e-02 -8.111479878425598145e-01 -2.402006685733795166e-01 5.830413103103637695e-02
4.005000000000000000e+03 7.753942108154296875e+01 3.770604705810546875e+01 6.800477858632802963e-03 5.417059421539306641e+00 1.627158045768737793e+00 -5.077502503991127014e-02
4.006000000000000000e+03 4.387056732177734375e+01 7.701268196105957031e+00 7.777960300445556641e-01 6.283517479896545410e-01 4.218443334102630615e-01 -4.218084216117858887e-01
4.007000000000000000e+03 4.432627868652343750e+01 1.919659042358398438e+01 8.064973950386047363e-01 1.833401441574096680e+00 7.919696569442749023e-01 9.545167088508605957e-01
4.008000000000000000e+03 3.312183141708374023e+00 -3.117883920669555664e+00 4.212056696414947510e-01 6.810913681983947754e-01 3.306891024112701416e-01 3.508310019969940186e-01
4.009000000000000000e+03 2.605894804000854492e+00 -2.972303867340087891e+00 2.042579203844070435e-01 4.075603485107421875e-01 1.835454851388931274e-01 3.855699906125664711e-03
4.010000000000000000e+03 8.964768409729003906e+00 -2.220072746276855469e+00 3.330000162124633789e+00 7.861611366271972656e+00 3.357483386993408203e+00 6.492811203002929688e+00
4.011000000000000000e+03 7.245573520660400391e+00 -2.007597684860229492e+00 3.049017667770385742e+00 2.111692667007446289e+00 1.548213124275207520e+00 3.348458528518676758e+00
4.012000000000000000e+03 7.457511425018310547e+00 2.331018924713134766e+00 1.318952679634094238e+00 1.809927940368652344e+00 9.386641979217529297e-01 -1.589705467224121094e+00
4.013000000000000000e+03 1.138778924942016602e+00 -2.915536880493164062e+00 3.993574064224958420e-03 -2.179294228553771973e-01 -6.418075412511825562e-02 -1.816355437040328979e-01
4.014000000000000000e+03 1.110266780853271484e+01 -2.114330530166625977e+00 3.056715250015258789e+00 1.344204998016357422e+01 4.949629783630371094e+00 1.437652230262756348e+00
4.015000000000000000e+03 1.120264339447021484e+01 -1.846131443977355957e+00 4.182367324829101562e+00 1.377409172058105469e+01 5.386937618255615234e+00 6.548674106597900391e-01
4.016000000000000000e+03 8.375967025756835938e+00 -1.989247322082519531e+00 4.172714710235595703e+00 4.692640304565429688e+00 2.659606456756591797e+00 5.565908908843994141e+00
4.017000000000000000e+03 8.940828323364257812e+00 -2.717716693878173828e+00 2.236021280288696289e+00 7.889577865600585938e+00 3.037679672241210938e+00 6.071130275726318359e+00
4.018000000000000000e+03 8.241944313049316406e+00 -1.933443665504455566e+00 4.216323375701904297e+00 4.181056022644042969e+00 2.519213676452636719e+00 5.346579074859619141e+00
4.019000000000000000e+03 7.990353584289550781e+00 -1.930005788803100586e+00 3.980532884597778320e+00 3.481806039810180664e+00 2.238701581954956055e+00 4.760969638824462891e+00
4.020000000000000000e+03 2.354889154434204102e+00 2.326830863952636719e+00 -2.740673720836639404e-02 -1.429688930511474609e-01 -5.111268907785415649e-02 4.181364774703979492e-01
4.021000000000000000e+03 4.219539642333984375e+00 2.315922737121582031e+00 1.074730381369590759e-01 1.241233199834823608e-01 6.947890669107437134e-02 3.134361803531646729e-01
4.022000000000000000e+03 4.348544597625732422e+00 2.138307809829711914e+00 1.191420480608940125e-02 7.271861284971237183e-02 2.538984641432762146e-02 3.275933265686035156e-01
4.023000000000000000e+03 7.450530529022216797e+00 -2.147856950759887695e+00 3.168160676956176758e+00 2.606088638305664062e+00 1.732274770736694336e+00 3.868111371994018555e+00
4.024000000000000000e+03 6.790915489196777344e+00 -2.091492891311645508e+00 2.482512712478637695e+00 1.669899106025695801e+00 1.245723605155944824e+00 2.744367361068725586e+00
4.025000000000000000e+03 5.089930534362792969e+00 -1.849163413047790527e+00 9.292099475860595703e-01 5.952594876289367676e-01 4.573408365249633789e-01 8.563992977142333984e-01
4.026000000000000000e+03 5.353528976440429688e+00 -2.188114166259765625e+00 1.235266804695129395e+00 9.727359414100646973e-01 6.624008417129516602e-01 1.293522953987121582e+00
4.027000000000000000e+03 5.089619636535644531e+00 -2.500510454177856445e+00 1.047153592109680176e+00 1.082763552665710449e+00 6.389751434326171875e-01 1.241916298866271973e+00
4.028000000000000000e+03 4.604636669158935547e+00 -2.534351825714111328e+00 7.899931669235229492e-01 9.583000540733337402e-01 5.244879722595214844e-01 8.892714381217956543e-01
4.029000000000000000e+03 6.268133640289306641e+00 2.014775514602661133e+00 5.057932734489440918e-01 4.655693173408508301e-01 2.914087772369384766e-01 -2.800095081329345703e-01
4.030000000000000000e+03 6.765983581542968750e+00 1.866102099418640137e+00 7.119057178497314453e-01 6.685230135917663574e-01 4.141286313533782959e-01 -5.489568710327148438e-01
4.031000000000000000e+03 1.095893573760986328e+01 2.236819505691528320e+00 3.456617891788482666e-01 1.371726512908935547e+01 4.218877792358398438e+00 5.346753001213073730e-01
4.032000000000000000e+03 1.207704353332519531e+01 1.845171689987182617e+00 3.145308494567871094e+00 1.097598648071289062e+01 4.236388683319091797e+00 3.072630167007446289e+00
4.033000000000000000e+03 1.203934383392333984e+01 1.040800929069519043e+00 6.503995418548583984e+00 1.099685478210449219e+01 5.250255107879638672e+00 3.698389053344726562e+00
4.034000000000000000e+03 9.755187034606933594e+00 2.141204595565795898e+00 4.656835794448852539e-01 1.083194541931152344e+01 3.389288663864135742e+00 -3.502055883407592773e+00
4.035000000000000000e+03 9.523033142089843750e+00 1.819641828536987305e+00 1.299229502677917480e+00 9.883365631103515625e+00 3.354778528213500977e+00 -4.397557735443115234e+00
4.036000000000000000e+03 9.537941932678222656e+00 2.052195072174072266e+00 9.134661555290222168e-01 9.751984596252441406e+00 3.199635028839111328e+00 -3.991348266601562500e+00
4.037000000000000000e+03 1.225739765167236328e+01 2.383688092231750488e-01 9.236262321472167969e+00 9.314119338989257812e+00 5.565114498138427734e+00 2.452486276626586914e+00
4.038000000000000000e+03 1.197265148162841797e+01 -5.125208497047424316e-01 1.010949134826660156e+01 1.016221809387207031e+01 6.081512928009033203e+00 4.480255544185638428e-01
4.039000000000000000e+03 1.284835052490234375e+01 -8.190512061119079590e-01 7.913096904754638672e+00 7.247184276580810547e+00 4.548084259033203125e+00 3.107261359691619873e-01
4.040000000000000000e+03 8.706715583801269531e+00 1.924217581748962402e+00 1.970330715179443359e+00 4.657259941101074219e+00 1.988277196884155273e+00 -3.541072130203247070e+00
4.041000000000000000e+03 8.724014282226562500e+00 2.185806512832641602e+00 1.625808715820312500e+00 5.117656707763671875e+00 2.023039579391479492e+00 -3.476598978042602539e+00
4.042000000000000000e+03 8.537259101867675781e+00 2.241708755493164062e+00 1.629676222801208496e+00 4.399001598358154297e+00 1.808603286743164062e+00 -3.187645435333251953e+00
4.043000000000000000e+03 8.278572082519531250e+00 2.006782770156860352e+00 1.854167699813842773e+00 3.059323549270629883e+00 1.474047422409057617e+00 -2.749146461486816406e+00
4.044000000000000000e+03 8.037281036376953125e+00 2.065158843994140625e+00 1.683848977088928223e+00 2.492689847946166992e+00 1.252961635589599609e+00 -2.314913749694824219e+00
4.045000000000000000e+03 1.043472766876220703e+01 -2.089319944381713867e+00 2.331647634506225586e+00 1.457814693450927734e+01 5.072938442230224609e+00 3.588715076446533203e+00
4.046000000000000000e+03 1.047323322296142578e+01 -1.884238481521606445e+00 2.882543563842773438e+00 1.563499832153320312e+01 5.555262565612792969e+00 3.356491088867187500e+00
4.047000000000000000e+03 1.030734920501708984e+01 -2.269059419631958008e+00 1.994758248329162598e+00 1.367814064025878906e+01 4.701869487762451172e+00 4.180498123168945312e+00
4.048000000000000000e+03 9.885674476623535156e+00 -2.151111125946044922e+00 2.384647846221923828e+00 1.280476474761962891e+01 4.556823730468750000e+00 5.664409637451171875e+00
4.049000000000000000e+03 9.161988258361816406e+00 -2.807116508483886719e+00 1.855261325836181641e+00 8.814183235168457031e+00 3.200833320617675781e+00 5.929298400878906250e+00
4.050000000000000000e+03 1.153816699981689453e+01 -2.064134836196899414e+00 4.056190490722656250e+00 1.219484710693359375e+01 4.875311374664306641e+00 3.560327589511871338e-01
4.051000000000000000e+03 7.809352111816406250e+01 4.163552474975585938e+01 3.705753758549690247e-02 5.371887683868408203e+00 1.622683525085449219e+00 -1.033474598079919815e-02
4.052000000000000000e+03 2.614208793640136719e+01 1.547701072692871094e+01 -9.500091671943664551e-01 1.520467877388000488e+00 1.711376309394836426e-01 4.225021302700042725e-01
4.053000000000000000e+03 6.511490631103515625e+01 -3.575784206390380859e+00 -8.567907810211181641e-01 3.101706981658935547e+00 6.734748482704162598e-01 -4.236482620239257812e+00
4.054000000000000000e+03 2.661148309707641602e+00 -3.544887542724609375e+01 -9.151269495487213135e-02 6.281352996826171875e+00 1.856952071189880371e+00 4.159426316618919373e-02
4.055000000000000000e+03 9.784868955612182617e-01 -2.421321868896484375e+00 9.948518127202987671e-02 -2.087906599044799805e-01 -3.279164060950279236e-02 -1.225259080529212952e-01
4.056000000000000000e+03 1.858415961265563965e+00 -2.298593759536743164e+00 1.209019571542739868e-01 2.538184262812137604e-02 4.388513788580894470e-02 -1.650420874357223511e-01
4.057000000000000000e+03 2.115093612670898438e+01 3.228082656860351562e+01 2.995352745056152344e-01 1.798296928405761719e+00 6.293496489524841309e-01 3.996509611606597900e-01
4.058000000000000000e+03 7.763512134552001953e+00 -2.690196275711059570e+00 2.592664957046508789e+00 4.224716663360595703e+00 2.045214414596557617e+00 4.724228382110595703e+00
4.059000000000000000e+03 7.451696872711181641e+00 -2.540676116943359375e+00 2.619273424148559570e+00 3.393415689468383789e+00 1.803806662559509277e+00 4.210992813110351562e+00
4.060000000000000000e+03 5.365850329399108887e-01 -2.865990877151489258e+00 8.350924588739871979e-03 -4.292509853839874268e-01 -1.262700110673904419e-01 -7.893680781126022339e-02
4.061000000000000000e+03 3.901728868484497070e+00 -2.971086025238037109e+00 5.660393834114074707e-01 8.917494416236877441e-01 4.373366534709930420e-01 6.261428594589233398e-01
4.062000000000000000e+03 1.124372959136962891e+01 2.453706741333007812e+00 3.048786222934722900e-01 1.245777416229248047e+01 3.828795671463012695e+00 1.065298199653625488e+00
4.063000000000000000e+03 1.069914913177490234e+01 -2.222600460052490234e+00 2.286477327346801758e+00 1.382980823516845703e+01 4.834885597229003906e+00 2.810511112213134766e+00
4.064000000000000000e+03 1.240234756469726562e+01 -2.895179390907287598e-01 9.281645774841308594e+00 8.519898414611816406e+00 5.340463161468505859e+00 1.137366414070129395e+00
4.065000000000000000e+03 1.290620517730712891e+01 -2.068393975496292114e-01 8.202791213989257812e+00 6.856204509735107422e+00 4.517698764801025391e+00 1.254637598991394043e+00
4.066000000000000000e+03 8.394916534423828125e+00 2.689567327499389648e+00 1.253292322158813477e+00 4.471057415008544922e+00 1.717304944992065430e+00 -2.883751630783081055e+00
4.067000000000000000e+03 7.889599800109863281e+00 2.894614219665527344e+00 1.176059246063232422e+00 3.351472854614257812e+00 1.358259677886962891e+00 -2.256162881851196289e+00
4.068000000000000000e+03 6.149561405181884766e+00 2.209033727645874023e+00 6.058678627014160156e-01 5.461801886558532715e-01 3.456144034862518311e-01 -3.209495842456817627e-01
4.069000000000000000e+03 9.566634178161621094e+00 2.439676046371459961e+00 3.814641833305358887e-01 9.252520561218261719e+00 2.890195369720458984e+00 -3.285595178604125977e+00
4.070000000000000000e+03 5.482930374145507812e+01 2.045051002502441406e+01 7.707205414772033691e-01 2.575325012207031250e+00 1.003813624382019043e+00 -9.432055354118347168e-01
4.071000000000000000e+03 1.135671520233154297e+01 -2.529054403305053711e+00 2.390679597854614258e+00 1.203959655761718750e+01 4.329082965850830078e+00 1.406602382659912109e+00
4.072000000000000000e+03 8.675083160400390625e+00 2.411397695541381836e+00 1.356176137924194336e+00 5.110208511352539062e+00 1.939915418624877930e+00 -3.252433061599731445e+00
4.073000000000000000e+03 7.260434150695800781e+00 -2.639097213745117188e+00 2.328948259353637695e+00 3.284015893936157227e+00 1.683889150619506836e+00 3.939601898193359375e+00
4.074000000000000000e+03 6.848162651062011719e+00 -2.425457954406738281e+00 2.288730382919311523e+00 2.242215394973754883e+00 1.359283685684204102e+00 3.108763217926025391e+00
4.075000000000000000e+03 1.003856182098388672e+01 -2.816363573074340820e+00 1.227705359458923340e+00 1.151766204833984375e+01 3.823610067367553711e+00 4.876972675323486328e+00
4.076000000000000000e+03 9.995194435119628906e+00 -3.223875522613525391e+00 6.639221906661987305e-01 1.063115596771240234e+01 3.388523340225219727e+00 4.750916004180908203e+00
4.077000000000000000e+03 5.387459278106689453e+00 -2.546612739562988281e+00 1.193108916282653809e+00 1.271560311317443848e+00 7.394008040428161621e-01 1.474763870239257812e+00
4.078000000000000000e+03 8.355343818664550781e+00 -2.378414630889892578e+00 3.185007810592651367e+00 5.559943675994873047e+00 2.623485326766967773e+00 5.690559864044189453e+00
4.079000000000000000e+03 5.052088499069213867e-01 2.552906274795532227e+00 -1.159928087145090103e-02 -4.544575214385986328e-01 -1.398170441389083862e-01 1.410090774297714233e-01
4.080000000000000000e+03 9.202010154724121094e+00 -3.175447225570678711e+00 1.162941455841064453e+00 9.077589035034179688e+00 3.072159051895141602e+00 5.770916938781738281e+00
4.081000000000000000e+03 1.808803439140319824e+00 3.077425479888916016e+00 5.692354962229728699e-02 -2.677159905433654785e-01 -6.323773413896560669e-02 3.577574491500854492e-01
4.082000000000000000e+03 5.699613571166992188e+00 -2.620954751968383789e+00 1.396127939224243164e+00 1.500546097755432129e+00 8.690022230148315430e-01 1.869485139846801758e+00
4.083000000000000000e+03 2.782882881164550781e+01 -3.478283309936523438e+01 -1.407065540552139282e-01 -1.485240906476974487e-01 -8.676919341087341309e-02 2.287246584892272949e-01
4.084000000000000000e+03 2.418061256408691406e+00 2.873872280120849609e+00 4.981091618537902832e-02 -1.452042907476425171e-01 -2.861801162362098694e-02 4.121025800704956055e-01
4.085000000000000000e+03 7.771392822265625000e+01 -3.712079620361328125e+01 -2.251571789383888245e-02 1.066565704345703125e+01 3.192942380905151367e+00 9.165507555007934570e-02
4.086000000000000000e+03 2.358316183090209961e+00 3.398699283599853516e+00 6.778928637504577637e-02 -1.622610688209533691e-01 -2.834153361618518829e-02 3.586286604404449463e-01
4.087000000000000000e+03 2.193776893615722656e+01 2.336613178253173828e+00 3.528128385543823242e+00 1.964851140975952148e+00 1.647893905639648438e+00 2.488279819488525391e+00
4.088000000000000000e+03 8.266511917114257812e+00 -3.067443609237670898e+00 1.873250722885131836e+00 6.065559387207031250e+00 2.381643056869506836e+00 5.411352157592773438e+00
4.089000000000000000e+03 1.165327548980712891e+01 2.237500905990600586e+00 1.401963591575622559e+00 1.204892730712890625e+01 4.035267353057861328e+00 2.076566457748413086e+00
4.090000000000000000e+03 1.298163890838623047e+01 -5.130140185356140137e-01 8.079486846923828125e+00 6.656585216522216797e+00 4.420821666717529297e+00 8.486893773078918457e-01
4.091000000000000000e+03 1.251848888397216797e+01 -5.708329677581787109e-01 8.926657676696777344e+00 8.254327774047851562e+00 5.154295921325683594e+00 5.368528962135314941e-01
4.092000000000000000e+03 3.949469804763793945e+00 -1.430078411102294922e+01 1.850005984306335449e+00 4.258383274078369141e+00 1.832516789436340332e+00 4.254359900951385498e-01
4.093000000000000000e+03 4.941015243530273438e+00 2.336396694183349609e+00 2.504882812500000000e-01 2.376600652933120728e-01 1.464444994926452637e-01 1.584259420633316040e-01
4.094000000000000000e+03 2.479179954528808594e+01 1.945313811302185059e+00 2.622519969940185547e+00 2.342502117156982422e+00 1.489506602287292480e+00 1.430452823638916016e+00
4.095000000000000000e+03 2.974616241455078125e+01 -3.461282730102539062e+01 -2.363127917051315308e-01 -2.571206986904144287e-01 -1.480300426483154297e-01 2.659107148647308350e-01
4.096000000000000000e+03 7.050436401367187500e+01 -4.524834632873535156e+00 -1.695289492607116699e+00 1.152112960815429688e+01 2.947751998901367188e+00 -5.108406543731689453e-01
4.097000000000000000e+03 7.138709545135498047e+00 2.447015762329101562e+00 1.173985719680786133e+00 1.495842576026916504e+00 8.009485006332397461e-01 -1.269295334815979004e+00
4.098000000000000000e+03 9.345071792602539062e+00 2.627313852310180664e+00 4.252617359161376953e-01 8.186791419982910156e+00 2.583616018295288086e+00 -3.281351089477539062e+00
4.099000000000000000e+03 9.422597885131835938e+00 2.264717817306518555e+00 7.993910312652587891e-01 8.851947784423828125e+00 2.895401716232299805e+00 -3.760039806365966797e+00
4.100000000000000000e+03 4.952851867675781250e+01 2.360455274581909180e+00 5.566684603691101074e-01 2.321605831384658813e-01 2.366487085819244385e-01 -2.613428235054016113e-01
4.101000000000000000e+03 8.334540367126464844e+00 -2.147960662841796875e+00 3.671881198883056641e+00 4.996120452880859375e+00 2.600400447845458984e+00 5.641107559204101562e+00
4.102000000000000000e+03 7.354563236236572266e+00 -2.878025054931640625e+00 2.161884307861328125e+00 3.601445674896240234e+00 1.728999018669128418e+00 4.146822929382324219e+00
4.103000000000000000e+03 4.728948116302490234e+00 2.003431558609008789e+00 4.606772272381931543e-04 1.104368790984153748e-01 3.326926752924919128e-02 2.796208262443542480e-01
4.104000000000000000e+03 4.608071327209472656e+00 1.912611484527587891e+00 -6.069177761673927307e-02 9.918647259473800659e-02 1.154840737581253052e-02 3.110705614089965820e-01
4.105000000000000000e+03 4.484454631805419922e+00 2.327486038208007812e+00 1.532030999660491943e-01 1.598819494247436523e-01 9.392551332712173462e-02 2.540296018123626709e-01
4.106000000000000000e+03 2.590591669082641602e+00 3.719513893127441406e+00 2.039785534143447876e-01 -4.527980089187622070e-02 4.760962724685668945e-02 2.856288552284240723e-01
4.107000000000000000e+03 4.048279762268066406e+00 -3.679965019226074219e+00 5.217021703720092773e-01 1.419185400009155273e+00 5.822662711143493652e-01 9.344727396965026855e-01
4.108000000000000000e+03 1.230120849609375000e+01 -1.261320948600769043e+00 7.256137371063232422e+00 9.306802749633789062e+00 4.968882083892822266e+00 -3.708334565162658691e-01
4.109000000000000000e+03 1.238192653656005859e+01 -1.598511338233947754e+00 6.256338119506835938e+00 9.096690177917480469e+00 4.605908393859863281e+00 -4.436957240104675293e-01
4.110000000000000000e+03 1.206194686889648438e+01 -1.859370946884155273e+00 5.291738510131835938e+00 1.029249286651611328e+01 4.675269126892089844e+00 -2.725501656532287598e-01
4.111000000000000000e+03 8.615198135375976562e+00 2.653097152709960938e+00 1.169311642646789551e+00 5.165199756622314453e+00 1.900353431701660156e+00 -3.093343734741210938e+00
4.112000000000000000e+03 8.810851097106933594e+00 2.726084947586059570e+00 9.107825160026550293e-01 6.084699153900146484e+00 2.098644495010375977e+00 -3.170203447341918945e+00
4.113000000000000000e+03 6.965779781341552734e+00 -2.195974588394165039e+00 2.612922668457031250e+00 2.154232740402221680e+00 1.430146574974060059e+00 3.142317056655883789e+00
4.114000000000000000e+03 1.059625816345214844e+01 -2.456172943115234375e+00 1.760925769805908203e+00 1.315543842315673828e+01 4.474909305572509766e+00 3.215759038925170898e+00
4.115000000000000000e+03 2.191994428634643555e+00 3.776748418807983398e+00 1.398998945951461792e-01 -1.848325878381729126e-01 -1.347980741411447525e-02 3.119310736656188965e-01
4.116000000000000000e+03 1.670094609260559082e+00 3.672269344329833984e+00 5.384850874543190002e-02 -3.796506524085998535e-01 -9.774064272642135620e-02 3.067276179790496826e-01
4.117000000000000000e+03 2.319011688232421875e+00 4.341888904571533203e+00 2.020793259143829346e-01 -1.107999607920646667e-01 2.738380990922451019e-02 2.392306178808212280e-01
4.118000000000000000e+03 2.368640184402465820e+00 5.383119583129882812e+00 1.353504359722137451e-01 -8.936830610036849976e-02 1.379463914781808853e-02 1.190258264541625977e-01
4.119000000000000000e+03 5.675870418548583984e+00 -3.011347055435180664e+00 1.238451600074768066e+00 1.939613103866577148e+00 9.534193873405456543e-01 2.016191005706787109e+00
4.120000000000000000e+03 5.317851543426513672e+00 -3.315036058425903320e+00 9.365100264549255371e-01 1.996665954589843750e+00 8.799527883529663086e-01 1.764609813690185547e+00
4.121000000000000000e+03 1.337836170196533203e+01 -4.809660613536834717e-01 7.653789520263671875e+00 5.935201168060302734e+00 4.076697349548339844e+00 9.261010885238647461e-01
4.122000000000000000e+03 5.777765750885009766e+00 -2.297233343124389648e+00 1.469610571861267090e+00 1.280268192291259766e+00 8.249636292457580566e-01 1.688837289810180664e+00
4.123000000000000000e+03 7.115231513977050781e+00 2.165458202362060547e+00 1.089193820953369141e+00 1.177125811576843262e+00 6.798958778381347656e-01 -1.096138238906860352e+00
4.124000000000000000e+03 6.481520652770996094e+00 2.119002342224121094e+00 7.170500159263610840e-01 6.574791073799133301e-01 4.123587310314178467e-01 -4.965368509292602539e-01
4.125000000000000000e+03 6.499150276184082031e+00 2.460508584976196289e+00 8.312745094299316406e-01 9.922718405723571777e-01 5.470638871192932129e-01 -6.777449250221252441e-01
4.126000000000000000e+03 1.634847259521484375e+01 -9.947771072387695312e+00 -4.668052196502685547e+00 -1.548016965389251709e-01 -1.446856141090393066e+00 5.398325324058532715e-01
4.127000000000000000e+03 6.352950572967529297e+00 2.315201282501220703e+00 7.594956755638122559e-01 7.374820709228515625e-01 4.490933120250701904e-01 -5.082255005836486816e-01
4.128000000000000000e+03 6.654321670532226562e+00 -2.488307476043701172e+00 2.126139163970947266e+00 2.149360179901123047e+00 1.282649874687194824e+00 2.957309007644653320e+00
4.129000000000000000e+03 4.490985393524169922e+00 2.020863294601440430e+00 -7.727738469839096069e-03 1.079412177205085754e-01 3.006404265761375427e-02 3.267254829406738281e-01
4.130000000000000000e+03 8.498418807983398438e+00 3.031310796737670898e+00 8.056732416152954102e-01 5.114367008209228516e+00 1.776012063026428223e+00 -2.759765625000000000e+00
4.131000000000000000e+03 7.989606380462646484e+00 3.271762132644653320e+00 8.708761930465698242e-01 3.958263635635375977e+00 1.448741912841796875e+00 -2.257768869400024414e+00
4.132000000000000000e+03 1.351406764984130859e+01 -8.515899777412414551e-01 7.083508014678955078e+00 5.702644824981689453e+00 3.835845947265625000e+00 4.963766634464263916e-01
4.133000000000000000e+03 1.285123538970947266e+01 8.884298205375671387e-01 6.657871723175048828e+00 7.647195339202880859e+00 4.291520118713378906e+00 2.889789819717407227e+00
4.134000000000000000e+03 9.647627830505371094e+00 -3.498486042022705078e+00 3.731450438499450684e-01 9.818658828735351562e+00 3.057541370391845703e+00 5.038927078247070312e+00
4.135000000000000000e+03 1.032268524169921875e+01 -3.357227563858032227e+00 4.704225361347198486e-01 1.081633853912353516e+01 3.386028528213500977e+00 4.214367389678955078e+00
4.136000000000000000e+03 1.201910495758056641e+01 -1.605273127555847168e+00 6.115384101867675781e+00 1.065549755096435547e+01 5.031264781951904297e+00 -4.369798600673675537e-01
4.137000000000000000e+03 1.286570549011230469e+01 -2.306993246078491211e+00 4.508535385131835938e+00 7.694022655487060547e+00 3.660767555236816406e+00 -9.126822650432586670e-02
4.138000000000000000e+03 5.993246078491210938e+00 -3.492244958877563477e+00 1.060690164566040039e+00 2.801418304443359375e+00 1.158632516860961914e+00 2.583527565002441406e+00
4.139000000000000000e+03 1.025776576995849609e+01 -3.756947994232177734e+00 -7.871477864682674408e-03 1.012150192260742188e+01 3.034089088439941406e+00 4.225913524627685547e+00
4.140000000000000000e+03 1.072069835662841797e+01 -3.141668081283569336e+00 8.684511780738830566e-01 1.136737060546875000e+01 3.670746564865112305e+00 3.302306175231933594e+00
4.141000000000000000e+03 6.834659576416015625e+00 2.847169160842895508e+00 1.035475611686706543e+00 1.587867259979248047e+00 7.870028614997863770e-01 -1.156104326248168945e+00
4.142000000000000000e+03 7.400841236114501953e+00 3.520725011825561523e+00 8.397791981697082520e-01 3.013185501098632812e+00 1.155889391899108887e+00 -1.693504810333251953e+00
4.143000000000000000e+03 4.365515518188476562e+01 -1.528846168518066406e+01 -2.509639501571655273e+00 -1.577213779091835022e-02 -7.576234340667724609e-01 -7.194215059280395508e-01
4.144000000000000000e+03 4.069287300109863281e+00 3.656179046630859375e+01 -1.052665989845991135e-02 2.019179582595825195e+00 6.025959253311157227e-01 -1.187365222722291946e-02
4.145000000000000000e+03 7.015481567382812500e+01 -2.593754053115844727e+00 -1.929435610771179199e+00 9.562227249145507812e+00 2.289837360382080078e+00 -1.265717864036560059e+00
4.146000000000000000e+03 1.040441322326660156e+01 1.120804405212402344e+01 6.419999599456787109e-01 5.206456661224365234e+00 1.754536986351013184e+00 6.576787829399108887e-01
4.147000000000000000e+03 1.104018306732177734e+01 9.626152992248535156e+00 1.160074677318334579e-02 6.304418563842773438e+00 1.894805788993835449e+00 1.143592357635498047e+00
4.148000000000000000e+03 4.825119495391845703e+00 2.133406877517700195e+00 1.071251928806304932e-01 1.542154848575592041e-01 7.840219885110855103e-02 2.406197637319564819e-01
4.149000000000000000e+03 1.195012569427490234e+01 2.506981134414672852e+00 1.093116521835327148e+00 1.091062641143798828e+01 3.601122856140136719e+00 2.124236583709716797e+00
4.150000000000000000e+03 2.781647920608520508e+00 4.183068275451660156e+00 2.520861625671386719e-01 2.742546610534191132e-02 8.385349065065383911e-02 2.217748314142227173e-01
4.151000000000000000e+03 6.288913726806640625e+00 2.527735471725463867e+00 7.610327005386352539e-01 8.518344163894653320e-01 4.838601350784301758e-01 -5.542690157890319824e-01
4.152000000000000000e+03 6.606553077697753906e+00 2.694762706756591797e+00 9.197555184364318848e-01 1.254255533218383789e+00 6.522033214569091797e-01 -8.532698750495910645e-01
4.153000000000000000e+03 7.215018272399902344e+00 -3.142348289489746094e+00 1.805728912353515625e+00 3.875267505645751953e+00 1.704298973083496094e+00 3.996894836425781250e+00
4.154000000000000000e+03 5.252251148223876953e+00 -3.697890996932983398e+00 7.779089212417602539e-01 2.251776695251464844e+00 9.089056849479675293e-01 1.873485684394836426e+00
4.155000000000000000e+03 5.724736022949218750e+01 -6.535237789154052734e+00 -2.528471708297729492e+00 -3.627246618270874023e-01 -8.673589229583740234e-01 -9.288489222526550293e-01
4.156000000000000000e+03 1.099872589111328125e+01 -3.528788328170776367e+00 5.086194276809692383e-01 1.051997852325439453e+01 3.308579444885253906e+00 3.027643203735351562e+00
4.157000000000000000e+03 1.219205760955810547e+01 -2.073246479034423828e+00 4.664549350738525391e+00 9.784233093261718750e+00 4.334634780883789062e+00 -1.974734812974929810e-01
4.158000000000000000e+03 1.232760429382324219e+01 -1.878901600837707520e+00 5.357555389404296875e+00 9.349249839782714844e+00 4.412041664123535156e+00 -3.189392685890197754e-01
4.159000000000000000e+03 5.966388225555419922e+00 -3.934302091598510742e+00 7.514017820358276367e-01 3.219868898391723633e+00 1.191381216049194336e+00 2.735092401504516602e+00
4.160000000000000000e+03 8.406667709350585938e+00 3.532644510269165039e+00 4.366424381732940674e-01 5.155488491058349609e+00 1.677639245986938477e+00 -2.360210180282592773e+00
4.161000000000000000e+03 9.741898536682128906e+00 1.099270915985107422e+01 3.827672600746154785e-01 4.942123889923095703e+00 1.597467422485351562e+00 3.583681583404541016e-01
4.162000000000000000e+03 8.275480270385742188e+00 -3.684214830398559570e+00 1.014120221138000488e+00 6.547150135040283203e+00 2.268381118774414062e+00 5.227414131164550781e+00
4.163000000000000000e+03 8.534082412719726562e+00 -3.761913537979125977e+00 6.667724251747131348e-01 7.339760780334472656e+00 2.401959896087646484e+00 5.269139766693115234e+00
4.164000000000000000e+03 8.592894554138183594e+00 -3.412542581558227539e+00 1.145499467849731445e+00 7.225883483886718750e+00 2.511415004730224609e+00 5.508298397064208984e+00
4.165000000000000000e+03 7.754248142242431641e+00 -3.653844833374023438e+00 1.137663483619689941e+00 5.511767387390136719e+00 1.994829297065734863e+00 4.781646728515625000e+00
4.166000000000000000e+03 6.885490894317626953e+00 2.097838401794433594e+00 9.533926844596862793e-01 9.462140202522277832e-01 5.698820352554321289e-01 -8.505858778953552246e-01
4.167000000000000000e+03 1.126958465576171875e+01 -3.444086074829101562e+00 8.459143042564392090e-01 1.029662227630615234e+01 3.342761039733886719e+00 2.420517683029174805e+00
4.168000000000000000e+03 1.410585689544677734e+01 -2.821372032165527344e+01 -5.712999105453491211e-01 3.059399604797363281e+00 7.464298605918884277e-01 -5.872986316680908203e-01
4.169000000000000000e+03 7.175947570800781250e+01 -1.824474906921386719e+01 -2.799839973449707031e-01 1.061160469055175781e+01 3.099486351013183594e+00 -1.061103105545043945e+00
4.170000000000000000e+03 2.421378898620605469e+01 2.145877265930175781e+01 2.319486290216445923e-01 9.294574856758117676e-01 3.484218418598175049e-01 4.065254926681518555e-01
4.171000000000000000e+03 6.149401092529296875e+01 2.509540176391601562e+01 5.584425926208496094e-01 3.723913431167602539e+00 1.284706830978393555e+00 -6.548641324043273926e-01
4.172000000000000000e+03 4.143594741821289062e+01 5.584214210510253906e+00 9.051617383956909180e-01 6.365811228752136230e-01 4.625228345394134521e-01 -2.889716066420078278e-02
4.173000000000000000e+03 7.274470520019531250e+01 -1.016755771636962891e+01 2.529729127883911133e+00 1.126431083679199219e+01 4.138211727142333984e+00 4.024762511253356934e-01
4.174000000000000000e+03 7.560389709472656250e+01 -1.659847640991210938e+01 1.887270063161849976e-01 9.090647697448730469e+00 2.783812522888183594e+00 -1.570857524871826172e+00
4.175000000000000000e+03 2.802401733398437500e+01 2.536528968811035156e+01 3.576718866825103760e-01 1.514185905456542969e+00 5.615573525428771973e-01 3.068518042564392090e-01
4.176000000000000000e+03 7.221009826660156250e+01 -1.911819267272949219e+01 -7.012719511985778809e-01 1.033914375305175781e+01 2.891361474990844727e+00 -1.241811156272888184e+00
4.177000000000000000e+03 6.467341899871826172e+00 -3.783687591552734375e+00 9.302003979682922363e-01 3.539062500000000000e+00 1.340778946876525879e+00 3.201884031295776367e+00
4.178000000000000000e+03 6.527790546417236328e+00 -3.110301256179809570e+00 1.615164160728454590e+00 2.882234334945678711e+00 1.349219560623168945e+00 3.175762891769409180e+00
4.179000000000000000e+03 6.907893180847167969e+00 -3.538486242294311523e+00 1.302403092384338379e+00 3.781377315521240234e+00 1.525134086608886719e+00 3.654199838638305664e+00
4.180000000000000000e+03 7.474235057830810547e+00 -3.592965602874755859e+00 1.252089023590087891e+00 4.924190044403076172e+00 1.852883696556091309e+00 4.421144485473632812e+00
4.181000000000000000e+03 8.886042594909667969e+00 3.112724065780639648e+00 4.116179645061492920e-01 6.374096393585205078e+00 2.035714387893676758e+00 -2.798311233520507812e+00
4.182000000000000000e+03 8.697516441345214844e+00 3.358156442642211914e+00 3.853060603141784668e-01 5.843237876892089844e+00 1.868563175201416016e+00 -2.601046800613403320e+00
4.183000000000000000e+03 7.449458312988281250e+01 -1.267759895324707031e+01 1.446904063224792480e+00 9.432659149169921875e+00 3.263868808746337891e+00 -8.576958775520324707e-01
4.184000000000000000e+03 5.522073364257812500e+01 2.418685150146484375e+01 8.095036745071411133e-01 2.631801843643188477e+00 1.032391667366027832e+00 -6.830610632896423340e-01
4.185000000000000000e+03 5.335934638977050781e+00 -2.127130508422851562e+01 -6.691368222236633301e-01 6.867346286773681641e+00 1.859462857246398926e+00 1.929113268852233887e+00
4.186000000000000000e+03 4.104159355163574219e+00 9.260920524597167969e+00 1.181746646761894226e-01 1.315382122993469238e+00 4.300670325756072998e-01 -2.534607350826263428e-01
4.187000000000000000e+03 7.447866058349609375e+01 -2.017530059814453125e+01 -4.482494890689849854e-01 9.633229255676269531e+00 2.755493879318237305e+00 -1.441711187362670898e+00
4.188000000000000000e+03 1.198241424560546875e+01 -2.242216587066650391e+00 3.876503467559814453e+00 1.026221561431884766e+01 4.241615772247314453e+00 2.550299763679504395e-01
4.189000000000000000e+03 3.844608068466186523e+00 5.189127445220947266e+00 3.383286297321319580e-01 6.104629039764404297e-01 2.846374511718750000e-01 -5.087636783719062805e-02
4.190000000000000000e+03 5.159474945068359375e+01 -7.341283798217773438e+00 -1.964822411537170410e+00 -3.376439586281776428e-02 -5.995759963989257812e-01 -7.085577249526977539e-01
4.191000000000000000e+03 8.565198898315429688e+00 3.936493158340454102e+00 7.631795108318328857e-02 5.580671787261962891e+00 1.697096943855285645e+00 -2.127820968627929688e+00
4.192000000000000000e+03 8.228350639343261719e+00 4.068149566650390625e+00 2.059993892908096313e-01 4.907442092895507812e+00 1.534032464027404785e+00 -1.964139938354492188e+00
4.193000000000000000e+03 1.282963562011718750e+01 1.861291503906250000e+01 -3.382147252559661865e-01 4.551638126373291016e+00 1.264026999473571777e+00 3.814904093742370605e-01
4.194000000000000000e+03 5.507439136505126953e+00 -4.185493469238281250e+00 5.217379927635192871e-01 2.991299152374267578e+00 1.053911209106445312e+00 2.268003225326538086e+00
4.195000000000000000e+03 6.355176925659179688e+00 3.545538902282714844e+00 8.097333908081054688e-01 1.649272203445434570e+00 7.377017140388488770e-01 -8.966098427772521973e-01
4.196000000000000000e+03 6.489946842193603516e+00 3.847087860107421875e+00 7.221634984016418457e-01 2.002483129501342773e+00 8.173939585685729980e-01 -9.909551143646240234e-01
4.197000000000000000e+03 1.376429271697998047e+01 1.924316287040710449e+00 3.851164340972900391e+00 5.836211681365966797e+00 2.906212806701660156e+00 2.472844123840332031e+00
4.198000000000000000e+03 1.324352455139160156e+01 -3.109702825546264648e+00 3.189811706542968750e+00 6.521509170532226562e+00 2.913396120071411133e+00 3.203227221965789795e-01
4.199000000000000000e+03 3.679834365844726562e+01 5.953885555267333984e+00 1.252405405044555664e+00 9.315143227577209473e-01 6.551759243011474609e-01 5.085451602935791016e-01
4.200000000000000000e+03 7.170660400390625000e+01 1.154052734375000000e+00 -1.137694120407104492e+00 7.977381229400634766e+00 2.051906108856201172e+00 -8.460113406181335449e-01
4.201000000000000000e+03 5.893640899658203125e+01 1.027179360389709473e+00 1.158035546541213989e-01 7.874035239219665527e-01 2.709621191024780273e-01 -1.046309947967529297e+00
4.202000000000000000e+03 1.225286102294921875e+01 -2.465764284133911133e+00 3.670152425765991211e+00 9.447940826416015625e+00 3.935427904129028320e+00 1.823427379131317139e-01
4.203000000000000000e+03 5.325130939483642578e+00 9.416438102722167969e+00 9.965252131223678589e-02 2.159204244613647461e+00 6.776570081710815430e-01 -2.839572429656982422e-01
4.204000000000000000e+03 1.474132919311523438e+01 4.944649934768676758e-01 5.878748893737792969e+00 3.273102283477783203e+00 2.745555400848388672e+00 1.696896791458129883e+00
4.205000000000000000e+03 9.862327575683593750e+00 1.260198593139648438e+01 7.435221672058105469e-01 4.609793663024902344e+00 1.605994701385498047e+00 2.173142582178115845e-01
4.206000000000000000e+03 5.276097106933593750e+01 2.961091756820678711e+00 5.876448154449462891e-01 1.778334528207778931e-01 2.296434789896011353e-01 -2.619582414627075195e-01
4.207000000000000000e+03 4.611589431762695312e+00 5.272058486938476562e+00 3.998646140098571777e-01 1.125999927520751953e+00 4.577593505382537842e-01 -2.400293350219726562e-01
4.208000000000000000e+03 4.286013603210449219e+00 5.767158031463623047e+00 3.216094076633453369e-01 1.002409577369689941e+00 3.972057104110717773e-01 -1.866256892681121826e-01
4.209000000000000000e+03 8.043136596679687500e+00 -4.014730453491210938e+00 5.428814888000488281e-01 6.399447917938232422e+00 2.082698822021484375e+00 4.938596248626708984e+00
4.210000000000000000e+03 8.447306632995605469e+00 -4.266087532043457031e+00 -3.572675585746765137e-02 7.312737464904785156e+00 2.183103322982788086e+00 4.998957157135009766e+00
4.211000000000000000e+03 8.604038238525390625e+00 -4.645051002502441406e+00 -4.556098580360412598e-01 7.561056613922119141e+00 2.131633996963500977e+00 4.937355041503906250e+00
4.212000000000000000e+03 6.760257720947265625e+00 -3.245743989944458008e+00 1.541297197341918945e+00 3.421988248825073242e+00 1.488985657691955566e+00 3.492155313491821289e+00
4.213000000000000000e+03 6.217678070068359375e+01 2.145615005493164062e+01 6.170788407325744629e-01 3.780913114547729492e+00 1.319397568702697754e+00 -7.742421030998229980e-01
4.214000000000000000e+03 1.859871673583984375e+01 -2.985221385955810547e+00 3.072859764099121094e+00 4.524030983448028564e-01 1.057578921318054199e+00 7.808871269226074219e-01
4.215000000000000000e+03 5.651374053955078125e+01 8.909373730421066284e-02 -7.252847403287887573e-02 2.902145683765411377e-01 6.530582159757614136e-02 -6.194260716438293457e-01
4.216000000000000000e+03 7.583354949951171875e+00 4.252703189849853516e+00 4.297380447387695312e-01 3.768224954605102539e+00 1.259388923645019531e+00 -1.636705160140991211e+00
4.217000000000000000e+03 5.978872680664062500e+01 4.817102909088134766e+00 3.138559162616729736e-01 1.922079801559448242e+00 6.707807183265686035e-01 -1.142781734466552734e+00
4.218000000000000000e+03 6.096107482910156250e+01 5.557923316955566406e+00 2.646059393882751465e-01 2.480834007263183594e+00 8.236320018768310547e-01 -1.350977182388305664e+00
4.219000000000000000e+03 1.556176948547363281e+01 -1.813572645187377930e+00 5.111826896667480469e+00 2.256612539291381836e+00 2.210531711578369141e+00 5.249076485633850098e-01
4.220000000000000000e+03 5.435821056365966797e+00 -6.842041969299316406e+00 -1.147668838500976562e+00 5.231647014617919922e+00 1.225193500518798828e+00 1.554256439208984375e+00
4.221000000000000000e+03 6.378870964050292969e+00 -6.753531455993652344e+00 -1.833128452301025391e+00 6.936642169952392578e+00 1.531054139137268066e+00 2.455918312072753906e+00
4.222000000000000000e+03 5.990060329437255859e+00 4.636016368865966797e+00 5.638793110847473145e-01 1.914972066879272461e+00 7.436554431915283203e-01 -7.613986134529113770e-01
4.223000000000000000e+03 6.494215965270996094e+00 4.823777198791503906e+00 4.415536820888519287e-01 2.574530363082885742e+00 9.048252105712890625e-01 -9.499610662460327148e-01
4.224000000000000000e+03 7.265497207641601562e+00 4.844181060791015625e+00 2.778742611408233643e-01 3.584711074829101562e+00 1.158775687217712402e+00 -1.307382583618164062e+00
4.225000000000000000e+03 6.731755733489990234e+00 -3.913159608840942383e+00 7.999035120010375977e-01 4.135827541351318359e+00 1.480719327926635742e+00 3.493148326873779297e+00
4.226000000000000000e+03 5.678015232086181641e+00 -5.066606521606445312e+00 -1.905460357666015625e-01 4.136837005615234375e+00 1.183887243270874023e+00 2.357266426086425781e+00
4.227000000000000000e+03 6.060780525207519531e+00 -5.286610126495361328e+00 -3.702261149883270264e-01 4.572718143463134766e+00 1.260747551918029785e+00 2.601988077163696289e+00
4.228000000000000000e+03 7.586489200592041016e+00 8.954752922058105469e+00 -6.352987885475158691e-02 3.884585857391357422e+00 1.146316766738891602e+00 -9.890986233949661255e-02
4.229000000000000000e+03 7.129110336303710938e+00 -4.109400749206542969e+00 5.843939781188964844e-01 4.830987930297851562e+00 1.624614596366882324e+00 3.978876113891601562e+00
4.230000000000000000e+03 6.498497486114501953e+00 -5.561104774475097656e+00 -8.891559839248657227e-01 5.794310569763183594e+00 1.471546292304992676e+00 2.987822532653808594e+00
4.231000000000000000e+03 4.224155426025390625e+01 4.538670063018798828e+00 8.928633928298950195e-01 4.724918007850646973e-01 4.096065461635589600e-01 -8.242909610271453857e-02
4.232000000000000000e+03 8.708292007446289062e+00 1.142582511901855469e+01 3.809210658073425293e-01 4.222939491271972656e+00 1.381158113479614258e+00 1.158434897661209106e-01
4.233000000000000000e+03 3.438990402221679688e+01 7.329418063163757324e-01 9.684320092201232910e-01 7.739207744598388672e-01 5.227058529853820801e-01 -2.594468556344509125e-02
4.234000000000000000e+03 3.540446472167968750e+01 3.560814857482910156e+00 1.339828610420227051e+00 8.199627399444580078e-01 6.479374170303344727e-01 3.192884922027587891e-01
4.235000000000000000e+03 1.063165664672851562e+01 -6.162547588348388672e+00 -2.068186759948730469e+00 8.180673599243164062e+00 1.833745837211608887e+00 4.374739646911621094e+00
4.236000000000000000e+03 6.181234836578369141e+00 -7.087875843048095703e+00 -1.726442933082580566e+00 6.575939178466796875e+00 1.454848885536193848e+00 2.060331583023071289e+00
4.237000000000000000e+03 6.017638206481933594e+00 -6.557551860809326172e+00 -1.193200349807739258e+00 5.631095886230468750e+00 1.331368684768676758e+00 2.118760585784912109e+00
4.238000000000000000e+03 8.642634391784667969e+00 -2.447637939453125000e+01 -1.106870174407958984e+00 6.171821594238281250e+00 1.519485473632812500e+00 1.909124702215194702e-01
4.239000000000000000e+03 5.733186340332031250e+01 -1.343463897705078125e+00 -4.369889199733734131e-01 1.468349546194076538e-01 -8.704618364572525024e-02 -7.257245182991027832e-01
4.240000000000000000e+03 5.174256134033203125e+01 -3.218739032745361328e+00 -8.824481964111328125e-01 4.254045337438583374e-02 -2.519723176956176758e-01 -4.131189882755279541e-01
4.241000000000000000e+03 5.180241775512695312e+01 -4.767275810241699219e+00 -1.305464863777160645e+00 2.776746824383735657e-02 -3.833092153072357178e-01 -4.869050383567810059e-01
4.242000000000000000e+03 4.847011089324951172e+00 5.997458934783935547e+00 3.402334749698638916e-01 1.494842648506164551e+00 5.505228638648986816e-01 -3.540149927139282227e-01
4.243000000000000000e+03 5.522385597229003906e+00 5.797891139984130859e+00 3.581421673297882080e-01 1.938367962837219238e+00 6.889530420303344727e-01 -5.297262072563171387e-01
4.244000000000000000e+03 7.407697677612304688e+00 4.640085220336914062e+00 3.117882013320922852e-01 3.609291076660156250e+00 1.176323771476745605e+00 -1.432671546936035156e+00
4.245000000000000000e+03 7.031918048858642578e+00 1.216661453247070312e+01 3.010303080081939697e-01 3.039747953414916992e+00 1.002233505249023438e+00 -1.990552395582199097e-01
4.246000000000000000e+03 6.173367309570312500e+01 5.009329795837402344e+00 2.241153866052627563e-01 2.688922643661499023e+00 8.739114403724670410e-01 -1.510026693344116211e+00
4.247000000000000000e+03 6.139408874511718750e+01 6.392618179321289062e+00 2.777740061283111572e-01 2.766484498977661133e+00 9.132775664329528809e-01 -1.361403703689575195e+00
4.248000000000000000e+03 9.319757461547851562e+00 -5.520781517028808594e+00 -1.560324072837829590e+00 8.339055061340332031e+00 2.033619403839111328e+00 4.777818679809570312e+00
4.249000000000000000e+03 7.838038444519042969e+00 5.644278049468994141e+00 -2.125605940818786621e-01 4.563798904418945312e+00 1.305371522903442383e+00 -1.074695348739624023e+00
4.250000000000000000e+03 7.206339263916015625e+01 3.626107454299926758e+00 -7.039001584053039551e-01 7.326748847961425781e+00 1.986854672431945801e+00 -9.211291074752807617e-01
4.251000000000000000e+03 1.778979682922363281e+01 -2.844189882278442383e+00 3.496782541275024414e+00 7.297909259796142578e-01 1.267971992492675781e+00 7.255632877349853516e-01
4.252000000000000000e+03 7.013174533843994141e+00 6.113954067230224609e+00 2.267082035541534424e-02 3.463119745254516602e+00 1.045737147331237793e+00 -7.644206285476684570e-01
4.253000000000000000e+03 7.402166366577148438e+00 5.913865089416503906e+00 -8.017083257436752319e-02 3.998160839080810547e+00 1.175397038459777832e+00 -9.276491999626159668e-01
4.254000000000000000e+03 6.829036235809326172e+00 5.790457725524902344e+00 1.280405968427658081e-01 3.260544300079345703e+00 1.016575455665588379e+00 -8.475520610809326172e-01
4.255000000000000000e+03 6.187181472778320312e+00 7.918057441711425781e+00 6.828895211219787598e-02 2.796905279159545898e+00 8.595582246780395508e-01 -3.951556384563446045e-01
4.256000000000000000e+03 7.372688293457031250e+01 2.423652648925781250e+01 1.069429218769073486e-01 5.562168121337890625e+00 1.700733423233032227e+00 -4.610410332679748535e-01
4.257000000000000000e+03 6.472489166259765625e+01 6.977909088134765625e+00 9.458962827920913696e-02 4.037067413330078125e+00 1.239497065544128418e+00 -1.650248289108276367e+00
4.258000000000000000e+03 7.339552307128906250e+01 -2.667003631591796875e+01 -6.323708295822143555e-01 8.978364944458007812e+00 2.503798246383666992e+00 -5.293424725532531738e-01
4.259000000000000000e+03 2.840472412109375000e+01 -1.112831830978393555e+00 1.126533508300781250e+00 1.294108152389526367e+00 7.261924743652343750e-01 1.495298892259597778e-01
4.260000000000000000e+03 7.013148498535156250e+01 1.890977859497070312e+01 2.706022560596466064e-01 5.208095550537109375e+00 1.643609285354614258e+00 -8.422564268112182617e-01
4.261000000000000000e+03 7.256258392333984375e+01 1.414727592468261719e+01 9.795823693275451660e-02 6.031250000000000000e+00 1.838762521743774414e+00 -9.036561250686645508e-01
4.262000000000000000e+03 7.124812316894531250e+01 1.763598442077636719e+01 2.080768346786499023e-01 5.497229099273681641e+00 1.711591720581054688e+00 -8.603587150573730469e-01
4.263000000000000000e+03 1.146639442443847656e+01 2.614414978027343750e+01 -3.950394392013549805e-01 2.772921323776245117e+00 7.133646011352539062e-01 2.252320796251296997e-01
4.264000000000000000e+03 1.797553062438964844e+01 -3.591382741928100586e+00 2.787793159484863281e+00 7.487295866012573242e-01 1.060956835746765137e+00 4.920597672462463379e-01
4.265000000000000000e+03 8.860996246337890625e+00 -5.435889720916748047e+00 -1.491527080535888672e+00 8.150519371032714844e+00 1.997697710990905762e+00 4.636107444763183594e+00
4.266000000000000000e+03 7.305475711822509766e+00 -4.858720779418945312e+00 -3.107887804508209229e-01 5.878472805023193359e+00 1.670305252075195312e+00 4.074689388275146484e+00
4.267000000000000000e+03 7.255637168884277344e+00 -4.533883094787597656e+00 6.305742263793945312e-02 5.611236572265625000e+00 1.702288150787353516e+00 4.172118186950683594e+00
4.268000000000000000e+03 6.367156505584716797e+00 1.539700603485107422e+01 2.277624011039733887e-01 2.560412883758544922e+00 8.364525437355041504e-01 -5.688629150390625000e-01
4.269000000000000000e+03 6.867981910705566406e+00 1.957397270202636719e+01 -1.574278175830841064e-01 2.690270423889160156e+00 7.598527669906616211e-01 -5.849459767341613770e-01
4.270000000000000000e+03 6.752289295196533203e+00 6.603483676910400391e+00 3.049508295953273773e-02 3.273778915405273438e+00 9.912822246551513672e-01 -6.334100365638732910e-01
4.271000000000000000e+03 6.335098266601562500e+00 6.251543521881103516e+00 1.655562371015548706e-01 2.807768344879150391e+00 8.919973373413085938e-01 -6.550461053848266602e-01
4.272000000000000000e+03 5.918249130249023438e+00 5.719364643096923828e+00 3.260468840599060059e-01 2.265849828720092773e+00 7.775690555572509766e-01 -6.354635953903198242e-01
4.273000000000000000e+03 7.189916229248046875e+01 1.993196487426757812e+01 1.851175576448440552e-01 5.513567447662353516e+00 1.709605574607849121e+00 -7.133570909500122070e-01
4.274000000000000000e+03 2.812888717651367188e+01 -6.051824569702148438e+00 -6.640661358833312988e-01 8.695743680000305176e-01 6.165247038006782532e-02 -2.824114263057708740e-01
4.275000000000000000e+03 2.783926010131835938e+01 -5.369019985198974609e+00 -3.619758784770965576e-01 9.060789346694946289e-01 1.632309257984161377e-01 -2.185345888137817383e-01
4.276000000000000000e+03 2.995482444763183594e+01 -2.429049730300903320e+00 4.906748533248901367e-01 1.006460905075073242e+00 4.491407275199890137e-01 -1.657182872295379639e-01
4.277000000000000000e+03 6.355695724487304688e+00 6.668113231658935547e+00 1.019112169742584229e-01 2.897547245025634766e+00 8.998375535011291504e-01 -5.887920856475830078e-01
4.278000000000000000e+03 8.802327156066894531e+00 -5.029685020446777344e+00 -9.655596613883972168e-01 8.033710479736328125e+00 2.120445251464843750e+00 4.852021694183349609e+00
4.279000000000000000e+03 3.187645912170410156e+01 -1.183909130096435547e+01 -2.428444623947143555e+00 6.046898961067199707e-01 -5.471264123916625977e-01 -2.516261637210845947e-01
4.280000000000000000e+03 4.125793838500976562e+01 -2.830981969833374023e+00 -3.030622601509094238e-01 3.910563290119171143e-01 2.639821730554103851e-02 -3.355979919433593750e-01
4.281000000000000000e+03 3.103680610656738281e+01 -1.819268703460693359e+00 6.161198019981384277e-01 1.011793494224548340e+00 4.883739948272705078e-01 -1.733522713184356689e-01
4.282000000000000000e+03 6.669229507446289062e+00 6.245283603668212891e+00 8.788359910249710083e-02 3.189862966537475586e+00 9.833239912986755371e-01 -7.072092294692993164e-01
4.283000000000000000e+03 2.896838951110839844e+01 -4.779379367828369141e+00 -2.695214450359344482e-01 9.206139445304870605e-01 1.953277438879013062e-01 -2.727679908275604248e-01
4.284000000000000000e+03 3.906211853027343750e+01 -3.921738624572753906e+00 -4.405956268310546875e-01 4.919778108596801758e-01 1.541465520858764648e-02 -3.841800689697265625e-01
4.285000000000000000e+03 3.479769134521484375e+01 -1.358652114868164062e+00 4.304055273532867432e-01 7.091217041015625000e-01 3.418581783771514893e-01 -2.322297394275665283e-01
4.286000000000000000e+03 7.176377868652343750e+01 6.730706691741943359e+00 -3.061914741992950439e-01 6.611813545227050781e+00 1.891686677932739258e+00 -1.068461298942565918e+00
4.287000000000000000e+03 3.981175231933593750e+01 -8.076493263244628906e+00 -1.431036472320556641e+00 4.443888366222381592e-01 -2.959942817687988281e-01 -5.264855027198791504e-01
4.288000000000000000e+03 3.950293350219726562e+01 -7.009451389312744141e+00 -1.150794386863708496e+00 4.677609503269195557e-01 -2.049100399017333984e-01 -5.180395841598510742e-01
4.289000000000000000e+03 3.993738174438476562e+01 -4.316050529479980469e+00 -5.753263831138610840e-01 4.421921968460083008e-01 -3.994024544954299927e-02 -4.112701714038848877e-01
4.290000000000000000e+03 3.104041862487792969e+01 -4.286077976226806641e+00 -1.843941509723663330e-01 8.814319372177124023e-01 2.091113328933715820e-01 -3.281902074813842773e-01
4.291000000000000000e+03 3.082742691040039062e+01 -2.605280160903930664e+00 4.452763497829437256e-01 9.903828501701354980e-01 4.306977689266204834e-01 -1.878748089075088501e-01
4.292000000000000000e+03 3.342317581176757812e+01 -1.153859615325927734e+01 -2.284176349639892578e+00 5.848755836486816406e-01 -5.097902417182922363e-01 -3.389493525028228760e-01
4.293000000000000000e+03 3.748738479614257812e+01 -1.028029441833496094e+01 -1.869861721992492676e+00 4.992998838424682617e-01 -4.111685454845428467e-01 -5.118867754936218262e-01
4.294000000000000000e+03 3.890166091918945312e+01 -6.560915470123291016e+00 -1.044903278350830078e+00 5.066738724708557129e-01 -1.614688038825988770e-01 -4.951775968074798584e-01
4.295000000000000000e+03 3.896009445190429688e+01 -7.683617115020751953e+00 -1.310416102409362793e+00 4.919894337654113770e-01 -2.455279976129531860e-01 -5.197784900665283203e-01
4.296000000000000000e+03 3.750830459594726562e+01 -6.252308368682861328e+00 -9.428516626358032227e-01 5.514869689941406250e-01 -1.174094006419181824e-01 -4.885030090808868408e-01
4.297000000000000000e+03 3.256290435791015625e+01 -6.728514194488525391e+00 -9.922905564308166504e-01 7.563277482986450195e-01 -7.078883796930313110e-02 -4.498112797737121582e-01
4.298000000000000000e+03 3.598030853271484375e+01 -6.067282676696777344e+00 -8.384115695953369141e-01 6.425862908363342285e-01 -5.874758958816528320e-02 -4.756689667701721191e-01
4.299000000000000000e+03 9.900979042053222656e+00 -9.946446865797042847e-03 4.931036376953125000e+01 5.892239570617675781e+00 1.656078147888183594e+01 1.228349971771240234e+01
4.300000000000000000e+03 9.904818534851074219e+00 -2.906142920255661011e-02 4.624627685546875000e+01 1.688276481628417969e+01 1.893871307373046875e+01 2.345299339294433594e+01
4.301000000000000000e+03 9.912311553955078125e+00 -4.706101492047309875e-02 4.285701370239257812e+01 2.824784851074218750e+01 2.133145904541015625e+01 2.804614257812500000e+01
4.302000000000000000e+03 9.923169136047363281e+00 -6.325436383485794067e-02 3.749470138549804688e+01 3.953218841552734375e+01 2.310806655883789062e+01 2.985664939880371094e+01
4.303000000000000000e+03 9.936976432800292969e+00 -7.701997458934783936e-02 3.254867935180664062e+01 5.003071594238281250e+01 2.477381896972656250e+01 2.848406028747558594e+01
4.304000000000000000e+03 9.953202247619628906e+00 -8.782950043678283691e-02 2.766838264465332031e+01 5.852730178833007812e+01 2.585870552062988281e+01 2.469431495666503906e+01
4.305000000000000000e+03 9.971223831176757812e+00 -9.526807069778442383e-02 2.460373878479003906e+01 6.463015747070312500e+01 2.677017021179199219e+01 1.901029396057128906e+01
4.306000000000000000e+03 9.990350723266601562e+00 -9.905018657445907593e-02 2.305109405517578125e+01 6.761263275146484375e+01 2.719911766052246094e+01 1.245166683197021484e+01
4.307000000000000000e+03 1.000984764099121094e+01 -9.903068840503692627e-02 2.373335647583007812e+01 6.777294921875000000e+01 2.745189094543457031e+01 5.976461887359619141e+00
4.308000000000000000e+03 1.002896595001220703e+01 -9.521032124757766724e-02 2.603531074523925781e+01 6.541945648193359375e+01 2.743642997741699219e+01 4.945666790008544922e-01
4.309000000000000000e+03 1.004697322845458984e+01 -8.773572742938995361e-02 2.956328964233398438e+01 6.131231307983398438e+01 2.726268005371093750e+01 -3.427802562713623047e+00
4.310000000000000000e+03 1.006317710876464844e+01 -7.689376920461654663e-02 3.370827484130859375e+01 5.646298980712890625e+01 2.705137825012207031e+01 -5.414325237274169922e+00
4.311000000000000000e+03 1.007695674896240234e+01 -6.310057640075683594e-02 3.772105026245117188e+01 5.140864562988281250e+01 2.673890876770019531e+01 -5.605032444000244141e+00
4.312000000000000000e+03 1.008778285980224609e+01 -4.688554257154464722e-02 4.126168060302734375e+01 4.724930191040039062e+01 2.655329513549804688e+01 -4.131185054779052734e+00
4.313000000000000000e+03 1.009523963928222656e+01 -2.887100912630558014e-02 4.381240463256835938e+01 4.398115158081054688e+01 2.633806610107421875e+01 -1.411242723464965820e+00
4.314000000000000000e+03 1.009904003143310547e+01 -9.748386219143867493e-03 4.522060012817382812e+01 4.240128326416015625e+01 2.628656578063964844e+01 2.126144409179687500e+00
4.315000000000000000e+03 1.009904003143310547e+01 9.748386219143867493e-03 4.519166946411132812e+01 4.235512924194335938e+01 2.626403999328613281e+01 6.134169101715087891e+00
4.316000000000000000e+03 1.009523963928222656e+01 2.887100912630558014e-02 4.362734985351562500e+01 4.400965881347656250e+01 2.629110336303710938e+01 9.962656021118164062e+00
4.317000000000000000e+03 1.008778285980224609e+01 4.688554257154464722e-02 4.050112533569335938e+01 4.741618347167968750e+01 2.637519264221191406e+01 1.315138721466064453e+01
4.318000000000000000e+03 1.007695674896240234e+01 6.310057640075683594e-02 3.586672973632812500e+01 5.189764785766601562e+01 2.632931327819824219e+01 1.508329391479492188e+01
4.319000000000000000e+03 1.006317710876464844e+01 7.689376920461654663e-02 3.026519775390625000e+01 5.709665298461914062e+01 2.620855522155761719e+01 1.518815135955810547e+01
4.320000000000000000e+03 1.004697322845458984e+01 8.773572742938995361e-02 2.424297332763671875e+01 6.205154418945312500e+01 2.588835525512695312e+01 1.319445991516113281e+01
4.321000000000000000e+03 1.002896595001220703e+01 9.521032124757766724e-02 1.849431228637695312e+01 6.575622558593750000e+01 2.527516174316406250e+01 9.147578239440917969e+00
4.322000000000000000e+03 1.000984764099121094e+01 9.903068840503692627e-02 1.388983917236328125e+01 6.737815093994140625e+01 2.438039779663085938e+01 3.459994554519653320e+00
4.323000000000000000e+03 9.990350723266601562e+00 9.905018657445907593e-02 1.075465679168701172e+01 6.622888183593750000e+01 2.309506225585937500e+01 -3.077644348144531250e+00
4.324000000000000000e+03 9.971223831176757812e+00 9.526807069778442383e-02 9.452438354492187500e+00 6.218909072875976562e+01 2.149245834350585938e+01 -9.616277694702148438e+00
4.325000000000000000e+03 9.953202247619628906e+00 8.782950043678283691e-02 9.417865753173828125e+00 5.545201873779296875e+01 1.946096420288085938e+01 -1.515572261810302734e+01
4.326000000000000000e+03 9.936976432800292969e+00 7.701997458934783936e-02 1.062669658660888672e+01 4.663677978515625000e+01 1.717904281616210938e+01 -1.911322021484375000e+01
4.327000000000000000e+03 9.923169136047363281e+00 6.325436383485794067e-02 1.193916988372802734e+01 3.667764663696289062e+01 1.458504486083984375e+01 -2.106487083435058594e+01
4.328000000000000000e+03 9.912311553955078125e+00 4.706101492047309875e-02 1.367593479156494141e+01 2.592599487304687500e+01 1.188057899475097656e+01 -2.070411682128906250e+01
4.329000000000000000e+03 9.904818534851074219e+00 2.906142920255661011e-02 1.445537185668945312e+01 1.571945190429687500e+01 9.052447319030761719e+00 -1.824030113220214844e+01
4.330000000000000000e+03 9.900979042053222656e+00 9.946446865797042847e-03 1.619136428833007812e+01 5.261868476867675781e+00 6.435969352722167969e+00 -9.381558418273925781e+00
