# el_label, x, y, sXX, sYY, sZZ, sXY
1.000000000000000000e+00 2.318911933898925781e+01 -1.058024883270263672e+01 -1.562027215957641602e+00 2.049431562423706055e+00 1.462213397026062012e-01 -6.290626525878906250e-01
2.000000000000000000e+00 2.307445144653320312e+01 -1.041755676269531250e+01 1.642911553382873535e+00 2.463492155075073242e+00 1.231921076774597168e+00 -1.599878907203674316e+00
3.000000000000000000e+00 2.295978355407714844e+01 -1.025486469268798828e+01 6.275364756584167480e-01 2.024963855743408203e+00 7.957500815391540527e-01 -1.362883329391479492e+00
4.000000000000000000e+00 2.284511566162109375e+01 -1.009217357635498047e+01 8.653590679168701172e-01 1.761289358139038086e+00 7.879945039749145508e-01 -1.152432560920715332e+00
5.000000000000000000e+00 2.314489936828613281e+01 -1.061840438842773438e+01 1.945259094238281250e+00 5.494463920593261719e+00 2.231916904449462891e+00 -4.763080596923828125e+00
6.000000000000000000e+00 2.300075340270996094e+01 -1.048114871978759766e+01 1.980580568313598633e+00 3.184546232223510742e+00 1.549538016319274902e+00 -2.428089141845703125e+00
7.000000000000000000e+00 2.285660552978515625e+01 -1.034389400482177734e+01 2.351825952529907227e+00 2.594904661178588867e+00 1.484019160270690918e+00 -2.396219730377197266e+00
8.000000000000000000e+00 2.271245956420898438e+01 -1.020663833618164062e+01 1.651736140251159668e+00 2.077898979187011719e+00 1.118890523910522461e+00 -1.958632946014404297e+00
9.000000000000000000e+00 2.310895538330078125e+01 -1.066443824768066406e+01 7.188917160034179688e+00 4.833299160003662109e+00 3.606664896011352539e+00 -6.373857975006103516e+00
1.000000000000000000e+01 2.294084548950195312e+01 -1.055787181854248047e+01 4.425289154052734375e+00 3.514693498611450195e+00 2.381994724273681641e+00 -4.162145137786865234e+00
1.100000000000000000e+01 2.277273559570312500e+01 -1.045130538940429688e+01 3.804757118225097656e+00 2.564662694931030273e+00 1.910825967788696289e+00 -2.950913667678833008e+00
1.200000000000000000e+01 2.260462570190429688e+01 -1.034473991394042969e+01 3.471430063247680664e+00 1.836445569992065430e+00 1.592362761497497559e+00 -2.691708564758300781e+00
1.300000000000000000e+01 2.308266067504882812e+01 -1.071658897399902344e+01 1.191869831085205078e+01 3.678754806518554688e+00 4.679235935211181641e+00 -6.504125595092773438e+00
1.400000000000000000e+01 2.289702033996582031e+01 -1.064478969573974609e+01 7.744318485260009766e+00 2.753412246704101562e+00 3.149319171905517578e+00 -4.417297363281250000e+00
1.500000000000000000e+01 2.271138000488281250e+01 -1.057299137115478516e+01 6.127605915069580078e+00 1.992478489875793457e+00 2.436025381088256836e+00 -3.502272844314575195e+00
1.600000000000000000e+01 2.252573966979980469e+01 -1.050119304656982422e+01 5.209466934204101562e+00 1.482300877571105957e+00 2.007530212402343750e+00 -2.801335811614990234e+00
1.700000000000000000e+01 2.306702232360839844e+01 -1.077286052703857422e+01 1.615598106384277344e+01 2.599771976470947266e+00 5.626726150512695312e+00 -4.949340343475341797e+00
1.800000000000000000e+01 2.287095642089843750e+01 -1.073857688903808594e+01 1.079675865173339844e+01 1.855903983116149902e+00 3.795798778533935547e+00 -3.826267004013061523e+00
1.900000000000000000e+01 2.267488861083984375e+01 -1.070429325103759766e+01 8.534314155578613281e+00 1.381115317344665527e+00 2.974628925323486328e+00 -2.999561548233032227e+00
2.000000000000000000e+01 2.247882270812988281e+01 -1.067000865936279297e+01 7.229896068572998047e+00 7.023844122886657715e-01 2.379684209823608398e+00 -2.484071493148803711e+00
2.100000000000000000e+01 2.306263732910156250e+01 -1.083110046386718750e+01 1.903870773315429688e+01 1.999348163604736328e+00 6.311417102813720703e+00 -2.612060308456420898e+00
2.200000000000000000e+01 2.286364746093750000e+01 -1.083564376831054688e+01 1.335624694824218750e+01 1.560178160667419434e+00 4.474927425384521484e+00 -2.166201591491699219e+00
2.300000000000000000e+01 2.266465950012207031e+01 -1.084018611907958984e+01 1.047623252868652344e+01 8.261443972587585449e-01 3.390713214874267578e+00 -1.883733987808227539e+00
2.400000000000000000e+01 2.246566963195800781e+01 -1.084472942352294922e+01 8.891857147216796875e+00 3.801923096179962158e-01 2.781614780426025391e+00 -1.533452391624450684e+00
2.500000000000000000e+01 2.306967544555664062e+01 -1.088908004760742188e+01 2.068056106567382812e+01 2.896590232849121094e+00 7.073145389556884766e+00 3.596769869327545166e-01
2.600000000000000000e+01 2.287537765502929688e+01 -1.093227577209472656e+01 1.484812259674072266e+01 1.495996236801147461e+00 4.903235912322998047e+00 -2.207067161798477173e-01
2.700000000000000000e+01 2.268107986450195312e+01 -1.097547149658203125e+01 1.189006328582763672e+01 1.193720102310180664e+00 3.925135135650634766e+00 -7.690954953432083130e-02
2.800000000000000000e+01 2.248678207397460938e+01 -1.101866722106933594e+01 9.790879249572753906e+00 3.854396343231201172e-01 3.052895784378051758e+00 -1.764968931674957275e-01
2.900000000000000000e+01 2.308786582946777344e+01 -1.094458007812500000e+01 2.078822135925292969e+01 4.243084907531738281e+00 7.509391784667968750e+00 3.087686538696289062e+00
3.000000000000000000e+01 2.290569496154785156e+01 -1.102477550506591797e+01 1.541885852813720703e+01 2.843464851379394531e+00 5.478696823120117188e+00 1.880450248718261719e+00
3.100000000000000000e+01 2.272352409362792969e+01 -1.110497093200683594e+01 1.242194747924804688e+01 1.549059987068176270e+00 4.191302299499511719e+00 1.683537840843200684e+00
3.200000000000000000e+01 2.254135513305664062e+01 -1.118516635894775391e+01 1.039830970764160156e+01 1.507006764411926270e+00 3.571594953536987305e+00 1.670835971832275391e+00
3.300000000000000000e+01 2.311651229858398438e+01 -1.099547672271728516e+01 1.991886711120605469e+01 6.983898639678955078e+00 8.070829391479492188e+00 5.121710777282714844e+00
3.400000000000000000e+01 2.295343971252441406e+01 -1.110960292816162109e+01 1.502349662780761719e+01 4.294386386871337891e+00 5.795364856719970703e+00 3.695089817047119141e+00
3.500000000000000000e+01 2.279036903381347656e+01 -1.122372913360595703e+01 1.214251899719238281e+01 3.196065425872802734e+00 4.601575374603271484e+00 3.162576436996459961e+00
3.600000000000000000e+01 2.262729835510253906e+01 -1.133785533905029297e+01 1.035947132110595703e+01 2.153781890869140625e+00 3.753976106643676758e+00 3.037584781646728516e+00
3.700000000000000000e+01 2.315452003479003906e+01 -1.103982162475585938e+01 1.827657890319824219e+01 9.856562614440917969e+00 8.439942359924316406e+00 6.282628059387207031e+00
3.800000000000000000e+01 2.301678657531738281e+01 -1.118351173400878906e+01 1.395911407470703125e+01 6.553344249725341797e+00 6.153737545013427734e+00 4.757428169250488281e+00
3.900000000000000000e+01 2.287905502319335938e+01 -1.132720279693603516e+01 1.137429714202880859e+01 4.859532833099365234e+00 4.870149135589599609e+00 4.229207992553710938e+00
4.000000000000000000e+01 2.274132156372070312e+01 -1.147089290618896484e+01 9.251358985900878906e+00 3.864829063415527344e+00 3.934856176376342773e+00 3.765531301498413086e+00
4.100000000000000000e+01 2.320043563842773438e+01 -1.107591915130615234e+01 1.642202949523925781e+01 1.257547187805175781e+01 8.699250221252441406e+00 6.423238754272460938e+00
4.200000000000000000e+01 2.309331130981445312e+01 -1.124367427825927734e+01 1.265462779998779297e+01 9.024483680725097656e+00 6.503733634948730469e+00 5.103995323181152344e+00
4.300000000000000000e+01 2.298618698120117188e+01 -1.141142940521240234e+01 1.005116176605224609e+01 6.775160789489746094e+00 5.047896862030029297e+00 4.420333385467529297e+00
4.400000000000000000e+01 2.287906265258789062e+01 -1.157918453216552734e+01 8.269690513610839844e+00 5.569389820098876953e+00 4.151723861694335938e+00 4.258765697479248047e+00
4.500000000000000000e+01 2.325249862670898438e+01 -1.110238742828369141e+01 1.512120437622070312e+01 1.515286922454833984e+01 9.082221984863281250e+00 5.527904510498046875e+00
4.600000000000000000e+01 2.318008232116699219e+01 -1.128778839111328125e+01 1.109637451171875000e+01 1.095955085754394531e+01 6.616777896881103516e+00 4.819486618041992188e+00
4.700000000000000000e+01 2.310766792297363281e+01 -1.147318840026855469e+01 8.928144454956054688e+00 9.054546356201171875e+00 5.394807338714599609e+00 3.962808609008789062e+00
4.800000000000000000e+01 2.303525352478027344e+01 -1.165858936309814453e+01 7.124302864074707031e+00 6.871207714080810547e+00 4.198653221130371094e+00 3.670212268829345703e+00
4.900000000000000000e+01 2.330871772766113281e+01 -1.111821269989013672e+01 1.388546943664550781e+01 1.674513244628906250e+01 9.189180374145507812e+00 4.188826560974121094e+00
5.000000000000000000e+01 2.327378273010253906e+01 -1.131416416168212891e+01 1.036997032165527344e+01 1.262672805786132812e+01 6.899009704589843750e+00 3.689264059066772461e+00
5.100000000000000000e+01 2.323884773254394531e+01 -1.151011562347412109e+01 7.689804553985595703e+00 1.040684223175048828e+01 5.428994178771972656e+00 3.288954496383666992e+00
5.200000000000000000e+01 2.320391273498535156e+01 -1.170606708526611328e+01 6.417908191680908203e+00 9.235832214355468750e+00 4.696122169494628906e+00 2.599569082260131836e+00
5.300000000000000000e+01 2.336694335937500000e+01 -1.112279129028320312e+01 1.349906063079833984e+01 1.750163650512695312e+01 9.300209045410156250e+00 2.602581501007080078e+00
5.400000000000000000e+01 2.337082481384277344e+01 -1.132179450988769531e+01 1.000913524627685547e+01 1.358135128021240234e+01 7.077146053314208984e+00 2.247612714767456055e+00
5.500000000000000000e+01 2.337470626831054688e+01 -1.152079772949218750e+01 7.319439888000488281e+00 1.115190601348876953e+01 5.541403770446777344e+00 2.105338335037231445e+00
5.600000000000000000e+01 2.337858772277832031e+01 -1.171980094909667969e+01 5.841887950897216797e+00 9.908563613891601562e+00 4.725135326385498047e+00 1.925853371620178223e+00
5.700000000000000000e+01 2.342494583129882812e+01 -1.111594676971435547e+01 1.435452079772949219e+01 1.765174293518066406e+01 9.601879119873046875e+00 1.002385973930358887e+00
5.800000000000000000e+01 2.346749496459960938e+01 -1.131038570404052734e+01 9.731301307678222656e+00 1.356624507904052734e+01 6.989264011383056641e+00 7.451075911521911621e-01
5.900000000000000000e+01 2.351004600524902344e+01 -1.150482559204101562e+01 8.158050537109375000e+00 1.131447792053222656e+01 5.841758728027343750e+00 8.480175137519836426e-01
6.000000000000000000e+01 2.355259513854980469e+01 -1.169926548004150391e+01 5.511564731597900391e+00 9.169246673583984375e+00 4.404243469238281250e+00 6.605852246284484863e-01
6.100000000000000000e+01 2.348050498962402344e+01 -1.109794044494628906e+01 1.457384014129638672e+01 1.662334823608398438e+01 9.359156608581542969e+00 -4.239073991775512695e-01
6.200000000000000000e+01 2.356009483337402344e+01 -1.128037548065185547e+01 1.124084663391113281e+01 1.320974349975585938e+01 7.335176944732666016e+00 -2.955274581909179688e-01
6.300000000000000000e+01 2.363968467712402344e+01 -1.146281147003173828e+01 8.303954124450683594e+00 1.040660667419433594e+01 5.613168239593505859e+00 -5.790604352951049805e-01
6.400000000000000000e+01 2.371927452087402344e+01 -1.164524650573730469e+01 7.078658103942871094e+00 9.088609695434570312e+00 4.850180149078369141e+00 -3.444558382034301758e-01
6.500000000000000000e+01 2.353149604797363281e+01 -1.106946182250976562e+01 1.641579055786132812e+01 1.577929401397705078e+01 9.658525466918945312e+00 -9.790409803390502930e-01
6.600000000000000000e+01 2.364508056640625000e+01 -1.123291206359863281e+01 1.195457077026367188e+01 1.166588783264160156e+01 7.086137294769287109e+00 -1.260407209396362305e+00
6.700000000000000000e+01 2.375866508483886719e+01 -1.139636230468750000e+01 9.924699783325195312e+00 9.793642997741699219e+00 5.915502548217773438e+00 -1.129592895507812500e+00
6.800000000000000000e+01 2.387224960327148438e+01 -1.155981254577636719e+01 7.874416828155517578e+00 7.925647258758544922e+00 4.740019321441650391e+00 -1.265720725059509277e+00
6.900000000000000000e+01 2.357596778869628906e+01 -1.103160095214843750e+01 1.754794120788574219e+01 1.381085109710693359e+01 9.407637596130371094e+00 -1.270809054374694824e+00
7.000000000000000000e+01 2.371920013427734375e+01 -1.116981124877929688e+01 1.367113685607910156e+01 1.055450439453125000e+01 7.267692565917968750e+00 -1.176897525787353516e+00
7.100000000000000000e+01 2.386243247985839844e+01 -1.130802059173583984e+01 1.080656242370605469e+01 8.347498893737792969e+00 5.746218681335449219e+00 -1.349721670150756836e+00
7.200000000000000000e+01 2.400566482543945312e+01 -1.144623088836669922e+01 9.403654098510742188e+00 7.177434444427490234e+00 4.974326610565185547e+00 -1.432686567306518555e+00
7.300000000000000000e+01 2.361221885681152344e+01 -1.098580646514892578e+01 1.899036216735839844e+01 1.244271755218505859e+01 9.429924011230468750e+00 -6.244043707847595215e-01
7.400000000000000000e+01 2.377961730957031250e+01 -1.109348773956298828e+01 1.477591133117675781e+01 8.903459548950195312e+00 7.103811264038085938e+00 -6.513514518737792969e-01
7.500000000000000000e+01 2.394701576232910156e+01 -1.120116806030273438e+01 1.209958076477050781e+01 7.289323329925537109e+00 5.816671371459960938e+00 -6.172402501106262207e-01
7.600000000000000000e+01 2.411441421508789062e+01 -1.130884838104248047e+01 9.891886711120605469e+00 6.270928859710693359e+00 4.848844528198242188e+00 -9.547430276870727539e-01
7.700000000000000000e+01 2.363885879516601562e+01 -1.093383216857910156e+01 2.001144599914550781e+01 1.092951011657714844e+01 9.282286643981933594e+00 6.922549605369567871e-01
7.800000000000000000e+01 2.382401847839355469e+01 -1.100686264038085938e+01 1.544324684143066406e+01 7.859892845153808594e+00 6.990942001342773438e+00 5.586256384849548340e-01
7.900000000000000000e+01 2.400917816162109375e+01 -1.107989215850830078e+01 1.291020107269287109e+01 6.287794113159179688e+00 5.759398460388183594e+00 4.309512376785278320e-01
8.000000000000000000e+01 2.419433593750000000e+01 -1.115292263031005859e+01 1.063298797607421875e+01 5.265942573547363281e+00 4.769679069519042969e+00 5.845090150833129883e-01
8.100000000000000000e+01 2.365487289428710938e+01 -1.087766456604003906e+01 2.017451858520507812e+01 9.927971839904785156e+00 9.030747413635253906e+00 2.424607038497924805e+00
8.200000000000000000e+01 2.385070610046386719e+01 -1.091325092315673828e+01 1.558267784118652344e+01 7.355777740478515625e+00 6.881536960601806641e+00 2.263790845870971680e+00
8.300000000000000000e+01 2.404654121398925781e+01 -1.094883632659912109e+01 1.271695709228515625e+01 5.731694221496582031e+00 5.534595489501953125e+00 1.811408877372741699e+00
8.400000000000000000e+01 2.424237442016601562e+01 -1.098442173004150391e+01 1.159815692901611328e+01 4.727781772613525391e+00 4.897781848907470703e+00 1.616520762443542480e+00
8.500000000000000000e+01 2.365964317321777344e+01 -1.081945514678955078e+01 1.956009483337402344e+01 9.825138092041015625e+00 8.815569877624511719e+00 4.645545959472656250e+00
8.600000000000000000e+01 2.385865974426269531e+01 -1.081623458862304688e+01 1.464825630187988281e+01 7.354568004608154297e+00 6.600847244262695312e+00 3.847945213317871094e+00
8.700000000000000000e+01 2.405767440795898438e+01 -1.081301307678222656e+01 1.220418930053710938e+01 5.847374439239501953e+00 5.415469169616699219e+00 3.391585826873779297e+00
8.800000000000000000e+01 2.425668907165527344e+01 -1.080979251861572266e+01 1.024496936798095703e+01 5.075929641723632812e+00 4.596270084381103516e+00 2.561755418777465820e+00
8.900000000000000000e+01 2.365299034118652344e+01 -1.076142978668212891e+01 1.783400154113769531e+01 1.047404479980468750e+01 8.492414474487304688e+00 6.546720027923583984e+00
9.000000000000000000e+01 2.384757041931152344e+01 -1.071952629089355469e+01 1.296378898620605469e+01 8.051901817321777344e+00 6.304707050323486328e+00 5.444448471069335938e+00
9.100000000000000000e+01 2.404215049743652344e+01 -1.067762184143066406e+01 1.066616249084472656e+01 6.550734996795654297e+00 5.165069103240966797e+00 4.324892997741699219e+00
9.200000000000000000e+01 2.423673057556152344e+01 -1.063571739196777344e+01 8.814390182495117188e+00 5.544538497924804688e+00 4.307678222656250000e+00 4.270341396331787109e+00
9.300000000000000000e+01 2.363516807556152344e+01 -1.070581054687500000e+01 1.493279457092285156e+01 1.180577754974365234e+01 8.021572113037109375e+00 8.175907135009765625e+00
9.400000000000000000e+01 2.381786727905273438e+01 -1.062682628631591797e+01 1.075332355499267578e+01 9.279955863952636719e+00 6.009984016418457031e+00 6.121754646301269531e+00
9.500000000000000000e+01 2.400056648254394531e+01 -1.054784297943115234e+01 8.342658996582031250e+00 7.591444015502929688e+00 4.780230998992919922e+00 5.283605575561523438e+00
9.600000000000000000e+01 2.418326568603515625e+01 -1.046885871887207031e+01 7.572919845581054688e+00 6.155864238739013672e+00 4.118635177612304688e+00 4.492600440979003906e+00
9.700000000000000000e+01 2.360685920715332031e+01 -1.065472507476806641e+01 1.169214153289794922e+01 1.369327926635742188e+01 7.615626335144042969e+00 8.590320587158203125e+00
9.800000000000000000e+01 2.377068710327148438e+01 -1.054168415069580078e+01 7.727096557617187500e+00 1.061779022216796875e+01 5.503466129302978516e+00 6.336580753326416016e+00
9.900000000000000000e+01 2.393451309204101562e+01 -1.042864322662353516e+01 6.354677200317382812e+00 8.651731491088867188e+00 4.501922607421875000e+00 5.185428142547607422e+00
1.000000000000000000e+02 2.409833908081054688e+01 -1.031560134887695312e+01 4.941143035888671875e+00 7.369303703308105469e+00 3.693133831024169922e+00 4.387077808380126953e+00
1.010000000000000000e+02 2.356914710998535156e+01 -1.061012744903564453e+01 7.709997653961181641e+00 1.546221828460693359e+01 6.951664924621582031e+00 8.024305343627929688e+00
1.020000000000000000e+02 2.370783233642578125e+01 -1.046735572814941406e+01 5.222427845001220703e+00 1.175803661346435547e+01 5.094139575958251953e+00 5.541923046112060547e+00
1.030000000000000000e+02 2.384651565551757812e+01 -1.032458305358886719e+01 3.776868820190429688e+00 9.570531845092773438e+00 4.004220008850097656e+00 4.436968326568603516e+00
1.040000000000000000e+02 2.398520088195800781e+01 -1.018181037902832031e+01 3.181922197341918945e+00 8.202046394348144531e+00 3.415190696716308594e+00 3.923762321472167969e+00
1.050000000000000000e+02 2.352347373962402344e+01 -1.057372665405273438e+01 4.473757743835449219e+00 1.668243980407714844e+01 6.346859455108642578e+00 6.230106830596923828e+00
1.060000000000000000e+02 2.363171005249023438e+01 -1.040668582916259766e+01 2.622824430465698242e+00 1.221066379547119141e+01 4.450046539306640625e+00 4.026835918426513672e+00
1.070000000000000000e+02 2.373994445800781250e+01 -1.023964595794677734e+01 2.049962520599365234e+00 1.000293827056884766e+01 3.615870237350463867e+00 3.184844732284545898e+00
1.080000000000000000e+02 2.384818077087402344e+01 -1.007260513305664062e+01 1.497249245643615723e+00 8.385470390319824219e+00 2.964815855026245117e+00 2.736277818679809570e+00
1.090000000000000000e+02 2.347158813476562500e+01 -1.054691314697265625e+01 1.656364917755126953e+00 1.659755516052246094e+01 5.476176261901855469e+00 3.621704816818237305e+00
1.100000000000000000e+02 2.354523277282714844e+01 -1.036199760437011719e+01 1.059635519981384277e+00 1.186587238311767578e+01 3.877652406692504883e+00 2.057556629180908203e+00
1.110000000000000000e+02 2.361887741088867188e+01 -1.017708110809326172e+01 6.564401388168334961e-01 9.437817573547363281e+00 3.028277158737182617e+00 1.551326751708984375e+00
1.120000000000000000e+02 2.369252204895019531e+01 -9.992165565490722656e+00 6.372098922729492188e-01 8.119412422180175781e+00 2.626986742019653320e+00 1.411584019660949707e+00
1.130000000000000000e+02 2.341547393798828125e+01 -1.053071403503417969e+01 2.491303384304046631e-01 1.512535762786865234e+01 4.612346649169921875e+00 6.425380110740661621e-01
1.140000000000000000e+02 2.345170974731445312e+01 -1.033499908447265625e+01 7.576574385166168213e-02 1.015731620788574219e+01 3.069924354553222656e+00 5.978846549987792969e-02
1.150000000000000000e+02 2.348794364929199219e+01 -1.013928413391113281e+01 2.536196410655975342e-01 8.227815628051757812e+00 2.544430494308471680e+00 5.156521126627922058e-02
1.160000000000000000e+02 2.352417945861816406e+01 -9.943569183349609375e+00 1.400129944086074829e-01 6.895701408386230469e+00 2.110714197158813477e+00 1.101737394928932190e-01
1.170000000000000000e+02 2.335728073120117188e+01 -1.052574920654296875e+01 -3.188407719135284424e-01 1.164028835296630859e+01 3.396434307098388672e+00 -1.868066668510437012e+00
1.180000000000000000e+02 2.335471916198730469e+01 -1.032672500610351562e+01 1.802371144294738770e-01 7.643396377563476562e+00 2.347090005874633789e+00 -1.494300842285156250e+00
1.190000000000000000e+02 2.335215950012207031e+01 -1.012769985198974609e+01 2.697986066341400146e-01 5.963403224945068359e+00 1.869960546493530273e+00 -9.259142875671386719e-01
1.200000000000000000e+02 2.334959793090820312e+01 -9.928675651550292969e+00 2.184306979179382324e-01 5.471363544464111328e+00 1.706938266754150391e+00 -6.455299854278564453e-01
1.210000000000000000e+02 2.329923439025878906e+01 -1.053220939636230469e+01 3.317457735538482666e-01 6.540535449981689453e+00 2.061684370040893555e+00 -3.555389404296875000e+00
1.220000000000000000e+02 2.325797462463378906e+01 -1.033749103546142578e+01 5.932949781417846680e-01 3.990318775177001953e+00 1.375084161758422852e+00 -1.592636704444885254e+00
1.230000000000000000e+02 2.321671676635742188e+01 -1.014277362823486328e+01 5.042051672935485840e-01 4.322907924652099609e+00 1.448133826255798340e+00 -1.123084306716918945e+00
1.240000000000000000e+02 2.317545890808105469e+01 -9.948055267333984375e+00 2.776232957839965820e-01 3.340300559997558594e+00 1.085377097129821777e+00 -1.177346706390380859e+00
1.250000000000000000e+02 2.324355506896972656e+01 -1.054984664916992188e+01 2.991857528686523438e-01 -8.609303832054138184e-01 -1.685234010219573975e-01 -1.611312866210937500e+00
1.260000000000000000e+02 2.316517829895019531e+01 -1.036688613891601562e+01 7.760211229324340820e-01 2.805850982666015625e+00 1.074561595916748047e+00 -8.231034278869628906e-01
1.270000000000000000e+02 2.308679962158203125e+01 -1.018392658233642578e+01 3.212213516235351562e-01 1.776604294776916504e+00 6.293476819992065430e-01 -1.100439786911010742e+00
1.280000000000000000e+02 2.300842475891113281e+01 -1.000096702575683594e+01 5.050324201583862305e-01 1.818880796432495117e+00 6.971739530563354492e-01 -7.818750143051147461e-01
1.290000000000000000e+02 1.760791015625000000e+01 -3.592630624771118164e+00 -1.026038646697998047e+00 -6.461079120635986328e-01 -5.016439557075500488e-01 9.186837673187255859e-01
1.300000000000000000e+02 1.641983032226562500e+01 -3.659779310226440430e+00 -1.035713791847229004e+00 -6.117464303970336914e-01 -4.942380487918853760e-01 9.823082089424133301e-01
1.310000000000000000e+02 1.596709632873535156e+01 -3.138501405715942383e+00 -1.296129703521728516e+00 -4.625713527202606201e-01 -5.276103615760803223e-01 9.647131562232971191e-01
1.320000000000000000e+02 1.586659336090087891e+01 -2.276184797286987305e+00 -1.501260042190551758e+00 -4.937443137168884277e-01 -5.985013246536254883e-01 9.188403487205505371e-01
1.330000000000000000e+02 1.709290885925292969e+01 -4.137548923492431641e+00 -8.378672003746032715e-01 -7.279576063156127930e-01 -4.697474539279937744e-01 1.004338383674621582e+00
1.340000000000000000e+02 1.699184036254882812e+01 -3.153491020202636719e+00 -1.344538450241088867e+00 -6.852618455886840820e-01 -6.089400649070739746e-01 9.704826474189758301e-01
1.350000000000000000e+02 1.642672538757324219e+01 -2.708522081375122070e+00 -1.462931156158447266e+00 -6.485093832015991211e-01 -6.334321498870849609e-01 1.023557186126708984e+00
1.360000000000000000e+02 1.559137153625488281e+01 -2.682137489318847656e+00 -1.534720897674560547e+00 -4.072751700878143311e-01 -5.825988054275512695e-01 9.510108232498168945e-01
1.370000000000000000e+02 1.540681362152099609e+01 -3.142266035079956055e+00 -1.307944178581237793e+00 -4.174691736698150635e-01 -5.176240205764770508e-01 9.830017089843750000e-01
1.380000000000000000e+02 1.831171417236328125e+01 -5.296110630035400391e+00 -4.165574014186859131e-01 -9.154194593429565430e-01 -3.995930552482604980e-01 7.735727429389953613e-01
1.390000000000000000e+02 1.924385833740234375e+01 -5.140452861785888672e+00 -6.726588606834411621e-01 -9.294512867927551270e-01 -4.806330502033233643e-01 8.015140295028686523e-01
1.400000000000000000e+02 1.773161506652832031e+01 -4.690351486206054688e+00 -6.534670591354370117e-01 -7.909957766532897949e-01 -4.333388507366180420e-01 9.452982544898986816e-01
1.410000000000000000e+02 1.889598274230957031e+01 -5.670193672180175781e+00 -2.771887779235839844e-01 -9.455490708351135254e-01 -3.668213486671447754e-01 7.105981707572937012e-01
1.420000000000000000e+02 1.975486183166503906e+01 -5.630797863006591797e+00 -4.682338833808898926e-01 -8.176102638244628906e-01 -3.857532441616058350e-01 6.654481887817382812e-01
1.430000000000000000e+02 1.871912574768066406e+01 -4.645824909210205078e+00 -7.586982846260070801e-01 -9.309549331665039062e-01 -5.068959593772888184e-01 8.727397918701171875e-01
1.440000000000000000e+02 1.819174957275390625e+01 -4.097434043884277344e+00 -8.145200610160827637e-01 -7.943057417869567871e-01 -4.826477468013763428e-01 8.637204170227050781e-01
1.450000000000000000e+02 1.898552322387695312e+01 -6.234860897064208984e+00 -1.055724471807479858e-01 -1.005493402481079102e+00 -3.333197534084320068e-01 6.315256357192993164e-01
1.460000000000000000e+02 1.940359115600585938e+01 -5.974580287933349609e+00 -2.865855693817138672e-01 -9.406718611717224121e-01 -3.681772351264953613e-01 6.011075377464294434e-01
1.470000000000000000e+02 2.099221229553222656e+01 -8.032949447631835938e+00 2.976998686790466309e-01 -5.331287384033203125e-01 -7.062865793704986572e-02 -2.586104534566402435e-02
1.480000000000000000e+02 2.128277206420898438e+01 -7.849205017089843750e+00 4.954311251640319824e-02 -3.756543993949890137e-01 -9.783338755369186401e-02 7.774560153484344482e-02
1.490000000000000000e+02 1.943098068237304688e+01 -6.794840335845947266e+00 1.351814419031143188e-01 -9.901890754699707031e-01 -2.565023005008697510e-01 4.554113745689392090e-01
1.500000000000000000e+02 1.982495117187500000e+01 -6.489822387695312500e+00 -1.438953280448913574e-01 -8.609758019447326660e-01 -3.014613389968872070e-01 5.323277115821838379e-01
1.510000000000000000e+02 2.023551750183105469e+01 -7.073847293853759766e+00 5.902198702096939087e-02 -7.979589104652404785e-01 -2.216810882091522217e-01 2.987903058528900146e-01
1.520000000000000000e+02 2.088481712341308594e+01 -8.307410240173339844e+00 6.027789115905761719e-01 -5.712127089500427246e-01 9.469850920140743256e-03 -1.389753222465515137e-01
1.530000000000000000e+02 2.129751586914062500e+01 -8.334892272949218750e+00 3.958015143871307373e-01 -2.536873519420623779e-01 4.263424500823020935e-02 -1.716696918010711670e-01
1.540000000000000000e+02 2.147589302062988281e+01 -8.208916664123535156e+00 2.368036657571792603e-01 -1.988293826580047607e-01 1.139228511601686478e-02 -8.360238373279571533e-02
1.550000000000000000e+02 2.161963653564453125e+01 -8.030048370361328125e+00 1.295500807464122772e-02 -1.648464202880859375e-01 -4.556742683053016663e-02 6.331122666597366333e-02
1.560000000000000000e+02 2.103188133239746094e+01 -7.379238605499267578e+00 -9.004943817853927612e-02 -5.286999344825744629e-01 -1.856248229742050171e-01 2.454951405525207520e-01
1.570000000000000000e+02 2.063207817077636719e+01 -6.795210838317871094e+00 -2.108219414949417114e-01 -7.040313482284545898e-01 -2.744559943675994873e-01 4.259614944458007812e-01
1.580000000000000000e+02 2.021484184265136719e+01 -6.191619873046875000e+00 -3.309718966484069824e-01 -7.651332616806030273e-01 -3.288315534591674805e-01 5.137385129928588867e-01
1.590000000000000000e+02 2.114742088317871094e+01 -8.480256080627441406e+00 5.518311858177185059e-01 -4.067151248455047607e-01 4.353481903672218323e-02 -2.465039640665054321e-01
1.600000000000000000e+02 2.056741333007812500e+01 -8.715340614318847656e+00 1.012718081474304199e+00 -8.691862225532531738e-01 4.305955395102500916e-02 -2.560335695743560791e-01
1.610000000000000000e+02 2.023518562316894531e+01 -7.948392391204833984e+00 5.684863924980163574e-01 -8.973104953765869141e-01 -9.864723682403564453e-02 5.087180063128471375e-02
1.620000000000000000e+02 2.062905120849609375e+01 -7.626521587371826172e+00 2.166126966476440430e-01 -6.636325120925903320e-01 -1.341059356927871704e-01 1.265281140804290771e-01
1.630000000000000000e+02 1.983288383483886719e+01 -7.377510070800781250e+00 3.089084029197692871e-01 -9.511785507202148438e-01 -1.926810443401336670e-01 2.955999970436096191e-01
1.640000000000000000e+02 2.098673248291015625e+01 -8.586975097656250000e+00 8.209496736526489258e-01 -5.553871393203735352e-01 7.966875284910202026e-02 -3.322749733924865723e-01
1.650000000000000000e+02 2.080139541625976562e+01 -8.674736976623535156e+00 9.078865647315979004e-01 -5.908731222152709961e-01 9.510403126478195190e-02 -3.885550200939178467e-01
1.660000000000000000e+02 2.057498359680175781e+01 -8.375836372375488281e+00 8.033592700958251953e-01 -7.823035120964050293e-01 6.316716317087411880e-03 -1.597709953784942627e-01
1.670000000000000000e+02 2.183744239807128906e+01 -8.371431350708007812e+00 1.028101071715354919e-01 8.057296276092529297e-03 3.326022252440452576e-02 -1.120036914944648743e-01
1.680000000000000000e+02 2.295168495178222656e+01 -1.180498886108398438e+01 5.921782493591308594e+00 5.593350410461425781e+00 3.454539775848388672e+00 3.330077171325683594e+00
1.690000000000000000e+02 2.358501052856445312e+01 -1.186454677581787109e+01 4.437282085418701172e+00 1.003376197814941406e+01 4.341313362121582031e+00 6.691872477531433105e-01
1.700000000000000000e+02 2.427531242370605469e+01 -1.151760864257812500e+01 8.038369178771972656e+00 5.714407920837402344e+00 4.125833034515380859e+00 -1.179130434989929199e+00
1.710000000000000000e+02 2.438457870483398438e+01 -1.058962345123291016e+01 8.561308860778808594e+00 4.885477066040039062e+00 4.034035682678222656e+00 4.079927921295166016e+00
1.720000000000000000e+02 2.434735870361328125e+01 -9.741458892822265625e+00 1.730669021606445312e+00 5.870772361755371094e+00 2.280432462692260742e+00 2.902427911758422852e+00
1.730000000000000000e+02 2.225035285949707031e+01 -8.560539245605468750e+00 1.423293501138687134e-01 6.783899068832397461e-01 2.462157756090164185e-01 -2.889434099197387695e-01
1.740000000000000000e+02 2.332903861999511719e+01 -7.930830478668212891e+00 -2.620805203914642334e-01 2.345009565353393555e+00 6.248787045478820801e-01 1.462833210825920105e-02
1.750000000000000000e+02 2.456175613403320312e+01 -1.009056472778320312e+01 3.889034509658813477e+00 4.976879119873046875e+00 2.659774065017700195e+00 3.392904281616210938e+00
1.760000000000000000e+02 2.230184364318847656e+01 -1.105089759826660156e+01 8.656754493713378906e+00 -1.673665344715118408e-01 2.546816587448120117e+00 -1.582237929105758667e-01
1.770000000000000000e+02 2.075857543945312500e+01 -9.022960662841796875e+00 1.404320836067199707e+00 -7.665349245071411133e-01 1.913357824087142944e-01 -4.785936772823333740e-01
1.780000000000000000e+02 2.085473442077636719e+01 -9.192794799804687500e+00 1.488540649414062500e+00 -7.721912860870361328e-01 2.149048149585723877e-01 -5.442601442337036133e-01
1.790000000000000000e+02 2.250092315673828125e+01 -1.150705337524414062e+01 8.640873908996582031e+00 2.320315837860107422e+00 3.288356781005859375e+00 3.206042051315307617e+00
1.800000000000000000e+02 2.198804664611816406e+01 -1.127519321441650391e+01 7.371419906616210938e+00 -8.471832871437072754e-01 1.957270979881286621e+00 8.868482112884521484e-01
1.810000000000000000e+02 2.234864616394042969e+01 -1.044395065307617188e+01 4.777457714080810547e+00 8.385156393051147461e-01 1.684792041778564453e+00 -2.458391189575195312e+00
1.820000000000000000e+02 2.171130561828613281e+01 -1.026118755340576172e+01 3.721753358840942383e+00 -3.808663785457611084e-01 1.002266049385070801e+00 -1.437480688095092773e+00
1.830000000000000000e+02 2.095249176025390625e+01 -9.360238075256347656e+00 1.625243186950683594e+00 -6.994818449020385742e-01 2.777284085750579834e-01 -6.671555638313293457e-01
1.840000000000000000e+02 2.313460350036621094e+01 -7.565907955169677734e+00 -2.743928432464599609e-01 1.995217561721801758e+00 5.162473917007446289e-01 -1.422852184623479843e-02
1.850000000000000000e+02 2.304366111755371094e+01 -7.879323482513427734e+00 -2.126439958810806274e-01 1.956807255744934082e+00 5.232489705085754395e-01 -9.916286170482635498e-02
1.860000000000000000e+02 2.276847648620605469e+01 -7.800503253936767578e+00 -1.525686383247375488e-01 1.513949394226074219e+00 4.084142446517944336e-01 -1.584742069244384766e-01
1.870000000000000000e+02 2.240410614013671875e+01 -8.011499404907226562e+00 2.089171484112739563e-02 1.009529232978820801e+00 3.091262876987457275e-01 -2.753410041332244873e-01
1.880000000000000000e+02 2.306062889099121094e+01 -9.315199851989746094e+00 1.580051779747009277e-01 2.650936841964721680e+00 8.426826000213623047e-01 -6.627718210220336914e-01
1.890000000000000000e+02 2.356416702270507812e+01 -9.714985847473144531e+00 7.241521775722503662e-02 6.088274955749511719e+00 1.848207116127014160e+00 2.698612809181213379e-01
1.900000000000000000e+02 2.377373123168945312e+01 -9.774991989135742188e+00 3.544638454914093018e-01 6.859579086303710938e+00 2.164212942123413086e+00 1.204388737678527832e+00
1.910000000000000000e+02 2.424640464782714844e+01 -1.007863044738769531e+01 3.362387657165527344e+00 6.701181411743164062e+00 3.019070625305175781e+00 3.885847568511962891e+00
1.920000000000000000e+02 2.205138206481933594e+01 -8.225469589233398438e+00 8.992172777652740479e-02 4.999866485595703125e-01 1.769725233316421509e-01 -2.282327115535736084e-01
1.930000000000000000e+02 2.265516090393066406e+01 -8.132558822631835938e+00 -1.799413748085498810e-02 1.388427615165710449e+00 4.111300408840179443e-01 -2.808018922805786133e-01
1.940000000000000000e+02 2.295176315307617188e+01 -7.684337615966796875e+00 -2.036838233470916748e-01 1.753033876419067383e+00 4.648050367832183838e-01 -8.483119308948516846e-02
1.950000000000000000e+02 2.255130386352539062e+01 -9.089357376098632812e+00 2.053525000810623169e-01 1.013000011444091797e+00 3.655057251453399658e-01 -4.332404434680938721e-01
1.960000000000000000e+02 2.277819633483886719e+01 -9.431736946105957031e+00 2.057896703481674194e-01 1.308141469955444336e+00 4.541793465614318848e-01 -5.985017418861389160e-01
1.970000000000000000e+02 2.298888778686523438e+01 -8.911298751831054688e+00 3.414319828152656555e-02 2.292119503021240234e+00 6.978788375854492188e-01 -4.231751859188079834e-01
1.980000000000000000e+02 2.293104362487792969e+01 -9.817070960998535156e+00 2.892605960369110107e-01 1.560981273651123047e+00 5.550725460052490234e-01 -8.046097159385681152e-01
1.990000000000000000e+02 2.376421165466308594e+01 -1.180515098571777344e+01 5.088362693786621094e+00 6.625890254974365234e+00 3.514275789260864258e+00 1.365087032318115234e-01
2.000000000000000000e+02 2.422080802917480469e+01 -1.142097568511962891e+01 9.260619163513183594e+00 6.073648929595947266e+00 4.600280284881591797e+00 -1.189946889877319336e+00
2.010000000000000000e+02 2.432064819335937500e+01 -1.040910720825195312e+01 6.761358737945556641e+00 5.615980148315429688e+00 3.713201761245727539e+00 4.100195884704589844e+00
2.020000000000000000e+02 2.285423469543457031e+01 -9.628841400146484375e+00 3.200680613517761230e-01 1.468734741210937500e+00 5.366408228874206543e-01 -6.462587118148803711e-01
2.030000000000000000e+02 2.271695899963378906e+01 -9.930603981018066406e+00 6.501942873001098633e-01 1.427478909492492676e+00 6.233019828796386719e-01 -1.069238185882568359e+00
2.040000000000000000e+02 2.236713981628417969e+01 -9.840577125549316406e+00 1.180375337600708008e+00 1.231887459754943848e+00 7.236788272857666016e-01 -1.304508924484252930e+00
2.050000000000000000e+02 2.211726570129394531e+01 -1.106532287597656250e+01 7.916758537292480469e+00 -6.383807659149169922e-01 2.183513402938842773e+00 8.074697852134704590e-02
2.060000000000000000e+02 2.281323051452636719e+01 -1.170953369140625000e+01 7.518440246582031250e+00 5.357973098754882812e+00 3.862924098968505859e+00 4.228392601013183594e+00
2.070000000000000000e+02 2.193304061889648438e+01 -8.568559646606445312e+00 1.450236141681671143e-01 1.342361718416213989e-01 8.377794176340103149e-02 -1.577777415513992310e-01
2.080000000000000000e+02 2.165246772766113281e+01 -8.498518943786621094e+00 2.759815454483032227e-01 -7.691957056522369385e-02 5.971859395503997803e-02 -2.057203948497772217e-01
2.090000000000000000e+02 2.386515998840332031e+01 -1.201442241668701172e+01 4.236250877380371094e+00 6.999072074890136719e+00 3.370596885681152344e+00 -2.546892166137695312e-01
2.100000000000000000e+02 2.235355567932128906e+01 -1.126850891113281250e+01 8.508389472961425781e+00 5.134046673774719238e-01 2.706538200378417969e+00 1.336904644966125488e+00
2.110000000000000000e+02 2.162224006652832031e+01 -1.054880809783935547e+01 4.536797046661376953e+00 -9.162076115608215332e-01 1.086176872253417969e+00 -1.050665140151977539e+00
2.120000000000000000e+02 2.231311035156250000e+01 -9.213880538940429688e+00 3.867867290973663330e-01 6.506770849227905273e-01 3.112391531467437744e-01 -4.715013206005096436e-01
2.130000000000000000e+02 2.287720870971679688e+01 -1.203818416595458984e+01 4.406065940856933594e+00 5.608067989349365234e+00 3.004240274429321289e+00 3.123128414154052734e+00
2.140000000000000000e+02 2.316356468200683594e+01 -1.196595001220703125e+01 4.353912353515625000e+00 7.132784366607666016e+00 3.446008920669555664e+00 2.641717195510864258e+00
2.150000000000000000e+02 2.340121650695800781e+01 -1.198811054229736328e+01 4.338324069976806641e+00 7.556107521057128906e+00 3.568329334259033203e+00 1.166422247886657715e+00
2.160000000000000000e+02 2.267865180969238281e+01 -1.164905357360839844e+01 7.983471393585205078e+00 3.776545286178588867e+00 3.528005123138427734e+00 3.611125707626342773e+00
2.170000000000000000e+02 2.238909149169921875e+01 -1.172663974761962891e+01 6.728081703186035156e+00 1.655894994735717773e+00 2.515192985534667969e+00 3.218545198440551758e+00
2.180000000000000000e+02 2.235498046875000000e+01 -1.001386833190917969e+01 1.975010633468627930e+00 1.293102502822875977e+00 9.804339408874511719e-01 -1.717907667160034180e+00
2.190000000000000000e+02 2.240711593627929688e+01 -9.393554687500000000e+00 4.415661990642547607e-01 7.807572484016418457e-01 3.666970431804656982e-01 -6.024892926216125488e-01
2.200000000000000000e+02 2.433902359008789062e+01 -1.170963191986083984e+01 6.512257099151611328e+00 4.930106163024902344e+00 3.432708978652954102e+00 -1.439879536628723145e+00
2.210000000000000000e+02 2.394914817810058594e+01 -9.894440650939941406e+00 1.361439704895019531e+00 7.447721481323242188e+00 2.642748355865478516e+00 2.502523660659790039e+00
2.220000000000000000e+02 2.442020034790039062e+01 -1.012462615966796875e+01 4.030962467193603516e+00 5.469719886779785156e+00 2.850204706192016602e+00 3.550611019134521484e+00
2.230000000000000000e+02 2.463583564758300781e+01 -1.115501308441162109e+01 8.207371711730957031e+00 3.346407413482666016e+00 3.466133832931518555e+00 5.362004637718200684e-01
2.240000000000000000e+02 2.449985313415527344e+01 -1.056181621551513672e+01 7.638521671295166016e+00 4.476449012756347656e+00 3.634491205215454102e+00 3.774322271347045898e+00
2.250000000000000000e+02 2.444130325317382812e+01 -1.077146244049072266e+01 8.023693084716796875e+00 4.625833988189697266e+00 3.794857978820800781e+00 2.742138385772705078e+00
2.260000000000000000e+02 2.466520500183105469e+01 -1.051421642303466797e+01 6.557072162628173828e+00 3.995063304901123047e+00 3.165640592575073242e+00 3.467727184295654297e+00
2.270000000000000000e+02 2.411905670166015625e+01 -9.376765251159667969e+00 5.156178474426269531e-01 5.400020599365234375e+00 1.774691581726074219e+00 1.648970246315002441e+00
2.280000000000000000e+02 2.409156799316406250e+01 -1.155847835540771484e+01 8.171752929687500000e+00 6.541487216949462891e+00 4.413972377777099609e+00 -1.350368499755859375e+00
2.290000000000000000e+02 2.359562873840332031e+01 -1.201537895202636719e+01 3.976391315460205078e+00 8.000790596008300781e+00 3.593154430389404297e+00 4.100845158100128174e-01
2.300000000000000000e+02 2.442840576171875000e+01 -1.104651832580566406e+01 9.805993080139160156e+00 4.027215003967285156e+00 4.149962425231933594e+00 1.072172760963439941e+00
2.310000000000000000e+02 2.440095901489257812e+01 -1.032404518127441406e+01 5.791028022766113281e+00 5.236287593841552734e+00 3.308194637298583984e+00 3.811686277389526367e+00
2.320000000000000000e+02 2.401233673095703125e+01 -9.194761276245117188e+00 2.097015976905822754e-01 5.096961021423339844e+00 1.591998696327209473e+00 1.189776301383972168e+00
2.330000000000000000e+02 2.391332054138183594e+01 -9.007193565368652344e+00 -5.820060893893241882e-02 4.723725795745849609e+00 1.399657487869262695e+00 7.779010534286499023e-01
2.340000000000000000e+02 2.143398857116699219e+01 -1.021664333343505859e+01 3.454985857009887695e+00 -8.133976459503173828e-01 7.924764752388000488e-01 -1.136081099510192871e+00
2.350000000000000000e+02 2.191330146789550781e+01 -1.055096149444580078e+01 5.181645870208740234e+00 -3.899546861648559570e-01 1.437507390975952148e+00 -1.486532092094421387e+00
2.360000000000000000e+02 2.183944320678710938e+01 -1.090314865112304688e+01 6.296477794647216797e+00 -1.105417251586914062e+00 1.557318091392517090e+00 -5.213170647621154785e-01
2.370000000000000000e+02 2.191674613952636719e+01 -1.109887027740478516e+01 6.707145214080810547e+00 -9.366366863250732422e-01 1.731152534484863281e+00 1.507181376218795776e-01
2.380000000000000000e+02 2.225318145751953125e+01 -1.020011234283447266e+01 3.137404203414916992e+00 9.331505298614501953e-01 1.221166491508483887e+00 -2.136605501174926758e+00
2.390000000000000000e+02 2.181563758850097656e+01 -9.863055229187011719e+00 2.311684846878051758e+00 2.365740984678268433e-01 7.644777297973632812e-01 -1.444169878959655762e+00
2.400000000000000000e+02 2.111686325073242188e+01 -8.803960800170898438e+00 8.953534364700317383e-01 -4.240952730178833008e-01 1.413774341344833374e-01 -4.530329406261444092e-01
2.410000000000000000e+02 2.103428459167480469e+01 -9.081171035766601562e+00 1.313936471939086914e+00 -5.635540485382080078e-01 2.251147180795669556e-01 -5.913131833076477051e-01
2.420000000000000000e+02 2.205000686645507812e+01 -9.067237854003906250e+00 4.743930995464324951e-01 3.697982430458068848e-01 2.532574236392974854e-01 -5.182030200958251953e-01
2.430000000000000000e+02 2.147176933288574219e+01 -8.602428436279296875e+00 4.506376981735229492e-01 -1.079487651586532593e-01 1.028066799044609070e-01 -3.330346941947937012e-01
2.440000000000000000e+02 2.267167282104492188e+01 -9.251765251159667969e+00 2.175695598125457764e-01 1.207609295845031738e+00 4.275536537170410156e-01 -4.912598431110382080e-01
2.450000000000000000e+02 2.332399940490722656e+01 -9.503296852111816406e+00 5.893972888588905334e-02 4.130735397338867188e+00 1.256902575492858887e+00 -4.994609951972961426e-01
2.460000000000000000e+02 2.361970138549804688e+01 -8.469342231750488281e+00 -2.088661193847656250e-01 3.292953252792358398e+00 9.252261519432067871e-01 1.905507147312164307e-01
2.470000000000000000e+02 2.342606163024902344e+01 -8.110729217529296875e+00 -2.427674233913421631e-01 2.595941066741943359e+00 7.059520483016967773e-01 6.358155608177185059e-02
2.480000000000000000e+02 2.391693878173828125e+01 -9.556866645812988281e+00 4.327915310859680176e-01 6.103169441223144531e+00 1.960788249969482422e+00 1.410186409950256348e+00
2.490000000000000000e+02 2.350198745727539062e+01 -8.789484977722167969e+00 -1.348385661840438843e-01 3.482612848281860352e+00 1.004332304000854492e+00 4.509324207901954651e-03
2.500000000000000000e+02 2.246254158020019531e+01 -8.906585693359375000e+00 1.650255024433135986e-01 8.672139644622802734e-01 3.096718490123748779e-01 -3.907118141651153564e-01
2.510000000000000000e+02 2.331628990173339844e+01 -8.431360244750976562e+00 -1.536408513784408569e-01 2.693212747573852539e+00 7.618715763092041016e-01 -1.248105764389038086e-01
2.520000000000000000e+02 2.423276138305664062e+01 -9.553209304809570312e+00 1.100408792495727539e+00 5.755906105041503906e+00 2.056894540786743164e+00 2.371573686599731445e+00
2.530000000000000000e+02 2.425444030761718750e+01 -1.025914096832275391e+01 4.715907096862792969e+00 6.399888515472412109e+00 3.334738731384277344e+00 3.935671806335449219e+00
2.540000000000000000e+02 2.371727180480957031e+01 -8.646501541137695312e+00 -2.112631797790527344e-01 3.695760965347290039e+00 1.045349359512329102e+00 3.232042193412780762e-01
2.550000000000000000e+02 2.129379272460937500e+01 -8.699857711791992188e+00 7.100667357444763184e-01 -2.795914113521575928e-01 1.291425824165344238e-01 -3.609144389629364014e-01
2.560000000000000000e+02 2.246767234802246094e+01 -8.207157135009765625e+00 2.272994071245193481e-02 1.069062829017639160e+00 3.275378346443176270e-01 -3.029108643531799316e-01
2.570000000000000000e+02 2.258477973937988281e+01 -7.911620140075683594e+00 -6.782024353742599487e-02 1.228113174438476562e+00 3.480878770351409912e-01 -2.120424062013626099e-01
2.580000000000000000e+02 2.230755615234375000e+01 -8.277359008789062500e+00 8.381557464599609375e-02 7.896773815155029297e-01 2.620478868484497070e-01 -2.695860862731933594e-01
2.590000000000000000e+02 2.255187606811523438e+01 -1.008185863494873047e+01 1.782255649566650391e+00 1.583612084388732910e+00 1.009760379791259766e+00 -1.783930540084838867e+00
2.600000000000000000e+02 2.227739715576171875e+01 -9.669474601745605469e+00 1.030954241752624512e+00 9.779086112976074219e-01 6.026588678359985352e-01 -1.134822607040405273e+00
2.610000000000000000e+02 2.214630508422851562e+01 -8.397005081176757812e+00 1.226915195584297180e-01 5.670329332351684570e-01 2.069173306226730347e-01 -2.651444077491760254e-01
2.620000000000000000e+02 2.116666984558105469e+01 -9.679129600524902344e+00 2.111803054809570312e+00 -6.947067975997924805e-01 4.251288771629333496e-01 -8.459425568580627441e-01
2.630000000000000000e+02 2.173638343811035156e+01 -1.071618461608886719e+01 5.341803550720214844e+00 -9.232376217842102051e-01 1.325569868087768555e+00 -9.418666958808898926e-01
2.640000000000000000e+02 2.126407814025878906e+01 -9.854700088500976562e+00 2.554096221923828125e+00 -7.791287899017333984e-01 5.324901938438415527e-01 -8.836823105812072754e-01
2.650000000000000000e+02 2.184396553039550781e+01 -9.411882400512695312e+00 1.187535524368286133e+00 3.381438255310058594e-01 4.577038288116455078e-01 -9.098472595214843750e-01
2.660000000000000000e+02 2.129246330261230469e+01 -9.169935226440429688e+00 1.258679986000061035e+00 -2.817721068859100342e-01 2.930723726749420166e-01 -7.116565704345703125e-01
2.670000000000000000e+02 2.135026741027832031e+01 -1.003849697113037109e+01 2.909546375274658203e+00 -7.297878861427307129e-01 6.539275646209716797e-01 -1.057449936866760254e+00
2.680000000000000000e+02 2.207303428649902344e+01 -1.084750556945800781e+01 6.757759571075439453e+00 -4.460421204566955566e-01 1.893515229225158691e+00 -1.005269646644592285e+00
2.690000000000000000e+02 2.105807113647460938e+01 -9.519694328308105469e+00 1.929975509643554688e+00 -6.601528525352478027e-01 3.809467852115631104e-01 -7.962413430213928223e-01
2.700000000000000000e+02 2.215276527404785156e+01 -8.890907287597656250e+00 2.465054094791412354e-01 3.354215919971466064e-01 1.745781004428863525e-01 -2.741222977638244629e-01
2.710000000000000000e+02 2.203871917724609375e+01 -8.746342658996582031e+00 1.713041216135025024e-01 2.239510118961334229e-01 1.185765415430068970e-01 -2.179999202489852905e-01
2.720000000000000000e+02 2.198593902587890625e+01 -1.035685253143310547e+01 4.228802204132080078e+00 -1.957602798938751221e-02 1.262767910957336426e+00 -1.800904870033264160e+00
2.730000000000000000e+02 2.236527824401855469e+01 -8.723243713378906250e+00 1.423052549362182617e-01 7.818739414215087891e-01 2.772537469863891602e-01 -3.412799537181854248e-01
2.740000000000000000e+02 2.173496627807617188e+01 -8.745768547058105469e+00 4.426013529300689697e-01 8.384526520967483521e-02 1.579339802265167236e-01 -3.897761404514312744e-01
2.750000000000000000e+02 2.267205810546875000e+01 -8.813612937927246094e+00 1.217632368206977844e-01 1.348310351371765137e+00 4.410220682621002197e-01 -4.386141002178192139e-01
2.760000000000000000e+02 2.355649566650390625e+01 -9.466175079345703125e+00 -2.703508548438549042e-02 5.075980663299560547e+00 1.514683723449707031e+00 8.950103074312210083e-02
2.770000000000000000e+02 2.182621383666992188e+01 -1.008594703674316406e+01 3.038759946823120117e+00 -3.342499211430549622e-02 9.016004800796508789e-01 -1.545497894287109375e+00
2.780000000000000000e+02 2.140692138671875000e+01 -9.486913681030273438e+00 1.712028741836547852e+00 -2.372426688671112061e-01 4.424358308315277100e-01 -9.348802566528320312e-01
2.790000000000000000e+02 2.273158645629882812e+01 -8.963134765625000000e+00 1.653348654508590698e-01 1.455353021621704102e+00 4.862063825130462646e-01 -4.844043850898742676e-01
2.800000000000000000e+02 2.284366989135742188e+01 -8.477825164794921875e+00 -1.303849369287490845e-02 1.787509799003601074e+00 5.323413610458374023e-01 -3.443477451801300049e-01
2.810000000000000000e+02 2.255841445922851562e+01 -8.520190238952636719e+00 1.074939072132110596e-01 1.169933676719665527e+00 3.832282721996307373e-01 -3.838584423065185547e-01
2.820000000000000000e+02 2.378946304321289062e+01 -9.359556198120117188e+00 2.470964193344116211e-02 5.430680274963378906e+00 1.636616945266723633e+00 7.290985584259033203e-01
2.830000000000000000e+02 2.339770507812500000e+01 -9.104498863220214844e+00 -5.289735272526741028e-02 3.648693084716796875e+00 1.078738689422607422e+00 -2.435338050127029419e-01
2.840000000000000000e+02 2.285338592529296875e+01 -8.005856513977050781e+00 -1.220730170607566833e-01 1.697578668594360352e+00 4.726516902446746826e-01 -1.978377550840377808e-01
2.850000000000000000e+02 2.147864723205566406e+01 -9.058348655700683594e+00 9.832065105438232422e-01 -1.144074648618698120e-01 2.606397271156311035e-01 -5.864604115486145020e-01
2.860000000000000000e+02 2.137247276306152344e+01 -8.890653610229492188e+00 8.478760123252868652e-01 -2.409654706716537476e-01 1.820731610059738159e-01 -5.052408576011657715e-01
2.870000000000000000e+02 2.112329292297363281e+01 -9.240913391113281250e+00 1.440604686737060547e+00 -5.253271460533142090e-01 2.745832800865173340e-01 -6.293399333953857422e-01
2.880000000000000000e+02 2.157651710510253906e+01 -9.926324844360351562e+00 2.681734800338745117e+00 -3.509504199028015137e-01 6.992353200912475586e-01 -1.211877584457397461e+00
2.890000000000000000e+02 2.340697669982910156e+01 -8.613655090332031250e+00 -1.782646775245666504e-01 3.117482185363769531e+00 8.817652463912963867e-01 -5.625724419951438904e-02
2.900000000000000000e+02 2.186114120483398438e+01 -8.965457916259765625e+00 5.474519133567810059e-01 2.578800618648529053e-01 2.415995895862579346e-01 -4.870764315128326416e-01
2.910000000000000000e+02 2.165153884887695312e+01 -9.233063697814941406e+00 1.030705928802490234e+00 5.817891657352447510e-02 3.266654610633850098e-01 -7.618639469146728516e-01
2.920000000000000000e+02 2.323177909851074219e+01 -7.750255584716796875e+00 -2.479813992977142334e-01 2.135511159896850586e+00 5.662589669227600098e-01 -2.475576661527156830e-02
2.930000000000000000e+02 2.222728347778320312e+01 -8.113258361816406250e+00 2.768421545624732971e-02 6.934170722961425781e-01 2.163303941488265991e-01 -2.517900168895721436e-01
2.940000000000000000e+02 2.313591575622558594e+01 -8.063581466674804688e+00 -1.899741142988204956e-01 2.149507761001586914e+00 5.878601074218750000e-01 -1.274107694625854492e-01
2.950000000000000000e+02 2.322735404968261719e+01 -8.246160507202148438e+00 -1.757823824882507324e-01 2.418857336044311523e+00 6.729224920272827148e-01 -1.247137039899826050e-01
2.960000000000000000e+02 2.241857147216796875e+01 -8.398135185241699219e+00 1.061174869537353516e-01 9.617210626602172852e-01 3.203515708446502686e-01 -3.242740035057067871e-01
2.970000000000000000e+02 2.304697227478027344e+01 -9.086359024047851562e+00 6.979791820049285889e-02 2.465422391891479492e+00 7.605661153793334961e-01 -5.447218418121337891e-01
2.980000000000000000e+02 2.313470268249511719e+01 -9.750364303588867188e+00 2.939291000366210938e-01 3.160610198974609375e+00 1.036361813545227051e+00 -8.736933469772338867e-01
2.990000000000000000e+02 2.154274940490722656e+01 -8.835034370422363281e+00 6.698565483093261719e-01 -7.560421526432037354e-02 1.782756894826889038e-01 -4.741068482398986816e-01
3.000000000000000000e+02 2.223952865600585938e+01 -9.039192199707031250e+00 2.598972916603088379e-01 5.059937238693237305e-01 2.297672927379608154e-01 -4.096057415008544922e-01
3.010000000000000000e+02 2.207589149475097656e+01 -9.282871246337890625e+00 7.085213661193847656e-01 4.858866035938262939e-01 3.583224117755889893e-01 -6.785320639610290527e-01
3.020000000000000000e+02 2.250511741638183594e+01 -9.571567535400390625e+00 5.948002934455871582e-01 9.612910151481628418e-01 4.668273925781250000e-01 -7.301564812660217285e-01
3.030000000000000000e+02 2.259991073608398438e+01 -9.755156517028808594e+00 6.857379674911499023e-01 1.176034212112426758e+00 5.585317015647888184e-01 -9.238583445549011230e-01
3.040000000000000000e+02 2.120763778686523438e+01 -8.984186172485351562e+00 9.963794946670532227e-01 -3.557471632957458496e-01 1.921897083520889282e-01 -4.943492412567138672e-01
3.050000000000000000e+02 2.093898963928222656e+01 -8.911772727966308594e+00 1.068552851676940918e+00 -6.232810616493225098e-01 1.335815489292144775e-01 -4.011094868183135986e-01
3.060000000000000000e+02 2.352278709411621094e+01 -8.290733337402343750e+00 -2.504071891307830811e-01 2.995938777923583984e+00 8.236594796180725098e-01 1.333421766757965088e-01
3.070000000000000000e+02 2.360188865661621094e+01 -8.960832595825195312e+00 -1.354372054338455200e-01 3.984900951385498047e+00 1.154839158058166504e+00 1.495437622070312500e-01
3.080000000000000000e+02 2.243680381774902344e+01 -1.025873279571533203e+01 3.076628446578979492e+00 1.534937620162963867e+00 1.383469820022583008e+00 -2.349611043930053711e+00
3.090000000000000000e+02 2.217137908935546875e+01 -1.040005016326904297e+01 4.316789150238037109e+00 5.619298815727233887e-01 1.463615655899047852e+00 -2.108566761016845703e+00
3.100000000000000000e+02 2.309286499023437500e+01 -9.544094085693359375e+00 1.271645277738571167e-01 2.809098482131958008e+00 8.808789253234863281e-01 -8.182486891746520996e-01
3.110000000000000000e+02 2.334427452087402344e+01 -9.719665527343750000e+00 1.575068011879920959e-02 4.550049304962158203e+00 1.369740009307861328e+00 -6.686449050903320312e-01
3.120000000000000000e+02 2.209568977355957031e+01 -1.061869716644287109e+01 5.840136051177978516e+00 -2.658985555171966553e-01 1.672271251678466797e+00 -1.712880969047546387e+00
3.130000000000000000e+02 2.229139518737792969e+01 -1.064244937896728516e+01 6.367714405059814453e+00 3.991788327693939209e-01 2.030067920684814453e+00 -2.059120416641235352e+00
3.140000000000000000e+02 2.151574897766113281e+01 -9.701686859130859375e+00 2.020176172256469727e+00 -1.743461936712265015e-01 5.537489652633666992e-01 -1.125275492668151855e+00
3.150000000000000000e+02 2.162750816345214844e+01 -1.011434841156005859e+01 3.070104360580444336e+00 -3.313167095184326172e-01 8.216363191604614258e-01 -1.299630045890808105e+00
3.160000000000000000e+02 2.152469825744628906e+01 -1.038464546203613281e+01 4.011837959289550781e+00 -8.057280182838439941e-01 9.618330001831054688e-01 -1.162863016128540039e+00
3.170000000000000000e+02 2.180558586120605469e+01 -1.040883636474609375e+01 4.295304298400878906e+00 -3.895736038684844971e-01 1.171719193458557129e+00 -1.528603196144104004e+00
3.180000000000000000e+02 2.209225845336914062e+01 -1.143173027038574219e+01 7.281991004943847656e+00 -4.868518710136413574e-01 2.038541793823242188e+00 1.130241155624389648e+00
3.190000000000000000e+02 2.381550025939941406e+01 -8.824329376220703125e+00 -1.067117378115653992e-01 4.110772132873535156e+00 1.201218128204345703e+00 5.068895816802978516e-01
3.200000000000000000e+02 2.446321487426757812e+01 -9.907646179199218750e+00 2.742931365966796875e+00 5.661233425140380859e+00 2.521249532699584961e+00 3.589795351028442383e+00
3.210000000000000000e+02 2.433022499084472656e+01 -1.129079532623291016e+01 8.845847129821777344e+00 4.775949001312255859e+00 4.086538791656494141e+00 2.136295735836029053e-01
3.220000000000000000e+02 2.406976509094238281e+01 -9.718869209289550781e+00 9.677054286003112793e-01 6.565948963165283203e+00 2.260096311569213867e+00 2.261689424514770508e+00
3.230000000000000000e+02 2.393600082397460938e+01 -1.169996452331542969e+01 6.829255580902099609e+00 7.549047946929931641e+00 4.313491344451904297e+00 -1.339076519012451172e+00
3.240000000000000000e+02 2.420131683349609375e+01 -9.883762359619140625e+00 2.142833471298217773e+00 6.470314025878906250e+00 2.583944320678710938e+00 3.091776132583618164e+00
3.250000000000000000e+02 2.409204292297363281e+01 -1.002095508575439453e+01 2.464032411575317383e+00 7.297979354858398438e+00 2.928603649139404297e+00 3.398277044296264648e+00
3.260000000000000000e+02 2.406002616882324219e+01 -1.170072746276855469e+01 7.000799179077148438e+00 7.075301170349121094e+00 4.222830295562744141e+00 -1.292905092239379883e+00
3.270000000000000000e+02 2.279458808898925781e+01 -1.180702877044677734e+01 6.325877666473388672e+00 5.091711997985839844e+00 3.425276994705200195e+00 3.589902162551879883e+00
3.280000000000000000e+02 2.216226005554199219e+01 -1.128134536743164062e+01 7.572711944580078125e+00 -3.594310879707336426e-01 2.163984298706054688e+00 9.589344263076782227e-01
3.290000000000000000e+02 2.227548217773437500e+01 -1.084675788879394531e+01 7.828495025634765625e+00 -1.864792555570602417e-01 2.292604684829711914e+00 -1.191362738609313965e+00
3.300000000000000000e+02 2.294079017639160156e+01 -8.192117691040039062e+00 -1.013006120920181274e-01 1.891286849975585938e+00 5.369958281517028809e-01 -2.233279049396514893e-01
3.310000000000000000e+02 2.310114288330078125e+01 -8.564590454101562500e+00 -6.319858133792877197e-02 2.356086254119873047e+00 6.878662705421447754e-01 -2.751022875308990479e-01
3.320000000000000000e+02 2.318490791320800781e+01 -8.760965347290039062e+00 -3.100443072617053986e-02 2.617365121841430664e+00 7.759082317352294922e-01 -3.500450849533081055e-01
3.330000000000000000e+02 2.349871635437011719e+01 -9.255310058593750000e+00 -6.162997335195541382e-02 4.401400089263916016e+00 1.301931023597717285e+00 -3.571786358952522278e-02
3.340000000000000000e+02 2.369860839843750000e+01 -9.145384788513183594e+00 -5.288792401552200317e-02 4.521092414855957031e+00 1.340461373329162598e+00 3.375300765037536621e-01
3.350000000000000000e+02 2.176098632812500000e+01 -9.633225440979003906e+00 1.649819850921630859e+00 1.536040753126144409e-01 5.410271883010864258e-01 -1.105762600898742676e+00
3.360000000000000000e+02 2.217055511474609375e+01 -9.941750526428222656e+00 2.113813638687133789e+00 7.764540314674377441e-01 8.670803308486938477e-01 -1.637834310531616211e+00
3.370000000000000000e+02 2.218078422546386719e+01 -9.485391616821289062e+00 9.580129981040954590e-01 7.207071781158447266e-01 5.036160349845886230e-01 -9.081156253814697266e-01
3.380000000000000000e+02 2.204135894775390625e+01 -1.013809585571289062e+01 3.010394096374511719e+00 5.507835149765014648e-01 1.068353295326232910e+00 -1.788091421127319336e+00
3.390000000000000000e+02 2.330347824096679688e+01 -9.288777351379394531e+00 -2.099127694964408875e-02 3.650767326354980469e+00 1.088932871818542480e+00 -4.253446757793426514e-01
3.400000000000000000e+02 2.124719047546386719e+01 -9.356013298034667969e+00 1.462854623794555664e+00 -4.147349298000335693e-01 3.144358992576599121e-01 -7.751457691192626953e-01
3.410000000000000000e+02 2.302861213684082031e+01 -8.369979858398437500e+00 -9.423323720693588257e-02 2.086328506469726562e+00 5.976285934448242188e-01 -2.653192281723022461e-01
3.420000000000000000e+02 2.274077033996582031e+01 -8.329040527343750000e+00 -1.761124469339847565e-02 1.568716287612915039e+00 4.653315246105194092e-01 -3.313198089599609375e-01
3.430000000000000000e+02 2.205193901062011719e+01 -9.781166076660156250e+00 1.718029260635375977e+00 6.800670623779296875e-01 7.194288969039916992e-01 -1.334313273429870605e+00
3.440000000000000000e+02 2.328189277648925781e+01 -8.950133323669433594e+00 -5.874402448534965515e-02 3.173357009887695312e+00 9.343839287757873535e-01 -3.170426785945892334e-01
3.450000000000000000e+02 2.285405731201171875e+01 -9.078280448913574219e+00 1.944311559200286865e-01 1.804549336433410645e+00 5.996941328048706055e-01 -6.379292607307434082e-01
3.460000000000000000e+02 2.271163177490234375e+01 -8.625221252441406250e+00 1.075174733996391296e-01 1.469573140144348145e+00 4.731271862983703613e-01 -4.480040669441223145e-01
3.470000000000000000e+02 2.289414596557617188e+01 -8.639227867126464844e+00 1.607932522892951965e-02 1.963935852050781250e+00 5.940045118331909180e-01 -4.248568415641784668e-01
3.480000000000000000e+02 2.197163581848144531e+01 -9.584572792053222656e+00 1.301011800765991211e+00 5.725123286247253418e-01 5.620571970939636230e-01 -1.141901969909667969e+00
3.490000000000000000e+02 2.285103607177734375e+01 -8.819908142089843750e+00 9.461974352598190308e-02 1.924651980400085449e+00 6.057814955711364746e-01 -5.118994116783142090e-01
3.500000000000000000e+02 2.196292877197265625e+01 -6.932823181152343750e+00 -2.041323333978652954e-01 5.587618350982666016e-01 1.063888594508171082e-01 -5.152721889317035675e-03
3.510000000000000000e+02 2.235762023925781250e+01 -7.419122219085693359e+00 -1.778909265995025635e-01 9.491361975669860840e-01 2.313735783100128174e-01 -1.004996597766876221e-01
3.520000000000000000e+02 2.150674629211425781e+01 -7.071362972259521484e+00 -1.119397953152656555e-01 1.010966524481773376e-01 -3.252943279221653938e-03 3.957202658057212830e-02
3.530000000000000000e+02 2.261046218872070312e+01 -7.569607734680175781e+00 -1.953481286764144897e-01 1.286261439323425293e+00 3.272739648818969727e-01 -1.231834515929222107e-01
3.540000000000000000e+02 2.113850975036621094e+01 -6.414106845855712891e+00 -2.061425447463989258e-01 -5.894951894879341125e-02 -7.952762395143508911e-02 1.648775041103363037e-01
3.550000000000000000e+02 2.274544143676757812e+01 -7.405561447143554688e+00 -2.564525902271270752e-01 1.465251564979553223e+00 3.626396954059600830e-01 -9.775462746620178223e-02
3.560000000000000000e+02 2.290900802612304688e+01 -7.235304355621337891e+00 -3.097016513347625732e-01 1.611846089363098145e+00 3.906433284282684326e-01 -2.777027338743209839e-02
3.570000000000000000e+02 2.128743171691894531e+01 -5.302952766418457031e+00 -4.524865150451660156e-01 2.129056006669998169e-01 -7.187427580356597900e-02 2.273524403572082520e-01
3.580000000000000000e+02 2.072187995910644531e+01 -5.787418842315673828e+00 -3.358713388442993164e-01 -2.420054078102111816e-01 -1.733630299568176270e-01 3.070977628231048584e-01
3.590000000000000000e+02 2.167165184020996094e+01 -5.881870269775390625e+00 -3.793702125549316406e-01 4.116552472114562988e-01 9.685512632131576538e-03 1.471775919198989868e-01
3.600000000000000000e+02 2.181968498229980469e+01 -7.553109169006347656e+00 -3.450030088424682617e-02 3.112588524818420410e-01 8.302757143974304199e-02 -1.090049520134925842e-01
3.610000000000000000e+02 2.185058975219726562e+01 -7.900583744049072266e+00 6.925677508115768433e-02 2.931175529956817627e-01 1.087122932076454163e-01 -1.340476423501968384e-01
3.620000000000000000e+02 2.208186149597167969e+01 -7.418878555297851562e+00 -1.202057525515556335e-01 5.961163043975830078e-01 1.427731662988662720e-01 -7.766518741846084595e-02
3.630000000000000000e+02 2.226510047912597656e+01 -7.762591361999511719e+00 -1.981706358492374420e-02 8.235905170440673828e-01 2.411320358514785767e-01 -1.887807846069335938e-01
3.640000000000000000e+02 2.253625297546386719e+01 -6.780151367187500000e+00 -3.129901885986328125e-01 1.149566173553466797e+00 2.509728074073791504e-01 -7.816265337169170380e-03
3.650000000000000000e+02 2.239026641845703125e+01 -7.106707096099853516e+00 -2.407356053590774536e-01 1.016701936721801758e+00 2.327899038791656494e-01 -4.774721339344978333e-02
3.660000000000000000e+02 2.210573196411132812e+01 -6.369546413421630859e+00 -3.245300352573394775e-01 7.086919546127319336e-01 1.152485758066177368e-01 5.165923386812210083e-02
3.670000000000000000e+02 2.245581817626953125e+01 -7.681204795837402344e+00 -1.111822202801704407e-01 1.052184224128723145e+00 2.823006212711334229e-01 -1.587369292974472046e-01
3.680000000000000000e+02 2.208264160156250000e+01 -7.862285137176513672e+00 5.694739520549774170e-02 6.431753039360046387e-01 2.100367993116378784e-01 -1.876495331525802612e-01
3.690000000000000000e+02 1.920084571838378906e+01 -2.946005821228027344e+00 -6.824888586997985840e-01 -3.364941179752349854e-01 -3.056949079036712646e-01 4.467040598392486572e-01
3.700000000000000000e+02 2.083261680603027344e+01 -4.721695899963378906e+00 -5.063608884811401367e-01 3.166167065501213074e-02 -1.424097567796707153e-01 2.990820109844207764e-01
3.710000000000000000e+02 1.974656295776367188e+01 -3.537436008453369141e+00 -6.512356996536254883e-01 -2.583704590797424316e-01 -2.728818356990814209e-01 4.560964107513427734e-01
3.720000000000000000e+02 1.870244216918945312e+01 -3.497282505035400391e+00 -7.853782773017883301e-01 -6.347215175628662109e-01 -4.260299503803253174e-01 6.595441102981567383e-01
3.730000000000000000e+02 1.922434425354003906e+01 -4.062799930572509766e+00 -6.043674349784851074e-01 -5.499743819236755371e-01 -3.463025391101837158e-01 5.825870633125305176e-01
3.740000000000000000e+02 1.974456596374511719e+01 -4.629005432128906250e+00 -5.340660214424133301e-01 -4.570891559123992920e-01 -2.973465621471405029e-01 5.041179060935974121e-01
3.750000000000000000e+02 2.026276969909667969e+01 -5.195233345031738281e+00 -4.626938104629516602e-01 -3.768944740295410156e-01 -2.518764734268188477e-01 4.187124967575073242e-01
3.760000000000000000e+02 2.029059791564941406e+01 -4.129554748535156250e+00 -5.506481528282165527e-01 -1.600252836942672729e-01 -2.132020443677902222e-01 3.931404948234558105e-01
3.770000000000000000e+02 1.724629974365234375e+01 -1.505973219871520996e+00 -6.937721371650695801e-01 -4.096144139766693115e-01 -3.310159742832183838e-01 5.039557814598083496e-01
3.780000000000000000e+02 1.620514488220214844e+01 -1.697480440139770508e+00 -8.579126000404357910e-01 -3.922388553619384766e-01 -3.750454485416412354e-01 5.341488122940063477e-01
3.790000000000000000e+02 1.748624420166015625e+01 -2.562495470046997070e+00 -8.462035655975341797e-01 -4.422146975994110107e-01 -3.865254819393157959e-01 6.107094883918762207e-01
3.800000000000000000e+02 1.812313652038574219e+01 -2.997157573699951172e+00 -8.986794948577880859e-01 -5.681548118591308594e-01 -4.400503039360046387e-01 6.642202734947204590e-01
3.810000000000000000e+02 1.859226417541503906e+01 -2.421155929565429688e+00 -6.516802310943603516e-01 -4.386947154998779297e-01 -3.271124660968780518e-01 4.780138134956359863e-01
3.820000000000000000e+02 1.657006454467773438e+01 -1.050868153572082520e+00 -6.498501300811767578e-01 -4.052737653255462646e-01 -3.165371716022491455e-01 4.420039951801300049e-01
3.830000000000000000e+02 1.792063713073730469e+01 -1.962957024574279785e+00 -6.685616374015808105e-01 -4.616458714008331299e-01 -3.390622437000274658e-01 5.349529981613159180e-01
3.840000000000000000e+02 1.684664344787597656e+01 -2.129048585891723633e+00 -8.106020092964172363e-01 -4.163110256195068359e-01 -3.680739104747772217e-01 5.741305351257324219e-01
3.850000000000000000e+02 1.437439537048339844e+01 -8.830149471759796143e-02 -5.891153812408447266e-01 -2.158467620611190796e-01 -2.414886355400085449e-01 3.213624060153961182e-01
3.860000000000000000e+02 1.338726615905761719e+01 -4.958960413932800293e-01 -6.046000123023986816e-01 -1.219445690512657166e-01 -2.179633677005767822e-01 2.429974079132080078e-01
3.870000000000000000e+02 1.481616306304931641e+01 -1.058209896087646484e+00 -7.092307806015014648e-01 -1.717868894338607788e-01 -2.643052935600280762e-01 3.402085602283477783e-01
3.880000000000000000e+02 1.552819252014160156e+01 -1.340840697288513184e+00 -8.358966112136840820e-01 -2.881050407886505127e-01 -3.372004926204681396e-01 4.405209124088287354e-01
3.890000000000000000e+02 1.586064529418945312e+01 -6.765008568763732910e-01 -6.085588335990905762e-01 -3.795356452465057373e-01 -2.964283227920532227e-01 4.204421043395996094e-01
3.900000000000000000e+02 1.362912273406982422e+01 2.041978091001510620e-01 -5.448421835899353027e-01 -1.810517907142639160e-01 -2.177681922912597656e-01 2.706822454929351807e-01
3.910000000000000000e+02 1.511841678619384766e+01 -3.819521367549896240e-01 -6.113187670707702637e-01 -2.965939640998840332e-01 -2.723738253116607666e-01 3.985151946544647217e-01
3.920000000000000000e+02 1.410233974456787109e+01 -7.764772772789001465e-01 -6.304416060447692871e-01 -1.408238410949707031e-01 -2.313796430826187134e-01 2.884637415409088135e-01
3.930000000000000000e+02 1.131013679504394531e+01 8.408998847007751465e-01 -4.604460895061492920e-01 -7.979884743690490723e-02 -1.620734781026840210e-01 1.578674912452697754e-01
3.940000000000000000e+02 1.042135906219482422e+01 2.992311716079711914e-01 -4.480979740619659424e-01 -4.754056781530380249e-02 -1.486915647983551025e-01 1.046479791402816772e-01
3.950000000000000000e+02 1.191366195678710938e+01 -7.340838760137557983e-02 -4.933105707168579102e-01 -5.499104037880897522e-02 -1.644904911518096924e-01 1.500021070241928101e-01
3.960000000000000000e+02 1.265766906738281250e+01 -2.614961266517639160e-01 -5.610011219978332520e-01 -8.334533125162124634e-02 -1.933039426803588867e-01 1.944971233606338501e-01
3.970000000000000000e+02 1.286749935150146484e+01 4.488001465797424316e-01 -5.114920139312744141e-01 -1.490341722965240479e-01 -1.981578469276428223e-01 2.309281378984451294e-01
3.980000000000000000e+02 1.052962684631347656e+01 1.034987807273864746e+00 -4.047079980373382568e-01 -6.759934872388839722e-02 -1.416922062635421753e-01 1.359882056713104248e-01
3.990000000000000000e+02 1.116801452636718750e+01 1.136300638318061829e-01 -4.532489180564880371e-01 -3.793817386031150818e-02 -1.473561227321624756e-01 1.319835931062698364e-01
4.000000000000000000e+02 1.208963775634765625e+01 6.453746557235717773e-01 -4.888643324375152588e-01 -1.001731902360916138e-01 -1.767112612724304199e-01 2.031539231538772583e-01
4.010000000000000000e+02 9.769897460937500000e+00 1.127334952354431152e+00 -3.583390414714813232e-01 -5.980921164155006409e-02 -1.254444718360900879e-01 1.275163292884826660e-01
4.020000000000000000e+02 8.908253669738769531e+00 3.834950029850006104e-01 -2.948488295078277588e-01 -8.484059944748878479e-03 -9.099986404180526733e-02 3.448720648884773254e-02
4.030000000000000000e+02 8.148585319519042969e+00 3.813146948814392090e-01 -2.283568680286407471e-01 1.730023068375885487e-03 -6.798805296421051025e-02 2.931307815015316010e-02
4.040000000000000000e+02 7.554188251495361328e+00 1.119702935218811035e+00 -2.159968316555023193e-01 -5.277852993458509445e-03 -6.638240814208984375e-02 7.370067387819290161e-02
4.050000000000000000e+02 5.871814727783203125e+00 3.743358254432678223e-01 -8.903513848781585693e-02 -5.368727724999189377e-03 -2.832116000354290009e-02 1.656109839677810669e-02
4.060000000000000000e+02 5.112776756286621094e+00 3.704028129577636719e-01 -5.529962480068206787e-02 1.877730712294578552e-03 -1.602656766772270203e-02 1.504085306078195572e-02
4.070000000000000000e+02 4.353713035583496094e+00 3.684068620204925537e-01 -2.800355851650238037e-02 -3.866677172482013702e-03 -9.561070241034030914e-03 1.084976643323898315e-02
4.080000000000000000e+02 2.836367130279541016e+00 3.604523241519927979e-01 4.892068449407815933e-03 -3.235683543607592583e-03 4.969155415892601013e-04 3.982190508395433426e-03
4.090000000000000000e+02 2.079849958419799805e+00 3.577947616577148438e-01 8.734468370676040649e-03 -6.782784475944936275e-04 2.416856819763779640e-03 6.977868033573031425e-04
4.100000000000000000e+02 2.391217708587646484e+00 1.097794771194458008e+00 -1.212509628385305405e-02 -1.032762415707111359e-02 -6.735816132277250290e-03 9.058744646608829498e-03
4.110000000000000000e+02 1.668007969856262207e+00 1.106352806091308594e+00 -3.428224707022309303e-03 -5.649962928146123886e-03 -2.723456360399723053e-03 1.050600782036781311e-03
4.120000000000000000e+02 3.545288145542144775e-01 9.535720348358154297e-01 -1.465775072574615479e-03 2.644217805936932564e-03 3.535328432917594910e-04 -2.499920781701803207e-03
4.130000000000000000e+02 1.335685014724731445e+00 3.663527369499206543e-01 5.264909937977790833e-03 -1.652976963669061661e-03 1.083579962141811848e-03 -2.476653316989541054e-03
4.140000000000000000e+02 3.126780033111572266e+00 1.100452303886413574e+00 -2.616561390459537506e-02 -6.939105223864316940e-03 -9.931415319442749023e-03 1.922925747931003571e-02
4.150000000000000000e+02 3.594501495361328125e+00 3.669418096542358398e-01 -7.438327185809612274e-03 3.975029685534536839e-04 -2.112247282639145851e-03 8.653863333165645599e-03
4.160000000000000000e+02 5.340324878692626953e+00 1.110402822494506836e+00 -9.690133482217788696e-02 -1.008033193647861481e-02 -3.209450095891952515e-02 4.667527601122856140e-02
4.170000000000000000e+02 6.630899906158447266e+00 3.767811954021453857e-01 -1.286722570657730103e-01 3.240197198465466499e-03 -3.762961924076080322e-02 2.126781083643436432e-02
4.180000000000000000e+02 6.816537857055664062e+00 1.116781234741210938e+00 -1.709051728248596191e-01 -1.057826075702905655e-02 -5.444503203034400940e-02 6.259030848741531372e-02
4.190000000000000000e+02 7.389504909515380859e+00 3.797029256820678711e-01 -1.749271452426910400e-01 -6.562887225300073624e-03 -5.444701015949249268e-02 2.235834486782550812e-02
4.200000000000000000e+02 8.292314529418945312e+00 1.121314764022827148e+00 -2.659079730510711670e-01 -1.626063138246536255e-02 -8.465058356523513794e-02 8.310448378324508667e-02
4.210000000000000000e+02 9.031026840209960938e+00 1.123494982719421387e+00 -3.244034945964813232e-01 -2.423408254981040955e-02 -1.045912802219390869e-01 1.093144640326499939e-01
4.220000000000000000e+02 9.668079376220703125e+00 3.873349428176879883e-01 -3.941336274147033691e-01 -2.180304378271102905e-02 -1.247809976339340210e-01 6.447769701480865479e-02
4.230000000000000000e+02 1.010643720626831055e+00 1.130747556686401367e+00 -1.856455579400062561e-03 -1.450340496376156807e-03 -9.920388692989945412e-04 -3.506324952468276024e-03
4.240000000000000000e+02 6.573658585548400879e-01 3.907475173473358154e-01 3.518545068800449371e-03 1.855242298915982246e-03 1.612136256881058216e-03 -2.346640540054067969e-04
4.250000000000000000e+02 6.078407764434814453e+00 1.114335775375366211e+00 -1.321927458047866821e-01 -2.982389414682984352e-03 -4.055254161357879639e-02 5.533231049776077271e-02
4.260000000000000000e+02 4.602215766906738281e+00 1.108406901359558105e+00 -6.856361776590347290e-02 -4.612873774021863937e-03 -2.195294760167598724e-02 3.804662823677062988e-02
4.270000000000000000e+02 3.863959550857543945e+00 1.106941819190979004e+00 -4.486541077494621277e-02 -9.794021025300025940e-03 -1.639783009886741638e-02 2.899706363677978516e-02
4.280000000000000000e+02 1.388111495971679688e+01 -2.388393163681030273e+00 -1.680950403213500977e+00 -2.127614468336105347e-01 -5.681135654449462891e-01 8.433881998062133789e-01
4.290000000000000000e+02 1.301526165008544922e+01 -1.988485813140869141e+00 -1.928287863731384277e+00 -8.707267791032791138e-02 -6.046081781387329102e-01 7.602396607398986816e-01
4.300000000000000000e+02 1.456621360778808594e+01 -1.633289217948913574e+00 -2.093624353408813477e+00 -3.483813703060150146e-01 -7.326017022132873535e-01 8.470194935798645020e-01
4.310000000000000000e+02 1.470362663269042969e+01 -2.776672124862670898e+00 -1.496479153633117676e+00 -2.928892672061920166e-01 -5.368105173110961914e-01 9.703876972198486328e-01
4.320000000000000000e+02 1.522682380676269531e+01 -1.924743771553039551e+00 -1.720931053161621094e+00 -3.151036202907562256e-01 -6.108103990554809570e-01 8.407319784164428711e-01
4.330000000000000000e+02 1.320408344268798828e+01 -1.267461419105529785e+00 -2.144462108612060547e+00 -2.089998573064804077e-01 -7.060385942459106445e-01 7.551602721214294434e-01
4.340000000000000000e+02 1.497323989868164062e+01 -2.346927881240844727e+00 -1.621610999107360840e+00 -3.431110382080078125e-01 -5.894166231155395508e-01 9.688657522201538086e-01
4.350000000000000000e+02 1.393587779998779297e+01 -1.459229350090026855e+00 -2.198096036911010742e+00 -2.988332808017730713e-01 -7.490788102149963379e-01 8.546636700630187988e-01
4.360000000000000000e+02 1.426281070709228516e+01 -1.972140312194824219e+00 -1.838979125022888184e+00 -3.295336067676544189e-01 -6.505538225173950195e-01 8.729170560836791992e-01
4.370000000000000000e+02 8.599326133728027344e+00 -1.904180169105529785e+00 -1.789845108985900879e+00 3.154511749744415283e-01 -4.423181712627410889e-01 -1.054208129644393921e-01
4.380000000000000000e+02 3.705341100692749023e+00 -1.950924038887023926e+00 -6.971063613891601562e-01 -9.400345385074615479e-02 -2.373329401016235352e-01 -6.748066544532775879e-01
4.390000000000000000e+02 5.773779749870300293e-01 -1.074482631683349609e+01 5.504148453474044800e-02 -5.572390079498291016e+00 -1.655204653739929199e+00 -3.582656085491180420e-01
4.400000000000000000e+02 1.038130855560302734e+01 -1.183770179748535156e+01 5.166014194488525391e+00 4.743969440460205078e+00 2.972995281219482422e+00 3.951402902603149414e+00
4.410000000000000000e+02 1.123998546600341797e+01 -1.092524623870849609e+01 3.364882230758666992e+00 2.694782257080078125e+00 1.817899346351623535e+00 2.062974452972412109e+00
4.420000000000000000e+02 1.396799659729003906e+01 -1.061183071136474609e+01 1.689110279083251953e+00 -5.577213168144226074e-01 3.394166827201843262e-01 1.557254433631896973e+00
4.430000000000000000e+02 1.822381019592285156e+01 -8.691750526428222656e+00 1.250145554542541504e+00 -1.758875846862792969e+00 -1.526190936565399170e-01 6.116737723350524902e-01
4.440000000000000000e+02 1.933987998962402344e+01 -7.715871334075927734e+00 6.351056098937988281e-01 -1.167640686035156250e+00 -1.597605198621749878e-01 2.928116321563720703e-01
4.450000000000000000e+02 1.875565910339355469e+01 -1.426399803161621094e+01 -5.003252983093261719e+00 -1.876331686973571777e+00 -2.063875436782836914e+00 2.962007999420166016e+00
4.460000000000000000e+02 2.251985931396484375e+01 -1.342088222503662109e+01 -9.265862107276916504e-01 1.782380938529968262e+00 2.567384243011474609e-01 2.677859306335449219e+00
4.470000000000000000e+02 2.177850723266601562e+01 -1.145982074737548828e+01 5.930639743804931641e+00 -1.179360032081604004e+00 1.425383806228637695e+00 1.231451988220214844e+00
4.480000000000000000e+02 2.222151565551757812e+01 -1.213871479034423828e+01 4.300332546234130859e+00 1.318510532379150391e+00 1.685652852058410645e+00 3.100908994674682617e+00
4.490000000000000000e+02 2.392738533020019531e+01 -1.660729408264160156e+01 -8.214785575866699219e+00 -5.886259675025939941e-01 -2.641023635864257812e+00 2.470530509948730469e+00
4.500000000000000000e+02 2.396545410156250000e+01 -1.257442092895507812e+01 1.838896870613098145e+00 5.418026447296142578e+00 2.177077054977416992e+00 -3.189003765583038330e-01
4.510000000000000000e+02 2.344975662231445312e+01 -1.298207664489746094e+01 5.542452931404113770e-01 4.260908603668212891e+00 1.444546222686767578e+00 1.143730163574218750e+00
4.520000000000000000e+02 1.728633522987365723e+00 -1.084652423858642578e+01 1.515188515186309814e-01 -3.887493133544921875e+00 -1.120792269706726074e+00 -9.968720078468322754e-01
4.530000000000000000e+02 6.326906085014343262e-01 -1.783825874328613281e+01 5.751476809382438660e-02 -6.050750732421875000e+00 -1.797970771789550781e+00 3.149818778038024902e-01
4.540000000000000000e+02 1.170781993865966797e+01 -1.842469215393066406e+01 2.201221704483032227e+00 3.734789609909057617e+00 1.780803442001342773e+00 -2.934044122695922852e+00
4.550000000000000000e+02 9.970650672912597656e+00 -1.612727546691894531e+01 2.251963376998901367e+00 8.464448928833007812e+00 3.214923620223999023e+00 -4.196070194244384766e+00
4.560000000000000000e+02 9.350578308105468750e+00 -1.485585594177246094e+01 2.321044206619262695e+00 1.393401336669921875e+01 4.876517295837402344e+00 -2.069028139114379883e+00
4.570000000000000000e+02 9.497610092163085938e+00 -1.270393276214599609e+01 4.080210208892822266e+00 1.220704078674316406e+01 4.886175155639648438e+00 3.714797496795654297e+00
4.580000000000000000e+02 1.902296423912048340e+00 -1.799422836303710938e+01 1.159440353512763977e-01 -3.932921886444091797e+00 -1.145093321800231934e+00 7.932994365692138672e-01
4.590000000000000000e+02 6.321663856506347656e-01 -2.350290489196777344e+01 1.308006979525089264e-02 -3.205119371414184570e+00 -9.576117992401123047e-01 2.769043743610382080e-01
4.600000000000000000e+02 6.128259181976318359e+00 -3.151854324340820312e+01 -2.773667573928833008e-01 2.158252447843551636e-01 -1.846245490014553070e-02 4.854153394699096680e-01
4.610000000000000000e+02 1.733547401428222656e+01 -4.084025573730468750e+01 -3.046352267265319824e-01 8.023998737335205078e-01 1.493293941020965576e-01 -4.012259095907211304e-02
4.620000000000000000e+02 2.223918342590332031e+01 -4.081126785278320312e+01 -1.588539332151412964e-01 6.403575539588928223e-01 1.444510966539382935e-01 -5.100870132446289062e-02
4.630000000000000000e+02 2.707190704345703125e+01 -4.084753417968750000e+01 -4.812363069504499435e-03 3.763643205165863037e-01 1.114655882120132446e-01 -5.890667438507080078e-02
4.640000000000000000e+02 3.170398902893066406e+01 -3.528096771240234375e+01 1.034493893384933472e-01 9.535565972328186035e-02 5.964151397347450256e-02 -7.775045931339263916e-02
4.650000000000000000e+02 3.289043426513671875e+01 -3.209646987915039062e+01 7.156470417976379395e-02 2.844464499503374100e-03 2.232274971902370453e-02 -1.928460039198398590e-02
4.660000000000000000e+02 2.816538810729980469e+01 -3.311679840087890625e+01 1.488880515098571777e-01 1.555237025022506714e-01 9.132353216409683228e-02 -1.606791317462921143e-01
4.670000000000000000e+02 2.865800094604492188e+01 -3.126903915405273438e+01 1.911515742540359497e-01 9.258908033370971680e-02 8.512219786643981934e-02 -1.124885678291320801e-01
4.680000000000000000e+02 2.728760910034179688e+01 -3.070297622680664062e+01 2.399539053440093994e-01 1.017661914229393005e-01 1.025160253047943115e-01 -1.649541109800338745e-01
4.690000000000000000e+02 1.795769882202148438e+01 -2.628022956848144531e+01 6.963160037994384766e-01 1.113460659980773926e+00 5.429329872131347656e-01 -8.694233298301696777e-01
4.700000000000000000e+02 1.875742912292480469e+01 -2.539976882934570312e+01 1.005220293998718262e+00 1.090050220489501953e+00 6.285811662673950195e-01 -9.575718045234680176e-01
4.710000000000000000e+02 1.570845127105712891e+01 -2.247683334350585938e+01 1.237934231758117676e+00 1.545808672904968262e+00 8.351228237152099609e-01 -1.449957013130187988e+00
4.720000000000000000e+02 1.469532108306884766e+01 -2.149073410034179688e+01 1.482633113861083984e+00 1.935824990272521973e+00 1.025537490844726562e+00 -1.590370297431945801e+00
4.730000000000000000e+02 1.074409389495849609e+01 -1.928343582153320312e+01 1.002976059913635254e+00 4.516299247741699219e+00 1.655782699584960938e+00 -1.822862267494201660e+00
4.740000000000000000e+02 1.516741752624511719e+01 -2.540961456298828125e+01 4.524680972099304199e-01 1.674080491065979004e+00 6.379645466804504395e-01 -8.745596408843994141e-01
4.750000000000000000e+02 1.217600631713867188e+01 -2.453635215759277344e+01 4.421830177307128906e-02 2.093929290771484375e+00 6.414443254470825195e-01 -6.576706767082214355e-01
4.760000000000000000e+02 6.373182535171508789e-01 -2.491837882995605469e+01 -4.692972823977470398e-02 -2.618390560150146484e+00 -7.995961308479309082e-01 2.483524233102798462e-01
4.770000000000000000e+02 6.453113555908203125e-01 -3.055682373046875000e+01 -1.624550670385360718e-02 -1.127805948257446289e+00 -3.432154357433319092e-01 1.159225851297378540e-01
4.780000000000000000e+02 8.510105133056640625e+00 -3.835337066650390625e+01 -2.601725757122039795e-01 4.126140475273132324e-01 4.573244228959083557e-02 1.557622551918029785e-01
4.790000000000000000e+02 1.742750740051269531e+01 -3.755692672729492188e+01 -2.870381474494934082e-01 8.358258008956909180e-01 1.646362990140914917e-01 -9.595806151628494263e-02
4.800000000000000000e+02 6.559776663780212402e-01 -3.195342826843261719e+01 8.461490273475646973e-03 -8.845914602279663086e-01 -2.628389894962310791e-01 1.043846756219863892e-01
4.810000000000000000e+02 7.974254488945007324e-01 -3.731690216064453125e+01 1.095016486942768097e-02 -3.432887494564056396e-01 -9.970157593488693237e-02 4.432890936732292175e-02
4.820000000000000000e+02 7.991075515747070312e+00 -4.110015487670898438e+01 -2.139181792736053467e-01 3.386804461479187012e-01 3.742868080735206604e-02 3.824849054217338562e-02
4.830000000000000000e+02 2.630568265914916992e+00 -3.806622314453125000e+01 -2.134230546653270721e-02 -2.069768905639648438e-01 -6.849575787782669067e-02 1.419143378734588623e-01
4.840000000000000000e+02 3.613423156738281250e+01 -3.752070617675781250e+01 1.237483918666839600e-01 -3.576944395899772644e-02 2.639368362724781036e-02 -5.673445016145706177e-02
4.850000000000000000e+02 3.875837707519531250e+01 -3.249394607543945312e+01 -5.887685343623161316e-03 3.600203897804021835e-03 -6.862443406134843826e-04 -2.108504250645637512e-02
4.860000000000000000e+02 3.735014724731445312e+01 -3.276538085937500000e+01 2.958729676902294159e-02 -1.499081030488014221e-03 8.426464162766933441e-03 -2.129762060940265656e-02
4.870000000000000000e+02 4.242589187622070312e+01 -3.875196456909179688e+01 2.574316859245300293e-01 -2.348728179931640625e-01 6.767655257135629654e-03 -1.334376484155654907e-01
4.880000000000000000e+02 4.275095748901367188e+01 -3.675288391113281250e+01 1.377501189708709717e-01 -2.010132074356079102e-01 -1.897892355918884277e-02 -1.889141350984573364e-01
4.890000000000000000e+02 4.709624862670898438e+01 -3.095037841796875000e+01 -7.428945899009704590e-01 -9.262607246637344360e-02 -2.506561875343322754e-01 -2.774455249309539795e-01
4.900000000000000000e+02 4.309785079956054688e+01 -3.212038421630859375e+01 -2.751021087169647217e-01 -4.974121600389480591e-02 -9.745299816131591797e-02 -1.412775218486785889e-01
4.910000000000000000e+02 4.228256607055664062e+01 -3.417262268066406250e+01 -5.361185222864151001e-02 -1.128163784742355347e-01 -4.992847144603729248e-02 -1.622910350561141968e-01
4.920000000000000000e+02 4.800941085815429688e+01 -3.893753433227539062e+01 4.688968956470489502e-01 -2.670985162258148193e-01 6.053952127695083618e-02 -1.568792462348937988e-01
4.930000000000000000e+02 5.223834609985351562e+01 -3.906277084350585938e+01 6.298412084579467773e-01 1.194370239973068237e-01 2.247834652662277222e-01 -4.831090569496154785e-02
4.940000000000000000e+02 4.985350418090820312e+01 -3.025588798522949219e+01 -1.067591667175292969e+00 -2.574420571327209473e-01 -3.975101113319396973e-01 -5.134425759315490723e-01
4.950000000000000000e+02 4.845879745483398438e+01 -3.064745140075683594e+01 -9.442744851112365723e-01 -2.166061401367187500e-01 -3.482641875743865967e-01 -3.835659623146057129e-01
4.960000000000000000e+02 5.649512100219726562e+01 -3.867657089233398438e+01 6.235687732696533203e-01 1.074179172515869141e+00 5.093243718147277832e-01 5.508954077959060669e-02
4.970000000000000000e+02 5.722255706787109375e+01 -4.123914718627929688e+01 6.648651361465454102e-01 1.260896921157836914e+00 5.777286291122436523e-01 1.156749669462442398e-02
4.980000000000000000e+02 6.173705673217773438e+01 -3.096902847290039062e+01 -1.217236593365669250e-01 2.657851457595825195e+00 7.608383297920227051e-01 5.441562533378601074e-01
4.990000000000000000e+02 6.173475265502929688e+01 -2.252270507812500000e+01 2.902275919914245605e-01 1.304066300392150879e+00 4.782881438732147217e-01 6.595875024795532227e-01
5.000000000000000000e+02 6.076016235351562500e+01 -2.356887626647949219e+01 -9.198331832885742188e-02 6.619130969047546387e-01 1.709789335727691650e-01 2.878782153129577637e-01
5.010000000000000000e+02 5.860541152954101562e+01 -2.546426010131835938e+01 -7.699121832847595215e-01 -7.281409204006195068e-02 -2.528178691864013672e-01 -3.215031325817108154e-01
5.020000000000000000e+02 5.619851303100585938e+01 -2.703920745849609375e+01 -1.134920597076416016e+00 -3.061949610710144043e-01 -4.323346614837646484e-01 -6.138988733291625977e-01
5.030000000000000000e+02 5.689345932006835938e+01 -2.833462333679199219e+01 -6.796370148658752441e-01 1.790163666009902954e-01 -1.501861959695816040e-01 -1.880110949277877808e-01
5.040000000000000000e+02 6.210300445556640625e+01 -4.087937164306640625e+01 4.430197477340698242e-01 3.163469552993774414e+00 1.081946730613708496e+00 9.718277305364608765e-02
5.050000000000000000e+02 6.070041656494140625e+01 -3.785534286499023438e+01 4.068967700004577637e-01 2.559254884719848633e+00 8.898454904556274414e-01 2.310650199651718140e-01
5.060000000000000000e+02 7.192807006835937500e+01 -3.047776412963867188e+01 -4.102712869644165039e-01 7.600875377655029297e+00 2.157181262969970703e+00 -1.168895792216062546e-02
5.070000000000000000e+02 6.699468231201171875e+01 -2.222435760498046875e+01 -6.251485943794250488e-01 7.077466487884521484e+00 1.935695409774780273e+00 1.088737845420837402e+00
5.080000000000000000e+02 7.930594635009765625e+01 -2.223212051391601562e+01 -6.637240946292877197e-02 8.543594360351562500e+00 2.543166637420654297e+00 -3.022205233573913574e-01
5.090000000000000000e+02 7.799526214599609375e+01 -1.648898124694824219e+01 8.352637290954589844e-02 6.793940067291259766e+00 2.063239812850952148e+00 -9.694809913635253906e-01
5.100000000000000000e+02 7.932466888427734375e+01 -1.245012664794921875e+01 2.880331315100193024e-02 4.197900772094726562e+00 1.268011212348937988e+00 -1.055207177996635437e-01
5.110000000000000000e+02 7.806176757812500000e+01 -9.453668594360351562e+00 2.961300611495971680e-01 5.876207351684570312e+00 1.851701140403747559e+00 5.095970034599304199e-01
5.120000000000000000e+02 7.934874725341796875e+01 -5.465245723724365234e+00 7.378525286912918091e-02 6.231252670288085938e+00 1.891511321067810059e+00 3.528019487857818604e-01
5.130000000000000000e+02 7.337600708007812500e+01 1.081391811370849609e+00 -9.115214347839355469e-01 8.261005401611328125e+00 2.204845190048217773e+00 -1.051081195473670959e-01
5.140000000000000000e+02 6.138397979736328125e+01 1.263359069824218750e+01 6.116428971290588379e-01 3.620475530624389648e+00 1.269635558128356934e+00 -8.003153204917907715e-01
5.150000000000000000e+02 5.557538223266601562e+01 1.166452980041503906e+01 1.643821448087692261e-01 3.479301214218139648e+00 1.093104958534240723e+00 1.376467198133468628e-01
5.160000000000000000e+02 5.735637283325195312e+01 1.222394275665283203e+01 5.683225393295288086e-01 3.356456756591796875e+00 1.177433848381042480e+00 -5.404506325721740723e-01
5.170000000000000000e+02 5.526613616943359375e+01 1.030348968505859375e+01 3.790537416934967041e-01 2.953867912292480469e+00 9.998764991760253906e-01 4.913604855537414551e-01
5.180000000000000000e+02 5.364779281616210938e+01 7.819086551666259766e+00 6.268014311790466309e-01 9.321163892745971680e-01 4.676753282546997070e-01 5.442559123039245605e-01
5.190000000000000000e+02 5.234746932983398438e+01 7.024066925048828125e+00 7.050232887268066406e-01 3.470957875251770020e-01 3.156357109546661377e-01 4.096789956092834473e-01
5.200000000000000000e+02 5.104853057861328125e+01 6.437146186828613281e+00 6.940615773200988770e-01 1.699287742376327515e-01 2.591971158981323242e-01 2.508753538131713867e-01
5.210000000000000000e+02 4.990674591064453125e+01 3.790148973464965820e+00 3.244799077510833740e-01 1.798888295888900757e-01 1.513106226921081543e-01 2.853905856609344482e-01
5.220000000000000000e+02 4.979955673217773438e+01 6.030931949615478516e+00 5.393794775009155273e-01 6.183849275112152100e-02 1.803653836250305176e-01 1.512046754360198975e-01
5.230000000000000000e+02 4.425162124633789062e+01 8.866338729858398438e+00 8.815013617277145386e-02 5.302336215972900391e-01 1.855151206254959106e-01 -1.696499288082122803e-01
5.240000000000000000e+02 3.927724838256835938e+01 4.645619392395019531e+00 -5.870850756764411926e-02 7.651302218437194824e-01 2.119265198707580566e-01 4.828196167945861816e-01
5.250000000000000000e+02 2.639898109436035156e+01 4.785813331604003906e+00 1.130962669849395752e-01 1.119048953056335449e+00 3.696435689926147461e-01 4.547904133796691895e-01
5.260000000000000000e+02 2.399420547485351562e+01 5.880377769470214844e+00 7.143097519874572754e-01 9.401618838310241699e-01 4.963414967060089111e-01 7.696251273155212402e-01
5.270000000000000000e+02 2.495180320739746094e+01 6.759627342224121094e+00 6.809693574905395508e-01 1.548873782157897949e+00 6.689529418945312500e-01 8.330534100532531738e-01
5.280000000000000000e+02 2.169048881530761719e+01 4.551695823669433594e+00 1.160437017679214478e-01 1.894562989473342896e-01 9.165000170469284058e-02 2.192012816667556763e-01
5.290000000000000000e+02 2.353056526184082031e+01 4.195064544677734375e+00 4.803146049380302429e-02 8.217875957489013672e-01 2.609457075595855713e-01 5.024239420890808105e-01
5.300000000000000000e+02 1.957983016967773438e+01 3.446943998336791992e+00 -5.234043002128601074e-01 -1.163535714149475098e-01 -1.919273734092712402e-01 3.020344376564025879e-01
5.310000000000000000e+02 1.734912872314453125e+01 3.355889320373535156e-01 -4.417685866355895996e-01 -4.076785147190093994e-01 -2.548341155052185059e-01 3.897863328456878662e-01
5.320000000000000000e+02 1.972789382934570312e+01 1.772753477096557617e+00 -3.879803419113159180e-01 -9.041247516870498657e-02 -1.435178518295288086e-01 3.955189585685729980e-01
5.330000000000000000e+02 1.466332054138183594e+01 6.569092273712158203e-01 -5.087615251541137695e-01 -3.011661469936370850e-01 -2.429783046245574951e-01 3.401692807674407959e-01
5.340000000000000000e+02 1.388590717315673828e+01 9.601786732673645020e-01 -5.017614364624023438e-01 -2.447350919246673584e-01 -2.239489555358886719e-01 2.879678606986999512e-01
5.350000000000000000e+02 1.417037296295166016e+01 1.778167843818664551e+00 -4.634055793285369873e-01 -2.976222634315490723e-01 -2.283083498477935791e-01 3.009879291057586670e-01
5.360000000000000000e+02 1.062577247619628906e+01 1.772158622741699219e+00 -3.958722054958343506e-01 -9.588523209095001221e-02 -1.475272327661514282e-01 1.788014769554138184e-01
5.370000000000000000e+02 5.744076967239379883e-01 6.389687538146972656e+00 -3.566056489944458008e-03 -1.414201557636260986e-01 -4.349586367607116699e-02 3.264291957020759583e-02
5.380000000000000000e+02 5.396336078643798828e+00 2.536949396133422852e+00 -1.334795206785202026e-01 -3.320413455367088318e-02 -5.000509694218635559e-02 1.098889857530593872e-01
5.390000000000000000e+02 6.707820892333984375e+01 -4.076055526733398438e+01 2.043865770101547241e-01 5.122968196868896484e+00 1.598206520080566406e+00 8.413382619619369507e-02
5.400000000000000000e+02 7.176365661621093750e+01 -4.083609771728515625e+01 5.662903934717178345e-02 7.351108074188232422e+00 2.222321033477783203e+00 2.166445180773735046e-02
5.410000000000000000e+02 7.924680328369140625e+01 -3.342668533325195312e+01 -6.821729242801666260e-02 1.046475124359130859e+01 3.118960142135620117e+00 -1.451462320983409882e-02
5.420000000000000000e+02 7.787501525878906250e+01 -3.063748359680175781e+01 -1.974395848810672760e-02 9.770150184631347656e+00 2.925122022628784180e+00 -1.499239206314086914e-01
5.430000000000000000e+02 7.930337524414062500e+01 -2.644467544555664062e+01 9.277991019189357758e-03 9.811082839965820312e+00 2.946108102798461914e+00 -1.637053340673446655e-01
5.440000000000000000e+02 7.795648193359375000e+01 -2.353940773010253906e+01 -1.309974342584609985e-01 8.895150184631347656e+00 2.629245758056640625e+00 -6.365395784378051758e-01
5.450000000000000000e+02 7.799813842773437500e+01 -4.158998107910156250e+01 1.557944267988204956e-01 9.940417289733886719e+00 3.028863668441772461e+00 4.386317357420921326e-02
5.460000000000000000e+02 7.808320617675781250e+01 -2.417383193969726562e+00 -1.698148995637893677e-01 7.937418937683105469e+00 2.330281257629394531e+00 7.508559823036193848e-01
5.470000000000000000e+02 7.935348510742187500e+01 2.924851417541503906e+00 -1.010591746307909489e-03 8.969676017761230469e+00 2.690599679946899414e+00 3.692495450377464294e-02
5.480000000000000000e+02 7.229164123535156250e+01 9.920737266540527344e+00 -5.041393637657165527e-02 6.611220359802246094e+00 1.968241930007934570e+00 -7.811610102653503418e-01
5.490000000000000000e+02 5.961480331420898438e+01 1.955545806884765625e+01 4.006516337394714355e-01 3.565476417541503906e+00 1.189838409423828125e+00 -5.684482455253601074e-01
5.500000000000000000e+02 5.559870910644531250e+01 1.852383232116699219e+01 3.264302313327789307e-01 2.964728355407714844e+00 9.873476028442382812e-01 -8.135294318199157715e-01
5.510000000000000000e+02 5.390775680541992188e+01 1.743189239501953125e+01 7.359001636505126953e-01 1.661754965782165527e+00 7.192965149879455566e-01 -1.056431651115417480e+00
5.520000000000000000e+02 7.805160522460937500e+01 4.573610305786132812e+00 -6.735247373580932617e-02 8.576849937438964844e+00 2.552849292755126953e+00 -6.075827032327651978e-02
5.530000000000000000e+02 7.934262847900390625e+01 8.484675407409667969e+00 -8.921010419726371765e-03 8.665148735046386719e+00 2.596868276596069336e+00 -6.592451035976409912e-02
5.540000000000000000e+02 7.273440551757812500e+01 1.661853218078613281e+01 1.191568672657012939e-01 6.261069297790527344e+00 1.914067864418029785e+00 -5.831609368324279785e-01
5.550000000000000000e+02 6.149803924560546875e+01 2.191841506958007812e+01 3.609188795089721680e-01 3.854390144348144531e+00 1.264592647552490234e+00 -5.583682060241699219e-01
5.560000000000000000e+02 5.676562118530273438e+01 2.736624908447265625e+01 5.201894044876098633e-01 2.890829801559448242e+00 1.023305773735046387e+00 -4.718491137027740479e-01
5.570000000000000000e+02 5.037779998779296875e+01 3.547369003295898438e+01 6.747780442237854004e-01 2.116483449935913086e+00 8.373784422874450684e-01 -4.452243447303771973e-02
5.580000000000000000e+02 3.767007827758789062e+01 4.081656265258789062e+01 5.513192415237426758e-01 1.053814530372619629e+00 4.815401136875152588e-01 2.856817282736301422e-02
5.590000000000000000e+02 4.252483367919921875e+01 4.079851150512695312e+01 6.276488304138183594e-01 1.394768714904785156e+00 6.067252755165100098e-01 2.193915471434593201e-02
5.600000000000000000e+02 3.625382614135742188e+01 2.970957946777343750e+01 4.294771850109100342e-01 9.861997961997985840e-01 4.247030913829803467e-01 2.071390450000762939e-01
5.610000000000000000e+02 3.950930404663085938e+01 2.271916580200195312e+01 3.203069865703582764e-01 1.296003341674804688e+00 4.848931133747100830e-01 3.300371766090393066e-01
5.620000000000000000e+02 3.896321487426757812e+01 1.149333477020263672e+01 3.202031850814819336e-01 1.241509675979614258e+00 4.685138463973999023e-01 6.634857654571533203e-01
5.630000000000000000e+02 3.765697097778320312e+01 1.124347400665283203e+01 2.635110914707183838e-01 1.148083209991455078e+00 4.234783053398132324e-01 7.165368199348449707e-01
5.640000000000000000e+02 4.157715606689453125e+01 1.177353572845458984e+01 2.555586397647857666e-01 1.754665255546569824e+00 6.030671596527099609e-01 4.146380722522735596e-01
5.650000000000000000e+02 4.262659072875976562e+01 8.137248039245605469e+00 -7.554741948843002319e-02 9.017571806907653809e-01 2.478629350662231445e-01 1.062122657895088196e-01
5.660000000000000000e+02 4.516465759277343750e+01 8.045827865600585938e+00 1.990610174834728241e-02 1.361525505781173706e-01 4.681759700179100037e-02 -7.908944785594940186e-02
5.670000000000000000e+02 7.803055572509765625e+01 1.149388790130615234e+01 8.919099345803260803e-03 7.941550731658935547e+00 2.385140895843505859e+00 -2.321843802928924561e-01
5.680000000000000000e+02 7.935366821289062500e+01 1.682304382324218750e+01 -9.038360789418220520e-03 7.631057262420654297e+00 2.286605596542358398e+00 -6.006603315472602844e-02
5.690000000000000000e+02 7.213410949707031250e+01 2.346505165100097656e+01 1.151365265250205994e-01 5.836740016937255859e+00 1.785562992095947266e+00 -4.185932576656341553e-01
5.700000000000000000e+02 6.460367584228515625e+01 3.014258003234863281e+01 2.841692268848419189e-01 4.411412715911865234e+00 1.408674597740173340e+00 -3.808242380619049072e-01
5.710000000000000000e+02 5.312612915039062500e+01 3.701821899414062500e+01 6.186060309410095215e-01 2.506967544555664062e+00 9.376721382141113281e-01 -8.485030382871627808e-02
5.720000000000000000e+02 4.751913833618164062e+01 4.059281158447265625e+01 6.581048965454101562e-01 1.884796857833862305e+00 7.628705501556396484e-01 -3.862945013679563999e-04
5.730000000000000000e+02 7.807729339599609375e+01 1.975526428222656250e+01 1.606212556362152100e-02 7.125729084014892578e+00 2.142537355422973633e+00 -1.636308133602142334e-01
5.740000000000000000e+02 7.932558441162109375e+01 2.376178359985351562e+01 4.734328016638755798e-03 7.023893356323242188e+00 2.108588218688964844e+00 -3.966814652085304260e-02
5.750000000000000000e+02 7.222329711914062500e+01 3.023293876647949219e+01 9.525857865810394287e-02 5.654888153076171875e+00 1.725044012069702148e+00 -2.570693790912628174e-01
5.760000000000000000e+02 6.264687728881835938e+01 4.055734252929687500e+01 3.652532398700714111e-01 3.989801406860351562e+00 1.306516408920288086e+00 -6.487063318490982056e-02
5.770000000000000000e+02 5.764280700683593750e+01 4.046400833129882812e+01 5.064390301704406738e-01 3.250075817108154297e+00 1.126954436302185059e+00 -6.031723320484161377e-02
5.780000000000000000e+02 7.663888549804687500e+01 2.257462692260742188e+01 2.274532802402973175e-02 6.687804222106933594e+00 2.013164758682250977e+00 -2.181797176599502563e-01
5.790000000000000000e+02 7.927906799316406250e+01 2.934829521179199219e+01 5.099747795611619949e-03 6.713472843170166016e+00 2.015571832656860352e+00 -2.749749459326267242e-02
5.800000000000000000e+02 6.761259460449218750e+01 3.767657089233398438e+01 2.106402516365051270e-01 4.839797973632812500e+00 1.515131354331970215e+00 -1.175653338432312012e-01
5.810000000000000000e+02 7.929192352294921875e+01 3.207378005981445312e+01 1.843800069764256477e-03 6.592333793640136719e+00 1.978253245353698730e+00 -3.000228106975555420e-02
5.820000000000000000e+02 7.914234924316406250e+01 3.744498062133789062e+01 2.484740689396858215e-02 6.419341564178466797e+00 1.933256626129150391e+00 -2.263206429779529572e-02
5.830000000000000000e+02 7.134243774414062500e+01 3.755148696899414062e+01 1.058039665222167969e-01 5.451049804687500000e+00 1.667056083679199219e+00 -1.069843545556068420e-01
5.840000000000000000e+02 7.627883911132812500e+01 3.800003433227539062e+01 -1.087169279344379902e-03 6.089886188507080078e+00 1.826639652252197266e+00 -5.724945291876792908e-02
5.850000000000000000e+02 3.277905654907226562e+01 4.059809112548828125e+01 4.619877934455871582e-01 7.245237827301025391e-01 3.559534549713134766e-01 3.206145763397216797e-02
5.860000000000000000e+02 3.132362937927246094e+01 3.540257644653320312e+01 4.217205941677093506e-01 6.286839842796325684e-01 3.151213824748992920e-01 1.224202364683151245e-01
5.870000000000000000e+02 2.978049278259277344e+01 2.952382850646972656e+01 3.647728264331817627e-01 5.244325399398803711e-01 2.667616009712219238e-01 1.975243538618087769e-01
5.880000000000000000e+02 2.754535293579101562e+01 1.624516105651855469e+01 -1.868490576744079590e-01 3.235677778720855713e-01 4.101561754941940308e-02 2.809134125709533691e-01
5.890000000000000000e+02 2.715328598022460938e+01 1.021289157867431641e+01 1.327034235000610352e-01 8.329722285270690918e-01 2.897026836872100830e-01 7.127134799957275391e-01
5.900000000000000000e+02 2.694525718688964844e+01 1.307320022583007812e+01 -3.644914627075195312e-01 4.237220585346221924e-01 1.776917465031147003e-02 5.154358148574829102e-01
5.910000000000000000e+02 1.782209396362304688e+01 4.055002212524414062e+01 1.713218837976455688e-01 -8.873419463634490967e-02 2.477630600333213806e-02 3.997802734375000000e-02
5.920000000000000000e+02 2.272313880920410156e+01 4.066510772705078125e+01 2.774400413036346436e-01 1.695576608180999756e-01 1.340993046760559082e-01 3.704952076077461243e-02
5.930000000000000000e+02 2.405585670471191406e+01 3.002156448364257812e+01 2.838918268680572510e-01 1.924061626195907593e-01 1.428893953561782837e-01 2.386989593505859375e-01
5.940000000000000000e+02 2.421653175354003906e+01 2.366361236572265625e+01 2.749366164207458496e-01 9.216319024562835693e-02 1.101299375295639038e-01 3.266081511974334717e-01
5.950000000000000000e+02 1.926974105834960938e+01 1.759604835510253906e+01 2.228145748376846313e-01 7.575595378875732422e-02 8.957115560770034790e-02 4.670425355434417725e-01
5.960000000000000000e+02 2.138948822021484375e+01 1.817367553710937500e+01 8.790917694568634033e-02 -2.382607161998748779e-01 -4.510546103119850159e-02 5.275660157203674316e-01
5.970000000000000000e+02 2.254543113708496094e+01 1.563628578186035156e+01 -7.521679997444152832e-01 -4.126840829849243164e-01 -3.494556248188018799e-01 5.221765637397766113e-01
5.980000000000000000e+02 2.433846855163574219e+01 1.572753047943115234e+01 -4.450715184211730957e-01 -3.334302902221679688e-01 -2.335505485534667969e-01 3.253969848155975342e-01
5.990000000000000000e+02 2.361203575134277344e+01 1.483775234222412109e+01 -7.167682051658630371e-01 -5.180134773254394531e-01 -3.704345226287841797e-01 5.713437795639038086e-01
6.000000000000000000e+02 2.549981307983398438e+01 1.271557998657226562e+01 -3.718000650405883789e-01 -1.691982299089431763e-01 -1.622994840145111084e-01 3.871687948703765869e-01
6.010000000000000000e+02 2.573007774353027344e+01 1.129158306121826172e+01 -1.335963793098926544e-02 4.067013263702392578e-01 1.180025041103363037e-01 2.815497219562530518e-01
6.020000000000000000e+02 2.579048728942871094e+01 9.938556671142578125e+00 -4.468839149922132492e-03 9.671202301979064941e-01 2.887954115867614746e-01 2.688853442668914795e-01
6.030000000000000000e+02 2.581480789184570312e+01 8.669752120971679688e+00 3.280176222324371338e-01 1.538907170295715332e+00 5.600774288177490234e-01 5.448235869407653809e-01
6.040000000000000000e+02 2.616099166870117188e+01 7.457216262817382812e+00 5.545907616615295410e-01 1.390590071678161621e+00 5.835542678833007812e-01 6.296951770782470703e-01
6.050000000000000000e+02 1.832341384887695312e+01 2.839513969421386719e+01 1.611361056566238403e-01 -7.020844350336119533e-05 4.831976816058158875e-02 2.963735461235046387e-01
6.060000000000000000e+02 1.614587783813476562e+01 2.068656730651855469e+01 8.614919334650039673e-02 1.733791083097457886e-01 7.785849273204803467e-02 3.837662637233734131e-01
6.070000000000000000e+02 1.809805870056152344e+01 1.663340187072753906e+01 5.874522328376770020e-01 1.951855272054672241e-01 2.347913235425949097e-01 4.362374246120452881e-01
6.080000000000000000e+02 1.841889572143554688e+01 1.877712631225585938e+01 1.997912228107452393e-01 1.982117444276809692e-01 1.194008886814117432e-01 5.694246888160705566e-01
6.090000000000000000e+02 1.753871154785156250e+01 1.788860511779785156e+01 1.738394647836685181e-01 4.338716566562652588e-01 1.823133379220962524e-01 5.481632947921752930e-01
6.100000000000000000e+02 1.286988449096679688e+01 4.065478515625000000e+01 9.324143081903457642e-02 -3.469232618808746338e-01 -7.610454410314559937e-02 2.676212601363658905e-02
6.110000000000000000e+02 4.913458824157714844e+00 4.029132843017578125e+01 3.988150507211685181e-03 -9.009036421775817871e-01 -2.690746486186981201e-01 3.015740402042865753e-02
6.120000000000000000e+02 7.548580169677734375e+00 3.088813209533691406e+01 1.335394475609064102e-02 -6.002653837203979492e-01 -1.760734319686889648e-01 8.310929685831069946e-02
6.130000000000000000e+02 7.843856811523437500e+00 2.312579536437988281e+01 4.749817401170730591e-02 -4.511233270168304443e-01 -1.210875436663627625e-01 1.273812055587768555e-01
6.140000000000000000e+02 1.269844818115234375e+01 1.503315830230712891e+01 4.132498800754547119e-01 5.078434944152832031e-02 1.392102688550949097e-01 3.108299374580383301e-01
6.150000000000000000e+02 1.327809810638427734e+01 9.751926422119140625e+00 -1.043845340609550476e-01 -1.771307438611984253e-01 -8.445458859205245972e-02 4.125203788280487061e-01
6.160000000000000000e+02 1.204684352874755859e+01 9.912021636962890625e+00 -7.516954839229583740e-02 -9.785512089729309082e-02 -5.190740153193473816e-02 4.911197721958160400e-01
6.170000000000000000e+02 1.379454517364501953e+01 1.370810794830322266e+01 4.623968601226806641e-01 2.899026572704315186e-01 2.256898581981658936e-01 4.248883128166198730e-01
6.180000000000000000e+02 1.447146797180175781e+01 1.093745613098144531e+01 -1.287340745329856873e-02 1.312884837388992310e-01 3.552452102303504944e-02 1.443255990743637085e-01
6.190000000000000000e+02 1.450952720642089844e+01 8.357434272766113281e+00 -2.495191842317581177e-01 -6.121435165405273438e-01 -2.584988176822662354e-01 3.433577120304107666e-01
6.200000000000000000e+02 1.496946430206298828e+01 1.458691954612731934e+00 -4.574631452560424805e-01 -3.608052432537078857e-01 -2.454805225133895874e-01 3.194734752178192139e-01
6.210000000000000000e+02 2.011852979660034180e+00 4.163835906982421875e+01 -2.979404106736183167e-02 -1.110396027565002441e+00 -3.420570194721221924e-01 -8.446639403700828552e-03
6.220000000000000000e+02 4.168679237365722656e+00 3.787393569946289062e+01 1.882875338196754456e-02 -9.754313230514526367e-01 -2.869807779788970947e-01 4.133406281471252441e-02
6.230000000000000000e+02 2.288354873657226562e+00 3.561453247070312500e+01 1.404276117682456970e-02 -1.065304160118103027e+00 -3.153783977031707764e-01 7.888375781476497650e-03
6.240000000000000000e+02 2.043802738189697266e+00 2.870107460021972656e+01 4.608235321938991547e-04 -1.017229557037353516e+00 -3.050306141376495361e-01 1.861259527504444122e-02
6.250000000000000000e+02 1.963654041290283203e+00 2.307838439941406250e+01 5.024050362408161163e-03 -9.475678205490112305e-01 -2.827631235122680664e-01 3.137611970305442810e-02
6.260000000000000000e+02 1.853861331939697266e+00 1.738925552368164062e+01 1.265576202422380447e-02 -8.050480484962463379e-01 -2.377176880836486816e-01 7.858226448297500610e-02
6.270000000000000000e+02 1.720181226730346680e+00 9.100597381591796875e+00 -5.943605210632085800e-03 -3.296235203742980957e-01 -1.006701439619064331e-01 1.313362866640090942e-01
6.280000000000000000e+02 5.435082435607910156e+00 1.842994928359985352e+00 -1.243080049753189087e-01 -1.446658000349998474e-02 -4.163237661123275757e-02 7.831657677888870239e-02
6.290000000000000000e+02 1.226755809783935547e+01 1.430562138557434082e+00 -4.637894034385681152e-01 -1.555114239454269409e-01 -1.857902556657791138e-01 2.212026417255401611e-01
6.300000000000000000e+02 1.694469642639160156e+01 -3.820079863071441650e-01 -5.301897525787353516e-01 -4.136961698532104492e-01 -2.831657826900482178e-01 4.165828824043273926e-01
6.310000000000000000e+02 1.965463256835937500e+01 -2.359715461730957031e+00 -5.995697379112243652e-01 -1.664368659257888794e-01 -2.298019826412200928e-01 3.795322477817535400e-01
6.320000000000000000e+02 2.176810646057128906e+01 -4.778413772583007812e+00 -5.418123006820678711e-01 5.511205196380615234e-01 2.792461076751351357e-03 2.115345895290374756e-01
6.330000000000000000e+02 2.653162002563476562e+01 -1.210231685638427734e+01 2.817739009857177734e+00 7.142520546913146973e-01 1.059597373008728027e+00 -7.093341350555419922e-01
6.340000000000000000e+02 3.874213409423828125e+01 -1.739914512634277344e+01 -1.720178127288818359e+00 3.687467426061630249e-02 -5.049910545349121094e-01 -3.229843676090240479e-01
6.350000000000000000e+02 3.887999725341796875e+01 -1.856099700927734375e+01 -1.807882666587829590e+00 1.010162103921175003e-02 -5.393342971801757812e-01 -1.804660856723785400e-01
6.360000000000000000e+02 4.325121307373046875e+01 -1.529856014251708984e+01 -1.470855474472045898e+00 -2.147958427667617798e-02 -4.477005302906036377e-01 -4.178375303745269775e-01
6.370000000000000000e+02 4.418262863159179688e+01 -1.744754409790039062e+01 -1.659959077835083008e+00 -1.448742151260375977e-01 -5.414499640464782715e-01 -5.021328330039978027e-01
6.380000000000000000e+02 5.057857894897460938e+01 -1.496041297912597656e+01 -1.546433210372924805e+00 -3.112364411354064941e-01 -5.573008656501770020e-01 -7.495642304420471191e-01
6.390000000000000000e+02 4.770560836791992188e+01 -1.264791250228881836e+00 -3.111240565776824951e-01 1.910322010517120361e-01 -3.602755814790725708e-02 2.541138231754302979e-01
6.400000000000000000e+02 4.597042083740234375e+01 7.148891925811767578e+00 8.741787821054458618e-02 7.090748846530914307e-02 4.749760776758193970e-02 -2.668849937617778778e-02
6.410000000000000000e+02 4.519568252563476562e+01 -4.552850723266601562e+00 -6.211187839508056641e-01 1.812196522951126099e-01 -1.319697350263595581e-01 1.405131518840789795e-01
6.420000000000000000e+02 4.289593887329101562e+01 -3.606720924377441406e+00 -4.277558326721191406e-01 2.224647253751754761e-01 -6.158733367919921875e-02 2.249685823917388916e-01
6.430000000000000000e+02 3.665811538696289062e+01 -6.002304077148437500e+00 -1.757710576057434082e-01 2.216742187738418579e-01 1.377094537019729614e-02 3.620884120464324951e-01
6.440000000000000000e+02 4.039644241333007812e+01 4.952167034149169922e+00 -6.169387698173522949e-02 7.660507559776306152e-01 2.113070636987686157e-01 3.993493318557739258e-01
6.450000000000000000e+02 2.249003219604492188e+01 -5.866016864776611328e+00 -4.879323244094848633e-01 9.935563206672668457e-01 1.516871899366378784e-01 1.612453609704971313e-01
6.460000000000000000e+02 2.530509757995605469e+01 -1.045526027679443359e+01 5.061943054199218750e+00 2.507407426834106445e+00 2.270805120468139648e+00 2.326525688171386719e+00
6.470000000000000000e+02 2.537755966186523438e+01 -1.121459197998046875e+01 5.919846057891845703e+00 1.883116245269775391e+00 2.340888738632202148e+00 4.038917124271392822e-01
6.480000000000000000e+02 2.460597419738769531e+01 -1.227448272705078125e+01 3.821373701095581055e+00 4.018055438995361328e+00 2.351828813552856445e+00 -1.483343601226806641e+00
6.490000000000000000e+02 1.721986198425292969e+01 -5.270928859710693359e+00 -3.791005313396453857e-01 -8.220094442367553711e-01 -3.603329956531524658e-01 9.490579962730407715e-01
6.500000000000000000e+02 1.584818267822265625e+01 -4.243093490600585938e+00 -8.604089021682739258e-01 -4.997680783271789551e-01 -4.080531001091003418e-01 1.043846011161804199e+00
6.510000000000000000e+02 1.270202636718750000e+01 -2.692038774490356445e+00 -1.633835792541503906e+00 5.627899989485740662e-02 -4.732670485973358154e-01 7.340995073318481445e-01
6.520000000000000000e+02 1.103479957580566406e+01 -2.179052591323852539e+00 -1.889290809631347656e+00 2.902908027172088623e-01 -4.796999990940093994e-01 3.812845051288604736e-01
6.530000000000000000e+02 9.390676498413085938e+00 -1.905315041542053223e+00 -1.907296538352966309e+00 3.746694922447204590e-01 -4.597881138324737549e-01 2.388165146112442017e-02
6.540000000000000000e+02 1.460981750488281250e+01 1.226947689056396484e+01 1.506254822015762329e-01 5.456306934356689453e-01 2.088768631219863892e-01 2.550289630889892578e-01
6.550000000000000000e+02 1.494121360778808594e+01 1.354900360107421875e+01 3.164782226085662842e-01 8.165475726127624512e-01 3.399077355861663818e-01 4.730928838253021240e-01
6.560000000000000000e+02 1.563137054443359375e+01 1.604429244995117188e+01 6.383249163627624512e-01 5.822767615318298340e-01 3.661805093288421631e-01 4.474883675575256348e-01
6.570000000000000000e+02 1.545261096954345703e+01 1.470957946777343750e+01 6.461516022682189941e-01 7.908733487129211426e-01 4.311074912548065186e-01 5.964037179946899414e-01
6.580000000000000000e+02 1.414628314971923828e+01 1.622358703613281250e+01 4.189678132534027100e-01 2.736493051052093506e-01 2.077851295471191406e-01 2.605443000793457031e-01
6.590000000000000000e+02 6.690934753417968750e+01 -7.013650894165039062e+00 2.154274463653564453e+00 7.665894031524658203e+00 2.946050643920898438e+00 -4.730876922607421875e+00
6.600000000000000000e+02 6.818415069580078125e+01 -7.252409458160400391e+00 1.807379603385925293e+00 1.453967952728271484e+01 4.904117584228515625e+00 -3.789494991302490234e+00
6.610000000000000000e+02 6.857746124267578125e+01 -9.961417198181152344e+00 1.315401434898376465e+00 2.403706359863281250e+01 7.605739593505859375e+00 -2.026207447052001953e+00
6.620000000000000000e+02 6.937677764892578125e+01 -1.270796680450439453e+01 2.813660383224487305e+00 1.896007537841796875e+01 6.532120704650878906e+00 1.349429726600646973e+00
6.630000000000000000e+02 7.050661468505859375e+01 -1.411076545715332031e+01 1.751226902008056641e+00 1.320582103729248047e+01 4.487114429473876953e+00 -1.709100604057312012e-01
6.640000000000000000e+02 6.702717590332031250e+01 -1.798158454895019531e+01 9.285032749176025391e-01 9.195110321044921875e+00 3.037084102630615234e+00 2.592992782592773438e+00
6.650000000000000000e+02 6.621032714843750000e+01 -1.706187248229980469e+01 2.327788352966308594e+00 8.264914512634277344e+00 3.177810668945312500e+00 4.247735977172851562e+00
6.660000000000000000e+02 6.258770370483398438e+01 -2.350540351867675781e+01 -1.067727580666542053e-01 2.449434757232666016e+00 7.027986049652099609e-01 9.163634777069091797e-01
6.670000000000000000e+02 6.785238647460937500e+01 -2.337055206298828125e+01 -8.228851556777954102e-01 7.199076652526855469e+00 1.912857413291931152e+00 6.486737132072448730e-01
6.680000000000000000e+02 2.384470176696777344e+01 -3.085027694702148438e+01 2.722608745098114014e-01 4.133809208869934082e-01 2.056925445795059204e-01 -3.375067412853240967e-01
6.690000000000000000e+02 2.092053985595703125e+01 -2.723036575317382812e+01 8.289141058921813965e-01 5.814865231513977051e-01 4.231202006340026855e-01 -6.161481738090515137e-01
6.700000000000000000e+02 1.980030822753906250e+01 -2.635983085632324219e+01 9.548243284225463867e-01 8.080693483352661133e-01 5.288680791854858398e-01 -8.663932085037231445e-01
6.710000000000000000e+02 2.656362724304199219e+01 -1.738665771484375000e+01 -6.083225727081298828e+00 -1.495209336280822754e-01 -1.869824051856994629e+00 1.166473984718322754e+00
6.720000000000000000e+02 3.065294456481933594e+01 -1.824996185302734375e+01 -3.481277704238891602e+00 1.508065033704042435e-02 -1.039859056472778320e+00 2.764143049716949463e-01
6.730000000000000000e+02 2.746860313415527344e+01 -1.212270069122314453e+01 1.809062361717224121e+00 2.870130240917205811e-01 6.288226246833801270e-01 -5.560191273689270020e-01
6.740000000000000000e+02 3.367815399169921875e+01 -1.611925125122070312e+01 -1.969984412193298340e+00 1.073827818036079407e-01 -5.587804913520812988e-01 -4.289661645889282227e-01
6.750000000000000000e+02 3.352724075317382812e+01 -1.734975814819335938e+01 -2.386961460113525391e+00 1.233868971467018127e-01 -6.790723800659179688e-01 -2.318890094757080078e-01
6.760000000000000000e+02 5.423020935058593750e+01 -1.294610786437988281e+01 -1.881143331527709961e+00 -5.226681828498840332e-01 -7.211434245109558105e-01 -1.025771498680114746e+00
6.770000000000000000e+02 5.892600250244140625e+01 -9.960165977478027344e+00 -2.997799873352050781e+00 -1.008361935615539551e+00 -1.201848506927490234e+00 -1.710169076919555664e+00
6.780000000000000000e+02 5.531512832641601562e+01 -6.563787937164306641e+00 -1.859430432319641113e+00 1.051625087857246399e-01 -5.262804031372070312e-01 -2.877619862556457520e-01
6.790000000000000000e+02 5.507914352416992188e+01 5.286523342132568359e+00 3.418608605861663818e-01 1.216640949249267578e+00 4.675505161285400391e-01 1.401144713163375854e-01
6.800000000000000000e+02 5.467411422729492188e+01 8.944829940795898438e+00 4.862129390239715576e-01 1.720200419425964355e+00 6.619240045547485352e-01 6.684070825576782227e-01
6.810000000000000000e+02 5.804783630371093750e+01 -9.118721008300781250e+00 -2.800707340240478516e+00 -5.371956825256347656e-01 -1.001370906829833984e+00 -1.237103343009948730e+00
6.820000000000000000e+02 6.281919479370117188e+01 -5.068616867065429688e+00 -1.637055397033691406e+00 -3.654032051563262939e-01 -6.007375717163085938e-01 -1.366101384162902832e+00
6.830000000000000000e+02 6.175304412841796875e+01 -3.584644794464111328e-01 -1.601620018482208252e-01 1.559284687042236328e+00 4.197368025779724121e-01 -1.338520526885986328e+00
6.840000000000000000e+02 6.087091445922851562e+01 4.897353172302246094e+00 2.516491413116455078e-01 2.598951339721679688e+00 8.551801443099975586e-01 -9.678686857223510742e-01
6.850000000000000000e+02 4.795099258422851562e+01 1.904464912414550781e+01 3.802310526371002197e-01 2.517217993736267090e-01 1.895858496427536011e-01 3.139392733573913574e-01
6.860000000000000000e+02 4.488481903076171875e+01 1.734523391723632812e+01 1.142395377159118652e+00 1.107134819030761719e+00 6.748590469360351562e-01 1.071210265159606934e+00
6.870000000000000000e+02 4.096529006958007812e+01 1.588883304595947266e+01 6.490097641944885254e-01 1.705026030540466309e+00 7.062107324600219727e-01 4.447362124919891357e-01
6.880000000000000000e+02 4.257844924926757812e+01 1.606459426879882812e+01 8.521533608436584473e-01 2.291934490203857422e+00 9.432263374328613281e-01 7.810052037239074707e-01
6.890000000000000000e+02 4.284249496459960938e+01 1.461659145355224609e+01 5.785374045372009277e-01 2.868260622024536133e+00 1.034039378166198730e+00 8.170573711395263672e-01
6.900000000000000000e+02 5.765210723876953125e+01 1.516787910461425781e+01 8.924084901809692383e-01 3.329550981521606445e+00 1.266587853431701660e+00 -6.551329493522644043e-01
6.910000000000000000e+02 5.832678604125976562e+01 1.837576293945312500e+01 4.852861464023590088e-01 3.365313768386840820e+00 1.155179977416992188e+00 -5.544739365577697754e-01
6.920000000000000000e+02 5.579070281982421875e+01 1.296346187591552734e+01 2.809432744979858398e-01 3.936589479446411133e+00 1.265259861946105957e+00 -3.242663741111755371e-01
6.930000000000000000e+02 4.500822448730468750e+01 2.014035224914550781e+01 4.785636663436889648e-01 1.252482771873474121e+00 5.193139314651489258e-01 7.454544305801391602e-01
6.940000000000000000e+02 1.497577190399169922e+01 -3.174683380126953125e+01 -2.278903871774673462e-01 1.151442170143127441e+00 2.770655453205108643e-01 -2.186727821826934814e-01
6.950000000000000000e+02 1.844729804992675781e+01 -2.938052749633789062e+01 2.169398665428161621e-01 1.043652415275573730e+00 3.781776726245880127e-01 -5.180331468582153320e-01
6.960000000000000000e+02 6.035064220428466797e+00 -3.356999969482421875e+01 -2.071387171745300293e-01 1.517222821712493896e-01 -1.662492938339710236e-02 3.530232608318328857e-01
6.970000000000000000e+02 6.243558502197265625e+01 -2.954035186767578125e+01 -2.988732755184173584e-01 3.005110740661621094e+00 8.118712306022644043e-01 5.883279442787170410e-01
6.980000000000000000e+02 7.298691558837890625e+01 -3.293031692504882812e+01 -2.208996713161468506e-01 7.826301574707031250e+00 2.281620502471923828e+00 -3.607917577028274536e-02
6.990000000000000000e+02 6.696582031250000000e+01 -1.588139247894287109e+01 2.425663948059082031e+00 1.131070423126220703e+01 4.120910167694091797e+00 4.534962654113769531e+00
7.000000000000000000e+02 6.844581604003906250e+01 -4.502804756164550781e+00 -2.376873731613159180e+00 1.000470161437988281e+01 2.288348436355590820e+00 -2.844935178756713867e+00
7.010000000000000000e+02 6.347456359863281250e+01 -6.957458019256591797e+00 -5.446702480316162109e+00 -1.237752318382263184e+00 -2.005336523056030273e+00 -2.240033864974975586e+00
7.020000000000000000e+02 5.027943801879882812e+01 -1.220956516265869141e+01 -1.656975388526916504e+00 -1.048404052853584290e-01 -5.285447239875793457e-01 -6.073184609413146973e-01
7.030000000000000000e+02 4.492701721191406250e+01 -1.329391765594482422e+01 -1.399183869361877441e+00 7.001071935519576073e-04 -4.195451140403747559e-01 -4.277411401271820068e-01
7.040000000000000000e+02 3.812292098999023438e+01 -1.440338802337646484e+01 -1.352056145668029785e+00 4.446288198232650757e-02 -3.922779858112335205e-01 -4.041351079940795898e-01
7.050000000000000000e+02 3.650141143798828125e+01 -1.378721904754638672e+01 -1.190860867500305176e+00 2.785876020789146423e-02 -3.489006459712982178e-01 -4.068918824195861816e-01
7.060000000000000000e+02 4.875178527832031250e+01 -6.784782409667968750e+00 -1.147993087768554688e+00 1.731225252151489258e-01 -2.924611866474151611e-01 -4.588095843791961670e-02
7.070000000000000000e+02 5.919124984741210938e+01 -6.763851165771484375e+00 -2.742701768875122070e+00 -1.710017323493957520e-01 -8.741110563278198242e-01 -7.229481935501098633e-01
7.080000000000000000e+02 3.668654632568359375e+01 -7.278085231781005859e+00 -2.234210819005966187e-01 1.255559474229812622e-01 -2.935954369604587555e-02 2.290150970220565796e-01
7.090000000000000000e+02 2.596459007263183594e+01 -3.681864261627197266e+00 -5.692042112350463867e-01 1.625442147254943848e+00 3.168713748455047607e-01 8.300248980522155762e-01
7.100000000000000000e+02 2.607237815856933594e+01 -4.810989856719970703e+00 -4.720200300216674805e-01 1.820541501045227051e+00 4.045564234256744385e-01 9.819267392158508301e-01
7.110000000000000000e+02 4.382353973388671875e+01 -1.379268932342529297e+01 -1.393898129463195801e+00 5.440897773951292038e-03 -4.165371656417846680e-01 -4.052524566650390625e-01
7.120000000000000000e+02 5.351529312133789062e+01 3.101130247116088867e+00 2.080644369125366211e-01 6.284645795822143555e-01 2.509587109088897705e-01 2.436466217041015625e-01
7.130000000000000000e+02 2.131458282470703125e+01 -4.192106246948242188e+00 -5.606998801231384277e-01 3.236138522624969482e-01 -7.112580537796020508e-02 2.725023627281188965e-01
7.140000000000000000e+02 2.859463691711425781e+01 5.730907917022705078e+00 2.197176367044448853e-01 9.316080212593078613e-01 3.453976809978485107e-01 5.461884140968322754e-01
7.150000000000000000e+02 7.301541137695312500e+01 5.254697322845458984e+00 -4.162548482418060303e-01 7.330201625823974609e+00 2.074183940887451172e+00 -6.479073762893676758e-01
7.160000000000000000e+02 6.040572357177734375e+01 1.179319572448730469e+01 6.084452271461486816e-01 3.339080333709716797e+00 1.184257745742797852e+00 -7.891258001327514648e-01
7.170000000000000000e+02 7.360789489746093750e+01 1.893652725219726562e+01 1.032430455088615417e-01 6.343451023101806641e+00 1.934008121490478516e+00 -4.721525013446807861e-01
7.180000000000000000e+02 5.954892349243164062e+01 1.737274169921875000e+01 5.630506873130798340e-01 3.537535905838012695e+00 1.230175971984863281e+00 -5.689451098442077637e-01
7.190000000000000000e+02 4.933816909790039062e+01 1.900699615478515625e+01 1.236892342567443848e-01 1.301083266735076904e-01 7.613927125930786133e-02 5.315028131008148193e-02
7.200000000000000000e+02 5.196205902099609375e+01 1.832517433166503906e+01 4.653821587562561035e-01 5.638070702552795410e-01 3.087567687034606934e-01 -5.062466859817504883e-01
7.210000000000000000e+02 4.921438217163085938e+01 2.406509017944335938e+01 7.800868749618530273e-01 1.201386570930480957e+00 5.944420099258422852e-01 2.878041379153728485e-02
7.220000000000000000e+02 4.587246322631835938e+01 3.368537521362304688e+01 6.573030352592468262e-01 1.604744553565979004e+00 6.786142587661743164e-01 6.498657912015914917e-02
7.230000000000000000e+02 4.798027038574218750e+01 2.996534347534179688e+01 6.989865303039550781e-01 1.657317519187927246e+00 7.068911790847778320e-01 5.040360614657402039e-02
7.240000000000000000e+02 4.193676757812500000e+01 2.883033370971679688e+01 5.255563259124755859e-01 1.280280828475952148e+00 5.417511463165283203e-01 2.524601817131042480e-01
7.250000000000000000e+02 4.723321151733398438e+01 2.305798339843750000e+01 6.883860230445861816e-01 1.027209758758544922e+00 5.146787762641906738e-01 3.557041287422180176e-01
7.260000000000000000e+02 4.339414978027343750e+01 2.227467536926269531e+01 3.982574045658111572e-01 1.385742068290710449e+00 5.351998805999755859e-01 5.334035754203796387e-01
7.270000000000000000e+02 4.869661712646484375e+01 2.254540061950683594e+01 7.475885152816772461e-01 9.081869721412658691e-01 4.967326521873474121e-01 1.596230566501617432e-01
7.280000000000000000e+02 5.375203323364257812e+01 2.458684730529785156e+01 6.216510534286499023e-01 2.159255027770996094e+00 8.342718482017517090e-01 -5.467727780342102051e-01
7.290000000000000000e+02 5.289382171630859375e+01 2.230694580078125000e+01 6.129021644592285156e-01 1.621143817901611328e+00 6.702138185501098633e-01 -5.717314481735229492e-01
7.300000000000000000e+02 2.635734558105468750e+01 1.783329582214355469e+01 -4.848989844322204590e-02 1.101796776056289673e-01 1.850693486630916595e-02 2.165209800004959106e-01
7.310000000000000000e+02 1.842494368553161621e+00 1.598798656463623047e+01 1.564756408333778381e-02 -7.452310323715209961e-01 -2.188750505447387695e-01 9.685327857732772827e-02
7.320000000000000000e+02 7.299716186523437500e+01 2.568424034118652344e+01 8.603973686695098877e-02 5.923248291015625000e+00 1.802786350250244141e+00 -3.351018428802490234e-01
7.330000000000000000e+02 6.482425689697265625e+01 2.399732208251953125e+01 2.918937802314758301e-01 4.495477676391601562e+00 1.436211466789245605e+00 -5.163943767547607422e-01
7.340000000000000000e+02 3.945514678955078125e+01 2.704059219360351562e+01 4.187909662723541260e-01 1.208955168724060059e+00 4.883238375186920166e-01 2.775442898273468018e-01
7.350000000000000000e+02 2.678855705261230469e+01 2.532306861877441406e+01 3.010329306125640869e-01 2.797883450984954834e-01 1.742463856935501099e-01 2.542036175727844238e-01
7.360000000000000000e+02 2.239311981201171875e+01 2.394431877136230469e+01 2.539601027965545654e-01 3.505174443125724792e-02 8.670355379581451416e-02 3.844445049762725830e-01
7.370000000000000000e+02 1.919569015502929688e+01 2.242488670349121094e+01 1.486104726791381836e-01 5.806551501154899597e-02 6.200279667973518372e-02 4.784944057464599609e-01
7.380000000000000000e+02 8.000610351562500000e+00 2.491370582580566406e+01 2.883760072290897369e-02 -4.700331389904022217e-01 -1.323586553335189819e-01 1.223457753658294678e-01
7.390000000000000000e+02 7.140716552734375000e+01 2.897427558898925781e+01 1.112327575683593750e-01 5.558585643768310547e+00 1.700945496559143066e+00 -3.076319992542266846e-01
7.400000000000000000e+02 5.754013061523437500e+01 2.949230384826660156e+01 5.140259861946105957e-01 3.058794975280761719e+00 1.071846246719360352e+00 -4.046439826488494873e-01
7.410000000000000000e+02 3.883787155151367188e+01 3.114456367492675781e+01 4.950821995735168457e-01 1.121160268783569336e+00 4.848727285861968994e-01 1.952157765626907349e-01
7.420000000000000000e+02 3.043072509765625000e+01 3.240633392333984375e+01 3.842003345489501953e-01 5.707888603210449219e-01 2.864967584609985352e-01 1.647070646286010742e-01
7.430000000000000000e+02 2.347339820861816406e+01 3.335546875000000000e+01 2.831572890281677246e-01 1.916351169347763062e-01 1.424377113580703735e-01 1.842702776193618774e-01
7.440000000000000000e+02 1.434823799133300781e+01 3.317224502563476562e+01 8.951138705015182495e-02 -2.360063046216964722e-01 -4.394847527146339417e-02 1.515843272209167480e-01
7.450000000000000000e+02 7.334697723388671875e+00 3.265689086914062500e+01 2.549571543931961060e-02 -6.396882534027099609e-01 -1.842577606439590454e-01 7.844309508800506592e-02
7.460000000000000000e+02 2.094796180725097656e+00 3.154320907592773438e+01 -5.136149702593684196e-04 -1.044837474822998047e+00 -3.136053383350372314e-01 2.009006775915622711e-02
7.470000000000000000e+02 6.986392021179199219e+00 -1.929191589355468750e+00 -1.529311180114746094e+00 1.978590190410614014e-01 -3.994356691837310791e-01 -4.680588245391845703e-01
7.480000000000000000e+02 6.166273117065429688e+00 -1.945924043655395508e+00 -1.313729405403137207e+00 1.303871423006057739e-01 -3.550026714801788330e-01 -6.112741827964782715e-01
7.490000000000000000e+02 5.342820644378662109e+00 -1.958119392395019531e+00 -1.120221138000488281e+00 4.272461310029029846e-02 -3.232489526271820068e-01 -6.562910676002502441e-01
7.500000000000000000e+02 4.522218704223632812e+00 -1.956429123878479004e+00 -8.967931270599365234e-01 -4.995911382138729095e-03 -2.705367207527160645e-01 -7.121080756187438965e-01
7.510000000000000000e+02 2.902645111083984375e+00 -1.985486984252929688e+00 -4.898380041122436523e-01 -1.674402356147766113e-01 -1.971834748983383179e-01 -6.067555546760559082e-01
7.520000000000000000e+02 3.053365945816040039e+00 -2.962400913238525391e+00 -4.618358016014099121e-01 -3.028570711612701416e-01 -2.294078618288040161e-01 -8.291296362876892090e-01
7.530000000000000000e+02 2.099112033843994141e+00 -2.046404361724853516e+00 -2.987536191940307617e-01 -2.685205936431884766e-01 -1.701822578907012939e-01 -4.805186986923217773e-01
7.540000000000000000e+02 1.277603626251220703e+00 -2.122362852096557617e+00 -1.227542161941528320e-01 -3.351160883903503418e-01 -1.373610943555831909e-01 -2.936327755451202393e-01
7.550000000000000000e+02 4.321101605892181396e-01 -2.189379692077636719e+00 -1.634577475488185883e-02 -2.105372399091720581e-01 -6.806490570306777954e-02 -8.801486343145370483e-02
7.560000000000000000e+02 2.001806735992431641e+00 -4.163508987426757812e+01 -6.751938164234161377e-02 -1.530552953481674194e-01 -6.617240607738494873e-02 1.927089318633079529e-02
7.570000000000000000e+02 9.620244503021240234e-01 -3.869164276123046875e+01 1.697923638857901096e-03 -2.615280747413635254e-01 -7.794903963804244995e-02 5.233249440789222717e-02
7.580000000000000000e+02 7.026020288467407227e-01 -3.477262115478515625e+01 -1.832289062440395355e-02 -5.468974113464355469e-01 -1.695660948753356934e-01 6.076088547706604004e-02
7.590000000000000000e+02 7.749803662300109863e-01 -3.339278030395507812e+01 -2.151305228471755981e-02 -6.749294400215148926e-01 -2.089327573776245117e-01 9.365606307983398438e-02
7.600000000000000000e+02 6.553521156311035156e-01 -2.915841293334960938e+01 -1.022310578264296055e-03 -1.399169206619262695e+00 -4.200574755668640137e-01 1.320540755987167358e-01
7.610000000000000000e+02 6.560482382774353027e-01 -2.774734687805175781e+01 -3.191549703478813171e-02 -1.728533267974853516e+00 -5.281346440315246582e-01 1.721149235963821411e-01
7.620000000000000000e+02 6.479493379592895508e-01 -2.633277702331542969e+01 5.283379461616277695e-03 -2.128174066543579102e+00 -6.368672251701354980e-01 1.951006501913070679e-01
7.630000000000000000e+02 6.331928372383117676e-01 -2.208483886718750000e+01 -4.387129843235015869e-02 -3.865322113037109375e+00 -1.172757983207702637e+00 3.185901343822479248e-01
7.640000000000000000e+02 6.351894140243530273e-01 -2.066705894470214844e+01 1.698127202689647675e-02 -4.587522029876708984e+00 -1.371162176132202148e+00 3.396769762039184570e-01
7.650000000000000000e+02 1.906912326812744141e+00 -2.082998466491699219e+01 -5.977060273289680481e-02 -3.089060306549072266e+00 -9.446492791175842285e-01 8.680953383445739746e-01
7.660000000000000000e+02 6.272833943367004395e-01 -1.641997146606445312e+01 1.779147796332836151e-02 -6.605252742767333984e+00 -1.976238369941711426e+00 2.334794849157333374e-01
7.670000000000000000e+02 6.132083535194396973e-01 -1.500228500366210938e+01 6.873798370361328125e-02 -6.939296245574951172e+00 -2.061167478561401367e+00 1.292613446712493896e-01
7.680000000000000000e+02 5.948963165283203125e-01 -1.358451938629150391e+01 1.006257981061935425e-01 -6.898740291595458984e+00 -2.039434194564819336e+00 -7.263113558292388916e-02
7.690000000000000000e+02 1.763302326202392578e+00 -1.369383239746093750e+01 3.990909457206726074e-01 -4.615725994110107422e+00 -1.264990448951721191e+00 -2.306475192308425903e-01
7.700000000000000000e+02 5.692681074142456055e-01 -9.336694717407226562e+00 -1.365687604993581772e-02 -4.545752525329589844e+00 -1.367822885513305664e+00 -3.944306671619415283e-01
7.710000000000000000e+02 5.668329596519470215e-01 -7.931722640991210938e+00 3.253595158457756042e-02 -3.454454183578491211e+00 -1.026575446128845215e+00 -4.142345786094665527e-01
7.720000000000000000e+02 3.763254880905151367e+00 -2.826517581939697266e+00 -6.627519130706787109e-01 -1.060719713568687439e-01 -2.306471616029739380e-01 -8.984106183052062988e-01
7.730000000000000000e+02 6.711103820800781250e+01 -3.740455627441406250e+01 1.154745593667030334e-01 5.204338073730468750e+00 1.595943808555603027e+00 2.545265257358551025e-01
7.740000000000000000e+02 3.029898643493652344e+01 -3.797635269165039062e+01 8.038900047540664673e-02 1.855981647968292236e-01 7.979615032672882080e-02 -8.155871927738189697e-02
7.750000000000000000e+02 1.184424209594726562e+01 -3.798660659790039062e+01 -3.350142538547515869e-01 7.074972391128540039e-01 1.117448881268501282e-01 5.777816101908683777e-02
7.760000000000000000e+02 7.860025787353515625e+01 4.024341583251953125e+01 -3.198025748133659363e-02 6.315655231475830078e+00 1.885102391242980957e+00 -6.869501620531082153e-02
7.770000000000000000e+02 7.805372619628906250e+01 4.173757553100585938e+01 9.334837645292282104e-02 6.269779682159423828e+00 1.908938407897949219e+00 -2.613944560289382935e-02
7.780000000000000000e+02 7.877310180664062500e+01 3.877489089965820312e+01 -2.742552570998668671e-02 6.373642444610595703e+00 1.903865098953247070e+00 -3.849583491683006287e-02
7.790000000000000000e+02 7.773881530761718750e+01 3.659627151489257812e+01 7.522318512201309204e-03 6.260825157165527344e+00 1.880504250526428223e+00 -4.755109921097755432e-02
7.800000000000000000e+02 7.915419769287109375e+01 3.488362884521484375e+01 -2.280413638800382614e-03 6.512604236602783203e+00 1.953097224235534668e+00 -1.177270617336034775e-02
7.810000000000000000e+02 7.765873718261718750e+01 3.343526077270507812e+01 1.455012429505586624e-02 6.370184421539306641e+00 1.915420293807983398e+00 -7.026933133602142334e-02
7.820000000000000000e+02 7.921392059326171875e+01 3.346906280517578125e+01 1.010112278163433075e-02 6.541847229003906250e+00 1.965584516525268555e+00 -1.922521181404590607e-02
7.830000000000000000e+02 7.930170440673828125e+01 3.071537590026855469e+01 -5.133428610861301422e-03 6.655732631683349609e+00 1.995179772377014160e+00 -2.661446109414100647e-02
7.840000000000000000e+02 7.652904510498046875e+01 2.808568382263183594e+01 2.334191836416721344e-02 6.400805473327636719e+00 1.927244305610656738e+00 -1.435380727052688599e-01
7.850000000000000000e+02 7.930866241455078125e+01 2.654744720458984375e+01 2.168914536014199257e-03 6.854931354522705078e+00 2.057130098342895508e+00 -3.572366759181022644e-02
7.860000000000000000e+02 7.660501098632812500e+01 2.535815429687500000e+01 1.654883287847042084e-02 6.532226562500000000e+00 1.964632630348205566e+00 -1.833499073982238770e-01
7.870000000000000000e+02 7.931891632080078125e+01 2.515280914306640625e+01 -1.707432908006012440e-03 6.936182975769042969e+00 2.080342531204223633e+00 -3.622912243008613586e-02
7.880000000000000000e+02 7.934391784667968750e+01 2.098972129821777344e+01 6.381879560649394989e-03 7.230762958526611328e+00 2.171143531799316406e+00 -4.960621148347854614e-02
7.890000000000000000e+02 7.935316467285156250e+01 1.959950065612792969e+01 -4.619291517883539200e-03 7.350666522979736328e+00 2.203814268112182617e+00 -5.052364990115165710e-02
7.900000000000000000e+02 7.935585784912109375e+01 1.820927429199218750e+01 1.146860234439373016e-02 7.486080169677734375e+00 2.249264717102050781e+00 -5.987261608242988586e-02
7.910000000000000000e+02 7.934387207031250000e+01 1.404957675933837891e+01 -1.099603436887264252e-02 7.955229282379150391e+00 2.383270025253295898e+00 -6.932929158210754395e-02
7.920000000000000000e+02 7.934247589111328125e+01 1.265642452239990234e+01 1.314997766166925430e-02 8.131011009216308594e+00 2.443248271942138672e+00 -7.538956403732299805e-02
7.930000000000000000e+02 7.934211730957031250e+01 1.126509952545166016e+01 -1.063773874193429947e-02 8.312475204467773438e+00 2.490551233291625977e+00 -7.483914494514465332e-02
7.940000000000000000e+02 7.934351348876953125e+01 7.093203067779541016e+00 -8.298239670693874359e-03 8.813727378845214844e+00 2.641628742218017578e+00 -4.703588783740997314e-02
7.950000000000000000e+02 7.934611511230468750e+01 5.702560901641845703e+00 -5.642581731081008911e-03 8.930644035339355469e+00 2.677500486373901367e+00 -3.385112434625625610e-02
7.960000000000000000e+02 7.934918975830078125e+01 4.313647747039794922e+00 -3.017659671604633331e-02 8.986524581909179688e+00 2.686904430389404297e+00 1.043078862130641937e-02
7.970000000000000000e+02 7.935526275634765625e+01 1.438906788825988770e-01 2.286961767822504044e-03 8.597640991210937500e+00 2.579978227615356445e+00 1.504191011190414429e-01
7.980000000000000000e+02 7.935308074951171875e+01 -1.253455162048339844e+00 -7.608842104673385620e-02 8.190678596496582031e+00 2.434376955032348633e+00 2.501989901065826416e-01
7.990000000000000000e+02 7.806712341308593750e+01 -3.845507621765136719e+00 -4.192094877362251282e-02 7.536668300628662109e+00 2.248424291610717773e+00 8.441476821899414062e-01
8.000000000000000000e+02 7.934799194335937500e+01 -4.064554214477539062e+00 -8.090110868215560913e-02 6.970445632934570312e+00 2.066863298416137695e+00 3.701493144035339355e-01
8.010000000000000000e+02 7.935106658935546875e+01 -8.255161285400390625e+00 1.218995302915573120e-01 4.823965072631835938e+00 1.483759403228759766e+00 2.766215205192565918e-01
8.020000000000000000e+02 7.802827453613281250e+01 -1.085551738739013672e+01 2.576563060283660889e-01 5.788240432739257812e+00 1.813769102096557617e+00 1.542028933763504028e-01
8.030000000000000000e+02 7.933733367919921875e+01 -1.105047416687011719e+01 1.338768899440765381e-01 4.116293907165527344e+00 1.275051236152648926e+00 5.054331943392753601e-02
8.040000000000000000e+02 7.931801605224609375e+01 -1.524475669860839844e+01 3.687590360641479492e-02 5.075886726379394531e+00 1.533828735351562500e+00 -3.214191794395446777e-01
8.050000000000000000e+02 7.796301269531250000e+01 -1.789138221740722656e+01 -2.209826931357383728e-02 7.257678031921386719e+00 2.170673847198486328e+00 -9.455465674400329590e-01
8.060000000000000000e+02 7.931696319580078125e+01 -1.804166603088378906e+01 3.213124722242355347e-02 6.528785705566406250e+00 1.968275070190429688e+00 -4.028631150722503662e-01
8.070000000000000000e+02 7.930925750732421875e+01 -2.363129425048828125e+01 1.468802057206630707e-02 9.059172630310058594e+00 2.722158193588256836e+00 -2.568113505840301514e-01
8.080000000000000000e+02 7.796620178222656250e+01 -2.495632553100585938e+01 -7.464636117219924927e-02 9.173859596252441406e+00 2.729763984680175781e+00 -5.081511139869689941e-01
8.090000000000000000e+02 7.930910491943359375e+01 -2.503509712219238281e+01 -5.621003732085227966e-02 9.483466148376464844e+00 2.828176975250244141e+00 -2.073348164558410645e-01
8.100000000000000000e+02 7.928836822509765625e+01 -2.925160026550292969e+01 1.908093504607677460e-02 1.022027015686035156e+01 3.071805238723754883e+00 -8.986463397741317749e-02
8.110000000000000000e+02 7.787920379638671875e+01 -3.199488067626953125e+01 -5.981831625103950500e-02 9.798584938049316406e+00 2.921630144119262695e+00 -9.578265249729156494e-02
8.120000000000000000e+02 7.928153991699218750e+01 -3.202870559692382812e+01 3.048968501389026642e-02 1.042444992065429688e+01 3.136481761932373047e+00 -5.402363464236259460e-02
8.130000000000000000e+02 7.922860717773437500e+01 -3.624664306640625000e+01 3.500222414731979370e-02 1.038181591033935547e+01 3.125045299530029297e+00 -4.772354383021593094e-03
8.140000000000000000e+02 7.935045623779296875e+01 -3.758131027221679688e+01 -8.349246531724929810e-02 1.033916950225830078e+01 3.076703071594238281e+00 3.771706670522689819e-02
8.150000000000000000e+02 7.925382232666015625e+01 -3.877022552490234375e+01 4.742207750678062439e-02 1.019902324676513672e+01 3.073933601379394531e+00 5.813721567392349243e-02
8.160000000000000000e+02 7.878499603271484375e+01 -4.000315856933593750e+01 -8.741254359483718872e-02 1.000520229339599609e+01 2.975336790084838867e+00 1.442017108201980591e-01
8.170000000000000000e+02 6.051450252532958984e+00 3.787949371337890625e+01 2.294955216348171234e-02 -7.683883905410766602e-01 -2.236316502094268799e-01 3.775479272007942200e-02
8.180000000000000000e+02 2.773134040832519531e+01 4.052725219726562500e+01 3.782691359519958496e-01 4.424478411674499512e-01 2.462150901556015015e-01 3.750854358077049255e-02
8.190000000000000000e+02 3.797864019870758057e-01 2.181878805160522461e+00 -1.949388097273185849e-04 5.864791572093963623e-03 1.700955792330205441e-03 9.414380183443427086e-04
8.200000000000000000e+02 2.647391080856323242e+00 2.692383766174316406e+00 -4.254066944122314453e-02 -3.653522953391075134e-02 -2.372277155518531799e-02 4.727181047201156616e-02
8.210000000000000000e+02 4.697716236114501953e+00 2.536568164825439453e+00 -1.067985892295837402e-01 -3.013144247233867645e-02 -4.107900708913803101e-02 9.162463992834091187e-02
8.220000000000000000e+02 1.732801795005798340e+00 6.285881996154785156e+00 -2.019310742616653442e-02 -1.598287969827651978e-01 -5.400656908750534058e-02 1.001437753438949585e-01
8.230000000000000000e+02 5.751556754112243652e-01 9.213849067687988281e+00 2.338458551093935966e-03 -3.479775190353393555e-01 -1.036917194724082947e-01 4.595280066132545471e-02
8.240000000000000000e+02 5.997715592384338379e-01 1.201365566253662109e+01 4.017429426312446594e-03 -5.775397419929504395e-01 -1.720566898584365845e-01 4.651570320129394531e-02
8.250000000000000000e+02 1.812587141990661621e+00 1.182921028137207031e+01 2.580814063549041748e-03 -5.085957646369934082e-01 -1.518044918775558472e-01 1.361212730407714844e-01
8.260000000000000000e+02 6.167854070663452148e-01 1.622272109985351562e+01 8.734276052564382553e-04 -8.616570830345153809e-01 -2.582350969314575195e-01 3.277714177966117859e-02
8.270000000000000000e+02 6.221666336059570312e-01 1.763370895385742188e+01 4.670934751629829407e-03 -9.286150336265563965e-01 -2.771832346916198730e-01 2.571988664567470551e-02
8.280000000000000000e+02 6.501747965812683105e-01 2.188236808776855469e+01 9.988686069846153259e-04 -1.052823662757873535e+00 -3.155474364757537842e-01 1.204703748226165771e-02
8.290000000000000000e+02 6.580377221107482910e-01 2.330162429809570312e+01 1.482376363128423691e-03 -1.076682329177856445e+00 -3.225599825382232666e-01 9.311480447649955750e-03
8.300000000000000000e+02 6.642931103706359863e-01 2.471775817871093750e+01 2.935404481831938028e-04 -1.095519542694091797e+00 -3.285678029060363770e-01 7.598088588565587997e-03
8.310000000000000000e+02 6.822406053543090820e-01 2.894748687744140625e+01 -5.261910846456885338e-04 -1.137894749641418457e+00 -3.415262997150421143e-01 6.072035524994134903e-03
8.320000000000000000e+02 6.901701092720031738e-01 3.036353302001953125e+01 9.085112251341342926e-04 -1.150317430496215820e+00 -3.448226749897003174e-01 5.405537318438291550e-03
8.330000000000000000e+02 2.072327136993408203e+00 3.012285232543945312e+01 2.636380959302186966e-04 -1.029106974601745605e+00 -3.086530268192291260e-01 1.907862536609172821e-02
8.340000000000000000e+02 6.937146782875061035e-01 3.177755546569824219e+01 -6.383649306371808052e-04 -1.162061452865600586e+00 -3.488099277019500732e-01 5.412489641457796097e-03
8.350000000000000000e+02 7.654536962509155273e-01 3.597533798217773438e+01 4.249051678925752640e-03 -1.178490281105041504e+00 -3.522723615169525146e-01 -5.108358804136514664e-03
8.360000000000000000e+02 9.876723885536193848e-01 3.871867370605468750e+01 -3.601558739319443703e-03 -1.147391438484191895e+00 -3.452979028224945068e-01 -9.215416386723518372e-03
8.370000000000000000e+02 1.301097035408020020e+00 4.009025573730468750e+01 1.759964041411876678e-02 -1.122621297836303711e+00 -3.315064907073974609e-01 -2.365184761583805084e-02
8.380000000000000000e+02 9.836186408996582031e+00 1.863307714462280273e+00 -3.564015924930572510e-01 -6.595640629529953003e-02 -1.267074048519134521e-01 1.656442135572433472e-01
8.390000000000000000e+02 9.082796096801757812e+00 1.878169536590576172e+00 -3.138999342918395996e-01 -5.527325719594955444e-02 -1.107519641518592834e-01 1.529969274997711182e-01
8.400000000000000000e+02 8.343065261840820312e+00 1.877959370613098145e+00 -2.813199460506439209e-01 -2.811512723565101624e-02 -9.283051639795303345e-02 1.383449435234069824e-01
8.410000000000000000e+02 7.610494613647460938e+00 1.870966553688049316e+00 -2.346468120813369751e-01 -2.479631081223487854e-02 -7.783293724060058594e-02 1.194483935832977295e-01
8.420000000000000000e+02 6.156571388244628906e+00 1.850487470626831055e+00 -1.564205884933471680e-01 -1.964993216097354889e-02 -5.282115563750267029e-02 9.331157058477401733e-02
8.430000000000000000e+02 4.716488838195800781e+00 1.842650055885314941e+00 -9.351671487092971802e-02 -2.104066684842109680e-02 -3.436721488833427429e-02 6.826175004243850708e-02
8.440000000000000000e+02 3.997243404388427734e+00 1.852241754531860352e+00 -6.855295598506927490e-02 -1.769681274890899658e-02 -2.587493136525154114e-02 5.087715759873390198e-02
8.450000000000000000e+02 3.280897378921508789e+00 1.872879147529602051e+00 -4.920573160052299500e-02 -2.088858373463153839e-02 -2.102829515933990479e-02 4.063766077160835266e-02
8.460000000000000000e+02 1.855153799057006836e+00 2.001795768737792969e+00 -1.684572920203208923e-02 -2.036375924944877625e-02 -1.116284634917974472e-02 1.496775448322296143e-02
8.470000000000000000e+02 1.130398869514465332e+00 2.109672069549560547e+00 -6.117657758295536041e-03 -1.117146387696266174e-02 -5.186736583709716797e-03 4.163674544543027878e-03
8.480000000000000000e+02 1.144484710693359375e+01 1.609053254127502441e+00 -4.324946403503417969e-01 -1.161778345704078674e-01 -1.646017432212829590e-01 1.985805332660675049e-01
8.490000000000000000e+02 1.308803272247314453e+01 1.224556326866149902e+00 -4.843696057796478271e-01 -1.929258853197097778e-01 -2.031886428594589233e-01 2.592695057392120361e-01
8.500000000000000000e+02 1.577568721771240234e+01 1.151497125625610352e+00 -4.465907812118530273e-01 -3.982082307338714600e-01 -2.534396946430206299e-01 3.594617843627929688e-01
8.510000000000000000e+02 1.543625736236572266e+01 3.497180640697479248e-01 -5.088459849357604980e-01 -3.606685101985931396e-01 -2.608543336391448975e-01 3.675637245178222656e-01
8.520000000000000000e+02 1.620424461364746094e+01 2.262808009982109070e-02 -5.136292576789855957e-01 -4.004365801811218262e-01 -2.742197513580322266e-01 4.004586040973663330e-01
8.530000000000000000e+02 1.833601760864257812e+01 -1.340042829513549805e+00 -5.555589199066162109e-01 -3.713654875755310059e-01 -2.780773341655731201e-01 4.327337443828582764e-01
8.540000000000000000e+02 1.902020454406738281e+01 -1.825335860252380371e+00 -5.782368183135986328e-01 -2.819720208644866943e-01 -2.580626606941223145e-01 4.125803709030151367e-01
8.550000000000000000e+02 2.077944374084472656e+01 -3.572255849838256836e+00 -5.994144678115844727e-01 1.294079124927520752e-01 -1.410019695758819580e-01 3.213571906089782715e-01
8.560000000000000000e+02 2.217969703674316406e+01 -4.251748085021972656e+00 -6.047335863113403320e-01 7.514185309410095215e-01 4.400547966361045837e-02 2.568218111991882324e-01
8.570000000000000000e+02 2.290319824218750000e+01 -5.403412818908691406e+00 -5.615167021751403809e-01 1.227283716201782227e+00 1.997300833463668823e-01 2.264104187488555908e-01
8.580000000000000000e+02 2.284231948852539062e+01 -6.394442081451416016e+00 -4.297192096710205078e-01 1.310340881347656250e+00 2.641865015029907227e-01 1.162140369415283203e-01
8.590000000000000000e+02 2.213576507568359375e+01 -5.327005863189697266e+00 -5.136236548423767090e-01 7.729821205139160156e-01 7.780753076076507568e-02 1.848028898239135742e-01
8.600000000000000000e+02 2.354357337951660156e+01 -7.539483547210693359e+00 -3.584626615047454834e-01 2.444958925247192383e+00 6.259489059448242188e-01 2.215929925441741943e-01
8.610000000000000000e+02 2.429018592834472656e+01 -9.042239189147949219e+00 3.657003343105316162e-01 4.709307670593261719e+00 1.522502303123474121e+00 1.553795576095581055e+00
8.620000000000000000e+02 2.440480995178222656e+01 -9.425785064697265625e+00 1.160067319869995117e+00 5.320851325988769531e+00 1.944275617599487305e+00 2.416398525238037109e+00
8.630000000000000000e+02 2.474423217773437500e+01 -9.825098991394042969e+00 2.973164081573486328e+00 4.595046997070312500e+00 2.270463228225708008e+00 3.385493040084838867e+00
8.640000000000000000e+02 2.459246444702148438e+01 -9.724070549011230469e+00 2.265939235687255859e+00 4.998383998870849609e+00 2.179296970367431641e+00 3.075298547744750977e+00
8.650000000000000000e+02 2.082221221923828125e+01 -1.019302845001220703e+01 3.078100204467773438e+00 -1.501094579696655273e+00 4.731017053127288818e-01 -5.056591033935546875e-01
8.660000000000000000e+02 2.104228973388671875e+01 -1.003115940093994141e+01 2.932141065597534180e+00 -1.090636014938354492e+00 5.524515509605407715e-01 -8.558940887451171875e-01
8.670000000000000000e+02 2.053511810302734375e+01 -9.349553108215332031e+00 1.782780647277832031e+00 -1.127275347709655762e+00 1.966515928506851196e-01 -4.150905013084411621e-01
8.680000000000000000e+02 2.041792297363281250e+01 -9.138991355895996094e+00 1.536225080490112305e+00 -1.146067261695861816e+00 1.170473545789718628e-01 -3.393516242504119873e-01
8.690000000000000000e+02 1.631382942199707031e+01 -1.309674263000488281e+01 -1.832388877868652344e+00 -1.085072755813598633e+00 -8.752384781837463379e-01 1.401822447776794434e+00
8.700000000000000000e+02 1.840544891357421875e+01 -6.539506912231445312e+00 1.607407182455062866e-01 -1.078769445419311523e+00 -2.754086256027221680e-01 6.533338427543640137e-01
8.710000000000000000e+02 1.656326293945312500e+01 -4.721399307250976562e+00 -6.019495129585266113e-01 -6.859107613563537598e-01 -3.863580822944641113e-01 1.028770208358764648e+00
8.720000000000000000e+02 1.538398551940917969e+01 -4.914337158203125000e+00 -5.845001339912414551e-01 -4.245483875274658203e-01 -3.027145564556121826e-01 1.123146772384643555e+00
8.730000000000000000e+02 1.511417579650878906e+01 -3.785877466201782227e+00 -1.087921380996704102e+00 -3.414338827133178711e-01 -4.288065731525421143e-01 1.030340313911437988e+00
8.740000000000000000e+02 1.187361621856689453e+01 -2.405061244964599609e+00 -1.783495903015136719e+00 1.953001618385314941e-01 -4.764586985111236572e-01 5.756964087486267090e-01
8.750000000000000000e+02 1.159133243560791016e+01 -3.100882530212402344e+00 -1.592472314834594727e+00 3.878947198390960693e-01 -3.613732755184173584e-01 5.440024137496948242e-01
8.760000000000000000e+02 7.870703220367431641e+00 -2.756825447082519531e+00 -1.518087387084960938e+00 4.579176604747772217e-01 -3.180509209632873535e-01 -4.042679369449615479e-01
8.770000000000000000e+02 2.142386627197265625e+01 1.629167938232421875e+01 -5.345697999000549316e-01 -2.474414557218551636e-01 -2.346033751964569092e-01 3.628400266170501709e-01
8.780000000000000000e+02 2.471815872192382812e+01 1.392853069305419922e+01 -5.608788132667541504e-01 -4.364562332630157471e-01 -2.992005050182342529e-01 5.096054673194885254e-01
8.790000000000000000e+02 2.052152252197265625e+01 4.092086791992187500e+00 -3.492968678474426270e-01 4.948127642273902893e-02 -8.994467556476593018e-02 1.559562534093856812e-01
8.800000000000000000e+02 1.436546707153320312e+01 7.159742832183837891e+00 -4.347922503948211670e-01 -5.646430253982543945e-01 -2.998305857181549072e-01 4.004405736923217773e-01
8.810000000000000000e+02 6.785540008544921875e+01 -1.687512588500976562e+01 9.876814484596252441e-01 1.084912872314453125e+01 3.551043033599853516e+00 2.757263660430908203e+00
8.820000000000000000e+02 6.538447570800781250e+01 -1.820811843872070312e+01 2.140074729919433594e+00 5.939486503601074219e+00 2.423868417739868164e+00 3.305903196334838867e+00
8.830000000000000000e+02 6.449491882324218750e+01 -1.930796623229980469e+01 1.552066445350646973e+00 3.844130039215087891e+00 1.618858933448791504e+00 2.504801511764526367e+00
8.840000000000000000e+02 6.266203308105468750e+01 -2.145040702819824219e+01 5.974437594413757324e-01 1.870031118392944336e+00 7.402424812316894531e-01 1.165871620178222656e+00
8.850000000000000000e+02 5.971790695190429688e+01 -2.455488014221191406e+01 -4.251618087291717529e-01 2.638314068317413330e-01 -4.839912056922912598e-02 -8.415959775447845459e-02
8.860000000000000000e+02 5.742438888549804688e+01 -2.628539276123046875e+01 -1.020695090293884277e+00 -2.041609734296798706e-01 -3.674568235874176025e-01 -5.104438662528991699e-01
8.870000000000000000e+02 5.497252655029296875e+01 -2.775794982910156250e+01 -1.220138072967529297e+00 -3.599990904331207275e-01 -4.740411341190338135e-01 -6.376116275787353516e-01
8.880000000000000000e+02 5.250254440307617188e+01 -2.912239074707031250e+01 -1.199711441993713379e+00 -3.070020079612731934e-01 -4.520140290260314941e-01 -6.387779712677001953e-01
8.890000000000000000e+02 4.578379058837890625e+01 -3.131120109558105469e+01 -5.427138805389404297e-01 -8.027553558349609375e-02 -1.868968307971954346e-01 -2.174215614795684814e-01
8.900000000000000000e+02 4.009647750854492188e+01 -3.251156234741210938e+01 -7.571873813867568970e-02 -3.813577443361282349e-02 -3.415635228157043457e-02 -4.952012374997138977e-02
8.910000000000000000e+02 3.577368164062500000e+01 -3.270794677734375000e+01 4.842380806803703308e-02 -7.917957380414009094e-03 1.215175539255142212e-02 -1.427504047751426697e-02
8.920000000000000000e+02 3.149444961547851562e+01 -3.190172195434570312e+01 9.459961950778961182e-02 3.157513961195945740e-02 3.785242512822151184e-02 -3.758401423692703247e-02
8.930000000000000000e+02 3.007628059387207031e+01 -3.166242980957031250e+01 1.377419531345367432e-01 3.612503036856651306e-02 5.216009542346000671e-02 -7.336775213479995728e-02
8.940000000000000000e+02 2.468915557861328125e+01 -2.936511802673339844e+01 3.756448030471801758e-01 1.801964193582534790e-01 1.667523682117462158e-01 -2.827680408954620361e-01
8.950000000000000000e+02 2.214443397521972656e+01 -2.798816871643066406e+01 6.046873331069946289e-01 3.448321521282196045e-01 2.848558425903320312e-01 -4.999476969242095947e-01
8.960000000000000000e+02 2.341499900817871094e+01 -2.868990898132324219e+01 4.938866496086120605e-01 3.175793588161468506e-01 2.434397935867309570e-01 -3.483043909072875977e-01
8.970000000000000000e+02 1.368747520446777344e+01 -2.049375534057617188e+01 1.637098789215087891e+00 2.253970861434936523e+00 1.167320966720581055e+00 -1.989796876907348633e+00
8.980000000000000000e+02 1.269007873535156250e+01 -1.947214126586914062e+01 1.977299451828002930e+00 2.963144540786743164e+00 1.482133269309997559e+00 -2.243836879730224609e+00
8.990000000000000000e+02 1.078003883361816406e+01 -1.732271766662597656e+01 2.681828975677490234e+00 5.912652969360351562e+00 2.578344583511352539e+00 -3.355079412460327148e+00
9.000000000000000000e+02 1.890654563903808594e+01 -7.147893905639648438e+00 3.766793608665466309e-01 -1.156057834625244141e+00 -2.338135242462158203e-01 4.908831119537353516e-01
9.010000000000000000e+02 2.016542816162109375e+01 -8.780613899230957031e+00 1.240126609802246094e+00 -1.143146991729736328e+00 2.909388393163681030e-02 -1.459937989711761475e-01
9.020000000000000000e+02 2.189946746826171875e+01 -1.171537399291992188e+01 5.794715404510498047e+00 -5.573284626007080078e-01 1.571216106414794922e+00 2.269847393035888672e+00
9.030000000000000000e+02 2.265587043762207031e+01 -1.606255531311035156e+01 -8.162890434265136719e+00 -8.570743203163146973e-01 -2.705989360809326172e+00 3.455827236175537109e+00
9.040000000000000000e+02 2.425775146484375000e+01 -1.571178817749023438e+01 -6.133608341217041016e+00 5.831629633903503418e-01 -1.665133595466613770e+00 1.241531491279602051e+00
9.050000000000000000e+02 2.928118324279785156e+01 -1.801551628112792969e+01 -4.067278385162353516e+00 3.471202030777931213e-02 -1.209769964218139648e+00 5.018914341926574707e-01
9.060000000000000000e+02 3.202827453613281250e+01 -1.843183898925781250e+01 -3.026233196258544922e+00 2.903528045862913132e-03 -9.069989323616027832e-01 1.834105104207992554e-01
9.070000000000000000e+02 3.339639663696289062e+01 -1.858562088012695312e+01 -2.534345626831054688e+00 6.255161017179489136e-02 -7.415382266044616699e-01 7.664567977190017700e-02
9.080000000000000000e+02 3.751206207275390625e+01 -1.862713241577148438e+01 -2.027248144149780273e+00 -2.119385753758251667e-04 -6.082379817962646484e-01 -1.511068940162658691e-01
9.090000000000000000e+02 3.484502792358398438e+01 -1.742977905273437500e+01 -2.151016712188720703e+00 1.064290478825569153e-01 -6.133763194084167480e-01 -2.107276320457458496e-01
9.100000000000000000e+02 4.023349761962890625e+01 -1.843289375305175781e+01 -1.593670248985290527e+00 1.551090180873870850e-02 -4.734478294849395752e-01 -2.543340921401977539e-01
9.110000000000000000e+02 4.549246597290039062e+01 -1.703018760681152344e+01 -1.678598284721374512e+00 -1.571012139320373535e-01 -5.507098436355590820e-01 -5.021594166755676270e-01
9.120000000000000000e+02 4.371092605590820312e+01 -1.637347030639648438e+01 -1.555778741836547852e+00 -7.381109893321990967e-02 -4.888769686222076416e-01 -4.233951866626739502e-01
9.130000000000000000e+02 4.679461288452148438e+01 -1.661068725585937500e+01 -1.528131842613220215e+00 -1.297800540924072266e-01 -4.973735809326171875e-01 -5.229622125625610352e-01
9.140000000000000000e+02 4.807038497924804688e+01 -1.611131095886230469e+01 -1.510000824928283691e+00 -1.957888454198837280e-01 -5.117369294166564941e-01 -5.994592308998107910e-01
9.150000000000000000e+02 5.222174835205078125e+01 -1.260694217681884766e+01 -1.768961548805236816e+00 -2.947835624217987061e-01 -6.191235184669494629e-01 -7.798992991447448730e-01
9.160000000000000000e+02 5.301565933227539062e+01 -1.362328243255615234e+01 -1.837207794189453125e+00 -4.958273470401763916e-01 -6.999105215072631836e-01 -9.517146348953247070e-01
9.170000000000000000e+02 5.541994094848632812e+01 -1.223118209838867188e+01 -1.994415044784545898e+00 -6.344963312149047852e-01 -7.886734008789062500e-01 -1.167634844779968262e+00
9.180000000000000000e+02 5.775886535644531250e+01 -1.072048282623291016e+01 -2.597727060317993164e+00 -8.999100923538208008e-01 -1.049291133880615234e+00 -1.528534650802612305e+00
9.190000000000000000e+02 6.124702835083007812e+01 -8.446104049682617188e+00 -3.946180582046508789e+00 -1.182572722434997559e+00 -1.538625955581665039e+00 -2.111359357833862305e+00
9.200000000000000000e+02 6.423747253417968750e+01 -5.984801769256591797e+00 -3.683780908584594727e+00 -6.597016453742980957e-01 -1.303044795989990234e+00 -1.960942029953002930e+00
9.210000000000000000e+02 5.073009109497070312e+01 1.875591850280761719e+01 1.482537835836410522e-01 1.777769774198532104e-01 9.780923277139663696e-02 -1.842303425073623657e-01
9.220000000000000000e+02 5.475624465942382812e+01 1.635467910766601562e+01 1.025587439537048340e+00 2.924993753433227539e+00 1.185174345970153809e+00 -1.441894888877868652e+00
9.230000000000000000e+02 4.620814895629882812e+01 5.865495204925537109e+00 1.949435323476791382e-01 9.237141907215118408e-02 8.619448542594909668e-02 2.091513387858867645e-02
9.240000000000000000e+02 4.305099105834960938e+01 9.296547889709472656e+00 4.220323637127876282e-02 1.038116097450256348e+00 3.240957856178283691e-01 -7.262384891510009766e-02
9.250000000000000000e+02 4.652737045288085938e+01 1.945820999145507812e+01 5.514973402023315430e-01 6.611285805702209473e-01 3.637877702713012695e-01 5.891377925872802734e-01
9.260000000000000000e+02 1.775387001037597656e+01 -7.003445148468017578e+00 4.349951744079589844e-01 -1.231984972953796387e+00 -2.390969395637512207e-01 7.857201695442199707e-01
9.270000000000000000e+02 1.783275413513183594e+01 -1.278467369079589844e+01 -1.330898761749267578e+00 -2.044332981109619141e+00 -1.012569427490234375e+00 2.316182374954223633e+00
9.280000000000000000e+02 2.148486900329589844e+01 -1.090952873229980469e+01 5.312663078308105469e+00 -1.576644659042358398e+00 1.120805501937866211e+00 -9.489499777555465698e-02
9.290000000000000000e+02 2.076384162902832031e+01 -9.756394386291503906e+00 2.299863815307617188e+00 -1.191316723823547363e+00 3.325641155242919922e-01 -5.986222624778747559e-01
9.300000000000000000e+02 2.158809089660644531e+01 -1.107788467407226562e+01 5.478888511657714844e+00 -1.492179989814758301e+00 1.196012616157531738e+00 1.502197831869125366e-01
9.310000000000000000e+02 2.137865257263183594e+01 -1.073644161224365234e+01 4.600041866302490234e+00 -1.422978878021240234e+00 9.531188607215881348e-01 -4.731684029102325439e-01
9.320000000000000000e+02 2.127122497558593750e+01 -1.055169963836669922e+01 4.118590831756591797e+00 -1.391435623168945312e+00 8.181465268135070801e-01 -6.077489256858825684e-01
9.330000000000000000e+02 2.121807861328125000e+01 -1.033899021148681641e+01 3.518105268478393555e+00 -1.182254910469055176e+00 7.007551193237304688e-01 -7.221329212188720703e-01
9.340000000000000000e+02 2.063982772827148438e+01 -9.553990364074707031e+00 2.060341119766235352e+00 -1.173407673835754395e+00 2.660800516605377197e-01 -5.183264613151550293e-01
9.350000000000000000e+02 2.401924324035644531e+01 -8.691634178161621094e+00 -1.417882889509201050e-01 4.133009433746337891e+00 1.197366356849670410e+00 7.761728167533874512e-01
9.360000000000000000e+02 2.435047912597656250e+01 -9.251354217529296875e+00 7.986054420471191406e-01 4.963955402374267578e+00 1.728768229484558105e+00 1.951262354850769043e+00
9.370000000000000000e+02 2.376931953430175781e+01 -8.176321983337402344e+00 -2.793376743793487549e-01 3.147319555282592773e+00 8.603945970535278320e-01 3.351634144783020020e-01
9.380000000000000000e+02 2.255600166320800781e+01 -4.842427730560302734e+00 -5.884402394294738770e-01 9.716998338699340820e-01 1.149778887629508972e-01 2.397864311933517456e-01
9.390000000000000000e+02 2.320217132568359375e+01 -6.907362937927246094e+00 -4.040364921092987061e-01 1.784970283508300781e+00 4.142801463603973389e-01 1.312929093837738037e-01
9.400000000000000000e+02 2.377932357788085938e+01 -4.555095672607421875e+00 -6.610984802246093750e-01 1.476309776306152344e+00 2.445633858442306519e-01 4.340377449989318848e-01
9.410000000000000000e+02 2.365962409973144531e+01 -7.751089572906494141e+00 -3.301146626472473145e-01 2.683840036392211914e+00 7.061176300048828125e-01 2.499244809150695801e-01
9.420000000000000000e+02 2.324146842956542969e+01 -5.932450294494628906e+00 -5.577723383903503418e-01 1.539566040039062500e+00 2.945381402969360352e-01 2.505756020545959473e-01
9.430000000000000000e+02 2.124404144287109375e+01 -2.956959724426269531e+00 -6.079046726226806641e-01 3.474742472171783447e-01 -7.812912762165069580e-02 3.004471063613891602e-01
9.440000000000000000e+02 1.931200790405273438e+01 -9.463119506835937500e+00 1.764995455741882324e+00 -1.913066983222961426e+00 -4.442142695188522339e-02 2.427691072225570679e-01
9.450000000000000000e+02 1.976821708679199219e+01 -8.262477874755859375e+00 8.916395306587219238e-01 -1.161543369293212891e+00 -8.097115904092788696e-02 7.817170768976211548e-02
9.460000000000000000e+02 1.751571273803710938e+01 -1.372746372222900391e+01 -3.092900514602661133e+00 -1.073828816413879395e+00 -1.250018835067749023e+00 2.066406011581420898e+00
9.470000000000000000e+02 1.925669097900390625e+01 -8.625844001770019531e+00 1.225040793418884277e+00 -1.499036550521850586e+00 -8.219873905181884766e-02 1.984797865152359009e-01
9.480000000000000000e+02 9.061608314514160156e+00 3.372266292572021484e+00 -3.075842857360839844e-01 -7.951050996780395508e-02 -1.161284372210502625e-01 2.246098965406417847e-01
9.490000000000000000e+02 8.303098678588867188e+00 2.627151489257812500e+00 -2.737699747085571289e-01 -5.202113837003707886e-02 -9.773733466863632202e-02 1.757693588733673096e-01
9.500000000000000000e+02 6.882211685180664062e+00 1.860989689826965332e+00 -1.956178694963455200e-01 -1.538684964179992676e-02 -6.330141425132751465e-02 1.050196364521980286e-01
9.510000000000000000e+02 1.698431015014648438e+00 7.732523918151855469e+00 -1.019560266286134720e-02 -2.444271445274353027e-01 -7.638682425022125244e-02 1.167714074254035950e-01
9.520000000000000000e+02 9.861624717712402344e+00 2.597889423370361328e+00 -3.487443029880523682e-01 -8.880166709423065186e-02 -1.312637925148010254e-01 2.008343040943145752e-01
9.530000000000000000e+02 7.559208393096923828e+00 2.609088659286499023e+00 -2.414589077234268188e-01 -3.366227447986602783e-02 -8.253635466098785400e-02 1.596476286649703979e-01
9.540000000000000000e+02 6.104194641113281250e+00 2.555773735046386719e+00 -1.675357073545455933e-01 -2.780314162373542786e-02 -5.860165506601333618e-02 1.238091960549354553e-01
9.550000000000000000e+02 6.826652526855468750e+00 2.583092212677001953e+00 -2.002180963754653931e-01 -3.524793684482574463e-02 -7.063981145620346069e-02 1.426167637109756470e-01
9.560000000000000000e+02 1.323342561721801758e+00 3.362601280212402344e+00 -1.524786930531263351e-02 -3.874284029006958008e-02 -1.619721204042434692e-02 2.922226674854755402e-02
9.570000000000000000e+02 6.060721397399902344e+00 3.268177032470703125e+00 -1.666880697011947632e-01 -5.047706887125968933e-02 -6.514953821897506714e-02 1.576500833034515381e-01
9.580000000000000000e+02 2.566711425781250000e+00 1.913545846939086914e+00 -3.155506402254104614e-02 -2.093390747904777527e-02 -1.574669219553470612e-02 2.686133049428462982e-02
9.590000000000000000e+02 2.044944524765014648e+00 2.979488611221313477e+00 -2.671581879258155823e-02 -3.972543030977249146e-02 -1.993237435817718506e-02 3.782632946968078613e-02
9.600000000000000000e+02 2.547068023681640625e+01 -1.208139610290527344e+01 3.939070224761962891e+00 2.026715278625488281e+00 1.789735674858093262e+00 -1.056667447090148926e+00
9.610000000000000000e+02 2.282124519348144531e+01 -1.258932399749755859e+01 1.867796063423156738e+00 4.481163978576660156e+00 1.904688000679016113e+00 2.752698421478271484e+00
9.620000000000000000e+02 2.654436492919921875e+01 -1.129324913024902344e+01 3.411015272140502930e+00 6.618294715881347656e-01 1.221853375434875488e+00 2.505749762058258057e-01
9.630000000000000000e+02 2.499016952514648438e+01 -1.305948066711425781e+01 4.623144567012786865e-01 2.866224765777587891e+00 9.985617399215698242e-01 -1.240608930587768555e+00
9.640000000000000000e+02 2.384736633300781250e+01 -1.350586509704589844e+01 -1.411581397056579590e+00 3.553733825683593750e+00 6.426457166671752930e-01 1.243911087512969971e-01
9.650000000000000000e+02 2.449164962768554688e+01 -9.588598251342773438e+00 1.646576642990112305e+00 5.252079010009765625e+00 2.069596767425537109e+00 2.774792909622192383e+00
9.660000000000000000e+02 2.521610069274902344e+01 -9.858695983886718750e+00 3.412349224090576172e+00 3.350147247314453125e+00 2.028748989105224609e+00 2.903521060943603516e+00
9.670000000000000000e+02 2.006130790710449219e+01 -1.474807548522949219e+01 -6.692215919494628906e+00 -2.206325769424438477e+00 -2.669562578201293945e+00 3.975855588912963867e+00
9.680000000000000000e+02 1.680279350280761719e+01 3.976680040359497070e+00 -5.794939994812011719e-01 -4.339009523391723633e-01 -3.040184974670410156e-01 3.369188904762268066e-01
9.690000000000000000e+02 1.548645877838134766e+01 6.580229282379150391e+00 -5.083574652671813965e-01 -6.573825478553771973e-01 -3.497219979763031006e-01 5.209985971450805664e-01
9.700000000000000000e+02 1.636880111694335938e+01 2.974201202392578125e+00 -4.425730407238006592e-01 -4.479021728038787842e-01 -2.671425640583038330e-01 3.395767807960510254e-01
9.710000000000000000e+02 1.641156387329101562e+01 5.720376968383789062e+00 -5.928069949150085449e-01 -5.370819568634033203e-01 -3.389666676521301270e-01 5.387885570526123047e-01
9.720000000000000000e+02 4.559537410736083984e+00 -2.890535831451416016e+00 -8.218683600425720215e-01 -2.472567185759544373e-02 -2.539781928062438965e-01 -8.936418294906616211e-01
9.730000000000000000e+02 7.797135829925537109e+00 -1.913771748542785645e+00 -1.675312280654907227e+00 2.373424917459487915e-01 -4.313909113407135010e-01 -3.274218738079071045e-01
9.740000000000000000e+02 1.704560637474060059e+00 -9.454099655151367188e+00 8.317149430513381958e-02 -3.261229038238525391e+00 -9.534172415733337402e-01 -1.153910279273986816e+00
9.750000000000000000e+02 5.769730210304260254e-01 -6.522312641143798828e+00 -3.253438323736190796e-02 -2.385929346084594727e+00 -7.255391478538513184e-01 -3.966691195964813232e-01
9.760000000000000000e+02 3.263838052749633789e+00 -4.565211296081542969e+00 -4.100008904933929443e-01 -5.259861946105957031e-01 -2.807961404323577881e-01 -1.218514919281005859e+00
9.770000000000000000e+02 5.502607226371765137e-01 -3.605772256851196289e+00 -8.319898694753646851e-02 -7.653783559799194336e-01 -2.545731961727142334e-01 -2.532641887664794922e-01
9.780000000000000000e+02 1.092519187927246094e+01 -9.158445358276367188e+00 6.627784967422485352e-01 2.944105863571166992e+00 1.082065343856811523e+00 1.525341510772705078e+00
9.790000000000000000e+02 8.644726753234863281e+00 -2.730690956115722656e+00 -1.637347817420959473e+00 5.194700360298156738e-01 -3.353633284568786621e-01 -2.345671802759170532e-01
9.800000000000000000e+02 6.246346473693847656e+00 -2.839388132095336914e+00 -1.211151480674743652e+00 2.603729963302612305e-01 -2.852335572242736816e-01 -7.834869027137756348e-01
9.810000000000000000e+02 5.402147769927978516e+00 -2.889742136001586914e+00 -9.857433438301086426e-01 1.113649457693099976e-01 -2.623135149478912354e-01 -9.168126583099365234e-01
9.820000000000000000e+02 1.019836521148681641e+01 -1.991296648979187012e+00 -1.902946829795837402e+00 3.605186939239501953e-01 -4.627284407615661621e-01 2.063855826854705811e-01
9.830000000000000000e+02 1.333287715911865234e+01 2.086243867874145508e+00 -4.596633017063140869e-01 -2.464284002780914307e-01 -2.118275016546249390e-01 2.673417031764984131e-01
9.840000000000000000e+02 1.155117130279541016e+01 2.421166181564331055e+00 -4.190386831760406494e-01 -1.512496471405029297e-01 -1.710864901542663574e-01 2.265117317438125610e-01
9.850000000000000000e+02 9.067005157470703125e+00 2.627954959869384766e+00 -3.160811364650726318e-01 -5.819566175341606140e-02 -1.122830435633659363e-01 1.894331723451614380e-01
9.860000000000000000e+02 2.174112892150878906e+01 -3.619714736938476562e+00 -6.173473596572875977e-01 5.448120236396789551e-01 -2.176060155034065247e-02 2.806634306907653809e-01
9.870000000000000000e+02 2.069871711730957031e+01 -2.298017024993896484e+00 -5.865947008132934570e-01 1.654859781265258789e-01 -1.263326108455657959e-01 3.257324695587158203e-01
9.880000000000000000e+02 2.022825431823730469e+01 -2.956983089447021484e+00 -6.075788736343383789e-01 -3.533987700939178467e-02 -1.928756237030029297e-01 3.489856421947479248e-01
9.890000000000000000e+02 2.008715820312500000e+01 -1.685397982597351074e+00 -5.542165637016296387e-01 -1.002786867320537567e-02 -1.692733317613601685e-01 3.459925949573516846e-01
9.900000000000000000e+02 1.764767837524414062e+01 -8.563439846038818359e-01 -5.381062030792236328e-01 -4.142093956470489502e-01 -2.856946885585784912e-01 4.352498650550842285e-01
9.910000000000000000e+02 1.807042503356933594e+01 -1.688282340764999390e-01 -4.625195562839508057e-01 -3.640605211257934570e-01 -2.479740232229232788e-01 3.908742070198059082e-01
9.920000000000000000e+02 1.874859428405761719e+01 -6.863520145416259766e-01 -4.753915369510650635e-01 -2.849079072475433350e-01 -2.280898243188858032e-01 3.940870761871337891e-01
9.930000000000000000e+02 1.433956336975097656e+01 -3.386143445968627930e+00 -1.286633014678955078e+00 -2.192643433809280396e-01 -4.517692029476165771e-01 9.675760269165039062e-01
9.940000000000000000e+02 1.464159679412841797e+01 -4.543898582458496094e+00 -8.292887806892395020e-01 -2.274184376001358032e-01 -3.170121610164642334e-01 1.083385825157165527e+00
9.950000000000000000e+02 1.497274971008300781e+01 -6.295762538909912109e+00 4.453025758266448975e-03 -3.896741569042205811e-01 -1.155663356184959412e-01 1.264686942100524902e+00
9.960000000000000000e+02 1.667031669616699219e+01 -5.827219963073730469e+00 -1.210328191518783569e-01 -8.396096229553222656e-01 -2.881927192211151123e-01 1.042458772659301758e+00
9.970000000000000000e+02 1.782337188720703125e+01 -5.897536277770996094e+00 -1.102727428078651428e-01 -9.918042421340942383e-01 -3.306230902671813965e-01 8.364567756652832031e-01
9.980000000000000000e+02 1.615094184875488281e+01 -6.391656875610351562e+00 9.744694828987121582e-02 -7.861091494560241699e-01 -2.065986543893814087e-01 1.139310717582702637e+00
9.990000000000000000e+02 1.598151397705078125e+01 -7.068942070007324219e+00 4.180080890655517578e-01 -8.435881733894348145e-01 -1.276740282773971558e-01 1.210260152816772461e+00
1.000000000000000000e+03 1.010929489135742188e+01 -2.737398386001586914e+00 -1.749163627624511719e+00 5.461068153381347656e-01 -3.609170317649841309e-01 1.448831856250762939e-01
1.001000000000000000e+03 1.310779190063476562e+01 -3.778352499008178711e+00 -1.225024938583374023e+00 1.252853274345397949e-01 -3.299218714237213135e-01 8.877739310264587402e-01
1.002000000000000000e+03 1.195329761505126953e+01 -4.083510398864746094e+00 -1.264369606971740723e+00 5.422015786170959473e-01 -2.166504114866256714e-01 7.191301584243774414e-01
1.003000000000000000e+03 1.234256649017333984e+01 -3.408129453659057617e+00 -1.459175467491149902e+00 2.830639779567718506e-01 -3.528334498405456543e-01 7.436268329620361328e-01
1.004000000000000000e+03 1.352348709106445312e+01 -3.034482002258300781e+00 -1.492597579956054688e+00 -6.666162610054016113e-02 -4.677777588367462158e-01 8.956180810928344727e-01
1.005000000000000000e+03 1.851897239685058594e+01 4.231226444244384766e+00 -8.334052562713623047e-01 -2.784495055675506592e-01 -3.335564434528350830e-01 3.593377172946929932e-01
1.006000000000000000e+03 1.741156768798828125e+01 4.879851341247558594e+00 -7.738195657730102539e-01 -4.847420454025268555e-01 -3.775684833526611328e-01 5.396593809127807617e-01
1.007000000000000000e+03 2.732704353332519531e+01 9.013662338256835938e+00 3.299080431461334229e-01 7.802539467811584473e-01 3.330485820770263672e-01 7.330101132392883301e-01
1.008000000000000000e+03 1.696992874145507812e+01 1.616121292114257812e+01 8.390412330627441406e-01 5.379292368888854980e-01 4.130911231040954590e-01 5.555001497268676758e-01
1.009000000000000000e+03 2.025528144836425781e+01 1.677515983581542969e+01 -1.558574754744768143e-02 -7.353750616312026978e-02 -2.673697471618652344e-02 3.428395688533782959e-01
1.010000000000000000e+03 1.554684925079345703e+01 1.917798805236816406e+01 1.251077204942703247e-01 2.787245213985443115e-01 1.211496740579605103e-01 3.561150431632995605e-01
1.011000000000000000e+03 2.037758255004882812e+01 1.899692344665527344e+01 1.150479167699813843e-01 -7.657560706138610840e-02 1.154169160872697830e-02 5.687560439109802246e-01
1.012000000000000000e+03 1.363454532623291016e+01 3.008083581924438477e+00 -4.496968090534210205e-01 -2.821578383445739746e-01 -2.195563912391662598e-01 2.923711836338043213e-01
1.013000000000000000e+03 2.240963745117187500e+01 1.946434783935546875e+01 1.704209595918655396e-01 -1.890977025032043457e-01 -5.603023339062929153e-03 4.303768575191497803e-01
1.014000000000000000e+03 1.525181484222412109e+01 2.246463775634765625e+00 -4.389543533325195312e-01 -3.955211937427520752e-01 -2.503426671028137207e-01 3.273451626300811768e-01
1.015000000000000000e+03 2.573297691345214844e+01 5.720083713531494141e+00 2.980652749538421631e-01 1.185196995735168457e+00 4.449786841869354248e-01 4.287086427211761475e-01
1.016000000000000000e+03 2.130506324768066406e+01 3.019304513931274414e+00 -2.728113532066345215e-01 2.652812004089355469e-01 -2.259043511003255844e-03 4.265691936016082764e-01
1.017000000000000000e+03 2.288256645202636719e+01 5.133822917938232422e+00 4.734537005424499512e-01 4.925842583179473877e-01 2.898114025592803955e-01 4.739494025707244873e-01
1.018000000000000000e+03 2.469209289550781250e+01 4.947287082672119141e+00 1.497476845979690552e-01 1.191825270652770996e+00 4.024718999862670898e-01 5.338844656944274902e-01
1.019000000000000000e+03 1.548504543304443359e+01 1.758819007873535156e+01 2.875514924526214600e-01 3.638010621070861816e-01 1.954057663679122925e-01 2.851158082485198975e-01
1.020000000000000000e+03 1.402262496948242188e+01 1.494481468200683594e+01 5.150803923606872559e-01 2.540418207645416260e-01 2.307366579771041870e-01 3.288923799991607666e-01
1.021000000000000000e+03 2.703638458251953125e+01 1.156033229827880859e+01 -1.805916428565979004e-01 5.677427649497985840e-01 1.161453276872634888e-01 6.242535710334777832e-01
1.022000000000000000e+03 1.340138816833496094e+01 1.106209182739257812e+01 9.045405685901641846e-02 3.718484938144683838e-02 3.829167038202285767e-02 3.747353553771972656e-01
1.023000000000000000e+03 2.233748817443847656e+01 3.591960668563842773e+00 -1.585430949926376343e-01 5.344343781471252441e-01 1.127673760056495667e-01 4.276693165302276611e-01
1.024000000000000000e+03 2.560006332397460938e+01 1.507891845703125000e+01 -4.192400276660919189e-01 -4.763272777199745178e-02 -1.400618255138397217e-01 2.857754528522491455e-01
1.025000000000000000e+03 2.250947761535644531e+01 1.741876602172851562e+01 -1.959558203816413879e-02 -3.669043779373168945e-01 -1.159499883651733398e-01 3.783671557903289795e-01
1.026000000000000000e+03 2.761812019348144531e+01 7.896981239318847656e+00 4.122668504714965820e-01 8.471530079841613770e-01 3.778259456157684326e-01 6.186645627021789551e-01
1.027000000000000000e+03 1.243861198425292969e+01 2.292050361633300781e+00 -4.452847838401794434e-01 -1.904611140489578247e-01 -1.907237619161605835e-01 2.516107857227325439e-01
1.028000000000000000e+03 1.697217369079589844e+01 1.600410580635070801e+00 -3.992248475551605225e-01 -4.268313348293304443e-01 -2.478168457746505737e-01 3.547401130199432373e-01
1.029000000000000000e+03 2.055017280578613281e+01 -8.882732987403869629e-01 -5.095734596252441406e-01 1.472055912017822266e-01 -1.087103635072708130e-01 3.532740175724029541e-01
1.030000000000000000e+03 1.321076869964599609e+01 8.529688835144042969e+00 -2.667739093303680420e-01 -1.915607750415802002e-01 -1.375004053115844727e-01 4.321500957012176514e-01
1.031000000000000000e+03 1.442333889007568359e+01 9.615060806274414062e+00 -3.023452358320355415e-03 -2.465455830097198486e-01 -7.487071305513381958e-02 1.652095317840576172e-01
1.032000000000000000e+03 8.607920646667480469e+00 -1.158423614501953125e+01 2.017500638961791992e+00 5.992300987243652344e+00 2.402940511703491211e+00 -9.333969950675964355e-01
1.033000000000000000e+03 7.752240657806396484e+00 -1.231607341766357422e+01 2.970128297805786133e+00 4.911473274230957031e+00 2.364480495452880859e+00 -7.001444697380065918e-01
1.034000000000000000e+03 6.832476043701171875e+01 -8.647853851318359375e+00 4.017865657806396484e+00 2.123310089111328125e+01 7.575289726257324219e+00 -4.929762840270996094e+00
1.035000000000000000e+03 6.870661163330078125e+01 -1.130667972564697266e+01 1.623755216598510742e+00 2.290134048461914062e+01 7.357528686523437500e+00 9.692153334617614746e-01
1.036000000000000000e+03 5.543428802490234375e+01 1.518675231933593750e+01 8.835967779159545898e-01 4.248457431793212891e+00 1.539616227149963379e+00 -1.134965419769287109e+00
1.037000000000000000e+03 1.242712211608886719e+01 -1.151551723480224609e+01 3.236373901367187500e+00 6.103130578994750977e-01 1.154006004333496094e+00 1.086514353752136230e+00
1.038000000000000000e+03 1.023753547668457031e+01 -1.000153923034667969e+01 9.427393674850463867e-01 4.365630626678466797e+00 1.592511057853698730e+00 1.905727386474609375e+00
1.039000000000000000e+03 6.466477966308593750e+01 -4.710880279541015625e+00 -6.440097689628601074e-01 8.185812830924987793e-01 5.237145349383354187e-02 -2.861562728881835938e+00
1.040000000000000000e+03 6.566141510009765625e+01 -6.598207473754882812e+00 -3.138345241546630859e+00 2.091737538576126099e-01 -8.787514567375183105e-01 -2.349914312362670898e+00
1.041000000000000000e+03 4.309058380126953125e+01 1.054569244384765625e+01 9.859737753868103027e-02 1.512160301208496094e+00 4.832272827625274658e-01 -1.987231373786926270e-01
1.042000000000000000e+03 4.284376144409179688e+01 1.185205173492431641e+01 1.679679155349731445e-01 2.309127330780029297e+00 7.431285381317138672e-01 -5.261756014078855515e-03
1.043000000000000000e+03 4.389554214477539062e+01 1.654863166809082031e+01 1.118234634399414062e+00 2.215944290161132812e+00 1.000253677368164062e+00 1.202590346336364746e+00
1.044000000000000000e+03 4.589379501342773438e+01 1.812203407287597656e+01 7.318017482757568359e-01 6.322715878486633301e-01 4.092220067977905273e-01 6.864576935768127441e-01
1.045000000000000000e+03 7.920576477050781250e+01 -3.483741760253906250e+01 1.175007224082946777e-02 1.042520713806152344e+01 3.131087303161621094e+00 3.534507378935813904e-02
1.046000000000000000e+03 7.929364013671875000e+01 -2.785269927978515625e+01 -5.055160447955131531e-02 1.005336761474609375e+01 3.000844717025756836e+00 -1.195591762661933899e-01
1.047000000000000000e+03 7.792912292480468750e+01 3.207112884521484375e+01 1.165206450968980789e-02 6.436650753021240234e+00 1.934490799903869629e+00 -6.433951854705810547e-02
1.048000000000000000e+03 7.923514556884765625e+01 3.622103881835937500e+01 -2.247675135731697083e-02 6.477252006530761719e+00 1.936432600021362305e+00 -3.074050322175025940e-02
1.049000000000000000e+03 7.930379486083984375e+01 -2.083485984802246094e+01 3.510017320513725281e-02 7.936568737030029297e+00 2.391500711441040039e+00 -3.456374704837799072e-01
1.050000000000000000e+03 7.790753173828125000e+01 -2.782716178894042969e+01 -6.328424811363220215e-02 9.564644813537597656e+00 2.850408315658569336e+00 -2.947615683078765869e-01
1.051000000000000000e+03 7.794924163818359375e+01 -2.638995933532714844e+01 -1.195204108953475952e-01 9.400326728820800781e+00 2.784241914749145508e+00 -3.950823843479156494e-01
1.052000000000000000e+03 7.928975677490234375e+01 -3.064156341552734375e+01 -4.326181113719940186e-02 1.033913898468017578e+01 3.088763236999511719e+00 -6.460583209991455078e-02
1.053000000000000000e+03 7.760484313964843750e+01 -3.483232116699218750e+01 -7.630907744169235229e-02 9.845193862915039062e+00 2.930665493011474609e+00 -3.609487786889076233e-02
1.054000000000000000e+03 7.777637481689453125e+01 -3.336904144287109375e+01 -5.988336354494094849e-02 9.769183158874511719e+00 2.912790060043334961e+00 -5.569038540124893188e-02
1.055000000000000000e+03 7.069607543945312500e+01 -3.494675064086914062e+01 -1.157013326883316040e-01 6.856029510498046875e+00 2.022098541259765625e+00 1.209281533956527710e-01
1.056000000000000000e+03 7.814926910400390625e+01 -3.785416793823242188e+01 -5.138307064771652222e-02 9.894012451171875000e+00 2.952788829803466797e+00 9.127611666917800903e-02
1.057000000000000000e+03 7.686705017089843750e+01 -3.867878723144531250e+01 -7.097126543521881104e-02 9.700792312622070312e+00 2.888946294784545898e+00 8.100858330726623535e-02
1.058000000000000000e+03 7.804373931884765625e+01 1.427175903320312500e+01 1.650231517851352692e-02 7.638805866241455078e+00 2.296592473983764648e+00 -2.198518663644790649e-01
1.059000000000000000e+03 7.934852600097656250e+01 1.543840599060058594e+01 1.444024965167045593e-02 7.789308071136474609e+00 2.341124534606933594e+00 -6.933353841304779053e-02
1.060000000000000000e+03 7.804022979736328125e+01 2.113362312316894531e+01 5.997017491608858109e-03 7.009770393371582031e+00 2.104730129241943359e+00 -1.466378718614578247e-01
1.061000000000000000e+03 7.933348846435546875e+01 2.237564849853515625e+01 -1.029547653160989285e-03 7.120446681976318359e+00 2.135825157165527344e+00 -4.336180537939071655e-02
1.062000000000000000e+03 7.789824676513671875e+01 3.087653541564941406e+01 -8.101086714304983616e-04 6.470856666564941406e+00 1.941014051437377930e+00 -8.362695574760437012e-02
1.063000000000000000e+03 7.788655853271484375e+01 2.806757354736328125e+01 8.934115990996360779e-03 6.592934608459472656e+00 1.980560541152954102e+00 -1.006822362542152405e-01
1.064000000000000000e+03 7.929106903076171875e+01 2.794863128662109375e+01 7.300518918782472610e-04 6.778768062591552734e+00 2.033849477767944336e+00 -3.301638364791870117e-02
1.065000000000000000e+03 7.796125793457031250e+01 2.527081489562988281e+01 9.401311166584491730e-03 6.740876674652099609e+00 2.025083303451538086e+00 -1.129313334822654724e-01
1.066000000000000000e+03 7.796881866455078125e+01 2.388957977294921875e+01 7.282770238816738129e-03 6.821650505065917969e+00 2.048679828643798828e+00 -1.233038157224655151e-01
1.067000000000000000e+03 7.808113098144531250e+01 1.838266563415527344e+01 6.319576874375343323e-03 7.241820335388183594e+00 2.174442052841186523e+00 -1.730064600706100464e-01
1.068000000000000000e+03 7.805345916748046875e+01 1.565419197082519531e+01 -2.301288332091644406e-04 7.498817443847656250e+00 2.249576091766357422e+00 -2.063301205635070801e-01
1.069000000000000000e+03 7.806566619873046875e+01 1.702099227905273438e+01 1.929748617112636566e-02 7.367734909057617188e+00 2.216109752655029297e+00 -1.966258436441421509e-01
1.070000000000000000e+03 7.803638458251953125e+01 1.287889194488525391e+01 -2.200453542172908783e-03 7.790297508239746094e+00 2.336429119110107422e+00 -2.304777801036834717e-01
1.071000000000000000e+03 7.672214508056640625e+01 1.171154212951660156e+01 -1.128846779465675354e-03 7.587178230285644531e+00 2.275814771652221680e+00 -3.774384260177612305e-01
1.072000000000000000e+03 7.803282928466796875e+01 8.726411819458007812e+00 -1.587027870118618011e-02 8.242231369018554688e+00 2.467908382415771484e+00 -2.060058563947677612e-01
1.073000000000000000e+03 7.934256744384765625e+01 9.875224113464355469e+00 5.210616160184144974e-03 8.493023872375488281e+00 2.549470424652099609e+00 -7.139448076486587524e-02
1.074000000000000000e+03 7.930686950683593750e+01 -1.943753242492675781e+01 -6.009696424007415771e-02 7.267086982727050781e+00 2.162096977233886719e+00 -3.617478609085083008e-01
1.075000000000000000e+03 7.931566619873046875e+01 -1.384895992279052734e+01 7.276837527751922607e-02 4.530753135681152344e+00 1.381056547164916992e+00 -2.134800553321838379e-01
1.076000000000000000e+03 7.935084533691406250e+01 -6.860356807708740234e+00 -6.467863917350769043e-02 5.485661983489990234e+00 1.626294970512390137e+00 3.678023815155029297e-01
1.077000000000000000e+03 7.808570098876953125e+01 4.164101481437683105e-01 -1.635505110025405884e-01 8.449558258056640625e+00 2.485802412033081055e+00 3.733216524124145508e-01
1.078000000000000000e+03 7.935582733154296875e+01 1.535074472427368164e+00 -5.287160724401473999e-02 8.843506813049316406e+00 2.637190580368041992e+00 1.081944257020950317e-01
1.079000000000000000e+03 7.673336029052734375e+01 7.566823959350585938e+00 -6.894364953041076660e-02 7.987901210784912109e+00 2.375687360763549805e+00 -2.944529652595520020e-01
1.080000000000000000e+03 7.778446960449218750e+01 2.954080581665039062e+01 9.801690466701984406e-03 6.515604019165039062e+00 1.957621812820434570e+00 -9.697315096855163574e-02
1.081000000000000000e+03 7.417988586425781250e+01 3.634840774536132812e+01 4.082802310585975647e-02 5.862899303436279297e+00 1.771118164062500000e+00 -9.419358521699905396e-02
1.082000000000000000e+03 7.803060150146484375e+01 1.011277770996093750e+01 -1.588250324130058289e-02 8.097836494445800781e+00 2.424586296081542969e+00 -2.343195527791976929e-01
1.083000000000000000e+03 7.686215972900390625e+01 6.424717307090759277e-01 -2.864486277103424072e-01 8.408019065856933594e+00 2.436471223831176758e+00 3.758463859558105469e-01
1.084000000000000000e+03 7.806671905517578125e+01 3.191069364547729492e+00 -1.107895374298095703e-01 8.602797508239746094e+00 2.547602415084838867e+00 7.550357282161712646e-02
1.085000000000000000e+03 7.808834075927734375e+01 -9.901344776153564453e-01 -1.207017078995704651e-01 8.257262229919433594e+00 2.440968036651611328e+00 5.179397463798522949e-01
1.086000000000000000e+03 7.935003662109375000e+01 -2.658596754074096680e+00 2.357786521315574646e-02 7.646653175354003906e+00 2.301069259643554688e+00 2.865042686462402344e-01
1.087000000000000000e+03 7.807259368896484375e+01 -8.055560111999511719e+00 1.093619242310523987e-01 6.213967800140380859e+00 1.896999001502990723e+00 7.624717354774475098e-01
1.088000000000000000e+03 7.806001281738281250e+01 -5.260350704193115234e+00 -7.204584032297134399e-02 7.089694023132324219e+00 2.105294466018676758e+00 9.589456319808959961e-01
1.089000000000000000e+03 7.934726715087890625e+01 -9.652330398559570312e+00 -2.184623107314109802e-02 4.349641323089599609e+00 1.298338532447814941e+00 1.922620385885238647e-01
1.090000000000000000e+03 7.794771575927734375e+01 -1.367828178405761719e+01 2.262188196182250977e-01 6.042418479919433594e+00 1.880591154098510742e+00 -5.792708396911621094e-01
1.091000000000000000e+03 7.798382568359375000e+01 -1.226527500152587891e+01 3.672066926956176758e-01 5.808329105377197266e+00 1.852660655975341797e+00 -1.819495558738708496e-01
1.092000000000000000e+03 7.932339477539062500e+01 -1.664320945739746094e+01 6.712774280458688736e-03 5.763402938842773438e+00 1.731034755706787109e+00 -3.599264621734619141e-01
1.093000000000000000e+03 7.791858673095703125e+01 -2.071433067321777344e+01 -1.007797047495841980e-01 8.171373367309570312e+00 2.421178102493286133e+00 -8.771852254867553711e-01
1.094000000000000000e+03 7.792105102539062500e+01 -1.929618263244628906e+01 -3.140151128172874451e-02 7.697231769561767578e+00 2.299749135971069336e+00 -9.666870236396789551e-01
1.095000000000000000e+03 4.587709426879882812e+01 4.312297344207763672e+00 1.903002262115478516e-01 1.597849279642105103e-01 1.050255447626113892e-01 1.329287588596343994e-01
1.096000000000000000e+03 4.483926773071289062e+01 5.582927227020263672e+00 9.781831502914428711e-02 2.846122384071350098e-01 1.147291660308837891e-01 2.415038272738456726e-02
1.097000000000000000e+03 5.691703414916992188e+01 1.107612133026123047e+01 4.462434351444244385e-01 3.228369712829589844e+00 1.102383971214294434e+00 -2.634821832180023193e-01
1.098000000000000000e+03 6.965476226806640625e+01 -8.398245811462402344e+00 2.501346826553344727e+00 1.479629230499267578e+01 5.189291477203369141e+00 1.650856137275695801e-01
1.099000000000000000e+03 6.830538177490234375e+01 -5.809978485107421875e+00 -2.235681772232055664e+00 1.118650913238525391e+01 2.685248136520385742e+00 -2.138586759567260742e+00
1.100000000000000000e+03 4.878498077392578125e+01 5.067463397979736328e+00 3.759884834289550781e-01 6.883289664983749390e-02 1.334464102983474731e-01 1.567834913730621338e-01
1.101000000000000000e+03 5.187871551513671875e+01 5.279293537139892578e+00 4.939959347248077393e-01 3.508455753326416016e-01 2.534524500370025635e-01 2.992975413799285889e-01
1.102000000000000000e+03 1.376763629913330078e+01 -1.182346057891845703e+01 6.236345171928405762e-01 -5.664947628974914551e-01 1.714192517101764679e-02 3.716547489166259766e-01
1.103000000000000000e+03 1.282999420166015625e+01 -1.036347007751464844e+01 1.713132381439208984e+00 6.045126318931579590e-01 6.952934861183166504e-01 2.034354686737060547e+00
1.104000000000000000e+03 4.757312011718750000e+01 5.907345771789550781e+00 3.125741779804229736e-01 3.441144898533821106e-02 1.040956825017929077e-01 6.505885720252990723e-02
1.105000000000000000e+03 6.833919525146484375e+01 -1.355493927001953125e+01 2.354506492614746094e+00 1.906916427612304688e+01 6.427101135253906250e+00 4.019783973693847656e+00
1.106000000000000000e+03 6.767240905761718750e+01 -1.469665431976318359e+01 2.040916681289672852e+00 1.376753425598144531e+01 4.742535591125488281e+00 5.074376106262207031e+00
1.107000000000000000e+03 5.120292282104492188e+01 2.030920219421386719e+01 6.384279131889343262e-01 8.194212913513183594e-01 4.373547732830047607e-01 -4.796074032783508301e-01
1.108000000000000000e+03 4.828770065307617188e+01 2.088822555541992188e+01 6.866292357444763184e-01 6.084295511245727539e-01 3.885176181793212891e-01 3.461562693119049072e-01
1.109000000000000000e+03 6.213146972656250000e+01 -5.973273277282714844e+00 -2.620539903640747070e+00 -3.604436814785003662e-01 -8.942950367927551270e-01 -8.447433114051818848e-01
1.110000000000000000e+03 4.156333160400390625e+01 -1.818884468078613281e+01 -1.548619985580444336e+00 -3.780825436115264893e-02 -4.759284853935241699e-01 -3.559319078922271729e-01
1.111000000000000000e+03 4.001146697998046875e+01 -1.724512290954589844e+01 -1.659425258636474609e+00 5.234675481915473938e-02 -4.821235537528991699e-01 -3.496428728103637695e-01
1.112000000000000000e+03 4.475154495239257812e+01 1.903030014038085938e+01 4.783601760864257812e-01 1.379712700843811035e+00 5.574218630790710449e-01 8.606797456741333008e-01
1.113000000000000000e+03 3.476702880859375000e+01 -1.866025924682617188e+01 -2.291365146636962891e+00 4.129587858915328979e-02 -6.750208139419555664e-01 -4.817395657300949097e-02
1.114000000000000000e+03 1.985248184204101562e+01 -2.845395088195800781e+01 3.988127410411834717e-01 8.426468968391418457e-01 3.724378943443298340e-01 -6.301226615905761719e-01
1.115000000000000000e+03 4.277759552001953125e+01 1.324890232086181641e+01 1.648898720741271973e-01 2.731476783752441406e+00 8.689100146293640137e-01 3.465466797351837158e-01
1.116000000000000000e+03 4.142926025390625000e+01 1.312936305999755859e+01 4.797545075416564941e-01 1.989863157272338867e+00 7.408853173255920410e-01 5.953803062438964844e-01
1.117000000000000000e+03 4.125294494628906250e+01 1.447861957550048828e+01 6.947568058967590332e-01 1.755979418754577637e+00 7.352208495140075684e-01 5.914768576622009277e-01
1.118000000000000000e+03 5.475972747802734375e+01 1.995597457885742188e+01 3.929347991943359375e-01 2.363332986831665039e+00 8.268803358078002930e-01 -9.233919978141784668e-01
1.119000000000000000e+03 5.450072097778320312e+01 6.610262393951416016e+00 4.597462713718414307e-01 1.186378359794616699e+00 4.938374161720275879e-01 3.508612215518951416e-01
1.120000000000000000e+03 5.605838394165039062e+01 6.943423748016357422e+00 3.430338501930236816e-01 1.802661061286926270e+00 6.437084674835205078e-01 8.171981573104858398e-02
1.121000000000000000e+03 3.428136444091796875e+01 -3.235845184326171875e+01 6.220225617289543152e-02 8.645744062960147858e-03 2.125439979135990143e-02 -1.072666700929403305e-02
1.122000000000000000e+03 3.086048889160156250e+01 -1.707363510131835938e+01 -2.986761093139648438e+00 1.379029154777526855e-01 -8.546574711799621582e-01 -1.741014719009399414e-01
1.123000000000000000e+03 3.496507263183593750e+01 -1.619781494140625000e+01 -1.851291179656982422e+00 8.662660419940948486e-02 -5.293993949890136719e-01 -3.915891349315643311e-01
1.124000000000000000e+03 6.376350402832031250e+00 -1.656487274169921875e+01 1.332933664321899414e+00 2.725489139556884766e+00 1.217526793479919434e+00 9.236600995063781738e-01
1.125000000000000000e+03 9.809981346130371094e+00 -1.806697654724121094e+01 1.087345719337463379e+00 5.463587284088134766e+00 1.965279936790466309e+00 -1.887986421585083008e+00
1.126000000000000000e+03 7.016744995117187500e+01 -1.090570163726806641e+01 3.192093610763549805e+00 1.628166389465332031e+01 5.842127323150634766e+00 -1.097691655158996582e-01
1.127000000000000000e+03 1.509423446655273438e+01 -1.237577056884765625e+01 -5.042639374732971191e-01 -6.093112826347351074e-01 -3.340725600719451904e-01 9.868776798248291016e-01
1.128000000000000000e+03 1.506480121612548828e+01 -1.040620803833007812e+01 1.097100019454956055e+00 -1.268977999687194824e+00 -5.156340077519416809e-02 1.352499008178710938e+00
1.129000000000000000e+03 1.176492691040039062e+01 -2.039653205871582031e+01 9.703101515769958496e-01 3.155937194824218750e+00 1.237874150276184082e+00 -1.814207553863525391e+00
1.130000000000000000e+03 4.683467483520507812e+01 2.129306411743164062e+01 5.735743045806884766e-01 8.607018589973449707e-01 4.302828609943389893e-01 5.350235104560852051e-01
1.131000000000000000e+03 5.943252182006835938e+01 -2.670654106140136719e+01 -5.289705991744995117e-01 8.251934051513671875e-01 8.886684477329254150e-02 1.844270974397659302e-01
1.132000000000000000e+03 5.326305389404296875e+01 1.866374015808105469e+01 5.085186958312988281e-01 1.370219230651855469e+00 5.636213421821594238e-01 -7.715690135955810547e-01
1.133000000000000000e+03 3.615692138671875000e+01 -1.747148323059082031e+01 -1.967582941055297852e+00 4.535073041915893555e-02 -5.766696333885192871e-01 -2.393637150526046753e-01
1.134000000000000000e+03 5.036671829223632812e+01 -3.176327705383300781e+01 -4.504662752151489258e-01 -3.235665559768676758e-01 -2.322098463773727417e-01 -3.993664383888244629e-01
1.135000000000000000e+03 5.123102188110351562e+01 -2.975948524475097656e+01 -1.166724920272827148e+00 -3.360120356082916260e-01 -4.508210718631744385e-01 -5.864553451538085938e-01
1.136000000000000000e+03 4.248159790039062500e+01 -1.673520660400390625e+01 -1.576539516448974609e+00 -1.420806720852851868e-02 -4.772242605686187744e-01 -4.001370966434478760e-01
1.137000000000000000e+03 4.287714004516601562e+01 -1.785211944580078125e+01 -1.572346806526184082e+00 -9.161601960659027100e-02 -4.991888403892517090e-01 -4.414444565773010254e-01
1.138000000000000000e+03 4.449060440063476562e+01 -3.175826644897460938e+01 -4.124531447887420654e-01 -6.749062240123748779e-02 -1.439831256866455078e-01 -1.780377626419067383e-01
1.139000000000000000e+03 4.745681762695312500e+01 -3.211559677124023438e+01 -4.855838119983673096e-01 -1.930725723505020142e-01 -2.035969197750091553e-01 -3.733412623405456543e-01
1.140000000000000000e+03 4.637252044677734375e+01 -3.248588943481445312e+01 -3.696996271610260010e-01 -1.564642041921615601e-01 -1.578491479158401489e-01 -3.137836456298828125e-01
1.141000000000000000e+03 4.326160049438476562e+01 1.777322769165039062e+01 4.625846147537231445e-01 1.853282570838928223e+00 6.947601437568664551e-01 5.678506493568420410e-01
1.142000000000000000e+03 2.597566032409667969e+01 -3.003907585144042969e+01 2.968870401382446289e-01 1.672162413597106934e-01 1.392309814691543579e-01 -1.999827623367309570e-01
1.143000000000000000e+03 2.658134269714355469e+01 -3.244542694091796875e+01 1.751023977994918823e-01 2.451022714376449585e-01 1.260613948106765747e-01 -2.064825147390365601e-01
1.144000000000000000e+03 4.980473327636718750e+01 -1.386144351959228516e+01 -1.625771641731262207e+00 -1.808961778879165649e-01 -5.420003533363342285e-01 -6.808724403381347656e-01
1.145000000000000000e+03 5.179948425292968750e+01 -1.430312442779541016e+01 -1.667899966239929199e+00 -4.186970293521881104e-01 -6.259791254997253418e-01 -8.610973358154296875e-01
1.146000000000000000e+03 3.138252639770507812e+01 -3.349412155151367188e+01 1.128072962164878845e-01 5.418851226568222046e-02 5.009874328970909119e-02 -6.832628697156906128e-02
1.147000000000000000e+03 6.784662628173828125e+01 -1.898822593688964844e+01 6.221989169716835022e-03 9.083585739135742188e+00 2.726942300796508789e+00 1.565097689628601074e+00
1.148000000000000000e+03 5.373217010498046875e+01 -2.843369102478027344e+01 -1.233274817466735840e+00 -3.259050548076629639e-01 -4.677539467811584473e-01 -6.232781410217285156e-01
1.149000000000000000e+03 5.755814361572265625e+01 -2.960598754882812500e+01 -3.730624318122863770e-01 5.616795420646667480e-01 5.658513680100440979e-02 1.216170862317085266e-01
1.150000000000000000e+03 6.987513732910156250e+01 -9.664288520812988281e+00 3.698115825653076172e+00 1.671068191528320312e+01 6.122639656066894531e+00 -6.415428519248962402e-01
1.151000000000000000e+03 3.220351791381835938e+01 -1.723201370239257812e+01 -2.607656002044677734e+00 1.214184910058975220e-01 -7.458712458610534668e-01 -2.322267293930053711e-01
1.152000000000000000e+03 4.616577529907226562e+01 -1.548525047302246094e+01 -1.547262191772460938e+00 -1.138542741537094116e-01 -4.983349442481994629e-01 -5.512313246726989746e-01
1.153000000000000000e+03 2.974450111389160156e+01 -1.577108287811279297e+01 -2.592533111572265625e+00 2.222982197999954224e-01 -7.110704779624938965e-01 -6.537721157073974609e-01
1.154000000000000000e+03 5.801562881469726562e+01 1.326743602752685547e+01 6.747898459434509277e-01 3.300604820251464844e+00 1.192618370056152344e+00 -6.100408434867858887e-01
1.155000000000000000e+03 5.651908493041992188e+01 1.411808776855468750e+01 7.133503556251525879e-01 3.869982004165649414e+00 1.374999642372131348e+00 -6.802228689193725586e-01
1.156000000000000000e+03 6.869361114501953125e+01 -1.582161903381347656e+01 7.227446436882019043e-01 1.400787830352783203e+01 4.419187068939208984e+00 2.097918748855590820e+00
1.157000000000000000e+03 6.125433349609375000e+01 -6.794409751892089844e+00 -3.628026247024536133e+00 -4.007469713687896729e-01 -1.208631992340087891e+00 -1.123745203018188477e+00
1.158000000000000000e+03 6.238182067871093750e+01 -7.679492950439453125e+00 -4.668514728546142578e+00 -1.278168082237243652e+00 -1.784004807472229004e+00 -2.380504369735717773e+00
1.159000000000000000e+03 5.459101867675781250e+01 -1.127445125579833984e+01 -2.087785482406616211e+00 -3.539018332958221436e-01 -7.325061559677124023e-01 -9.680176973342895508e-01
1.160000000000000000e+03 6.618206024169921875e+01 -1.910456275939941406e+01 7.216233611106872559e-01 6.985719203948974609e+00 2.312202930450439453e+00 2.474729537963867188e+00
1.161000000000000000e+03 5.089818954467773438e+01 2.699540853500366211e+00 1.753178834915161133e-01 2.890218198299407959e-01 1.393019109964370728e-01 2.951058745384216309e-01
1.162000000000000000e+03 2.516776466369628906e+01 -3.162510871887207031e+01 2.236439138650894165e-01 2.717599570751190186e-01 1.486211568117141724e-01 -2.819592654705047607e-01
1.163000000000000000e+03 2.138379859924316406e+01 -1.536669254302978516e+01 -7.518652915954589844e+00 -1.761935472488403320e+00 -2.784176588058471680e+00 4.061494827270507812e+00
1.164000000000000000e+03 4.430895233154296875e+01 7.270147800445556641e+00 4.614822939038276672e-02 4.896985888481140137e-01 1.607540547847747803e-01 -1.156228408217430115e-01
1.165000000000000000e+03 4.158419799804687500e+01 -3.246617889404296875e+01 -1.503420472145080566e-01 -4.585103690624237061e-02 -5.885792523622512817e-02 -9.416542202234268188e-02
1.166000000000000000e+03 4.380801773071289062e+01 -3.371749496459960938e+01 -1.228034794330596924e-01 -1.386910974979400635e-01 -7.844837009906768799e-02 -2.285162210464477539e-01
1.167000000000000000e+03 1.829228591918945312e+01 -9.835615158081054688e+00 1.652208447456359863e+00 -2.205091714859008789e+00 -1.658650040626525879e-01 8.142421841621398926e-01
1.168000000000000000e+03 1.677759361267089844e+01 -1.218454360961914062e+01 -4.502102434635162354e-01 -1.596492409706115723e+00 -6.140108108520507812e-01 1.659565091133117676e+00
1.169000000000000000e+03 5.207775878906250000e+01 -3.142353248596191406e+01 -4.276491105556488037e-01 -1.830133944749832153e-01 -1.831987500190734863e-01 -3.745009899139404297e-01
1.170000000000000000e+03 3.811974334716796875e+01 -3.447253417968750000e+01 2.244189940392971039e-02 -2.996794879436492920e-02 -2.257814630866050720e-03 -7.480334490537643433e-02
1.171000000000000000e+03 1.705389595031738281e+01 -7.513117313385009766e+00 6.697393655776977539e-01 -1.269340515136718750e+00 -1.798803359270095825e-01 9.425299167633056641e-01
1.172000000000000000e+03 6.346683883666992188e+01 -2.445619583129882812e+01 -3.545717597007751465e-01 3.536164760589599609e+00 9.544778466224670410e-01 9.704129099845886230e-01
1.173000000000000000e+03 6.351119232177734375e+01 -2.240260505676269531e+01 1.431336551904678345e-01 3.249002456665039062e+00 1.017640829086303711e+00 1.247111082077026367e+00
1.174000000000000000e+03 2.791809844970703125e+01 -1.770930099487304688e+01 -5.044703960418701172e+00 -6.805552542209625244e-02 -1.533827900886535645e+00 8.187229633331298828e-01
1.175000000000000000e+03 2.544245338439941406e+01 -1.435421466827392578e+01 -2.523386240005493164e+00 1.601811885833740234e+00 -2.764722704887390137e-01 -8.672926425933837891e-01
1.176000000000000000e+03 3.955755996704101562e+01 -3.377032470703125000e+01 -2.792581915855407715e-02 -3.761298954486846924e-02 -1.966164261102676392e-02 -8.968733996152877808e-02
1.177000000000000000e+03 4.737405776977539062e+01 -1.497795486450195312e+01 -1.545119881629943848e+00 -9.689122438430786133e-02 -4.926033318042755127e-01 -5.641927123069763184e-01
1.178000000000000000e+03 4.494772720336914062e+01 -1.594924354553222656e+01 -1.510994911193847656e+00 -1.205382868647575378e-01 -4.894599616527557373e-01 -4.877919554710388184e-01
1.179000000000000000e+03 6.009043502807617188e+01 -9.202710151672363281e+00 -3.436566829681396484e+00 -1.092163085937500000e+00 -1.358618974685668945e+00 -1.920095324516296387e+00
1.180000000000000000e+03 5.817474365234375000e+01 -2.755790901184082031e+01 -5.866996645927429199e-01 3.871300816535949707e-01 -5.987088382244110107e-02 4.997844807803630829e-03
1.181000000000000000e+03 2.255593490600585938e+01 -3.012345123291015625e+01 3.183232247829437256e-01 4.440440833568572998e-01 2.287101894617080688e-01 -4.293591976165771484e-01
1.182000000000000000e+03 2.186875534057617188e+01 -1.276580524444580078e+01 1.364977359771728516e+00 4.486953616142272949e-01 5.441018342971801758e-01 3.273177862167358398e+00
1.183000000000000000e+03 3.273218917846679688e+01 -3.344009399414062500e+01 9.362985193729400635e-02 3.884087130427360535e-02 3.974121809005737305e-02 -3.868843242526054382e-02
1.184000000000000000e+03 3.745317459106445312e+01 -1.747015762329101562e+01 -1.830601096153259277e+00 2.433910779654979706e-02 -5.418785810470581055e-01 -2.733434736728668213e-01
1.185000000000000000e+03 3.614080047607421875e+01 -1.866294288635253906e+01 -2.173468351364135742e+00 1.646179892122745514e-02 -6.471019387245178223e-01 -1.201852783560752869e-01
1.186000000000000000e+03 6.357622146606445312e+01 -2.037778091430664062e+01 1.048093557357788086e+00 2.702562332153320312e+00 1.125196695327758789e+00 1.668486595153808594e+00
1.187000000000000000e+03 2.523159408569335938e+01 -1.703513908386230469e+01 -7.200687408447265625e+00 -2.403178066015243530e-01 -2.232301712036132812e+00 1.763097763061523438e+00
1.188000000000000000e+03 2.470277595520019531e+01 -1.436797046661376953e+01 -2.837861299514770508e+00 1.916388273239135742e+00 -2.764419317245483398e-01 -3.626316189765930176e-01
1.189000000000000000e+03 5.265045166015625000e+01 -1.097602558135986328e+01 -1.865274786949157715e+00 -1.529007852077484131e-01 -6.054526567459106445e-01 -6.891533732414245605e-01
1.190000000000000000e+03 5.493712615966796875e+01 -9.667119979858398438e+00 -2.185952425003051758e+00 -1.794520914554595947e-01 -7.096213102340698242e-01 -7.839047908782958984e-01
1.191000000000000000e+03 2.117277908325195312e+01 -1.332807445526123047e+01 -7.571910619735717773e-01 -1.219913840293884277e+00 -5.931314826011657715e-01 3.275101184844970703e+00
1.192000000000000000e+03 2.113919448852539062e+01 -2.941056442260742188e+01 3.638657927513122559e-01 7.067725062370300293e-01 3.211914896965026855e-01 -5.151430368423461914e-01
1.193000000000000000e+03 6.530741119384765625e+01 -2.022035980224609375e+01 5.089306235313415527e-01 5.560907840728759766e+00 1.820951581001281738e+00 2.063577651977539062e+00
1.194000000000000000e+03 3.699043655395507812e+01 -3.562842559814453125e+01 9.210994839668273926e-02 -3.929999843239784241e-02 1.584298349916934967e-02 -5.944444984197616577e-02
1.195000000000000000e+03 3.393202972412109375e+01 -3.375341033935546875e+01 8.680531382560729980e-02 6.235904060304164886e-03 2.791236527264118195e-02 -2.071489393711090088e-02
1.196000000000000000e+03 4.933286666870117188e+01 -1.555563068389892578e+01 -1.548194169998168945e+00 -2.620602548122406006e-01 -5.430763363838195801e-01 -6.695674657821655273e-01
1.197000000000000000e+03 6.955271911621093750e+01 -1.489251136779785156e+01 8.445202112197875977e-01 1.392548274993896484e+01 4.431000709533691406e+00 2.033909410238265991e-01
1.198000000000000000e+03 5.659077453613281250e+01 -1.148000717163085938e+01 -2.277847528457641602e+00 -7.927012443542480469e-01 -9.211646914482116699e-01 -1.341620922088623047e+00
1.199000000000000000e+03 5.575542449951171875e+01 -1.057550811767578125e+01 -2.269710779190063477e+00 -4.143953323364257812e-01 -8.052318096160888672e-01 -1.044975399971008301e+00
1.200000000000000000e+03 5.340351867675781250e+01 -3.064899063110351562e+01 -5.425995588302612305e-01 -1.091517582535743713e-01 -1.955254077911376953e-01 -3.440832197666168213e-01
1.201000000000000000e+03 1.774274063110351562e+01 -2.442302131652832031e+01 9.927148818969726562e-01 1.162400722503662109e+00 6.465346813201904297e-01 -1.127051711082458496e+00
1.202000000000000000e+03 1.890053176879882812e+01 -2.729767990112304688e+01 5.961408019065856934e-01 1.027147412300109863e+00 4.869864583015441895e-01 -6.653235554695129395e-01
1.203000000000000000e+03 5.446512222290039062e+01 -2.978129005432128906e+01 -6.865794658660888672e-01 -1.777313351631164551e-01 -2.592932283878326416e-01 -3.290627002716064453e-01
1.204000000000000000e+03 6.441463470458984375e+01 -2.131456947326660156e+01 3.108379840850830078e-01 4.115789413452148438e+00 1.327988147735595703e+00 1.728252410888671875e+00
1.205000000000000000e+03 4.881020736694335938e+01 -3.199904632568359375e+01 -4.994286596775054932e-01 -2.847859561443328857e-01 -2.352643907070159912e-01 -3.814381062984466553e-01
1.206000000000000000e+03 2.950713729858398438e+01 -1.685253524780273438e+01 -3.487302780151367188e+00 2.660687267780303955e-01 -9.663702249526977539e-01 -2.085120826959609985e-01
1.207000000000000000e+03 5.916257095336914062e+01 -8.365486145019531250e+00 -3.123642683029174805e+00 -5.597704648971557617e-01 -1.105023980140686035e+00 -1.292704939842224121e+00
1.208000000000000000e+03 5.101182937622070312e+01 -1.324609661102294922e+01 -1.702936172485351562e+00 -2.129497826099395752e-01 -5.747658014297485352e-01 -7.141664028167724609e-01
1.209000000000000000e+03 2.677986145019531250e+01 -1.629893302917480469e+01 -4.870713710784912109e+00 4.229913651943206787e-01 -1.334316730499267578e+00 9.337334334850311279e-02
1.210000000000000000e+03 1.381797790527343750e+01 -2.247834205627441406e+01 8.607661724090576172e-01 2.097288370132446289e+00 8.874163031578063965e-01 -1.423718094825744629e+00
1.211000000000000000e+03 1.485695075988769531e+01 -2.346344757080078125e+01 8.352130651473999023e-01 1.864358901977539062e+00 8.098715543746948242e-01 -1.198009490966796875e+00
1.212000000000000000e+03 1.672671699523925781e+01 -2.345202827453613281e+01 1.155020356178283691e+00 1.414747118949890137e+00 7.709302306175231934e-01 -1.201821804046630859e+00
1.213000000000000000e+03 1.694688224792480469e+01 -2.534302330017089844e+01 7.671257257461547852e-01 1.368132114410400391e+00 6.405773162841796875e-01 -9.545621871948242188e-01
1.214000000000000000e+03 1.590832996368408203e+01 -2.441295433044433594e+01 7.572600245475769043e-01 1.491667985916137695e+00 6.746784448623657227e-01 -1.123185157775878906e+00
1.215000000000000000e+03 1.279541254043579102e+00 -4.007753753662109375e+01 1.006257627159357071e-02 -1.830057203769683838e-01 -5.188294500112533569e-02 6.203833967447280884e-02
1.216000000000000000e+03 8.482186794281005859e-01 3.734958648681640625e+01 3.069386584684252739e-03 -1.163000226020812988e+00 -3.479792475700378418e-01 -1.131223794072866440e-02
1.217000000000000000e+03 7.138518095016479492e-01 3.458476638793945312e+01 3.092978149652481079e-03 -1.182425618171691895e+00 -3.537998199462890625e-01 2.229372970759868622e-03
1.218000000000000000e+03 6.950171589851379395e-01 3.318349838256835938e+01 3.712311524850520073e-07 -1.174255847930908203e+00 -3.522766232490539551e-01 5.942314397543668747e-03
1.219000000000000000e+03 6.744222640991210938e-01 2.753602981567382812e+01 2.035432262346148491e-04 -1.124777555465698242e+00 -3.373722136020660400e-01 5.574138369411230087e-03
1.220000000000000000e+03 6.686949133872985840e-01 2.612774467468261719e+01 7.232544012367725372e-04 -1.111334681510925293e+00 -3.331834375858306885e-01 6.479617673903703690e-03
1.221000000000000000e+03 6.275303959846496582e-01 -3.602528762817382812e+01 -3.233329392969608307e-03 -4.211788177490234375e-01 -1.273236423730850220e-01 3.318709880113601685e-02
1.222000000000000000e+03 2.157213449478149414e+00 -3.320700454711914062e+01 -4.596253111958503723e-02 -5.474533438682556152e-01 -1.780247688293457031e-01 2.293491959571838379e-01
1.223000000000000000e+03 3.378085374832153320e+00 2.565421485900878906e+01 7.528891321271657944e-03 -8.645992279052734375e-01 -2.571210861206054688e-01 4.351996257901191711e-02
1.224000000000000000e+03 3.326530933380126953e+00 2.426660537719726562e+01 7.458050735294818878e-03 -8.450984358787536621e-01 -2.512921094894409180e-01 4.893971979618072510e-02
1.225000000000000000e+03 2.133270740509033203e+00 3.428894805908203125e+01 5.533260758966207504e-03 -1.058662533760070801e+00 -3.159387707710266113e-01 1.242097094655036926e-02
1.226000000000000000e+03 2.085695505142211914e+00 3.293226623535156250e+01 3.600484458729624748e-03 -1.055463314056396484e+00 -3.155588507652282715e-01 1.525566261261701584e-02
1.227000000000000000e+03 2.706334829330444336e+00 3.814557647705078125e+01 1.431296579539775848e-02 -1.057210564613342285e+00 -3.128692805767059326e-01 -2.392379194498062134e-02
1.228000000000000000e+03 3.345082283020019531e+00 3.919977569580078125e+01 5.220929626375436783e-03 -1.059397339820861816e+00 -3.162529170513153076e-01 7.891444489359855652e-03
1.229000000000000000e+03 1.977543354034423828e+00 -2.934014701843261719e+01 -6.732967495918273926e-02 -1.025212526321411133e+00 -3.277626931667327881e-01 3.778659105300903320e-01
1.230000000000000000e+03 1.933765053749084473e+00 -2.650339698791503906e+01 -9.208173304796218872e-02 -1.538768768310546875e+00 -4.892551600933074951e-01 5.366069078445434570e-01
1.231000000000000000e+03 1.885756015777587891e+00 -1.656043434143066406e+01 2.059565335512161255e-01 -4.330444335937500000e+00 -1.237346291542053223e+00 5.826166272163391113e-01
1.232000000000000000e+03 2.333902597427368164e+00 -3.672904586791992188e+01 -1.916497573256492615e-02 -3.053822219371795654e-01 -9.736415743827819824e-02 1.589691340923309326e-01
1.233000000000000000e+03 5.723661184310913086e-01 7.809070587158203125e+00 -4.938832949846982956e-03 -2.364418059587478638e-01 -7.241418957710266113e-02 4.340380802750587463e-02
1.234000000000000000e+03 6.407856345176696777e-01 2.046549987792968750e+01 2.836100989952683449e-03 -1.021753430366516113e+00 -3.056752085685729980e-01 1.589805819094181061e-02
1.235000000000000000e+03 6.305347084999084473e-01 1.904904365539550781e+01 8.225141209550201893e-04 -9.808648824691772461e-01 -2.940127253532409668e-01 2.031757310032844543e-02
1.236000000000000000e+03 6.133982539176940918e-01 1.481720829010009766e+01 4.877391271293163300e-03 -7.795256972312927246e-01 -2.323944866657257080e-01 3.852878883481025696e-02
1.237000000000000000e+03 6.088917851448059082e-01 1.341507434844970703e+01 -1.031440682709217072e-03 -6.837492585182189941e-01 -2.054342031478881836e-01 4.396056756377220154e-02
1.238000000000000000e+03 4.820791244506835938e+00 -4.036717224121093750e+01 -1.183889806270599365e-01 -2.473551966249942780e-02 -4.293734952807426453e-02 5.219249054789543152e-02
1.239000000000000000e+03 3.270741701126098633e+00 -3.918999481201171875e+01 -3.374217823147773743e-02 -1.536904275417327881e-01 -5.622978135943412781e-02 1.179157122969627380e-01
1.240000000000000000e+03 3.984348535537719727e+00 -3.607032394409179688e+01 -8.043011277914047241e-02 -1.326676607131958008e-01 -6.392933428287506104e-02 2.124725878238677979e-01
1.241000000000000000e+03 1.781062126159667969e+00 -3.542910385131835938e+01 -1.699849963188171387e-02 -4.316127002239227295e-01 -1.345833539962768555e-01 1.487585306167602539e-01
1.242000000000000000e+03 1.878775238990783691e+00 -3.200461578369140625e+01 -3.318352997303009033e-02 -7.286344766616821289e-01 -2.285453975200653076e-01 2.462116926908493042e-01
1.243000000000000000e+03 1.967658519744873047e+00 -2.792270088195800781e+01 -5.574415624141693115e-02 -1.254765391349792480e+00 -3.931528329849243164e-01 4.356114864349365234e-01
1.244000000000000000e+03 3.192015886306762695e+00 -2.663638687133789062e+01 -1.589597612619400024e-01 -9.297338128089904785e-01 -3.266080915927886963e-01 7.106083631515502930e-01
1.245000000000000000e+03 1.887784361839294434e+00 -2.225493431091308594e+01 -3.992380946874618530e-02 -2.663628339767456055e+00 -8.110656142234802246e-01 8.107443451881408691e-01
1.246000000000000000e+03 1.895642161369323730e+00 -2.509037017822265625e+01 -7.001930475234985352e-02 -1.871628999710083008e+00 -5.824944972991943359e-01 6.095085144042968750e-01
1.247000000000000000e+03 1.913720607757568359e+00 -1.941287994384765625e+01 8.688483387231826782e-03 -3.519978046417236328e+00 -1.053386807441711426e+00 8.875187635421752930e-01
1.248000000000000000e+03 6.353107094764709473e-01 -1.925255203247070312e+01 -2.978953905403614044e-02 -5.340278625488281250e+00 -1.611020445823669434e+00 3.581544458866119385e-01
1.249000000000000000e+03 6.045117855072021484e+00 -1.370986557006835938e+01 2.672441720962524414e+00 1.990694642066955566e+00 1.398940920829772949e+00 -3.693763613700866699e-01
1.250000000000000000e+03 5.845705866813659668e-01 -1.216190242767333984e+01 4.642126336693763733e-02 -6.408259391784667969e+00 -1.908551454544067383e+00 -2.399929910898208618e-01
1.251000000000000000e+03 1.738793969154357910e+00 -1.226339340209960938e+01 2.952513992786407471e-01 -4.373719215393066406e+00 -1.223540425300598145e+00 -7.254261970520019531e-01
1.252000000000000000e+03 1.730830907821655273e+00 -6.715357780456542969e+00 -3.528044745326042175e-02 -1.919538617134094238e+00 -5.864457488059997559e-01 -1.066605925559997559e+00
1.253000000000000000e+03 1.483790397644042969e+00 -3.359716892242431641e+00 -1.380356848239898682e-01 -6.832417249679565430e-01 -2.463832199573516846e-01 -5.655109286308288574e-01
1.254000000000000000e+03 6.156268715858459473e-01 -5.073709964752197266e+00 -1.132298843003809452e-03 -1.450933694839477539e+00 -4.356198012828826904e-01 -3.518013954162597656e-01
1.255000000000000000e+03 5.336040854454040527e-01 4.962888240814208984e+00 -3.476570826023817062e-03 -7.058212161064147949e-02 -2.221760712563991547e-02 2.397986501455307007e-02
1.256000000000000000e+03 6.032252311706542969e+00 3.979267358779907227e+00 -1.681550294160842896e-01 -6.500819325447082520e-02 -6.994897127151489258e-02 1.866646111011505127e-01
1.257000000000000000e+03 1.765895962715148926e+00 1.045782947540283203e+01 1.825267449021339417e-03 -4.196191132068634033e-01 -1.253381520509719849e-01 1.358578652143478394e-01
1.258000000000000000e+03 5.863485932350158691e-01 1.061345958709716797e+01 -3.459474537521600723e-03 -4.638597369194030762e-01 -1.401957571506500244e-01 4.817519709467887878e-02
1.259000000000000000e+03 1.840194344520568848e+00 1.321024036407470703e+01 1.152470428496599197e-02 -5.952122211456298828e-01 -1.751062422990798950e-01 1.282196044921875000e-01
1.260000000000000000e+03 1.877943634986877441e+00 1.880513381958007812e+01 1.305931247770786285e-02 -8.541449904441833496e-01 -2.523257136344909668e-01 6.276457011699676514e-02
1.261000000000000000e+03 1.991125345230102539e+00 2.449751281738281250e+01 4.341468214988708496e-03 -9.682884216308593750e-01 -2.891840934753417969e-01 2.565542981028556824e-02
1.262000000000000000e+03 2.169493103027343750e+01 -1.123938560485839844e+01 6.037405490875244141e+00 -1.483325600624084473e+00 1.366224050521850586e+00 7.205550074577331543e-01
1.263000000000000000e+03 2.385703849792480469e+01 -8.347060203552246094e+00 -2.463636696338653564e-01 3.520657062530517578e+00 9.822880029678344727e-01 4.851530492305755615e-01
1.264000000000000000e+03 2.371687889099121094e+01 -7.981366634368896484e+00 -3.076641857624053955e-01 2.968721389770507812e+00 7.983171939849853516e-01 2.962028980255126953e-01
1.265000000000000000e+03 2.379976081848144531e+01 -7.179671287536621094e+00 -4.388333559036254883e-01 2.381488084793090820e+00 5.827964544296264648e-01 3.697735071182250977e-01
1.266000000000000000e+03 2.455160331726074219e+01 -9.306386947631835938e+00 1.213190078735351562e+00 4.802246570587158203e+00 1.804630994796752930e+00 2.332952260971069336e+00
1.267000000000000000e+03 1.998717880249023438e+01 -9.301577568054199219e+00 1.689835667610168457e+00 -1.491698622703552246e+00 5.944114178419113159e-02 -1.138333380222320557e-01
1.268000000000000000e+03 2.615868568420410156e+01 -1.018426609039306641e+01 3.780365467071533203e+00 1.465737342834472656e+00 1.573830842971801758e+00 1.744982123374938965e+00
1.269000000000000000e+03 2.019976806640625000e+01 -9.807780265808105469e+00 2.283286571502685547e+00 -1.636654615402221680e+00 1.939895600080490112e-01 -2.123326808214187622e-01
1.270000000000000000e+03 1.912692832946777344e+01 -1.111043930053710938e+01 2.026121854782104492e+00 -2.594947099685668945e+00 -1.706476211547851562e-01 1.238700866699218750e+00
1.271000000000000000e+03 2.341876983642578125e+01 -7.306640148162841797e+00 -3.833031356334686279e-01 2.136808633804321289e+00 5.260516405105590820e-01 1.745222508907318115e-01
1.272000000000000000e+03 2.299294471740722656e+01 -4.393603801727294922e+00 -6.401407122611999512e-01 1.137604475021362305e+00 1.492391377687454224e-01 3.080296218395233154e-01
1.273000000000000000e+03 2.332909584045410156e+01 -4.965256214141845703e+00 -6.322118639945983887e-01 1.378921270370483398e+00 2.240128219127655029e-01 3.354771137237548828e-01
1.274000000000000000e+03 2.396503639221191406e+01 -6.721141338348388672e+00 -4.919208288192749023e-01 2.250145196914672852e+00 5.274673104286193848e-01 4.559592604637145996e-01
1.275000000000000000e+03 2.364994049072265625e+01 -5.488765239715576172e+00 -6.038145422935485840e-01 1.650998353958129883e+00 3.141551315784454346e-01 3.843320608139038086e-01
1.276000000000000000e+03 9.385437011718750000e+00 -2.714250087738037109e+00 -1.692268967628479004e+00 5.515388250350952148e-01 -3.422190248966217041e-01 -5.972343031316995621e-03
1.277000000000000000e+03 1.128491687774658203e+01 -3.765213489532470703e+00 -1.451995730400085449e+00 6.070865988731384277e-01 -2.534727454185485840e-01 5.209020376205444336e-01
1.278000000000000000e+03 1.876716804504394531e+01 -8.143420219421386719e+00 9.612269997596740723e-01 -1.448591709136962891e+00 -1.462094336748123169e-01 4.276242554187774658e-01
1.279000000000000000e+03 1.825869560241699219e+01 -7.598774433135986328e+00 6.894931197166442871e-01 -1.344470262527465820e+00 -1.964931488037109375e-01 5.913881063461303711e-01
1.280000000000000000e+03 1.723638534545898438e+01 -6.387172698974609375e+00 1.636466979980468750e-01 -1.018608808517456055e+00 -2.564886212348937988e-01 9.166001081466674805e-01
1.281000000000000000e+03 1.575463008880615234e+01 -1.142104148864746094e+01 3.350872695446014404e-01 -1.359878897666931152e+00 -3.074374794960021973e-01 1.277702569961547852e+00
1.282000000000000000e+03 1.605768203735351562e+01 -5.340150833129882812e+00 -3.613450229167938232e-01 -6.323927640914916992e-01 -2.981213331222534180e-01 1.085877537727355957e+00
1.283000000000000000e+03 1.664872741699218750e+01 -9.402366638183593750e+00 1.180160522460937500e+00 -1.717031836509704590e+00 -1.610613912343978882e-01 1.264196395874023438e+00
1.284000000000000000e+03 1.501807022094726562e+01 -5.585978507995605469e+00 -3.772983551025390625e-01 -3.372175395488739014e-01 -2.143547683954238892e-01 1.205023169517517090e+00
1.285000000000000000e+03 1.387578773498535156e+01 -4.170594215393066406e+00 -1.038778781890869141e+00 -5.518815293908119202e-02 -3.281900882720947266e-01 1.014354944229125977e+00
1.286000000000000000e+03 4.684752464294433594e+00 3.242835998535156250e+00 -1.115384772419929504e-01 -5.154154822230339050e-02 -4.892400652170181274e-02 1.216687038540840149e-01
1.287000000000000000e+03 6.779778480529785156e+00 3.304131269454956055e+00 -2.040919959545135498e-01 -4.577492922544479370e-02 -7.496007531881332397e-02 1.756136864423751831e-01
1.288000000000000000e+03 4.007757663726806641e+00 3.272642135620117188e+00 -8.852972090244293213e-02 -5.156262964010238647e-02 -4.202770441770553589e-02 1.027175784111022949e-01
1.289000000000000000e+03 3.319431543350219727e+00 3.369050741195678711e+00 -6.044810265302658081e-02 -6.588141620159149170e-02 -3.789885714650154114e-02 9.066227823495864868e-02
1.290000000000000000e+03 3.304935932159423828e+00 2.622005701065063477e+00 -5.552109703421592712e-02 -3.597196191549301147e-02 -2.744791656732559204e-02 5.735634639859199524e-02
1.291000000000000000e+03 3.997464179992675781e+00 2.564172267913818359e+00 -7.879478484392166138e-02 -3.877263888716697693e-02 -3.527022525668144226e-02 7.961000502109527588e-02
1.292000000000000000e+03 5.364277839660644531e+00 3.246422767639160156e+00 -1.400519609451293945e-01 -4.512104019522666931e-02 -5.555190145969390869e-02 1.355206370353698730e-01
1.293000000000000000e+03 7.519948482513427734e+00 3.340374231338500977e+00 -2.349190413951873779e-01 -5.643011257052421570e-02 -8.740475028753280640e-02 1.957397907972335815e-01
1.294000000000000000e+03 8.278027534484863281e+00 3.366518735885620117e+00 -2.761031091213226318e-01 -5.661148950457572937e-02 -9.981438517570495605e-02 2.105382978916168213e-01
1.295000000000000000e+03 1.069158458709716797e+01 2.525559186935424805e+00 -3.883396983146667480e-01 -1.063495054841041565e-01 -1.484067589044570923e-01 2.136819362640380859e-01
1.296000000000000000e+03 1.072701072692871094e+01 3.290050029754638672e+00 -3.791930377483367920e-01 -1.305932849645614624e-01 -1.529358923435211182e-01 2.426151633262634277e-01
1.297000000000000000e+03 2.101410293579101562e+01 -1.241526412963867188e+01 2.264896869659423828e+00 -1.910805821418762207e+00 1.062273159623146057e-01 2.648453950881958008e+00
1.298000000000000000e+03 1.265245819091796875e+01 -4.501259803771972656e+00 -1.066086649894714355e+00 3.696394860744476318e-01 -2.089341580867767334e-01 9.334090352058410645e-01
1.299000000000000000e+03 1.084749412536621094e+01 -2.867068052291870117e+00 -1.690679788589477539e+00 4.826766252517700195e-01 -3.624009490013122559e-01 3.720509111881256104e-01
1.300000000000000000e+03 1.289266204833984375e+01 6.401757240295410156e+00 -4.334326684474945068e-01 -2.884962856769561768e-01 -2.165786921977996826e-01 3.513849675655364990e-01
1.301000000000000000e+03 1.657520484924316406e+01 7.848340868949890137e-01 -4.441245496273040771e-01 -4.124267995357513428e-01 -2.569653987884521484e-01 3.693554103374481201e-01
1.302000000000000000e+03 1.610004234313964844e+01 2.004977464675903320e+00 -4.260448217391967773e-01 -4.138964712619781494e-01 -2.519823908805847168e-01 3.278055191040039062e-01
1.303000000000000000e+03 2.293013095855712891e+00 -3.133323669433593750e+00 -3.220174908638000488e-01 -4.205780625343322754e-01 -2.227786630392074585e-01 -7.635052204132080078e-01
1.304000000000000000e+03 3.962545871734619141e+00 -8.444127082824707031e+00 -2.525696717202663422e-02 -4.805415272712707520e-01 -1.517395526170730591e-01 -1.879262328147888184e+00
1.305000000000000000e+03 1.839314341545104980e+00 -5.328871726989746094e+00 -1.469793617725372314e-01 -1.242938041687011719e+00 -4.169752299785614014e-01 -9.604529142379760742e-01
1.306000000000000000e+03 7.073689460754394531e+00 -2.794013738632202148e+00 -1.365500211715698242e+00 3.805994391441345215e-01 -2.954702377319335938e-01 -6.447067260742187500e-01
1.307000000000000000e+03 8.745041847229003906e+00 -3.593973875045776367e+00 -1.492489099502563477e+00 7.991361021995544434e-01 -2.080058902502059937e-01 -2.380451411008834839e-01
1.308000000000000000e+03 5.493418216705322266e+00 -3.865418434143066406e+00 -9.302058219909667969e-01 2.291164100170135498e-01 -2.103268206119537354e-01 -1.105221867561340332e+00
1.309000000000000000e+03 7.197083950042724609e+00 -3.663367748260498047e+00 -1.268729090690612793e+00 5.778226852416992188e-01 -2.072719037532806396e-01 -7.171081304550170898e-01
1.310000000000000000e+03 6.368453025817871094e+00 -3.711269617080688477e+00 -1.108414173126220703e+00 4.632259607315063477e-01 -1.935564726591110229e-01 -9.546602964401245117e-01
1.311000000000000000e+03 1.256453800201416016e+01 3.170394659042358398e+00 -4.290556311607360840e-01 -2.285734713077545166e-01 -1.972887367010116577e-01 2.651783525943756104e-01
1.312000000000000000e+03 1.487123680114746094e+01 5.539342880249023438e+00 -4.656800031661987305e-01 -4.615353047847747803e-01 -2.781645953655242920e-01 3.582019507884979248e-01
1.313000000000000000e+03 1.160556697845458984e+01 3.217816352844238281e+00 -4.112278521060943604e-01 -1.565620154142379761e-01 -1.703369617462158203e-01 2.528359591960906982e-01
1.314000000000000000e+03 2.118576049804687500e+01 1.442110657691955566e+00 -3.953949213027954102e-01 2.920899391174316406e-01 -3.099149651825428009e-02 4.293717741966247559e-01
1.315000000000000000e+03 2.122642707824707031e+01 -1.621570587158203125e+00 -5.700254440307617188e-01 3.522006869316101074e-01 -6.534741818904876709e-02 3.347264528274536133e-01
1.316000000000000000e+03 1.942286682128906250e+01 -1.171381592750549316e+00 -5.134754180908203125e-01 -1.509473174810409546e-01 -1.993268132209777832e-01 3.804549276828765869e-01
1.317000000000000000e+03 2.262879562377929688e+01 -3.775283336639404297e+00 -6.512529850006103516e-01 9.268216490745544434e-01 8.267061412334442139e-02 3.031522631645202637e-01
1.318000000000000000e+03 2.222070312500000000e+01 -3.098645925521850586e+00 -6.386006474494934082e-01 7.269712090492248535e-01 2.651115879416465759e-02 3.073840141296386719e-01
1.319000000000000000e+03 1.740204620361328125e+01 2.455538272857666016e+00 -4.329454600811004639e-01 -4.124068021774291992e-01 -2.536056935787200928e-01 3.449319899082183838e-01
1.320000000000000000e+03 1.916371726989746094e+01 -5.814632400870323181e-02 -4.411517977714538574e-01 -2.129431664943695068e-01 -1.962284892797470093e-01 3.756695687770843506e-01
1.321000000000000000e+03 1.423327827453613281e+01 -5.370650291442871094e+00 -5.319718122482299805e-01 -8.033701777458190918e-02 -1.836926490068435669e-01 1.151852488517761230e+00
1.322000000000000000e+03 1.009648132324218750e+01 -3.443928241729736328e+00 -1.574128150939941406e+00 7.807595729827880859e-01 -2.380105853080749512e-01 1.615836918354034424e-01
1.323000000000000000e+03 9.466729164123535156e+00 -3.543225765228271484e+00 -1.544694662094116211e+00 7.497222423553466797e-01 -2.384917140007019043e-01 -6.311193108558654785e-02
1.324000000000000000e+03 1.729456329345703125e+01 -1.134080791473388672e+01 6.227775812149047852e-01 -2.160772800445556641e+00 -4.613985419273376465e-01 1.606014847755432129e+00
1.325000000000000000e+03 1.452005290985107422e+01 2.588019609451293945e+00 -4.567723572254180908e-01 -3.490784466266632080e-01 -2.417552322149276733e-01 2.842852771282196045e-01
1.326000000000000000e+03 1.391911697387695312e+01 3.933817863464355469e+00 -4.452915787696838379e-01 -3.353304564952850342e-01 -2.341866046190261841e-01 2.895805835723876953e-01
1.327000000000000000e+03 1.210937213897705078e+01 -5.155936241149902344e+00 -9.210829138755798340e-01 7.025086879730224609e-01 -6.557227671146392822e-02 8.795621395111083984e-01
1.328000000000000000e+03 1.075011062622070312e+01 4.067809104919433594e+00 -3.782551884651184082e-01 -1.270342618227005005e-01 -1.515868306159973145e-01 2.712226808071136475e-01
1.329000000000000000e+03 1.779662513732910156e+01 1.086271047592163086e+00 -4.003026187419891357e-01 -3.785435557365417480e-01 -2.336538434028625488e-01 3.710889518260955811e-01
1.330000000000000000e+03 1.980971145629882812e+01 -4.329562783241271973e-01 -4.573467075824737549e-01 -3.904763609170913696e-02 -1.489183008670806885e-01 3.831290006637573242e-01
1.331000000000000000e+03 2.684625625610351562e+01 -1.055695247650146484e+01 3.235801935195922852e+00 7.654981017112731934e-01 1.200390100479125977e+00 9.723628759384155273e-01
1.332000000000000000e+03 2.575823402404785156e+01 -1.298976135253906250e+01 1.025797247886657715e+00 1.685683846473693848e+00 8.134443163871765137e-01 -1.399890899658203125e+00
1.333000000000000000e+03 2.667669868469238281e+01 -1.299711036682128906e+01 1.133988022804260254e+00 9.841066002845764160e-01 6.354283690452575684e-01 -1.430031657218933105e+00
1.334000000000000000e+03 1.144188022613525391e+01 1.630193328857421875e+01 3.184939324855804443e-01 -1.102896258234977722e-01 6.246129050850868225e-02 2.555279433727264404e-01
1.335000000000000000e+03 3.979710006713867188e+01 -1.608342933654785156e+01 -1.559429764747619629e+00 5.499153956770896912e-02 -4.513314664363861084e-01 -3.745433986186981201e-01
1.336000000000000000e+03 4.125452423095703125e+01 -1.702107620239257812e+01 -1.588165521621704102e+00 3.355130553245544434e-02 -4.663842618465423584e-01 -3.614702224731445312e-01
1.337000000000000000e+03 3.106477928161621094e+01 -1.595360946655273438e+01 -2.364682912826538086e+00 1.787389367818832397e-01 -6.557832360267639160e-01 -5.549876093864440918e-01
1.338000000000000000e+03 1.279418659210205078e+01 -2.145770645141601562e+01 9.461810588836669922e-01 2.691304206848144531e+00 1.091245532035827637e+00 -1.503167867660522461e+00
1.339000000000000000e+03 2.977126121520996094e+01 6.163155555725097656e+00 2.330024242401123047e-01 8.777269124984741211e-01 3.332188129425048828e-01 6.326171755790710449e-01
1.340000000000000000e+03 2.684193801879882812e+01 6.319067001342773438e+00 3.985160887241363525e-01 1.040105342864990234e+00 4.315864145755767822e-01 4.993889629840850830e-01
1.341000000000000000e+03 1.892238044738769531e+01 -1.324574279785156250e+01 -1.848669528961181641e+00 -2.572268247604370117e+00 -1.326281309127807617e+00 2.998547315597534180e+00
1.342000000000000000e+03 5.081335067749023438e+01 4.622357845306396484e+00 3.942529857158660889e-01 2.646780908107757568e-01 1.976793110370635986e-01 2.890541851520538330e-01
1.343000000000000000e+03 5.175504302978515625e+01 3.482047080993652344e+00 2.944125235080718994e-01 3.545157015323638916e-01 1.946784704923629761e-01 3.010700047016143799e-01
1.344000000000000000e+03 2.833544540405273438e+01 1.171397781372070312e+01 -1.138403341174125671e-01 7.210368514060974121e-01 1.821589469909667969e-01 7.466617226600646973e-01
1.345000000000000000e+03 2.312041091918945312e+01 -1.510479259490966797e+01 -5.887694835662841797e+00 6.289307475090026855e-01 -1.577629208564758301e+00 2.188105583190917969e+00
1.346000000000000000e+03 4.670896148681640625e+01 -1.387847709655761719e+01 -1.492853522300720215e+00 -5.922888219356536865e-02 -4.656247496604919434e-01 -5.254676342010498047e-01
1.347000000000000000e+03 4.096267700195312500e+01 -1.584253120422363281e+01 -1.544615149497985840e+00 5.241282656788825989e-02 -4.476607143878936768e-01 -3.901326656341552734e-01
1.348000000000000000e+03 4.908686065673828125e+01 -1.279461860656738281e+01 -1.583135128021240234e+00 -7.372044026851654053e-02 -4.970566630363464355e-01 -5.652323961257934570e-01
1.349000000000000000e+03 3.640202331542968750e+01 -1.501569557189941406e+01 -1.474040746688842773e+00 4.442534968256950378e-02 -4.288846254348754883e-01 -4.304272532463073730e-01
1.350000000000000000e+03 5.077973175048828125e+01 -1.061174392700195312e+01 -1.671618700027465820e+00 -1.875414326786994934e-02 -5.071118474006652832e-01 -5.053580403327941895e-01
1.351000000000000000e+03 4.608648681640625000e+01 -1.279076290130615234e+01 -1.420736789703369141e+00 3.238592762500047684e-03 -4.252494573593139648e-01 -4.392970204353332520e-01
1.352000000000000000e+03 2.327779579162597656e+01 -1.369270992279052734e+01 -1.888933181762695312e+00 2.642868757247924805e+00 2.261806577444076538e-01 1.598884344100952148e+00
1.353000000000000000e+03 2.547565841674804688e+01 -1.605992889404296875e+01 -5.724576950073242188e+00 5.216876268386840820e-01 -1.560866713523864746e+00 4.705715179443359375e-01
1.354000000000000000e+03 4.439550042152404785e-01 3.557068824768066406e+00 -5.363385193049907684e-03 -1.760394126176834106e-02 -6.890198215842247009e-03 1.144552137702703476e-02
1.355000000000000000e+03 2.814216423034667969e+01 -1.656871795654296875e+01 -4.097403049468994141e+00 3.482242226600646973e-01 -1.124753594398498535e+00 -1.962962448596954346e-01
1.356000000000000000e+03 2.519846534729003906e+01 -1.374252986907958984e+01 -9.082025885581970215e-01 2.298677444458007812e+00 4.171424508094787598e-01 -1.101071953773498535e+00
1.357000000000000000e+03 6.436479949951171875e+01 -2.334418487548828125e+01 -2.933922111988067627e-01 4.224083423614501953e+00 1.179207444190979004e+00 1.236356496810913086e+00
1.358000000000000000e+03 6.525937652587890625e+01 -2.226872825622558594e+01 -2.283824533224105835e-01 5.310832500457763672e+00 1.524734973907470703e+00 1.419531583786010742e+00
1.359000000000000000e+03 3.849452209472656250e+01 -1.524251937866210938e+01 -1.482873439788818359e+00 4.579370096325874329e-02 -4.311239123344421387e-01 -3.892279267311096191e-01
1.360000000000000000e+03 2.424724197387695312e+01 -3.314159011840820312e+01 1.057828366756439209e-01 4.535946846008300781e-01 1.678132563829421997e-01 -2.577876150608062744e-01
1.361000000000000000e+03 5.496141052246093750e+01 -3.126379585266113281e+01 -2.751115560531616211e-01 8.765999227762222290e-02 -5.623546987771987915e-02 -9.691892564296722412e-02
1.362000000000000000e+03 4.382742691040039062e+01 6.465377807617187500e+00 -1.007713098078966141e-02 5.605481863021850586e-01 1.651413142681121826e-01 3.606801852583885193e-02
1.363000000000000000e+03 7.785742759704589844e+00 -8.718751907348632812e+00 -3.139025270938873291e-01 3.045639991760253906e+00 8.195212483406066895e-01 -9.702413678169250488e-01
1.364000000000000000e+03 8.641445159912109375e+00 -1.356255626678466797e+01 3.956926107406616211e+00 1.128684616088867188e+01 4.573131561279296875e+00 3.924122452735900879e-01
1.365000000000000000e+03 7.659424781799316406e+00 -1.421669673919677734e+01 3.481381654739379883e+00 5.726274013519287109e+00 2.762296676635742188e+00 -1.615683734416961670e-01
1.366000000000000000e+03 2.691922760009765625e+01 -1.517422103881835938e+01 -3.149919986724853516e+00 7.402901053428649902e-01 -7.228890061378479004e-01 -8.618841171264648438e-01
1.367000000000000000e+03 7.550606536865234375e+01 -1.043610095977783203e+01 1.136098146438598633e+00 8.254477500915527344e+00 2.817172765731811523e+00 3.311087191104888916e-01
1.368000000000000000e+03 7.139664459228515625e+01 -1.051078891754150391e+01 3.277449846267700195e+00 1.289201450347900391e+01 4.850839138031005859e+00 -1.654093712568283081e-01
1.369000000000000000e+03 1.357109928131103516e+01 1.239858150482177734e+01 2.291915714740753174e-01 2.011068463325500488e-01 1.290895193815231323e-01 4.095969498157501221e-01
1.370000000000000000e+03 1.225522613525390625e+01 1.122003364562988281e+01 9.642846137285232544e-02 -8.167915791273117065e-02 4.424791783094406128e-03 4.869551062583923340e-01
1.371000000000000000e+03 5.931010818481445312e+01 1.252762317657470703e+01 6.564154624938964844e-01 3.391009092330932617e+00 1.214227318763732910e+00 -6.682336926460266113e-01
1.372000000000000000e+03 5.341638183593750000e+01 -1.195149612426757812e+01 -1.904075026512145996e+00 -3.453046381473541260e-01 -6.748139262199401855e-01 -8.970741629600524902e-01
1.373000000000000000e+03 7.765982055664062500e+01 -3.638910293579101562e+01 -3.574428334832191467e-02 9.873104095458984375e+00 2.951207876205444336e+00 1.233941614627838135e-01
1.374000000000000000e+03 7.529346466064453125e+01 -2.209930229187011719e+01 -3.849086165428161621e-01 8.842110633850097656e+00 2.537160634994506836e+00 -1.122777581214904785e+00
1.375000000000000000e+03 7.787250518798828125e+01 -2.924696350097656250e+01 -8.648326247930526733e-02 9.687466621398925781e+00 2.880294799804687500e+00 -2.074587494134902954e-01
1.376000000000000000e+03 7.555146026611328125e+01 1.465636157989501953e+01 4.198561981320381165e-02 7.021858692169189453e+00 2.119153261184692383e+00 -4.594001173973083496e-01
1.377000000000000000e+03 7.677347564697265625e+01 1.585548877716064453e+01 2.710784971714019775e-02 7.200264453887939453e+00 2.168211698532104492e+00 -3.289416730403900146e-01
1.378000000000000000e+03 7.736534881591796875e+01 3.505299758911132812e+01 2.699083124753087759e-04 6.263457298278808594e+00 1.879118204116821289e+00 -8.064363151788711548e-02
1.379000000000000000e+03 7.619150543212890625e+01 3.310910797119140625e+01 1.178394630551338196e-02 6.197223663330078125e+00 1.862702250480651855e+00 -1.318822503089904785e-01
1.380000000000000000e+03 7.793456268310546875e+01 -2.212844276428222656e+01 -7.748610526323318481e-02 8.554487228393554688e+00 2.543100118637084961e+00 -7.592653036117553711e-01
1.381000000000000000e+03 7.666189575195312500e+01 -2.350413513183593750e+01 -2.186557054519653320e-01 8.852296829223632812e+00 2.590092182159423828e+00 -8.527379631996154785e-01
1.382000000000000000e+03 7.646007537841796875e+01 -3.071610260009765625e+01 -1.135623604059219360e-01 9.268721580505371094e+00 2.746547937393188477e+00 -1.982254087924957275e-01
1.383000000000000000e+03 7.647552490234375000e+01 -2.926484489440917969e+01 -1.438761055469512939e-01 9.208981513977050781e+00 2.719531774520874023e+00 -2.915966212749481201e-01
1.384000000000000000e+03 7.668825531005859375e+01 -2.634433555603027344e+01 -1.871416121721267700e-01 9.110408782958984375e+00 2.676980018615722656e+00 -5.246180295944213867e-01
1.385000000000000000e+03 7.658508300781250000e+01 -2.779753303527832031e+01 -2.010734975337982178e-01 9.171415328979492188e+00 2.691102504730224609e+00 -4.008275270462036133e-01
1.386000000000000000e+03 7.671113586425781250e+01 -2.491667175292968750e+01 -2.442053854465484619e-01 9.008661270141601562e+00 2.629336833953857422e+00 -6.840611696243286133e-01
1.387000000000000000e+03 7.657759094238281250e+01 -3.201115036010742188e+01 -1.054955497384071350e-01 9.336837768554687500e+00 2.769402742385864258e+00 -1.167927980422973633e-01
1.388000000000000000e+03 7.589038848876953125e+01 -3.468867874145507812e+01 -8.240780979394912720e-02 8.984512329101562500e+00 2.670631408691406250e+00 -4.898449033498764038e-02
1.389000000000000000e+03 7.383771514892578125e+01 -2.909828376770019531e+01 -3.560478985309600830e-01 8.381863594055175781e+00 2.407744646072387695e+00 -2.694886326789855957e-01
1.390000000000000000e+03 7.504350280761718750e+01 -3.998262786865234375e+01 5.002117902040481567e-02 8.777014732360839844e+00 2.648110866546630859e+00 -1.007683798670768738e-01
1.391000000000000000e+03 7.799633026123046875e+01 2.250990867614746094e+01 1.624924503266811371e-02 6.913066864013671875e+00 2.078794717788696289e+00 -1.370804905891418457e-01
1.392000000000000000e+03 7.684570312500000000e+01 1.984714126586914062e+01 2.411106228828430176e-02 6.890369415283203125e+00 2.074344158172607422e+00 -2.522653043270111084e-01
1.393000000000000000e+03 7.525950622558593750e+01 2.252383995056152344e+01 5.493892729282379150e-02 6.449747562408447266e+00 1.951406002044677734e+00 -3.086467981338500977e-01
1.394000000000000000e+03 7.675386810302734375e+01 2.119466209411621094e+01 3.473441302776336670e-02 6.791068077087402344e+00 2.047740697860717773e+00 -2.350179702043533325e-01
1.395000000000000000e+03 7.674255371093750000e+01 1.308914375305175781e+01 2.509181573987007141e-02 7.452551364898681641e+00 2.243293046951293945e+00 -3.594311177730560303e-01
1.396000000000000000e+03 7.545944213867187500e+01 9.160450935363769531e+00 -5.280132219195365906e-02 7.482670783996582031e+00 2.228960752487182617e+00 -4.705444574356079102e-01
1.397000000000000000e+03 7.677136230468750000e+01 1.447533512115478516e+01 1.238709315657615662e-02 7.329080104827880859e+00 2.202440261840820312e+00 -3.444521427154541016e-01
1.398000000000000000e+03 7.657433319091796875e+01 2.398342895507812500e+01 3.196915984153747559e-02 6.604348659515380859e+00 1.990895390510559082e+00 -2.043497413396835327e-01
1.399000000000000000e+03 7.794152832031250000e+01 2.665889739990234375e+01 2.704536076635122299e-03 6.665632247924804688e+00 2.000501155853271484e+00 -1.041526794433593750e-01
1.400000000000000000e+03 7.659861755371093750e+01 -2.207844543457031250e+01 -2.397765964269638062e-01 8.698925971984863281e+00 2.537744760513305664e+00 -1.015518069267272949e+00
1.401000000000000000e+03 7.377073669433593750e+01 -1.799835968017578125e+01 -1.611959189176559448e-01 9.567939758300781250e+00 2.822023153305053711e+00 -1.423986077308654785e+00
1.402000000000000000e+03 7.655818176269531250e+01 -2.063216972351074219e+01 -2.023003846406936646e-01 8.498691558837890625e+00 2.488917350769042969e+00 -1.191679358482360840e+00
1.403000000000000000e+03 7.562957763671875000e+01 -9.093188285827636719e+00 8.957062959671020508e-01 8.062495231628417969e+00 2.687460422515869141e+00 9.664630889892578125e-01
1.404000000000000000e+03 7.796355438232421875e+01 -1.508301067352294922e+01 1.989327371120452881e-01 6.355980873107910156e+00 1.966474056243896484e+00 -7.765281796455383301e-01
1.405000000000000000e+03 7.580771636962890625e+01 -2.007062435150146484e+00 -5.551379919052124023e-01 8.531738281250000000e+00 2.392980098724365234e+00 9.236859679222106934e-01
1.406000000000000000e+03 7.683142089843750000e+01 -7.885030746459960938e+00 3.881662487983703613e-01 7.272262573242187500e+00 2.298128604888916016e+00 1.075684666633605957e+00
1.407000000000000000e+03 7.804244232177734375e+01 5.953284263610839844e+00 -5.461221188306808472e-02 8.490899085998535156e+00 2.530886173248291016e+00 -1.145713105797767639e-01
1.408000000000000000e+03 7.548251342773437500e+01 5.027540683746337891e+00 -2.636328935623168945e-01 7.932145595550537109e+00 2.300553798675537109e+00 -2.972137331962585449e-01
1.409000000000000000e+03 7.567913818359375000e+01 3.466338348388671875e+01 2.435221150517463684e-02 6.111543178558349609e+00 1.840768575668334961e+00 -1.023674458265304565e-01
1.410000000000000000e+03 7.803604125976562500e+01 7.337248802185058594e+00 -3.491446375846862793e-02 8.383073806762695312e+00 2.504447937011718750e+00 -1.876197010278701782e-01
1.411000000000000000e+03 7.673973083496093750e+01 6.190773010253906250e+00 -1.140646710991859436e-01 8.124464035034179688e+00 2.403119802474975586e+00 -2.571583092212677002e-01
1.412000000000000000e+03 7.689359283447265625e+01 -2.204493284225463867e+00 -2.989733219146728516e-01 8.279108047485351562e+00 2.394040584564208984e+00 8.749281764030456543e-01
1.413000000000000000e+03 7.681874847412109375e+01 -9.266517639160156250e+00 5.190088748931884766e-01 7.154148101806640625e+00 2.301947116851806641e+00 7.162592411041259766e-01
1.414000000000000000e+03 7.676308441162109375e+01 -1.635162925720214844e+01 1.719764471054077148e-01 7.655259609222412109e+00 2.348170757293701172e+00 -1.192684292793273926e+00
1.415000000000000000e+03 7.300872802734375000e+01 3.415313720703125000e+01 6.795679777860641479e-02 5.683318614959716797e+00 1.725382566452026367e+00 -1.604516208171844482e-01
1.416000000000000000e+03 7.569823455810546875e+01 3.071117210388183594e+01 1.860672794282436371e-02 6.187098979949951172e+00 1.861711621284484863e+00 -1.470843106508255005e-01
1.417000000000000000e+03 7.682940673828125000e+01 1.853093338012695312e+01 3.324533626437187195e-02 6.999192714691162109e+00 2.109731435775756836e+00 -2.814004421234130859e-01
1.418000000000000000e+03 7.672599792480468750e+01 1.033633995056152344e+01 -1.170041132718324661e-02 7.717249393463134766e+00 2.311664581298828125e+00 -3.623388111591339111e-01
1.419000000000000000e+03 7.661186981201171875e+01 -1.497308444976806641e+01 3.987702727317810059e-01 7.543486118316650391e+00 2.382676839828491211e+00 -1.119077682495117188e+00
1.420000000000000000e+03 7.806716918945312500e+01 -6.660708904266357422e+00 1.235582455992698669e-01 6.607572555541992188e+00 2.019339323043823242e+00 8.916812539100646973e-01
1.421000000000000000e+03 7.808031463623046875e+01 1.805393457412719727e+00 -9.707678854465484619e-02 8.570756912231445312e+00 2.542104005813598633e+00 1.788294017314910889e-01
1.422000000000000000e+03 7.689125823974609375e+01 -7.702152132987976074e-01 -3.583323657512664795e-01 8.360611915588378906e+00 2.400683879852294922e+00 6.611440181732177734e-01
1.423000000000000000e+03 7.676149749755859375e+01 4.815061569213867188e+00 -1.684964597225189209e-01 8.232167243957519531e+00 2.419101238250732422e+00 -1.250526905059814453e-01
1.424000000000000000e+03 7.679687500000000000e+01 3.429340600967407227e+00 -2.153656333684921265e-01 8.338840484619140625e+00 2.437042474746704102e+00 -2.068860083818435669e-02
1.425000000000000000e+03 7.678887176513671875e+01 -5.076694965362548828e+00 -3.200301900506019592e-02 7.836759090423583984e+00 2.341426849365234375e+00 1.237589478492736816e+00
1.426000000000000000e+03 7.683399963378906250e+01 -3.643052101135253906e+00 -2.511443793773651123e-01 8.097529411315917969e+00 2.353915452957153320e+00 1.180364131927490234e+00
1.427000000000000000e+03 7.423656463623046875e+01 -1.173837852478027344e+01 1.858012557029724121e+00 9.261903762817382812e+00 3.335974931716918945e+00 -2.348247915506362915e-01
1.428000000000000000e+03 7.654528808593750000e+01 -1.352057743072509766e+01 6.903810501098632812e-01 7.381014823913574219e+00 2.421418905258178711e+00 -7.211481332778930664e-01
1.429000000000000000e+03 7.675431060791015625e+01 -1.065615367889404297e+01 6.919078826904296875e-01 7.023431301116943359e+00 2.314601659774780273e+00 3.267649114131927490e-01
1.430000000000000000e+03 7.652648925781250000e+01 -1.914800262451171875e+01 -1.003427729010581970e-01 8.317367553710937500e+00 2.465107440948486328e+00 -1.293709039688110352e+00
1.431000000000000000e+03 3.861405944824218750e+01 -1.627260017395019531e+01 -1.610043048858642578e+00 5.331566929817199707e-02 -4.670182168483734131e-01 -3.691331446170806885e-01
1.432000000000000000e+03 6.088107299804687500e+01 -5.142320632934570312e+00 -1.957001090049743652e+00 -1.992998123168945312e-01 -6.468902826309204102e-01 -8.590062260627746582e-01
1.433000000000000000e+03 5.613183593750000000e+01 8.388057708740234375e+00 3.499740660190582275e-01 2.214441299438476562e+00 7.693246603012084961e-01 6.358250230550765991e-02
1.434000000000000000e+03 1.576555061340332031e+01 4.761203765869140625e+00 -5.380740761756896973e-01 -4.912819564342498779e-01 -3.088068068027496338e-01 4.150033891201019287e-01
1.435000000000000000e+03 5.690933609008789062e+01 -9.855988502502441406e+00 -2.534631490707397461e+00 -4.965831041336059570e-01 -9.093643426895141602e-01 -1.136913895606994629e+00
1.436000000000000000e+03 5.380113601684570312e+01 -1.032996845245361328e+01 -1.996954560279846191e+00 -1.752314865589141846e-01 -6.516557931900024414e-01 -7.519717216491699219e-01
1.437000000000000000e+03 8.342147827148437500e+00 -1.546622085571289062e+01 2.488470792770385742e+00 7.464788436889648438e+00 2.985977649688720703e+00 3.338949680328369141e-01
1.438000000000000000e+03 1.622095680236816406e+01 -2.628758621215820312e+01 4.583906829357147217e-01 1.355024933815002441e+00 5.440247058868408203e-01 -8.182471990585327148e-01
1.439000000000000000e+03 2.055523300170898438e+01 -1.074453830718994141e+01 3.421239376068115234e+00 -2.135543823242187500e+00 3.857086896896362305e-01 2.191327512264251709e-01
1.440000000000000000e+03 6.033784866333007812e+01 -2.807901000976562500e+01 -3.783941566944122314e-01 1.616243481636047363e+00 3.713548183441162109e-01 4.565535187721252441e-01
1.441000000000000000e+03 6.024116897583007812e+01 -7.593679904937744141e+00 -3.397512197494506836e+00 -5.231459736824035645e-01 -1.176197528839111328e+00 -1.344250082969665527e+00
1.442000000000000000e+03 5.567357635498046875e+01 -2.910649871826171875e+01 -6.946229934692382812e-01 -7.647782564163208008e-02 -2.313302457332611084e-01 -2.979089617729187012e-01
1.443000000000000000e+03 5.889924621582031250e+01 -2.892444801330566406e+01 -3.796492516994476318e-01 9.793824553489685059e-01 1.799199581146240234e-01 2.522108554840087891e-01
1.444000000000000000e+03 2.051693916320800781e+01 -3.084416389465332031e+01 1.677707284688949585e-01 8.049340248107910156e-01 2.918114364147186279e-01 -5.003165602684020996e-01
1.445000000000000000e+03 2.293068885803222656e+01 -3.234989166259765625e+01 1.209874525666236877e-01 5.203436017036437988e-01 1.923993229866027832e-01 -3.666650354862213135e-01
1.446000000000000000e+03 1.298733997344970703e+01 -2.349565124511718750e+01 3.973115980625152588e-01 2.298267602920532227e+00 8.086737394332885742e-01 -1.012495875358581543e+00
1.447000000000000000e+03 1.406933307647705078e+01 -2.450102043151855469e+01 4.197053909301757812e-01 1.850644230842590332e+00 6.811048984527587891e-01 -9.835322499275207520e-01
1.448000000000000000e+03 1.391667652130126953e+01 6.078334331512451172e+00 -4.619885683059692383e-01 -3.626658916473388672e-01 -2.473963350057601929e-01 3.547311425209045410e-01
1.449000000000000000e+03 2.605422592163085938e+01 1.647107124328613281e+01 -2.069349288940429688e-01 1.083396673202514648e-01 -2.957857958972454071e-02 2.294431328773498535e-01
1.450000000000000000e+03 3.819241046905517578e+00 3.518606948852539062e+01 1.530893798917531967e-02 -9.461560845375061035e-01 -2.792541384696960449e-01 3.096785023808479309e-02
1.451000000000000000e+03 2.025168895721435547e+00 2.729444503784179688e+01 2.315659541636705399e-03 -1.004075050354003906e+00 -3.005278408527374268e-01 2.157997898757457733e-02
1.452000000000000000e+03 3.452312231063842773e+00 2.987379074096679688e+01 2.071158960461616516e-03 -9.159606099128723145e-01 -2.741668522357940674e-01 3.394924849271774292e-02
1.453000000000000000e+03 2.010954618453979492e+00 2.589638900756835938e+01 9.781561093404889107e-04 -9.862442612648010254e-01 -2.955798208713531494e-01 2.294919453561306000e-02
1.454000000000000000e+03 3.384277105331420898e+00 2.705266380310058594e+01 3.412761026993393898e-03 -8.801566362380981445e-01 -2.630231678485870361e-01 3.805057331919670105e-02
1.455000000000000000e+03 6.171296596527099609e+00 2.941047859191894531e+01 5.893538240343332291e-03 -6.846534013748168945e-01 -2.036279588937759399e-01 7.721647620201110840e-02
1.456000000000000000e+03 3.574775695800781250e+00 3.135633468627929688e+01 1.361856586299836636e-03 -9.188686609268188477e-01 -2.752520442008972168e-01 3.021793067455291748e-02
1.457000000000000000e+03 3.402232646942138672e+00 2.845332145690917969e+01 3.248018212616443634e-03 -8.997910618782043457e-01 -2.689629197120666504e-01 3.801380097866058350e-02
1.458000000000000000e+03 3.500344991683959961e+00 3.396879959106445312e+01 7.023727521300315857e-03 -9.513640999794006348e-01 -2.833020985126495361e-01 2.819996513426303864e-02
1.459000000000000000e+03 3.493485212326049805e+00 3.276100540161132812e+01 6.857303902506828308e-03 -9.315182566642761230e-01 -2.773982882499694824e-01 2.905594557523727417e-02
1.460000000000000000e+03 3.137995958328247070e+00 -3.447111892700195312e+01 -7.211179286241531372e-02 -2.702993750572204590e-01 -1.027233526110649109e-01 2.455492913722991943e-01
1.461000000000000000e+03 2.972328662872314453e+00 -3.231653594970703125e+01 -8.046110719442367554e-02 -4.519958794116973877e-01 -1.597370952367782593e-01 3.219383955001831055e-01
1.462000000000000000e+03 1.943133354187011719e+00 -3.072062110900878906e+01 -3.374148160219192505e-02 -8.464314341545104980e-01 -2.640518844127655029e-01 2.966073155403137207e-01
1.463000000000000000e+03 3.311816453933715820e+00 -2.952363204956054688e+01 -1.237324923276901245e-01 -5.984794497489929199e-01 -2.166635841131210327e-01 5.042106509208679199e-01
1.464000000000000000e+03 1.937855362892150879e+00 2.164781188964843750e+01 8.867563679814338684e-03 -9.218150377273559570e-01 -2.738842368125915527e-01 4.004366323351860046e-02
1.465000000000000000e+03 3.242347717285156250e+00 2.285406684875488281e+01 1.578575745224952698e-02 -8.244585394859313965e-01 -2.426018267869949341e-01 5.543004721403121948e-02
1.466000000000000000e+03 2.866363763809204102e+00 -1.235570907592773438e+01 7.014489173889160156e-01 -2.640112876892089844e+00 -5.815991759300231934e-01 -9.884638786315917969e-01
1.467000000000000000e+03 3.175999164581298828e+00 -1.814336013793945312e+01 2.250156253576278687e-01 -2.068887472152709961e+00 -5.531615614891052246e-01 1.084651112556457520e+00
1.468000000000000000e+03 1.834714412689208984e+00 -1.512335205078125000e+01 2.922884821891784668e-01 -4.555841445922851562e+00 -1.279065847396850586e+00 2.015070170164108276e-01
1.469000000000000000e+03 1.909514427185058594e+00 2.022613525390625000e+01 7.884998805820941925e-03 -8.910490870475769043e-01 -2.649492323398590088e-01 4.942180961370468140e-02
1.470000000000000000e+03 3.200261831283569336e+00 2.141407012939453125e+01 1.783508621156215668e-02 -8.029361963272094727e-01 -2.355303317308425903e-01 6.678762286901473999e-02
1.471000000000000000e+03 3.051772594451904297e+00 1.163385009765625000e+01 1.276418659836053848e-02 -4.513950943946838379e-01 -1.315892636775970459e-01 2.120846360921859741e-01
1.472000000000000000e+03 3.053829193115234375e+00 1.716372299194335938e+01 3.381452336907386780e-02 -7.029114961624145508e-01 -2.007290869951248169e-01 1.280294805765151978e-01
1.473000000000000000e+03 3.219822883605957031e+00 -1.957725524902343750e+01 9.384279139339923859e-03 -1.823469400405883789e+00 -5.442255735397338867e-01 1.157165050506591797e+00
1.474000000000000000e+03 1.698570132255554199e+00 -8.080839157104492188e+00 -3.778196871280670166e-02 -2.557094335556030273e+00 -7.784628868103027344e-01 -1.136603116989135742e+00
1.475000000000000000e+03 4.363564014434814453e+00 -4.967267513275146484e+00 -6.115085482597351074e-01 -9.382448345422744751e-02 -2.115999162197113037e-01 -1.375738859176635742e+00
1.476000000000000000e+03 2.649386405944824219e+00 4.455844879150390625e+00 -4.495408385992050171e-02 -9.233047813177108765e-02 -4.118536785244941711e-02 9.598057717084884644e-02
1.477000000000000000e+03 2.795307397842407227e+00 7.730846881866455078e+00 -2.448611520230770111e-02 -2.392144054174423218e-01 -7.911016047000885010e-02 1.790686547756195068e-01
1.478000000000000000e+03 1.842999815940856934e+00 1.459680652618408203e+01 1.051776949316263199e-02 -6.741117835044860840e-01 -1.990782022476196289e-01 1.137107163667678833e-01
1.479000000000000000e+03 3.048889398574829102e+00 1.578147029876708984e+01 3.179732337594032288e-02 -6.508214473724365234e-01 -1.857072412967681885e-01 1.519695669412612915e-01
1.480000000000000000e+03 2.868154764175415039e+00 8.996893882751464844e+00 -1.465263403952121735e-02 -3.068622648715972900e-01 -9.645447134971618652e-02 1.959886997938156128e-01
1.481000000000000000e+03 2.877474546432495117e+00 -6.970761775970458984e+00 -1.698195189237594604e-01 -1.173031806945800781e+00 -4.028553962707519531e-01 -1.535270810127258301e+00
1.482000000000000000e+03 2.176329851150512695e+00 -4.149995326995849609e+00 -2.108822166919708252e-01 -7.470341920852661133e-01 -2.873749136924743652e-01 -8.624652028083801270e-01
1.483000000000000000e+03 3.270922422409057617e+00 -2.806575965881347656e+01 -1.673169881105422974e-01 -7.422575950622558594e-01 -2.728723883628845215e-01 6.251258254051208496e-01
1.484000000000000000e+03 3.185677289962768555e+00 -2.101070213317871094e+01 -7.258852571249008179e-02 -1.651497364044189453e+00 -5.172257423400878906e-01 1.176887631416320801e+00
1.485000000000000000e+03 2.830732345581054688e+00 -9.565842628479003906e+00 1.237696632742881775e-01 -1.962561011314392090e+00 -5.516374111175537109e-01 -1.568873167037963867e+00
1.486000000000000000e+03 2.828576087951660156e+00 -8.250725746154785156e+00 -2.528171055018901825e-02 -1.652212262153625488e+00 -5.032481551170349121e-01 -1.606186032295227051e+00
1.487000000000000000e+03 3.049298286437988281e+00 -1.517800331115722656e+01 6.756175756454467773e-01 -2.498429775238037109e+00 -5.468436479568481445e-01 3.188444375991821289e-01
1.488000000000000000e+03 1.878303766250610352e+00 -2.367777824401855469e+01 -1.006213650107383728e-01 -2.233388185501098633e+00 -7.002028822898864746e-01 7.271975874900817871e-01
1.489000000000000000e+03 3.106824398040771484e+00 -2.243879890441894531e+01 -1.587449908256530762e-01 -1.459684610366821289e+00 -4.855288863182067871e-01 1.078673958778381348e+00
1.490000000000000000e+03 4.071737289428710938e+00 -3.780089950561523438e+01 -6.627981364727020264e-02 -1.260512024164199829e-01 -5.769930407404899597e-02 1.613089591264724731e-01
1.491000000000000000e+03 4.262350082397460938e+00 -3.307971572875976562e+01 -1.418178975582122803e-01 -1.850732862949371338e-01 -9.806735068559646606e-02 3.823410868644714355e-01
1.492000000000000000e+03 3.114378929138183594e+00 -2.523623085021972656e+01 -1.902031600475311279e-01 -1.127238631248474121e+00 -3.952325284481048584e-01 8.349270820617675781e-01
1.493000000000000000e+03 4.211805820465087891e+00 -2.400876998901367188e+01 -2.820171415805816650e-01 -5.059511661529541016e-01 -2.363904863595962524e-01 1.023373126983642578e+00
1.494000000000000000e+03 5.388910770416259766e+00 -1.694769668579101562e+01 1.075150847434997559e+00 1.246743202209472656e+00 6.965682506561279297e-01 9.153850078582763672e-01
1.495000000000000000e+03 2.856863260269165039e+00 -1.374707317352294922e+01 8.568244576454162598e-01 -2.848439216613769531e+00 -5.974844694137573242e-01 -3.374396562576293945e-01
1.496000000000000000e+03 2.963174343109130859e+00 1.028752517700195312e+01 -3.127061761915683746e-03 -3.751803636550903320e-01 -1.134922280907630920e-01 2.126611173152923584e-01
1.497000000000000000e+03 3.095308303833007812e+00 1.301398563385009766e+01 2.062586136162281036e-02 -5.198367238044738770e-01 -1.497632712125778198e-01 2.010582387447357178e-01
1.498000000000000000e+03 4.219433784484863281e+00 1.562444877624511719e+01 5.918898433446884155e-02 -5.764617323875427246e-01 -1.551818251609802246e-01 2.001428604125976562e-01
1.499000000000000000e+03 6.614485931396484375e+01 -2.117999076843261719e+01 -1.734112352132797241e-01 6.327145576477050781e+00 1.846120238304138184e+00 1.612107753753662109e+00
1.500000000000000000e+03 5.714503479003906250e+01 -8.268662452697753906e+00 -2.538897514343261719e+00 -2.207489609718322754e-01 -8.278939723968505859e-01 -8.213471770286560059e-01
1.501000000000000000e+03 5.605478668212890625e+01 -8.981340408325195312e+00 -2.339635848999023438e+00 -2.016416043043136597e-01 -7.623832225799560547e-01 -8.115522861480712891e-01
1.502000000000000000e+03 1.719710922241210938e+01 -2.709425163269042969e+01 4.748777151107788086e-01 1.285686254501342773e+00 5.281691551208496094e-01 -7.119088172912597656e-01
1.503000000000000000e+03 3.309843444824218750e+01 -3.471483993530273438e+01 9.464997053146362305e-02 4.509615525603294373e-02 4.192383959889411926e-02 -3.997952118515968323e-02
1.504000000000000000e+03 2.197862434387207031e+01 -1.430867004394531250e+01 -3.923385381698608398e+00 -3.829920291900634766e-02 -1.188505411148071289e+00 2.979821205139160156e+00
1.505000000000000000e+03 3.269436264038085938e+01 -3.729446411132812500e+01 1.057659760117530823e-01 8.415468037128448486e-02 5.697619542479515076e-02 -4.316371679306030273e-02
1.506000000000000000e+03 1.242657756805419922e+01 1.252020454406738281e+01 2.803585529327392578e-01 -6.964249536395072937e-03 8.201829344034194946e-02 4.548684358596801758e-01
1.507000000000000000e+03 4.379745864868164062e+01 -3.522700881958007812e+01 2.439091354608535767e-02 -1.948529034852981567e-01 -5.113859847187995911e-02 -2.354533523321151733e-01
1.508000000000000000e+03 4.528896713256835938e+01 -3.325395584106445312e+01 -1.981188356876373291e-01 -1.610674262046813965e-01 -1.077558770775794983e-01 -2.731573581695556641e-01
1.509000000000000000e+03 4.674384307861328125e+01 -3.446100616455078125e+01 -1.860778778791427612e-02 -2.511543631553649902e-01 -8.092864602804183960e-02 -3.245590031147003174e-01
1.510000000000000000e+03 5.645158386230468750e+01 -3.049641418457031250e+01 -2.864504158496856689e-01 4.100483059883117676e-01 3.707936778664588928e-02 -4.044273123145103455e-02
1.511000000000000000e+03 6.162508773803710938e+01 -2.462553596496582031e+01 -2.849906384944915771e-01 1.899496197700500488e+00 4.843516647815704346e-01 5.772272348403930664e-01
1.512000000000000000e+03 3.532551956176757812e+01 -3.454176330566406250e+01 7.744120806455612183e-02 -5.449309013783931732e-03 2.159756980836391449e-02 -3.821332752704620361e-02
1.513000000000000000e+03 3.425614929199218750e+01 -3.607075500488281250e+01 1.161668077111244202e-01 6.015266757458448410e-03 3.665462508797645569e-02 -4.285805299878120422e-02
1.514000000000000000e+03 5.051481628417968750e+01 -8.068353652954101562e+00 -1.455937981605529785e+00 1.307537853717803955e-01 -3.975552618503570557e-01 -2.243141531944274902e-01
1.515000000000000000e+03 2.010260009765625000e+01 -1.350527667999267578e+01 -1.647413492202758789e+00 -2.436305761337280273e+00 -1.225115776062011719e+00 3.225786209106445312e+00
1.516000000000000000e+03 4.596422576904296875e+01 -3.604455184936523438e+01 1.805118769407272339e-01 -2.558802962303161621e-01 -2.261052280664443970e-02 -2.562170028686523438e-01
1.517000000000000000e+03 2.295156097412109375e+01 2.620323181152343750e+00 -2.795942723751068115e-01 7.189500927925109863e-01 1.318067610263824463e-01 4.889268279075622559e-01
1.518000000000000000e+03 6.957064056396484375e+01 -1.698746681213378906e+01 2.282572090625762939e-01 1.145809555053710938e+01 3.505905866622924805e+00 2.424135953187942505e-01
1.519000000000000000e+03 7.051199340820312500e+01 -1.615088081359863281e+01 7.495205402374267578e-01 1.200041294097900391e+01 3.824980020523071289e+00 5.632230266928672791e-02
1.520000000000000000e+03 2.982925415039062500e+01 -3.345563125610351562e+01 1.299358755350112915e-01 1.221618354320526123e-01 7.562931627035140991e-02 -1.164408028125762939e-01
1.521000000000000000e+03 2.984491157531738281e+01 -3.555300140380859375e+01 9.961114078760147095e-02 1.596937030553817749e-01 7.779145240783691406e-02 -1.129043772816658020e-01
1.522000000000000000e+03 5.509671020507812500e+01 -3.344717025756835938e+01 1.376714259386062622e-01 3.677927553653717041e-01 1.516392529010772705e-01 -2.131342189386487007e-03
1.523000000000000000e+03 3.896587371826171875e+01 -3.619104003906250000e+01 9.868989139795303345e-02 -9.623374789953231812e-02 7.368429796770215034e-04 -1.128617003560066223e-01
1.524000000000000000e+03 2.045164108276367188e+01 2.414036273956298828e+00 -3.212724626064300537e-01 7.966822385787963867e-02 -7.248127460479736328e-02 3.930975198745727539e-01
1.525000000000000000e+03 2.236484146118164062e+01 -1.852074384689331055e+00 -6.179228425025939941e-01 7.151516675949096680e-01 2.916864864528179169e-02 3.516448438167572021e-01
1.526000000000000000e+03 1.089956569671630859e+01 -2.135804557800292969e+01 2.832049727439880371e-01 3.331885337829589844e+00 1.084527134895324707e+00 -1.072540283203125000e+00
1.527000000000000000e+03 1.779455184936523438e+01 -1.055561065673828125e+01 1.389961481094360352e+00 -2.334728002548217773e+00 -2.834299802780151367e-01 1.318679094314575195e+00
1.528000000000000000e+03 8.746315002441406250e+00 -1.885065650939941406e+01 2.800052464008331299e-01 4.896070957183837891e+00 1.552822828292846680e+00 -4.114598929882049561e-01
1.529000000000000000e+03 6.700733184814453125e+01 -2.007508850097656250e+01 -1.275263428688049316e-01 7.931141376495361328e+00 2.341084480285644531e+00 1.626595020294189453e+00
1.530000000000000000e+03 4.698851013183593750e+01 4.093480587005615234e+00 2.192778736352920532e-01 1.154033690690994263e-01 1.004043743014335632e-01 1.803899705410003662e-01
1.531000000000000000e+03 4.477294540405273438e+01 6.583218574523925781e+00 1.070169955492019653e-01 2.908577322959899902e-01 1.193624213337898254e-01 -7.564533501863479614e-02
1.532000000000000000e+03 2.764807510375976562e+01 -3.527725982666015625e+01 9.863442927598953247e-02 2.720529139041900635e-01 1.112062036991119385e-01 -1.792268902063369751e-01
1.533000000000000000e+03 4.282707977294921875e+01 -1.426714038848876953e+01 -1.413172006607055664e+00 1.885966770350933075e-02 -4.182936847209930420e-01 -3.874339461326599121e-01
1.534000000000000000e+03 2.806775856018066406e+01 6.802162170410156250e+00 3.940759301185607910e-01 9.466642737388610840e-01 4.022220671176910400e-01 5.752782821655273438e-01
1.535000000000000000e+03 2.895234489440917969e+01 8.269966125488281250e+00 2.906288504600524902e-01 7.892527580261230469e-01 3.239644765853881836e-01 7.579832077026367188e-01
1.536000000000000000e+03 5.065753936767578125e+01 -3.330230331420898438e+01 -1.428955495357513428e-01 -2.970260381698608398e-01 -1.319764703512191772e-01 -3.003314733505249023e-01
1.537000000000000000e+03 2.344038963317871094e+01 1.652175521850585938e+01 -3.000288009643554688e-01 -3.602987527847290039e-01 -1.980982571840286255e-01 3.262262940406799316e-01
1.538000000000000000e+03 2.355538558959960938e+01 1.868951797485351562e+01 8.052574843168258667e-02 -2.126041650772094727e-01 -3.962352499365806580e-02 3.344863653182983398e-01
1.539000000000000000e+03 9.019101142883300781e+00 -1.676011085510253906e+01 1.158595800399780273e+00 7.883821964263916016e+00 2.712725162506103516e+00 -1.188937425613403320e+00
1.540000000000000000e+03 9.759574890136718750e+00 -2.021647644042968750e+01 2.522977590560913086e-01 3.766218662261962891e+00 1.205554962158203125e+00 -8.279182314872741699e-01
1.541000000000000000e+03 2.512895965576171875e+01 3.330066919326782227e+00 -1.845186203718185425e-01 1.130620479583740234e+00 2.838305532932281494e-01 4.443991780281066895e-01
1.542000000000000000e+03 4.204546737670898438e+01 1.761704063415527344e+01 5.506024360656738281e-01 1.714634180068969727e+00 6.795709729194641113e-01 4.572869837284088135e-01
1.543000000000000000e+03 5.561576080322265625e+01 4.080603599548339844e+00 2.556849420070648193e-01 1.117756128311157227e+00 4.120323061943054199e-01 2.963230758905410767e-02
1.544000000000000000e+03 5.311956787109375000e+01 5.935346603393554688e+00 5.467512011528015137e-01 6.379500627517700195e-01 3.554103672504425049e-01 3.767566382884979248e-01
1.545000000000000000e+03 2.464418411254882812e+01 1.681147575378417969e+01 -1.631381362676620483e-01 -2.059784978628158569e-01 -1.107349917292594910e-01 2.139466106891632080e-01
1.546000000000000000e+03 2.492358589172363281e+01 1.813798904418945312e+01 1.499114278703927994e-02 -9.717433154582977295e-02 -2.465495653450489044e-02 2.516301572322845459e-01
1.547000000000000000e+03 3.806445693969726562e+01 1.530511283874511719e+01 4.772796630859375000e-01 1.229680299758911133e+00 5.120880007743835449e-01 5.038765072822570801e-01
1.548000000000000000e+03 4.169063568115234375e+01 1.050126838684082031e+01 1.059488132596015930e-01 1.548619985580444336e+00 4.963706135749816895e-01 3.948265314102172852e-01
1.549000000000000000e+03 1.503067207336425781e+01 -2.962515449523925781e+01 -1.048040241003036499e-01 1.316567301750183105e+00 3.635289967060089111e-01 -3.423505723476409912e-01
1.550000000000000000e+03 5.611850738525390625e+01 1.716522979736328125e+01 4.504002630710601807e-01 3.229339361190795898e+00 1.103921890258789062e+00 -5.395964980125427246e-01
1.551000000000000000e+03 5.251505279541015625e+01 1.977519416809082031e+01 4.501779377460479736e-01 1.282049775123596191e+00 5.196683406829833984e-01 -7.090662717819213867e-01
1.552000000000000000e+03 5.150282287597656250e+01 2.199915695190429688e+01 7.019758224487304688e-01 1.227618098258972168e+00 5.788781642913818359e-01 -4.066988527774810791e-01
1.553000000000000000e+03 1.194659233093261719e+01 -2.244251060485839844e+01 3.873870968818664551e-01 2.571593761444091797e+00 8.876942992210388184e-01 -1.114004135131835938e+00
1.554000000000000000e+03 1.663616752624511719e+01 1.753797721862792969e+01 1.862526834011077881e-01 4.762025177478790283e-01 1.987365633249282837e-01 3.858189582824707031e-01
1.555000000000000000e+03 5.145027542114257812e+01 2.360859680175781250e+01 7.557709813117980957e-01 1.395562171936035156e+00 6.453999280929565430e-01 -2.854315936565399170e-01
1.556000000000000000e+03 5.006863403320312500e+01 2.218246078491210938e+01 7.841023802757263184e-01 9.348685741424560547e-01 5.156912803649902344e-01 -1.347212344408035278e-01
1.557000000000000000e+03 3.981641387939453125e+01 1.424794578552246094e+01 5.543273687362670898e-01 1.501090764999389648e+00 6.166254281997680664e-01 5.414475202560424805e-01
1.558000000000000000e+03 1.277334499359130859e+01 1.629485130310058594e+01 3.784664869308471680e-01 5.747995898127555847e-02 1.307839304208755493e-01 2.637272477149963379e-01
1.559000000000000000e+03 1.182928943634033203e+01 -9.863254547119140625e+00 1.065952062606811523e+00 1.952465653419494629e+00 9.055252671241760254e-01 2.039205312728881836e+00
1.560000000000000000e+03 5.664764404296875000e+01 1.605446434020996094e+01 8.236082196235656738e-01 3.201007366180419922e+00 1.207384705543518066e+00 -4.868469834327697754e-01
1.561000000000000000e+03 1.936606216430664062e+01 1.998737335205078125e+01 1.492736041545867920e-01 7.863730192184448242e-02 6.837327033281326294e-02 5.546324253082275391e-01
1.562000000000000000e+03 5.654557800292968750e+01 9.781748771667480469e+00 3.840926885604858398e-01 2.659459114074707031e+00 9.130655527114868164e-01 -5.626693367958068848e-02
1.563000000000000000e+03 5.821348190307617188e+01 1.054675483703613281e+01 5.185606479644775391e-01 2.984285593032836914e+00 1.050853848457336426e+00 -5.582212209701538086e-01
1.564000000000000000e+03 4.970999908447265625e+01 2.059438896179199219e+01 7.153027653694152832e-01 4.668117463588714600e-01 3.546343445777893066e-01 -2.994826063513755798e-02
1.565000000000000000e+03 1.791630363464355469e+01 3.323443889617919922e+00 -4.637072384357452393e-01 -4.168516099452972412e-01 -2.641676664352416992e-01 3.451483547687530518e-01
1.566000000000000000e+03 4.168833160400390625e+01 9.316413879394531250e+00 -3.622138127684593201e-02 1.358695864677429199e+00 3.967423439025878906e-01 2.835427820682525635e-01
1.567000000000000000e+03 4.057085418701171875e+01 1.745803070068359375e+01 5.649494528770446777e-01 1.638823151588439941e+00 6.611317992210388184e-01 4.092380106449127197e-01
1.568000000000000000e+03 4.320954513549804688e+01 1.886958122253417969e+01 4.198059141635894775e-01 1.584955215454101562e+00 6.014283299446105957e-01 5.749810934066772461e-01
1.569000000000000000e+03 4.187826156616210938e+01 1.923427963256835938e+01 3.643312454223632812e-01 1.637530326843261719e+00 6.005584597587585449e-01 4.787423908710479736e-01
1.570000000000000000e+03 1.889027595520019531e+01 2.612808227539062500e+00 -4.347066581249237061e-01 -2.746632695198059082e-01 -2.128109782934188843e-01 3.874664306640625000e-01
1.571000000000000000e+03 7.153746795654296875e+01 -1.339241790771484375e+01 2.423831462860107422e+00 1.313450813293457031e+01 4.667501926422119141e+00 -5.723142027854919434e-01
1.572000000000000000e+03 7.069918823242187500e+01 -1.214452362060546875e+01 2.708305120468139648e+00 1.454096508026123047e+01 5.174780845642089844e+00 -2.804536521434783936e-01
1.573000000000000000e+03 4.007188034057617188e+01 1.294074821472167969e+01 5.049497485160827637e-01 1.434455513954162598e+00 5.818216204643249512e-01 6.169811487197875977e-01
1.574000000000000000e+03 4.039801406860351562e+01 1.043265724182128906e+01 1.422333270311355591e-01 1.393214941024780273e+00 4.606344699859619141e-01 5.279713273048400879e-01
1.575000000000000000e+03 5.641893768310546875e+01 5.573871612548828125e+00 3.258111774921417236e-01 1.536341667175292969e+00 5.586458444595336914e-01 -6.243274733424186707e-02
1.576000000000000000e+03 4.859242248535156250e+01 -1.443728351593017578e+01 -1.544705510139465332e+00 -1.448509544134140015e-01 -5.068669319152832031e-01 -6.135886311531066895e-01
1.577000000000000000e+03 6.951741790771484375e+01 -7.113657951354980469e+00 3.942821323871612549e-01 1.497594451904296875e+01 4.611067771911621094e+00 3.622100874781608582e-02
1.578000000000000000e+03 1.257544136047363281e+01 1.379502868652343750e+01 3.862767219543457031e-01 -2.191090025007724762e-03 1.152256950736045837e-01 3.865841627120971680e-01
1.579000000000000000e+03 6.595169067382812500e+01 -5.242751121520996094e+00 -7.510812878608703613e-01 3.818111896514892578e+00 9.201092123985290527e-01 -5.110318183898925781e+00
1.580000000000000000e+03 6.335822296142578125e+01 -4.007098674774169922e+00 -1.139194130897521973e+00 3.039966821670532227e-01 -2.505592405796051025e-01 -1.889528036117553711e+00
1.581000000000000000e+03 5.860375213623046875e+01 1.624655342102050781e+01 6.506598591804504395e-01 3.420787096023559570e+00 1.221434116363525391e+00 -4.879963994026184082e-01
1.582000000000000000e+03 7.261952209472656250e+01 -3.813982248306274414e+00 -1.069445967674255371e+00 9.938199043273925781e+00 2.660625934600830078e+00 7.525405287742614746e-01
1.583000000000000000e+03 6.945854949951171875e+01 -4.630294799804687500e+00 -2.359242200851440430e+00 1.105104923248291016e+01 2.607542037963867188e+00 -1.251720070838928223e+00
1.584000000000000000e+03 1.093281269073486328e+01 -4.401195526123046875e+00 -1.307853102684020996e+00 9.282195568084716797e-01 -1.138900592923164368e-01 4.678615331649780273e-01
1.585000000000000000e+03 1.146652603149414062e+01 -5.716611862182617188e+00 -8.729706406593322754e-01 1.076860427856445312e+00 6.116692721843719482e-02 8.638277053833007812e-01
1.586000000000000000e+03 6.624592590332031250e+01 -3.928622245788574219e+00 -1.673109769821166992e+00 5.311402797698974609e+00 1.091487765312194824e+00 -3.535700559616088867e+00
1.587000000000000000e+03 2.463074111938476562e+01 -8.899184226989746094e+00 6.462600231170654297e-01 4.187103748321533203e+00 1.450009107589721680e+00 1.875232696533203125e+00
1.588000000000000000e+03 2.425809097290039062e+01 -7.299914836883544922e+00 -3.863218426704406738e-01 2.692725658416748047e+00 6.919211149215698242e-01 6.811686158180236816e-01
1.589000000000000000e+03 2.415069007873535156e+01 -8.525381088256835938e+00 -1.059582978487014771e-01 3.930171012878417969e+00 1.147263765335083008e+00 8.972515463829040527e-01
1.590000000000000000e+03 2.405576324462890625e+01 -8.173313140869140625e+00 -2.471819818019866943e-01 3.455958127975463867e+00 9.626328349113464355e-01 6.787060499191284180e-01
1.591000000000000000e+03 1.973960304260253906e+01 -1.040629196166992188e+01 2.444036006927490234e+00 -2.233502626419067383e+00 6.316000968217849731e-02 4.960958361625671387e-01
1.592000000000000000e+03 2.358530426025390625e+01 -6.407291889190673828e+00 -5.114343166351318359e-01 1.895436525344848633e+00 4.152006506919860840e-01 3.254185318946838379e-01
1.593000000000000000e+03 2.528446960449218750e+01 -9.363108634948730469e+00 1.970001816749572754e+00 3.375600099563598633e+00 1.603680610656738281e+00 2.461380004882812500e+00
1.594000000000000000e+03 2.024192047119140625e+01 -1.102253818511962891e+01 3.101740598678588867e+00 -2.430308103561401367e+00 2.014297097921371460e-01 7.587871551513671875e-01
1.595000000000000000e+03 1.999409484863281250e+01 -1.142786598205566406e+01 2.754155158996582031e+00 -2.622746467590332031e+00 3.942259028553962708e-02 1.302574753761291504e+00
1.596000000000000000e+03 1.906888008117675781e+01 -1.228705406188964844e+01 6.785024404525756836e-01 -2.843682765960693359e+00 -6.495540738105773926e-01 2.290467500686645508e+00
1.597000000000000000e+03 2.036551284790039062e+01 -1.005704021453857422e+01 2.642828226089477539e+00 -1.700595617294311523e+00 2.826698124408721924e-01 -2.483415305614471436e-01
1.598000000000000000e+03 1.973557090759277344e+01 -9.952219009399414062e+00 2.213688611984252930e+00 -2.032324552536010742e+00 5.440920963883399963e-02 1.410185694694519043e-01
1.599000000000000000e+03 2.585493469238281250e+01 -9.730533599853515625e+00 3.349931001663208008e+00 2.364584445953369141e+00 1.714354634284973145e+00 2.533535480499267578e+00
1.600000000000000000e+03 1.760597229003906250e+01 -8.153819084167480469e+00 9.586396813392639160e-01 -1.533298134803771973e+00 -1.723975092172622681e-01 8.473803400993347168e-01
1.601000000000000000e+03 2.145104598999023438e+01 -1.136300086975097656e+01 5.244164466857910156e+00 -1.615188360214233398e+00 1.088692784309387207e+00 1.051021218299865723e+00
1.602000000000000000e+03 2.117677116394042969e+01 -1.139365386962890625e+01 4.574889659881591797e+00 -1.999311804771423340e+00 7.726734280586242676e-01 1.036261558532714844e+00
1.603000000000000000e+03 2.409014701843261719e+01 -5.073736667633056641e+00 -6.397713422775268555e-01 1.698253154754638672e+00 3.175445497035980225e-01 5.169676542282104492e-01
1.604000000000000000e+03 1.817880821228027344e+01 -1.185867881774902344e+01 6.175487637519836426e-01 -2.566463947296142578e+00 -5.846745371818542480e-01 1.958868622779846191e+00
1.605000000000000000e+03 1.877662467956542969e+01 -9.168213844299316406e+00 1.539542078971862793e+00 -1.837271571159362793e+00 -8.931887894868850708e-02 4.595179259777069092e-01
1.606000000000000000e+03 1.559526538848876953e+01 -5.960130691528320312e+00 -9.703511744737625122e-02 -6.173260807991027832e-01 -2.143083512783050537e-01 1.198728084564208984e+00
1.607000000000000000e+03 1.442091751098632812e+01 -8.314182281494140625e+00 6.119775772094726562e-01 -3.218184709548950195e-01 8.704772591590881348e-02 1.637487649917602539e+00
1.608000000000000000e+03 1.340095520019531250e+01 -4.994165420532226562e+00 -7.411475777626037598e-01 1.608429104089736938e-01 -1.740913838148117065e-01 1.067692279815673828e+00
1.609000000000000000e+03 6.748178005218505859e+00 4.020544528961181641e+00 -1.957650482654571533e-01 -6.871762871742248535e-02 -7.934480905532836914e-02 2.099008858203887939e-01
1.610000000000000000e+03 9.878935813903808594e+00 3.346700191497802734e+00 -3.490545749664306641e-01 -8.982493728399276733e-02 -1.316638588905334473e-01 2.340653389692306519e-01
1.611000000000000000e+03 2.395822334289550781e+01 -5.936949253082275391e+00 -5.885933041572570801e-01 1.921927452087402344e+00 4.000002443790435791e-01 4.774620532989501953e-01
1.612000000000000000e+03 9.063457489013671875e+00 4.122022628784179688e+00 -3.074671030044555664e-01 -7.975997775793075562e-02 -1.161681264638900757e-01 2.578992843627929688e-01
1.613000000000000000e+03 7.492065906524658203e+00 4.066740989685058594e+00 -2.334592640399932861e-01 -6.555245071649551392e-02 -8.970351517200469971e-02 2.267991006374359131e-01
1.614000000000000000e+03 3.817773103713989258e+00 6.721611976623535156e+00 -6.094978004693984985e-02 -1.791543215513229370e-01 -7.203122973442077637e-02 2.072100490331649780e-01
1.615000000000000000e+03 3.873371124267578125e+00 4.629677295684814453e+00 -8.350431919097900391e-02 -9.437520802021026611e-02 -5.336385965347290039e-02 1.409781575202941895e-01
1.616000000000000000e+03 6.019244670867919922e+00 4.667107582092285156e+00 -1.588264107704162598e-01 -8.729046583175659180e-02 -7.383506000041961670e-02 2.172068506479263306e-01
1.617000000000000000e+03 1.035322380065917969e+01 -4.063597679138183594e+00 -1.417009472846984863e+00 8.870547413825988770e-01 -1.589864343404769897e-01 2.699449360370635986e-01
1.618000000000000000e+03 1.067168998718261719e+01 -3.513756752014160156e+00 -1.534520745277404785e+00 6.639275550842285156e-01 -2.611779570579528809e-01 3.474937379360198975e-01
1.619000000000000000e+03 1.622137904167175293e+00 4.769596576690673828e+00 -1.927858404815196991e-02 -9.139649569988250732e-02 -3.320252522826194763e-02 6.469092518091201782e-02
1.620000000000000000e+03 2.585242509841918945e+00 3.446537256240844727e+00 -3.480020537972450256e-02 -6.186517700552940369e-02 -2.899961546063423157e-02 6.132268533110618591e-02
1.621000000000000000e+03 1.975897598266601562e+01 -9.575421333312988281e+00 1.987247467041015625e+00 -1.718466401100158691e+00 8.063430339097976685e-02 2.408868074417114258e-02
1.622000000000000000e+03 2.176503181457519531e+01 -2.369125366210937500e+00 -6.162186264991760254e-01 5.400522947311401367e-01 -2.284990251064300537e-02 3.193799257278442383e-01
1.623000000000000000e+03 1.924205017089843750e+01 -1.048283195495605469e+01 2.114678382873535156e+00 -2.437677145004272461e+00 -9.689961373805999756e-02 7.087339758872985840e-01
1.624000000000000000e+03 1.153272056579589844e+01 -4.678127765655517578e+00 -1.146987438201904297e+00 7.565495371818542480e-01 -1.171313822269439697e-01 7.271913290023803711e-01
1.625000000000000000e+03 1.277996730804443359e+01 -5.720302581787109375e+00 -6.460161805152893066e-01 4.821166992187500000e-01 -4.916983470320701599e-02 1.160868167877197266e+00
1.626000000000000000e+03 1.526843070983886719e+01 3.099207639694213867e+00 -4.457257986068725586e-01 -4.187508225440979004e-01 -2.593429982662200928e-01 3.047449290752410889e-01
1.627000000000000000e+03 1.665457153320312500e+01 -6.852501869201660156e+00 3.866795301437377930e-01 -1.090653777122497559e+00 -2.111922800540924072e-01 1.075919032096862793e+00
1.628000000000000000e+03 1.492823219299316406e+01 4.019479274749755859e+00 -4.923141002655029297e-01 -3.797815740108489990e-01 -2.616287171840667725e-01 3.079281151294708252e-01
1.629000000000000000e+03 4.544919013977050781e+00 -3.894610643386840820e+00 -7.101526260375976562e-01 -3.061870485544204712e-02 -2.222313880920410156e-01 -1.182641386985778809e+00
1.630000000000000000e+03 8.037616729736328125e+00 -5.871442794799804688e+00 -1.080966114997863770e+00 1.667168140411376953e+00 1.758605986833572388e-01 -7.187042236328125000e-01
1.631000000000000000e+03 7.982235431671142578e+00 -3.623812913894653320e+00 -1.388368010520935059e+00 7.343088984489440918e-01 -1.962177306413650513e-01 -5.590614080429077148e-01
1.632000000000000000e+03 5.826605319976806641e+00 -4.693317890167236328e+00 -8.778729438781738281e-01 4.088598191738128662e-01 -1.407039463520050049e-01 -1.216751456260681152e+00
1.633000000000000000e+03 6.522562026977539062e+00 -4.487533092498779297e+00 -1.053997278213500977e+00 5.985294580459594727e-01 -1.366403400897979736e-01 -1.018103837966918945e+00
1.634000000000000000e+03 3.604596138000488281e+00 -3.629305124282836914e+00 -5.075747966766357422e-01 -2.962428629398345947e-01 -2.411452978849411011e-01 -1.036327958106994629e+00
1.635000000000000000e+03 4.125037193298339844e+00 -6.086298465728759766e+00 -4.270688295364379883e-01 -2.333686798810958862e-01 -1.981312483549118042e-01 -1.599738955497741699e+00
1.636000000000000000e+03 3.016429901123046875e+00 -5.730344772338867188e+00 -2.841212153434753418e-01 -8.349663615226745605e-01 -3.357262611389160156e-01 -1.375786304473876953e+00
1.637000000000000000e+03 2.405022621154785156e+01 3.134875774383544922e+00 -2.336758375167846680e-01 9.947451949119567871e-01 2.283208072185516357e-01 4.957312941551208496e-01
1.638000000000000000e+03 2.879971122741699219e+01 -1.446522617340087891e+01 -1.557275414466857910e+00 3.017216026782989502e-01 -3.766661286354064941e-01 -1.071420073509216309e+00
1.639000000000000000e+03 2.891562080383300781e+01 -1.277574634552001953e+01 3.436051905155181885e-01 3.271172754466533661e-03 1.040629073977470398e-01 -7.821750044822692871e-01
1.640000000000000000e+03 1.312030220031738281e+01 4.379661083221435547e+00 -4.509925246238708496e-01 -2.605943679809570312e-01 -2.134760618209838867e-01 3.068669736385345459e-01
1.641000000000000000e+03 1.853678703308105469e+01 5.150550603866577148e-01 -4.108204841613769531e-01 -2.977415323257446289e-01 -2.125686109066009521e-01 3.799796402454376221e-01
1.642000000000000000e+03 2.274378013610839844e+01 -2.667663335800170898e+00 -6.553826928138732910e-01 8.903545737266540527e-01 7.049157470464706421e-02 3.513088226318359375e-01
1.643000000000000000e+03 2.345651245117187500e+01 -3.984683275222778320e+00 -6.741045713424682617e-01 1.264585971832275391e+00 1.771444231271743774e-01 3.919210433959960938e-01
1.644000000000000000e+03 2.311336517333984375e+01 -3.362164258956909180e+00 -6.706554889678955078e-01 1.062400221824645996e+00 1.175234317779541016e-01 3.574585318565368652e-01
1.645000000000000000e+03 8.244887351989746094e+00 5.552865505218505859e+00 -2.388249933719635010e-01 -1.036516502499580383e-01 -1.027429923415184021e-01 3.197206258773803711e-01
1.646000000000000000e+03 1.430999374389648438e+01 4.723719596862792969e+00 -4.940922856330871582e-01 -3.662053644657135010e-01 -2.580893039703369141e-01 3.398081362247467041e-01
1.647000000000000000e+03 2.586410140991210938e+01 -1.385668373107910156e+01 -1.248012542724609375e+00 1.431398987770080566e+00 5.501595884561538696e-02 -1.192338824272155762e+00
1.648000000000000000e+03 1.531985092163085938e+01 -8.083376884460449219e+00 8.283045291900634766e-01 -7.727633118629455566e-01 1.666236296296119690e-02 1.481372237205505371e+00
1.649000000000000000e+03 9.894618988037109375e+00 4.111369609832763672e+00 -3.393561244010925293e-01 -1.094114705920219421e-01 -1.346302777528762817e-01 2.678651511669158936e-01
1.650000000000000000e+03 2.114165496826171875e+01 -1.252011209726333618e-01 -4.847435653209686279e-01 2.983486950397491455e-01 -5.591845884919166565e-02 3.838312923908233643e-01
1.651000000000000000e+03 2.185094642639160156e+01 -9.838330745697021484e-01 -5.623175501823425293e-01 5.460170507431030273e-01 -4.890149459242820740e-03 3.675279617309570312e-01
1.652000000000000000e+03 1.830415725708007812e+01 1.845310807228088379e+00 -3.828457891941070557e-01 -3.405547738075256348e-01 -2.170201539993286133e-01 3.608593642711639404e-01
1.653000000000000000e+03 3.954586410522460938e+01 -1.495195865631103516e+01 -1.443240284919738770e+00 6.058796122670173645e-02 -4.147956967353820801e-01 -3.936420977115631104e-01
1.654000000000000000e+03 3.948118591308593750e+01 1.564306068420410156e+01 5.817483067512512207e-01 1.428398847579956055e+00 6.030441522598266602e-01 5.038440227508544922e-01
1.655000000000000000e+03 1.108049106597900391e+01 1.141923141479492188e+01 1.103778406977653503e-01 -1.309829801321029663e-01 -6.181540433317422867e-03 4.986864924430847168e-01
1.656000000000000000e+03 9.453392982482910156e+00 -1.080920028686523438e+01 7.438954710960388184e-01 6.727515697479248047e+00 2.241423368453979492e+00 7.758286595344543457e-01
1.657000000000000000e+03 3.982755899429321289e+00 -1.090531158447265625e+01 6.972978115081787109e-01 -8.933572769165039062e-01 -5.881782993674278259e-02 -1.621095418930053711e+00
1.658000000000000000e+03 5.800799942016601562e+01 9.351185798645019531e+00 4.023841917514801025e-01 2.821782827377319336e+00 9.672501087188720703e-01 -4.515877962112426758e-01
1.659000000000000000e+03 4.439590072631835938e+01 -1.487034034729003906e+01 -1.480694055557250977e+00 -4.328472167253494263e-02 -4.571936428546905518e-01 -4.454952776432037354e-01
1.660000000000000000e+03 4.069441604614257812e+01 -1.458035945892333984e+01 -1.389833331108093262e+00 5.055395886301994324e-02 -4.017838239669799805e-01 -3.801358342170715332e-01
1.661000000000000000e+03 3.122595405578613281e+01 -1.491040802001953125e+01 -1.697700023651123047e+00 9.152643382549285889e-02 -4.818520843982696533e-01 -7.363600730895996094e-01
1.662000000000000000e+03 6.010080337524414062e+01 -5.971938133239746094e+00 -2.321449041366577148e+00 -2.046259045600891113e-01 -7.578225135803222656e-01 -6.251115202903747559e-01
1.663000000000000000e+03 5.849005889892578125e+01 -3.649607419967651367e+00 -1.139325618743896484e+00 2.108748853206634521e-01 -2.785352468490600586e-01 -3.488371670246124268e-01
1.664000000000000000e+03 2.828887939453125000e+01 -1.211961746215820312e+01 1.212437629699707031e+00 -1.657654298469424248e-03 3.632339835166931152e-01 -5.477730035781860352e-01
1.665000000000000000e+03 2.757245063781738281e+01 -1.291377162933349609e+01 7.847844958305358887e-01 3.244673013687133789e-01 3.327755331993103027e-01 -1.053029179573059082e+00
1.666000000000000000e+03 5.147533416748046875e+01 -1.160271644592285156e+01 -1.752898693084716797e+00 -1.245567202568054199e-01 -5.632365942001342773e-01 -6.505175232887268066e-01
1.667000000000000000e+03 4.843202972412109375e+01 -1.174615383148193359e+01 -1.522063970565795898e+00 2.638022415339946747e-03 -4.558278024196624756e-01 -4.713340401649475098e-01
1.668000000000000000e+03 3.512610244750976562e+01 -1.496911811828613281e+01 -1.477727532386779785e+00 5.167227983474731445e-02 -4.278165996074676514e-01 -4.565699994564056396e-01
1.669000000000000000e+03 3.622675323486328125e+01 -1.626461219787597656e+01 -1.746819615364074707e+00 6.527681648731231689e-02 -5.044628381729125977e-01 -3.550436198711395264e-01
1.670000000000000000e+03 4.726290130615234375e+01 -1.227727317810058594e+01 -1.458614587783813477e+00 -1.983046997338533401e-03 -4.381793141365051270e-01 -4.599794149398803711e-01
1.671000000000000000e+03 4.789762496948242188e+01 -1.334893131256103516e+01 -1.542663455009460449e+00 -4.889678582549095154e-02 -4.774680733680725098e-01 -5.445823669433593750e-01
1.672000000000000000e+03 1.140358257293701172e+01 1.507554721832275391e+01 3.460797071456909180e-01 -1.284879893064498901e-01 6.527751684188842773e-02 3.281597793102264404e-01
1.673000000000000000e+03 1.244288730621337891e+01 4.714139461517333984e+00 -4.255091249942779541e-01 -2.354884743690490723e-01 -1.982992887496948242e-01 3.020271062850952148e-01
1.674000000000000000e+03 6.723174095153808594e+00 -1.483846473693847656e+01 2.539003133773803711e+00 3.719878911972045898e+00 1.877664685249328613e+00 3.611710667610168457e-01
1.675000000000000000e+03 1.991356849670410156e+01 -1.248982906341552734e+01 1.239737272262573242e+00 -2.485211372375488281e+00 -3.736422359943389893e-01 2.634038925170898438e+00
1.676000000000000000e+03 4.554309082031250000e+01 -1.438824367523193359e+01 -1.467743039131164551e+00 -5.378846824169158936e-02 -4.564594626426696777e-01 -4.785411059856414795e-01
1.677000000000000000e+03 4.182891845703125000e+01 -1.443523883819580078e+01 -1.395339012145996094e+00 4.315899312496185303e-02 -4.056540131568908691e-01 -3.868051171302795410e-01
1.678000000000000000e+03 1.078504276275634766e+01 4.876160621643066406e+00 -3.692778646945953369e-01 -1.442635059356689453e-01 -1.540624052286148071e-01 3.033547997474670410e-01
1.679000000000000000e+03 5.012581634521484375e+01 -9.628112792968750000e+00 -1.552831292152404785e+00 6.400275975465774536e-02 -4.466485381126403809e-01 -3.724128901958465576e-01
1.680000000000000000e+03 4.432241058349609375e+01 -1.219407939910888672e+01 -1.287530422210693359e+00 4.050589352846145630e-02 -3.741073310375213623e-01 -3.533563017845153809e-01
1.681000000000000000e+03 3.751885986328125000e+01 -1.519577884674072266e+01 -1.473421454429626465e+00 5.426944047212600708e-02 -4.257456064224243164e-01 -3.975088894367218018e-01
1.682000000000000000e+03 2.560480117797851562e+01 -1.511928462982177734e+01 -3.900591373443603516e+00 1.150875687599182129e+00 -8.249146938323974609e-01 -4.002121090888977051e-01
1.683000000000000000e+03 2.436760139465332031e+01 -1.323982238769531250e+01 -2.041395604610443115e-01 3.467518568038940430e+00 9.790136814117431641e-01 -7.902140617370605469e-01
1.684000000000000000e+03 5.412526321411132812e+01 -8.755439758300781250e+00 -1.982772946357727051e+00 -2.635404840111732483e-02 -6.027380824089050293e-01 -5.484389066696166992e-01
1.685000000000000000e+03 3.237948608398437500e+01 -1.604653167724609375e+01 -2.153649806976318359e+00 1.241014376282691956e-01 -6.088644862174987793e-01 -4.771544635295867920e-01
1.686000000000000000e+03 3.251139450073242188e+01 -1.486833667755126953e+01 -1.557247877120971680e+00 5.808945372700691223e-02 -4.497475326061248779e-01 -6.240774989128112793e-01
1.687000000000000000e+03 2.836887741088867188e+01 -1.544355487823486328e+01 -2.750802993774414062e+00 4.475593566894531250e-01 -6.909731030464172363e-01 -8.146956562995910645e-01
1.688000000000000000e+03 3.743101119995117188e+01 -1.631978416442871094e+01 -1.670857667922973633e+00 4.959733039140701294e-02 -4.863781034946441650e-01 -3.658320605754852295e-01
1.689000000000000000e+03 3.042602157592773438e+01 -1.304512500762939453e+01 -2.516818046569824219e-01 -6.876091659069061279e-02 -9.613281488418579102e-02 -6.768864393234252930e-01
1.690000000000000000e+03 6.610160827636718750e+01 -2.329061889648437500e+01 -5.835846662521362305e-01 5.869561672210693359e+00 1.585793137550354004e+00 1.117491126060485840e+00
1.691000000000000000e+03 6.058968353271484375e+01 -2.572082901000976562e+01 -4.389227926731109619e-01 1.258059620857238770e+00 2.457410395145416260e-01 3.861585855484008789e-01
1.692000000000000000e+03 6.289305114746093750e+01 -2.793519973754882812e+01 -4.041528403759002686e-01 3.252088069915771484e+00 8.543805480003356934e-01 7.183880209922790527e-01
1.693000000000000000e+03 3.383489227294921875e+01 -1.486812305450439453e+01 -1.498271226882934570e+00 4.075770452618598938e-02 -4.372540414333343506e-01 -5.349212288856506348e-01
1.694000000000000000e+03 2.284428787231445312e+01 -3.411846542358398438e+01 2.010862715542316437e-02 5.982599258422851562e-01 1.855105608701705933e-01 -3.176349401473999023e-01
1.695000000000000000e+03 2.566289901733398438e+01 -3.434265899658203125e+01 1.110417023301124573e-01 3.196868896484375000e-01 1.292185783386230469e-01 -2.273592352867126465e-01
1.696000000000000000e+03 5.272603225708007812e+01 4.164667129516601562e+00 3.490523695945739746e-01 5.421833992004394531e-01 2.673707306385040283e-01 3.153924643993377686e-01
1.697000000000000000e+03 7.544779968261718750e+01 1.330580997467041016e+01 2.073588408529758453e-02 7.141694068908691406e+00 2.148728847503662109e+00 -4.810473322868347168e-01
1.698000000000000000e+03 7.576933288574218750e+01 -6.129147410392761230e-01 -5.155224800109863281e-01 8.478220939636230469e+00 2.388809442520141602e+00 5.821601152420043945e-01
1.699000000000000000e+03 7.384584045410156250e+01 -1.081380844116210938e+01 1.739193797111511230e+00 9.866341590881347656e+00 3.481660604476928711e+00 2.677995860576629639e-01
1.700000000000000000e+03 7.547586822509765625e+01 -1.521918678283691406e+01 6.149577498435974121e-01 8.587467193603515625e+00 2.760727643966674805e+00 -1.199311733245849609e+00
1.701000000000000000e+03 7.680699157714843750e+01 -6.494393825531005859e+00 8.649958670139312744e-02 7.615219593048095703e+00 2.310515880584716797e+00 1.254126787185668945e+00
1.702000000000000000e+03 7.556831359863281250e+01 -6.386380672454833984e+00 2.452197670936584473e-01 8.412974357604980469e+00 2.597458362579345703e+00 1.451616764068603516e+00
1.703000000000000000e+03 7.562271881103515625e+01 -3.409282445907592773e+00 -4.351665973663330078e-01 8.660337448120117188e+00 2.467551231384277344e+00 1.160513281822204590e+00
1.704000000000000000e+03 7.334140014648437500e+01 -1.208117389678955078e+01 2.122270584106445312e+00 1.068277549743652344e+01 3.841513872146606445e+00 -4.129555523395538330e-01
1.705000000000000000e+03 7.666660308837890625e+01 -1.206492805480957031e+01 7.424792051315307617e-01 7.162706851959228516e+00 2.371555805206298828e+00 -2.446042746305465698e-01
1.706000000000000000e+03 7.446083068847656250e+01 -7.715719223022460938e+00 8.637741208076477051e-01 9.071423530578613281e+00 2.980559349060058594e+00 1.428461313247680664e+00
1.707000000000000000e+03 7.562923431396484375e+01 -7.762840270996093750e+00 5.173054933547973633e-01 8.335331916809082031e+00 2.655791282653808594e+00 1.238593578338623047e+00
1.708000000000000000e+03 7.548965454101562500e+01 -4.898910045623779297e+00 -2.466045171022415161e-01 8.696915626525878906e+00 2.535093307495117188e+00 1.450166821479797363e+00
1.709000000000000000e+03 7.683351135253906250e+01 2.037854194641113281e+00 -2.825660705566406250e-01 8.394377708435058594e+00 2.433543443679809570e+00 2.097967565059661865e-01
1.710000000000000000e+03 7.562442016601562500e+01 2.218518972396850586e+00 -4.478860199451446533e-01 8.274713516235351562e+00 2.348048210144042969e+00 4.312852025032043457e-02
1.711000000000000000e+03 7.543082427978515625e+01 6.413508892059326172e+00 -1.753402799367904663e-01 7.769106388092041016e+00 2.278129816055297852e+00 -3.610564768314361572e-01
1.712000000000000000e+03 7.554067993164062500e+01 -1.729706382751464844e+01 1.339484304189682007e-01 8.516929626464843750e+00 2.595263481140136719e+00 -1.383515715599060059e+00
1.713000000000000000e+03 7.251358032226562500e+01 3.210062026977539062e+01 8.098585158586502075e-02 5.666873455047607422e+00 1.724357843399047852e+00 -2.054675817489624023e-01
1.714000000000000000e+03 7.672193145751953125e+01 3.164640045166015625e+01 1.807811297476291656e-02 6.308049201965332031e+00 1.897838115692138672e+00 -1.111199259757995605e-01
1.715000000000000000e+03 7.446625518798828125e+01 2.355089426040649414e+00 -6.055190563201904297e-01 8.101015090942382812e+00 2.248648881912231445e+00 -8.653993904590606689e-02
1.716000000000000000e+03 7.568563842773437500e+01 8.007937669754028320e-01 -5.239448547363281250e-01 8.404740333557128906e+00 2.364238739013671875e+00 3.724430501461029053e-01
1.717000000000000000e+03 7.555531311035156250e+01 3.627748250961303711e+00 -3.547888398170471191e-01 8.088823318481445312e+00 2.320210456848144531e+00 -1.075335964560508728e-01
1.718000000000000000e+03 7.573064422607421875e+01 -1.624782752990722656e+01 1.372361779212951660e-01 8.289829254150390625e+00 2.528119564056396484e+00 -1.451214551925659180e+00
1.719000000000000000e+03 7.401083374023437500e+01 -1.923111152648925781e+01 -2.629623115062713623e-01 9.444622993469238281e+00 2.754498243331909180e+00 -1.308843612670898438e+00
1.720000000000000000e+03 7.663820648193359375e+01 -1.770791816711425781e+01 -1.568148960359394550e-03 7.973927974700927734e+00 2.391707897186279297e+00 -1.348146796226501465e+00
1.721000000000000000e+03 7.673329925537109375e+01 8.953044891357421875e+00 -4.767572507262229919e-02 7.863185405731201172e+00 2.344652891159057617e+00 -3.558322489261627197e-01
1.722000000000000000e+03 7.543428802490234375e+01 7.785341739654541016e+00 -1.204656362533569336e-01 7.643873691558837891e+00 2.257022380828857422e+00 -4.597503244876861572e-01
1.723000000000000000e+03 7.553191375732421875e+01 1.600616645812988281e+01 4.372430592775344849e-02 6.897078990936279297e+00 2.082241058349609375e+00 -4.236968457698822021e-01
1.724000000000000000e+03 7.543487548828125000e+01 1.053598308563232422e+01 -2.479495853185653687e-02 7.354342937469482422e+00 2.198864459991455078e+00 -4.978453516960144043e-01
1.725000000000000000e+03 7.426372528076171875e+01 9.347495079040527344e+00 -6.859011203050613403e-02 7.171641826629638672e+00 2.130915403366088867e+00 -6.025500297546386719e-01
1.726000000000000000e+03 7.677299499511718750e+01 1.721292877197265625e+01 2.836899086833000183e-02 7.091732025146484375e+00 2.136030435562133789e+00 -3.019686043262481689e-01
1.727000000000000000e+03 7.541565704345703125e+01 1.742794990539550781e+01 6.380319595336914062e-02 6.792220592498779297e+00 2.056807279586791992e+00 -3.989625573158264160e-01
1.728000000000000000e+03 7.570861053466796875e+01 1.985406684875488281e+01 5.043383687734603882e-02 6.697549343109130859e+00 2.024394989013671875e+00 -3.232836723327636719e-01
1.729000000000000000e+03 7.398009490966796875e+01 1.736730194091796875e+01 8.456776291131973267e-02 6.487005710601806641e+00 1.971472144126892090e+00 -4.917276501655578613e-01
1.730000000000000000e+03 7.512566375732421875e+01 -2.925967788696289062e+01 -2.839752137660980225e-01 8.773939132690429688e+00 2.546989202499389648e+00 -3.157078921794891357e-01
1.731000000000000000e+03 7.421063232421875000e+01 -2.375937652587890625e+01 -5.336621999740600586e-01 8.834181785583496094e+00 2.490155696868896484e+00 -8.478933572769165039e-01
1.732000000000000000e+03 7.549162292480468750e+01 2.111534881591796875e+01 4.552998021245002747e-02 6.582462787628173828e+00 1.988397836685180664e+00 -3.183786273002624512e-01
1.733000000000000000e+03 7.555498504638671875e+01 -2.493498611450195312e+01 -3.601814806461334229e-01 8.893374443054199219e+00 2.559957981109619141e+00 -7.434575557708740234e-01
1.734000000000000000e+03 7.554697418212890625e+01 -2.629376983642578125e+01 -3.351281285285949707e-01 8.895989418029785156e+00 2.568258523941040039e+00 -5.641492605209350586e-01
1.735000000000000000e+03 7.373451995849609375e+01 2.795661544799804688e+01 6.522212922573089600e-02 5.937025070190429688e+00 1.800674080848693848e+00 -2.671441733837127686e-01
1.736000000000000000e+03 7.355651092529296875e+01 2.393290138244628906e+01 8.574952930212020874e-02 6.095928668975830078e+00 1.854503512382507324e+00 -3.508698046207427979e-01
1.737000000000000000e+03 7.661207580566406250e+01 2.671018218994140625e+01 1.985565759241580963e-02 6.460925102233886719e+00 1.944234251976013184e+00 -1.670171618461608887e-01
1.738000000000000000e+03 7.535132598876953125e+01 2.671952819824218750e+01 4.096174985170364380e-02 6.260613441467285156e+00 1.890472531318664551e+00 -2.051067799329757690e-01
1.739000000000000000e+03 7.516275787353515625e+01 2.947638702392578125e+01 3.647198900580406189e-02 6.126075744628906250e+00 1.848764300346374512e+00 -1.896219253540039062e-01
1.740000000000000000e+03 7.517028808593750000e+01 2.806231880187988281e+01 4.019690304994583130e-02 6.203495502471923828e+00 1.873107790946960449e+00 -1.959182918071746826e-01
1.741000000000000000e+03 7.298075103759765625e+01 -3.489972686767578125e+01 -1.180803924798965454e-01 7.873847007751464844e+00 2.326730012893676758e+00 -5.346065852791070938e-03
1.742000000000000000e+03 7.588248443603515625e+01 -3.667543029785156250e+01 -9.814614057540893555e-02 9.172780036926269531e+00 2.722390174865722656e+00 -8.243757486343383789e-02
1.743000000000000000e+03 7.642369079589843750e+01 -3.319043350219726562e+01 -9.735525399446487427e-02 9.280447006225585938e+00 2.754927635192871094e+00 -6.265558302402496338e-02
1.744000000000000000e+03 7.539468383789062500e+01 -3.245137786865234375e+01 -1.521926969289779663e-01 8.816864013671875000e+00 2.599401473999023438e+00 -1.312792152166366577e-01
1.745000000000000000e+03 7.640891265869140625e+01 2.948272323608398438e+01 2.155496738851070404e-02 6.357286453247070312e+00 1.913652420043945312e+00 -1.255430132150650024e-01
1.746000000000000000e+03 1.594196891784667969e+01 -9.881855964660644531e+00 1.112735033035278320e+00 -1.521988868713378906e+00 -1.227761507034301758e-01 1.393197894096374512e+00
1.747000000000000000e+03 1.474403953552246094e+01 -9.310433387756347656e+00 1.335691332817077637e+00 -7.029772400856018066e-01 1.898142397403717041e-01 1.752464056015014648e+00
1.748000000000000000e+03 1.461115741729736328e+01 -2.783798217773437500e+01 2.159919403493404388e-02 1.489558219909667969e+00 4.533472359180450439e-01 -5.055537819862365723e-01
1.749000000000000000e+03 1.670535659790039062e+01 -2.809000778198242188e+01 2.207528054714202881e-01 1.262073278427124023e+00 4.448478221893310547e-01 -5.922764539718627930e-01
1.750000000000000000e+03 3.163023233413696289e+00 -1.667463111877441406e+01 5.248304605484008789e-01 -2.208395957946777344e+00 -5.050696730613708496e-01 7.441225051879882812e-01
1.751000000000000000e+03 5.782584190368652344e+00 -1.541506385803222656e+01 1.878516674041748047e+00 1.679356694221496582e+00 1.067361950874328613e+00 4.514304399490356445e-01
1.752000000000000000e+03 4.444233417510986328e+00 2.120008659362792969e+01 3.540328145027160645e-02 -6.945922970771789551e-01 -1.977567076683044434e-01 9.282465279102325439e-02
1.753000000000000000e+03 3.159178733825683594e+00 1.998775672912597656e+01 2.411013469099998474e-02 -7.781807780265808105e-01 -2.262211889028549194e-01 8.279577642679214478e-02
1.754000000000000000e+03 4.455011367797851562e+00 2.262539863586425781e+01 2.336176298558712006e-02 -7.181320786476135254e-01 -2.084310948848724365e-01 7.664041221141815186e-02
1.755000000000000000e+03 4.214756011962890625e+00 1.696293830871582031e+01 5.496791005134582520e-02 -6.176214814186096191e-01 -1.687960624694824219e-01 1.665068119764328003e-01
1.756000000000000000e+03 4.280220031738281250e+00 1.832524299621582031e+01 5.467191338539123535e-02 -6.492601633071899414e-01 -1.783764660358428955e-01 1.405690312385559082e-01
1.757000000000000000e+03 3.094740390777587891e+00 1.856838989257812500e+01 2.947306632995605469e-02 -7.447510957717895508e-01 -2.145833969116210938e-01 1.025864258408546448e-01
1.758000000000000000e+03 4.424462318420410156e+00 1.974049568176269531e+01 4.558547958731651306e-02 -6.714096665382385254e-01 -1.877472549676895142e-01 1.137482896447181702e-01
1.759000000000000000e+03 5.496088504791259766e+00 2.127582168579101562e+01 4.946460202336311340e-02 -6.175374984741210938e-01 -1.704218685626983643e-01 1.081556677818298340e-01
1.760000000000000000e+03 4.815384864807128906e+00 2.541364097595214844e+01 1.057646330446004868e-02 -7.285890579223632812e-01 -2.154037803411483765e-01 6.778953969478607178e-02
1.761000000000000000e+03 4.814163208007812500e+00 2.960581398010253906e+01 8.159764111042022705e-03 -8.024050593376159668e-01 -2.382735759019851685e-01 5.625572800636291504e-02
1.762000000000000000e+03 4.419077396392822266e+00 -2.670583534240722656e+01 -2.830921709537506104e-01 -3.274271786212921143e-01 -1.831558048725128174e-01 8.043478131294250488e-01
1.763000000000000000e+03 3.077400922775268555e+00 -2.384766578674316406e+01 -1.738981604576110840e-01 -1.332989811897277832e+00 -4.520663917064666748e-01 9.352037310600280762e-01
1.764000000000000000e+03 4.493296623229980469e+00 -2.125426673889160156e+01 -1.777764558792114258e-01 -1.752021163702011108e-01 -1.058935746550559998e-01 1.229937195777893066e+00
1.765000000000000000e+03 3.073286771774291992e+00 1.440184211730957031e+01 3.211952745914459229e-02 -5.901582837104797363e-01 -1.674116253852844238e-01 1.797897964715957642e-01
1.766000000000000000e+03 4.389117717742919922e+00 1.284944725036621094e+01 4.126698523759841919e-02 -4.576608240604400635e-01 -1.249181553721427917e-01 2.668847143650054932e-01
1.767000000000000000e+03 4.285377025604248047e+00 1.426478672027587891e+01 5.423296615481376648e-02 -5.203003287315368652e-01 -1.398202031850814819e-01 2.338705211877822876e-01
1.768000000000000000e+03 2.888288021087646484e+00 -1.094311428070068359e+01 3.952841758728027344e-01 -2.283662796020507812e+00 -5.665135979652404785e-01 -1.430116415023803711e+00
1.769000000000000000e+03 6.895076751708984375e+00 -1.301560783386230469e+01 3.301753759384155273e+00 4.247419357299804688e+00 2.264751911163330078e+00 -7.757099270820617676e-01
1.770000000000000000e+03 4.714058399200439453e+00 2.399325942993164062e+01 1.747762970626354218e-02 -7.188807129859924316e-01 -2.104209214448928833e-01 7.089408487081527710e-02
1.771000000000000000e+03 4.750568389892578125e+00 2.684067153930664062e+01 1.060862280428409576e-02 -7.638021111488342285e-01 -2.259580492973327637e-01 6.332933902740478516e-02
1.772000000000000000e+03 6.251227855682373047e+00 -2.412502861022949219e+01 -4.495436251163482666e-01 8.902420997619628906e-01 1.322095394134521484e-01 8.695036172866821289e-01
1.773000000000000000e+03 4.256433010101318359e+00 -2.266539573669433594e+01 -2.475994378328323364e-01 -5.010727643966674805e-01 -2.246016561985015869e-01 1.114871144294738770e+00
1.774000000000000000e+03 3.249185085296630859e+00 -3.097676849365234375e+01 -1.144743189215660095e-01 -5.078415870666503906e-01 -1.866947710514068604e-01 4.304971992969512939e-01
1.775000000000000000e+03 4.559336185455322266e+00 -2.814428901672363281e+01 -2.392659038305282593e-01 -2.492734640836715698e-01 -1.465618163347244263e-01 6.787304282188415527e-01
1.776000000000000000e+03 6.918386936187744141e+00 1.336881732940673828e+01 1.095767542719841003e-01 -3.730149269104003906e-01 -7.903145253658294678e-02 3.535666465759277344e-01
1.777000000000000000e+03 5.741404533386230469e+00 3.211874389648437500e+01 1.557333860546350479e-02 -7.626177668571472168e-01 -2.241133302450180054e-01 5.827002227306365967e-02
1.778000000000000000e+03 5.871644496917724609e+00 3.601276397705078125e+01 2.520083636045455933e-02 -7.805069088935852051e-01 -2.265918105840682983e-01 4.391441494226455688e-02
1.779000000000000000e+03 4.602123260498046875e+00 -1.336136341094970703e+01 1.700476646423339844e+00 -2.048262804746627808e-01 4.486951231956481934e-01 -6.864882707595825195e-01
1.780000000000000000e+03 4.316585063934326172e+00 1.143517398834228516e+01 1.648975163698196411e-02 -3.950291872024536133e-01 -1.135618314146995544e-01 2.804559171199798584e-01
1.781000000000000000e+03 5.362432479858398438e+00 -5.394397735595703125e+00 -7.458056211471557617e-01 3.731545209884643555e-01 -1.117953360080718994e-01 -1.407928109169006348e+00
1.782000000000000000e+03 4.656432628631591797e+00 -2.967493057250976562e+01 -2.349154502153396606e-01 -1.672344803810119629e-01 -1.206449791789054871e-01 5.941487550735473633e-01
1.783000000000000000e+03 4.773574829101562500e+00 2.821690368652343750e+01 3.411356359720230103e-03 -7.861578464508056641e-01 -2.348239421844482422e-01 5.744286999106407166e-02
1.784000000000000000e+03 4.734013080596923828e+00 3.327793884277343750e+01 7.076416630297899246e-03 -8.515570163726806641e-01 -2.533441781997680664e-01 4.092886298894882202e-02
1.785000000000000000e+03 4.950860023498535156e+00 3.100387573242187500e+01 6.604341790080070496e-03 -8.221119642257690430e-01 -2.446523010730743408e-01 5.518423765897750854e-02
1.786000000000000000e+03 1.453435325622558594e+01 -2.648856925964355469e+01 1.704365611076354980e-01 1.587011456489562988e+00 5.272344350814819336e-01 -6.658079028129577637e-01
1.787000000000000000e+03 4.047328472137451172e+00 8.856807708740234375e+00 -2.972846291959285736e-02 -2.778007984161376953e-01 -9.225877374410629272e-02 2.624869644641876221e-01
1.788000000000000000e+03 3.322305679321289062e+00 5.366166591644287109e+00 -5.611895769834518433e-02 -1.220651566982269287e-01 -5.345523729920387268e-02 1.438640505075454712e-01
1.789000000000000000e+03 4.590837478637695312e+00 4.737426757812500000e+00 -9.943281114101409912e-02 -1.002781391143798828e-01 -5.991328507661819458e-02 1.707738786935806274e-01
1.790000000000000000e+03 6.520982360839843750e+01 -2.429896736145019531e+01 -5.616567134857177734e-01 5.104427337646484375e+00 1.362831234931945801e+00 1.061233043670654297e+00
1.791000000000000000e+03 6.017940044403076172e+00 -3.581929397583007812e+01 -1.949136853218078613e-01 1.464003026485443115e-01 -1.455401536077260971e-02 2.715790271759033203e-01
1.792000000000000000e+03 5.519577789306640625e+01 -8.099651336669921875e+00 -2.118680477142333984e+00 -1.818612031638622284e-02 -6.410599946975708008e-01 -5.367677211761474609e-01
1.793000000000000000e+03 5.819568252563476562e+01 -7.528476238250732422e+00 -2.646138668060302734e+00 -2.112989425659179688e-01 -8.572313189506530762e-01 -8.188045024871826172e-01
1.794000000000000000e+03 5.803735351562500000e+01 -3.295261001586914062e+01 1.276784986257553101e-01 1.196500539779663086e+00 3.972537219524383545e-01 2.575051784515380859e-01
1.795000000000000000e+03 5.303291320800781250e+01 -9.388916015625000000e+00 -1.884876251220703125e+00 -2.176342345774173737e-02 -5.719919204711914062e-01 -5.341041088104248047e-01
1.796000000000000000e+03 5.121776962280273438e+01 -3.478759002685546875e+01 2.183234989643096924e-01 -1.557866632938385010e-01 1.876104809343814850e-02 -2.358197420835494995e-01
1.797000000000000000e+03 7.365979194641113281e+00 -1.605606079101562500e+01 1.910026669502258301e+00 4.808145523071289062e+00 2.015451669692993164e+00 3.759874403476715088e-01
1.798000000000000000e+03 6.208377838134765625e+01 -3.262852907180786133e+00 -7.220587134361267090e-01 5.254632234573364258e-01 -5.897865071892738342e-02 -1.219340443611145020e+00
1.799000000000000000e+03 4.910394287109375000e+01 2.706176757812500000e+00 1.725515723228454590e-01 1.563448607921600342e-01 9.866893291473388672e-02 2.683086693286895752e-01
1.800000000000000000e+03 4.804138565063476562e+01 3.551117658615112305e+00 2.095069885253906250e-01 1.142722293734550476e-01 9.713376313447952271e-02 2.238171100616455078e-01
1.801000000000000000e+03 9.024041175842285156e+00 -2.136491012573242188e+01 -1.935090422630310059e-01 3.198761940002441406e+00 9.015759229660034180e-01 -2.053253501653671265e-01
1.802000000000000000e+03 2.049913024902343750e+01 -3.441964721679687500e+01 -8.468835800886154175e-02 7.637362480163574219e-01 2.037143707275390625e-01 -2.915136516094207764e-01
1.803000000000000000e+03 5.384169006347656250e+01 4.783498287200927734e+00 3.645665347576141357e-01 8.190664052963256836e-01 3.550899028778076172e-01 2.815513014793395996e-01
1.804000000000000000e+03 5.612074279785156250e+01 2.979441881179809570e+00 1.419163942337036133e-01 1.098461747169494629e+00 3.721134364604949951e-01 -5.026894062757492065e-02
1.805000000000000000e+03 4.288583374023437500e+01 6.692708492279052734e+00 -2.217245288193225861e-02 6.810231208801269531e-01 1.976552009582519531e-01 1.226601228117942810e-01
1.806000000000000000e+03 4.251289749145507812e+01 4.473220348358154297e+00 -2.626569010317325592e-02 5.366349220275878906e-01 1.531107723712921143e-01 2.202632129192352295e-01
1.807000000000000000e+03 1.314062404632568359e+01 -9.398696899414062500e+00 9.290482997894287109e-01 5.544683933258056641e-01 4.450550079345703125e-01 1.856579542160034180e+00
1.808000000000000000e+03 1.235964107513427734e+01 -8.935158729553222656e+00 8.881935477256774902e-01 1.169298529624938965e+00 6.172476410865783691e-01 1.830944776535034180e+00
1.809000000000000000e+03 1.122913742065429688e+01 1.264639472961425781e+01 2.357214540243148804e-01 -1.551268547773361206e-01 2.417838200926780701e-02 4.539093375205993652e-01
1.810000000000000000e+03 5.863757705688476562e+01 1.158203887939453125e+01 6.119152307510375977e-01 3.172655344009399414e+00 1.135371208190917969e+00 -5.824132561683654785e-01
1.811000000000000000e+03 4.161219406127929688e+01 8.154962539672851562e+00 -5.757921934127807617e-02 1.056340813636779785e+00 2.996284663677215576e-01 2.616798281669616699e-01
1.812000000000000000e+03 6.256532669067382812e+01 -2.565325546264648438e+01 -4.119901657104492188e-01 2.861977100372314453e+00 7.349960207939147949e-01 7.949151396751403809e-01
1.813000000000000000e+03 6.601427459716796875e+01 -2.534829902648925781e+01 -7.144539356231689453e-01 5.517964363098144531e+00 1.441053152084350586e+00 8.510078787803649902e-01
1.814000000000000000e+03 5.779158401489257812e+01 -3.103033828735351562e+01 -1.395583450794219971e-01 8.712353110313415527e-01 2.195030897855758667e-01 2.281405329704284668e-01
1.815000000000000000e+03 4.494517135620117188e+01 -3.790887832641601562e+01 2.937516272068023682e-01 -2.701994180679321289e-01 7.065666839480400085e-03 -1.783648431301116943e-01
1.816000000000000000e+03 3.806961441040039062e+01 -4.109540176391601562e+01 1.907726526260375977e-01 -1.033667847514152527e-01 2.622175961732864380e-02 -3.264062851667404175e-02
1.817000000000000000e+03 2.714639663696289062e+01 1.467656898498535156e+01 -3.548381030559539795e-01 3.586627840995788574e-01 1.147407689131796360e-03 3.561729192733764648e-01
1.818000000000000000e+03 4.893814086914062500e+01 -3.345003509521484375e+01 -1.555553227663040161e-01 -2.622767090797424316e-01 -1.253496110439300537e-01 -3.635607659816741943e-01
1.819000000000000000e+03 5.558340072631835938e+01 -3.608675384521484375e+01 4.592054188251495361e-01 7.179384231567382812e-01 3.531431555747985840e-01 4.490444809198379517e-02
1.820000000000000000e+03 6.505290985107421875e+01 -3.444966554641723633e+00 -8.060889244079589844e-01 2.973825216293334961e+00 6.503208875656127930e-01 -3.543418407440185547e+00
1.821000000000000000e+03 7.111203002929687500e+01 -9.351493835449218750e+00 2.832761287689208984e+00 1.282669258117675781e+01 4.697836399078369141e+00 9.529466629028320312e-01
1.822000000000000000e+03 7.091151428222656250e+01 -8.152313232421875000e+00 1.740584373474121094e+00 1.361877346038818359e+01 4.607807636260986328e+00 8.440147638320922852e-01
1.823000000000000000e+03 4.865962600708007812e+01 -3.679205322265625000e+01 3.442200124263763428e-01 -2.596462666988372803e-01 2.537213265895843506e-02 -2.426323890686035156e-01
1.824000000000000000e+03 5.193227386474609375e+01 -3.669464874267578125e+01 4.630018472671508789e-01 5.429298151284456253e-03 1.405293494462966919e-01 -1.247867494821548462e-01
1.825000000000000000e+03 7.275267791748046875e+01 -1.812739562988281250e+01 -1.840548813343048096e-01 1.012071323394775391e+01 2.980997562408447266e+00 -1.136823773384094238e+00
1.826000000000000000e+03 7.157235717773437500e+01 -1.543296146392822266e+01 7.675582170486450195e-01 1.198991775512695312e+01 3.827242851257324219e+00 -8.095511198043823242e-01
1.827000000000000000e+03 6.947420501708984375e+01 -5.822215080261230469e+00 -1.269739508628845215e+00 1.272179126739501953e+01 3.435615539550781250e+00 -1.004754185676574707e+00
1.828000000000000000e+03 6.763356781005859375e+01 -3.002024888992309570e+00 -1.999062657356262207e+00 7.495662212371826172e+00 1.648979783058166504e+00 -2.903182506561279297e+00
1.829000000000000000e+03 4.367310714721679688e+01 5.497165203094482422e+00 2.046684920787811279e-02 4.811227917671203613e-01 1.504768878221511841e-01 8.049723505973815918e-02
1.830000000000000000e+03 5.273296356201171875e+00 -2.413011360168457031e+01 -3.497606217861175537e-01 1.956473588943481445e-01 -4.623398184776306152e-02 9.910630583763122559e-01
1.831000000000000000e+03 1.113482761383056641e+01 -2.344939804077148438e+01 -4.131525382399559021e-02 2.578611850738525391e+00 7.611889839172363281e-01 -6.215026974678039551e-01
1.832000000000000000e+03 5.890612792968750000e+01 1.430781841278076172e+01 7.764896154403686523e-01 3.457960844039916992e+00 1.270335078239440918e+00 -6.326134204864501953e-01
1.833000000000000000e+03 6.869045257568359375e+01 -1.794965362548828125e+01 -1.996017247438430786e-02 1.104895019531250000e+01 3.308696985244750977e+00 1.234184741973876953e+00
1.834000000000000000e+03 7.352841186523437500e+01 -1.670084190368652344e+01 3.978145122528076172e-01 1.006477165222167969e+01 3.138776063919067383e+00 -1.294414043426513672e+00
1.835000000000000000e+03 6.152995300292968750e+01 -4.251615047454833984e+00 -1.495892763137817383e+00 1.829969137907028198e-01 -3.938687741756439209e-01 -9.454034566879272461e-01
1.836000000000000000e+03 6.028300094604492188e+01 -3.499171733856201172e+00 -9.973453879356384277e-01 2.285255491733551025e-01 -2.306459546089172363e-01 -6.606022119522094727e-01
1.837000000000000000e+03 6.867002105712890625e+01 -2.004153633117675781e+01 -5.837470889091491699e-01 9.374386787414550781e+00 2.637192010879516602e+00 7.659193277359008789e-01
1.838000000000000000e+03 7.582889556884765625e+01 4.034598159790039062e+01 3.354322910308837891e-02 6.116562843322753906e+00 1.845031857490539551e+00 1.272739656269550323e-02
1.839000000000000000e+03 1.639693450927734375e+01 -8.695504188537597656e+00 1.041387796401977539e+00 -1.390670299530029297e+00 -1.047847494482994080e-01 1.221281647682189941e+00
1.840000000000000000e+03 1.652462959289550781e+01 -1.068107128143310547e+01 9.332431554794311523e-01 -1.819735288619995117e+00 -2.659476399421691895e-01 1.447898983955383301e+00
1.841000000000000000e+03 7.100739288330078125e+01 -1.917226409912109375e+01 -5.737082362174987793e-01 1.016390800476074219e+01 2.877059936523437500e+00 -6.759951114654541016e-01
1.842000000000000000e+03 4.553057861328125000e+01 2.358162307739257812e+01 5.689225196838378906e-01 1.185007691383361816e+00 5.261790752410888672e-01 4.423016309738159180e-01
1.843000000000000000e+03 2.485842323303222656e+01 -7.123501896858215332e-01 -5.926061272621154785e-01 1.194485306739807129e+00 1.805637478828430176e-01 5.304453372955322266e-01
1.844000000000000000e+03 2.200380134582519531e+01 2.047526121139526367e+00 -3.459487259387969971e-01 5.010997653007507324e-01 4.654530435800552368e-02 4.480042457580566406e-01
1.845000000000000000e+03 8.007892608642578125e+00 -1.738025856018066406e+01 9.986220002174377441e-01 5.036208629608154297e+00 1.810449123382568359e+00 3.435693085193634033e-01
1.846000000000000000e+03 7.476738929748535156e+00 -1.937011528015136719e+01 1.167809665203094482e-01 3.226078748703002930e+00 1.002857923507690430e+00 5.348206162452697754e-01
1.847000000000000000e+03 2.604322052001953125e+01 3.482104063034057617e+00 -1.316308975219726562e-01 1.140020370483398438e+00 3.025168478488922119e-01 4.774926602840423584e-01
1.848000000000000000e+03 2.443762016296386719e+01 2.100720643997192383e+00 -3.678458333015441895e-01 1.018732309341430664e+00 1.952659487724304199e-01 4.758274257183074951e-01
1.849000000000000000e+03 5.967938613891601562e+01 1.105257225036621094e+01 5.532885193824768066e-01 3.257330656051635742e+00 1.143185734748840332e+00 -7.326434850692749023e-01
1.850000000000000000e+03 2.331759262084960938e+01 2.073278617858886719e+01 2.201117277145385742e-01 -9.146941453218460083e-02 3.859269246459007263e-02 3.737380802631378174e-01
1.851000000000000000e+03 2.231644630432128906e+01 2.160838317871093750e+01 2.305721193552017212e-01 -5.515022203326225281e-02 5.262656882405281067e-02 4.324270486831665039e-01
1.852000000000000000e+03 7.183760070800781250e+01 -1.162903594970703125e+01 2.730103492736816406e+00 1.276225280761718750e+01 4.647706985473632812e+00 -2.504113018512725830e-01
1.853000000000000000e+03 2.437273025512695312e+01 2.004259490966796875e+01 1.844722032546997070e-01 -4.990884289145469666e-02 4.036900773644447327e-02 3.028036355972290039e-01
1.854000000000000000e+03 1.140304183959960938e+01 1.756176185607910156e+01 2.616279721260070801e-01 -1.002887412905693054e-01 4.840177297592163086e-02 2.224297821521759033e-01
1.855000000000000000e+03 7.258549499511718750e+01 -1.457673454284667969e+01 1.145880818367004395e+00 1.088880443572998047e+01 3.610405445098876953e+00 -1.149792075157165527e+00
1.856000000000000000e+03 5.569742584228515625e+01 2.303059196472167969e+01 4.616253674030303955e-01 2.604157447814941406e+00 9.197348356246948242e-01 -6.803517341613769531e-01
1.857000000000000000e+03 5.421756744384765625e+01 2.266028213500976562e+01 5.379233360290527344e-01 2.166198492050170898e+00 8.112365603446960449e-01 -7.107994556427001953e-01
1.858000000000000000e+03 5.254040908813476562e+01 2.389702033996582031e+01 6.881133317947387695e-01 1.757609486579895020e+00 7.337168455123901367e-01 -4.110216498374938965e-01
1.859000000000000000e+03 5.031684875488281250e+01 2.368150901794433594e+01 7.623261809349060059e-01 1.290444970130920410e+00 6.158313155174255371e-01 -1.854905635118484497e-01
1.860000000000000000e+03 3.702254867553710938e+01 1.361201095581054688e+01 3.758692443370819092e-01 1.125092625617980957e+00 4.502885639667510986e-01 6.255663633346557617e-01
1.861000000000000000e+03 7.227465820312500000e+01 -9.090727806091308594e+00 2.146972656250000000e+00 1.164282703399658203e+01 4.136940002441406250e+00 7.408493161201477051e-01
1.862000000000000000e+03 3.025396919250488281e+01 8.563444137573242188e+00 2.237739861011505127e-01 7.900314331054687500e-01 3.041416108608245850e-01 7.669842839241027832e-01
1.863000000000000000e+03 2.848159599304199219e+01 1.047272205352783203e+01 9.239019453525543213e-02 6.708422899246215820e-01 2.289697527885437012e-01 7.955683469772338867e-01
1.864000000000000000e+03 2.775758171081542969e+01 1.772340774536132812e+01 -3.459765017032623291e-02 3.275348544120788574e-01 8.788116276264190674e-02 2.462301701307296753e-01
1.865000000000000000e+03 1.559272766113281250e+01 -2.732322120666503906e+01 2.049381434917449951e-01 1.467204213142395020e+00 5.016427040100097656e-01 -6.234181523323059082e-01
1.866000000000000000e+03 2.136676788330078125e+01 2.032545471191406250e+01 2.033614218235015869e-01 -1.007800251245498657e-01 3.077442012727260590e-02 4.981159865856170654e-01
1.867000000000000000e+03 4.515211105346679688e+01 2.174892044067382812e+01 4.730908870697021484e-01 1.182968974113464355e+00 4.968179762363433838e-01 6.007614135742187500e-01
1.868000000000000000e+03 1.414067268371582031e+01 1.766887283325195312e+01 3.090625405311584473e-01 2.642663121223449707e-01 1.719986498355865479e-01 2.468952238559722900e-01
1.869000000000000000e+03 4.026926040649414062e+01 1.166102218627929688e+01 3.067846000194549561e-01 1.516575217247009277e+00 5.470079779624938965e-01 6.437092423439025879e-01
1.870000000000000000e+03 2.429778671264648438e+01 -8.296285629272460938e+00 -1.135041564702987671e-01 3.582378864288330078e+00 1.040662407875061035e+00 9.742314219474792480e-01
1.871000000000000000e+03 2.410566329956054688e+01 -7.661978244781494141e+00 -3.272255361080169678e-01 2.897049665451049805e+00 7.709472179412841797e-01 6.434000730514526367e-01
1.872000000000000000e+03 2.013081359863281250e+01 -1.039698219299316406e+01 2.856126308441162109e+00 -2.189538002014160156e+00 1.999764591455459595e-01 1.955265253782272339e-01
1.873000000000000000e+03 2.516441345214843750e+01 -8.952389717102050781e+00 1.234787702560424805e+00 3.563352346420288086e+00 1.439442038536071777e+00 2.263792514801025391e+00
1.874000000000000000e+03 2.667207527160644531e+01 -9.640237808227539062e+00 2.481666564941406250e+00 1.321005582809448242e+00 1.140801668167114258e+00 1.785192251205444336e+00
1.875000000000000000e+03 2.595575714111328125e+01 -8.749040603637695312e+00 1.389811277389526367e+00 2.654919147491455078e+00 1.213419079780578613e+00 2.179364442825317383e+00
1.876000000000000000e+03 2.156499290466308594e+01 -1.216059780120849609e+01 3.484641790390014648e+00 -1.012727618217468262e+00 7.415742278099060059e-01 2.696738481521606445e+00
1.877000000000000000e+03 1.711948585510253906e+01 -8.817537307739257812e+00 1.150183081626892090e+00 -1.730842947959899902e+00 -1.741979569196701050e-01 1.025087952613830566e+00
1.878000000000000000e+03 2.455616188049316406e+01 -4.681543350219726562e+00 -6.406512260437011719e-01 1.713889360427856445e+00 3.219714462757110596e-01 6.137557029724121094e-01
1.879000000000000000e+03 2.425544357299804688e+01 -4.173909187316894531e+00 -6.705623865127563477e-01 1.535047054290771484e+00 2.593453824520111084e-01 5.364062786102294922e-01
1.880000000000000000e+03 2.050888633728027344e+01 -1.221470832824707031e+01 2.273681402206420898e+00 -2.357397794723510742e+00 -2.511488646268844604e-02 2.454764842987060547e+00
1.881000000000000000e+03 7.473015308380126953e+00 4.790614128112792969e+00 -2.183765023946762085e-01 -8.776935935020446777e-02 -9.184376150369644165e-02 2.635638117790222168e-01
1.882000000000000000e+03 1.908761978149414062e+01 1.154002785682678223e+00 -3.813048601150512695e-01 -2.099427431821823120e-01 -1.773742735385894775e-01 3.872355222702026367e-01
1.883000000000000000e+03 1.971884155273437500e+01 3.761266767978668213e-01 -4.250401854515075684e-01 -6.740770488977432251e-02 -1.477343738079071045e-01 3.824682235717773438e-01
1.884000000000000000e+03 4.027526378631591797e+00 3.954092502593994141e+00 -9.188868105411529541e-02 -7.233476638793945312e-02 -4.926703497767448425e-02 1.298658996820449829e-01
1.885000000000000000e+03 4.658699512481689453e+00 3.967111110687255859e+00 -1.129594668745994568e-01 -6.646184623241424561e-02 -5.382639169692993164e-02 1.418036073446273804e-01
1.886000000000000000e+03 4.596534252166748047e+00 6.696129798889160156e+00 -8.443284034729003906e-02 -1.703893840312957764e-01 -7.644666731357574463e-02 2.369950860738754272e-01
1.887000000000000000e+03 5.334995746612548828e+00 3.964942455291748047e+00 -1.341688781976699829e-01 -7.177425920963287354e-02 -6.178294122219085693e-02 1.670721322298049927e-01
1.888000000000000000e+03 6.729584693908691406e+00 4.729056358337402344e+00 -1.907032132148742676e-01 -8.464612066745758057e-02 -8.260480314493179321e-02 2.367883324623107910e-01
1.889000000000000000e+03 8.263820648193359375e+00 4.102929115295410156e+00 -2.642445862293243408e-01 -7.837176322937011719e-02 -1.027849093079566956e-01 2.475366145372390747e-01
1.890000000000000000e+03 8.252812385559082031e+00 4.836740016937255859e+00 -2.583221197128295898e-01 -8.458116650581359863e-02 -1.028709858655929565e-01 2.771015763282775879e-01
1.891000000000000000e+03 9.067536354064941406e+00 4.879977703094482422e+00 -2.904297709465026855e-01 -9.984527528285980225e-02 -1.170825138688087463e-01 2.980225682258605957e-01
1.892000000000000000e+03 2.439138221740722656e+01 -5.533635616302490234e+00 -5.942217707633972168e-01 1.917201519012451172e+00 3.968939483165740967e-01 6.139269471168518066e-01
1.893000000000000000e+03 1.328357219696044922e+01 -6.427996158599853516e+00 -2.134918272495269775e-01 3.400290608406066895e-01 3.796116635203361511e-02 1.257094979286193848e+00
1.894000000000000000e+03 1.016223144531250000e+01 -5.396386623382568359e+00 -1.154063940048217773e+00 1.387161374092102051e+00 6.992921233177185059e-02 2.814262807369232178e-01
1.895000000000000000e+03 1.143757152557373047e+01 -6.962419986724853516e+00 -4.826408624649047852e-01 1.498606443405151367e+00 3.047896623611450195e-01 1.169648408889770508e+00
1.896000000000000000e+03 2.793029022216796875e+01 -1.378465080261230469e+01 -7.106062769889831543e-01 3.306205570697784424e-01 -1.139957234263420105e-01 -1.218607068061828613e+00
1.897000000000000000e+03 9.704097747802734375e+00 -4.447191715240478516e+00 -1.359286665916442871e+00 1.112492442131042480e+00 -7.403827458620071411e-02 5.388071388006210327e-02
1.898000000000000000e+03 1.079284667968750000e+01 -7.636736869812011719e+00 -3.465161323547363281e-01 2.332597494125366211e+00 5.958243608474731445e-01 1.000749707221984863e+00
1.899000000000000000e+03 7.252042293548583984e+00 -5.375701904296875000e+00 -1.064877629280090332e+00 1.052060484886169434e+00 -3.845157567411661148e-03 -9.957823753356933594e-01
1.900000000000000000e+03 7.335323810577392578e+00 -4.556758403778076172e+00 -1.164473414421081543e+00 8.841977715492248535e-01 -8.408270776271820068e-02 -8.639664649963378906e-01
1.901000000000000000e+03 6.222040653228759766e+00 -5.798747062683105469e+00 -8.791291713714599609e-01 8.267759680747985840e-01 -1.570596732199192047e-02 -1.325340628623962402e+00
1.902000000000000000e+03 2.687043762207031250e+01 -1.403418064117431641e+01 -1.243332743644714355e+00 9.448310732841491699e-01 -8.955050259828567505e-02 -1.299646854400634766e+00
1.903000000000000000e+03 3.025897789001464844e+01 -1.389218425750732422e+01 -9.200083613395690918e-01 2.447369880974292755e-02 -2.686603963375091553e-01 -8.891415596008300781e-01
1.904000000000000000e+03 1.160920047760009766e+01 4.005495071411132812e+00 -4.051679074764251709e-01 -1.795728057622909546e-01 -1.754222214221954346e-01 2.767047882080078125e-01
1.905000000000000000e+03 1.248094558715820312e+01 3.985350608825683594e+00 -4.308125972747802734e-01 -2.189165949821472168e-01 -1.949187666177749634e-01 2.769488692283630371e-01
1.906000000000000000e+03 2.349601173400878906e+01 1.676935791969299316e+00 -4.127738177776336670e-01 8.893816471099853516e-01 1.429823487997055054e-01 4.806146621704101562e-01
1.907000000000000000e+03 1.513675308227539062e+01 -7.154158592224121094e+00 3.290057480335235596e-01 -6.166973114013671875e-01 -8.630746603012084961e-02 1.376931309700012207e+00
1.908000000000000000e+03 1.922777175903320312e+01 -9.974011421203613281e+00 2.045734643936157227e+00 -2.123450040817260742e+00 -2.331460639834403992e-02 4.736828505992889404e-01
1.909000000000000000e+03 2.395122909545898438e+01 -3.612748384475708008e+00 -6.843167543411254883e-01 1.354946613311767578e+00 2.011889517307281494e-01 4.664458930492401123e-01
1.910000000000000000e+03 1.622277069091796875e+01 -7.873779773712158203e+00 7.729374766349792480e-01 -1.235693335533142090e+00 -1.388267576694488525e-01 1.242795109748840332e+00
1.911000000000000000e+03 1.362553882598876953e+01 -8.702161788940429688e+00 9.442882537841796875e-01 1.194542348384857178e-01 3.191227614879608154e-01 1.764782905578613281e+00
1.912000000000000000e+03 1.392046260833740234e+01 -9.531037330627441406e+00 1.017790555953979492e+00 -2.033840864896774292e-01 2.443219274282455444e-01 1.838538885116577148e+00
1.913000000000000000e+03 2.363414382934570312e+01 -3.003637552261352539e+00 -6.782449483871459961e-01 1.184861898422241211e+00 1.519851088523864746e-01 4.321714937686920166e-01
1.914000000000000000e+03 1.164119243621826172e+01 4.813599586486816406e+00 -4.026805162429809570e-01 -1.737816780805587769e-01 -1.729386597871780396e-01 3.026179671287536621e-01
1.915000000000000000e+03 8.236434936523437500e+00 6.216451168060302734e+00 -2.223787754774093628e-01 -1.141104698181152344e-01 -1.009467691183090210e-01 3.331975936889648438e-01
1.916000000000000000e+03 4.257154846191406250e+01 5.564999103546142578e+00 -2.954295091331005096e-02 6.396883726119995117e-01 1.830436140298843384e-01 1.770124286413192749e-01
1.917000000000000000e+03 4.349902725219726562e+01 4.378794193267822266e+00 1.366236992180347443e-02 4.486733376979827881e-01 1.387007087469100952e-01 1.542154252529144287e-01
1.918000000000000000e+03 5.385054588317871094e+00 1.109016609191894531e+01 1.769766956567764282e-02 -3.495740294456481934e-01 -9.956290572881698608e-02 3.236046135425567627e-01
1.919000000000000000e+03 1.082952976226806641e+01 1.020019435882568359e+01 -3.104664199054241180e-02 -1.518172621726989746e-01 -5.485916882753372192e-02 4.930466115474700928e-01
1.920000000000000000e+03 4.741946792602539062e+01 2.192056417465209961e+00 8.337539434432983398e-02 1.528511494398117065e-01 7.086796313524246216e-02 2.449281811714172363e-01
1.921000000000000000e+03 6.129650497436523438e+01 -1.492413997650146484e+00 -3.083246946334838867e-01 1.042706966400146484e+00 2.203146815299987793e-01 -1.091203808784484863e+00
1.922000000000000000e+03 6.081627273559570312e+01 -2.542809486389160156e+00 -7.357687950134277344e-01 6.016821861267089844e-01 -4.022597894072532654e-02 -9.148257374763488770e-01
1.923000000000000000e+03 2.638339424133300781e+01 2.637779474258422852e+00 -2.439679503440856934e-01 1.172577381134033203e+00 2.785828411579132080e-01 4.778740108013153076e-01
1.924000000000000000e+03 2.546227455139160156e+01 4.174741744995117188e+00 -2.921012416481971741e-02 1.108296275138854980e+00 3.237258195877075195e-01 4.286101758480072021e-01
1.925000000000000000e+03 1.310547637939453125e+01 7.417034149169921875e+00 -3.791217803955078125e-01 -2.347155064344406128e-01 -1.841511875391006470e-01 3.717911541461944580e-01
1.926000000000000000e+03 1.196635437011718750e+01 8.655944824218750000e+00 -2.191649079322814941e-01 -1.615891456604003906e-01 -1.142262145876884460e-01 4.486995935440063477e-01
1.927000000000000000e+03 4.960776519775390625e+01 -1.119103527069091797e+01 -1.585365891456604004e+00 -5.538890138268470764e-03 -4.772714376449584961e-01 -4.856237471103668213e-01
1.928000000000000000e+03 4.784805679321289062e+01 -1.070739746093750000e+01 -1.418085575103759766e+00 5.100170150399208069e-02 -4.101251661777496338e-01 -3.708549439907073975e-01
1.929000000000000000e+03 3.924486160278320312e+01 9.172030448913574219e+00 7.142135500907897949e-02 1.174755692481994629e+00 3.738531172275543213e-01 5.991713404655456543e-01
1.930000000000000000e+03 1.207756805419921875e+01 -6.327990055084228516e+00 -4.659664034843444824e-01 1.020203113555908203e+00 1.662710160017013550e-01 1.098071813583374023e+00
1.931000000000000000e+03 5.982231903076171875e+01 1.538251876831054688e+01 7.210571765899658203e-01 3.471425771713256836e+00 1.257744908332824707e+00 -6.109100580215454102e-01
1.932000000000000000e+03 2.314771080017089844e+01 -9.074613451957702637e-01 -6.020422577857971191e-01 8.850628733634948730e-01 8.490618318319320679e-02 4.160921573638916016e-01
1.933000000000000000e+03 5.742844772338867188e+01 1.710363578796386719e+01 5.291103720664978027e-01 3.318499565124511719e+00 1.154282927513122559e+00 -5.915567874908447266e-01
1.934000000000000000e+03 3.239551162719726562e+01 -1.386942195892333984e+01 -1.067849636077880859e+00 -1.699647866189479828e-02 -3.254538476467132568e-01 -6.360103487968444824e-01
1.935000000000000000e+03 7.777756214141845703e+00 -1.046010208129882812e+01 7.688484787940979004e-01 4.154312133789062500e+00 1.476948142051696777e+00 -8.829676508903503418e-01
1.936000000000000000e+03 5.181278228759765625e+01 1.730587363243103027e+00 5.978850647807121277e-02 3.471460938453674316e-01 1.220803782343864441e-01 2.942348122596740723e-01
1.937000000000000000e+03 5.451557159423828125e+01 3.652480840682983398e+00 2.294886112213134766e-01 8.882272243499755859e-01 3.353147506713867188e-01 1.616856306791305542e-01
1.938000000000000000e+03 8.121374130249023438e+00 -4.507195949554443359e+00 -1.280821084976196289e+00 1.053387999534606934e+00 -6.822990626096725464e-02 -5.801762938499450684e-01
1.939000000000000000e+03 1.351115608215332031e+01 5.177488327026367188e+00 -4.449838399887084961e-01 -3.352713286876678467e-01 -2.340765595436096191e-01 3.250042498111724854e-01
1.940000000000000000e+03 1.265218639373779297e+01 5.498068332672119141e+00 -4.258758723735809326e-01 -2.349012345075607300e-01 -1.982331275939941406e-01 3.235622644424438477e-01
1.941000000000000000e+03 2.263564872741699219e+01 1.138099431991577148e+00 -4.426606297492980957e-01 6.821189522743225098e-01 7.183749973773956299e-02 4.586156904697418213e-01
1.942000000000000000e+03 9.932287216186523438e+00 5.710312843322753906e+00 -3.097450137138366699e-01 -1.216912642121315002e-01 -1.294308751821517944e-01 3.445067703723907471e-01
1.943000000000000000e+03 5.227189636230468750e+01 -8.438160896301269531e+00 -1.693754911422729492e+00 6.896029412746429443e-02 -4.874383807182312012e-01 -3.576041162014007568e-01
1.944000000000000000e+03 3.530746459960937500e+01 -1.378815841674804688e+01 -1.160830140113830566e+00 -2.481266856193542480e-03 -3.489933907985687256e-01 -4.617224931716918945e-01
1.945000000000000000e+03 1.132898235321044922e+01 1.386467075347900391e+01 3.149435818195343018e-01 -1.219173520803451538e-01 5.790787190198898315e-02 3.895615041255950928e-01
1.946000000000000000e+03 2.857993841171264648e+00 6.426843166351318359e+00 -4.005692154169082642e-02 -1.733861267566680908e-01 -6.403291970491409302e-02 1.527767032384872437e-01
1.947000000000000000e+03 2.960435676574707031e+01 -1.295543766021728516e+01 8.497567847371101379e-03 -4.228483885526657104e-02 -1.013618148863315582e-02 -7.224062085151672363e-01
1.948000000000000000e+03 3.001000785827636719e+01 -1.479102516174316406e+01 -1.770359039306640625e+00 1.665104627609252930e-01 -4.811545908451080322e-01 -8.618182539939880371e-01
1.949000000000000000e+03 4.096603775024414062e+01 2.184853553771972656e+01 3.412720263004302979e-01 1.421422004699707031e+00 5.288081765174865723e-01 4.130103886127471924e-01
1.950000000000000000e+03 4.248662567138671875e+01 2.079282951354980469e+01 3.374521732330322266e-01 1.479437351226806641e+00 5.450668931007385254e-01 4.979479312896728516e-01
1.951000000000000000e+03 2.043531799316406250e+01 8.201538920402526855e-01 -4.055536985397338867e-01 1.128625944256782532e-01 -8.780732750892639160e-02 4.036738276481628418e-01
1.952000000000000000e+03 9.377037048339843750e+00 -9.068432807922363281e+00 -2.817428112030029297e-01 4.221719264984130859e+00 1.181993007659912109e+00 1.419133692979812622e-01
1.953000000000000000e+03 7.026295185089111328e+00 -9.380939483642578125e+00 9.073369950056076050e-02 2.725043773651123047e+00 8.447332382202148438e-01 -1.638586163520812988e+00
1.954000000000000000e+03 7.076152038574218750e+01 -6.917288780212402344e+00 5.983587503433227539e-01 1.233720302581787109e+01 3.880668640136718750e+00 7.878152728080749512e-01
1.955000000000000000e+03 7.376700592041015625e+01 -3.522483587265014648e+00 -8.703091740608215332e-01 9.523642539978027344e+00 2.596000194549560547e+00 1.087531566619873047e+00
1.956000000000000000e+03 4.023316192626953125e+01 -1.339080905914306641e+01 -1.240140795707702637e+00 4.693257436156272888e-02 -3.579624593257904053e-01 -3.621070086956024170e-01
1.957000000000000000e+03 3.551972579956054688e+01 -1.271341228485107422e+01 -8.505891561508178711e-01 -2.928558737039566040e-02 -2.639624178409576416e-01 -3.825345337390899658e-01
1.958000000000000000e+03 7.224922180175781250e+01 -2.652844238281250000e+01 -6.441918611526489258e-01 8.304480552673339844e+00 2.298086643218994141e+00 -3.269409239292144775e-01
1.959000000000000000e+03 6.870716094970703125e+01 -2.457879638671875000e+01 -9.134612679481506348e-01 7.483047962188720703e+00 1.970875978469848633e+00 3.510661423206329346e-01
1.960000000000000000e+03 5.331239318847656250e+01 -7.831797599792480469e+00 -1.785848498344421387e+00 8.997315913438796997e-02 -5.087625980377197266e-01 -3.367242217063903809e-01
1.961000000000000000e+03 4.128522109985351562e+01 -1.246884059906005859e+01 -1.170333623886108398e+00 5.628602951765060425e-02 -3.342142701148986816e-01 -3.152970373630523682e-01
1.962000000000000000e+03 4.217428207397460938e+01 -1.342726516723632812e+01 -1.312756180763244629e+00 3.780016675591468811e-02 -3.824868202209472656e-01 -3.671752810478210449e-01
1.963000000000000000e+03 6.655217742919921875e+01 -2.650342226028442383e+00 -1.145859599113464355e+00 5.421336174011230469e+00 1.282642960548400879e+00 -3.258719921112060547e+00
1.964000000000000000e+03 5.192174911499023438e+01 -1.000889205932617188e+01 -1.762760758399963379e+00 -2.399542927742004395e-02 -5.360268950462341309e-01 -5.276841521263122559e-01
1.965000000000000000e+03 7.040221405029296875e+01 -4.400419712066650391e+00 -1.869586348533630371e+00 1.104514217376708984e+01 2.752666711807250977e+00 -4.679931998252868652e-01
1.966000000000000000e+03 6.872448730468750000e+01 -2.224664497375488281e+01 -8.637213706970214844e-01 8.285156250000000000e+00 2.226430654525756836e+00 4.634769856929779053e-01
1.967000000000000000e+03 6.785140991210937500e+01 -2.112491416931152344e+01 -5.838490128517150879e-01 7.987821578979492188e+00 2.221191644668579102e+00 9.629195928573608398e-01
1.968000000000000000e+03 6.868372344970703125e+01 -3.284020185470581055e+00 -1.894112348556518555e+00 8.575103759765625000e+00 2.004297494888305664e+00 -2.139874696731567383e+00
1.969000000000000000e+03 6.737454986572265625e+01 -4.273445606231689453e+00 -1.537790656089782715e+00 7.295553207397460938e+00 1.727328777313232422e+00 -3.489463806152343750e+00
1.970000000000000000e+03 2.912108421325683594e+01 4.655965805053710938e+00 7.739836722612380981e-02 9.914441704750061035e-01 3.206527829170227051e-01 5.637236237525939941e-01
1.971000000000000000e+03 2.745263290405273438e+01 5.281548976898193359e+00 1.727701872587203979e-01 1.062275886535644531e+00 3.705137968063354492e-01 4.736615717411041260e-01
1.972000000000000000e+03 7.473616027832031250e+01 3.327436828613281250e+01 3.491996228694915771e-02 5.990229606628417969e+00 1.807544946670532227e+00 -1.165870800614356995e-01
1.973000000000000000e+03 7.500868988037109375e+01 -3.095567512512207031e+01 -1.874601393938064575e-01 8.712703704833984375e+00 2.557573080062866211e+00 -1.787688136100769043e-01
1.974000000000000000e+03 7.347093200683593750e+01 -3.095557975769042969e+01 -3.014629483222961426e-01 8.183942794799804688e+00 2.364743947982788086e+00 -1.390451043844223022e-01
1.975000000000000000e+03 7.535859680175781250e+01 -2.772335624694824219e+01 -2.649329900741577148e-01 8.841407775878906250e+00 2.572942256927490234e+00 -4.421270489692687988e-01
1.976000000000000000e+03 7.428675842285156250e+01 2.081584930419921875e+01 8.047234266996383667e-02 6.348882675170898438e+00 1.928806543350219727e+00 -4.005637168884277344e-01
1.977000000000000000e+03 7.507662963867187500e+01 2.409036827087402344e+01 5.353454127907752991e-02 6.336743831634521484e+00 1.917083501815795898e+00 -2.807746529579162598e-01
1.978000000000000000e+03 7.542045593261718750e+01 -2.355484962463378906e+01 -3.870882689952850342e-01 8.888463973999023438e+00 2.550412893295288086e+00 -9.193749427795410156e-01
1.979000000000000000e+03 7.052478790283203125e+01 -2.217781448364257812e+01 -8.815518021583557129e-01 8.955314636230468750e+00 2.422128915786743164e+00 -1.983339786529541016e-01
1.980000000000000000e+03 7.524440765380859375e+01 -2.061822891235351562e+01 -3.313857316970825195e-01 8.876895904541015625e+00 2.563652992248535156e+00 -1.255566120147705078e+00
1.981000000000000000e+03 7.398324584960937500e+01 -2.217595100402832031e+01 -5.708847641944885254e-01 9.063476562500000000e+00 2.547777652740478516e+00 -1.023178339004516602e+00
1.982000000000000000e+03 7.558335113525390625e+01 1.871744155883789062e+01 5.370958521962165833e-02 6.739971637725830078e+00 2.038104295730590820e+00 -3.584725260734558105e-01
1.983000000000000000e+03 7.539614868164062500e+01 1.192323017120361328e+01 2.078388817608356476e-02 7.230412483215332031e+00 2.175358772277832031e+00 -4.819787442684173584e-01
1.984000000000000000e+03 7.444367218017578125e+01 1.485281181335449219e+01 5.759207159280776978e-02 6.760722160339355469e+00 2.045494318008422852e+00 -5.285497903823852539e-01
1.985000000000000000e+03 7.413249206542968750e+01 8.015545845031738281e+00 -1.269353479146957397e-01 7.248532295227050781e+00 2.136479139328002930e+00 -5.720075964927673340e-01
1.986000000000000000e+03 7.436000061035156250e+01 3.776394844055175781e+00 -4.734830856323242188e-01 7.871522903442382812e+00 2.219412088394165039e+00 -3.305441439151763916e-01
1.987000000000000000e+03 7.518446350097656250e+01 -1.319256114959716797e+01 1.222077965736389160e+00 8.634070396423339844e+00 2.956844568252563477e+00 -7.961869835853576660e-01
1.988000000000000000e+03 7.378600311279296875e+01 -1.542419910430908203e+01 6.846080422401428223e-01 1.000309753417968750e+01 3.206311464309692383e+00 -1.367059946060180664e+00
1.989000000000000000e+03 7.453311157226562500e+01 8.881366252899169922e-01 -7.490863800048828125e-01 8.411488533020019531e+00 2.298720598220825195e+00 1.110690608620643616e-01
1.990000000000000000e+03 7.523335266113281250e+01 2.550570869445800781e+01 4.365775361657142639e-02 6.290741443634033203e+00 1.900319814682006836e+00 -2.504642903804779053e-01
1.991000000000000000e+03 7.329340362548828125e+01 -7.772599220275878906e+00 9.804954528808593750e-01 1.044521331787109375e+01 3.427712440490722656e+00 1.350277185440063477e+00
1.992000000000000000e+03 7.423404693603515625e+01 2.634690284729003906e+01 6.598903983831405640e-02 6.106100082397460938e+00 1.851626753807067871e+00 -2.784550487995147705e-01
1.993000000000000000e+03 7.419139099121093750e+01 1.066527080535888672e+01 -1.366090960800647736e-02 7.018051147460937500e+00 2.101316928863525391e+00 -5.934481620788574219e-01
1.994000000000000000e+03 7.250357055664062500e+01 -1.269606494903564453e+01 2.230289936065673828e+00 1.125090026855468750e+01 4.044357299804687500e+00 -5.645487904548645020e-01
1.995000000000000000e+03 7.456412506103515625e+01 -1.435957527160644531e+01 9.157463312149047852e-01 9.112973213195800781e+00 3.008615970611572266e+00 -1.194999814033508301e+00
1.996000000000000000e+03 7.538126373291015625e+01 -1.181633758544921875e+01 1.204170227050781250e+00 8.313741683959960938e+00 2.855373620986938477e+00 -8.412896096706390381e-02
1.997000000000000000e+03 6.972480010986328125e+01 -3.597273826599121094e+00 -2.140999317169189453e+00 1.010209751129150391e+01 2.388329505920410156e+00 -1.424476623535156250e+00
1.998000000000000000e+03 7.176326751708984375e+01 -5.409474849700927734e+00 -6.002066731452941895e-01 1.104391860961914062e+01 3.133113622665405273e+00 9.264079332351684570e-01
1.999000000000000000e+03 7.418633270263671875e+01 -4.935255527496337891e+00 -3.031708300113677979e-01 9.328122138977050781e+00 2.707485437393188477e+00 1.390220403671264648e+00
2.000000000000000000e+03 7.462677001953125000e+01 -1.690300559997558594e+01 1.858377605676651001e-01 9.186632156372070312e+00 2.811740875244140625e+00 -1.609934449195861816e+00
2.001000000000000000e+03 7.518410491943359375e+01 -1.914686203002929688e+01 -2.137885987758636475e-01 8.829728126525878906e+00 2.584781646728515625e+00 -1.464070081710815430e+00
2.002000000000000000e+03 7.441230773925781250e+01 1.598944091796875000e+01 8.032631129026412964e-02 6.686073303222656250e+00 2.029919862747192383e+00 -5.023328661918640137e-01
2.003000000000000000e+03 7.372640228271484375e+01 2.975359153747558594e+01 6.038044393062591553e-02 5.907643795013427734e+00 1.790407299995422363e+00 -2.274143993854522705e-01
2.004000000000000000e+03 7.450500488281250000e+01 -2.507399940490722656e+01 -5.122445821762084961e-01 8.784121513366699219e+00 2.481563091278076172e+00 -6.876847743988037109e-01
2.005000000000000000e+03 7.462432861328125000e+01 -2.878154039382934570e+00 -6.786913871765136719e-01 8.931339263916015625e+00 2.475794315338134766e+00 1.086851716041564941e+00
2.006000000000000000e+03 7.455688476562500000e+01 -2.621434593200683594e+01 -4.020933508872985840e-01 8.708580970764160156e+00 2.491946458816528320e+00 -5.816844105720520020e-01
2.007000000000000000e+03 7.408531188964843750e+01 6.620065212249755859e+00 -2.390020191669464111e-01 7.407543659210205078e+00 2.150562524795532227e+00 -5.664564371109008789e-01
2.008000000000000000e+03 7.073988342285156250e+01 3.476899719238281250e+01 1.111662760376930237e-01 5.358650684356689453e+00 1.640945076942443848e+00 -1.866338104009628296e-01
2.009000000000000000e+03 7.410256195068359375e+01 1.360396003723144531e+01 5.542200431227684021e-02 6.757256031036376953e+00 2.043803453445434570e+00 -5.807988047599792480e-01
2.010000000000000000e+03 7.440950775146484375e+01 -3.379239273071289062e+01 -1.458974629640579224e-01 8.539495468139648438e+00 2.518079519271850586e+00 -4.940864443778991699e-02
2.011000000000000000e+03 7.423306274414062500e+01 -2.753189277648925781e+01 -4.049969017505645752e-01 8.618240356445312500e+00 2.463973045349121094e+00 -4.222957491874694824e-01
2.012000000000000000e+03 7.422341156005859375e+01 3.153572273254394531e+01 5.139438807964324951e-02 5.936753749847412109e+00 1.796444416046142578e+00 -1.706426292657852173e-01
2.013000000000000000e+03 6.179028987884521484e+00 3.080031967163085938e+01 1.553048100322484970e-02 -6.902943849563598633e-01 -2.024291604757308960e-01 7.489798963069915771e-02
2.014000000000000000e+03 5.846671581268310547e+00 -2.812246131896972656e+01 -3.487353026866912842e-01 2.472826242446899414e-01 -3.043580055236816406e-02 6.822171211242675781e-01
2.015000000000000000e+03 4.286521911621093750e+00 -2.533805274963378906e+01 -2.704613804817199707e-01 -4.454179406166076660e-01 -2.147638052701950073e-01 9.051429033279418945e-01
2.016000000000000000e+03 5.140591621398925781e+00 -9.889067649841308594e+00 4.620632529258728027e-01 8.836322426795959473e-01 4.037086665630340576e-01 -1.871898412704467773e+00
2.017000000000000000e+03 5.895083236694335938e+01 -5.178708076477050781e+00 -1.880909562110900879e+00 1.730248518288135529e-02 -5.590821504592895508e-01 -4.867105185985565186e-01
2.018000000000000000e+03 5.622830200195312500e+01 -7.415045738220214844e+00 -2.169075727462768555e+00 -1.681800372898578644e-02 -6.557681560516357422e-01 -5.132800936698913574e-01
2.019000000000000000e+03 5.613646030426025391e+00 -2.179255294799804688e+01 -2.718082964420318604e-01 7.984759211540222168e-01 1.580002903938293457e-01 1.104333877563476562e+00
2.020000000000000000e+03 6.894561767578125000e+00 2.424768066406250000e+01 2.564439177513122559e-02 -5.531949400901794434e-01 -1.582651585340499878e-01 1.035082861781120300e-01
2.021000000000000000e+03 5.991216659545898438e+00 2.339515686035156250e+01 2.733097411692142487e-02 -6.065220236778259277e-01 -1.737573146820068359e-01 9.354688972234725952e-02
2.022000000000000000e+03 6.041407585144042969e+00 -1.965859794616699219e+01 3.755943616852164268e-03 1.636034250259399414e+00 4.919370412826538086e-01 1.090337038040161133e+00
2.023000000000000000e+03 4.828885078430175781e+00 -1.597787857055664062e+01 1.126055359840393066e+00 2.420948296785354614e-01 4.104450345039367676e-01 6.756470203399658203e-01
2.024000000000000000e+03 4.356073379516601562e+00 -1.691258239746093750e+01 7.687348127365112305e-01 -5.521723628044128418e-01 6.496873497962951660e-02 1.002565145492553711e+00
2.025000000000000000e+03 4.445899009704589844e+00 -1.826056861877441406e+01 3.400126993656158447e-01 -2.789693176746368408e-01 1.831301115453243256e-02 1.168906569480895996e+00
2.026000000000000000e+03 6.911522388458251953e+00 -1.787489128112792969e+01 7.581130862236022949e-01 3.406207561492919922e+00 1.249296188354492188e+00 7.143433690071105957e-01
2.027000000000000000e+03 6.577873706817626953e+00 1.769641685485839844e+01 1.142337471246719360e-01 -4.874049425125122070e-01 -1.119513586163520813e-01 2.046644389629364014e-01
2.028000000000000000e+03 1.014382457733154297e+01 1.629685401916503906e+01 2.648490369319915771e-01 -2.290381789207458496e-01 1.074325665831565857e-02 2.743392586708068848e-01
2.029000000000000000e+03 8.888015747070312500e+00 1.633036613464355469e+01 2.108728587627410889e-01 -3.161281943321228027e-01 -3.157660365104675293e-02 2.649366855621337891e-01
2.030000000000000000e+03 5.448748111724853516e+00 1.802399253845214844e+01 8.005344122648239136e-02 -5.661088824272155762e-01 -1.458166390657424927e-01 1.690663695335388184e-01
2.031000000000000000e+03 8.166164398193359375e+00 -2.620285987854003906e+01 -4.516565203666687012e-01 1.238476037979125977e+00 2.360458374023437500e-01 4.524126350879669189e-01
2.032000000000000000e+03 6.079426288604736328e+00 2.667482566833496094e+01 1.020727213472127914e-02 -6.521943807601928711e-01 -1.925961226224899292e-01 7.982297241687774658e-02
2.033000000000000000e+03 9.398119926452636719e+00 -2.340591239929199219e+01 -3.447080850601196289e-01 2.424050807952880859e+00 6.238028407096862793e-01 -1.625961251556873322e-02
2.034000000000000000e+03 3.879567146301269531e+00 -1.265471076965332031e+01 1.325577259063720703e+00 -1.225101947784423828e+00 3.014259226620197296e-02 -1.053304433822631836e+00
2.035000000000000000e+03 6.869487285614013672e+00 -1.110492515563964844e+01 1.261838316917419434e+00 3.301163911819458008e+00 1.368900656700134277e+00 -1.696344852447509766e+00
2.036000000000000000e+03 5.452476501464843750e+00 1.424672126770019531e+01 8.451604098081588745e-02 -4.702669680118560791e-01 -1.157252714037895203e-01 2.749102711677551270e-01
2.037000000000000000e+03 4.600613117218017578e+00 -1.974379348754882812e+01 2.630678191781044006e-02 -1.112704500555992126e-01 -2.548910118639469147e-02 1.285617113113403320e+00
2.038000000000000000e+03 6.249210357666015625e+00 2.178888893127441406e+01 5.654669180512428284e-02 -5.516649484634399414e-01 -1.485354751348495483e-01 1.201334893703460693e-01
2.039000000000000000e+03 5.710715293884277344e+00 1.930365562438964844e+01 7.412685453891754150e-02 -5.703645348548889160e-01 -1.488712877035140991e-01 1.469214856624603271e-01
2.040000000000000000e+03 4.621677398681640625e+00 -3.131429290771484375e+01 -1.760761141777038574e-01 -1.337157785892486572e-01 -9.293756633996963501e-02 4.634013473987579346e-01
2.041000000000000000e+03 1.179009342193603516e+01 -3.229572677612304688e+01 -3.620526194572448730e-01 1.049451112747192383e+00 2.062195390462875366e-01 8.141282200813293457e-02
2.042000000000000000e+03 6.189885616302490234e+00 2.798063278198242188e+01 1.073566079139709473e-02 -6.617014408111572266e-01 -1.952897310256958008e-01 8.071636408567428589e-02
2.043000000000000000e+03 5.423001766204833984e+00 -2.536258888244628906e+01 -3.843602538108825684e-01 2.215767502784729004e-01 -4.883505403995513916e-02 8.916637301445007324e-01
2.044000000000000000e+03 4.179998874664306641e+00 1.009242057800292969e+01 -8.133986964821815491e-03 -3.345463871955871582e-01 -1.028041094541549683e-01 2.731223702430725098e-01
2.045000000000000000e+03 6.082741737365722656e+00 1.176725482940673828e+01 4.093187674880027771e-02 -3.561626076698303223e-01 -9.456922113895416260e-02 3.481673598289489746e-01
2.046000000000000000e+03 5.307654857635498047e+00 -1.269335174560546875e+01 2.135982275009155273e+00 9.797833561897277832e-01 9.347296953201293945e-01 -1.112737059593200684e+00
2.047000000000000000e+03 4.455061912536621094e+00 -1.185836982727050781e+01 1.011703968048095703e+00 -4.218525886535644531e-01 1.769554018974304199e-01 -1.494841456413269043e+00
2.048000000000000000e+03 3.843030929565429688e+01 1.395369052886962891e+01 4.891979694366455078e-01 1.237663507461547852e+00 5.180584192276000977e-01 6.177355051040649414e-01
2.049000000000000000e+03 3.793261337280273438e+01 1.013715457916259766e+01 1.961524933576583862e-01 1.104552149772644043e+00 3.902113735675811768e-01 7.021498680114746094e-01
2.050000000000000000e+03 5.154161930084228516e+00 8.519138336181640625e+00 -5.465037375688552856e-02 -2.378886938095092773e-01 -8.776172250509262085e-02 3.043856024742126465e-01
2.051000000000000000e+03 3.854796648025512695e+00 7.732069015502929688e+00 -4.888482764363288879e-02 -2.215584069490432739e-01 -8.113297075033187866e-02 2.277726083993911743e-01
2.052000000000000000e+03 5.434050369262695312e+01 -7.211995124816894531e+00 -1.815471291542053223e+00 9.339808672666549683e-02 -5.166219472885131836e-01 -3.209868073463439941e-01
2.053000000000000000e+03 5.488682937622070312e+01 1.208831548690795898e+00 -5.230347439646720886e-02 6.511859297752380371e-01 1.796647459268569946e-01 9.151011705398559570e-02
2.054000000000000000e+03 5.095693588256835938e+00 -7.503482341766357422e+00 -3.437393605709075928e-01 4.797505140304565430e-01 4.080334678292274475e-02 -1.774041056632995605e+00
2.055000000000000000e+03 4.003582954406738281e+00 -7.245697021484375000e+00 -2.990401387214660645e-01 -4.172180891036987305e-01 -2.148774713277816772e-01 -1.744984865188598633e+00
2.056000000000000000e+03 5.162147521972656250e+00 -6.413591861724853516e+00 -5.832759737968444824e-01 3.743099868297576904e-01 -6.268980354070663452e-02 -1.617303490638732910e+00
2.057000000000000000e+03 5.353006839752197266e+00 3.460366439819335938e+01 1.605876348912715912e-02 -8.057950139045715332e-01 -2.369208633899688721e-01 3.556301444768905640e-02
2.058000000000000000e+03 5.079947471618652344e+00 -8.640476226806640625e+00 -1.446511894464492798e-01 5.083485841751098633e-01 1.091092228889465332e-01 -1.903566718101501465e+00
2.059000000000000000e+03 6.190425872802734375e+00 -7.717896938323974609e+00 -4.725779891014099121e-01 1.291820645332336426e+00 2.457728087902069092e-01 -1.613599419593811035e+00
2.060000000000000000e+03 1.064059162139892578e+01 -3.055172538757324219e+01 -3.840609788894653320e-01 1.080802321434020996e+00 2.090224027633666992e-01 1.607723832130432129e-01
2.061000000000000000e+03 1.336189651489257812e+01 -2.800582122802734375e+01 -1.251314431428909302e-01 1.559146642684936523e+00 4.302045702934265137e-01 -3.390004634857177734e-01
2.062000000000000000e+03 5.832167434692382812e+01 -1.323854684829711914e+00 -5.222784280776977539e-01 6.426920890808105469e-01 3.612408414483070374e-02 -3.716802597045898438e-01
2.063000000000000000e+03 5.966983413696289062e+01 -4.369246006011962891e+00 -1.515179514884948730e+00 1.669800281524658203e-01 -4.044598340988159180e-01 -4.533767104148864746e-01
2.064000000000000000e+03 6.024055862426757812e+01 -3.210919570922851562e+01 8.638608269393444061e-03 2.082134246826171875e+00 6.272318363189697266e-01 4.821158647537231445e-01
2.065000000000000000e+03 1.013111209869384766e+01 -2.238379096984863281e+01 -7.396832108497619629e-02 2.824092864990234375e+00 8.250373601913452148e-01 -4.938902854919433594e-01
2.066000000000000000e+03 6.026602268218994141e+00 -1.187050437927246094e+01 1.646817088127136230e+00 1.852498412132263184e+00 1.049794673919677734e+00 -1.553114056587219238e+00
2.067000000000000000e+03 3.012017250061035156e+01 9.653274536132812500e+00 1.675463467836380005e-01 7.469530701637268066e-01 2.743498086929321289e-01 8.281611204147338867e-01
2.068000000000000000e+03 2.841398811340332031e+01 1.306368255615234375e+01 -2.189679145812988281e-01 6.480405330657958984e-01 1.287217736244201660e-01 5.916265845298767090e-01
2.069000000000000000e+03 2.929451560974121094e+01 7.215445518493652344e+00 2.974092364311218262e-01 7.950501441955566406e-01 3.277378082275390625e-01 6.864926815032958984e-01
2.070000000000000000e+03 4.044434356689453125e+01 9.251317977905273438e+00 5.383838713169097900e-02 1.251258850097656250e+00 3.915291428565979004e-01 5.129435062408447266e-01
2.071000000000000000e+03 4.044985580444335938e+01 8.037176132202148438e+00 -5.362169444561004639e-02 1.123015046119689941e+00 3.208180069923400879e-01 4.328380823135375977e-01
2.072000000000000000e+03 6.359222793579101562e+01 -2.651594352722167969e+01 -5.102336406707763672e-01 3.757945299148559570e+00 9.743134975433349609e-01 8.009263873100280762e-01
2.073000000000000000e+03 6.693296813964843750e+01 -2.443129158020019531e+01 -7.974872589111328125e-01 6.447358131408691406e+00 1.694961190223693848e+00 8.057712912559509277e-01
2.074000000000000000e+03 7.907895565032958984e+00 -2.334065628051757812e+01 -3.978947401046752930e-01 1.857145667076110840e+00 4.377752840518951416e-01 4.432505369186401367e-01
2.075000000000000000e+03 1.276057529449462891e+01 1.764676094055175781e+01 2.842497229576110840e-01 3.950292244553565979e-02 9.712579101324081421e-02 2.167008221149444580e-01
2.076000000000000000e+03 4.645876312255859375e+01 2.639260530471801758e+00 8.936331421136856079e-02 1.697110086679458618e-01 7.772229611873626709e-02 2.162240296602249146e-01
2.077000000000000000e+03 5.010776138305664062e+01 1.762085795402526855e+00 6.674759835004806519e-02 2.239094376564025879e-01 8.719711005687713623e-02 3.017490208148956299e-01
2.078000000000000000e+03 6.159726715087890625e+01 -2.695425224304199219e+01 -4.145651161670684814e-01 2.319937705993652344e+00 5.716117620468139648e-01 5.952442288398742676e-01
2.079000000000000000e+03 6.437921905517578125e+01 -2.849115371704101562e+01 -4.669922888278961182e-01 4.345225334167480469e+00 1.163469910621643066e+00 6.623883843421936035e-01
2.080000000000000000e+03 1.011036109924316406e+01 -8.348089218139648438e+00 -3.140580356121063232e-01 3.083161592483520508e+00 8.307310938835144043e-01 9.061887264251708984e-01
2.081000000000000000e+03 2.915962600708007812e+01 1.620901489257812500e+01 -1.041201949119567871e-01 5.582982301712036133e-01 1.362534016370773315e-01 3.601295351982116699e-01
2.082000000000000000e+03 6.098202133178710938e+01 -2.960385894775390625e+01 -2.570359706878662109e-01 2.210848331451416016e+00 5.861436724662780762e-01 5.740775465965270996e-01
2.083000000000000000e+03 6.947821044921875000e+01 -1.901997375488281250e+01 -3.853251934051513672e-01 9.967670440673828125e+00 2.874703645706176758e+00 2.286726832389831543e-01
2.084000000000000000e+03 3.671384429931640625e+01 1.489128589630126953e+01 3.891900181770324707e-01 1.098429679870605469e+00 4.462859034538269043e-01 5.709754824638366699e-01
2.085000000000000000e+03 1.827025413513183594e+01 2.103625679016113281e+01 1.155354380607604980e-01 1.286197453737258911e-01 7.324655354022979736e-02 5.035852789878845215e-01
2.086000000000000000e+03 7.680579662322998047e+00 -2.197792434692382812e+01 -3.893587291240692139e-01 2.139317989349365234e+00 5.249878168106079102e-01 4.603339135646820068e-01
2.087000000000000000e+03 3.413210296630859375e+01 -1.363804912567138672e+01 -1.047749161720275879e+00 -1.710028573870658875e-02 -3.194548487663269043e-01 -5.063910484313964844e-01
2.088000000000000000e+03 7.126127624511718750e+01 -1.737322235107421875e+01 -1.175019517540931702e-01 1.115485191345214844e+01 3.311205148696899414e+00 -8.082175850868225098e-01
2.089000000000000000e+03 7.032820129394531250e+01 -1.811697387695312500e+01 -1.225664690136909485e-01 1.088228416442871094e+01 3.227915287017822266e+00 5.140974000096321106e-02
2.090000000000000000e+03 1.353524017333984375e+01 -2.940067863464355469e+01 -2.049793154001235962e-01 1.386986970901489258e+00 3.546022772789001465e-01 -2.633036971092224121e-01
2.091000000000000000e+03 3.907385635375976562e+01 1.716595840454101562e+01 5.063912272453308105e-01 1.355427742004394531e+00 5.585457086563110352e-01 3.880573511123657227e-01
2.092000000000000000e+03 7.476151466369628906e+00 1.929497146606445312e+01 1.143503636121749878e-01 -4.418225288391113281e-01 -9.824164956808090210e-02 1.705554425716400146e-01
2.093000000000000000e+03 4.668502807617187500e+01 -1.121086120605468750e+01 -1.369810223579406738e+00 5.154461786150932312e-02 -3.954796791076660156e-01 -3.640108108520507812e-01
2.094000000000000000e+03 4.020591735839843750e+01 1.921894645690917969e+01 3.716181516647338867e-01 1.468409538269042969e+00 5.520082712173461914e-01 3.653876781463623047e-01
2.095000000000000000e+03 4.198371505737304688e+01 7.205613613128662109e+00 -7.146862149238586426e-02 8.795303702354431152e-01 2.424185276031494141e-01 1.980599611997604370e-01
2.096000000000000000e+03 4.148254013061523438e+01 5.379243850708007812e+00 -6.086554005742073059e-02 7.178293466567993164e-01 1.970891505479812622e-01 2.851656973361968994e-01
2.097000000000000000e+03 4.550420761108398438e+01 -1.170127010345458984e+01 -1.319901943206787109e+00 4.432879760861396790e-02 -3.826719224452972412e-01 -3.617095351219177246e-01
2.098000000000000000e+03 5.366306304931640625e+01 2.109171295166015625e+01 5.358741283416748047e-01 1.820955753326416016e+00 7.070489525794982910e-01 -7.212987542152404785e-01
2.099000000000000000e+03 4.261708068847656250e+01 -4.121882247924804688e+01 3.323843181133270264e-01 -2.643117904663085938e-01 2.042176388204097748e-02 -3.846861049532890320e-02
2.100000000000000000e+03 5.241533660888671875e+01 -4.137545776367187500e+01 6.888703703880310059e-01 1.920809000730514526e-01 2.642853856086730957e-01 -1.596981310285627842e-03
2.101000000000000000e+03 6.953211975097656250e+01 -2.112154960632324219e+01 -7.822661995887756348e-01 8.924070358276367188e+00 2.442541122436523438e+00 1.194005310535430908e-01
2.102000000000000000e+03 7.165316772460937500e+01 -2.008748626708984375e+01 -5.145026445388793945e-01 9.746522903442382812e+00 2.769606113433837891e+00 -6.823122501373291016e-01
2.103000000000000000e+03 7.232516479492187500e+01 -1.681600379943847656e+01 3.130843639373779297e-01 1.043233203887939453e+01 3.223624944686889648e+00 -1.169657468795776367e+00
2.104000000000000000e+03 6.125712966918945312e+01 1.095823574066162109e+01 5.242492556571960449e-01 3.497161149978637695e+00 1.206423163414001465e+00 -8.630250096321105957e-01
2.105000000000000000e+03 6.020857620239257812e+01 1.349858379364013672e+01 6.716197729110717773e-01 3.455126285552978516e+00 1.238023757934570312e+00 -7.294183373451232910e-01
2.106000000000000000e+03 2.904718399047851562e+01 1.944090652465820312e+01 9.781192988157272339e-02 4.234373569488525391e-01 1.563747823238372803e-01 2.413167655467987061e-01
2.107000000000000000e+03 2.671491241455078125e+01 1.912808418273925781e+01 8.808063715696334839e-02 1.630270481109619141e-01 7.533230632543563843e-02 2.330600470304489136e-01
2.108000000000000000e+03 7.214870452880859375e+01 4.077001571655273438e+01 9.925371408462524414e-02 5.541398525238037109e+00 1.692195653915405273e+00 -3.009551763534545898e-02
2.109000000000000000e+03 2.556417655944824219e+01 1.955373954772949219e+01 1.241071745753288269e-01 3.557064756751060486e-02 4.790334776043891907e-02 2.547969222068786621e-01
2.110000000000000000e+03 2.508932876586914062e+01 2.129385757446289062e+01 2.199491411447525024e-01 4.965573549270629883e-02 8.088146150112152100e-02 2.942927777767181396e-01
2.111000000000000000e+03 2.508961296081542969e+01 -8.436305046081542969e+00 4.730762243270874023e-01 3.404659271240234375e+00 1.163320660591125488e+00 1.770130753517150879e+00
2.112000000000000000e+03 2.454873847961425781e+01 -6.528045177459716797e+00 -4.800683856010437012e-01 2.323058128356933594e+00 5.528969168663024902e-01 7.407729625701904297e-01
2.113000000000000000e+03 2.444052696228027344e+01 -7.822046756744384766e+00 -2.267164438962936401e-01 3.156958580017089844e+00 8.790726065635681152e-01 9.711089730262756348e-01
2.114000000000000000e+03 2.460418891906738281e+01 -5.938562393188476562e+00 -5.507560968399047852e-01 2.095035552978515625e+00 4.632838666439056396e-01 7.047772407531738281e-01
2.115000000000000000e+03 2.727927017211914062e+01 -9.873464584350585938e+00 2.430506706237792969e+00 8.492804765701293945e-01 9.839361906051635742e-01 1.402786135673522949e+00
2.116000000000000000e+03 2.485808563232421875e+01 -5.130191802978515625e+00 -5.979881286621093750e-01 1.893410921096801758e+00 3.886268436908721924e-01 7.317137122154235840e-01
2.117000000000000000e+03 2.056453323364257812e+01 -1.111227035522460938e+01 3.554637908935546875e+00 -2.306570768356323242e+00 3.744201660156250000e-01 7.941947579383850098e-01
2.118000000000000000e+03 2.503605842590332031e+01 -4.313447952270507812e+00 -6.281492710113525391e-01 1.707176804542541504e+00 3.237082660198211670e-01 7.126936912536621094e-01
2.119000000000000000e+03 5.311944484710693359e+00 5.843689441680908203e+00 -1.125454157590866089e-01 -1.388362050056457520e-01 -7.541448622941970825e-02 2.364098280668258667e-01
2.120000000000000000e+03 1.961285972595214844e+01 -1.119489574432373047e+01 2.507677316665649414e+00 -2.615173816680908203e+00 -3.224892541766166687e-02 1.133297443389892578e+00
2.121000000000000000e+03 1.990915679931640625e+01 -1.077221965789794922e+01 2.701977252960205078e+00 -2.403988838195800781e+00 8.939649164676666260e-02 7.344182729721069336e-01
2.122000000000000000e+03 7.456971645355224609e+00 5.525149345397949219e+00 -2.051035165786743164e-01 -1.034397855401039124e-01 -9.256298840045928955e-02 2.887268960475921631e-01
2.123000000000000000e+03 9.915629386901855469e+00 4.897817611694335938e+00 -3.374297022819519043e-01 -1.023509353399276733e-01 -1.319341957569122314e-01 3.012621104717254639e-01
2.124000000000000000e+03 4.760206222534179688e+00 5.479716777801513672e+00 -1.008911877870559692e-01 -1.203993931412696838e-01 -6.638717651367187500e-02 2.015088498592376709e-01
2.125000000000000000e+03 7.014266490936279297e+00 6.563099861145019531e+00 -1.657531410455703735e-01 -1.282287389039993286e-01 -8.819456398487091064e-02 3.169596195220947266e-01
2.126000000000000000e+03 2.754260444641113281e+01 -1.141001605987548828e+01 2.261904954910278320e+00 2.601898908615112305e-01 7.566284537315368652e-01 -3.005657345056533813e-02
2.127000000000000000e+03 2.700197219848632812e+01 -9.056663513183593750e+00 1.909376382827758789e+00 1.367721557617187500e+00 9.831293821334838867e-01 1.796555519104003906e+00
2.128000000000000000e+03 2.532235717773437500e+01 -4.735723495483398438e+00 -5.745689272880554199e-01 1.822937369346618652e+00 3.745105266571044922e-01 8.154546022415161133e-01
2.129000000000000000e+03 1.095370960235595703e+01 -5.059279918670654297e+00 -1.135421872138977051e+00 1.105921506881713867e+00 -8.850087411701679230e-03 5.540229082107543945e-01
2.130000000000000000e+03 1.008413410186767578e+01 -6.841468811035156250e+00 -8.144312500953674316e-01 2.106960773468017578e+00 3.877588510513305664e-01 4.970361292362213135e-01
2.131000000000000000e+03 1.187370395660400391e+01 6.563545703887939453e+00 -3.833372890949249268e-01 -1.561805605888366699e-01 -1.618553549051284790e-01 3.718126118183135986e-01
2.132000000000000000e+03 6.116527557373046875e+00 -6.659783363342285156e+00 -6.596576571464538574e-01 1.045798659324645996e+00 1.158423200249671936e-01 -1.471143960952758789e+00
2.133000000000000000e+03 1.717364501953125000e+01 -1.000056648254394531e+01 1.275292038917541504e+00 -2.038901805877685547e+00 -2.290829122066497803e-01 1.248903632164001465e+00
2.134000000000000000e+03 1.421215343475341797e+01 -7.305350303649902344e+00 3.644240200519561768e-01 -7.482374459505081177e-02 8.688008785247802734e-02 1.476337432861328125e+00
2.135000000000000000e+03 1.334392547607421875e+01 -7.275427341461181641e+00 1.664690077304840088e-01 3.087014257907867432e-01 1.425511240959167480e-01 1.534842967987060547e+00
2.136000000000000000e+03 8.879847526550292969e+00 -4.493289947509765625e+00 -1.333009719848632812e+00 1.158654570579528809e+00 -5.230654403567314148e-02 -2.845366597175598145e-01
2.137000000000000000e+03 8.022805213928222656e+00 -7.222738265991210938e+00 -8.218513131141662598e-01 2.362629890441894531e+00 4.622336030006408691e-01 -7.580804228782653809e-01
2.138000000000000000e+03 6.969920158386230469e+00 -6.039800167083740234e+00 -8.618758916854858398e-01 1.248615622520446777e+00 1.160219088196754456e-01 -1.147150874137878418e+00
2.139000000000000000e+03 6.466308593750000000e+00 -5.127279281616210938e+00 -9.399139285087585449e-01 7.434019446372985840e-01 -5.895359441637992859e-02 -1.183310151100158691e+00
2.140000000000000000e+03 9.390929222106933594e+00 -5.972339153289794922e+00 -1.099291205406188965e+00 1.876873373985290527e+00 2.332746535539627075e-01 -5.780012160539627075e-02
2.141000000000000000e+03 2.330457496643066406e+01 -2.340137481689453125e+00 -6.643204092979431152e-01 1.014592528343200684e+00 1.050816327333450317e-01 3.998104333877563477e-01
2.142000000000000000e+03 2.930847358703613281e+01 -1.367476272583007812e+01 -5.150066614151000977e-01 9.247494488954544067e-02 -1.267595142126083374e-01 -9.641878008842468262e-01
2.143000000000000000e+03 2.300901222229003906e+01 -1.599819660186767578e+00 -6.226412057876586914e-01 8.825026750564575195e-01 7.795843482017517090e-02 4.039090275764465332e-01
2.144000000000000000e+03 2.446229934692382812e+01 3.289811685681343079e-02 -5.472384691238403320e-01 1.092219233512878418e+00 1.634942293167114258e-01 5.006883144378662109e-01
2.145000000000000000e+03 2.374962806701660156e+01 -3.816263079643249512e-01 -5.802437067031860352e-01 9.766221046447753906e-01 1.189135089516639709e-01 4.535919129848480225e-01
2.146000000000000000e+03 2.485605239868164062e+01 1.201505303382873535e+00 -4.523335397243499756e-01 1.097743511199951172e+00 1.936229914426803589e-01 5.056350231170654297e-01
2.147000000000000000e+03 2.447877883911132812e+01 -3.273709535598754883e+00 -6.754769086837768555e-01 1.420528888702392578e+00 2.235155701637268066e-01 5.529749989509582520e-01
2.148000000000000000e+03 2.419626235961914062e+01 -2.675249338150024414e+00 -6.772814989089965820e-01 1.279110312461853027e+00 1.805486381053924561e-01 4.966516196727752686e-01
2.149000000000000000e+03 3.135394859313964844e+01 -1.304486083984375000e+01 -4.615951776504516602e-01 -1.111702024936676025e-01 -1.718296110630035400e-01 -6.427161693572998047e-01
2.150000000000000000e+03 8.422772407531738281e+00 9.883205413818359375e+00 -3.575241565704345703e-02 -2.103663086891174316e-01 -7.383561879396438599e-02 4.514399766921997070e-01
2.151000000000000000e+03 2.322289085388183594e+01 3.210730850696563721e-01 -5.176046490669250488e-01 8.570670485496520996e-01 1.018387079238891602e-01 4.540477395057678223e-01
2.152000000000000000e+03 7.062706756591796875e+01 -5.655241012573242188e+00 -9.093893170356750488e-01 1.226725673675537109e+01 3.407360315322875977e+00 6.815358400344848633e-01
2.153000000000000000e+03 6.914088439941406250e+01 -8.451163768768310547e-01 -1.474773168563842773e+00 7.618350028991699219e+00 1.843073129653930664e+00 -1.660285711288452148e+00
2.154000000000000000e+03 6.542555236816406250e+01 -2.194238185882568359e+00 -8.727387189865112305e-01 3.983390569686889648e+00 9.331955909729003906e-01 -2.840909242630004883e+00
2.155000000000000000e+03 1.174669456481933594e+01 5.660585403442382812e+00 -3.981615006923675537e-01 -1.922025233507156372e-01 -1.771091967821121216e-01 3.292671144008636475e-01
2.156000000000000000e+03 1.196933555603027344e+01 7.544478416442871094e+00 -3.143254816532135010e-01 -1.710424721240997314e-01 -1.456103920936584473e-01 4.335713684558868408e-01
2.157000000000000000e+03 9.357169151306152344e+00 9.582506179809570312e+00 -6.867239624261856079e-02 -1.746217012405395508e-01 -7.298822700977325439e-02 4.685848355293273926e-01
2.158000000000000000e+03 7.339990997314453125e+01 -8.936843872070312500e+00 1.712822675704956055e+00 9.994493484497070312e+00 3.512194633483886719e+00 1.204527854919433594e+00
2.159000000000000000e+03 7.286299896240234375e+01 -1.118242454528808594e+01 2.570454597473144531e+00 1.063162517547607422e+01 3.960623741149902344e+00 -1.167214587330818176e-01
2.160000000000000000e+03 2.976524925231933594e+01 1.077130603790283203e+01 5.154651030898094177e-02 7.839858531951904297e-01 2.506597042083740234e-01 7.830166816711425781e-01
2.161000000000000000e+03 2.962545394897460938e+01 1.285668468475341797e+01 -8.302097767591476440e-02 7.263595461845397949e-01 1.930015683174133301e-01 6.821447610855102539e-01
2.162000000000000000e+03 4.317783355712890625e+01 -1.273308658599853516e+01 -1.283169746398925781e+00 4.060256853699684143e-02 -3.727701604366302490e-01 -3.588578104972839355e-01
2.163000000000000000e+03 1.011451148986816406e+01 1.511338043212890625e+01 2.713412344455718994e-01 -2.274792194366455078e-01 1.315860636532306671e-02 3.200439512729644775e-01
2.164000000000000000e+03 4.899473953247070312e+01 -1.018268966674804688e+01 -1.487698435783386230e+00 5.835101380944252014e-02 -4.288042485713958740e-01 -3.692944943904876709e-01
2.165000000000000000e+03 2.186371994018554688e+01 5.245029330253601074e-01 -4.623540341854095459e-01 4.988374114036560059e-01 1.094501279294490814e-02 4.199420213699340820e-01
2.166000000000000000e+03 7.146679687500000000e+01 -2.336796188354492188e+01 -8.516172766685485840e-01 8.692669868469238281e+00 2.352315664291381836e+00 -5.042668581008911133e-01
2.167000000000000000e+03 3.043826675415039062e+01 7.604303359985351562e+00 2.264594435691833496e-01 8.231887817382812500e-01 3.148944675922393799e-01 7.381679415702819824e-01
2.168000000000000000e+03 3.130465126037597656e+01 -1.395464515686035156e+01 -1.070111393928527832e+00 -5.243812687695026398e-03 -3.226065933704376221e-01 -7.394568324089050293e-01
2.169000000000000000e+03 2.804673767089843750e+01 -1.001223850250244141e+01 2.136044263839721680e+00 4.059909880161285400e-01 7.626106142997741699e-01 9.624407291412353516e-01
2.170000000000000000e+03 1.293697738647460938e+01 -8.108457565307617188e+00 3.017147183418273926e-01 6.472522616386413574e-01 2.846901118755340576e-01 1.647593259811401367e+00
2.171000000000000000e+03 1.214424610137939453e+01 -7.587844848632812500e+00 3.374991938471794128e-02 1.242744922637939453e+00 3.829484581947326660e-01 1.407456517219543457e+00
2.172000000000000000e+03 2.870926475524902344e+01 9.341732978820800781e+00 2.286710590124130249e-01 7.806973457336425781e-01 3.028105199337005615e-01 7.443411350250244141e-01
2.173000000000000000e+03 1.155629253387451172e+01 -8.341892242431640625e+00 9.393601119518280029e-02 1.851322531700134277e+00 5.835775732994079590e-01 1.609789729118347168e+00
2.174000000000000000e+03 1.260344123840332031e+01 1.907835197448730469e+01 1.908439099788665771e-01 2.258171513676643372e-02 6.402768939733505249e-02 2.052339166402816772e-01
2.175000000000000000e+03 2.252378845214843750e+01 -3.187843263149261475e-01 -5.473243594169616699e-01 6.934867501258850098e-01 4.384872689843177795e-02 4.116484224796295166e-01
2.176000000000000000e+03 8.596778869628906250e+00 -9.771703720092773438e+00 4.074187874794006348e-01 4.088320732116699219e+00 1.348721981048583984e+00 -6.398122906684875488e-01
2.177000000000000000e+03 5.682111358642578125e+01 4.346328735351562500e+00 2.465058118104934692e-01 1.447058558464050293e+00 5.080693364143371582e-01 -1.555227488279342651e-01
2.178000000000000000e+03 5.351893615722656250e+01 -6.315962791442871094e+00 -1.555773973464965820e+00 1.710220277309417725e-01 -4.154255688190460205e-01 -1.450358629226684570e-01
2.179000000000000000e+03 4.951167678833007812e+01 -8.657633781433105469e+00 -1.414770483970642090e+00 1.126518025994300842e-01 -3.906355798244476318e-01 -2.461225241422653198e-01
2.180000000000000000e+03 3.549767684936523438e+01 1.329375171661376953e+01 2.920200526714324951e-01 9.800867438316345215e-01 3.816320598125457764e-01 6.729372739791870117e-01
2.181000000000000000e+03 3.872603225708007812e+01 -1.307479667663574219e+01 -1.148927927017211914e+00 3.818830847740173340e-02 -3.332218825817108154e-01 -3.594654500484466553e-01
2.182000000000000000e+03 3.951339340209960938e+01 -1.252625274658203125e+01 -1.088721632957458496e+00 4.728750512003898621e-02 -3.124302327632904053e-01 -3.145354390144348145e-01
2.183000000000000000e+03 2.540765380859375000e+01 2.384454965591430664e+00 -3.227312266826629639e-01 1.132101297378540039e+00 2.428110092878341675e-01 4.946630895137786865e-01
2.184000000000000000e+03 4.505324554443359375e+01 1.820326328277587891e+00 -1.553537137806415558e-02 2.372271120548248291e-01 6.650751829147338867e-02 2.350136488676071167e-01
2.185000000000000000e+03 3.230783081054687500e+01 -1.304209232330322266e+01 -5.904353857040405273e-01 -7.662732154130935669e-02 -2.001188099384307861e-01 -5.701318979263305664e-01
2.186000000000000000e+03 3.768555068969726562e+01 -1.348198986053466797e+01 -1.188141584396362305e+00 2.845237962901592255e-02 -3.479067683219909668e-01 -3.873057961463928223e-01
2.187000000000000000e+03 5.261962127685546875e+01 2.460884094238281250e+00 1.324191838502883911e-01 4.829414486885070801e-01 1.846081912517547607e-01 2.823428511619567871e-01
2.188000000000000000e+03 5.121815490722656250e+01 -9.041521072387695312e+00 -1.634811758995056152e+00 6.551317870616912842e-02 -4.707895815372467041e-01 -3.683764338493347168e-01
2.189000000000000000e+03 7.057431697845458984e+00 1.177633762359619141e+01 5.271530523896217346e-02 -3.185416460037231445e-01 -7.974790036678314209e-02 3.855516016483306885e-01
2.190000000000000000e+03 9.008311271667480469e+00 6.412645816802978516e+00 -2.455062717199325562e-01 -1.157090291380882263e-01 -1.083645895123481750e-01 3.710438311100006104e-01
2.191000000000000000e+03 1.557602119445800781e+01 -8.989008903503417969e+00 1.061528801918029785e+00 -1.238584756851196289e+00 -5.311676859855651855e-02 1.450541615486145020e+00
2.192000000000000000e+03 8.575471878051757812e+00 -2.428899765014648438e+01 -4.221530854701995850e-01 1.772006750106811523e+00 4.049561023712158203e-01 3.246506154537200928e-01
2.193000000000000000e+03 1.333333969116210938e+01 -2.566016769409179688e+01 9.717921912670135498e-02 1.897688746452331543e+00 5.984603762626647949e-01 -6.593144536018371582e-01
2.194000000000000000e+03 6.565892791748046875e+01 -2.713769531250000000e+01 -6.692976951599121094e-01 5.178876399993896484e+00 1.352873682975769043e+00 7.295337319374084473e-01
2.195000000000000000e+03 2.695539855957031250e+01 3.875420331954956055e+00 -7.676599174737930298e-02 1.133192420005798340e+00 3.169279098510742188e-01 4.620799124240875244e-01
2.196000000000000000e+03 7.148692321777343750e+01 -2.798172569274902344e+01 -5.824974179267883301e-01 7.790447711944580078e+00 2.162384986877441406e+00 -1.221546977758407593e-01
2.197000000000000000e+03 6.924874877929687500e+01 -3.167201995849609375e+01 -3.601132035255432129e-01 6.479691505432128906e+00 1.835873603820800781e+00 2.728296518325805664e-01
2.198000000000000000e+03 7.211272430419921875e+01 -7.930259704589843750e+00 1.533112049102783203e+00 1.114277362823486328e+01 3.802765607833862305e+00 1.360139250755310059e+00
2.199000000000000000e+03 7.294273376464843750e+01 -5.176253795623779297e+00 -5.563924908638000488e-01 1.041894340515136719e+01 2.958765268325805664e+00 1.352341771125793457e+00
2.200000000000000000e+03 3.146900367736816406e+01 1.020235729217529297e+01 1.380178034305572510e-01 8.082392811775207520e-01 2.838771343231201172e-01 7.874499559402465820e-01
2.201000000000000000e+03 7.117073059082031250e+01 -3.254952621459960938e+01 -2.831219732761383057e-01 7.221262931823730469e+00 2.081442356109619141e+00 1.013207212090492249e-01
2.202000000000000000e+03 7.217114257812500000e+01 -2.109597015380859375e+01 -7.895717024803161621e-01 9.393865585327148438e+00 2.581288099288940430e+00 -8.697192072868347168e-01
2.203000000000000000e+03 7.533302307128906250e+00 2.932712364196777344e+01 1.587098650634288788e-02 -5.778014659881591797e-01 -1.685791462659835815e-01 8.966880291700363159e-02
2.204000000000000000e+03 9.260946273803710938e+00 3.269255065917968750e+01 2.799173258244991302e-02 -5.049467086791992188e-01 -1.430864930152893066e-01 9.513438493013381958e-02
2.205000000000000000e+03 7.075829315185546875e+01 1.644910240173339844e+01 1.872191727161407471e-01 5.811903953552246094e+00 1.799736976623535156e+00 -6.766908764839172363e-01
2.206000000000000000e+03 7.354905700683593750e+01 1.545971107482910156e+01 9.021811187267303467e-02 6.518033981323242188e+00 1.982475638389587402e+00 -5.605751872062683105e-01
2.207000000000000000e+03 7.158479309082031250e+01 2.510274124145507812e+01 1.271026581525802612e-01 5.701424121856689453e+00 1.748558044433593750e+00 -3.952428400516510010e-01
2.208000000000000000e+03 7.329145812988281250e+01 -2.261847257614135742e+00 -1.125382661819458008e+00 9.225746154785156250e+00 2.430109024047851562e+00 4.935427904129028320e-01
2.209000000000000000e+03 7.115723419189453125e+01 1.035964488983154297e+01 2.482799068093299866e-02 6.184391498565673828e+00 1.862765789031982422e+00 -8.386319279670715332e-01
2.210000000000000000e+03 7.300988006591796875e+01 8.460114479064941406e+00 -1.486909389495849609e-01 6.978599071502685547e+00 2.048972368240356445e+00 -7.142793536186218262e-01
2.211000000000000000e+03 7.484889221191406250e+01 -1.595182609558105469e+01 5.156520605087280273e-01 9.006670951843261719e+00 2.856696844100952148e+00 -1.315699219703674316e+00
2.212000000000000000e+03 7.294981384277343750e+01 -2.028633499145507812e+01 -4.797829091548919678e-01 9.415671348571777344e+00 2.680766582489013672e+00 -9.907844066619873047e-01
2.213000000000000000e+03 7.450492858886718750e+01 -8.951995849609375000e+00 1.159524440765380859e+00 9.206480979919433594e+00 3.109801769256591797e+00 9.477633833885192871e-01
2.214000000000000000e+03 7.104711151123046875e+01 3.910225868225097656e+00 -6.337309479713439941e-01 6.975650787353515625e+00 1.902575969696044922e+00 -9.214110374450683594e-01
2.215000000000000000e+03 7.442245483398437500e+01 -1.009818744659423828e+01 1.604931950569152832e+00 8.961738586425781250e+00 3.170001029968261719e+00 6.944075822830200195e-01
2.216000000000000000e+03 7.411009216308593750e+01 -1.944225907325744629e+00 -9.588699936866760254e-01 9.128646850585937500e+00 2.450933218002319336e+00 7.819451093673706055e-01
2.217000000000000000e+03 7.342203521728515625e+01 -1.361402893066406250e+01 1.752050399780273438e+00 1.041615962982177734e+01 3.650462865829467773e+00 -9.805024862289428711e-01
2.218000000000000000e+03 7.406703948974609375e+01 -1.272250556945800781e+01 1.581406116485595703e+00 9.578114509582519531e+00 3.347856044769287109e+00 -6.144832372665405273e-01
2.219000000000000000e+03 7.382255554199218750e+01 -8.219192624092102051e-01 -9.749928116798400879e-01 8.735576629638671875e+00 2.328175067901611328e+00 3.267739713191986084e-01
2.220000000000000000e+03 7.305155181884765625e+01 -1.102064490318298340e+00 -1.255668401718139648e+00 9.018156051635742188e+00 2.328746318817138672e+00 2.307817190885543823e-01
2.221000000000000000e+03 7.422499084472656250e+01 5.189827919006347656e+00 -3.473846018314361572e-01 7.618973731994628906e+00 2.181476593017578125e+00 -4.265910089015960693e-01
2.222000000000000000e+03 7.077455139160156250e+01 5.147708415985107422e+00 -4.833013117313385010e-01 6.658375740051269531e+00 1.852522253990173340e+00 -1.023959994316101074e+00
2.223000000000000000e+03 7.397532653808593750e+01 -2.061661911010742188e+01 -5.045713782310485840e-01 9.133934020996093750e+00 2.588808774948120117e+00 -1.269444584846496582e+00
2.224000000000000000e+03 7.400525665283203125e+01 1.211528015136718750e+01 2.341310493648052216e-02 6.855392456054687500e+00 2.063641786575317383e+00 -6.144939661026000977e-01
2.225000000000000000e+03 7.168939113616943359e+00 2.017478370666503906e+01 8.511205762624740601e-02 -4.675824046134948730e-01 -1.147411093115806580e-01 1.506301760673522949e-01
2.226000000000000000e+03 7.472847747802734375e+01 1.948357200622558594e+01 6.311969459056854248e-02 6.525528430938720703e+00 1.976594448089599609e+00 -4.108965098857879639e-01
2.227000000000000000e+03 7.226895141601562500e+01 2.744739341735839844e+01 1.001459285616874695e-01 5.736936569213867188e+00 1.751124739646911621e+00 -3.211371302604675293e-01
2.228000000000000000e+03 6.772003936767578125e+01 -2.569109916687011719e+01 -8.183120489120483398e-01 6.559081077575683594e+00 1.722230672836303711e+00 5.210405588150024414e-01
2.229000000000000000e+03 6.668406677246093750e+01 -2.658447647094726562e+01 -7.468859553337097168e-01 5.919610023498535156e+00 1.551817297935485840e+00 7.049784660339355469e-01
2.230000000000000000e+03 6.158902168273925781e+00 2.545878028869628906e+01 1.593410409986972809e-02 -6.255320906639099121e-01 -1.828794032335281372e-01 8.621101081371307373e-02
2.231000000000000000e+03 5.023566722869873047e+00 -1.106347084045410156e+01 9.689733982086181641e-01 6.922586560249328613e-01 4.983696043491363525e-01 -1.831899404525756836e+00
2.232000000000000000e+03 5.812468338012695312e+01 -5.952915668487548828e+00 -2.035715579986572266e+00 -1.482308562844991684e-02 -6.151615381240844727e-01 -4.157849848270416260e-01
2.233000000000000000e+03 5.708435821533203125e+01 -5.181267738342285156e+00 -1.698725342750549316e+00 1.391875296831130981e-01 -4.678613543510437012e-01 -2.582771480083465576e-01
2.234000000000000000e+03 7.337047100067138672e+00 -2.265655899047851562e+01 -3.941217958927154541e-01 1.732262253761291504e+00 4.014421403408050537e-01 5.527609586715698242e-01
2.235000000000000000e+03 6.347529411315917969e+00 -2.244802665710449219e+01 -3.534557819366455078e-01 1.388049125671386719e+00 3.103779852390289307e-01 9.129086732864379883e-01
2.236000000000000000e+03 5.706465244293212891e+00 -1.819138717651367188e+01 5.249098539352416992e-01 1.444814801216125488e+00 5.909174084663391113e-01 1.158567070960998535e+00
2.237000000000000000e+03 5.354011535644531250e+00 1.677060127258300781e+01 8.714862912893295288e-02 -5.460727810859680176e-01 -1.376772522926330566e-01 2.038552910089492798e-01
2.238000000000000000e+03 6.497986793518066406e+00 1.658301734924316406e+01 1.211198046803474426e-01 -4.710036516189575195e-01 -1.049651578068733215e-01 2.306389808654785156e-01
2.239000000000000000e+03 5.353073596954345703e+00 1.552379798889160156e+01 8.410959690809249878e-02 -5.102258324623107910e-01 -1.278348714113235474e-01 2.362228184938430786e-01
2.240000000000000000e+03 5.712091445922851562e+00 1.292831516265869141e+01 6.569757312536239624e-02 -4.024119675159454346e-01 -1.010143235325813293e-01 3.197163343429565430e-01
2.241000000000000000e+03 6.831699848175048828e+00 2.100716018676757812e+01 7.105389237403869629e-02 -5.115042328834533691e-01 -1.321350932121276855e-01 1.337203532457351685e-01
2.242000000000000000e+03 6.150747776031494141e+00 -8.796950340270996094e+00 -1.157780736684799194e-01 1.646987199783325195e+00 4.593627452850341797e-01 -1.689347147941589355e+00
2.243000000000000000e+03 6.486261367797851562e+00 1.544589042663574219e+01 1.207829937338829041e-01 -4.529866874217987061e-01 -9.966111183166503906e-02 2.714090943336486816e-01
2.244000000000000000e+03 7.765504837036132812e+00 -2.085110092163085938e+01 -2.169501930475234985e-01 2.907611608505249023e+00 8.071984052658081055e-01 4.517936110496520996e-01
2.245000000000000000e+03 4.435850524902343750e+01 3.110694408416748047e+00 4.195022955536842346e-02 2.944705188274383545e-01 1.009262204170227051e-01 2.024604678153991699e-01
2.246000000000000000e+03 4.839811325073242188e+01 1.544128775596618652e+00 2.234698459506034851e-02 1.585740447044372559e-01 5.427630990743637085e-02 2.762894630432128906e-01
2.247000000000000000e+03 7.415698051452636719e+00 -2.961736869812011719e+01 -3.746189177036285400e-01 6.292904615402221680e-01 7.640146464109420776e-02 5.036128759384155273e-01
2.248000000000000000e+03 7.725728988647460938e+00 -3.145355796813964844e+01 -3.334945440292358398e-01 5.312021374702453613e-01 5.931226909160614014e-02 3.997315168380737305e-01
2.249000000000000000e+03 7.509676933288574219e+00 2.793706130981445312e+01 8.570241741836071014e-03 -5.623065829277038574e-01 -1.661209017038345337e-01 9.557829052209854126e-02
2.250000000000000000e+03 5.905487442016601562e+01 -2.811758279800415039e+00 -9.249283671379089355e-01 4.423507452011108398e-01 -1.447732746601104736e-01 -4.309598207473754883e-01
2.251000000000000000e+03 5.784217453002929688e+01 -2.207271099090576172e+00 -6.709377765655517578e-01 4.304500520229339600e-01 -7.214631885290145874e-02 -2.387304604053497314e-01
2.252000000000000000e+03 5.247591018676757812e+00 1.004043197631835938e+01 -1.231196988373994827e-02 -3.039091229438781738e-01 -9.486632794141769409e-02 3.257867991924285889e-01
2.253000000000000000e+03 8.813355445861816406e+00 7.197730541229248047e+00 -2.020463198423385620e-01 -1.418552547693252563e-01 -1.031704694032669067e-01 3.872140347957611084e-01
2.254000000000000000e+03 3.453003311157226562e+01 -1.248327159881591797e+01 -7.035087347030639648e-01 -6.447106599807739258e-02 -2.303939461708068848e-01 -3.885833024978637695e-01
2.255000000000000000e+03 6.097002029418945312e+00 8.060287475585937500e+00 -8.785914629697799683e-02 -2.027339935302734375e-01 -8.717794716358184814e-02 3.388392329216003418e-01
2.256000000000000000e+03 5.778845214843750000e+01 5.650869369506835938e+00 2.879360914230346680e-01 1.953291177749633789e+00 6.723681688308715820e-01 -3.291286230087280273e-01
2.257000000000000000e+03 9.923819541931152344e+00 1.161465549468994141e+01 1.022394895553588867e-01 -2.164629846811294556e-01 -3.426704928278923035e-02 4.705851376056671143e-01
2.258000000000000000e+03 8.899669647216796875e+00 8.672011375427246094e+00 -1.317187696695327759e-01 -1.644617170095443726e-01 -8.885414898395538330e-02 4.441493749618530273e-01
2.259000000000000000e+03 6.161190509796142578e+00 9.940142631530761719e+00 -1.675554923713207245e-02 -2.780449092388153076e-01 -8.844014257192611694e-02 3.656458556652069092e-01
2.260000000000000000e+03 9.957929611206054688e+00 1.864166069030761719e+01 1.837047040462493896e-01 -2.347884029150009155e-01 -1.532511040568351746e-02 1.982639282941818237e-01
2.261000000000000000e+03 3.338584518432617188e+01 1.205709266662597656e+01 1.652940213680267334e-01 8.634607791900634766e-01 3.086264431476593018e-01 7.266868352890014648e-01
2.262000000000000000e+03 3.871863937377929688e+01 1.270271778106689453e+01 3.981707692146301270e-01 1.303112626075744629e+00 5.103850364685058594e-01 6.498964428901672363e-01
2.263000000000000000e+03 5.902279663085937500e+01 7.639277458190917969e+00 3.593355119228363037e-01 2.654967308044433594e+00 9.042908549308776855e-01 -5.988069772720336914e-01
2.264000000000000000e+03 5.759062194824218750e+01 6.867300510406494141e+00 3.300431072711944580e-01 2.192655801773071289e+00 7.568096518516540527e-01 -3.362923264503479004e-01
2.265000000000000000e+03 6.517170715332031250e+01 -2.613465499877929688e+01 -6.400049328804016113e-01 4.943574428558349609e+00 1.291070818901062012e+00 8.588281869888305664e-01
2.266000000000000000e+03 5.106296539306640625e+01 8.689360022544860840e-01 -6.890942156314849854e-02 2.916807830333709717e-01 6.683140248060226440e-02 2.905093431472778320e-01
2.267000000000000000e+03 4.194991302490234375e+01 -8.791547775268554688e+00 -8.087028264999389648e-01 1.042317822575569153e-01 -2.113413065671920776e-01 -8.257487416267395020e-02
2.268000000000000000e+03 4.027638244628906250e+01 6.911670684814453125e+00 -5.018487945199012756e-02 9.585658907890319824e-01 2.725142836570739746e-01 4.066840410232543945e-01
2.269000000000000000e+03 4.019803619384765625e+01 5.947439193725585938e+00 -5.960720404982566833e-02 8.386822938919067383e-01 2.337225228548049927e-01 4.216606616973876953e-01
2.270000000000000000e+03 7.349195861816406250e+01 -9.959497451782226562e+00 2.002216100692749023e+00 1.016601085662841797e+01 3.650467872619628906e+00 4.731950759887695312e-01
2.271000000000000000e+03 4.246918487548828125e+01 -1.158938217163085938e+01 -1.138217329978942871e+00 6.361602246761322021e-02 -3.223803937435150146e-01 -2.830875217914581299e-01
2.272000000000000000e+03 5.020252990722656250e+01 2.515304756164550781e+01 7.603772878646850586e-01 1.490387558937072754e+00 6.752294898033142090e-01 -1.087108477950096130e-01
2.273000000000000000e+03 3.914614105224609375e+01 1.031831264495849609e+01 1.889628916978836060e-01 1.253409028053283691e+00 4.327116012573242188e-01 6.788244843482971191e-01
2.274000000000000000e+03 6.032830810546875000e+01 1.041600418090820312e+01 5.337037444114685059e-01 3.188363075256347656e+00 1.116620063781738281e+00 -8.186590075492858887e-01
2.275000000000000000e+03 3.756185913085937500e+01 1.679073143005371094e+01 4.403362870216369629e-01 1.200679898262023926e+00 4.923048615455627441e-01 4.316571354866027832e-01
2.276000000000000000e+03 8.522637367248535156e+00 -2.250984191894531250e+01 -3.678584992885589600e-01 2.311849832534790039e+00 5.831974148750305176e-01 2.711975574493408203e-01
2.277000000000000000e+03 6.932801246643066406e+00 -2.199403190612792969e+01 -3.702166080474853516e-01 1.885303258895874023e+00 4.545260071754455566e-01 7.578113675117492676e-01
2.278000000000000000e+03 5.936981964111328125e+01 1.025468063354492188e+01 4.963955581188201904e-01 3.110404014587402344e+00 1.082039833068847656e+00 -6.580295562744140625e-01
2.279000000000000000e+03 6.187994766235351562e+01 1.002361679077148438e+01 4.622852504253387451e-01 3.506782054901123047e+00 1.190720200538635254e+00 -9.600647687911987305e-01
2.280000000000000000e+03 5.720979690551757812e+01 -6.699253082275390625e+00 -2.228439569473266602e+00 -2.718974370509386063e-03 -6.693475842475891113e-01 -4.665409922599792480e-01
2.281000000000000000e+03 6.464304351806640625e+01 -2.710199356079101562e+01 -5.944831967353820801e-01 4.486643791198730469e+00 1.167648196220397949e+00 8.295964002609252930e-01
2.282000000000000000e+03 3.644662475585937500e+01 -1.077842235565185547e+01 -5.618637204170227051e-01 -1.133946422487497330e-02 -1.719609498977661133e-01 -1.725233942270278931e-01
2.283000000000000000e+03 6.853873443603515625e+01 3.217658233642578125e+01 1.778285801410675049e-01 5.029502868652343750e+00 1.562199473381042480e+00 -2.916703224182128906e-01
2.284000000000000000e+03 5.949430847167968750e+01 -3.043985557556152344e+01 -1.709297150373458862e-01 1.473369121551513672e+00 3.907318115234375000e-01 3.944098353385925293e-01
2.285000000000000000e+03 5.621783065795898438e+01 -2.495041131973266602e+00 -7.714109420776367188e-01 3.663203418254852295e-01 -1.215271726250648499e-01 -4.040792584419250488e-02
2.286000000000000000e+03 2.922915077209472656e+01 1.791884994506835938e+01 2.199709415435791016e-02 4.752134978771209717e-01 1.491631865501403809e-01 2.783906459808349609e-01
2.287000000000000000e+03 4.314501190185546875e+01 3.154441118240356445e+00 -1.994706504046916962e-02 4.069929718971252441e-01 1.161137744784355164e-01 2.336344569921493530e-01
2.288000000000000000e+03 4.546859741210937500e+01 2.960873603820800781e+00 6.919810175895690918e-02 2.102569639682769775e-01 8.383651822805404663e-02 2.013188600540161133e-01
2.289000000000000000e+03 1.078342819213867188e+01 -3.535977554321289062e+01 -3.424519896507263184e-01 7.531241178512573242e-01 1.232016459107398987e-01 1.595854908227920532e-01
2.290000000000000000e+03 6.382264709472656250e+01 -2.841136932373046875e+00 -3.414986133575439453e-01 1.497945547103881836e+00 3.469340801239013672e-01 -2.356339454650878906e+00
2.291000000000000000e+03 5.955712127685546875e+01 -1.884955883026123047e+00 -5.139639377593994141e-01 6.253024935722351074e-01 3.340156376361846924e-02 -5.525169372558593750e-01
2.292000000000000000e+03 4.381380462646484375e+01 1.988228416442871094e+01 3.792142271995544434e-01 1.542479991912841797e+00 5.765082836151123047e-01 6.516808867454528809e-01
2.293000000000000000e+03 3.916490173339843750e+01 -1.394399642944335938e+01 -1.280533671379089355e+00 4.532872140407562256e-02 -3.705614805221557617e-01 -3.842786550521850586e-01
2.294000000000000000e+03 4.021471786499023438e+01 -1.155049991607666016e+01 -1.014739036560058594e+00 5.205462500452995300e-02 -2.888053059577941895e-01 -2.678605020046234131e-01
2.295000000000000000e+03 7.026349639892578125e+01 -2.005536460876464844e+01 -6.541965603828430176e-01 9.808288574218750000e+00 2.746227741241455078e+00 -6.053115427494049072e-02
2.296000000000000000e+03 5.522539520263671875e+01 2.515958595275878906e+01 5.582660436630249023e-01 2.458867311477661133e+00 9.051399827003479004e-01 -5.548527836799621582e-01
2.297000000000000000e+03 7.264691162109375000e+01 -2.250414085388183594e+01 -6.657335162162780762e-01 8.973463058471679688e+00 2.492318868637084961e+00 -7.901330590248107910e-01
2.298000000000000000e+03 7.306534576416015625e+01 -1.924076271057128906e+01 -3.787708282470703125e-01 9.552245140075683594e+00 2.752042293548583984e+00 -1.253238797187805176e+00
2.299000000000000000e+03 4.751147460937500000e+01 -4.129603195190429688e+01 5.318049788475036621e-01 -2.800086438655853271e-01 7.553890347480773926e-02 -6.658463180065155029e-02
2.300000000000000000e+03 8.728713989257812500e+00 1.398368835449218750e+01 1.860830634832382202e-01 -3.018653392791748047e-01 -3.473468497395515442e-02 3.664346635341644287e-01
2.301000000000000000e+03 5.514611053466796875e+01 2.593706607818603516e+00 1.309105604887008667e-01 8.454375267028808594e-01 2.929044365882873535e-01 6.308679282665252686e-02
2.302000000000000000e+03 4.605960083007812500e+01 2.554797744750976562e+01 6.467419266700744629e-01 1.270550489425659180e+00 5.751877427101135254e-01 2.951762974262237549e-01
2.303000000000000000e+03 4.203770065307617188e+01 2.331767654418945312e+01 3.778410851955413818e-01 1.373444318771362305e+00 5.253856182098388672e-01 4.185104370117187500e-01
2.304000000000000000e+03 3.921017456054687500e+01 6.918915271759033203e+00 -3.812676295638084412e-02 9.901397228240966797e-01 2.856038808822631836e-01 5.336979031562805176e-01
2.305000000000000000e+03 3.926134490966796875e+01 8.039006233215332031e+00 2.695785276591777802e-02 1.071102976799011230e+00 3.294182419776916504e-01 5.781649947166442871e-01
2.306000000000000000e+03 6.124488067626953125e+01 1.460963630676269531e+01 6.592851281166076660e-01 3.711110115051269531e+00 1.311118602752685547e+00 -7.018314003944396973e-01
2.307000000000000000e+03 6.061725997924804688e+01 1.646372985839843750e+01 6.025041937828063965e-01 3.644768476486206055e+00 1.274181842803955078e+00 -5.873000025749206543e-01
2.308000000000000000e+03 6.026173591613769531e+00 -2.972115325927734375e+01 -2.951393127441406250e-01 2.232097238302230835e-01 -2.157887630164623260e-02 5.678467750549316406e-01
2.309000000000000000e+03 3.891674041748046875e+01 -3.843793106079101562e+01 1.675385385751724243e-01 -1.200675219297409058e-01 1.424130424857139587e-02 -8.127854764461517334e-02
2.310000000000000000e+03 7.233268737792968750e+01 1.920926666259765625e+01 1.354196816682815552e-01 6.065979957580566406e+00 1.860419869422912598e+00 -5.315201282501220703e-01
2.311000000000000000e+03 7.276020050048828125e+01 6.635407447814941406e+00 -2.742995321750640869e-01 7.052298069000244141e+00 2.033399581909179688e+00 -6.879006624221801758e-01
2.312000000000000000e+03 7.303615570068359375e+01 1.058227539062500000e+01 -2.774886973202228546e-02 6.721606731414794922e+00 2.008157253265380859e+00 -7.223029136657714844e-01
2.313000000000000000e+03 7.435574340820312500e+01 -6.390053749084472656e+00 1.904506683349609375e-01 9.447371482849121094e+00 2.891346693038940430e+00 1.547016739845275879e+00
2.314000000000000000e+03 2.447109603881835938e+01 -8.459586143493652344e+00 9.621305018663406372e-02 3.752795934677124023e+00 1.154702663421630859e+00 1.339128375053405762e+00
2.315000000000000000e+03 2.478723907470703125e+01 -6.794614791870117188e+00 -3.934292197227478027e-01 2.579783201217651367e+00 6.559062004089355469e-01 9.214805364608764648e-01
2.316000000000000000e+03 1.933420181274414062e+01 -1.164528656005859375e+01 1.868065834045410156e+00 -2.673443317413330078e+00 -2.416132390499114990e-01 1.623817324638366699e+00
2.317000000000000000e+03 2.554130172729492188e+01 -5.708395004272460938e+00 -4.424643814563751221e-01 2.100936412811279297e+00 4.975415766239166260e-01 1.013818740844726562e+00
2.318000000000000000e+03 6.001373291015625000e+00 5.305479526519775391e+00 -1.461337953805923462e-01 -1.108764559030532837e-01 -7.710307091474533081e-02 2.363091409206390381e-01
2.319000000000000000e+03 5.670143127441406250e+00 7.308414459228515625e+00 -9.908545017242431641e-02 -1.812412589788436890e-01 -8.409801125526428223e-02 2.990448772907257080e-01
2.320000000000000000e+03 2.520059585571289062e+01 -5.468568325042724609e+00 -5.285429954528808594e-01 2.024593353271484375e+00 4.488150775432586670e-01 8.601197600364685059e-01
2.321000000000000000e+03 9.062786102294921875e+00 5.642407417297363281e+00 -2.817604541778564453e-01 -9.922873228788375854e-02 -1.142967566847801208e-01 3.243287205696105957e-01
2.322000000000000000e+03 5.347637176513671875e+00 6.524571895599365234e+00 -1.088437065482139587e-01 -1.579616218805313110e-01 -8.004160225391387939e-02 2.643055319786071777e-01
2.323000000000000000e+03 1.077665138244628906e+01 -6.247532844543457031e+00 -8.101234436035156250e-01 1.692360877990722656e+00 2.646712064743041992e-01 6.776143908500671387e-01
2.324000000000000000e+03 8.723306655883789062e+00 1.074283313751220703e+01 2.574779838323593140e-02 -2.335875630378723145e-01 -6.235193088650703430e-02 4.501531422138214111e-01
2.325000000000000000e+03 1.848235511779785156e+01 -1.098875427246093750e+01 1.583087563514709473e+00 -2.614088773727416992e+00 -3.093003630638122559e-01 1.310262680053710938e+00
2.326000000000000000e+03 2.580402755737304688e+01 -4.397995948791503906e+00 -5.457766652107238770e-01 1.750287890434265137e+00 3.613533973693847656e-01 8.818021416664123535e-01
2.327000000000000000e+03 2.551880455017089844e+01 -3.984002351760864258e+00 -5.987665653228759766e-01 1.666971802711486816e+00 3.204615712165832520e-01 7.793297767639160156e-01
2.328000000000000000e+03 1.878261375427246094e+01 -1.027419757843017578e+01 1.921754717826843262e+00 -2.314834833145141602e+00 -1.179240271449089050e-01 8.033854961395263672e-01
2.329000000000000000e+03 2.617238044738769531e+01 -8.230520248413085938e+00 9.142893552780151367e-01 2.399155378341674805e+00 9.940334558486938477e-01 1.977165341377258301e+00
2.330000000000000000e+03 2.775924301147460938e+01 -1.071961116790771484e+01 2.337797403335571289e+00 2.441970556974411011e-01 7.745983004570007324e-01 4.810002148151397705e-01
2.331000000000000000e+03 2.526518058776855469e+01 -3.518119812011718750e+00 -6.357848048210144043e-01 1.568038582801818848e+00 2.796761691570281982e-01 6.961929798126220703e-01
2.332000000000000000e+03 2.475419235229492188e+01 -3.823809623718261719e+00 -6.615701913833618164e-01 1.563605427742004395e+00 2.706105709075927734e-01 6.151745915412902832e-01
2.333000000000000000e+03 2.760160255432128906e+01 -9.199707031250000000e+00 1.806403160095214844e+00 9.706541299819946289e-01 8.331171870231628418e-01 1.493010640144348145e+00
2.334000000000000000e+03 7.535223484039306641e+00 -6.463843345642089844e+00 -9.346349835395812988e-01 1.660926461219787598e+00 2.178874462842941284e-01 -1.073693752288818359e+00
2.335000000000000000e+03 2.860180091857910156e+01 -1.329145431518554688e+01 -8.245746046304702759e-02 7.918885350227355957e-02 -9.805823210626840591e-04 -9.675081372261047363e-01
2.336000000000000000e+03 3.045986557006835938e+01 -1.225469207763671875e+01 2.076460421085357666e-01 -1.280339807271957397e-01 2.388362213969230652e-02 -4.682892560958862305e-01
2.337000000000000000e+03 2.400330543518066406e+01 8.151497244834899902e-01 -4.909234642982482910e-01 9.752510786056518555e-01 1.452982872724533081e-01 4.737180471420288086e-01
2.338000000000000000e+03 2.576275825500488281e+01 1.500669836997985840e+00 -4.026409983634948730e-01 1.170314073562622070e+00 2.303019165992736816e-01 5.137379169464111328e-01
2.339000000000000000e+03 1.083735942840576172e+01 5.720365047454833984e+00 -3.632568717002868652e-01 -1.264519244432449341e-01 -1.469126343727111816e-01 3.414698243141174316e-01
2.340000000000000000e+03 9.915413856506347656e+00 6.558157444000244141e+00 -2.888666391372680664e-01 -1.164331436157226562e-01 -1.215899363160133362e-01 3.724750280380249023e-01
2.341000000000000000e+03 2.452202415466308594e+01 -1.725433945655822754e+00 -6.373434662818908691e-01 1.236800551414489746e+00 1.798371225595474243e-01 5.201133489608764648e-01
2.342000000000000000e+03 1.266399097442626953e+01 -6.903371810913085938e+00 -2.311713695526123047e-01 7.553161382675170898e-01 1.572434306144714355e-01 1.418196678161621094e+00
2.343000000000000000e+03 7.541971206665039062e+00 1.421105957031250000e+01 1.478243768215179443e-01 -3.719483315944671631e-01 -6.723719090223312378e-02 3.389677703380584717e-01
2.344000000000000000e+03 7.107910156250000000e+00 1.086805438995361328e+01 2.201032452285289764e-02 -2.943351566791534424e-01 -8.169744908809661865e-02 3.959405422210693359e-01
2.345000000000000000e+03 2.359640312194824219e+01 -1.404083251953125000e+00 -6.228111982345581055e-01 1.034973263740539551e+00 1.236486062407493591e-01 4.410065114498138428e-01
2.346000000000000000e+03 2.389850425720214844e+01 -2.040112018585205078e+00 -6.563156843185424805e-01 1.148089647293090820e+00 1.475321799516677856e-01 4.679517745971679688e-01
2.347000000000000000e+03 8.618240356445312500e+00 -5.237305164337158203e+00 -1.202875852584838867e+00 1.335234045982360840e+00 3.970747813582420349e-02 -4.278455376625061035e-01
2.348000000000000000e+03 3.581001663208007812e+01 1.198499584197998047e+01 2.583652138710021973e-01 1.010954499244689941e+00 3.807959258556365967e-01 7.117282152175903320e-01
2.349000000000000000e+03 3.095272254943847656e+01 1.128751754760742188e+01 8.677326142787933350e-02 7.689625620841979980e-01 2.567207515239715576e-01 7.862088680267333984e-01
2.350000000000000000e+03 2.671799468994140625e+01 1.760045170783996582e+00 -3.365037143230438232e-01 1.190952420234680176e+00 2.563346028327941895e-01 5.428122878074645996e-01
2.351000000000000000e+03 2.503981971740722656e+01 -2.977474927902221680e+00 -6.571993231773376465e-01 1.461130261421203613e+00 2.411792874336242676e-01 6.223301291465759277e-01
2.352000000000000000e+03 2.480043411254882812e+01 -2.374517202377319336e+00 -6.548504233360290527e-01 1.350044846534729004e+00 2.085583060979843140e-01 5.724240541458129883e-01
2.353000000000000000e+03 4.111157989501953125e+01 6.416775703430175781e+00 -5.819680541753768921e-02 8.501892089843750000e-01 2.375977188348770142e-01 3.145351409912109375e-01
2.354000000000000000e+03 4.066329193115234375e+01 3.868798732757568359e+00 -7.026989012956619263e-02 6.539703607559204102e-01 1.751101315021514893e-01 3.690403103828430176e-01
2.355000000000000000e+03 3.896135711669921875e+01 -1.106959056854248047e+01 -8.349093794822692871e-01 3.722085431218147278e-02 -2.393065541982650757e-01 -2.187417000532150269e-01
2.356000000000000000e+03 7.374167633056640625e+01 -2.580718803405761719e+01 -5.238161683082580566e-01 8.651735305786132812e+00 2.438375711441040039e+00 -5.677813291549682617e-01
2.357000000000000000e+03 7.309304809570312500e+01 -2.398997497558593750e+01 -6.838978528976440430e-01 8.772528648376464844e+00 2.426589012145996094e+00 -7.120943665504455566e-01
2.358000000000000000e+03 3.814128494262695312e+01 5.713981628417968750e+00 -3.297244757413864136e-02 8.824679255485534668e-01 2.548486590385437012e-01 5.836787819862365723e-01
2.359000000000000000e+03 2.862490081787109375e+01 -1.079826450347900391e+01 1.713726878166198730e+00 6.247716769576072693e-02 5.328612327575683594e-01 2.710134983062744141e-01
2.360000000000000000e+03 9.723964691162109375e+00 1.053652954101562500e+01 1.437778584659099579e-02 -1.844213157892227173e-01 -5.101305618882179260e-02 4.882178604602813721e-01
2.361000000000000000e+03 4.618790054321289062e+01 -1.014635658264160156e+01 -1.254508256912231445e+00 8.637522906064987183e-02 -3.504399359226226807e-01 -2.733656466007232666e-01
2.362000000000000000e+03 4.844063949584960938e+01 -9.179025650024414062e+00 -1.359642863273620605e+00 9.697237610816955566e-02 -3.788011372089385986e-01 -2.657417953014373779e-01
2.363000000000000000e+03 2.829558563232421875e+01 -1.275317478179931641e+01 5.350649952888488770e-01 2.742426283657550812e-02 1.687467843294143677e-01 -8.657195568084716797e-01
2.364000000000000000e+03 4.821255207061767578e+00 7.584719181060791016e+00 -7.205596566200256348e-02 -2.075390070676803589e-01 -8.387849479913711548e-02 2.748071849346160889e-01
2.365000000000000000e+03 4.337916183471679688e+01 -9.866688728332519531e+00 -1.036024570465087891e+00 9.341545403003692627e-02 -2.827827334403991699e-01 -1.928869634866714478e-01
2.366000000000000000e+03 7.262968444824218750e+01 1.192370891571044922e+01 5.346960946917533875e-02 6.516612052917480469e+00 1.971024513244628906e+00 -6.960376501083374023e-01
2.367000000000000000e+03 7.284223175048828125e+01 1.436671543121337891e+01 9.458262473344802856e-02 6.414778232574462891e+00 1.952808260917663574e+00 -6.362057924270629883e-01
2.368000000000000000e+03 3.315443801879882812e+01 -1.329317665100097656e+01 -8.705355525016784668e-01 -6.789470463991165161e-02 -2.815290689468383789e-01 -5.429024100303649902e-01
2.369000000000000000e+03 3.245045089721679688e+01 -1.217751789093017578e+01 -2.914949953556060791e-01 -1.324482113122940063e-01 -1.271829605102539062e-01 -4.088771641254425049e-01
2.370000000000000000e+03 3.094632720947265625e+01 6.653841972351074219e+00 1.960507184267044067e-01 8.094895482063293457e-01 3.016620874404907227e-01 7.159641981124877930e-01
2.371000000000000000e+03 7.200648307800292969e+00 -7.649750709533691406e+00 -6.043746471405029297e-01 2.083361864089965820e+00 4.436961412429809570e-01 -1.347354292869567871e+00
2.372000000000000000e+03 5.908316802978515625e+01 5.708625316619873047e+00 3.007615804672241211e-01 2.305971860885620117e+00 7.820200324058532715e-01 -6.219277977943420410e-01
2.373000000000000000e+03 7.700567245483398438e+00 1.748180198669433594e+01 1.535698622465133667e-01 -4.025443196296691895e-01 -7.469233125448226929e-02 2.176693826913833618e-01
2.374000000000000000e+03 7.186450195312500000e+01 5.229097843170166016e+00 -4.421289563179016113e-01 6.988873004913330078e+00 1.964023232460021973e+00 -7.888902425765991211e-01
2.375000000000000000e+03 3.637289810180664062e+01 1.083627605438232422e+01 2.326626032590866089e-01 1.015573859214782715e+00 3.744709491729736328e-01 7.483664155006408691e-01
2.376000000000000000e+03 3.732093811035156250e+01 1.239863967895507812e+01 3.506715297698974609e-01 1.106396913528442383e+00 4.371205270290374756e-01 6.947820782661437988e-01
2.377000000000000000e+03 4.377215576171875000e+01 -1.106496620178222656e+01 -1.165356755256652832e+00 7.360959798097610474e-02 -3.275241553783416748e-01 -2.756574153900146484e-01
2.378000000000000000e+03 4.068260955810546875e+01 -1.025784492492675781e+01 -8.843142390251159668e-01 6.747894734144210815e-02 -2.450505793094635010e-01 -1.818616092205047607e-01
2.379000000000000000e+03 3.644566345214843750e+01 -1.273933887481689453e+01 -9.512994289398193359e-01 -9.610625915229320526e-03 -2.882730066776275635e-01 -3.730063140392303467e-01
2.380000000000000000e+03 3.812134933471679688e+01 7.977483272552490234e+00 4.548763111233711243e-02 1.032719016075134277e+00 3.234619796276092529e-01 6.439893841743469238e-01
2.381000000000000000e+03 6.504132747650146484e+00 6.046308040618896484e+00 -1.568718552589416504e-01 -1.318816244602203369e-01 -8.662604540586471558e-02 2.865702211856842041e-01
2.382000000000000000e+03 1.085944843292236328e+01 8.503431320190429688e+00 -1.958186626434326172e-01 -1.181621327996253967e-01 -9.419424086809158325e-02 4.737550616264343262e-01
2.383000000000000000e+03 5.176512908935546875e+01 -5.848402976989746094e+00 -1.295524120330810547e+00 1.965904235839843750e-01 -3.296800851821899414e-01 -3.514460474252700806e-02
2.384000000000000000e+03 4.896440505981445312e+01 -7.739741325378417969e+00 -1.272682428359985352e+00 1.344356089830398560e-01 -3.414740562438964844e-01 -1.556910872459411621e-01
2.385000000000000000e+03 7.114241790771484375e+01 -2.097372817993164062e+01 -7.314533591270446777e-01 9.265279769897460938e+00 2.560148000717163086e+00 -5.775882601737976074e-01
2.386000000000000000e+03 7.334326171875000000e+01 2.484741210937500000e+00 -7.367807030677795410e-01 7.940069198608398438e+00 2.160986661911010742e+00 -3.780645132064819336e-01
2.387000000000000000e+03 7.225921630859375000e+01 1.328686714172363281e+00 -1.061741948127746582e+00 8.060205459594726562e+00 2.099539041519165039e+00 -5.630735754966735840e-01
2.388000000000000000e+03 7.216284942626953125e+01 -1.125260233879089355e+00 -1.461028814315795898e+00 9.003099441528320312e+00 2.262621164321899414e+00 -2.439813911914825439e-01
2.389000000000000000e+03 7.144854736328125000e+01 -4.031084060668945312e+00 -1.554754257202148438e+00 1.070775318145751953e+01 2.745899677276611328e+00 3.796580731868743896e-01
2.390000000000000000e+03 7.293084716796875000e+01 -2.526333236694335938e+01 -6.395068764686584473e-01 8.522088050842285156e+00 2.364774465560913086e+00 -5.678620338439941406e-01
2.391000000000000000e+03 6.960236072540283203e+00 2.247169494628906250e+01 5.211980268359184265e-02 -5.099893808364868164e-01 -1.373608857393264771e-01 1.216833963990211487e-01
2.392000000000000000e+03 9.053680419921875000e+00 2.562598228454589844e+01 2.789339609444141388e-02 -4.043873548507690430e-01 -1.129481866955757141e-01 1.364618241786956787e-01
2.393000000000000000e+03 7.390077209472656250e+01 2.227219581604003906e+01 8.393623679876327515e-02 6.226053714752197266e+00 1.892997026443481445e+00 -3.717706501483917236e-01
2.394000000000000000e+03 2.799171066284179688e+01 4.269974708557128906e+00 2.307010442018508911e-02 1.050740122795104980e+00 3.221430778503417969e-01 5.040127038955688477e-01
2.395000000000000000e+03 7.012016296386718750e+01 2.719313859939575195e+00 -8.118796348571777344e-01 6.902738094329833984e+00 1.827257513999938965e+00 -1.137377738952636719e+00
2.396000000000000000e+03 7.142192077636718750e+01 1.161193275451660156e+01 5.386960133910179138e-02 6.210873126983642578e+00 1.879422903060913086e+00 -8.179789781570434570e-01
2.397000000000000000e+03 7.321335601806640625e+01 3.870107650756835938e+00 -5.583370327949523926e-01 7.599901676177978516e+00 2.112469434738159180e+00 -4.794050157070159912e-01
2.398000000000000000e+03 7.169137573242187500e+01 1.771018028259277344e+01 1.532946974039077759e-01 5.949373722076416016e+00 1.830800533294677734e+00 -5.960817933082580566e-01
2.399000000000000000e+03 2.771611976623535156e+01 2.007605075836181641e+00 -2.626557946205139160e-01 1.176068663597106934e+00 2.740238606929779053e-01 5.612121820449829102e-01
2.400000000000000000e+03 1.088515472412109375e+01 6.604312896728515625e+00 -3.176110684871673584e-01 -1.448651850223541260e-01 -1.387428790330886841e-01 3.906925320625305176e-01
2.401000000000000000e+03 6.228408813476562500e+00 -9.896522521972656250e+00 4.454824924468994141e-01 1.865678787231445312e+00 6.933483481407165527e-01 -1.794335722923278809e+00
2.402000000000000000e+03 4.499808883666992188e+01 -1.060604476928710938e+01 -1.208075642585754395e+00 7.906602323055267334e-02 -3.387028872966766357e-01 -2.721714079380035400e-01
2.403000000000000000e+03 6.535914421081542969e+00 -2.524855995178222656e+01 -4.333322942256927490e-01 7.831726074218750000e-01 1.049521043896675110e-01 7.565007805824279785e-01
2.404000000000000000e+03 7.726836681365966797e+00 1.843053436279296875e+01 1.388123929500579834e-01 -4.065060317516326904e-01 -8.030808717012405396e-02 1.955232620239257812e-01
2.405000000000000000e+03 8.048898696899414062e+00 -3.350132369995117188e+01 -3.131022155284881592e-01 5.126473307609558105e-01 5.986353754997253418e-02 3.245296478271484375e-01
2.406000000000000000e+03 1.168830966949462891e+01 -2.968333625793457031e+01 -3.664394915103912354e-01 1.335112810134887695e+00 2.906019687652587891e-01 9.170153178274631500e-03
2.407000000000000000e+03 8.874503135681152344e+00 1.742773437500000000e+01 1.926337927579879761e-01 -3.212702572345733643e-01 -3.859093412756919861e-02 2.316133081912994385e-01
2.408000000000000000e+03 6.795241355895996094e+00 1.870979690551757812e+01 1.100576967000961304e-01 -4.800313115119934082e-01 -1.109920814633369446e-01 1.762896925210952759e-01
2.409000000000000000e+03 5.812511825561523438e+01 4.448199748992919922e+00 2.572245299816131592e-01 1.726127982139587402e+00 5.950057506561279297e-01 -4.076285064220428467e-01
2.410000000000000000e+03 3.807474136352539062e+01 9.055433273315429688e+00 1.181355491280555725e-01 1.086841940879821777e+00 3.614932596683502197e-01 6.988480091094970703e-01
2.411000000000000000e+03 3.814463806152343750e+01 6.871040344238281250e+00 1.071714609861373901e-02 9.578917622566223145e-01 2.905826866626739502e-01 6.193869709968566895e-01
2.412000000000000000e+03 7.565284252166748047e+00 7.209107398986816406e+00 -1.634349524974822998e-01 -1.517677605152130127e-01 -9.456081688404083252e-02 3.610170483589172363e-01
2.413000000000000000e+03 3.611736679077148438e+01 -1.198008155822753906e+01 -7.331102490425109863e-01 -3.176335990428924561e-02 -2.294620871543884277e-01 -3.109844624996185303e-01
2.414000000000000000e+03 3.347965240478515625e+01 -1.231452655792236328e+01 -5.193108916282653809e-01 -9.423005580902099609e-02 -1.840622723102569580e-01 -3.928261697292327881e-01
2.415000000000000000e+03 8.828655242919921875e+00 1.172921562194824219e+01 8.492216467857360840e-02 -2.442109733819961548e-01 -4.778664559125900269e-02 4.471742212772369385e-01
2.416000000000000000e+03 6.280674934387207031e+00 1.080253505706787109e+01 9.818911552429199219e-03 -2.924897670745849609e-01 -8.480125665664672852e-02 3.752916753292083740e-01
2.417000000000000000e+03 1.123579978942871094e+01 1.884086799621582031e+01 1.946644634008407593e-01 -1.266790926456451416e-01 2.039561048150062561e-02 1.969344466924667358e-01
2.418000000000000000e+03 9.673489570617675781e+00 1.979363059997558594e+01 1.377757787704467773e-01 -2.688153088092803955e-01 -3.931185603141784668e-02 1.764872372150421143e-01
2.419000000000000000e+03 5.680448532104492188e+01 -3.768633842468261719e+00 -1.167237401008605957e+00 2.555485665798187256e-01 -2.735066413879394531e-01 -1.452045887708663940e-01
2.420000000000000000e+03 1.000164031982421875e+01 1.276012897491455078e+01 1.874579638242721558e-01 -2.105782777070999146e-01 -6.936095189303159714e-03 4.373726248741149902e-01
2.421000000000000000e+03 7.572727680206298828e+00 1.252535915374755859e+01 9.546186029911041260e-02 -3.222649395465850830e-01 -6.804092228412628174e-02 3.821763694286346436e-01
2.422000000000000000e+03 1.079188060760498047e+01 3.033186149597167969e+01 3.596411645412445068e-02 -3.827352225780487061e-01 -1.040313318371772766e-01 1.368037462234497070e-01
2.423000000000000000e+03 5.775040817260742188e+01 8.095747947692871094e+00 3.697738349437713623e-01 2.461900234222412109e+00 8.495022654533386230e-01 -3.725735247135162354e-01
2.424000000000000000e+03 5.442800140380859375e+01 -5.713076114654541016e+00 -1.512710690498352051e+00 1.810033768415451050e-01 -3.995122015476226807e-01 -1.158155500888824463e-01
2.425000000000000000e+03 5.267462539672851562e+01 8.700435757637023926e-01 -9.386385232210159302e-02 4.306107759475708008e-01 1.010240763425827026e-01 2.566090524196624756e-01
2.426000000000000000e+03 7.253330230712890625e+01 2.178003120422363281e+01 1.260872036218643188e-01 5.999046325683593750e+00 1.837540030479431152e+00 -4.379868507385253906e-01
2.427000000000000000e+03 6.982440185546875000e+01 2.001614189147949219e+01 1.961431950330734253e-01 5.494993686676025391e+00 1.707341074943542480e+00 -5.780975818634033203e-01
2.428000000000000000e+03 6.424609375000000000e+01 -1.635179758071899414e+00 -4.782566428184509277e-01 2.718902349472045898e+00 6.721937060356140137e-01 -2.568792104721069336e+00
2.429000000000000000e+03 6.256986618041992188e+01 -2.170534133911132812e+00 -4.561876356601715088e-01 1.116628527641296387e+00 1.981322914361953735e-01 -1.627000927925109863e+00
2.430000000000000000e+03 7.261404418945312500e+01 -2.867446136474609375e+01 -4.617803990840911865e-01 8.124775886535644531e+00 2.298898696899414062e+00 -2.149633020162582397e-01
2.431000000000000000e+03 6.790498352050781250e+01 -3.000254440307617188e+01 -5.081121325492858887e-01 6.124656677246093750e+00 1.684963345527648926e+00 4.242608547210693359e-01
2.432000000000000000e+03 4.164654541015625000e+01 4.315700054168701172e+00 -4.881363734602928162e-02 6.129528284072875977e-01 1.692417562007904053e-01 2.952150702476501465e-01
2.433000000000000000e+03 5.234796905517578125e+01 -2.244060516357421875e+00 -6.395254135131835938e-01 2.878183126449584961e-01 -1.055121347308158875e-01 1.885506361722946167e-01
2.434000000000000000e+03 5.341569519042968750e+01 1.532338857650756836e+00 8.567091077566146851e-03 5.083345770835876465e-01 1.550705134868621826e-01 2.308251410722732544e-01
2.435000000000000000e+03 4.936607742309570312e+01 7.035307884216308594e-01 -8.089613169431686401e-02 1.963196247816085815e-01 3.462704643607139587e-02 2.901790142059326172e-01
2.436000000000000000e+03 4.733754348754882812e+01 -9.670359611511230469e+00 -1.315626144409179688e+00 9.596437215805053711e-02 -3.658985197544097900e-01 -2.695383429527282715e-01
2.437000000000000000e+03 3.026432228088378906e+01 1.404646015167236328e+01 -7.372937351465225220e-02 7.411006093025207520e-01 2.002113610506057739e-01 5.734509229660034180e-01
2.438000000000000000e+03 2.949408149719238281e+01 1.182655048370361328e+01 -2.942817658185958862e-02 7.095121145248413086e-01 2.040251940488815308e-01 7.361465692520141602e-01
2.439000000000000000e+03 7.320274353027343750e+01 -2.713336372375488281e+01 -5.282430052757263184e-01 8.362021446228027344e+00 2.350133657455444336e+00 -3.824096024036407471e-01
2.440000000000000000e+03 5.635702133178710938e+00 -2.668386077880859375e+01 -3.576036691665649414e-01 2.123311012983322144e-01 -4.358177259564399719e-02 7.729446887969970703e-01
2.441000000000000000e+03 8.509825706481933594e+00 -2.773388862609863281e+01 -4.379686117172241211e-01 1.128627896308898926e+00 2.071977853775024414e-01 4.207955300807952881e-01
2.442000000000000000e+03 7.084982299804687500e+01 2.669981002807617188e+01 1.287696510553359985e-01 5.514447212219238281e+00 1.692965030670166016e+00 -3.823611140251159668e-01
2.443000000000000000e+03 7.110388183593750000e+01 2.144298934936523438e+01 1.590623855590820312e-01 5.737792491912841797e+00 1.769056439399719238e+00 -5.088997483253479004e-01
2.444000000000000000e+03 6.307109069824218750e+01 1.053451251983642578e+01 4.327393770217895508e-01 3.885087728500366211e+00 1.295348167419433594e+00 -9.959880113601684570e-01
2.445000000000000000e+03 7.135813903808593750e+01 -2.567611503601074219e+01 -7.629504799842834473e-01 8.153721809387207031e+00 2.217231273651123047e+00 -2.936437129974365234e-01
2.446000000000000000e+03 7.018589782714843750e+01 3.100216388702392578e-01 -1.281618237495422363e+00 7.647943019866943359e+00 1.909897327423095703e+00 -1.149611353874206543e+00
2.447000000000000000e+03 7.316634368896484375e+01 -9.333828091621398926e-02 -1.141291141510009766e+00 8.689167976379394531e+00 2.264363050460815430e+00 -3.682506084442138672e-02
2.448000000000000000e+03 5.622928619384765625e+01 -5.887682437896728516e+00 -1.767086029052734375e+00 1.079817861318588257e-01 -4.977312684059143066e-01 -2.425732910633087158e-01
2.449000000000000000e+03 5.784111404418945312e+01 -4.434266090393066406e+00 -1.436488628387451172e+00 1.946217417716979980e-01 -3.725600540637969971e-01 -2.230382859706878662e-01
2.450000000000000000e+03 5.423815155029296875e+01 2.110661029815673828e+00 6.509395688772201538e-02 6.848797202110290527e-01 2.249921113252639771e-01 1.677476912736892700e-01
2.451000000000000000e+03 7.121921539306640625e+01 -2.554772853851318359e+00 -1.780793666839599609e+00 9.716837882995605469e+00 2.380813121795654297e+00 -4.566009044647216797e-01
2.452000000000000000e+03 6.962673187255859375e+01 -2.339179229736328125e+01 -9.067206978797912598e-01 8.111261367797851562e+00 2.161362171173095703e+00 5.096574500203132629e-02
2.453000000000000000e+03 3.861909103393554688e+01 1.877248764038085938e+01 4.115303754806518555e-01 1.340741634368896484e+00 5.256816148757934570e-01 3.452293276786804199e-01
2.454000000000000000e+03 1.030590057373046875e+01 -2.446620559692382812e+01 -2.659276127815246582e-01 2.135893821716308594e+00 5.609899163246154785e-01 -1.930273473262786865e-01
2.455000000000000000e+03 6.686701202392578125e+01 -1.433427691459655762e+00 -1.311600565910339355e+00 5.857900142669677734e+00 1.363889932632446289e+00 -2.587518692016601562e+00
2.456000000000000000e+03 7.195735931396484375e+01 -6.701720714569091797e+00 2.891383767127990723e-01 1.169840431213378906e+01 3.596262931823730469e+00 1.386901497840881348e+00
2.457000000000000000e+03 7.315335083007812500e+01 -6.512503623962402344e+00 3.932609558105468750e-01 1.012637519836425781e+01 3.155890703201293945e+00 1.482196688652038574e+00
2.458000000000000000e+03 7.153267669677734375e+01 6.499136447906494141e+00 -3.114906251430511475e-01 6.691650867462158203e+00 1.914048075675964355e+00 -8.976789712905883789e-01
2.459000000000000000e+03 5.280125427246093750e+01 -5.422339916229248047e+00 -1.292597651481628418e+00 1.921423971652984619e-01 -3.301365971565246582e-01 -3.148510679602622986e-02
2.460000000000000000e+03 5.945083999633789062e+01 9.275897026062011719e+00 4.625239670276641846e-01 2.909223079681396484e+00 1.011524081230163574e+00 -6.910640001296997070e-01
2.461000000000000000e+03 8.915723800659179688e+00 2.914526748657226562e+01 2.059842273592948914e-02 -4.765906035900115967e-01 -1.367976516485214233e-01 1.149278208613395691e-01
2.462000000000000000e+03 8.066186904907226562e+00 2.677100563049316406e+01 2.164338901638984680e-02 -4.974628090858459473e-01 -1.427458226680755615e-01 1.150321587920188904e-01
2.463000000000000000e+03 7.641254901885986328e+00 1.532259654998779297e+01 1.625168770551681519e-01 -3.772695362567901611e-01 -6.442580372095108032e-02 2.946952581405639648e-01
2.464000000000000000e+03 1.005326271057128906e+01 1.392926120758056641e+01 2.513627111911773682e-01 -2.405335754156112671e-01 3.248744644224643707e-03 3.886695504188537598e-01
2.465000000000000000e+03 7.193552398681640625e+01 1.334231185913085938e+01 9.374437481164932251e-02 6.221251487731933594e+00 1.894498705863952637e+00 -7.271704077720642090e-01
2.466000000000000000e+03 1.675663757324218750e+01 -2.967299842834472656e+01 2.964135259389877319e-02 1.214522361755371094e+00 3.732491135597229004e-01 -4.752787947654724121e-01
2.467000000000000000e+03 3.956921768188476562e+01 2.101510810852050781e+01 3.258244991302490234e-01 1.375086307525634766e+00 5.102732181549072266e-01 3.545414209365844727e-01
2.468000000000000000e+03 6.803103637695312500e+01 -3.427176284790039062e+01 -1.440702825784683228e-01 5.812968730926513672e+00 1.700669527053833008e+00 3.316271901130676270e-01
2.469000000000000000e+03 3.070028495788574219e+01 1.645406532287597656e+01 1.081905420869588852e-02 6.983956694602966309e-01 2.127644121646881104e-01 4.238685071468353271e-01
2.470000000000000000e+03 2.780492019653320312e+01 1.901661491394042969e+01 6.000505760312080383e-02 2.997941076755523682e-01 1.079397499561309814e-01 2.231977581977844238e-01
2.471000000000000000e+03 6.955812835693359375e+01 1.895720291137695312e+01 2.286052703857421875e-01 5.466665744781494141e+00 1.708581209182739258e+00 -6.231281161308288574e-01
2.472000000000000000e+03 1.302770614624023438e+01 -3.095174598693847656e+01 -2.933853864669799805e-01 1.180644989013671875e+00 2.661778628826141357e-01 -7.483243942260742188e-02
2.473000000000000000e+03 5.528243637084960938e+01 -5.086750030517578125e+00 -1.492030739784240723e+00 1.934296041727066040e-01 -3.895803391933441162e-01 -1.135799959301948547e-01
2.474000000000000000e+03 6.001226806640625000e+01 -8.577216863632202148e-01 -3.170427083969116211e-01 9.560904502868652344e-01 1.917143166065216064e-01 -7.852866649627685547e-01
2.475000000000000000e+03 9.988942146301269531e+00 -3.309346771240234375e+01 -3.591999709606170654e-01 7.698947191238403320e-01 1.232084259390830994e-01 2.199329882860183716e-01
2.476000000000000000e+03 4.213162612915039062e+01 3.499729633331298828e+00 -4.406223818659782410e-02 5.081244111061096191e-01 1.392186582088470459e-01 2.738116085529327393e-01
2.477000000000000000e+03 6.973716735839843750e+00 3.464923095703125000e+01 2.469645440578460693e-02 -6.975173354148864746e-01 -2.018462568521499634e-01 6.543067097663879395e-02
2.478000000000000000e+03 7.607435703277587891e+00 -2.491513633728027344e+01 -4.598641395568847656e-01 1.375427007675170898e+00 2.746688425540924072e-01 5.584216713905334473e-01
2.479000000000000000e+03 3.787080383300781250e+01 -1.055422306060791016e+01 -6.806918382644653320e-01 2.128450386226177216e-02 -1.978222131729125977e-01 -1.733578592538833618e-01
2.480000000000000000e+03 3.749228668212890625e+01 -1.235882186889648438e+01 -9.387686848640441895e-01 1.911930367350578308e-02 -2.758948206901550293e-01 -3.218982219696044922e-01
2.481000000000000000e+03 8.373407363891601562e+00 -3.579675674438476562e+01 -2.721674740314483643e-01 4.621439576148986816e-01 5.699294805526733398e-02 2.256489694118499756e-01
2.482000000000000000e+03 5.251082611083984375e+01 -6.877522468566894531e+00 -1.519080996513366699e+00 1.408233344554901123e-01 -4.134773015975952148e-01 -1.772822737693786621e-01
2.483000000000000000e+03 6.259406280517578125e+01 1.363668632507324219e+01 5.636856555938720703e-01 3.876811027526855469e+00 1.332149028778076172e+00 -8.262538313865661621e-01
2.484000000000000000e+03 6.343881225585937500e+01 1.608155632019042969e+01 5.119752287864685059e-01 4.123506546020507812e+00 1.390644550323486328e+00 -7.145021557807922363e-01
2.485000000000000000e+03 7.053707122802734375e+01 -2.967633628845214844e+01 -5.283911228179931641e-01 7.342319965362548828e+00 2.044178724288940430e+00 1.087348833680152893e-01
2.486000000000000000e+03 7.000664520263671875e+01 2.827346611022949219e+01 1.545899957418441772e-01 5.351811885833740234e+00 1.651920557022094727e+00 -3.632597923278808594e-01
2.487000000000000000e+03 8.625766754150390625e+00 2.202796554565429688e+01 6.984300166368484497e-02 -3.741059899330139160e-01 -9.127889573574066162e-02 1.441560685634613037e-01
2.488000000000000000e+03 5.869524765014648438e+01 2.078388214111328125e+01 3.728265762329101562e-01 3.369360685348510742e+00 1.122656106948852539e+00 -5.944551229476928711e-01
2.489000000000000000e+03 4.788108444213867188e+01 2.483410835266113281e+01 7.230808138847351074e-01 1.217689514160156250e+00 5.822311043739318848e-01 1.771613955497741699e-01
2.490000000000000000e+03 4.447848510742187500e+01 2.837691307067871094e+01 6.060994863510131836e-01 1.369365215301513672e+00 5.926393866539001465e-01 2.339944988489151001e-01
2.491000000000000000e+03 5.414794921875000000e+01 6.919971704483032227e-01 -1.481196731328964233e-01 5.465756654739379883e-01 1.195368021726608276e-01 1.627970486879348755e-01
2.492000000000000000e+03 7.231173706054687500e+01 -2.453768253326416016e+00 -1.446151018142700195e+00 9.616561889648437500e+00 2.451123237609863281e+00 3.257859051227569580e-01
2.493000000000000000e+03 7.218250274658203125e+01 1.120744943618774414e-01 -1.184839725494384766e+00 8.349724769592285156e+00 2.149465560913085938e+00 -3.647840619087219238e-01
2.494000000000000000e+03 3.597307968139648438e+01 9.272122383117675781e+00 1.644779294729232788e-01 9.679016470909118652e-01 3.397138714790344238e-01 7.673894762992858887e-01
2.495000000000000000e+03 3.695296478271484375e+01 7.893621921539306641e+00 8.639929443597793579e-02 9.778810739517211914e-01 3.192841112613677979e-01 7.179433703422546387e-01
2.496000000000000000e+03 1.710978317260742188e+01 2.204900360107421875e+01 8.846370130777359009e-02 1.162883341312408447e-01 6.142561137676239014e-02 4.223727583885192871e-01
2.497000000000000000e+03 2.474377822875976562e+01 -7.500940322875976562e+00 -2.207235395908355713e-01 2.984687805175781250e+00 8.291893005371093750e-01 1.086860656738281250e+00
2.498000000000000000e+03 2.519178199768066406e+01 -7.799264430999755859e+00 1.310052573680877686e-01 3.018031597137451172e+00 9.447110295295715332e-01 1.499853372573852539e+00
2.499000000000000000e+03 2.546371459960937500e+01 -8.555213928222656250e+00 9.301837086677551270e-01 3.121066093444824219e+00 1.215374946594238281e+00 2.057090282440185547e+00
2.500000000000000000e+03 2.507284736633300781e+01 -7.099100589752197266e+00 -2.311713993549346924e-01 2.685333251953125000e+00 7.362485527992248535e-01 1.144714117050170898e+00
2.501000000000000000e+03 2.647922134399414062e+01 -8.890430450439453125e+00 1.762963056564331055e+00 1.933192014694213867e+00 1.108846545219421387e+00 2.120774269104003906e+00
2.502000000000000000e+03 2.498229980468750000e+01 -5.884875774383544922e+00 -5.250118970870971680e-01 2.145749568939208984e+00 4.862213134765625000e-01 8.457486629486083984e-01
2.503000000000000000e+03 2.534423828125000000e+01 -6.079909801483154297e+00 -4.241273105144500732e-01 2.203317642211914062e+00 5.337571501731872559e-01 1.017650246620178223e+00
2.504000000000000000e+03 2.628394126892089844e+01 -4.053209781646728516e+00 -5.166397690773010254e-01 1.666154980659484863e+00 3.448545634746551514e-01 9.083855748176574707e-01
2.505000000000000000e+03 8.043028831481933594e+00 6.756295204162597656e+00 -1.921481192111968994e-01 -1.240890324115753174e-01 -9.487114846706390381e-02 3.565631806850433350e-01
2.506000000000000000e+03 7.588345527648925781e+00 6.223199367523193359e+00 -1.909765601158142090e-01 -1.255526244640350342e-01 -9.495875239372253418e-02 3.266765177249908447e-01
2.507000000000000000e+03 2.781605339050292969e+01 -8.525556564331054688e+00 1.336963176727294922e+00 1.097282886505126953e+00 7.302738428115844727e-01 1.575422763824462891e+00
2.508000000000000000e+03 9.868813514709472656e+00 8.381364822387695312e+00 -1.761038303375244141e-01 -1.488371491432189941e-01 -9.748229384422302246e-02 4.390071332454681396e-01
2.509000000000000000e+03 2.576812744140625000e+01 -3.287433385848999023e+00 -6.038543581962585449e-01 1.555349349975585938e+00 2.854485213756561279e-01 7.505828738212585449e-01
2.510000000000000000e+03 2.841476631164550781e+01 -1.146948909759521484e+01 1.570594787597656250e+00 -1.412212662398815155e-02 4.669418036937713623e-01 -1.265210360288619995e-01
2.511000000000000000e+03 3.171257209777832031e+01 -1.031443119049072266e+01 4.537022113800048828e-01 -8.046676218509674072e-02 1.119706332683563232e-01 1.046777442097663879e-01
2.512000000000000000e+03 7.558706283569335938e+00 1.022983360290527344e+01 -1.141075417399406433e-02 -2.453594058752059937e-01 -7.703104615211486816e-02 4.145731627941131592e-01
2.513000000000000000e+03 8.738248825073242188e+00 1.280620384216308594e+01 1.432570964097976685e-01 -2.940290272235870361e-01 -4.523158073425292969e-02 4.118743836879730225e-01
2.514000000000000000e+03 3.949514389038085938e+01 3.485695600509643555e+00 -6.938087195158004761e-02 6.807116270065307617e-01 1.833992302417755127e-01 4.624525010585784912e-01
2.515000000000000000e+03 2.904646873474121094e+01 -1.217856311798095703e+01 6.770275831222534180e-01 -7.488451153039932251e-02 1.806429326534271240e-01 -5.354420542716979980e-01
2.516000000000000000e+03 4.205058670043945312e+01 -1.022416782379150391e+01 -9.840826392173767090e-01 7.853354513645172119e-02 -2.716647386550903320e-01 -2.015852332115173340e-01
2.517000000000000000e+03 3.979169082641601562e+01 -7.727111339569091797e+00 -5.529133081436157227e-01 1.122940629720687866e-01 -1.321857869625091553e-01 5.268834531307220459e-02
2.518000000000000000e+03 7.119132995605468750e+01 2.182852625846862793e-01 -1.334042310714721680e+00 8.178860664367675781e+00 2.053445339202880859e+00 -8.370454907417297363e-01
2.519000000000000000e+03 7.223925781250000000e+01 2.601274967193603516e+00 -8.029986023902893066e-01 7.643505573272705078e+00 2.052152156829833984e+00 -5.869859457015991211e-01
2.520000000000000000e+03 2.564503669738769531e+01 -2.754316329956054688e+00 -6.199769973754882812e-01 1.484090089797973633e+00 2.592339217662811279e-01 6.999421119689941406e-01
2.521000000000000000e+03 2.518746185302734375e+01 -1.436155557632446289e+00 -6.093714237213134766e-01 1.294057250022888184e+00 2.054057717323303223e-01 5.863713622093200684e-01
2.522000000000000000e+03 1.090477371215820312e+01 7.527997970581054688e+00 -2.791817486286163330e-01 -1.350270807743072510e-01 -1.242626458406448364e-01 4.162968099117279053e-01
2.523000000000000000e+03 2.418213844299316406e+01 -1.047918677330017090e+00 -6.142473816871643066e-01 1.120244145393371582e+00 1.517990082502365112e-01 4.921233355998992920e-01
2.524000000000000000e+03 3.295469284057617188e+01 -9.410433769226074219e+00 2.365306913852691650e-01 -1.355864200741052628e-02 6.689161807298660278e-02 2.193915098905563354e-01
2.525000000000000000e+03 3.137910461425781250e+01 -1.213122463226318359e+01 2.364550530910491943e-02 -1.315230131149291992e-01 -3.236325085163116455e-02 -4.130125939846038818e-01
2.526000000000000000e+03 6.928319454193115234e+00 -6.728426933288574219e+00 -8.211296796798706055e-01 1.433084964752197266e+00 1.835865676403045654e-01 -1.276467561721801758e+00
2.527000000000000000e+03 5.199044799804687500e+01 9.944400936365127563e-02 -1.874998658895492554e-01 3.274280726909637451e-01 4.197846353054046631e-02 2.679904103279113770e-01
2.528000000000000000e+03 2.610814857482910156e+01 6.475301384925842285e-01 -4.609081447124481201e-01 1.218258500099182129e+00 2.272050827741622925e-01 5.674520730972290039e-01
2.529000000000000000e+03 3.321730422973632812e+01 8.191056251525878906e+00 1.512398123741149902e-01 8.365993499755859375e-01 2.963517308235168457e-01 7.832383513450622559e-01
2.530000000000000000e+03 3.523933410644531250e+01 1.015089797973632812e+01 1.830632537603378296e-01 9.510400891304016113e-01 3.402310013771057129e-01 7.644827365875244141e-01
2.531000000000000000e+03 4.796088790893554688e+01 -8.163189888000488281e+00 -1.241639852523803711e+00 1.375898569822311401e-01 -3.312149941921234131e-01 -1.612357646226882935e-01
2.532000000000000000e+03 4.578218078613281250e+01 -9.081457138061523438e+00 -1.140374660491943359e+00 1.149601489305496216e-01 -3.076243698596954346e-01 -1.796337813138961792e-01
2.533000000000000000e+03 6.495462894439697266e+00 -2.102348709106445312e+01 -2.282872498035430908e-01 1.651814937591552734e+00 4.270583093166351318e-01 9.622771143913269043e-01
2.534000000000000000e+03 7.005228424072265625e+01 3.868948459625244141e+00 -6.803642511367797852e-01 6.658851623535156250e+00 1.793546199798583984e+00 -1.187274336814880371e+00
2.535000000000000000e+03 3.571118164062500000e+01 -1.128509426116943359e+01 -5.652203559875488281e-01 -3.747041523456573486e-02 -1.808072328567504883e-01 -2.331222295761108398e-01
2.536000000000000000e+03 3.030508232116699219e+01 5.065939903259277344e+00 1.099894344806671143e-01 9.002758264541625977e-01 3.030795753002166748e-01 6.287107467651367188e-01
2.537000000000000000e+03 3.148056030273437500e+01 5.577155113220214844e+00 1.290820389986038208e-01 8.680481314659118652e-01 2.991390526294708252e-01 6.952987313270568848e-01
2.538000000000000000e+03 8.722001075744628906e+00 -6.639984607696533203e+00 -9.314883947372436523e-01 2.052208900451660156e+00 3.362161517143249512e-01 -4.048225581645965576e-01
2.539000000000000000e+03 4.759780120849609375e+01 -7.122635841369628906e+00 -1.073591113090515137e+00 1.607478410005569458e-01 -2.738529741764068604e-01 -5.398739874362945557e-02
2.540000000000000000e+03 4.975571823120117188e+01 -7.122632026672363281e+00 -1.267539024353027344e+00 1.568995416164398193e-01 -3.331918418407440186e-01 -1.065700724720954895e-01
2.541000000000000000e+03 2.560449600219726562e+01 -4.230414628982543945e-01 -5.486576557159423828e-01 1.248522162437438965e+00 2.099593430757522583e-01 5.815957784652709961e-01
2.542000000000000000e+03 2.525239372253417969e+01 3.716975748538970947e-01 -5.141557455062866211e-01 1.170549511909484863e+00 1.969181299209594727e-01 5.288555026054382324e-01
2.543000000000000000e+03 7.463821411132812500e+00 8.344175338745117188e+00 -1.073733940720558167e-01 -1.867926567792892456e-01 -8.824981749057769775e-02 3.948920071125030518e-01
2.544000000000000000e+03 6.904642105102539062e+00 7.643277645111083984e+00 -1.288543641567230225e-01 -1.649188995361328125e-01 -8.813198655843734741e-02 3.520132601261138916e-01
2.545000000000000000e+03 1.032384490966796875e+01 9.218263626098632812e+00 -1.158267110586166382e-01 -1.524849534034729004e-01 -8.049349486827850342e-02 4.855131208896636963e-01
2.546000000000000000e+03 7.986271858215332031e+00 9.097915649414062500e+00 -8.136127889156341553e-02 -1.918797194957733154e-01 -8.197230100631713867e-02 4.207981228828430176e-01
2.547000000000000000e+03 3.708285522460937500e+01 -1.141756248474121094e+01 -7.172215580940246582e-01 -5.271634086966514587e-03 -2.167479544878005981e-01 -2.421107143163681030e-01
2.548000000000000000e+03 6.579168701171875000e+01 -9.813121557235717773e-01 -7.713611125946044922e-01 4.474187850952148438e+00 1.110848069190979004e+00 -2.689512491226196289e+00
2.549000000000000000e+03 6.895746612548828125e+01 -2.080338954925537109e+00 -1.940266489982604980e+00 8.322837829589843750e+00 1.914771318435668945e+00 -2.024243593215942383e+00
2.550000000000000000e+03 8.628671646118164062e+00 -8.127999305725097656e+00 -4.845712184906005859e-01 2.875627040863037109e+00 7.173167467117309570e-01 -4.928084909915924072e-01
2.551000000000000000e+03 7.217295074462890625e+01 -2.455973815917968750e+01 -7.538048624992370605e-01 8.591312408447265625e+00 2.351252317428588867e+00 -4.749056696891784668e-01
2.552000000000000000e+03 6.849504852294921875e+01 -2.706219291687011719e+01 -7.732055187225341797e-01 6.812394618988037109e+00 1.811756730079650879e+00 3.550773262977600098e-01
2.553000000000000000e+03 2.738107299804687500e+01 2.941787958145141602e+00 -1.664333194494247437e-01 1.131090641021728516e+00 2.893972098827362061e-01 5.218518376350402832e-01
2.554000000000000000e+03 2.843426132202148438e+01 3.251884937286376953e+00 -1.073865219950675964e-01 1.098166346549987793e+00 2.972339689731597900e-01 5.483300089836120605e-01
2.555000000000000000e+03 3.396731567382812500e+01 4.238450527191162109e+00 1.072152797132730484e-02 8.466770648956298828e-01 2.572195827960968018e-01 7.067323327064514160e-01
2.556000000000000000e+03 7.117160034179687500e+01 2.672411441802978516e+00 -8.837071657180786133e-01 7.363676548004150391e+00 1.943990826606750488e+00 -9.351730346679687500e-01
2.557000000000000000e+03 7.039181518554687500e+01 1.187888813018798828e+01 9.878316521644592285e-02 5.895473957061767578e+00 1.798277139663696289e+00 -8.580219745635986328e-01
2.558000000000000000e+03 7.205718994140625000e+01 8.864500045776367188e+00 -8.076760917901992798e-02 6.549829959869384766e+00 1.940718770027160645e+00 -7.786843776702880859e-01
2.559000000000000000e+03 5.063730239868164062e+01 -6.393081665039062500e+00 -1.248866796493530273e+00 1.769550144672393799e-01 -3.215735256671905518e-01 -5.456703528761863708e-02
2.560000000000000000e+03 7.055275726318359375e+01 1.843046951293945312e+01 1.951249986886978149e-01 5.703989028930664062e+00 1.769734263420104980e+00 -6.097732782363891602e-01
2.561000000000000000e+03 7.176923370361328125e+01 1.548298835754394531e+01 1.430178433656692505e-01 6.027752399444580078e+00 1.851230978965759277e+00 -6.746561527252197266e-01
2.562000000000000000e+03 5.437487030029296875e+01 -4.230162143707275391e+00 -1.148591995239257812e+00 2.444926649332046509e-01 -2.712297737598419189e-01 3.182679414749145508e-02
2.563000000000000000e+03 4.856915664672851562e+01 -5.622442245483398438e+00 -9.642488956451416016e-01 1.812312602996826172e-01 -2.349053025245666504e-01 4.184653609991073608e-02
2.564000000000000000e+03 4.461029434204101562e+01 -9.500432968139648438e+00 -1.084730386734008789e+00 1.044854670763015747e-01 -2.940734922885894775e-01 -1.876913160085678101e-01
2.565000000000000000e+03 5.663316726684570312e+01 1.956895112991333008e+00 6.942778080701828003e-02 1.007415294647216797e+00 3.230529427528381348e-01 -1.424355357885360718e-01
2.566000000000000000e+03 1.014077949523925781e+01 2.619026947021484375e+01 3.112810291349887848e-02 -3.466838896274566650e-01 -9.466674178838729858e-02 1.554286032915115356e-01
2.567000000000000000e+03 9.920718193054199219e+00 2.739045906066894531e+01 2.979285269975662231e-02 -3.886515796184539795e-01 -1.076576188206672668e-01 1.410881429910659790e-01
2.568000000000000000e+03 5.881439590454101562e+01 6.744923114776611328e+00 3.217659294605255127e-01 2.422071695327758789e+00 8.231512904167175293e-01 -5.351289510726928711e-01
2.569000000000000000e+03 7.096777343750000000e+01 1.265170288085937500e+01 1.157046854496002197e-01 6.051193237304687500e+00 1.850069403648376465e+00 -8.023913502693176270e-01
2.570000000000000000e+03 1.132857322692871094e+01 -2.555765724182128906e+01 -2.056549191474914551e-01 2.016601800918579102e+00 5.432840585708618164e-01 -3.066138327121734619e-01
2.571000000000000000e+03 7.672695159912109375e+00 1.642793273925781250e+01 1.622040271759033203e-01 -3.974137008190155029e-01 -7.056289911270141602e-02 2.598255574703216553e-01
2.572000000000000000e+03 3.246384429931640625e+01 1.825855255126953125e+01 1.712357103824615479e-01 7.900030612945556641e-01 2.883716225624084473e-01 3.535075783729553223e-01
2.573000000000000000e+03 4.297452545166015625e+01 1.845526933670043945e+00 -5.498833581805229187e-02 3.726236820220947266e-01 9.529060125350952148e-02 2.807160615921020508e-01
2.574000000000000000e+03 1.010388565063476562e+01 1.747332572937011719e+01 2.298641800880432129e-01 -2.311600893735885620e-01 -3.887742932420223951e-04 2.250317037105560303e-01
2.575000000000000000e+03 5.656003570556640625e+01 -2.020181268453598022e-01 -3.000603616237640381e-01 6.968994140625000000e-01 1.190517172217369080e-01 -6.750400364398956299e-02
2.576000000000000000e+03 5.624012756347656250e+01 6.930937170982360840e-01 -1.300508975982666016e-01 7.363303303718566895e-01 1.818838268518447876e-01 -6.357630342245101929e-02
2.577000000000000000e+03 5.245987701416015625e+01 -1.273913621902465820e+00 -4.484089910984039307e-01 3.067563176155090332e-01 -4.249580204486846924e-02 2.231808602809906006e-01
2.578000000000000000e+03 3.526206588745117188e+01 1.731350517272949219e+01 3.242753744125366211e-01 1.008792281150817871e+00 3.999203145503997803e-01 4.105161428451538086e-01
2.579000000000000000e+03 4.687129592895507812e+01 9.312449097633361816e-01 -5.836798995733261108e-02 1.780812144279479980e-01 3.591397032141685486e-02 2.603786587715148926e-01
2.580000000000000000e+03 4.775631713867187500e+01 4.813261628150939941e-01 -1.045400202274322510e-01 1.776395291090011597e-01 2.192985452711582184e-02 2.716832458972930908e-01
2.581000000000000000e+03 3.618006515502929688e+01 1.621405792236328125e+01 3.571580946445465088e-01 1.054156541824340820e+00 4.233943819999694824e-01 4.676894545555114746e-01
2.582000000000000000e+03 3.432537078857421875e+01 1.473022842407226562e+01 2.277875691652297974e-01 9.296475052833557129e-01 3.472305238246917725e-01 5.830632448196411133e-01
2.583000000000000000e+03 2.975012207031250000e+01 -1.230972194671630859e+01 4.119008779525756836e-01 -9.767921268939971924e-02 9.426650404930114746e-02 -5.467127561569213867e-01
2.584000000000000000e+03 7.016274261474609375e+01 -1.008732080459594727e+00 -1.646705746650695801e+00 8.402851104736328125e+00 2.026843547821044922e+00 -1.239415287971496582e+00
2.585000000000000000e+03 8.780423164367675781e+00 1.849508285522460938e+01 1.621650010347366333e-01 -3.382074236869812012e-01 -5.281272530555725098e-02 1.976059675216674805e-01
2.586000000000000000e+03 7.077449798583984375e+00 9.543967247009277344e+00 -3.923736512660980225e-02 -2.384101301431655884e-01 -8.329425007104873657e-02 4.014474451541900635e-01
2.587000000000000000e+03 8.274651527404785156e+00 7.860225200653076172e+00 -1.596598178148269653e-01 -1.473840773105621338e-01 -9.211316704750061035e-02 3.991307914257049561e-01
2.588000000000000000e+03 7.673697471618652344e+00 2.150347518920898438e+01 7.367166131734848022e-02 -4.437572956085205078e-01 -1.110256910324096680e-01 1.351234018802642822e-01
2.589000000000000000e+03 6.977296447753906250e+01 4.991582393646240234e+00 -4.404304623603820801e-01 6.308935165405273438e+00 1.760551452636718750e+00 -1.134486794471740723e+00
2.590000000000000000e+03 6.071777343750000000e+01 9.581131935119628906e+00 4.604459404945373535e-01 3.272379398345947266e+00 1.119847655296325684e+00 -8.557926416397094727e-01
2.591000000000000000e+03 7.050672912597656250e+01 -2.456513977050781250e+01 -8.984972238540649414e-01 8.225926399230957031e+00 2.198228836059570312e+00 -9.035573154687881470e-02
2.592000000000000000e+03 7.135474205017089844e+00 -2.387956619262695312e+01 -4.582022428512573242e-01 1.368871450424194336e+00 2.732007801532745361e-01 6.418507099151611328e-01
2.593000000000000000e+03 6.301910018920898438e+01 -1.006557583808898926e+00 -1.747689247131347656e-01 1.925837635993957520e+00 5.253205895423889160e-01 -1.833461880683898926e+00
2.594000000000000000e+03 3.225604629516601562e+01 9.174158096313476562e+00 1.634404659271240234e-01 8.378244042396545410e-01 3.003794550895690918e-01 8.078390359878540039e-01
2.595000000000000000e+03 3.044091796875000000e+01 1.225646305084228516e+01 -6.275383755564689636e-03 7.857460379600524902e-01 2.338411957025527954e-01 7.094332575798034668e-01
2.596000000000000000e+03 7.086019134521484375e+01 1.443538284301757812e+01 1.654444485902786255e-01 5.903790473937988281e+00 1.820770382881164551e+00 -7.404268980026245117e-01
2.597000000000000000e+03 3.144047164916992188e+01 1.310938072204589844e+01 5.702638998627662659e-02 7.994741797447204590e-01 2.569501698017120361e-01 6.867930293083190918e-01
2.598000000000000000e+03 8.756124496459960938e+00 -2.938261222839355469e+01 -4.059770107269287109e-01 9.125343561172485352e-01 1.519671976566314697e-01 3.530254960060119629e-01
2.599000000000000000e+03 3.719881820678710938e+01 1.828370666503906250e+01 3.841888606548309326e-01 1.157574772834777832e+00 4.625290930271148682e-01 3.659259080886840820e-01
2.600000000000000000e+03 5.573436737060546875e+01 1.612510561943054199e+00 -1.041599782183766365e-03 8.448988795280456543e-01 2.531571984291076660e-01 2.142755081877112389e-03
2.601000000000000000e+03 9.119276046752929688e+00 3.076697731018066406e+01 2.470317482948303223e-02 -4.925994277000427246e-01 -1.403688788414001465e-01 1.054154932498931885e-01
2.602000000000000000e+03 6.321684265136718750e+01 -3.214709472656250000e+01 -1.258749514818191528e-01 3.518265247344970703e+00 1.017717123031616211e+00 4.890720844268798828e-01
2.603000000000000000e+03 6.404637908935546875e+01 -3.023590087890625000e+01 -3.254989683628082275e-01 4.071724891662597656e+00 1.123867750167846680e+00 6.349916458129882812e-01
2.604000000000000000e+03 5.530563735961914062e+01 -3.774876594543457031e+00 -1.126591563224792480e+00 2.795161902904510498e-01 -2.541226148605346680e-01 -1.814058795571327209e-02
2.605000000000000000e+03 5.734915924072265625e+01 -3.012241125106811523e+00 -9.851886630058288574e-01 3.927111327648162842e-01 -1.777432560920715332e-01 -1.564887166023254395e-01
2.606000000000000000e+03 3.859171295166015625e+01 -1.214786434173583984e+01 -9.770758748054504395e-01 2.572964876890182495e-02 -2.854038774967193604e-01 -3.038052916526794434e-01
2.607000000000000000e+03 3.944744491577148438e+01 -9.938016891479492188e+00 -7.399634718894958496e-01 5.066313222050666809e-02 -2.067901045083999634e-01 -1.403484493494033813e-01
2.608000000000000000e+03 8.847126007080078125e+00 1.518748664855957031e+01 2.148024588823318481e-01 -3.200453221797943115e-01 -3.157285228371620178e-02 3.207731246948242188e-01
2.609000000000000000e+03 7.026719665527343750e+01 2.453915596008300781e+01 1.535807847976684570e-01 5.466540336608886719e+00 1.686036348342895508e+00 -4.494183361530303955e-01
2.610000000000000000e+03 3.204326629638671875e+01 1.641450119018554688e+01 1.105694919824600220e-01 7.782611846923828125e-01 2.666491866111755371e-01 4.496711194515228271e-01
2.611000000000000000e+03 3.132599449157714844e+01 8.249916076660156250e+00 1.969181150197982788e-01 7.731785774230957031e-01 2.910290062427520752e-01 7.896595597267150879e-01
2.612000000000000000e+03 3.422666931152343750e+01 9.232262611389160156e+00 1.624573469161987305e-01 8.967157006263732910e-01 3.177519142627716064e-01 7.975701689720153809e-01
2.613000000000000000e+03 3.692429351806640625e+01 8.930072784423828125e+00 1.276099830865859985e-01 1.006064295768737793e+00 3.401022851467132568e-01 7.222421169281005859e-01
2.614000000000000000e+03 6.939347076416015625e+01 -2.848002052307128906e+01 -6.233493089675903320e-01 7.000524997711181641e+00 1.913152694702148438e+00 1.758432388305664062e-01
2.615000000000000000e+03 1.798227882385253906e+01 2.350502204895019531e+01 1.162076666951179504e-01 5.524459853768348694e-02 5.143567919731140137e-02 4.257673323154449463e-01
2.616000000000000000e+03 1.727864646911621094e+01 2.622953987121582031e+01 1.152740120887756348e-01 -1.712007331661880016e-03 3.406859934329986572e-02 3.401419818401336670e-01
2.617000000000000000e+03 6.186592102050781250e+01 1.592146205902099609e+01 5.966911315917968750e-01 3.828238964080810547e+00 1.327479004859924316e+00 -6.643320918083190918e-01
2.618000000000000000e+03 6.163830947875976562e+01 1.728815841674804688e+01 5.245761871337890625e-01 3.860453844070434570e+00 1.315508961677551270e+00 -6.191121339797973633e-01
2.619000000000000000e+03 5.721958160400390625e+01 1.963441658020019531e+01 3.537773787975311279e-01 3.155072689056396484e+00 1.052655100822448730e+00 -6.326442360877990723e-01
2.620000000000000000e+03 7.883479118347167969e+00 1.170828056335449219e+01 7.645223289728164673e-02 -2.889215350151062012e-01 -6.374078989028930664e-02 4.187758862972259521e-01
2.621000000000000000e+03 6.978600311279296875e+01 1.724770164489746094e+01 2.188280224800109863e-01 5.555968761444091797e+00 1.732439160346984863e+00 -6.745038032531738281e-01
2.622000000000000000e+03 6.981506347656250000e+01 1.533904075622558594e+01 2.052942514419555664e-01 5.595816135406494141e+00 1.740333080291748047e+00 -7.505975365638732910e-01
2.623000000000000000e+03 5.611421966552734375e+01 -4.457968235015869141e+00 -1.328329443931579590e+00 2.212512940168380737e-01 -3.321234583854675293e-01 -8.412241190671920776e-02
2.624000000000000000e+03 4.689698410034179688e+01 -8.624786376953125000e+00 -1.183084130287170410e+00 1.264546364545822144e-01 -3.169888257980346680e-01 -1.708490550518035889e-01
2.625000000000000000e+03 5.870714950561523438e+01 -2.917596101760864258e-01 -2.104954272508621216e-01 8.988158702850341797e-01 2.064961344003677368e-01 -4.482151567935943604e-01
2.626000000000000000e+03 3.588885879516601562e+01 7.585647583007812500e+00 1.003401726484298706e-01 9.230926632881164551e-01 3.070298433303833008e-01 7.392318248748779297e-01
2.627000000000000000e+03 3.709938049316406250e+01 6.808225154876708984e+00 2.825365215539932251e-02 9.272146821022033691e-01 2.866404950618743896e-01 6.685159206390380859e-01
2.628000000000000000e+03 5.751047515869140625e+01 -8.037887513637542725e-03 -2.244901061058044434e-01 8.087286949157714844e-01 1.752715855836868286e-01 -2.796114087104797363e-01
2.629000000000000000e+03 6.537671661376953125e+01 -3.324326324462890625e+01 -1.412592828273773193e-01 4.737929821014404297e+00 1.379001140594482422e+00 4.659114778041839600e-01
2.630000000000000000e+03 6.999733734130859375e+01 1.088170814514160156e+01 5.126134306192398071e-02 5.884530544281005859e+00 1.780737638473510742e+00 -9.287078380584716797e-01
2.631000000000000000e+03 7.091831970214843750e+01 9.022940635681152344e+00 -7.075964659452438354e-02 6.254068374633789062e+00 1.854992628097534180e+00 -9.149596691131591797e-01
2.632000000000000000e+03 3.495141983032226562e+01 5.808369636535644531e+00 5.220570042729377747e-02 8.719598054885864258e-01 2.772496640682220459e-01 7.269676923751831055e-01
2.633000000000000000e+03 3.918904495239257812e+01 5.793466567993164062e+00 -4.407803341746330261e-02 8.693588376045227051e-01 2.475842386484146118e-01 5.021200180053710938e-01
2.634000000000000000e+03 6.410196685791015625e+01 1.456258583068847656e+01 5.057891607284545898e-01 4.234318733215332031e+00 1.422032356262207031e+00 -7.944749593734741211e-01
2.635000000000000000e+03 7.062321472167968750e+01 3.239599609375000000e+01 1.230494230985641479e-01 5.342041015625000000e+00 1.639527201652526855e+00 -2.489476799964904785e-01
2.636000000000000000e+03 3.483821868896484375e+01 -1.043833732604980469e+01 -2.717826366424560547e-01 -5.119252949953079224e-02 -9.689255058765411377e-02 -9.805401414632797241e-02
2.637000000000000000e+03 3.212418746948242188e+01 7.283733367919921875e+00 1.594599485397338867e-01 8.399609327316284180e-01 2.998262643814086914e-01 7.672141790390014648e-01
2.638000000000000000e+03 7.047548675537109375e+01 -2.700810813903808594e+01 -7.466752529144287109e-01 7.708142280578613281e+00 2.088440179824829102e+00 1.898637600243091583e-02
2.639000000000000000e+03 8.706002235412597656e+00 2.773620033264160156e+01 2.053529396653175354e-02 -4.610395431518554688e-01 -1.321512758731842041e-01 1.207114830613136292e-01
2.640000000000000000e+03 4.651519393920898438e+01 -7.576916217803955078e+00 -1.049044489860534668e+00 1.453870981931686401e-01 -2.710972428321838379e-01 -7.814372330904006958e-02
2.641000000000000000e+03 4.114852523803710938e+01 2.773097038269042969e+00 -6.711082160472869873e-02 5.314139127731323242e-01 1.392909288406372070e-01 3.501914441585540771e-01
2.642000000000000000e+03 1.246290969848632812e+01 -2.868796730041503906e+01 -2.404460757970809937e-01 1.405936598777770996e+00 3.496471643447875977e-01 -1.553232669830322266e-01
2.643000000000000000e+03 1.496519374847412109e+01 -3.411224746704101562e+01 -3.060262799263000488e-01 1.016753911972045898e+00 2.132183015346527100e-01 -9.484535455703735352e-02
2.644000000000000000e+03 4.963766860961914062e+01 -1.342173218727111816e+00 -3.869045078754425049e-01 2.140549272298812866e-01 -5.185486748814582825e-02 2.569380104541778564e-01
2.645000000000000000e+03 8.867444038391113281e+00 2.375318145751953125e+01 3.933509066700935364e-02 -3.844002485275268555e-01 -1.035195514559745789e-01 1.405148804187774658e-01
2.646000000000000000e+03 1.207594585418701172e+01 2.592349624633789062e+01 4.358857497572898865e-02 -2.151061743497848511e-01 -5.145528167486190796e-02 2.033694088459014893e-01
2.647000000000000000e+03 1.221009445190429688e+01 2.051272010803222656e+01 1.144204214215278625e-01 -4.529828578233718872e-02 2.073664031922817230e-02 2.062715291976928711e-01
2.648000000000000000e+03 6.950061798095703125e+01 2.600398063659667969e+01 1.709722429513931274e-01 5.315045833587646484e+00 1.645805478096008301e+00 -4.266635477542877197e-01
2.649000000000000000e+03 7.078513336181640625e+01 2.303929328918457031e+01 1.583971977233886719e-01 5.630082130432128906e+00 1.736543774604797363e+00 -4.693870246410369873e-01
2.650000000000000000e+03 5.731256484985351562e+01 2.381707572937011719e+01 4.312232136726379395e-01 2.975258827209472656e+00 1.021944642066955566e+00 -6.015899181365966797e-01
2.651000000000000000e+03 4.691704940795898438e+01 2.765292930603027344e+01 6.848934888839721680e-01 1.454221963882446289e+00 6.417346000671386719e-01 1.489884853363037109e-01
2.652000000000000000e+03 5.633610534667968750e+01 2.117483711242675781e+01 3.597902953624725342e-01 2.818977832794189453e+00 9.536304473876953125e-01 -7.013284564018249512e-01
2.653000000000000000e+03 5.793771743774414062e+01 2.219397735595703125e+01 3.808450400829315186e-01 3.205958843231201172e+00 1.076041221618652344e+00 -6.172314286231994629e-01
2.654000000000000000e+03 4.903260421752929688e+01 2.656350135803222656e+01 7.493734955787658691e-01 1.487075090408325195e+00 6.709345579147338867e-01 -9.090606123208999634e-03
2.655000000000000000e+03 4.149998092651367188e+01 2.649194717407226562e+01 4.557567834854125977e-01 1.279082775115966797e+00 5.204519033432006836e-01 3.275315761566162109e-01
2.656000000000000000e+03 4.382663345336914062e+01 2.601140594482421875e+01 5.329459309577941895e-01 1.312093496322631836e+00 5.535117983818054199e-01 3.527301251888275146e-01
2.657000000000000000e+03 2.577088737487792969e+01 2.246489715576171875e+01 2.596123814582824707e-01 1.565063744783401489e-01 1.248356252908706665e-01 2.743271291255950928e-01
2.658000000000000000e+03 2.572120285034179688e+01 -6.267356395721435547e+00 -2.891533672809600830e-01 2.205796003341674805e+00 5.749927759170532227e-01 1.182942986488342285e+00
2.659000000000000000e+03 2.439060783386230469e+01 -6.882369041442871094e+00 -4.261125326156616211e-01 2.520131111145019531e+00 6.282055974006652832e-01 7.229561209678649902e-01
2.660000000000000000e+03 2.548079872131347656e+01 -7.364256858825683594e+00 2.688146382570266724e-02 2.691195726394653320e+00 8.154231309890747070e-01 1.442125201225280762e+00
2.661000000000000000e+03 2.542356109619140625e+01 -6.697384357452392578e+00 -2.334969192743301392e-01 2.418571472167968750e+00 6.555223464965820312e-01 1.202697515487670898e+00
2.662000000000000000e+03 2.831541442871093750e+01 -9.282396316528320312e+00 1.625489354133605957e+00 6.075404882431030273e-01 6.699089407920837402e-01 1.216279745101928711e+00
2.663000000000000000e+03 2.668170356750488281e+01 -8.364574432373046875e+00 1.207855224609375000e+00 1.939527273178100586e+00 9.442147612571716309e-01 1.933486580848693848e+00
2.664000000000000000e+03 2.559885978698730469e+01 -5.103408336639404297e+00 -5.173498988151550293e-01 1.909741163253784180e+00 4.177173674106597900e-01 9.283317327499389648e-01
2.665000000000000000e+03 9.827210426330566406e+00 7.457699775695800781e+00 -2.251940816640853882e-01 -1.271467804908752441e-01 -1.057022586464881897e-01 4.268142580986022949e-01
2.666000000000000000e+03 2.924288368225097656e+01 -1.155285167694091797e+01 1.053583025932312012e+00 -8.849561214447021484e-02 2.895262241363525391e-01 -2.214810848236083984e-01
2.667000000000000000e+03 2.887326240539550781e+01 -1.008269309997558594e+01 1.606268405914306641e+00 1.528035551309585571e-01 5.277215838432312012e-01 6.220589876174926758e-01
2.668000000000000000e+03 4.076804351806640625e+01 -7.755187511444091797e+00 -6.298154592514038086e-01 1.219450086355209351e-01 -1.523611396551132202e-01 2.252226136624813080e-02
2.669000000000000000e+03 2.626759147644042969e+01 -3.274634599685668945e+00 -5.535559058189392090e-01 1.556344866752624512e+00 3.008366823196411133e-01 8.280832767486572266e-01
2.670000000000000000e+03 2.630320358276367188e+01 -2.657404661178588867e+00 -5.662585496902465820e-01 1.491504788398742676e+00 2.775738537311553955e-01 7.766065001487731934e-01
2.671000000000000000e+03 2.702283859252929688e+01 8.776614069938659668e-01 -3.995049595832824707e-01 1.232306122779846191e+00 2.498403638601303101e-01 5.927211642265319824e-01
2.672000000000000000e+03 6.406235694885253906e+00 6.981412410736083984e+00 -1.297601461410522461e-01 -1.595022380352020264e-01 -8.677871525287628174e-02 3.155390620231628418e-01
2.673000000000000000e+03 2.613925933837890625e+01 -1.935416817665100098e+00 -5.739381313323974609e-01 1.405474305152893066e+00 2.494608461856842041e-01 7.050729990005493164e-01
2.674000000000000000e+03 2.545033073425292969e+01 -2.122566699981689453e+00 -6.213877201080322266e-01 1.394709110260009766e+00 2.319964021444320679e-01 6.361402869224548340e-01
2.675000000000000000e+03 6.827814483642578125e+01 5.680755138397216797e+00 -2.910735011100769043e-01 5.688710212707519531e+00 1.619291067123413086e+00 -1.278727054595947266e+00
2.676000000000000000e+03 7.120524597167968750e+01 1.457968592643737793e+00 -1.042207717895507812e+00 7.646045684814453125e+00 1.981151461601257324e+00 -8.173508644104003906e-01
2.677000000000000000e+03 3.004327583312988281e+01 -1.174354553222656250e+01 5.587924718856811523e-01 -1.266340017318725586e-01 1.296475380659103394e-01 -3.110350668430328369e-01
2.678000000000000000e+03 3.809066772460937500e+01 4.484555721282958984e+00 -4.489219561219215393e-02 7.965951561927795410e-01 2.255108952522277832e-01 5.658886432647705078e-01
2.679000000000000000e+03 2.590202522277832031e+01 -1.193103432655334473e+00 -5.744672417640686035e-01 1.331495761871337891e+00 2.271085530519485474e-01 6.345252990722656250e-01
2.680000000000000000e+03 9.383902549743652344e+00 -7.489752769470214844e+00 -7.750422358512878418e-01 2.819304466247558594e+00 6.132786870002746582e-01 2.420180104672908783e-02
2.681000000000000000e+03 3.277549743652343750e+01 -1.035956954956054688e+01 1.411166191101074219e-01 -9.348679333925247192e-02 1.428894978016614914e-02 1.769353169947862625e-03
2.682000000000000000e+03 3.043731498718261719e+01 -1.106458377838134766e+01 7.117812633514404297e-01 -1.118106991052627563e-01 1.799911707639694214e-01 -7.132096588611602783e-02
2.683000000000000000e+03 3.069584083557128906e+01 -1.023514747619628906e+01 7.598829269409179688e-01 -5.189656466245651245e-02 2.123959064483642578e-01 2.260460406541824341e-01
2.684000000000000000e+03 4.727167129516601562e+01 -6.045787811279296875e+00 -9.231564998626708984e-01 1.649140268564224243e-01 -2.274727523326873779e-01 2.458151429891586304e-02
2.685000000000000000e+03 6.930065155029296875e+01 1.246773242950439453e+01 1.605253517627716064e-01 5.592570304870605469e+00 1.725928783416748047e+00 -9.078785181045532227e-01
2.686000000000000000e+03 7.858355045318603516e+00 1.089924526214599609e+01 2.594950608909130096e-02 -2.550241649150848389e-01 -6.872239708900451660e-02 4.339284598827362061e-01
2.687000000000000000e+03 4.544985961914062500e+01 -8.031860351562500000e+00 -1.012001276016235352e+00 1.336525976657867432e-01 -2.635045945644378662e-01 -9.707384556531906128e-02
2.688000000000000000e+03 4.317374801635742188e+01 -8.603108406066894531e+00 -8.929207324981689453e-01 1.127152517437934875e-01 -2.340616285800933838e-01 -9.748177230358123779e-02
2.689000000000000000e+03 3.839486694335937500e+01 -9.530469894409179688e+00 -6.057377457618713379e-01 5.077774077653884888e-02 -1.664880067110061646e-01 -7.829860597848892212e-02
2.690000000000000000e+03 1.154001998901367188e+01 -2.761901092529296875e+01 -3.081214725971221924e-01 1.587284326553344727e+00 3.837488591670989990e-01 -1.134615465998649597e-01
2.691000000000000000e+03 9.795811653137207031e+00 -2.780217552185058594e+01 -4.213506877422332764e-01 1.367317557334899902e+00 2.837900519371032715e-01 1.924678832292556763e-01
2.692000000000000000e+03 4.591214370727539062e+01 1.300081968307495117e+00 -3.462484106421470642e-02 2.011688500642776489e-01 4.996320232748985291e-02 2.525431513786315918e-01
2.693000000000000000e+03 7.006771087646484375e+01 -2.404154777526855469e+00 -1.878114581108093262e+00 9.132982254028320312e+00 2.176460266113281250e+00 -1.105915307998657227e+00
2.694000000000000000e+03 3.514572525024414062e+01 8.390543937683105469e+00 1.288802176713943481e-01 9.186123609542846680e-01 3.142477571964263916e-01 7.681761980056762695e-01
2.695000000000000000e+03 5.956943511962890625e+01 1.949563980102539062e+00 9.229344129562377930e-02 1.610457420349121094e+00 5.108252763748168945e-01 -7.183467745780944824e-01
2.696000000000000000e+03 5.718462371826171875e+01 3.240720510482788086e+00 1.845111548900604248e-01 1.285125136375427246e+00 4.408908784389495850e-01 -2.254570722579956055e-01
2.697000000000000000e+03 5.349340057373046875e+01 8.598773181438446045e-02 -2.159404456615447998e-01 4.262284934520721436e-01 6.308641284704208374e-02 2.055251747369766235e-01
2.698000000000000000e+03 6.791065979003906250e+01 -1.785900115966796875e+00 -1.422963023185729980e+00 6.875494003295898438e+00 1.635759353637695312e+00 -2.413784980773925781e+00
2.699000000000000000e+03 7.231730651855468750e+01 7.837412357330322266e+00 -1.714653074741363525e-01 6.776730060577392578e+00 1.981579422950744629e+00 -7.777892351150512695e-01
2.700000000000000000e+03 6.926868438720703125e+01 6.114168643951416016e+00 -3.097542226314544678e-01 5.985564231872558594e+00 1.702743053436279297e+00 -1.178020596504211426e+00
2.701000000000000000e+03 5.587121582031250000e+01 -3.228282451629638672e+00 -9.985010027885437012e-01 3.455156385898590088e-01 -1.958955973386764526e-01 -1.165951509028673172e-02
2.702000000000000000e+03 3.472539901733398438e+01 -1.142041683197021484e+01 -4.641093909740447998e-01 -6.553690880537033081e-02 -1.588938981294631958e-01 -2.454031556844711304e-01
2.703000000000000000e+03 3.696344375610351562e+01 -9.965078353881835938e+00 -4.828879535198211670e-01 1.068753376603126526e-02 -1.416601240634918213e-01 -9.016974270343780518e-02
2.704000000000000000e+03 6.718112945556640625e+01 -3.029911816120147705e-01 -1.000040650367736816e+00 5.759248256683349609e+00 1.427762269973754883e+00 -2.314449071884155273e+00
2.705000000000000000e+03 6.618506622314453125e+01 1.682482212781906128e-01 -7.949462532997131348e-01 4.937105178833007812e+00 1.242647647857666016e+00 -2.244754314422607422e+00
2.706000000000000000e+03 6.875023651123046875e+01 1.966431045532226562e+01 2.411659210920333862e-01 5.284559249877929688e+00 1.657717466354370117e+00 -6.034778952598571777e-01
2.707000000000000000e+03 5.035589599609375000e+01 -1.545366495847702026e-01 -2.075339704751968384e-01 2.357099950313568115e-01 8.452806621789932251e-03 2.871043086051940918e-01
2.708000000000000000e+03 4.991919326782226562e+01 -5.154252052307128906e+00 -1.018890857696533203e+00 1.953483968973159790e-01 -2.470627427101135254e-01 6.018314138054847717e-02
2.709000000000000000e+03 3.573778533935546875e+01 -1.048888301849365234e+01 -3.971387147903442383e-01 -3.123674914240837097e-02 -1.285126358270645142e-01 -1.246133819222450256e-01
2.710000000000000000e+03 8.545333862304687500e+00 1.953019523620605469e+01 1.278511732816696167e-01 -3.548755645751953125e-01 -6.810732185840606689e-02 1.741617321968078613e-01
2.711000000000000000e+03 6.993185424804687500e+01 7.604838848114013672e+00 -1.635793894529342651e-01 6.075782299041748047e+00 1.773660898208618164e+00 -1.045791983604431152e+00
2.712000000000000000e+03 3.260594940185546875e+01 1.099909591674804688e+01 1.456342339515686035e-01 8.552019596099853516e-01 3.002508580684661865e-01 7.901276350021362305e-01
2.713000000000000000e+03 3.122070121765136719e+01 1.518286228179931641e+01 1.238980796188116074e-02 7.508229613304138184e-01 2.289638370275497437e-01 5.235696434974670410e-01
2.714000000000000000e+03 6.998393249511718750e+01 1.347518825531005859e+01 1.654208749532699585e-01 5.706369400024414062e+00 1.761537075042724609e+00 -8.303575515747070312e-01
2.715000000000000000e+03 9.234230041503906250e+00 2.092040061950683594e+01 1.022772639989852905e-01 -3.093685209751129150e-01 -6.212737783789634705e-02 1.599341928958892822e-01
2.716000000000000000e+03 6.632281494140625000e+01 9.920413970947265625e+00 1.944649219512939453e-01 4.781397819519042969e+00 1.492758870124816895e+00 -1.115072607994079590e+00
2.717000000000000000e+03 6.233901214599609375e+01 1.163373565673828125e+01 5.128040909767150879e-01 3.722018480300903320e+00 1.270446777343750000e+00 -9.206244349479675293e-01
2.718000000000000000e+03 1.600103950500488281e+01 2.302013206481933594e+01 7.367087900638580322e-02 6.829240918159484863e-02 4.258898645639419556e-02 3.667004108428955078e-01
2.719000000000000000e+03 5.955904388427734375e+01 4.498765468597412109e+00 2.248750925064086914e-01 2.179468393325805664e+00 7.213030457496643066e-01 -7.235257625579833984e-01
2.720000000000000000e+03 5.482836532592773438e+01 -1.955545693635940552e-02 -2.488533407449722290e-01 5.101828575134277344e-01 7.839886099100112915e-02 1.105143427848815918e-01
2.721000000000000000e+03 5.565153884887695312e+01 -3.738257884979248047e-01 -3.361196219921112061e-01 5.859567523002624512e-01 7.495112717151641846e-02 -1.117889303714036942e-02
2.722000000000000000e+03 5.663582229614257812e+01 -1.664181351661682129e+00 -6.395713686943054199e-01 5.291846990585327148e-01 -3.311600536108016968e-02 -1.010000109672546387e-01
2.723000000000000000e+03 5.718534469604492188e+01 -8.611167073249816895e-01 -3.712565004825592041e-01 6.209891438484191895e-01 7.491979748010635376e-02 -1.661272048950195312e-01
2.724000000000000000e+03 6.872223854064941406e+00 -2.653219223022460938e+01 -4.420632123947143555e-01 7.682505846023559570e-01 9.785620868206024170e-02 6.759760379791259766e-01
2.725000000000000000e+03 7.155141353607177734e+00 -2.797924041748046875e+01 -4.057965278625488281e-01 6.786386966705322266e-01 8.185265213251113892e-02 5.790343880653381348e-01
2.726000000000000000e+03 7.037117767333984375e+01 6.361424922943115234e+00 -2.957936823368072510e-01 6.344767093658447266e+00 1.814692020416259766e+00 -1.011256098747253418e+00
2.727000000000000000e+03 1.079018497467041016e+01 2.317197227478027344e+01 5.358520150184631348e-02 -2.284610569477081299e-01 -5.246275663375854492e-02 1.806317269802093506e-01
2.728000000000000000e+03 4.162248229980468750e+01 1.547209978103637695e+00 -9.667431563138961792e-02 4.325235784053802490e-01 1.007547825574874878e-01 3.394101262092590332e-01
2.729000000000000000e+03 1.130786991119384766e+01 3.224094772338867188e+01 4.640926048159599304e-02 -3.821209371089935303e-01 -1.007134988903999329e-01 1.205726116895675659e-01
2.730000000000000000e+03 1.032961368560791016e+01 2.874781227111816406e+01 2.750132791697978973e-02 -3.839816749095916748e-01 -1.069440990686416626e-01 1.393183916807174683e-01
2.731000000000000000e+03 6.466276550292968750e+01 -4.331808090209960938e-01 -4.536585807800292969e-01 3.484410762786865234e+00 9.092256426811218262e-01 -2.273210763931274414e+00
2.732000000000000000e+03 5.430346679687500000e+01 -6.915758848190307617e-01 -4.037455618381500244e-01 4.687137603759765625e-01 1.949045993387699127e-02 1.392673850059509277e-01
2.733000000000000000e+03 3.878464508056640625e+01 -8.639741897583007812e+00 -5.444381237030029297e-01 7.282783091068267822e-02 -1.414830833673477173e-01 -1.278087589889764786e-02
2.734000000000000000e+03 5.241516494750976562e+01 -3.375936269760131836e+00 -8.409323692321777344e-01 2.617225646972656250e-01 -1.737629324197769165e-01 1.475862711668014526e-01
2.735000000000000000e+03 2.876296997070312500e+01 2.235689878463745117e+00 -1.922640651464462280e-01 1.110800027847290039e+00 2.755607962608337402e-01 6.028286218643188477e-01
2.736000000000000000e+03 2.130006980895996094e+01 2.269303131103515625e+01 2.240795642137527466e-01 -1.578804687596857548e-03 6.675022840499877930e-02 4.435402452945709229e-01
2.737000000000000000e+03 1.888625717163085938e+01 2.514636802673339844e+01 1.568703502416610718e-01 3.538322448730468750e-02 5.767607316374778748e-02 3.884311914443969727e-01
2.738000000000000000e+03 1.089482402801513672e+01 2.011611747741699219e+01 1.403161883354187012e-01 -1.589166671037673950e-01 -5.580146797001361847e-03 1.829157024621963501e-01
2.739000000000000000e+03 5.972100830078125000e+01 6.909803390502929688e+00 3.468601703643798828e-01 2.686244964599609375e+00 9.099316000938415527e-01 -7.514849305152893066e-01
2.740000000000000000e+03 6.057905578613281250e+01 7.365776538848876953e+00 3.521491587162017822e-01 2.879751205444335938e+00 9.695701599121093750e-01 -8.657414913177490234e-01
2.741000000000000000e+03 6.944766235351562500e+01 2.274481773376464844e+01 1.950450092554092407e-01 5.374707698822021484e+00 1.670925855636596680e+00 -5.186062455177307129e-01
2.742000000000000000e+03 6.960643005371093750e+01 2.133810043334960938e+01 2.050362527370452881e-01 5.432579517364501953e+00 1.691284775733947754e+00 -5.433793663978576660e-01
2.743000000000000000e+03 6.073433303833007812e+01 1.847588729858398438e+01 4.785606563091278076e-01 3.740475654602050781e+00 1.265710949897766113e+00 -5.702527165412902832e-01
2.744000000000000000e+03 6.012373352050781250e+01 2.178428459167480469e+01 3.727332949638366699e-01 3.624374628067016602e+00 1.199132323265075684e+00 -5.776044726371765137e-01
2.745000000000000000e+03 3.043614768981933594e+01 2.023197174072265625e+01 1.747199594974517822e-01 5.615794658660888672e-01 2.208898365497589111e-01 2.567767500877380371e-01
2.746000000000000000e+03 3.819765090942382812e+01 3.210496664047241211e+00 -6.977315992116928101e-02 7.114430069923400879e-01 1.925009489059448242e-01 5.463240742683410645e-01
2.747000000000000000e+03 3.263168334960937500e+01 6.165653228759765625e+00 1.173954755067825317e-01 8.422542214393615723e-01 2.878949046134948730e-01 7.381504774093627930e-01
2.748000000000000000e+03 1.309640026092529297e+01 2.472768592834472656e+01 5.182394385337829590e-02 -1.201305463910102844e-01 -2.049198187887668610e-02 2.429345399141311646e-01
2.749000000000000000e+03 1.172712039947509766e+01 2.806009101867675781e+01 4.534641653299331665e-02 -2.886754572391510010e-01 -7.299870997667312622e-02 1.726393699645996094e-01
2.750000000000000000e+03 3.711844635009765625e+01 5.725553512573242188e+00 -6.737328949384391308e-04 8.770143985748291016e-01 2.629022002220153809e-01 6.445897817611694336e-01
2.751000000000000000e+03 3.612322998046875000e+01 6.710738182067871094e+00 5.260480940341949463e-02 9.124863743782043457e-01 2.895273566246032715e-01 7.151141762733459473e-01
2.752000000000000000e+03 6.956415557861328125e+01 -2.581899833679199219e+01 -8.374021053314208984e-01 7.499473571777343750e+00 1.998621463775634766e+00 9.343811124563217163e-02
2.753000000000000000e+03 6.724218750000000000e+01 -2.809532165527343750e+01 -6.675378084182739258e-01 5.919600963592529297e+00 1.575618982315063477e+00 5.188429355621337891e-01
2.754000000000000000e+03 4.860644912719726562e+01 -3.633707761764526367e-01 -2.105302065610885620e-01 1.827997565269470215e-01 -8.319132961332798004e-03 2.732869982719421387e-01
2.755000000000000000e+03 4.694505691528320312e+01 -2.108565568923950195e-01 -1.859696656465530396e-01 1.889130771160125732e-01 8.830235456116497517e-04 2.631435394287109375e-01
2.756000000000000000e+03 4.434933853149414062e+01 -8.410755157470703125e+00 -9.722957611083984375e-01 1.251278668642044067e-01 -2.541503608226776123e-01 -1.033182814717292786e-01
2.757000000000000000e+03 9.922247886657714844e+00 -2.910729598999023438e+01 -4.239158928394317627e-01 1.175256013870239258e+00 2.254020273685455322e-01 2.538220286369323730e-01
2.758000000000000000e+03 9.278635025024414062e+00 -3.112980079650878906e+01 -3.758572340011596680e-01 8.550297021865844727e-01 1.437517404556274414e-01 3.041433990001678467e-01
2.759000000000000000e+03 3.861227798461914062e+01 2.529354095458984375e+01 3.769769668579101562e-01 1.188772201538085938e+00 4.697247445583343506e-01 2.920888364315032959e-01
2.760000000000000000e+03 6.183590316772460938e+01 1.974408912658691406e+01 4.077514410018920898e-01 3.901126146316528320e+00 1.292663335800170898e+00 -5.799004435539245605e-01
2.761000000000000000e+03 6.077264404296875000e+01 2.063482475280761719e+01 3.901297152042388916e-01 3.748599767684936523e+00 1.241618871688842773e+00 -5.797012448310852051e-01
2.762000000000000000e+03 6.453746032714843750e+01 1.801303863525390625e+01 4.086220860481262207e-01 4.409892559051513672e+00 1.445554375648498535e+00 -6.675103902816772461e-01
2.763000000000000000e+03 9.197564125061035156e+00 3.500622558593750000e+01 4.877801239490509033e-02 -5.346135497093200684e-01 -1.457506567239761353e-01 7.352299988269805908e-02
2.764000000000000000e+03 3.546080398559570312e+01 1.454421043395996094e+01 2.990164458751678467e-01 1.000812172889709473e+00 3.899485766887664795e-01 5.892614126205444336e-01
2.765000000000000000e+03 1.103824996948242188e+01 2.690009880065917969e+01 3.942652791738510132e-02 -2.982506155967712402e-01 -7.764723151922225952e-02 1.742100864648818970e-01
2.766000000000000000e+03 5.370497512817382812e+01 -2.186353683471679688e+00 -6.387547254562377930e-01 3.424167931079864502e-01 -8.890138566493988037e-02 1.641573458909988403e-01
2.767000000000000000e+03 5.992274093627929688e+01 8.277221679687500000e+00 4.028230905532836914e-01 2.906566381454467773e+00 9.928168654441833496e-01 -7.520982027053833008e-01
2.768000000000000000e+03 6.857778930664062500e+01 2.753524780273437500e+01 1.792819648981094360e-01 5.128357410430908203e+00 1.592291712760925293e+00 -4.075601994991302490e-01
2.769000000000000000e+03 6.825789642333984375e+01 2.315973663330078125e+01 2.251561135053634644e-01 5.132650852203369141e+00 1.607342123985290527e+00 -5.308411121368408203e-01
2.770000000000000000e+03 2.606078529357910156e+01 2.085160446166992188e+01 2.068360596895217896e-01 1.253659427165985107e-01 9.966060519218444824e-02 2.592628598213195801e-01
2.771000000000000000e+03 2.414877891540527344e+01 2.190827178955078125e+01 2.471780180931091309e-01 2.749000675976276398e-02 8.240040391683578491e-02 3.310596048831939697e-01
2.772000000000000000e+03 6.597022247314453125e+01 -3.066908836364746094e+01 -3.920379281044006348e-01 5.145285606384277344e+00 1.425974249839782715e+00 5.182133913040161133e-01
2.773000000000000000e+03 6.584331512451171875e+01 -2.861157417297363281e+01 -5.697855949401855469e-01 5.255800724029541016e+00 1.405804514884948730e+00 6.852099299430847168e-01
2.774000000000000000e+03 7.015266418457031250e+01 1.547857165336608887e+00 -1.096095800399780273e+00 7.307784080505371094e+00 1.863506436347961426e+00 -1.221481323242187500e+00
2.775000000000000000e+03 7.118379211425781250e+01 -1.105759620666503906e+00 -1.540234088897705078e+00 8.684192657470703125e+00 2.143187761306762695e+00 -6.248025894165039062e-01
2.776000000000000000e+03 3.523655319213867188e+01 6.853971958160400391e+00 7.980911433696746826e-02 8.845090270042419434e-01 2.892954349517822266e-01 7.416324019432067871e-01
2.777000000000000000e+03 3.377841186523437500e+01 6.163698673248291016e+00 8.927810192108154297e-02 8.454825282096862793e-01 2.804281711578369141e-01 7.481382489204406738e-01
2.778000000000000000e+03 3.770878219604492188e+01 2.345718383789062500e+01 3.314908146858215332e-01 1.175999999046325684e+00 4.522472620010375977e-01 3.021529614925384521e-01
2.779000000000000000e+03 3.793012619018554688e+01 2.042669296264648438e+01 3.212363421916961670e-01 1.235180974006652832e+00 4.669252038002014160e-01 3.139132261276245117e-01
2.780000000000000000e+03 2.488543128967285156e+01 2.293143081665039062e+01 2.729201316833496094e-01 1.012457609176635742e-01 1.122497692704200745e-01 3.074164390563964844e-01
2.781000000000000000e+03 5.949702072143554688e+01 2.313258743286132812e+01 3.730400502681732178e-01 3.494534492492675781e+00 1.160272359848022461e+00 -5.717148780822753906e-01
2.782000000000000000e+03 5.895320510864257812e+01 2.467782211303710938e+01 3.933344483375549316e-01 3.374600887298583984e+00 1.130380630493164062e+00 -5.361439585685729980e-01
2.783000000000000000e+03 5.267520904541015625e+01 2.666469764709472656e+01 6.953839063644409180e-01 2.027332782745361328e+00 8.168150186538696289e-01 -3.143284320831298828e-01
2.784000000000000000e+03 5.678784942626953125e+01 2.556756973266601562e+01 4.703134298324584961e-01 2.845495223999023438e+00 9.947426319122314453e-01 -5.474131107330322266e-01
2.785000000000000000e+03 2.881218338012695312e+01 1.454778003692626953e+01 -1.805788427591323853e-01 6.095910072326660156e-01 1.287036389112472534e-01 4.948761165142059326e-01
2.786000000000000000e+03 8.963596343994140625e+00 3.779657363891601562e+01 4.421169683337211609e-02 -5.944576859474182129e-01 -1.650737971067428589e-01 4.559883475303649902e-02
2.787000000000000000e+03 2.031468963623046875e+01 2.133094596862792969e+01 1.784312725067138672e-01 -1.337701268494129181e-02 4.951627925038337708e-02 5.216340422630310059e-01
2.788000000000000000e+03 1.362279510498046875e+01 2.100664329528808594e+01 8.754250407218933105e-02 5.569550022482872009e-02 4.297140240669250488e-02 2.655853033065795898e-01
2.789000000000000000e+03 1.407268714904785156e+01 1.931513977050781250e+01 1.456599235534667969e-01 1.548142731189727783e-01 9.014226496219635010e-02 2.600679993629455566e-01
2.790000000000000000e+03 4.207338714599609375e+01 3.134612655639648438e+01 5.657234787940979004e-01 1.311886787414550781e+00 5.632830858230590820e-01 1.879506558179855347e-01
2.791000000000000000e+03 7.369332885742187500e+01 -3.724634552001953125e+01 -7.051911205053329468e-02 8.063808441162109375e+00 2.397986888885498047e+00 -2.409452339634299278e-03
2.792000000000000000e+03 7.081815338134765625e+01 -3.770627593994140625e+01 -1.685790531337261200e-02 6.933835029602050781e+00 2.075093030929565430e+00 5.209637060761451721e-02
2.793000000000000000e+03 6.885185241699218750e+01 1.426819133758544922e+01 2.497387826442718506e-01 5.395228385925292969e+00 1.693490147590637207e+00 -8.176327943801879883e-01
2.794000000000000000e+03 2.567268562316894531e+01 -8.049543380737304688e+00 5.208071470260620117e-01 2.838753700256347656e+00 1.007868289947509766e+00 1.816700100898742676e+00
2.795000000000000000e+03 2.577589416503906250e+01 -6.931980133056640625e+00 -6.679587066173553467e-02 2.394853830337524414e+00 6.984173655509948730e-01 1.374512314796447754e+00
2.796000000000000000e+03 2.721702957153320312e+01 -8.465628623962402344e+00 1.333025097846984863e+00 1.483726382255554199e+00 8.450254797935485840e-01 1.791483402252197266e+00
2.797000000000000000e+03 2.582650947570800781e+01 -5.445271492004394531e+00 -4.321973323822021484e-01 1.982972741127014160e+00 4.652326107025146484e-01 1.034153819084167480e+00
2.798000000000000000e+03 2.681722831726074219e+01 -5.082963943481445312e+00 -3.108092248439788818e-01 1.756014823913574219e+00 4.335616827011108398e-01 1.149875164031982422e+00
2.799000000000000000e+03 2.764132308959960938e+01 -1.701090931892395020e+00 -4.559189081192016602e-01 1.357574462890625000e+00 2.704966664314270020e-01 8.112281560897827148e-01
2.800000000000000000e+03 2.949984550476074219e+01 -1.088545131683349609e+01 1.181452512741088867e+00 -7.651586830615997314e-02 3.314809799194335938e-01 8.780287951231002808e-02
2.801000000000000000e+03 3.605038452148437500e+01 -9.608369827270507812e+00 -3.330816328525543213e-01 -1.383407041430473328e-03 -1.003395095467567444e-01 -2.482602000236511230e-02
2.802000000000000000e+03 3.383137893676757812e+01 -1.039799785614013672e+01 -8.975502103567123413e-02 -7.365314662456512451e-02 -4.902245104312896729e-02 -5.120148882269859314e-02
2.803000000000000000e+03 3.971768188476562500e+01 -8.827561378479003906e+00 -6.500871777534484863e-01 7.723236083984375000e-02 -1.718564331531524658e-01 -4.797518253326416016e-02
2.804000000000000000e+03 2.914816665649414062e+01 2.399374693632125854e-01 -3.075612783432006836e-01 1.169344544410705566e+00 2.585349678993225098e-01 7.252835035324096680e-01
2.805000000000000000e+03 2.717285346984863281e+01 -3.232276916503906250e+00 -4.638808071613311768e-01 1.508416652679443359e+00 3.133607804775238037e-01 9.195131063461303711e-01
2.806000000000000000e+03 5.721082305908203125e+01 9.691922068595886230e-01 -8.391074836254119873e-02 9.481248259544372559e-01 2.592642307281494141e-01 -2.219315320253372192e-01
2.807000000000000000e+03 5.542233657836914062e+01 4.137243628501892090e-01 -1.827955991029739380e-01 6.764113903045654297e-01 1.480847299098968506e-01 3.969271108508110046e-02
2.808000000000000000e+03 2.975137138366699219e+01 -1.014590454101562500e+01 1.187708616256713867e+00 2.725089713931083679e-02 3.644878566265106201e-01 4.036967456340789795e-01
2.809000000000000000e+03 3.260124206542968750e+01 -1.127980899810791016e+01 -2.378525771200656891e-02 -1.246828734874725342e-01 -4.454043880105018616e-02 -2.042391300201416016e-01
2.810000000000000000e+03 2.911215209960937500e+01 -9.315757751464843750e+00 1.395408034324645996e+00 3.316813409328460693e-01 5.181267857551574707e-01 9.285243153572082520e-01
2.811000000000000000e+03 2.666653633117675781e+01 -1.001538395881652832e+00 -5.192266106605529785e-01 1.333623528480529785e+00 2.443190664052963257e-01 6.878554821014404297e-01
2.812000000000000000e+03 6.362179565429687500e+01 1.237771797180175781e+01 4.839460253715515137e-01 4.088397026062011719e+00 1.371702909469604492e+00 -9.173054099082946777e-01
2.813000000000000000e+03 6.868148803710937500e+01 7.331517219543457031e+00 -1.198044568300247192e-01 5.676872253417968750e+00 1.667120337486267090e+00 -1.134865164756774902e+00
2.814000000000000000e+03 2.641276550292968750e+01 -1.858966201543807983e-01 -5.022043585777282715e-01 1.278285264968872070e+00 2.328242808580398560e-01 6.189463734626770020e-01
2.815000000000000000e+03 6.130105209350585938e+01 2.732633590698242188e+00 1.270707249641418457e-01 2.316085338592529297e+00 7.329468131065368652e-01 -1.118653774261474609e+00
2.816000000000000000e+03 6.815071868896484375e+01 -6.335346102714538574e-01 -1.452613949775695801e+00 6.925235271453857422e+00 1.641786456108093262e+00 -2.091636419296264648e+00
2.817000000000000000e+03 4.864111709594726562e+01 -2.389919757843017578e+00 -5.137487053871154785e-01 1.962485760450363159e-01 -9.525003284215927124e-02 2.212148457765579224e-01
2.818000000000000000e+03 2.728025436401367188e+01 3.004387021064758301e-03 -4.394735991954803467e-01 1.267474532127380371e+00 2.484002858400344849e-01 6.611306071281433105e-01
2.819000000000000000e+03 4.078042984008789062e+01 -8.923439025878906250e+00 -7.382412552833557129e-01 8.940246701240539551e-02 -1.946516484022140503e-01 -7.388702034950256348e-02
2.820000000000000000e+03 3.855897521972656250e+01 1.947558999061584473e+00 -9.348922967910766602e-02 6.264445781707763672e-01 1.598866134881973267e-01 5.156540870666503906e-01
2.821000000000000000e+03 3.086614418029785156e+01 3.862214565277099609e+00 3.478876547887921333e-03 9.472802281379699707e-01 2.852277159690856934e-01 6.501648426055908203e-01
2.822000000000000000e+03 2.958269500732421875e+01 3.551279544830322266e+00 -4.409356415271759033e-02 1.012188673019409180e+00 2.904285192489624023e-01 5.946747660636901855e-01
2.823000000000000000e+03 6.910987854003906250e+01 1.026484203338623047e+01 6.902783364057540894e-02 5.626460552215576172e+00 1.708646416664123535e+00 -9.906039834022521973e-01
2.824000000000000000e+03 5.842276000976562500e+01 2.280228376388549805e+00 1.088795885443687439e-01 1.386698126792907715e+00 4.486733376979827881e-01 -4.834908843040466309e-01
2.825000000000000000e+03 6.045604705810546875e+01 2.558495104312896729e-01 -6.615869700908660889e-02 1.362130880355834961e+00 3.887916505336761475e-01 -9.123884439468383789e-01
2.826000000000000000e+03 6.674323272705078125e+01 2.028040885925292969e+01 2.947184741497039795e-01 4.846247196197509766e+00 1.542289733886718750e+00 -6.016114354133605957e-01
2.827000000000000000e+03 6.693299102783203125e+01 1.617020797729492188e+01 3.410102725028991699e-01 4.927314281463623047e+00 1.580497384071350098e+00 -7.579990029335021973e-01
2.828000000000000000e+03 2.289589309692382812e+01 2.663839721679687500e+01 2.714107930660247803e-01 1.119604557752609253e-01 1.150113716721534729e-01 3.156923949718475342e-01
2.829000000000000000e+03 4.202991104125976562e+01 -2.839803457260131836e+00 -3.338945508003234863e-01 2.590253353118896484e-01 -2.246076427400112152e-02 2.795335948467254639e-01
2.830000000000000000e+03 4.436395645141601562e+01 1.028749704360961914e+00 -7.705765962600708008e-02 2.646529674530029297e-01 5.627859011292457581e-02 2.659418582916259766e-01
2.831000000000000000e+03 4.807120895385742188e+01 -4.355197906494140625e+00 -7.600641250610351562e-01 1.860468834638595581e-01 -1.722051650285720825e-01 1.332644373178482056e-01
2.832000000000000000e+03 4.387862014770507812e+01 -6.690793514251708984e+00 -7.475312948226928711e-01 1.523015350103378296e-01 -1.785689294338226318e-01 3.358332067728042603e-02
2.833000000000000000e+03 3.885936737060546875e+01 -7.850396633148193359e+00 -4.688994288444519043e-01 1.091122329235076904e-01 -1.079361587762832642e-01 8.776862919330596924e-02
2.834000000000000000e+03 3.744794464111328125e+01 -8.959723472595214844e+00 -4.320062696933746338e-01 4.744924604892730713e-02 -1.153671070933341980e-01 1.152693852782249451e-02
2.835000000000000000e+03 5.806625366210937500e+01 1.446324348449707031e+00 1.739294826984405518e-02 1.142296195030212402e+00 3.479067683219909668e-01 -3.763785660266876221e-01
2.836000000000000000e+03 5.348443603515625000e+01 -1.240088105201721191e+00 -4.771949946880340576e-01 3.679242730140686035e-01 -3.278121724724769592e-02 1.582023650407791138e-01
2.837000000000000000e+03 5.140526962280273438e+01 -8.463320732116699219e-01 -3.366511762142181396e-01 2.813288271427154541e-01 -1.659670658409595490e-02 2.590910196304321289e-01
2.838000000000000000e+03 3.610362243652343750e+01 4.801625251770019531e+00 -3.350350540131330490e-03 8.505877852439880371e-01 2.541712224483489990e-01 6.732165813446044922e-01
2.839000000000000000e+03 3.338939285278320312e+01 1.014026260375976562e+01 1.580469459295272827e-01 8.518938422203063965e-01 3.029822409152984619e-01 7.836478352546691895e-01
2.840000000000000000e+03 3.447815322875976562e+01 1.118818473815917969e+01 1.975343674421310425e-01 9.298510551452636719e-01 3.382156193256378174e-01 7.698129415512084961e-01
2.841000000000000000e+03 5.086841964721679688e+01 -3.380809783935546875e+00 -7.639403343200683594e-01 2.238982021808624268e-01 -1.620126366615295410e-01 1.675530225038528442e-01
2.842000000000000000e+03 4.742353820800781250e+01 -3.158485412597656250e+00 -5.649961829185485840e-01 1.848610043525695801e-01 -1.140405461192131042e-01 1.923767179250717163e-01
2.843000000000000000e+03 2.798558235168457031e+01 1.072185277938842773e+00 -3.301957547664642334e-01 1.197904109954833984e+00 2.603124976158142090e-01 6.288177967071533203e-01
2.844000000000000000e+03 2.899243164062500000e+01 1.227679967880249023e+00 -2.610661685466766357e-01 1.149994969367980957e+00 2.666786313056945801e-01 6.589047908782958984e-01
2.845000000000000000e+03 3.505907058715820312e+01 1.555574035644531250e+01 2.695697247982025146e-01 9.822308421134948730e-01 3.755401670932769775e-01 5.230816602706909180e-01
2.846000000000000000e+03 5.249803543090820312e+01 -4.477561950683593750e+00 -1.085357546806335449e+00 2.451644092798233032e-01 -2.520579397678375244e-01 7.583414763212203979e-02
2.847000000000000000e+03 5.381748580932617188e+01 -3.239793777465820312e+00 -9.276443123817443848e-01 2.976818978786468506e-01 -1.889887154102325439e-01 8.673956245183944702e-02
2.848000000000000000e+03 3.210601425170898438e+01 1.199797916412353516e+01 1.074277684092521667e-01 8.501317501068115234e-01 2.872678637504577637e-01 7.277271747589111328e-01
2.849000000000000000e+03 6.528517150878906250e+01 8.134603500366210938e+00 1.373535096645355225e-01 4.473231792449951172e+00 1.383175611495971680e+00 -1.232022285461425781e+00
2.850000000000000000e+03 3.424753570556640625e+01 7.372429847717285156e+00 1.176199465990066528e-01 8.765981793403625488e-01 2.982654273509979248e-01 7.685652375221252441e-01
2.851000000000000000e+03 3.642765808105468750e+01 -8.543315887451171875e+00 -2.713619470596313477e-01 5.629871413111686707e-02 -6.451897323131561279e-02 1.025416031479835510e-01
2.852000000000000000e+03 1.157271575927734375e+01 2.188424110412597656e+01 8.037440478801727295e-02 -1.325013041496276855e-01 -1.563806831836700439e-02 2.011814117431640625e-01
2.853000000000000000e+03 1.399949455261230469e+01 2.335625839233398438e+01 5.802925303578376770e-02 -3.492783010005950928e-02 6.930426694452762604e-03 2.738356888294219971e-01
2.854000000000000000e+03 3.242947006225585938e+01 1.424486446380615234e+01 8.460842072963714600e-02 8.280543088912963867e-01 2.737988233566284180e-01 6.054936051368713379e-01
2.855000000000000000e+03 4.506870651245117188e+01 1.657899618148803711e-01 -1.484916955232620239e-01 2.329022288322448730e-01 2.532315999269485474e-02 2.654987275600433350e-01
2.856000000000000000e+03 4.113828659057617188e+01 -6.855597972869873047e+00 -5.746985673904418945e-01 1.483155936002731323e-01 -1.279148906469345093e-01 8.564213663339614868e-02
2.857000000000000000e+03 5.093578720092773438e+01 -2.020316839218139648e+00 -5.305386185646057129e-01 2.367310523986816406e-01 -8.814227581024169922e-02 2.280689179897308350e-01
2.858000000000000000e+03 3.387436294555664062e+01 1.344735336303710938e+01 1.940874159336090088e-01 9.177455902099609375e-01 3.335498869419097900e-01 6.688540577888488770e-01
2.859000000000000000e+03 4.170877456665039062e+01 -7.615875244140625000e+00 -6.993709206581115723e-01 1.278912276029586792e-01 -1.714439094066619873e-01 3.069845726713538170e-03
2.860000000000000000e+03 6.511587524414062500e+01 7.278164625167846680e-01 -4.639041721820831299e-01 4.025360584259033203e+00 1.068436980247497559e+00 -2.181868314743041992e+00
2.861000000000000000e+03 6.905261993408203125e+01 1.614284634590148926e+00 -9.391270279884338379e-01 6.633042812347412109e+00 1.708174705505371094e+00 -1.467268228530883789e+00
2.862000000000000000e+03 6.020598983764648438e+01 5.984995365142822266e+00 2.876191139221191406e-01 2.613315343856811523e+00 8.702803254127502441e-01 -8.238968849182128906e-01
2.863000000000000000e+03 3.986175918579101562e+01 2.312159299850463867e+00 -9.378937631845474243e-02 5.836709737777709961e-01 1.469644755125045776e-01 4.400236904621124268e-01
2.864000000000000000e+03 4.028593063354492188e+01 1.094061017036437988e+00 -1.167183294892311096e-01 4.939201772212982178e-01 1.131605505943298340e-01 4.184873700141906738e-01
2.865000000000000000e+03 6.814736175537109375e+01 2.086755371093750000e+01 2.423082739114761353e-01 5.137934207916259766e+00 1.614072799682617188e+00 -5.868906974792480469e-01
2.866000000000000000e+03 6.167245864868164062e+00 2.035993003845214844e+01 7.215429842472076416e-02 -5.556439161300659180e-01 -1.450468897819519043e-01 1.339785456657409668e-01
2.867000000000000000e+03 7.076920318603515625e+01 3.045933532714843750e+01 1.314758658409118652e-01 5.398667812347412109e+00 1.659043073654174805e+00 -2.894200980663299561e-01
2.868000000000000000e+03 8.181970596313476562e+00 2.052430343627929688e+01 9.812577813863754272e-02 -3.921605050563812256e-01 -8.821041882038116455e-02 1.549496650695800781e-01
2.869000000000000000e+03 4.940190505981445312e+01 -3.728534936904907227e+00 -7.258034944534301758e-01 2.017748653888702393e-01 -1.572085767984390259e-01 1.649621874094009399e-01
2.870000000000000000e+03 6.909575653076171875e+01 2.399215126037597656e+01 1.892016083002090454e-01 5.290556907653808594e+00 1.643927454948425293e+00 -4.837296307086944580e-01
2.871000000000000000e+03 2.326193428039550781e+01 2.277125930786132812e+01 2.648615539073944092e-01 1.700865663588047028e-02 8.456106483936309814e-02 3.651386201381683350e-01
2.872000000000000000e+03 4.072517013549804688e+01 -1.591749936342239380e-01 -1.608286947011947632e-01 4.081122875213623047e-01 7.418508082628250122e-02 3.846414685249328613e-01
2.873000000000000000e+03 1.493648624420166016e+01 2.187707138061523438e+01 7.677779346704483032e-02 9.180122613906860352e-02 5.057370662689208984e-02 3.311254382133483887e-01
2.874000000000000000e+03 3.080721855163574219e+01 1.833603858947753906e+01 9.045185148715972900e-02 6.377627849578857422e-01 2.184643894433975220e-01 3.082797527313232422e-01
2.875000000000000000e+03 3.702784347534179688e+01 4.645269870758056641e+00 -3.064478747546672821e-02 8.195550441741943359e-01 2.366730719804763794e-01 6.291791200637817383e-01
2.876000000000000000e+03 3.644253540039062500e+01 3.941645860671997070e+00 -3.477702662348747253e-02 8.067079186439514160e-01 2.315792590379714966e-01 6.376153826713562012e-01
2.877000000000000000e+03 6.792581939697265625e+01 1.308292484283447266e+01 2.597263753414154053e-01 5.138487815856933594e+00 1.619464278221130371e+00 -9.005722403526306152e-01
2.878000000000000000e+03 3.367226409912109375e+01 -1.135325527191162109e+01 -2.786060571670532227e-01 -1.069783270359039307e-01 -1.156753152608871460e-01 -2.400475442409515381e-01
2.879000000000000000e+03 3.505930709838867188e+01 -9.468308448791503906e+00 -1.658075898885726929e-01 -3.208946436643600464e-03 -5.070495977997779846e-02 4.942154884338378906e-02
2.880000000000000000e+03 4.054938125610351562e+01 2.445503044128417969e+01 3.774169087409973145e-01 1.306680202484130859e+00 5.052291154861450195e-01 3.535615801811218262e-01
2.881000000000000000e+03 3.578205871582031250e+01 2.440880775451660156e+01 3.324181139469146729e-01 1.000522494316101074e+00 3.998821973800659180e-01 2.562982439994812012e-01
2.882000000000000000e+03 1.101462268829345703e+01 2.506435966491699219e+01 3.909154608845710754e-02 -2.611830830574035645e-01 -6.662746518850326538e-02 1.826293915510177612e-01
2.883000000000000000e+03 9.677203178405761719e+00 2.258049011230468750e+01 6.526704132556915283e-02 -2.972749471664428711e-01 -6.960237026214599609e-02 1.600125283002853394e-01
2.884000000000000000e+03 6.347333908081054688e+01 5.885140419006347656e+00 1.465030461549758911e-01 3.669652700424194336e+00 1.144846677780151367e+00 -1.296455740928649902e+00
2.885000000000000000e+03 4.513688278198242188e+01 -7.032003879547119141e+00 -8.843280076980590820e-01 1.463404744863510132e-01 -2.213962525129318237e-01 -1.994333975017070770e-02
2.886000000000000000e+03 4.615335464477539062e+01 -6.541916847229003906e+00 -8.951019048690795898e-01 1.551370322704315186e-01 -2.219894677400588989e-01 2.839959925040602684e-03
2.887000000000000000e+03 6.626738739013671875e+01 1.729348182678222656e+01 3.586742281913757324e-01 4.766645908355712891e+00 1.537595987319946289e+00 -7.187206745147705078e-01
2.888000000000000000e+03 2.942719268798828125e+01 2.160150909423828125e+01 2.215396016836166382e-01 4.488599300384521484e-01 2.011198550462722778e-01 2.283756434917449951e-01
2.889000000000000000e+03 2.747962188720703125e+01 2.002761840820312500e+01 1.441290527582168579e-01 2.597275078296661377e-01 1.211569681763648987e-01 2.398612946271896362e-01
2.890000000000000000e+03 3.423220443725585938e+01 1.654025077819824219e+01 2.450839281082153320e-01 9.205586910247802734e-01 3.496927917003631592e-01 4.594596624374389648e-01
2.891000000000000000e+03 1.036683559417724609e+01 2.136863327026367188e+01 9.133330732583999634e-02 -2.226491123437881470e-01 -3.939474374055862427e-02 1.718111038208007812e-01
2.892000000000000000e+03 1.287113285064697266e+01 -3.440378952026367188e+01 -3.452200889587402344e-01 9.135590195655822754e-01 1.705016791820526123e-01 5.810053087770938873e-03
2.893000000000000000e+03 6.158234786987304688e+01 -3.392494201660156250e+01 1.271855682134628296e-01 2.669765233993530273e+00 8.390852808952331543e-01 4.032647311687469482e-01
2.894000000000000000e+03 5.501339721679687500e+01 -2.172184944152832031e+00 -7.328329086303710938e-01 3.968049883842468262e-01 -1.008083820343017578e-01 5.334620177745819092e-02
2.895000000000000000e+03 6.374587249755859375e+01 2.251637649536132812e+01 3.231598734855651855e-01 4.307178497314453125e+00 1.389101505279541016e+00 -5.546437501907348633e-01
2.896000000000000000e+03 6.756603240966796875e+01 2.930219268798828125e+01 2.075073719024658203e-01 4.924606800079345703e+00 1.539634227752685547e+00 -3.818399906158447266e-01
2.897000000000000000e+03 6.598728179931640625e+01 2.824397659301757812e+01 2.402022331953048706e-01 4.672404766082763672e+00 1.473782181739807129e+00 -4.204136133193969727e-01
2.898000000000000000e+03 6.271895217895507812e+01 2.115767288208007812e+01 3.555517792701721191e-01 4.114029884338378906e+00 1.340874552726745605e+00 -5.523410439491271973e-01
2.899000000000000000e+03 6.913796234130859375e+01 3.850380659103393555e+00 -5.706109404563903809e-01 6.219178676605224609e+00 1.694570302963256836e+00 -1.300834178924560547e+00
2.900000000000000000e+03 6.779616546630859375e+01 1.515393924713134766e+01 2.973116934299468994e-01 5.116649150848388672e+00 1.624188303947448730e+00 -7.928058505058288574e-01
2.901000000000000000e+03 6.151649475097656250e+01 2.659367942810058594e+01 3.579125404357910156e-01 3.860844373703002930e+00 1.265627026557922363e+00 -4.771950840950012207e-01
2.902000000000000000e+03 6.057157897949218750e+01 2.457817840576171875e+01 3.632230758666992188e-01 3.670928239822387695e+00 1.210245370864868164e+00 -5.386986732482910156e-01
2.903000000000000000e+03 5.827464675903320312e+01 2.637514877319335938e+01 4.361548721790313721e-01 3.218849182128906250e+00 1.096501231193542480e+00 -5.147379040718078613e-01
2.904000000000000000e+03 1.192184734344482422e+01 3.450407409667968750e+01 6.458315253257751465e-02 -3.729265034198760986e-01 -9.250301122665405273e-02 1.066191568970680237e-01
2.905000000000000000e+03 6.748097991943359375e+01 4.087350082397460938e+01 2.082852125167846680e-01 4.820186614990234375e+00 1.508541584014892578e+00 -3.939456492662429810e-02
2.906000000000000000e+03 6.800241851806640625e+01 3.471957397460937500e+01 1.895155608654022217e-01 4.910201072692871094e+00 1.529915094375610352e+00 -2.125430703163146973e-01
2.907000000000000000e+03 6.524433135986328125e+01 3.389859771728515625e+01 2.748676240444183350e-01 4.472875118255615234e+00 1.424322724342346191e+00 -2.725464105606079102e-01
2.908000000000000000e+03 2.662327957153320312e+01 2.191693687438964844e+01 2.346735000610351562e-01 1.928845196962356567e-01 1.282674074172973633e-01 2.595186233520507812e-01
2.909000000000000000e+03 2.709092330932617188e+01 2.103440856933593750e+01 2.049136906862258911e-01 2.160038352012634277e-01 1.262752562761306763e-01 2.461355626583099365e-01
2.910000000000000000e+03 2.590829086303710938e+01 -7.586356163024902344e+00 3.110615909099578857e-01 2.518399238586425781e+00 8.488382101058959961e-01 1.665053844451904297e+00
2.911000000000000000e+03 2.614600944519042969e+01 -7.151455879211425781e+00 1.720692366361618042e-01 2.290703296661376953e+00 7.388317584991455078e-01 1.544252157211303711e+00
2.912000000000000000e+03 2.734110832214355469e+01 -7.883830547332763672e+00 9.150127172470092773e-01 1.565728068351745605e+00 7.442222237586975098e-01 1.718966722488403320e+00
2.913000000000000000e+03 2.851086044311523438e+01 -8.528633117675781250e+00 1.231130957603454590e+00 7.933080792427062988e-01 6.073316931724548340e-01 1.333342194557189941e+00
2.914000000000000000e+03 2.791834259033203125e+01 -7.864991664886474609e+00 9.313274621963500977e-01 1.252938270568847656e+00 6.552796959877014160e-01 1.569642424583435059e+00
2.915000000000000000e+03 2.589050865173339844e+01 -5.829343795776367188e+00 -3.436619341373443604e-01 2.069973230361938477e+00 5.178933739662170410e-01 1.131403803825378418e+00
2.916000000000000000e+03 2.643096160888671875e+01 -6.172570705413818359e+00 -1.495196521282196045e-01 2.002314329147338867e+00 5.558384060859680176e-01 1.306949853897094727e+00
2.917000000000000000e+03 2.635914993286132812e+01 -7.754827499389648438e+00 5.847186446189880371e-01 2.264712095260620117e+00 8.548291921615600586e-01 1.782140493392944336e+00
2.918000000000000000e+03 2.929818725585937500e+01 -8.489110946655273438e+00 1.046863436698913574e+00 5.300127267837524414e-01 4.730628430843353271e-01 1.107631206512451172e+00
2.919000000000000000e+03 2.661421966552734375e+01 -4.521858692169189453e+00 -4.231155514717102051e-01 1.701322078704833984e+00 3.834619522094726562e-01 1.030269026756286621e+00
2.920000000000000000e+03 2.936643409729003906e+01 -4.276298522949218750e+00 -8.572661876678466797e-02 1.171803832054138184e+00 3.258231580257415771e-01 1.110388636589050293e+00
2.921000000000000000e+03 2.797505760192871094e+01 -3.996359825134277344e+00 -2.985776960849761963e-01 1.461503863334655762e+00 3.488778173923492432e-01 1.075988173484802246e+00
2.922000000000000000e+03 2.997654914855957031e+01 -9.336809158325195312e+00 1.048159241676330566e+00 1.636921316385269165e-01 3.635554015636444092e-01 6.810929775238037109e-01
2.923000000000000000e+03 2.748682785034179688e+01 -8.592543005943298340e-01 -4.592200815677642822e-01 1.314786314964294434e+00 2.566698789596557617e-01 7.296041250228881836e-01
2.924000000000000000e+03 2.686445808410644531e+01 -1.795655727386474609e+00 -5.239205360412597656e-01 1.399278402328491211e+00 2.626073658466339111e-01 7.568690180778503418e-01
2.925000000000000000e+03 5.913801956176757812e+01 8.133847713470458984e-01 -6.822737306356430054e-02 1.206718325614929199e+00 3.415473103523254395e-01 -6.109585762023925781e-01
2.926000000000000000e+03 3.190390777587890625e+01 -9.399542808532714844e+00 4.698327779769897461e-01 1.092503964900970459e-02 1.442273408174514771e-01 3.302233219146728516e-01
2.927000000000000000e+03 2.858657646179199219e+01 -7.770344257354736328e+00 8.564541339874267578e-01 9.776448607444763184e-01 5.502296686172485352e-01 1.409955739974975586e+00
2.928000000000000000e+03 4.193367004394531250e+01 1.937091648578643799e-01 -1.503775566816329956e-01 3.574790954589843750e-01 6.213046237826347351e-02 3.354551196098327637e-01
2.929000000000000000e+03 3.401515197753906250e+01 -9.424007415771484375e+00 1.255860738456249237e-02 -1.777504011988639832e-02 -1.564930076710879803e-03 1.175336614251136780e-01
2.930000000000000000e+03 3.955533218383789062e+01 -4.722828865051269531e+00 -3.278205394744873047e-01 2.349745929241180420e-01 -2.785377949476242065e-02 2.830383181571960449e-01
2.931000000000000000e+03 3.873902130126953125e+01 -5.100713253021240234e+00 -2.987945973873138428e-01 2.290740162134170532e-01 -2.091617323458194733e-02 2.996078431606292725e-01
2.932000000000000000e+03 3.530678939819335938e+01 -8.435764312744140625e+00 -1.139343231916427612e-01 5.886598303914070129e-02 -1.652050204575061798e-02 1.856126338243484497e-01
2.933000000000000000e+03 2.751072311401367188e+01 -3.668185472488403320e+00 -3.873769342899322510e-01 1.498701691627502441e+00 3.333974182605743408e-01 1.001181960105895996e+00
2.934000000000000000e+03 3.210868072509765625e+01 4.417432785034179688e+00 3.021892532706260681e-02 8.835991024971008301e-01 2.741453945636749268e-01 6.906145811080932617e-01
2.935000000000000000e+03 3.608539962768554688e+01 5.752567768096923828e+00 1.946296356618404388e-02 8.704037666320800781e-01 2.669600248336791992e-01 6.912009119987487793e-01
2.936000000000000000e+03 1.192818069458007812e+01 2.385807991027832031e+01 4.797153174877166748e-02 -1.677738875150680542e-01 -3.594070672988891602e-02 2.095367014408111572e-01
2.937000000000000000e+03 4.419059371948242188e+01 -7.435571670532226562e+00 -8.574166297912597656e-01 1.321790963411331177e-01 -2.175712585449218750e-01 -3.962229564785957336e-02
2.938000000000000000e+03 3.005162811279296875e+01 1.334752917289733887e+00 -2.037338465452194214e-01 1.072288393974304199e+00 2.605663836002349854e-01 6.908666491508483887e-01
2.939000000000000000e+03 4.665439224243164062e+01 -2.027606010437011719e+00 -4.048508703708648682e-01 1.907107979059219360e-01 -6.424202769994735718e-02 2.385814487934112549e-01
2.940000000000000000e+03 5.978036499023437500e+01 3.196212053298950195e+00 1.801388710737228394e-01 1.939331650733947754e+00 6.358411312103271484e-01 -7.876653075218200684e-01
2.941000000000000000e+03 6.347253036499023438e+01 1.809663921594619751e-01 -2.196688354015350342e-01 2.701207876205444336e+00 7.444617152214050293e-01 -1.956641912460327148e+00
2.942000000000000000e+03 6.158805465698242188e+01 7.791125774383544922e+00 3.497037589550018311e-01 3.228504180908203125e+00 1.073462367057800293e+00 -9.906786680221557617e-01
2.943000000000000000e+03 2.989171981811523438e+01 2.433561325073242188e+00 -1.321640908718109131e-01 1.054192185401916504e+00 2.766084074974060059e-01 6.397385001182556152e-01
2.944000000000000000e+03 6.114648056030273438e+01 6.475335597991943359e+00 3.174252212047576904e-01 2.932134389877319336e+00 9.748678803443908691e-01 -9.762447476387023926e-01
2.945000000000000000e+03 6.114745712280273438e+01 8.689332962036132812e+00 4.122908115386962891e-01 3.215769052505493164e+00 1.088418006896972656e+00 -9.227096438407897949e-01
2.946000000000000000e+03 4.422396469116210938e+01 -5.259443759918212891e+00 -6.413007378578186035e-01 1.774910837411880493e-01 -1.391429007053375244e-01 1.164735257625579834e-01
2.947000000000000000e+03 3.148328399658203125e+01 2.586299705505371094e+01 3.185374140739440918e-01 6.381135582923889160e-01 2.869952917098999023e-01 2.127780020236968994e-01
2.948000000000000000e+03 3.684634780883789062e+01 2.891362190246582031e+00 -6.377229094505310059e-02 7.462435960769653320e-01 2.047414034605026245e-01 6.145045161247253418e-01
2.949000000000000000e+03 4.587817764282226562e+01 -8.691844344139099121e-01 -2.349526584148406982e-01 2.017986178398132324e-01 -9.946211241185665131e-03 2.601748108863830566e-01
2.950000000000000000e+03 4.389310455322265625e+01 -7.294491529464721680e-01 -2.134116142988204956e-01 2.567065060138702393e-01 1.298846676945686340e-02 2.856966555118560791e-01
2.951000000000000000e+03 6.751932525634765625e+01 1.164064979553222656e+01 2.250729203224182129e-01 5.097572326660156250e+00 1.596793651580810547e+00 -9.871343970298767090e-01
2.952000000000000000e+03 6.892664337158203125e+01 1.139272212982177734e+01 1.406589448451995850e-01 5.489553451538085938e+00 1.689063787460327148e+00 -9.431210756301879883e-01
2.953000000000000000e+03 3.545695114135742188e+01 3.718877077102661133e+00 -3.025896847248077393e-02 8.071131706237792969e-01 2.330562621355056763e-01 6.713472008705139160e-01
2.954000000000000000e+03 4.255163574218750000e+01 -6.901942253112792969e+00 -6.937124133110046387e-01 1.437964588403701782e-01 -1.649747788906097412e-01 3.480257466435432434e-02
2.955000000000000000e+03 4.329708099365234375e+01 -7.469168186187744141e+00 -7.877588272094726562e-01 1.332723051309585571e-01 -1.963459700345993042e-01 -1.696931570768356323e-02
2.956000000000000000e+03 6.235515975952148438e+01 9.045835494995117188e+00 3.880681097507476807e-01 3.588055849075317383e+00 1.192837238311767578e+00 -1.025030851364135742e+00
2.957000000000000000e+03 6.815854644775390625e+01 8.681835174560546875e+00 6.000851280987262726e-03 5.400862693786621094e+00 1.622059106826782227e+00 -1.137099862098693848e+00
2.958000000000000000e+03 6.308100509643554688e+01 1.767533683776855469e+01 4.783487021923065186e-01 4.079067707061767578e+00 1.367224931716918945e+00 -6.093148589134216309e-01
2.959000000000000000e+03 6.617154693603515625e+01 2.170743560791015625e+01 2.869112789630889893e-01 4.740859508514404297e+00 1.508331298828125000e+00 -5.701162219047546387e-01
2.960000000000000000e+03 6.197527313232421875e+01 6.965250015258789062e+00 2.858056724071502686e-01 3.241470336914062500e+00 1.058182835578918457e+00 -1.085787177085876465e+00
2.961000000000000000e+03 1.279553794860839844e+01 2.252036285400390625e+01 6.646271795034408569e-02 -7.050911337137222290e-02 -1.213917392306029797e-03 2.396309673786163330e-01
2.962000000000000000e+03 6.891510009765625000e+01 4.737564086914062500e+00 -4.653297364711761475e-01 6.031499862670898438e+00 1.669850945472717285e+00 -1.299560427665710449e+00
2.963000000000000000e+03 6.515097808837890625e+01 1.311609077453613281e+01 4.010621309280395508e-01 4.464141845703125000e+00 1.459561228752136230e+00 -9.199698567390441895e-01
2.964000000000000000e+03 6.438999938964843750e+01 1.105765628814697266e+01 3.717673718929290771e-01 4.222338676452636719e+00 1.378231763839721680e+00 -1.026824593544006348e+00
2.965000000000000000e+03 3.399338531494140625e+01 1.783927536010742188e+01 2.483983039855957031e-01 9.048215150833129883e-01 3.459659516811370850e-01 3.876483738422393799e-01
2.966000000000000000e+03 6.955761718750000000e+01 8.963845252990722656e+00 -2.172346040606498718e-02 5.842475891113281250e+00 1.746225714683532715e+00 -9.972505569458007812e-01
2.967000000000000000e+03 6.492623901367187500e+01 9.648700714111328125e+00 2.846606671810150146e-01 4.382142066955566406e+00 1.400040745735168457e+00 -1.099021315574645996e+00
2.968000000000000000e+03 6.581164550781250000e+01 1.852022743225097656e+01 3.698364794254302979e-01 4.661810874938964844e+00 1.509494185447692871e+00 -6.463308334350585938e-01
2.969000000000000000e+03 6.802039337158203125e+01 1.875743103027343750e+01 2.791012823581695557e-01 5.126371383666992188e+00 1.621641755104064941e+00 -6.379791498184204102e-01
2.970000000000000000e+03 4.683992004394531250e+01 -4.943812370300292969e+00 -7.606548070907592773e-01 1.736871302127838135e-01 -1.760903149843215942e-01 1.011123806238174438e-01
2.971000000000000000e+03 6.681919860839843750e+01 3.986943006515502930e+00 -3.780006766319274902e-01 5.144161224365234375e+00 1.429848194122314453e+00 -1.562685966491699219e+00
2.972000000000000000e+03 6.788368225097656250e+01 3.236281394958496094e+00 -5.751489996910095215e-01 5.732293605804443359e+00 1.547143340110778809e+00 -1.577214360237121582e+00
2.973000000000000000e+03 3.323313140869140625e+01 1.558969783782958984e+01 1.659378558397293091e-01 8.703429698944091797e-01 3.108842670917510986e-01 5.140931606292724609e-01
2.974000000000000000e+03 6.808995056152343750e+01 1.393234491348266602e+00 -9.448961019515991211e-01 6.207343578338623047e+00 1.578734278678894043e+00 -1.801855802536010742e+00
2.975000000000000000e+03 6.919483947753906250e+01 3.861666917800903320e-01 -1.333415031433105469e+00 7.256879806518554688e+00 1.777039527893066406e+00 -1.616547107696533203e+00
2.976000000000000000e+03 3.190161705017089844e+01 2.171872138977050781e+01 2.450064569711685181e-01 6.955468654632568359e-01 2.821660041809082031e-01 2.450310140848159790e-01
2.977000000000000000e+03 6.564576721191406250e+01 1.534332847595214844e+01 4.031481742858886719e-01 4.587330818176269531e+00 1.497143626213073730e+00 -7.950019240379333496e-01
2.978000000000000000e+03 2.523514938354492188e+01 2.398401260375976562e+01 2.869476377964019775e-01 1.627271324396133423e-01 1.349024325609207153e-01 2.855749428272247314e-01
2.979000000000000000e+03 2.759387779235839844e+01 2.296090507507324219e+01 2.663747072219848633e-01 3.013379573822021484e-01 1.703138053417205811e-01 2.403625249862670898e-01
2.980000000000000000e+03 3.318776702880859375e+01 5.168010234832763672e+00 6.593720614910125732e-02 8.550743460655212402e-01 2.763034701347351074e-01 7.187499403953552246e-01
2.981000000000000000e+03 6.716148376464843750e+01 2.423613929748535156e+01 2.382041215896606445e-01 4.904018402099609375e+00 1.542666792869567871e+00 -5.091409087181091309e-01
2.982000000000000000e+03 6.742060089111328125e+01 2.217937278747558594e+01 2.533041536808013916e-01 5.010849475860595703e+00 1.579246044158935547e+00 -5.482540130615234375e-01
2.983000000000000000e+03 6.270666122436523438e+01 2.007272720336914062e+00 -2.054822072386741638e-02 2.745578527450561523e+00 8.175091147422790527e-01 -1.547396659851074219e+00
2.984000000000000000e+03 6.221471023559570312e+01 8.294056057929992676e-01 -2.066846750676631927e-02 2.180769205093383789e+00 6.480302214622497559e-01 -1.440717816352844238e+00
2.985000000000000000e+03 6.885588836669921875e+01 1.618511009216308594e+01 2.599720358848571777e-01 5.379898548126220703e+00 1.691961169242858887e+00 -7.265253663063049316e-01
2.986000000000000000e+03 6.732415771484375000e+01 1.792039108276367188e+01 3.168133795261383057e-01 4.999446392059326172e+00 1.594877958297729492e+00 -6.846894621849060059e-01
2.987000000000000000e+03 6.497148895263671875e+01 1.666276741027832031e+01 4.305913746356964111e-01 4.471056461334228516e+00 1.470494389533996582e+00 -7.041366696357727051e-01
2.988000000000000000e+03 2.006845664978027344e+01 2.694082641601562500e+01 1.955314427614212036e-01 3.696155548095703125e-02 6.974789500236511230e-02 3.430366516113281250e-01
2.989000000000000000e+03 2.019153213500976562e+01 2.390708732604980469e+01 1.926303654909133911e-01 2.191496454179286957e-02 6.436359882354736328e-02 4.337299168109893799e-01
2.990000000000000000e+03 6.751641082763671875e+01 6.916803717613220215e-01 -9.913895130157470703e-01 5.954349040985107422e+00 1.488887906074523926e+00 -1.970918178558349609e+00
2.991000000000000000e+03 1.760078430175781250e+01 -3.444435501098632812e+01 -1.976509094238281250e-01 9.485574364662170410e-01 2.252719551324844360e-01 -2.368273138999938965e-01
2.992000000000000000e+03 6.482427978515625000e+01 2.121188545227050781e+01 3.290461897850036621e-01 4.490761756896972656e+00 1.445942401885986328e+00 -5.730380415916442871e-01
2.993000000000000000e+03 6.374945449829101562e+01 -3.596291351318359375e+01 1.788996458053588867e-01 3.813364744186401367e+00 1.197679281234741211e+00 3.028737902641296387e-01
2.994000000000000000e+03 5.470732116699218750e+01 2.753813552856445312e+01 6.013983488082885742e-01 2.477673292160034180e+00 9.237214922904968262e-01 -3.961114585399627686e-01
2.995000000000000000e+03 1.244244003295898438e+01 2.953749275207519531e+01 4.595427587628364563e-02 -2.774305939674377441e-01 -6.944289803504943848e-02 1.715903580188751221e-01
2.996000000000000000e+03 2.608019447326660156e+01 -6.499681472778320312e+00 -1.267622858285903931e-01 2.169514179229736328e+00 6.128255724906921387e-01 1.327016949653625488e+00
2.997000000000000000e+03 2.674792480468750000e+01 -7.003704547882080078e+00 2.764784395694732666e-01 1.967356324195861816e+00 6.731504201889038086e-01 1.563341379165649414e+00
2.998000000000000000e+03 2.683173370361328125e+01 -7.850726127624511719e+00 7.946366667747497559e-01 1.901780605316162109e+00 8.089252114295959473e-01 1.797325611114501953e+00
2.999000000000000000e+03 2.791080284118652344e+01 -7.249750137329101562e+00 5.916016101837158203e-01 1.369485378265380859e+00 5.883260965347290039e-01 1.530106306076049805e+00
3.000000000000000000e+03 2.633828735351562500e+01 -5.750400066375732422e+00 -2.685184776782989502e-01 1.964060783386230469e+00 5.086627006530761719e-01 1.204926729202270508e+00
3.001000000000000000e+03 2.626301956176757812e+01 -5.261907577514648438e+00 -3.926273584365844727e-01 1.878565907478332520e+00 4.457815587520599365e-01 1.086676120758056641e+00
3.002000000000000000e+03 2.684905052185058594e+01 -5.639723300933837891e+00 -1.851242631673812866e-01 1.800085425376892090e+00 4.844883382320404053e-01 1.259875059127807617e+00
3.003000000000000000e+03 2.798552131652832031e+01 -4.913296699523925781e+00 -1.448031961917877197e-01 1.477173089981079102e+00 3.997109532356262207e-01 1.201712489128112793e+00
3.004000000000000000e+03 2.671302223205566406e+01 -3.613013505935668945e+00 -4.985701739788055420e-01 1.578323364257812500e+00 3.239259421825408936e-01 9.113498926162719727e-01
3.005000000000000000e+03 3.013650321960449219e+01 2.829458713531494141e-01 -2.437383234500885010e-01 1.095486998558044434e+00 2.555246055126190186e-01 7.464666366577148438e-01
3.006000000000000000e+03 3.015962409973144531e+01 -8.456348419189453125e+00 8.843688368797302246e-01 3.474608361721038818e-01 3.695488870143890381e-01 8.986214399337768555e-01
3.007000000000000000e+03 2.772285842895507812e+01 -3.169406652450561523e+00 -4.040696620941162109e-01 1.435611486434936523e+00 3.094625473022460938e-01 9.500784873962402344e-01
3.008000000000000000e+03 3.207743072509765625e+01 -8.454911231994628906e+00 4.498552381992340088e-01 1.354129910469055176e-01 1.755804717540740967e-01 5.308535099029541016e-01
3.009000000000000000e+03 6.831675720214843750e+01 4.185574054718017578e+00 -5.098094344139099121e-01 5.894220352172851562e+00 1.615323305130004883e+00 -1.392118215560913086e+00
3.010000000000000000e+03 3.552136611938476562e+01 -6.203334331512451172e+00 -7.569848746061325073e-02 2.325242459774017334e-01 4.704772680997848511e-02 4.301710426807403564e-01
3.011000000000000000e+03 3.899158477783203125e+01 6.802884340286254883e-01 -1.219749674201011658e-01 5.385921001434326172e-01 1.249851360917091370e-01 4.819269180297851562e-01
3.012000000000000000e+03 4.477447891235351562e+01 -1.762264609336853027e+00 -3.287650942802429199e-01 2.184933722019195557e-01 -3.308151662349700928e-02 2.533709406852722168e-01
3.013000000000000000e+03 4.323508453369140625e+01 4.773007035255432129e-01 -1.377120018005371094e-01 3.128014504909515381e-01 5.252683907747268677e-02 2.991087138652801514e-01
3.014000000000000000e+03 4.474003219604492188e+01 -6.113331794738769531e+00 -7.481550574302673340e-01 1.573430150747299194e-01 -1.772436201572418213e-01 5.218852311372756958e-02
3.015000000000000000e+03 3.777118682861328125e+01 -7.249633312225341797e+00 -3.347271978855133057e-01 1.304433792829513550e-01 -6.128514558076858521e-02 1.738236844539642334e-01
3.016000000000000000e+03 3.956875991821289062e+01 -6.720601081848144531e+00 -4.577384293079376221e-01 1.501461714506149292e-01 -9.227767586708068848e-02 1.409856975078582764e-01
3.017000000000000000e+03 3.548377227783203125e+01 -7.326560497283935547e+00 -7.705083489418029785e-02 1.424881964921951294e-01 1.963120885193347931e-02 3.192122280597686768e-01
3.018000000000000000e+03 6.089101028442382812e+01 1.454659342765808105e+00 3.556420654058456421e-02 1.801995992660522461e+00 5.512680411338806152e-01 -1.068071126937866211e+00
3.019000000000000000e+03 3.115703392028808594e+01 1.358150124549865723e+00 -1.572641283273696899e-01 9.993153810501098633e-01 2.526153922080993652e-01 7.143622040748596191e-01
3.020000000000000000e+03 3.115478706359863281e+01 2.578461170196533203e+00 -8.856085687875747681e-02 9.689396619796752930e-01 2.641136348247528076e-01 6.766321063041687012e-01
3.021000000000000000e+03 3.411248779296875000e+01 2.668560504913330078e+00 -5.676617100834846497e-02 8.350929021835327148e-01 2.334980219602584839e-01 6.964318156242370605e-01
3.022000000000000000e+03 4.573127365112304688e+01 -5.530182361602783203e+00 -7.607975006103515625e-01 1.667489558458328247e-01 -1.782145649194717407e-01 7.520513981580734253e-02
3.023000000000000000e+03 4.162907791137695312e+01 -1.024229288101196289e+00 -2.086260318756103516e-01 3.317919075489044189e-01 3.694976121187210083e-02 3.425351679325103760e-01
3.024000000000000000e+03 4.454578018188476562e+01 -3.603624343872070312e+00 -4.996749162673950195e-01 1.984805911779403687e-01 -9.035830199718475342e-02 1.965665370225906372e-01
3.025000000000000000e+03 2.835269355773925781e+01 -7.665404081344604492e-01 -3.920771479606628418e-01 1.261223912239074707e+00 2.607440054416656494e-01 7.686350345611572266e-01
3.026000000000000000e+03 2.700054550170898438e+01 -2.569343090057373047e+00 -5.047022104263305664e-01 1.460409402847290039e+00 2.867121398448944092e-01 8.391823768615722656e-01
3.027000000000000000e+03 3.561751937866210938e+01 2.834312200546264648e+00 -6.024330109357833862e-02 7.776110172271728516e-01 2.152103185653686523e-01 6.590961217880249023e-01
3.028000000000000000e+03 6.666003417968750000e+01 1.246996402740478516e+00 -7.103791832923889160e-01 5.199904441833496094e+00 1.346857547760009766e+00 -2.069076061248779297e+00
3.029000000000000000e+03 3.998844909667968750e+01 -5.383450984954833984e+00 -3.887004554271697998e-01 2.019936442375183105e-01 -5.601204559206962585e-02 2.268331199884414673e-01
3.030000000000000000e+03 3.718451309204101562e+01 -2.379289627075195312e+00 -1.421311348676681519e-01 4.467165470123291016e-01 9.137561917304992676e-02 5.297436714172363281e-01
3.031000000000000000e+03 6.328097152709960938e+01 3.124945163726806641e+00 -4.122596874367445707e-05 3.234088659286499023e+00 9.702142477035522461e-01 -1.509778857231140137e+00
3.032000000000000000e+03 6.184505081176757812e+01 5.628145217895507812e+00 2.300999164581298828e-01 3.061317205429077148e+00 9.874251484870910645e-01 -1.140088677406311035e+00
3.033000000000000000e+03 3.090528488159179688e+01 -9.370691299438476562e+00 7.734803557395935059e-01 6.738141924142837524e-02 2.522585391998291016e-01 4.888347983360290527e-01
3.034000000000000000e+03 6.675101470947265625e+01 8.318428993225097656e+00 7.582809776067733765e-02 4.937613010406494141e+00 1.504032373428344727e+00 -1.201521992683410645e+00
3.035000000000000000e+03 6.359591674804687500e+01 9.362483978271484375e+00 3.337208330631256104e-01 3.950021505355834961e+00 1.285122752189636230e+00 -1.104107260704040527e+00
3.036000000000000000e+03 6.386942291259765625e+01 6.975576877593994141e+00 1.737316995859146118e-01 3.920150756835937500e+00 1.228164792060852051e+00 -1.240004777908325195e+00
3.037000000000000000e+03 6.747164154052734375e+01 4.962369441986083984e+00 -3.200190365314483643e-01 5.389310359954833984e+00 1.520787358283996582e+00 -1.447976112365722656e+00
3.038000000000000000e+03 3.420381164550781250e+01 -8.420682907104492188e+00 6.238863617181777954e-02 6.800732761621475220e-02 3.911878913640975952e-02 2.829213738441467285e-01
3.039000000000000000e+03 6.774414825439453125e+01 1.011439228057861328e+01 1.351883113384246826e-01 5.193379402160644531e+00 1.598570346832275391e+00 -1.072903752326965332e+00
3.040000000000000000e+03 2.819552612304687500e+01 1.461334973573684692e-01 -3.718889355659484863e-01 1.234820723533630371e+00 2.588795423507690430e-01 6.935055255889892578e-01
3.041000000000000000e+03 5.537213897705078125e+01 -1.244600772857666016e+00 -4.637224376201629639e-01 4.552408754825592041e-01 -2.544465940445661545e-03 6.006763875484466553e-02
3.042000000000000000e+03 6.395993804931640625e+01 1.342837333679199219e+00 -1.883549690246582031e-01 3.312664270401000977e+00 9.372928142547607422e-01 -1.831171154975891113e+00
3.043000000000000000e+03 6.661096954345703125e+01 1.405499839782714844e+01 3.506390452384948730e-01 4.842137336730957031e+00 1.557832956314086914e+00 -8.572142124176025391e-01
3.044000000000000000e+03 6.589914703369140625e+01 1.154494953155517578e+01 3.242456018924713135e-01 4.655703544616699219e+00 1.493984699249267578e+00 -9.967343211174011230e-01
3.045000000000000000e+03 3.504489517211914062e+01 4.686100482940673828e+00 1.458838768303394318e-02 8.419455289840698242e-01 2.569601833820343018e-01 7.000400424003601074e-01
3.046000000000000000e+03 3.303069305419921875e+01 3.415724754333496094e+00 -1.955706067383289337e-02 8.782505393028259277e-01 2.576080262660980225e-01 6.978207826614379883e-01
3.047000000000000000e+03 6.424954223632812500e+01 1.928634834289550781e+01 3.980558812618255615e-01 4.357013702392578125e+00 1.426520824432373047e+00 -5.979000926017761230e-01
3.048000000000000000e+03 6.305324935913085938e+01 1.915303039550781250e+01 4.131956100463867188e-01 4.127675056457519531e+00 1.362261176109313965e+00 -5.878554582595825195e-01
3.049000000000000000e+03 3.589635848999023438e+01 1.847504806518554688e+01 3.332521319389343262e-01 1.047228813171386719e+00 4.141443073749542236e-01 3.721109330654144287e-01
3.050000000000000000e+03 3.312477493286132812e+01 -8.438308715820312500e+00 2.361438572406768799e-01 8.583309501409530640e-02 9.659308195114135742e-02 3.863084912300109863e-01
3.051000000000000000e+03 4.334288024902343750e+01 -6.018905639648437500e+00 -6.565681695938110352e-01 1.657893806695938110e-01 -1.472336351871490479e-01 8.299251645803451538e-02
3.052000000000000000e+03 2.513352012634277344e+01 2.541480827331542969e+01 2.936854362487792969e-01 1.853788644075393677e-01 1.437192857265472412e-01 2.876932919025421143e-01
3.053000000000000000e+03 1.487865352630615234e+01 3.004820060729980469e+01 8.401702344417572021e-02 -1.700344532728195190e-01 -2.580522745847702026e-02 2.116490900516510010e-01
3.054000000000000000e+03 2.638569641113281250e+01 2.371294975280761719e+01 2.838936746120452881e-01 2.271818071603775024e-01 1.533226370811462402e-01 2.704553306102752686e-01
3.055000000000000000e+03 1.558349895477294922e+01 2.728251838684082031e+01 9.609848260879516602e-02 -6.816466152667999268e-02 8.380145765841007233e-03 2.868140339851379395e-01
3.056000000000000000e+03 6.626073455810546875e+01 2.306112670898437500e+01 2.682904601097106934e-01 4.746470928192138672e+00 1.504428386688232422e+00 -5.433177947998046875e-01
3.057000000000000000e+03 6.719615936279296875e+01 2.661370658874511719e+01 2.248970717191696167e-01 4.896145820617675781e+00 1.536312937736511230e+00 -4.512196481227874756e-01
3.058000000000000000e+03 3.944812011718750000e+01 -6.311599016189575195e-01 -1.573807746171951294e-01 4.412503540515899658e-01 8.516087383031845093e-02 4.412571787834167480e-01
3.059000000000000000e+03 1.438613605499267578e+01 2.579015159606933594e+01 6.331128627061843872e-02 -8.653602004051208496e-02 -6.967418361455202103e-03 2.716295123100280762e-01
3.060000000000000000e+03 1.525348663330078125e+01 2.430455398559570312e+01 7.298526912927627563e-02 2.675238996744155884e-03 2.269815094769001007e-02 3.208616375923156738e-01
3.061000000000000000e+03 1.907636070251464844e+01 -3.117463302612304688e+01 4.873565584421157837e-02 9.144056439399719238e-01 2.889423966407775879e-01 -4.469717442989349365e-01
3.062000000000000000e+03 6.327155303955078125e+01 2.528049659729003906e+01 3.097527027130126953e-01 4.197568893432617188e+00 1.352196455001831055e+00 -5.062705874443054199e-01
3.063000000000000000e+03 6.220096588134765625e+01 2.355815887451171875e+01 3.402010798454284668e-01 4.014741420745849609e+00 1.306482791900634766e+00 -5.245384573936462402e-01
3.064000000000000000e+03 3.669580078125000000e+01 2.627696037292480469e+01 3.653886616230010986e-01 1.055729389190673828e+00 4.263354241847991943e-01 2.560813724994659424e-01
3.065000000000000000e+03 5.963945770263671875e+01 2.809647369384765625e+01 4.221422970294952393e-01 3.467324495315551758e+00 1.166840076446533203e+00 -4.614427685737609863e-01
3.066000000000000000e+03 5.605364227294921875e+01 3.332817459106445312e+01 5.655515789985656738e-01 2.866358757019042969e+00 1.029573082923889160e+00 -2.530552744865417480e-01
3.067000000000000000e+03 4.514187622070312500e+01 3.089122772216796875e+01 6.375647187232971191e-01 1.479874014854431152e+00 6.352316141128540039e-01 1.330768316984176636e-01
3.068000000000000000e+03 4.221693801879882812e+01 3.419446182250976562e+01 5.986087322235107422e-01 1.364288687705993652e+00 5.888692140579223633e-01 1.243446618318557739e-01
3.069000000000000000e+03 1.249928760528564453e+01 -4.094684219360351562e+01 -3.309217989444732666e-01 6.990608572959899902e-01 1.104417219758033752e-01 2.517307363450527191e-02
3.070000000000000000e+03 2.850057983398437500e+01 -7.067459583282470703e+00 5.781705975532531738e-01 1.153756141662597656e+00 5.195780396461486816e-01 1.415744900703430176e+00
3.071000000000000000e+03 2.701497650146484375e+01 -6.643619537353515625e+00 1.648085862398147583e-01 1.841582655906677246e+00 6.019173860549926758e-01 1.491933107376098633e+00
3.072000000000000000e+03 2.651486396789550781e+01 -7.330493450164794922e+00 3.685143887996673584e-01 2.131743669509887695e+00 7.500774264335632324e-01 1.667272686958312988e+00
3.073000000000000000e+03 2.737331008911132812e+01 -7.313554763793945312e+00 5.526682138442993164e-01 1.656309723854064941e+00 6.626933813095092773e-01 1.615871310234069824e+00
3.074000000000000000e+03 2.721201324462890625e+01 -6.186095714569091797e+00 4.331944510340690613e-02 1.720562458038330078e+00 5.291645526885986328e-01 1.394679427146911621e+00
3.075000000000000000e+03 2.938034629821777344e+01 -7.583092212677001953e+00 7.450333237648010254e-01 7.481247186660766602e-01 4.479474127292633057e-01 1.222830414772033691e+00
3.076000000000000000e+03 2.933053207397460938e+01 -2.616298913955688477e+00 -2.694757282733917236e-01 1.211955785751342773e+00 2.827440202236175537e-01 9.504134058952331543e-01
3.077000000000000000e+03 3.028517341613769531e+01 -7.477333545684814453e+00 6.058732271194458008e-01 5.557591915130615234e-01 3.484897315502166748e-01 1.037483453750610352e+00
3.078000000000000000e+03 3.123823738098144531e+01 -7.494779109954833984e+00 5.006729364395141602e-01 3.829229176044464111e-01 2.650787532329559326e-01 8.381923437118530273e-01
3.079000000000000000e+03 6.743511199951171875e+01 6.852335929870605469e+00 -1.091979667544364929e-01 5.216362476348876953e+00 1.532149434089660645e+00 -1.291948199272155762e+00
3.080000000000000000e+03 2.846192741394042969e+01 -1.667228221893310547e+00 -3.811448514461517334e-01 1.288827419281005859e+00 2.723047733306884766e-01 8.460800647735595703e-01
3.081000000000000000e+03 3.776023864746093750e+01 -5.590259552001953125e+00 -2.447702735662460327e-01 2.209085524082183838e-01 -7.158515509217977524e-03 3.206171989440917969e-01
3.082000000000000000e+03 6.195840835571289062e+01 3.889401435852050781e+00 1.316104680299758911e-01 2.787636041641235352e+00 8.757739067077636719e-01 -1.224461078643798828e+00
3.083000000000000000e+03 4.193460464477539062e+01 -6.095479488372802734e+00 -5.624886155128479004e-01 1.662181317806243896e-01 -1.188811436295509338e-01 1.128140687942504883e-01
3.084000000000000000e+03 4.275124740600585938e+01 -5.266976833343505859e+00 -5.585067868232727051e-01 1.833415478467941284e-01 -1.125495731830596924e-01 1.428703218698501587e-01
3.085000000000000000e+03 6.729563140869140625e+01 2.227119684219360352e+00 -6.839790344238281250e-01 5.614691257476806641e+00 1.479213595390319824e+00 -1.721932053565979004e+00
3.086000000000000000e+03 4.557009506225585938e+01 -2.803206682205200195e+00 -4.492566287517547607e-01 1.967441588640213013e-01 -7.575374096632003784e-02 2.170607447624206543e-01
3.087000000000000000e+03 4.361307907104492188e+01 -4.426792621612548828e+00 -5.278576612472534180e-01 1.952612102031707764e-01 -9.977894276380538940e-02 1.695848256349563599e-01
3.088000000000000000e+03 3.435114288330078125e+01 -7.387691497802734375e+00 5.637409538030624390e-02 1.607100367546081543e-01 6.512524187564849854e-02 4.113025963306427002e-01
3.089000000000000000e+03 3.326722335815429688e+01 -7.449668407440185547e+00 2.115276604890823364e-01 2.039436250925064087e-01 1.246413812041282654e-01 5.328913927078247070e-01
3.090000000000000000e+03 4.073291397094726562e+01 -4.699113845825195312e+00 -3.937875926494598389e-01 2.189915329217910767e-01 -5.243882164359092712e-02 2.372553795576095581e-01
3.091000000000000000e+03 3.517555236816406250e+01 -1.227384448051452637e+00 -1.048917472362518311e-01 6.359304189682006836e-01 1.593116074800491333e-01 6.711064577102661133e-01
3.092000000000000000e+03 4.093754959106445312e+01 -2.191032171249389648e+00 -2.590868473052978516e-01 3.102742135524749756e-01 1.535620819777250290e-02 3.375803828239440918e-01
3.093000000000000000e+03 3.468883514404296875e+01 3.352173566818237305e+00 -3.532633185386657715e-02 8.275832533836364746e-01 2.376770824193954468e-01 6.901317238807678223e-01
3.094000000000000000e+03 3.722270202636718750e+01 1.593602538108825684e+00 -9.102738648653030396e-02 6.659041047096252441e-01 1.724630296230316162e-01 5.869570374488830566e-01
3.095000000000000000e+03 4.626720046997070312e+01 -3.860119819641113281e+00 -6.063590645790100098e-01 1.824917346239089966e-01 -1.271601915359497070e-01 1.668325960636138916e-01
3.096000000000000000e+03 6.621067047119140625e+01 2.929663658142089844e+00 -3.986993432044982910e-01 4.802704334259033203e+00 1.321201562881469727e+00 -1.771301865577697754e+00
3.097000000000000000e+03 6.509385681152343750e+01 3.590901136398315430e+00 -1.933485865592956543e-01 4.230439662933349609e+00 1.211127281188964844e+00 -1.637051463127136230e+00
3.098000000000000000e+03 6.282712554931640625e+01 7.139513015747070312e+00 2.604306042194366455e-01 3.555333614349365234e+00 1.144729256629943848e+00 -1.154650688171386719e+00
3.099000000000000000e+03 3.665382766723632812e+01 1.953528213500976562e+01 3.334912657737731934e-01 1.125571250915527344e+00 4.377187490463256836e-01 3.209400773048400879e-01
3.100000000000000000e+03 4.282389068603515625e+01 -1.733771681785583496e+00 -2.799128293991088867e-01 2.661210894584655762e-01 -4.137518350034952164e-03 2.878798842430114746e-01
3.101000000000000000e+03 4.210754013061523438e+01 -4.518331050872802734e+00 -4.565972089767456055e-01 2.099129259586334229e-01 -7.400528341531753540e-02 2.025173604488372803e-01
3.102000000000000000e+03 3.770758438110351562e+01 3.124144375324249268e-01 -1.161870062351226807e-01 5.688928961753845215e-01 1.358117759227752686e-01 5.485517978668212891e-01
3.103000000000000000e+03 1.307930564880371094e+01 2.704668807983398438e+01 6.036463379859924316e-02 -1.884763091802597046e-01 -3.843350335955619812e-02 2.238584905862808228e-01
3.104000000000000000e+03 6.563061523437500000e+01 1.848710536956787109e+00 -4.459193944931030273e-01 4.509994983673095703e+00 1.219222664833068848e+00 -1.900115847587585449e+00
3.105000000000000000e+03 3.246112442016601562e+01 2.372247934341430664e+00 -7.296913862228393555e-02 9.066427946090698242e-01 2.501021027565002441e-01 7.020683288574218750e-01
3.106000000000000000e+03 3.514608383178710938e+01 6.897486448287963867e-01 -9.728078544139862061e-02 7.268052101135253906e-01 1.888573318719863892e-01 6.745500564575195312e-01
3.107000000000000000e+03 3.319170379638671875e+01 2.016464614868164062e+01 2.324391156435012817e-01 8.239305615425109863e-01 3.169108927249908447e-01 2.834450900554656982e-01
3.108000000000000000e+03 6.269058990478515625e+01 8.057394981384277344e+00 3.054083585739135742e-01 3.596091270446777344e+00 1.170449852943420410e+00 -1.114914655685424805e+00
3.109000000000000000e+03 2.476047897338867188e+01 2.739201354980468750e+01 3.017857968807220459e-01 1.989139616489410400e-01 1.502099335193634033e-01 2.725456357002258301e-01
3.110000000000000000e+03 6.541956329345703125e+01 1.981770133972167969e+01 3.340031802654266357e-01 4.599283695220947266e+00 1.479986071586608887e+00 -6.273606419563293457e-01
3.111000000000000000e+03 1.786413764953613281e+01 3.252468109130859375e+01 1.641988307237625122e-01 -4.264153912663459778e-02 3.646718338131904602e-02 2.034860402345657349e-01
3.112000000000000000e+03 6.452783966064453125e+01 2.688286209106445312e+01 2.849599421024322510e-01 4.421482086181640625e+00 1.411932587623596191e+00 -4.627463221549987793e-01
3.113000000000000000e+03 6.370907211303710938e+01 2.030472564697265625e+01 3.503406047821044922e-01 4.250983715057373047e+00 1.380397319793701172e+00 -5.810723900794982910e-01
3.114000000000000000e+03 6.515785217285156250e+01 6.661299705505371094e+00 6.321667134761810303e-02 4.369344234466552734e+00 1.329768180847167969e+00 -1.331458330154418945e+00
3.115000000000000000e+03 6.449767303466796875e+01 2.470152139663696289e+00 -2.026541084051132202e-01 3.782619476318359375e+00 1.073989629745483398e+00 -1.792696714401245117e+00
3.116000000000000000e+03 6.900871276855468750e+01 2.807013273239135742e+00 -8.103272914886474609e-01 6.452077388763427734e+00 1.692525029182434082e+00 -1.431130766868591309e+00
3.117000000000000000e+03 6.280070495605468750e+01 4.876953601837158203e+00 1.417412459850311279e-01 3.317523241043090820e+00 1.037779331207275391e+00 -1.275432348251342773e+00
3.118000000000000000e+03 2.922220611572265625e+01 2.687505149841308594e+01 3.209578096866607666e-01 4.681893885135650635e-01 2.367441654205322266e-01 2.213451862335205078e-01
3.119000000000000000e+03 1.613087463378906250e+01 3.127855110168457031e+01 1.263673007488250732e-01 -1.179139912128448486e-01 2.535990439355373383e-03 2.119705379009246826e-01
3.120000000000000000e+03 1.325270938873291016e+01 3.128373336791992188e+01 7.016085833311080933e-02 -2.650700807571411133e-01 -5.847276747226715088e-02 1.664412319660186768e-01
3.121000000000000000e+03 6.592309570312500000e+01 2.544850921630859375e+01 2.543609142303466797e-01 4.685940265655517578e+00 1.482090353965759277e+00 -4.867023825645446777e-01
3.122000000000000000e+03 5.307416915893554688e+01 3.409901428222656250e+01 6.336132884025573730e-01 2.507001876831054688e+00 9.421845674514770508e-01 -1.599330157041549683e-01
3.123000000000000000e+03 5.495700073242187500e+01 3.030809402465820312e+01 5.996574759483337402e-01 2.612313032150268555e+00 9.635911583900451660e-01 -3.296847045421600342e-01
3.124000000000000000e+03 5.876017093658447266e+00 -3.811255645751953125e+01 -1.478723883628845215e-01 1.543813645839691162e-01 1.952689490281045437e-03 1.298433095216751099e-01
3.125000000000000000e+03 4.244178771972656250e+01 3.740933227539062500e+01 6.115390658378601074e-01 1.391190767288208008e+00 6.008189320564270020e-01 7.246956229209899902e-02
3.126000000000000000e+03 3.370240402221679688e+01 2.505953216552734375e+01 3.223663270473480225e-01 8.186838626861572266e-01 3.423150479793548584e-01 2.297253608703613281e-01
3.127000000000000000e+03 2.032191467285156250e+01 -3.224639129638671875e+01 2.542691677808761597e-02 8.349418044090270996e-01 2.581106126308441162e-01 -3.902429938316345215e-01
3.128000000000000000e+03 1.722708511352539062e+01 -3.180181312561035156e+01 -1.129427254199981689e-01 1.069429039955139160e+00 2.869459092617034912e-01 -3.258666992187500000e-01
3.129000000000000000e+03 1.434137344360351562e+01 -3.648225021362304688e+01 -3.282683789730072021e-01 8.958314061164855957e-01 1.702689081430435181e-01 -3.057891875505447388e-02
3.130000000000000000e+03 2.790094757080078125e+01 -5.944528102874755859e+00 6.769738346338272095e-02 1.505187273025512695e+00 4.718653857707977295e-01 1.350929856300354004e+00
3.131000000000000000e+03 2.739606857299804688e+01 -5.671056270599365234e+00 -8.501490205526351929e-02 1.650866866111755371e+00 4.697555899620056152e-01 1.294059276580810547e+00
3.132000000000000000e+03 2.758094406127929688e+01 -6.375774383544921875e+00 1.342729628086090088e-01 1.623585224151611328e+00 5.273574590682983398e-01 1.419574379920959473e+00
3.133000000000000000e+03 2.743277740478515625e+01 -5.064494609832763672e+00 -2.054224610328674316e-01 1.603514671325683594e+00 4.194276630878448486e-01 1.200019001960754395e+00
3.134000000000000000e+03 2.740452957153320312e+01 -6.794396877288818359e+00 3.150820732116699219e-01 1.674449801445007324e+00 5.968595743179321289e-01 1.530327439308166504e+00
3.135000000000000000e+03 2.850267219543457031e+01 -2.568635225296020508e+00 -3.491248786449432373e-01 1.315139770507812500e+00 2.898044586181640625e-01 9.343498349189758301e-01
3.136000000000000000e+03 2.924979782104492188e+01 -7.199062108993530273e-01 -3.210130929946899414e-01 1.191315412521362305e+00 2.610906958580017090e-01 7.930660247802734375e-01
3.137000000000000000e+03 3.108580398559570312e+01 -8.454029083251953125e+00 6.446033120155334473e-01 2.207897454500198364e-01 2.596178948879241943e-01 6.980451345443725586e-01
3.138000000000000000e+03 2.844552421569824219e+01 -4.421796321868896484e+00 -1.850796192884445190e-01 1.380630254745483398e+00 3.586651980876922607e-01 1.139459371566772461e+00
3.139000000000000000e+03 2.836966323852539062e+01 -5.459191799163818359e+00 1.220939867198467255e-02 1.377496242523193359e+00 4.169116914272308350e-01 1.267950892448425293e+00
3.140000000000000000e+03 3.222774887084960938e+01 -7.489712715148925781e+00 3.508493900299072266e-01 2.703041136264801025e-01 1.863460391759872437e-01 6.696652173995971680e-01
3.141000000000000000e+03 3.649778747558593750e+01 -4.849168300628662109e+00 -1.369776576757431030e-01 3.131663203239440918e-01 5.285659804940223694e-02 4.628916084766387939e-01
3.142000000000000000e+03 3.113147163391113281e+01 -7.604560256004333496e-01 -2.019018679857254028e-01 1.010195374488830566e+00 2.424880713224411011e-01 8.094485402107238770e-01
3.143000000000000000e+03 2.772837257385253906e+01 -2.494977951049804688e+00 -4.312908351421356201e-01 1.403472542762756348e+00 2.916545271873474121e-01 8.904866576194763184e-01
3.144000000000000000e+03 3.115183067321777344e+01 2.610494792461395264e-01 -1.951107978820800781e-01 1.008080482482910156e+00 2.438908964395523071e-01 7.594048380851745605e-01
3.145000000000000000e+03 6.643979644775390625e+01 5.939905166625976562e+00 -1.103254482150077820e-01 4.895827293395996094e+00 1.435650587081909180e+00 -1.383996844291687012e+00
3.146000000000000000e+03 6.255355072021484375e+01 6.354197025299072266e+00 2.315943092107772827e-01 3.398396730422973633e+00 1.088997364044189453e+00 -1.160452961921691895e+00
3.147000000000000000e+03 3.685851287841796875e+01 -1.265422940254211426e+00 -1.232506930828094482e-01 5.320876240730285645e-01 1.226510778069496155e-01 5.750004053115844727e-01
3.148000000000000000e+03 3.808688735961914062e+01 -9.160905480384826660e-01 -1.430488973855972290e-01 4.892675876617431641e-01 1.038656085729598999e-01 5.123237371444702148e-01
3.149000000000000000e+03 3.736272430419921875e+01 -3.454313993453979492e+00 -1.637116819620132446e-01 3.742481470108032227e-01 6.316094100475311279e-02 4.790653586387634277e-01
3.150000000000000000e+03 3.617079162597656250e+01 -2.730399847030639648e+00 -1.174399927258491516e-01 4.824752807617187500e-01 1.095105856657028198e-01 5.814350247383117676e-01
3.151000000000000000e+03 6.573632049560546875e+01 4.740151405334472656e+00 -1.609055399894714355e-01 4.532155036926269531e+00 1.311374902725219727e+00 -1.541027545928955078e+00
3.152000000000000000e+03 4.376908493041992188e+01 -2.669126272201538086e+00 -3.783124089241027832e-01 2.234947681427001953e-01 -4.644529148936271667e-02 2.438201308250427246e-01
3.153000000000000000e+03 3.336441421508789062e+01 -6.456202983856201172e+00 1.438722312450408936e-01 3.200460374355316162e-01 1.391754746437072754e-01 6.342773437500000000e-01
3.154000000000000000e+03 3.442189407348632812e+01 -6.346879959106445312e+00 4.056813567876815796e-02 2.694596946239471436e-01 9.300834685564041138e-02 5.264577269554138184e-01
3.155000000000000000e+03 3.433749771118164062e+01 2.149392700195312500e+01 2.711164057254791260e-01 9.027791619300842285e-01 3.521686792373657227e-01 2.695927023887634277e-01
3.156000000000000000e+03 3.461468124389648438e+01 1.927492904663085938e+01 2.648918926715850830e-01 9.455425143241882324e-01 3.631303310394287109e-01 3.289440870285034180e-01
3.157000000000000000e+03 3.227365875244140625e+01 1.222279191017150879e+00 -1.279270052909851074e-01 9.227002859115600586e-01 2.384319901466369629e-01 7.233515381813049316e-01
3.158000000000000000e+03 3.458440399169921875e+01 1.360790371894836426e+00 -9.072320163249969482e-02 7.772609591484069824e-01 2.059613168239593506e-01 6.889265775680541992e-01
3.159000000000000000e+03 6.389514923095703125e+01 8.151412963867187500e+00 2.551529407501220703e-01 3.974184751510620117e+00 1.268801331520080566e+00 -1.168102860450744629e+00
3.160000000000000000e+03 4.011499023437500000e+01 -4.174341678619384766e+00 -3.323563337326049805e-01 2.507092654705047607e-01 -2.449411526322364807e-02 2.909324765205383301e-01
3.161000000000000000e+03 4.137671661376953125e+01 -3.836677789688110352e+00 -3.764394223690032959e-01 2.446294426918029785e-01 -3.954299539327621460e-02 2.584251463413238525e-01
3.162000000000000000e+03 3.320684432983398438e+01 -2.086116373538970947e-02 -1.260672807693481445e-01 8.368234634399414062e-01 2.132268399000167847e-01 7.413800358772277832e-01
3.163000000000000000e+03 3.752222442626953125e+01 -4.521615505218505859e+00 -1.937713921070098877e-01 2.991873621940612793e-01 3.162479400634765625e-02 4.126655459403991699e-01
3.164000000000000000e+03 3.962152862548828125e+01 -1.934855699539184570e+00 -2.072515338659286499e-01 3.705855011940002441e-01 4.900018498301506042e-02 4.061090052127838135e-01
3.165000000000000000e+03 3.948888015747070312e+01 -3.087648391723632812e+00 -2.492063641548156738e-01 3.112408220767974854e-01 1.861033961176872253e-02 3.680430054664611816e-01
3.166000000000000000e+03 2.139021301269531250e+01 2.537486457824707031e+01 2.339702993631362915e-01 5.587877333164215088e-02 8.695472031831741333e-02 3.702985942363739014e-01
3.167000000000000000e+03 2.366220474243164062e+01 2.491509628295898438e+01 2.814415097236633301e-01 1.041496098041534424e-01 1.156773343682289124e-01 3.250885903835296631e-01
3.168000000000000000e+03 3.040707778930664062e+01 2.340156364440917969e+01 2.727072238922119141e-01 5.445841550827026367e-01 2.451874017715454102e-01 2.252860665321350098e-01
3.169000000000000000e+03 6.648442077636718750e+01 3.139794349670410156e+01 2.293007522821426392e-01 4.720242023468017578e+00 1.484862804412841797e+00 -3.330282270908355713e-01
3.170000000000000000e+03 6.293906402587890625e+01 2.851207160949707031e+01 3.187660872936248779e-01 4.120608329772949219e+00 1.331812381744384766e+00 -4.284066855907440186e-01
3.171000000000000000e+03 3.235105514526367188e+01 -6.519332408905029297e+00 2.554636895656585693e-01 4.054880142211914062e-01 1.982855200767517090e-01 7.688601613044738770e-01
3.172000000000000000e+03 2.935322952270507812e+01 -5.575562953948974609e+00 1.459079682826995850e-01 1.104109883308410645e+00 3.750053644180297852e-01 1.219878435134887695e+00
3.173000000000000000e+03 2.879263496398925781e+01 -6.062704563140869141e+00 2.200231254100799561e-01 1.217533826828002930e+00 4.312671124935150146e-01 1.313549160957336426e+00
3.174000000000000000e+03 2.826764678955078125e+01 -6.451691150665283203e+00 2.824116349220275879e-01 1.330198168754577637e+00 4.837829172611236572e-01 1.392227530479431152e+00
3.175000000000000000e+03 3.648716735839843750e+01 -7.686316221952438354e-02 -1.102406680583953857e-01 6.164106726646423340e-01 1.518510133028030396e-01 6.101716756820678711e-01
3.176000000000000000e+03 3.441223526000976562e+01 -5.312181949615478516e+00 2.648987341672182083e-03 3.744038343429565430e-01 1.131158471107482910e-01 6.115682721138000488e-01
3.177000000000000000e+03 3.545286560058593750e+01 -5.108364105224609375e+00 -6.882621347904205322e-02 3.359695672988891602e-01 8.014300465583801270e-02 5.324097871780395508e-01
3.178000000000000000e+03 3.017650985717773438e+01 -7.153049111366271973e-01 -2.612044811248779297e-01 1.102790117263793945e+00 2.524756789207458496e-01 8.085300326347351074e-01
3.179000000000000000e+03 3.604981994628906250e+01 1.120051503181457520e+00 -9.391918778419494629e-02 7.012744545936584473e-01 1.822065860033035278e-01 6.380172371864318848e-01
3.180000000000000000e+03 3.532754516601562500e+01 -2.683806121349334717e-01 -1.054443567991256714e-01 6.775826811790466309e-01 1.716414988040924072e-01 6.651965379714965820e-01
3.181000000000000000e+03 3.850470352172851562e+01 -4.198990821838378906e+00 -2.429085373878479004e-01 2.818025946617126465e-01 1.166821643710136414e-02 3.662280738353729248e-01
3.182000000000000000e+03 3.588285827636718750e+01 -1.755437850952148438e+00 -1.106617152690887451e-01 5.641313791275024414e-01 1.360408961772918701e-01 6.234427690505981445e-01
3.183000000000000000e+03 3.938934707641601562e+01 -4.009245872497558594e+00 -2.824474871158599854e-01 2.729866206645965576e-01 -2.838259097188711166e-03 3.339371681213378906e-01
3.184000000000000000e+03 3.831771850585937500e+01 -2.086329698562622070e+00 -1.687518060207366943e-01 4.186163544654846191e-01 7.495936006307601929e-02 4.734998643398284912e-01
3.185000000000000000e+03 3.429371261596679688e+01 6.690328717231750488e-01 -1.012165099382400513e-01 7.736961245536804199e-01 2.017438858747482300e-01 7.021735310554504395e-01
3.186000000000000000e+03 4.050907897949218750e+01 -3.308649301528930664e+00 -3.020410537719726562e-01 2.771120071411132812e-01 -7.478718645870685577e-03 3.163816034793853760e-01
3.187000000000000000e+03 6.458683776855468750e+01 5.375778675079345703e+00 7.485234644263982773e-03 4.103850841522216797e+00 1.233400821685791016e+00 -1.415640234947204590e+00
3.188000000000000000e+03 3.218059158325195312e+01 1.532810628414154053e-01 -1.530940234661102295e-01 9.224920272827148438e-01 2.308194041252136230e-01 7.581054568290710449e-01
3.189000000000000000e+03 3.018376350402832031e+01 -1.676007747650146484e+00 -2.446276545524597168e-01 1.105958223342895508e+00 2.583991885185241699e-01 8.737060427665710449e-01
3.190000000000000000e+03 3.669750213623046875e+01 2.181784057617187500e+01 3.029460608959197998e-01 1.123912453651428223e+00 4.280575513839721680e-01 2.887399494647979736e-01
3.191000000000000000e+03 3.351313018798828125e+01 2.290163421630859375e+01 2.865778803825378418e-01 8.131746649742126465e-01 3.299257457256317139e-01 2.434406727552413940e-01
3.192000000000000000e+03 3.362731170654296875e+01 1.858949542045593262e+00 -8.074861019849777222e-02 8.407140970230102539e-01 2.279896438121795654e-01 7.059985399246215820e-01
3.193000000000000000e+03 6.393651199340820312e+01 4.221191406250000000e+00 -1.452203933149576187e-02 3.672550916671752930e+00 1.097408652305603027e+00 -1.505294084548950195e+00
3.194000000000000000e+03 2.137516784667968750e+01 -3.750772476196289062e+01 -1.451423764228820801e-01 6.880685091018676758e-01 1.628778427839279175e-01 -1.813279837369918823e-01
3.195000000000000000e+03 2.421767234802246094e+01 -3.631635665893554688e+01 -1.945032924413681030e-02 5.293297171592712402e-01 1.529638171195983887e-01 -1.932197809219360352e-01
3.196000000000000000e+03 6.064105224609375000e+01 3.487673568725585938e+01 4.155821800231933594e-01 3.681084156036376953e+00 1.228999853134155273e+00 -2.254226207733154297e-01
3.197000000000000000e+03 2.918305778503417969e+01 -6.750052452087402344e+00 4.527715146541595459e-01 9.678419828414916992e-01 4.261840581893920898e-01 1.274963736534118652e+00
3.198000000000000000e+03 2.894060134887695312e+01 -4.940391540527343750e+00 -2.271666564047336578e-02 1.235531687736511230e+00 3.638444840908050537e-01 1.180519819259643555e+00
3.199000000000000000e+03 3.340850448608398438e+01 -5.464750766754150391e+00 8.319678157567977905e-02 4.385251998901367188e-01 1.565165966749191284e-01 7.127482295036315918e-01
3.200000000000000000e+03 3.005647277832031250e+01 -4.458894729614257812e+00 -1.633728295564651489e-02 1.029979705810546875e+00 3.040927052497863770e-01 1.083149075508117676e+00
3.201000000000000000e+03 2.977529716491699219e+01 -6.174786090850830078e+00 3.345270156860351562e-01 8.964892029762268066e-01 3.693048655986785889e-01 1.193102240562438965e+00
3.202000000000000000e+03 2.886332511901855469e+01 -3.821746110916137695e+00 -2.129803597927093506e-01 1.295428633689880371e+00 3.247344791889190674e-01 1.068318724632263184e+00
3.203000000000000000e+03 3.244367599487304688e+01 -5.547974109649658203e+00 1.386408209800720215e-01 5.262036323547363281e-01 1.994533389806747437e-01 8.239187598228454590e-01
3.204000000000000000e+03 3.634750747680664062e+01 -3.764424085617065430e+00 -1.217824071645736694e-01 4.010760188102722168e-01 8.378808945417404175e-02 5.348433852195739746e-01
3.205000000000000000e+03 3.139159584045410156e+01 -6.521035194396972656e+00 3.313735127449035645e-01 5.246090888977050781e-01 2.567947804927825928e-01 9.158842563629150391e-01
3.206000000000000000e+03 3.186714172363281250e+01 -2.763967990875244141e+00 -1.127983555197715759e-01 8.638382554054260254e-01 2.253119796514511108e-01 8.776954412460327148e-01
3.207000000000000000e+03 3.049142646789550781e+01 -6.455678462982177734e+00 3.803433775901794434e-01 7.079873681068420410e-01 3.264992237091064453e-01 1.075575590133666992e+00
3.208000000000000000e+03 3.311752700805664062e+01 -1.011444807052612305e+00 -1.252172440290451050e-01 8.103105425834655762e-01 2.055279761552810669e-01 7.666997909545898438e-01
3.209000000000000000e+03 3.533170700073242188e+01 -4.044908046722412109e+00 -7.642940431833267212e-02 4.360102415084838867e-01 1.078742444515228271e-01 6.007818579673767090e-01
3.210000000000000000e+03 3.414067840576171875e+01 -1.129523038864135742e+00 -1.128443479537963867e-01 7.300898432731628418e-01 1.851736456155776978e-01 7.265024185180664062e-01
3.211000000000000000e+03 3.517557907104492188e+01 -3.026752948760986328e+00 -8.697360754013061523e-02 5.292112827301025391e-01 1.326713114976882935e-01 6.504081487655639648e-01
3.212000000000000000e+03 3.433036422729492188e+01 -4.282939434051513672e+00 -2.408463321626186371e-02 4.801766872406005859e-01 1.368276178836822510e-01 6.813557744026184082e-01
3.213000000000000000e+03 3.515171051025390625e+01 2.273394012451171875e+01 3.051646649837493896e-01 9.716979861259460449e-01 3.830587863922119141e-01 2.639850080013275146e-01
3.214000000000000000e+03 3.471718215942382812e+01 2.742750740051269531e+01 3.616887927055358887e-01 8.730843663215637207e-01 3.704319298267364502e-01 2.159855663776397705e-01
3.215000000000000000e+03 3.414793014526367188e+01 -3.235883712768554688e+00 -6.193329021334648132e-02 5.864752531051635742e-01 1.573625952005386353e-01 7.239751219749450684e-01
3.216000000000000000e+03 3.163958549499511719e+01 -4.593598842620849609e+00 4.211017116904258728e-02 7.500612139701843262e-01 2.376514226198196411e-01 9.391217231750488281e-01
3.217000000000000000e+03 3.071684074401855469e+01 -5.477268695831298828e+00 1.528473198413848877e-01 8.087261319160461426e-01 2.884720265865325928e-01 1.047617316246032715e+00
3.218000000000000000e+03 2.998289680480957031e+01 -5.367159843444824219e+00 1.320437043905258179e-01 9.561453461647033691e-01 3.264566957950592041e-01 1.123545289039611816e+00
3.219000000000000000e+03 3.300709915161132812e+01 -2.048084497451782227e+00 -1.086881607770919800e-01 7.739434242248535156e-01 1.995765715837478638e-01 7.962097525596618652e-01
3.220000000000000000e+03 3.108485794067382812e+01 -1.730316042900085449e+00 -1.895601600408554077e-01 9.958130717277526855e-01 2.418758720159530640e-01 8.629008531570434570e-01
3.221000000000000000e+03 3.017275238037109375e+01 -2.611923694610595703e+00 -2.042210549116134644e-01 1.086523890495300293e+00 2.646908462047576904e-01 9.394698143005371094e-01
3.222000000000000000e+03 2.941938591003417969e+01 -3.497329711914062500e+00 -1.963106840848922729e-01 1.185903787612915039e+00 2.968779206275939941e-01 1.028803825378417969e+00
3.223000000000000000e+03 3.326137924194335938e+01 -3.541163444519042969e+00 -3.874583169817924500e-02 6.470688581466674805e-01 1.824969202280044556e-01 7.894330024719238281e-01
3.224000000000000000e+03 3.423599243164062500e+01 -1.869414448738098145e-01 -1.064872294664382935e-01 7.564753890037536621e-01 1.949964612722396851e-01 7.150877714157104492e-01
3.225000000000000000e+03 2.930962371826171875e+01 -1.662714123725891113e+00 -3.157392144203186035e-01 1.203208327293395996e+00 2.662407457828521729e-01 8.672791123390197754e-01
3.226000000000000000e+03 3.503484725952148438e+01 -2.092156410217285156e+00 -9.594805538654327393e-02 5.906981825828552246e-01 1.484250426292419434e-01 6.737804412841796875e-01
3.227000000000000000e+03 3.211252212524414062e+01 -8.647084832191467285e-01 -1.590125709772109985e-01 9.084277153015136719e-01 2.248245477676391602e-01 7.976476550102233887e-01
3.228000000000000000e+03 3.101309013366699219e+01 -2.664557695388793945e+00 -1.501313149929046631e-01 9.763970971107482910e-01 2.478797286748886108e-01 9.111506342887878418e-01
3.229000000000000000e+03 3.242391586303710938e+01 2.855473709106445312e+01 3.660840094089508057e-01 7.181029319763183594e-01 3.252560794353485107e-01 2.032642811536788940e-01
3.230000000000000000e+03 2.693717384338378906e+01 2.745149803161621094e+01 3.178528845310211182e-01 3.141928613185882568e-01 1.896137297153472900e-01 2.446642816066741943e-01
3.231000000000000000e+03 3.172963333129882812e+01 -3.666055679321289062e+00 -3.911830484867095947e-02 8.104014396667480469e-01 2.313849478960037231e-01 9.083902835845947266e-01
3.232000000000000000e+03 3.153628540039062500e+01 -5.548305034637451172e+00 1.795749217271804810e-01 6.576026678085327148e-01 2.511532902717590332e-01 9.489817619323730469e-01
3.233000000000000000e+03 3.249588394165039062e+01 -4.599179744720458984e+00 4.680036753416061401e-02 6.390975713729858398e-01 2.057693749666213989e-01 8.533818721771240234e-01
3.234000000000000000e+03 3.093193817138671875e+01 -3.592653989791870117e+00 -8.331441879272460938e-02 9.405966401100158691e-01 2.571846544742584229e-01 9.721198081970214844e-01
3.235000000000000000e+03 3.339151382446289062e+01 -4.486961841583251953e+00 1.160806231200695038e-02 5.416525006294250488e-01 1.659781634807586670e-01 7.551226019859313965e-01
3.236000000000000000e+03 3.201720046997070312e+01 -1.842306137084960938e+00 -1.401785761117935181e-01 8.906916379928588867e-01 2.251539230346679688e-01 8.368527889251708984e-01
3.237000000000000000e+03 3.404764556884765625e+01 -2.157419443130493164e+00 -9.175618737936019897e-02 6.690204143524169922e-01 1.731792688369750977e-01 7.359321713447570801e-01
3.238000000000000000e+03 3.785911560058593750e+01 2.797649192810058594e+01 4.169984161853790283e-01 1.105632901191711426e+00 4.567893743515014648e-01 2.401644438505172729e-01
3.239000000000000000e+03 3.251048278808593750e+01 -3.729070186614990234e+00 -2.840403281152248383e-02 7.135275006294250488e-01 2.055370360612869263e-01 8.565176129341125488e-01
3.240000000000000000e+03 3.272646331787109375e+01 -2.953112602233886719e+00 -7.513042539358139038e-02 7.437766790390014648e-01 2.005938738584518433e-01 8.224792480468750000e-01
3.241000000000000000e+03 3.015493965148925781e+01 -3.527021408081054688e+00 -1.372173279523849487e-01 1.068873047828674316e+00 2.794967293739318848e-01 9.984440207481384277e-01
3.242000000000000000e+03 4.907400512695312500e+01 3.259782791137695312e+01 6.839089989662170410e-01 1.853505134582519531e+00 7.612242698669433594e-01 -6.497414782643318176e-03
3.243000000000000000e+03 5.063579559326171875e+01 2.857862663269042969e+01 7.047086358070373535e-01 1.873148083686828613e+00 7.733570337295532227e-01 -1.271438002586364746e-01
3.244000000000000000e+03 3.464730072021484375e+01 -3.965219116210937500e+01 1.404764354228973389e-01 -7.843471132218837738e-03 3.978988900780677795e-02 -3.464611247181892395e-02
3.245000000000000000e+03 6.290764236450195312e+01 3.234766387939453125e+01 3.317983746528625488e-01 4.115680217742919922e+00 1.334243535995483398e+00 -3.174305558204650879e-01
3.246000000000000000e+03 1.275113964080810547e+01 3.727038574218750000e+01 8.809801191091537476e-02 -3.383978009223937988e-01 -7.508993893861770630e-02 7.574614882469177246e-02
3.247000000000000000e+03 8.169375419616699219e+00 4.090769195556640625e+01 2.770517766475677490e-02 -6.597551703453063965e-01 -1.896149963140487671e-01 1.701142266392707825e-02
3.248000000000000000e+03 2.700664138793945312e+01 -3.781380081176757812e+01 2.259607985615730286e-02 3.397253155708312988e-01 1.086964160203933716e-01 -1.308594942092895508e-01
3.249000000000000000e+03 5.883154296875000000e+01 3.204166030883789062e+01 4.735364317893981934e-01 3.298486709594726562e+00 1.131606936454772949e+00 -3.251991271972656250e-01
3.250000000000000000e+03 1.401164436340332031e+01 2.845799446105957031e+01 7.769966125488281250e-02 -1.805823743343353271e-01 -3.086481429636478424e-02 2.196071743965148926e-01
3.251000000000000000e+03 5.721861648559570312e+01 3.665167617797851562e+01 5.136203169822692871e-01 3.144073247909545898e+00 1.097308158874511719e+00 -1.593419313430786133e-01
3.252000000000000000e+03 3.829610443115234375e+01 3.413558959960937500e+01 5.213299989700317383e-01 1.074949741363525391e+00 4.788839221000671387e-01 1.488033831119537354e-01
3.253000000000000000e+03 1.598810958862304688e+01 3.532244873046875000e+01 1.296807378530502319e-01 -1.641045063734054565e-01 -1.032712776213884354e-02 1.312949657440185547e-01
3.254000000000000000e+03 5.903022003173828125e+01 -3.526240158081054688e+01 3.070104420185089111e-01 1.779103279113769531e+00 6.258341073989868164e-01 3.162783682346343994e-01
3.255000000000000000e+03 2.707180595397949219e+01 3.321769332885742188e+01 3.431092500686645508e-01 3.764939010143280029e-01 2.158809453248977661e-01 1.612883061170578003e-01
3.256000000000000000e+03 2.168611145019531250e+01 2.882396697998046875e+01 2.431187629699707031e-01 1.020404994487762451e-01 1.035477742552757263e-01 2.822383046150207520e-01
3.257000000000000000e+03 1.973316383361816406e+01 3.060585975646972656e+01 2.056180983781814575e-01 3.653438016772270203e-02 7.264574617147445679e-02 2.499009668827056885e-01
3.258000000000000000e+03 3.158241462707519531e+01 -4.088998794555664062e+01 1.013153642416000366e-01 1.225092634558677673e-01 6.714738905429840088e-02 -1.440759375691413879e-02
3.259000000000000000e+03 3.365930557250976562e+01 3.128544616699218750e+01 4.216600656509399414e-01 8.072507977485656738e-01 3.686732649803161621e-01 1.751821190118789673e-01
3.260000000000000000e+03 5.203978729248046875e+01 3.124162292480468750e+01 6.631712317466735840e-01 2.239351034164428711e+00 8.707566857337951660e-01 -1.637645363807678223e-01
3.261000000000000000e+03 3.453056716918945312e+01 3.417346572875976562e+01 4.677617549896240234e-01 8.608414530754089355e-01 3.985809683799743652e-01 1.360996663570404053e-01
3.262000000000000000e+03 3.805210494995117188e+01 3.747523880004882812e+01 5.395608544349670410e-01 1.063700556755065918e+00 4.809784293174743652e-01 8.268539607524871826e-02
3.263000000000000000e+03 3.386996078491210938e+01 3.717460250854492188e+01 4.710856974124908447e-01 7.942732572555541992e-01 3.796076774597167969e-01 8.887079358100891113e-02
3.264000000000000000e+03 5.259313201904296875e+01 4.053112411499023438e+01 6.239683032035827637e-01 2.457597255706787109e+00 9.244696497917175293e-01 -2.880431339144706726e-02
3.265000000000000000e+03 6.368161392211914062e+01 3.693896102905273438e+01 3.317232728004455566e-01 4.161953449249267578e+00 1.348102927207946777e+00 -1.775012463331222534e-01
3.266000000000000000e+03 1.898283767700195312e+01 3.676765823364257812e+01 1.991447061300277710e-01 -2.763316407799720764e-02 5.145346000790596008e-02 1.093704104423522949e-01
3.267000000000000000e+03 2.314007568359375000e+01 3.701176452636718750e+01 2.790376543998718262e-01 1.815952807664871216e-01 1.381898820400238037e-01 1.119951009750366211e-01
3.268000000000000000e+03 2.021351432800292969e+01 3.329236602783203125e+01 2.227175235748291016e-01 4.580402001738548279e-02 8.055646717548370361e-02 1.916134953498840332e-01
3.269000000000000000e+03 2.694442367553710938e+01 3.010618400573730469e+01 3.308162093162536621e-01 3.454374372959136963e-01 2.028760910034179688e-01 2.084779292345046997e-01
3.270000000000000000e+03 4.690574645996093750e+01 3.692495727539062500e+01 6.599714159965515137e-01 1.784040331840515137e+00 7.332035303115844727e-01 1.224910560995340347e-02
3.271000000000000000e+03 2.758276557922363281e+01 3.671268463134765625e+01 3.622575700283050537e-01 4.302324950695037842e-01 2.377470135688781738e-01 9.945279359817504883e-02
3.272000000000000000e+03 2.409116172790527344e+01 -7.928645133972167969e+00 -2.654238641262054443e-01 3.223078489303588867e+00 8.872964382171630859e-01 6.567878127098083496e-01
3.273000000000000000e+03 2.394278335571289062e+01 -8.523197174072265625e+00 -1.839976906776428223e-01 3.784062147140502930e+00 1.080019354820251465e+00 5.957698225975036621e-01
3.274000000000000000e+03 2.415707969665527344e+01 -8.846193313598632812e+00 1.200375482439994812e-01 4.360065460205078125e+00 1.344030857086181641e+00 1.156732797622680664e+00
3.275000000000000000e+03 2.455523490905761719e+01 -8.657237052917480469e+00 2.094195485115051270e-01 4.065785408020019531e+00 1.282561540603637695e+00 1.539101243019104004e+00
3.276000000000000000e+03 2.487118530273437500e+01 -9.467596054077148438e+00 2.085803985595703125e+00 4.163821697235107422e+00 1.874887704849243164e+00 2.803835153579711914e+00
3.277000000000000000e+03 1.968547630310058594e+01 -9.023970603942871094e+00 1.482260942459106445e+00 -1.482852578163146973e+00 -1.774918928276747465e-04 3.301240503787994385e-02
3.278000000000000000e+03 2.091539764404296875e+01 -9.903118133544921875e+00 2.667608499526977539e+00 -1.166052222251892090e+00 4.504668712615966797e-01 -6.593942642211914062e-01
3.279000000000000000e+03 2.114252662658691406e+01 -1.017989921569824219e+01 3.118793249130249023e+00 -1.125361204147338867e+00 5.980296134948730469e-01 -8.398995995521545410e-01
3.280000000000000000e+03 2.093206596374511719e+01 -1.066808319091796875e+01 3.906153917312622070e+00 -1.751342415809631348e+00 6.464434266090393066e-01 -1.769334226846694946e-01
3.281000000000000000e+03 2.122004890441894531e+01 -1.102161788940429688e+01 4.775657176971435547e+00 -1.723113059997558594e+00 9.157631993293762207e-01 3.300119340419769287e-01
3.282000000000000000e+03 6.714871978759765625e+01 -5.600454807281494141e+00 -2.967244863510131836e+00 8.962615966796875000e+00 1.798611402511596680e+00 -4.400794029235839844e+00
3.283000000000000000e+03 4.352017211914062500e+01 7.759685039520263672e+00 -7.202739268541336060e-02 7.691442966461181641e-01 2.091350704431533813e-01 -2.662090770900249481e-02
3.284000000000000000e+03 4.410118865966796875e+01 1.825745010375976562e+01 4.276061952114105225e-01 1.754241704940795898e+00 6.545543670654296875e-01 8.104678988456726074e-01
3.285000000000000000e+03 2.146692657470703125e+01 -1.172023391723632812e+01 4.811795234680175781e+00 -1.758315801620483398e+00 9.160438776016235352e-01 1.815197229385375977e+00
3.286000000000000000e+03 2.012295722961425781e+01 -9.531084060668945312e+00 2.002775192260742188e+00 -1.599954247474670410e+00 1.208463087677955627e-01 -2.075591534376144409e-01
3.287000000000000000e+03 2.049353218078613281e+01 -1.036520481109619141e+01 3.079464912414550781e+00 -1.827724218368530273e+00 3.755222260951995850e-01 -1.308100968599319458e-01
3.288000000000000000e+03 2.098178863525390625e+01 -1.037266540527343750e+01 3.352348327636718750e+00 -1.492596387863159180e+00 5.579255223274230957e-01 -5.364597439765930176e-01
3.289000000000000000e+03 2.091838264465332031e+01 -1.103999423980712891e+01 4.109901428222656250e+00 -2.089040756225585938e+00 6.062581539154052734e-01 5.051238536834716797e-01
3.290000000000000000e+03 2.025043869018554688e+01 -1.174133491516113281e+01 2.480974912643432617e+00 -2.476672887802124023e+00 1.290595158934593201e-03 1.642707705497741699e+00
3.291000000000000000e+03 2.058220291137695312e+01 -1.149569606781005859e+01 3.440269231796264648e+00 -2.481308460235595703e+00 2.876882255077362061e-01 1.332696318626403809e+00
3.292000000000000000e+03 2.580188369750976562e+01 -9.277040481567382812e+00 2.128046274185180664e+00 2.851870059967041016e+00 1.493974804878234863e+00 2.494454622268676758e+00
3.293000000000000000e+03 4.466210174560546875e+01 4.356153964996337891e+00 9.064484387636184692e-02 2.777706980705261230e-01 1.105246618390083313e-01 1.104564592242240906e-01
3.294000000000000000e+03 2.623946571350097656e+01 -9.386444091796875000e+00 2.520117521286010742e+00 1.892052173614501953e+00 1.323650956153869629e+00 2.185154438018798828e+00
3.295000000000000000e+03 2.478493499755859375e+01 -9.156404495239257812e+00 1.178418874740600586e+00 4.223509788513183594e+00 1.620578527450561523e+00 2.288877725601196289e+00
3.296000000000000000e+03 2.367503356933593750e+01 -1.445340061187744141e+01 -3.894977331161499023e+00 2.019454717636108398e+00 -5.626567602157592773e-01 1.026112794876098633e+00
3.297000000000000000e+03 2.416792869567871094e+01 -1.405532741546630859e+01 -2.287162303924560547e+00 2.770941734313964844e+00 1.451338976621627808e-01 1.573045104742050171e-01
3.298000000000000000e+03 6.109128570556640625e+01 3.029681396484375000e+01 3.881807625293731689e-01 3.768832445144653320e+00 1.247103929519653320e+00 -3.664909303188323975e-01
3.299000000000000000e+03 1.675735092163085938e+01 1.868114089965820312e+01 1.747676432132720947e-01 2.922978103160858154e-01 1.401196420192718506e-01 4.244591295719146729e-01
3.300000000000000000e+03 2.110640716552734375e+01 -1.183469295501708984e+01 4.140624523162841797e+00 -1.866255640983581543e+00 6.823107004165649414e-01 2.049739360809326172e+00
3.301000000000000000e+03 2.454336547851562500e+01 -1.496308040618896484e+01 -4.734082698822021484e+00 1.407442569732666016e+00 -9.979919791221618652e-01 2.902496755123138428e-01
3.302000000000000000e+03 2.463033866882324219e+01 -1.383326053619384766e+01 -1.458080768585205078e+00 2.646088123321533203e+00 3.564022183418273926e-01 -5.544361472129821777e-01
3.303000000000000000e+03 2.464413452148437500e+01 -9.511498451232910156e+00 1.790027737617492676e+00 4.811575889587402344e+00 1.980481028556823730e+00 2.735794544219970703e+00
3.304000000000000000e+03 4.211101913452148438e+01 -1.560673141479492188e+01 -1.501669526100158691e+00 2.195895090699195862e-02 -4.439131617546081543e-01 -3.883363902568817139e-01
3.305000000000000000e+03 2.425233268737792969e+01 -6.280106544494628906e+00 -5.358740687370300293e-01 2.130051612854003906e+00 4.782532453536987305e-01 6.067926287651062012e-01
3.306000000000000000e+03 2.433036994934082031e+01 -8.647812843322753906e+00 9.787999093532562256e-02 4.029103279113769531e+00 1.238094925880432129e+00 1.240679383277893066e+00
3.307000000000000000e+03 2.486509084701538086e+00 3.690668106079101562e+01 1.226315833628177643e-02 -1.079431295394897461e+00 -3.201504647731781006e-01 1.502088387496769428e-03
3.308000000000000000e+03 2.493976783752441406e+01 -8.719297409057617188e+00 6.976978182792663574e-01 3.643122673034667969e+00 1.302246212959289551e+00 1.893928408622741699e+00
3.309000000000000000e+03 2.481403732299804688e+01 -8.525672912597656250e+00 3.062589764595031738e-01 3.782454252243041992e+00 1.226613998413085938e+00 1.679750442504882812e+00
3.310000000000000000e+03 2.171065330505371094e+01 -3.158874511718750000e+01 1.515477746725082397e-01 6.856379508972167969e-01 2.511557340621948242e-01 -4.103095829486846924e-01
3.311000000000000000e+03 4.361748504638671875e+01 2.394454765319824219e+01 4.568265080451965332e-01 1.301643967628479004e+00 5.275411605834960938e-01 4.594170749187469482e-01
3.312000000000000000e+03 2.088650512695312500e+01 -1.140995693206787109e+01 4.197906494140625000e+00 -2.065206527709960938e+00 6.398100256919860840e-01 1.152284979820251465e+00
3.313000000000000000e+03 2.078396034240722656e+01 -1.176519393920898438e+01 3.501553058624267578e+00 -2.178578853607177734e+00 3.968922495841979980e-01 1.812181353569030762e+00
3.314000000000000000e+03 4.085626220703125000e+01 -3.535768890380859375e+01 4.239994660019874573e-02 -1.085845157504081726e-01 -1.985537260770797729e-02 -1.432702541351318359e-01
3.315000000000000000e+03 3.819439888000488281e+00 -1.371424293518066406e+01 1.078402400016784668e+00 -1.451167941093444824e+00 -1.118296757340431213e-01 -3.775919377803802490e-01
3.316000000000000000e+03 4.414410781860351562e+01 1.983336567878723145e+00 -3.210773319005966187e-02 2.905986607074737549e-01 7.754728198051452637e-02 2.428590059280395508e-01
3.317000000000000000e+03 2.470370101928710938e+01 -8.314412117004394531e+00 1.228200346231460571e-01 3.717758417129516602e+00 1.152173519134521484e+00 1.470038652420043945e+00
3.318000000000000000e+03 1.740366172790527344e+01 1.979235649108886719e+01 1.014444082975387573e-01 2.564757168292999268e-01 1.073760390281677246e-01 4.770844578742980957e-01
3.319000000000000000e+03 2.481240463256835938e+01 -6.232624530792236328e+00 -5.006356239318847656e-01 2.291037082672119141e+00 5.371204018592834473e-01 8.154610991477966309e-01
3.320000000000000000e+03 2.459504318237304688e+01 -8.087589263916015625e+00 -1.561781507916748524e-03 3.331626653671264648e+00 9.990194439888000488e-01 1.188470959663391113e+00
3.321000000000000000e+03 3.423740863800048828e+00 4.102197647094726562e+00 -7.230699062347412109e-02 -7.768486440181732178e-02 -4.499755799770355225e-02 1.142041534185409546e-01
3.322000000000000000e+03 1.984296989440917969e+01 -1.186270999908447266e+01 1.919449925422668457e+00 -2.641025781631469727e+00 -2.164727449417114258e-01 1.731141448020935059e+00
3.323000000000000000e+03 2.510388183593750000e+01 -6.458178997039794922e+00 -3.984678089618682861e-01 2.391270875930786133e+00 5.978409051895141602e-01 1.002199411392211914e+00
3.324000000000000000e+03 1.788305282592773438e+01 -2.800902557373046875e+01 3.231832981109619141e-01 1.131082534790039062e+00 4.362797439098358154e-01 -6.676921844482421875e-01
3.325000000000000000e+03 5.163635253906250000e+00 -1.434791755676269531e+01 1.938505411148071289e+00 8.779830932617187500e-01 8.449465036392211914e-01 -1.682680845260620117e-02
3.326000000000000000e+03 4.181467056274414062e+00 -1.491562175750732422e+01 1.323775768280029297e+00 -9.084272384643554688e-01 1.246045380830764771e-01 2.345047593116760254e-01
3.327000000000000000e+03 4.105798721313476562e+00 3.649340820312500000e+01 3.036179207265377045e-02 -9.270696640014648438e-01 -2.690123617649078369e-01 2.562298253178596497e-02
3.328000000000000000e+03 3.958262252807617188e+01 2.887058639526367188e+01 4.629353582859039307e-01 1.184046745300292969e+00 4.940946102142333984e-01 2.466745823621749878e-01
3.329000000000000000e+03 6.919895935058593750e+01 3.004158973693847656e+01 1.607845723628997803e-01 5.176389694213867188e+00 1.601152300834655762e+00 -3.354571759700775146e-01
3.330000000000000000e+03 2.494218826293945312e+01 -8.132268905639648438e+00 1.782445162534713745e-01 3.373353004455566406e+00 1.065479278564453125e+00 1.549621224403381348e+00
3.331000000000000000e+03 4.738902282714843750e+01 -3.323570632934570312e+01 -2.015659213066101074e-01 -2.426230162382125854e-01 -1.332566887140274048e-01 -3.671956956386566162e-01
3.332000000000000000e+03 4.887395858764648438e+01 -3.499840545654296875e+01 1.755357086658477783e-01 -2.524450421333312988e-01 -2.307280525565147400e-02 -3.041566610336303711e-01
3.333000000000000000e+03 2.856720352172851562e+01 2.059948921203613281e+01 1.778148114681243896e-01 3.738994598388671875e-01 1.655142754316329956e-01 2.306535094976425171e-01
3.334000000000000000e+03 1.662847709655761719e+01 2.439952659606933594e+01 9.176731109619140625e-02 2.699336037039756775e-02 3.562819957733154297e-02 3.616322278976440430e-01
3.335000000000000000e+03 1.646792793273925781e+01 2.922903251647949219e+01 1.348917633295059204e-01 -6.851132214069366455e-02 1.991413161158561707e-02 2.664442956447601318e-01
3.336000000000000000e+03 3.556246566772460938e+01 2.054142189025878906e+01 2.846329510211944580e-01 1.023536562919616699e+00 3.924508690834045410e-01 2.921172082424163818e-01
3.337000000000000000e+03 5.248632049560546875e+01 -3.339205169677734375e+01 1.363213639706373215e-02 -8.130278438329696655e-02 -2.030119299888610840e-02 -2.465263009071350098e-01
3.338000000000000000e+03 7.183960723876953125e+01 -1.851823997497558594e+01 -1.830464899539947510e-01 1.014976978302001953e+01 2.990016937255859375e+00 -8.345482349395751953e-01
3.339000000000000000e+03 3.681885528564453125e+01 9.867274284362792969e+00 1.798786222934722900e-01 1.046062231063842773e+00 3.677822649478912354e-01 7.481323480606079102e-01
3.340000000000000000e+03 7.249850463867187500e+01 -1.018171501159667969e+01 2.392951726913452148e+00 1.121274185180664062e+01 4.081707954406738281e+00 7.360925078392028809e-01
3.341000000000000000e+03 7.484919738769531250e+01 -1.790850639343261719e+01 3.513413295149803162e-02 9.121098518371582031e+00 2.746869802474975586e+00 -1.499604225158691406e+00
3.342000000000000000e+03 7.232637786865234375e+01 -1.951534461975097656e+01 -6.045278906822204590e-01 9.841381072998046875e+00 2.771055936813354492e+00 -1.025316596031188965e+00
3.343000000000000000e+03 2.640851974487304688e+01 -6.766152381896972656e+00 5.340652540326118469e-02 2.091634035110473633e+00 6.435121893882751465e-01 1.461907505989074707e+00
3.344000000000000000e+03 3.964154481887817383e+00 -9.683984756469726562e+00 2.058986574411392212e-01 -8.153880238533020020e-01 -1.828467994928359985e-01 -1.877298235893249512e+00
3.345000000000000000e+03 5.159374237060546875e+01 2.509469413757324219e+01 7.195094823837280273e-01 1.675375580787658691e+00 7.184655070304870605e-01 -2.539796233177185059e-01
3.346000000000000000e+03 5.318802833557128906e+00 4.662670612335205078e+00 -1.339029669761657715e-01 -9.026795625686645508e-02 -6.725127995014190674e-02 1.941658705472946167e-01
3.347000000000000000e+03 1.771879196166992188e+01 -9.330988883972167969e+00 1.365112543106079102e+00 -1.928315639495849609e+00 -1.689609587192535400e-01 9.257882833480834961e-01
3.348000000000000000e+03 1.412035465240478516e+01 -6.297785758972167969e+00 -2.049347013235092163e-01 -5.502139404416084290e-02 -7.798682898283004761e-02 1.334636569023132324e+00
3.349000000000000000e+03 5.837926101684570312e+01 3.307104110717773438e+00 1.771225929260253906e-01 1.599068045616149902e+00 5.328571796417236328e-01 -4.530406892299652100e-01
3.350000000000000000e+03 5.750386047363281250e+01 2.265988588333129883e+00 7.819303125143051147e-02 1.210762381553649902e+00 3.866866230964660645e-01 -2.632781267166137695e-01
3.351000000000000000e+03 5.149358367919921875e+01 -7.452753543853759766e+00 -1.514420866966247559e+00 1.382656246423721313e-01 -4.128465652465820312e-01 -2.026548981666564941e-01
3.352000000000000000e+03 3.149101257324218750e+01 -1.121840190887451172e+01 2.834435701370239258e-01 -1.371786594390869141e-01 4.387946799397468567e-02 -1.704747378826141357e-01
3.353000000000000000e+03 1.078419399261474609e+01 -2.853774452209472656e+01 -3.652635514736175537e-01 1.360857844352722168e+00 2.986782789230346680e-01 7.184584438800811768e-02
3.354000000000000000e+03 2.667376327514648438e+01 -6.436540126800537109e+00 1.797160506248474121e-02 1.964859962463378906e+00 5.948494672775268555e-01 1.419830083847045898e+00
3.355000000000000000e+03 6.700552368164062500e+01 1.896912956237792969e+01 3.061015605926513672e-01 4.923508644104003906e+00 1.568883061408996582e+00 -6.549652814865112305e-01
3.356000000000000000e+03 9.934283256530761719e+00 2.438948631286621094e+01 4.008718952536582947e-02 -3.149388730525970459e-01 -8.245550841093063354e-02 1.597328931093215942e-01
3.357000000000000000e+03 5.121506881713867188e+01 -4.699837207794189453e+00 -1.015977144241333008e+00 2.156797498464584351e-01 -2.400892227888107300e-01 8.261920511722564697e-02
3.358000000000000000e+03 5.356257247924804688e+01 -4.854687213897705078e+00 -1.241510152816772461e+00 2.256070822477340698e-01 -3.047709167003631592e-01 -6.655484903603792191e-03
3.359000000000000000e+03 5.285651016235351562e+01 -5.307063460350036621e-01 -3.061766624450683594e-01 3.860207796096801758e-01 2.395324036478996277e-02 2.253787368535995483e-01
3.360000000000000000e+03 2.781651496887207031e+01 -6.725289821624755859e+00 3.597744703292846680e-01 1.489504456520080566e+00 5.547837018966674805e-01 1.478231072425842285e+00
3.361000000000000000e+03 2.823146438598632812e+01 2.175718116760253906e+01 2.313065081834793091e-01 3.545314967632293701e-01 1.757514029741287231e-01 2.363519370555877686e-01
3.362000000000000000e+03 1.246672630310058594e+01 -2.670998573303222656e+01 -1.353001743555068970e-01 1.675399303436279297e+00 4.620297253131866455e-01 -3.678231239318847656e-01
3.363000000000000000e+03 2.690395736694335938e+01 -7.361470222473144531e+00 4.904308915138244629e-01 1.898823499679565430e+00 7.167763113975524902e-01 1.672441720962524414e+00
3.364000000000000000e+03 5.282869338989257812e+00 -2.294902038574218750e+01 -3.421038389205932617e-01 3.080172240734100342e-01 -1.022598519921302795e-02 1.096663713455200195e+00
3.365000000000000000e+03 6.775560379028320312e+00 -2.306473350524902344e+01 -4.196667969226837158e-01 1.508908629417419434e+00 3.267725408077239990e-01 7.203010916709899902e-01
3.366000000000000000e+03 6.435314941406250000e+01 -2.532962799072265625e+01 -5.388344526290893555e-01 4.286777496337890625e+00 1.124382853507995605e+00 9.710890054702758789e-01
3.367000000000000000e+03 4.158925056457519531e+00 5.960331916809082031e+00 -8.099132031202316284e-02 -1.501089483499526978e-01 -6.933008134365081787e-02 1.990857273340225220e-01
3.368000000000000000e+03 6.594387531280517578e+00 8.784087181091308594e+00 -7.308249175548553467e-02 -2.142908871173858643e-01 -8.621201664209365845e-02 3.663707375526428223e-01
3.369000000000000000e+03 5.692529678344726562e+00 9.271749496459960938e+00 -3.747284784913063049e-02 -2.653732299804687500e-01 -9.085382521152496338e-02 3.392038345336914062e-01
3.370000000000000000e+03 9.354147911071777344e+00 -2.548019599914550781e+01 -4.186241030693054199e-01 1.778991818428039551e+00 4.081103205680847168e-01 1.852266639471054077e-01
3.371000000000000000e+03 2.855208396911621094e+01 2.458153152465820312e+01 2.927108108997344971e-01 3.929766714572906494e-01 2.057062536478042603e-01 2.328412979841232300e-01
3.372000000000000000e+03 3.333949279785156250e+01 9.469199180603027344e-01 -1.085200607776641846e-01 8.467307686805725098e-01 2.214632183313369751e-01 7.198472619056701660e-01
3.373000000000000000e+03 5.361035346984863281e+00 5.282438278198242188e+00 -1.276058852672576904e-01 -1.070911288261413574e-01 -7.040910422801971436e-02 2.146923094987869263e-01
3.374000000000000000e+03 5.496851921081542969e+00 2.235190582275390625e+01 3.234098851680755615e-02 -6.379273533821105957e-01 -1.816758960485458374e-01 9.097088873386383057e-02
3.375000000000000000e+03 6.120178699493408203e+00 -2.317112922668457031e+01 -4.090083241462707520e-01 1.007354855537414551e+00 1.795039623975753784e-01 9.671210646629333496e-01
3.376000000000000000e+03 3.840890502929687500e+01 -3.187149763107299805e+00 -2.052964121103286743e-01 3.499105572700500488e-01 4.338424280285835266e-02 4.263658523559570312e-01
3.377000000000000000e+03 6.527490139007568359e+00 1.434624958038330078e+01 1.064191907644271851e-01 -4.173988103866577148e-01 -9.329388290643692017e-02 3.013984262943267822e-01
3.378000000000000000e+03 7.488316345214843750e+01 -1.829848885536193848e+00 -6.907253265380859375e-01 8.747191429138183594e+00 2.416939735412597656e+00 8.070440292358398438e-01
3.379000000000000000e+03 7.470390319824218750e+01 -5.570985674858093262e-01 -8.039805293083190918e-01 8.667849540710449219e+00 2.359160900115966797e+00 5.462507605552673340e-01
3.380000000000000000e+03 6.801723480224609375e+01 1.704497146606445312e+01 2.909358739852905273e-01 5.146005630493164062e+00 1.631082534790039062e+00 -7.095994949340820312e-01
3.381000000000000000e+03 6.887916564941406250e+01 1.798962593078613281e+01 2.488791793584823608e-01 5.371607780456542969e+00 1.686146020889282227e+00 -6.522554755210876465e-01
3.382000000000000000e+03 6.824747467041015625e+01 2.521644783020019531e+01 1.987012028694152832e-01 5.111972332000732422e+00 1.593202114105224609e+00 -4.740316867828369141e-01
3.383000000000000000e+03 7.143578052520751953e+00 2.604832267761230469e+01 1.760734617710113525e-02 -5.488043427467346191e-01 -1.593590974807739258e-01 1.015469431877136230e-01
3.384000000000000000e+03 6.698715686798095703e+00 5.438337802886962891e+00 -1.749779433012008667e-01 -1.058713346719741821e-01 -8.425478637218475342e-02 2.733301520347595215e-01
3.385000000000000000e+03 6.830004882812500000e+01 4.232677519321441650e-01 -1.086373448371887207e+00 6.564153194427490234e+00 1.643333911895751953e+00 -1.812786698341369629e+00
3.386000000000000000e+03 5.494495010375976562e+01 -3.044760227203369141e+00 -8.782299757003784180e-01 3.036974966526031494e-01 -1.723597347736358643e-01 5.605239421129226685e-02
3.387000000000000000e+03 2.681989860534667969e+01 -6.087197303771972656e+00 -7.947508245706558228e-02 1.855472326278686523e+00 5.327991843223571777e-01 1.340224862098693848e+00
3.388000000000000000e+03 4.132966613769531250e+01 -5.365798473358154297e+00 -4.802438616752624512e-01 1.965518742799758911e-01 -8.510759472846984863e-02 1.780798882246017456e-01
3.389000000000000000e+03 3.519904708862304688e+01 2.014650821685791016e+00 -7.327332347631454468e-02 7.725366950035095215e-01 2.097790092229843140e-01 6.703854799270629883e-01
3.390000000000000000e+03 6.035761833190917969e+00 6.392053604125976562e+00 -1.335371583700180054e-01 -1.418110728263854980e-01 -8.260446786880493164e-02 2.854038476943969727e-01
3.391000000000000000e+03 1.040830039978027344e+01 -2.660156440734863281e+01 -3.587108552455902100e-01 1.608325719833374023e+00 3.748844563961029053e-01 3.912867978215217590e-02
3.392000000000000000e+03 7.310456085205078125e+01 2.031555938720703125e+01 9.977173805236816406e-02 6.139584541320800781e+00 1.871806859970092773e+00 -4.541169404983520508e-01
3.393000000000000000e+03 7.106687927246093750e+01 1.983481979370117188e+01 1.678231507539749146e-01 5.755490779876708984e+00 1.776994228363037109e+00 -5.474409461021423340e-01
3.394000000000000000e+03 2.758070182800292969e+01 -4.505758285522460938e+00 -2.967307269573211670e-01 1.557040333747863770e+00 3.780928850173950195e-01 1.115993142127990723e+00
3.395000000000000000e+03 2.711464309692382812e+01 -4.121151447296142578e+00 -3.873387873172760010e-01 1.588193893432617188e+00 3.602565228939056396e-01 1.034071564674377441e+00
3.396000000000000000e+03 4.049687194824218750e+01 -6.156036376953125000e+00 -4.790636897087097168e-01 1.683373600244522095e-01 -9.321790188550949097e-02 1.499184519052505493e-01
3.397000000000000000e+03 5.938110351562500000e+00 5.867739677429199219e+00 -1.400323212146759033e-01 -1.246704235672950745e-01 -7.941082119941711426e-02 2.605071663856506348e-01
3.398000000000000000e+03 7.116024780273437500e+01 7.724816799163818359e+00 -1.708251982927322388e-01 6.444912910461425781e+00 1.882226347923278809e+00 -8.917748928070068359e-01
3.399000000000000000e+03 7.210484313964843750e+01 3.913712263107299805e+00 -6.381329298019409180e-01 7.335913181304931641e+00 2.009334087371826172e+00 -7.524749040603637695e-01
3.400000000000000000e+03 7.321747589111328125e+01 9.522112846374511719e+00 -4.833552613854408264e-02 6.899688720703125000e+00 2.055405855178833008e+00 -6.769649386405944824e-01
3.401000000000000000e+03 3.083671951293945312e+01 -4.531211853027343750e+00 3.256447985768318176e-02 8.727585673332214355e-01 2.715969085693359375e-01 1.006291389465332031e+00
3.402000000000000000e+03 3.913184738159179688e+01 -5.894998073577880859e+00 -3.567621409893035889e-01 1.849805563688278198e-01 -5.153447389602661133e-02 2.262434959411621094e-01
3.403000000000000000e+03 2.833398056030273438e+01 -3.373824119567871094e+00 -3.172835707664489746e-01 1.369279980659484863e+00 3.155989348888397217e-01 1.010531783103942871e+00
3.404000000000000000e+03 3.865589523315429688e+01 -7.070469379425048828e+00 -4.317868947982788086e-01 1.297760903835296631e-01 -9.060323983430862427e-02 1.353752613067626953e-01
3.405000000000000000e+03 3.822712326049804688e+01 -6.402799129486083984e+00 -3.119735419750213623e-01 1.584212779998779297e-01 -4.606568068265914917e-02 2.287604957818984985e-01
3.406000000000000000e+03 3.806472778320312500e+01 -8.165975570678710938e+00 -4.078484177589416504e-01 8.453658223152160645e-02 -9.699355065822601318e-02 7.391127198934555054e-02
3.407000000000000000e+03 1.109428310394287109e+01 -9.500241279602050781e-01 -2.199529170989990234e+00 -2.488671243190765381e-02 -6.673247814178466797e-01 4.071880877017974854e-01
3.408000000000000000e+03 1.165381717681884766e+01 -7.241671085357666016e-01 -2.427629470825195312e+00 -1.174824386835098267e-01 -7.635335922241210938e-01 5.792706608772277832e-01
3.409000000000000000e+03 1.027435588836669922e+01 -1.351947069168090820e+00 -2.078915357589721680e+00 2.130075097084045410e-01 -5.597723126411437988e-01 2.269275784492492676e-01
3.410000000000000000e+03 1.030054473876953125e+01 -8.435348272323608398e-01 -2.152054309844970703e+00 1.905570477247238159e-01 -5.884492397308349609e-01 2.598849833011627197e-01
3.411000000000000000e+03 1.209442901611328125e+01 -1.691910147666931152e+00 -2.028976202011108398e+00 -1.055742427706718445e-02 -6.118600368499755859e-01 6.084237694740295410e-01
3.412000000000000000e+03 1.235916519165039062e+01 -9.953780174255371094e-01 -2.234664440155029297e+00 -1.127907261252403259e-01 -7.042365670204162598e-01 6.609299778938293457e-01
3.413000000000000000e+03 1.103997993469238281e+01 -4.984331727027893066e-01 -2.363149642944335938e+00 -1.268743723630905151e-01 -7.470071911811828613e-01 5.338413119316101074e-01
3.414000000000000000e+03 1.033364486694335938e+01 -3.521796166896820068e-01 -2.096580266952514648e+00 3.227270767092704773e-02 -6.192923188209533691e-01 3.589527010917663574e-01
3.415000000000000000e+03 1.116429042816162109e+01 -1.513366341590881348e+00 -2.026365518569946289e+00 1.385570168495178223e-01 -5.663425922393798828e-01 4.284961521625518799e-01
3.416000000000000000e+03 8.929869651794433594e+00 -3.257387280464172363e-01 -2.259231328964233398e+00 -5.248153582215309143e-03 -6.793438792228698730e-01 -1.784509606659412384e-02
3.417000000000000000e+03 9.405135154724121094e+00 -1.207431554794311523e+00 -1.999326825141906738e+00 2.750354707241058350e-01 -5.172873735427856445e-01 1.092156916856765747e-01
3.418000000000000000e+03 9.509044647216796875e+00 -6.957387328147888184e-01 -2.149118423461914062e+00 1.650928407907485962e-01 -5.952076911926269531e-01 1.775451600551605225e-01
3.419000000000000000e+03 8.311937332153320312e+00 -6.852564215660095215e-01 -2.154856443405151367e+00 5.045840144157409668e-02 -6.313194036483764648e-01 -6.281045079231262207e-02
3.420000000000000000e+03 7.644789695739746094e+00 -4.091947972774505615e-01 -2.172249317169189453e+00 1.733350567519664764e-02 -6.464747786521911621e-01 -9.472513198852539062e-02
3.421000000000000000e+03 6.843236923217773438e+00 -3.888793289661407471e-01 -1.982355237007141113e+00 1.004774495959281921e-02 -5.916922688484191895e-01 -1.350825577974319458e-01
3.422000000000000000e+03 5.179682731628417969e+00 -3.839172124862670898e-01 -1.362017512321472168e+00 1.772718038409948349e-03 -4.080734252929687500e-01 -1.758747398853302002e-01
3.423000000000000000e+03 4.313897609710693359e+00 -3.908450603485107422e-01 -9.942729473114013672e-01 -2.290791645646095276e-02 -3.051542639732360840e-01 -1.675760895013809204e-01
3.424000000000000000e+03 2.978018999099731445e+00 -6.541122794151306152e-01 -4.946129620075225830e-01 -1.095583662390708923e-02 -1.516706347465515137e-01 -2.498494833707809448e-01
3.425000000000000000e+03 1.116362333297729492e+00 -3.878802657127380371e-01 -2.193829230964183807e-02 -2.247561886906623840e-02 -1.332417316734790802e-02 -1.916293613612651825e-02
3.426000000000000000e+03 3.952576816082000732e-01 -5.600912570953369141e-01 1.126798219047486782e-03 4.537070635706186295e-03 1.699160668067634106e-03 2.102691680192947388e-03
3.427000000000000000e+03 6.959925889968872070e-01 -1.127880215644836426e+00 -5.744546279311180115e-02 -4.645575955510139465e-02 -3.117036633193492889e-02 -5.361619591712951660e-02
3.428000000000000000e+03 8.588925361633300781e+00 -1.222332477569580078e+00 -1.969633102416992188e+00 1.237673014402389526e-01 -5.537597537040710449e-01 -6.851257383823394775e-02
3.429000000000000000e+03 7.880912780761718750e+00 -1.224491596221923828e+00 -1.865465760231018066e+00 1.377631723880767822e-01 -5.183107852935791016e-01 -2.027982920408248901e-01
3.430000000000000000e+03 7.163526535034179688e+00 -1.149194836616516113e+00 -1.733214735984802246e+00 8.717473596334457397e-02 -4.938120245933532715e-01 -3.031549453735351562e-01
3.431000000000000000e+03 6.369585514068603516e+00 -1.128879308700561523e+00 -1.569295167922973633e+00 4.752006009221076965e-02 -4.565325081348419189e-01 -3.752261996269226074e-01
3.432000000000000000e+03 5.550294876098632812e+00 -1.121867775917053223e+00 -1.332899928092956543e+00 2.589091099798679352e-02 -3.921027183532714844e-01 -4.330982863903045654e-01
3.433000000000000000e+03 4.721254825592041016e+00 -1.123917222023010254e+00 -1.069330692291259766e+00 -2.352692186832427979e-02 -3.278572857379913330e-01 -4.397711157798767090e-01
3.434000000000000000e+03 3.863081216812133789e+00 -1.130845069885253906e+00 -7.640556693077087402e-01 -3.859312087297439575e-02 -2.407946437597274780e-01 -4.450567364692687988e-01
3.435000000000000000e+03 2.967671394348144531e+00 -1.180732727050781250e+00 -5.106337666511535645e-01 -8.236566931009292603e-02 -1.778998374938964844e-01 -3.941066861152648926e-01
3.436000000000000000e+03 2.120916366577148438e+00 -1.226537704467773438e+00 -2.661278247833251953e-01 -1.302880644798278809e-01 -1.189247667789459229e-01 -2.845470309257507324e-01
3.437000000000000000e+03 9.597342491149902344e+00 -2.483072280883789062e-01 -2.085731983184814453e+00 6.537937372922897339e-02 -6.061058044433593750e-01 8.295313268899917603e-02
3.438000000000000000e+03 3.571783065795898438e+00 -3.039060533046722412e-01 -6.539242267608642578e-01 -3.588247299194335938e-02 -2.069420069456100464e-01 -1.172035634517669678e-01
3.439000000000000000e+03 2.233603715896606445e+00 -7.216347455978393555e-01 -2.726790606975555420e-01 -4.507884755730628967e-02 -9.532736986875534058e-02 -1.693256646394729614e-01
3.440000000000000000e+03 1.673935413360595703e+00 -5.692175030708312988e-01 -1.253522038459777832e-01 -3.850768506526947021e-02 -4.915796592831611633e-02 -7.342237979173660278e-02
3.441000000000000000e+03 1.373850703239440918e+00 -1.189781188964843750e+00 -9.512784332036972046e-02 -1.146013960242271423e-01 -6.291877478361129761e-02 -1.336309462785720825e-01
3.442000000000000000e+03 6.016335010528564453e+00 -3.818677961826324463e-01 -1.702349424362182617e+00 7.247717585414648056e-03 -5.085304975509643555e-01 -1.555303782224655151e-01
3.443000000000000000e+03 2.176476955413818359e+00 -2.550970613956451416e-01 -1.494247019290924072e-01 5.436562001705169678e-03 -4.319643974304199219e-02 -6.146711111068725586e-02
3.444000000000000000e+03 2.899653196334838867e+00 -2.333795428276062012e-01 -3.222410082817077637e-01 5.265879444777965546e-03 -9.509253501892089844e-02 -3.648910298943519592e-02
3.445000000000000000e+03 2.330378723144531250e+01 -1.074294090270996094e+01 1.185359477996826172e+01 1.125262928009033203e+01 6.931867122650146484e+00 -1.042327308654785156e+01
3.446000000000000000e+03 2.328904724121093750e+01 -1.075565910339355469e+01 2.068515014648437500e+01 6.999319076538085938e+00 8.305340766906738281e+00 -1.028342533111572266e+01
3.447000000000000000e+03 2.327706527709960938e+01 -1.077100372314453125e+01 2.640631675720214844e+01 5.699818611145019531e+00 9.631840705871582031e+00 -8.390062332153320312e+00
3.448000000000000000e+03 2.326830101013183594e+01 -1.078838729858398438e+01 3.115048217773437500e+01 5.101675033569335938e+00 1.087564754486083984e+01 -5.262811660766601562e+00
3.449000000000000000e+03 2.326308822631835938e+01 -1.080714416503906250e+01 3.410434341430664062e+01 5.545832633972167969e+00 1.189505290985107422e+01 -1.705424547195434570e+00
3.450000000000000000e+03 2.326162528991699219e+01 -1.082655811309814453e+01 3.559667968750000000e+01 7.297297954559326172e+00 1.286819362640380859e+01 2.284711360931396484e+00
3.451000000000000000e+03 2.326397132873535156e+01 -1.084588432312011719e+01 3.525075912475585938e+01 9.612236022949218750e+00 1.345889854431152344e+01 5.772877693176269531e+00
3.452000000000000000e+03 2.327003479003906250e+01 -1.086438465118408203e+01 3.367394256591796875e+01 1.334593486785888672e+01 1.410596275329589844e+01 8.564298629760742188e+00
3.453000000000000000e+03 2.327958488464355469e+01 -1.088134956359863281e+01 3.092466163635253906e+01 1.694633102416992188e+01 1.436129856109619141e+01 1.023942279815673828e+01
3.454000000000000000e+03 2.329225349426269531e+01 -1.089613151550292969e+01 2.790106582641601562e+01 2.075879478454589844e+01 1.459795761108398438e+01 1.057250690460205078e+01
3.455000000000000000e+03 2.330755805969238281e+01 -1.090816402435302734e+01 2.499316596984863281e+01 2.418810272216796875e+01 1.475438117980957031e+01 9.665965080261230469e+00
3.456000000000000000e+03 2.332491302490234375e+01 -1.091698646545410156e+01 2.236228370666503906e+01 2.641875076293945312e+01 1.463431072235107422e+01 7.965388298034667969e+00
3.457000000000000000e+03 2.334365272521972656e+01 -1.092226219177246094e+01 2.107609939575195312e+01 2.791440773010253906e+01 1.469715213775634766e+01 5.577758312225341797e+00
3.458000000000000000e+03 2.336306190490722656e+01 -1.092378807067871094e+01 2.062327003479003906e+01 2.829663658142089844e+01 1.467597198486328125e+01 2.939081430435180664e+00
3.459000000000000000e+03 2.338239479064941406e+01 -1.092150688171386719e+01 2.057095909118652344e+01 2.746565055847167969e+01 1.441098213195800781e+01 6.009696722030639648e-01
3.460000000000000000e+03 2.340091514587402344e+01 -1.091550445556640625e+01 2.257056045532226562e+01 2.640414237976074219e+01 1.469241142272949219e+01 -1.175866007804870605e+00
3.461000000000000000e+03 2.341791152954101562e+01 -1.090601158142089844e+01 2.397685813903808594e+01 2.399470710754394531e+01 1.439146900177001953e+01 -2.576247930526733398e+00
3.462000000000000000e+03 2.343273544311523438e+01 -1.089339160919189453e+01 2.665922546386718750e+01 2.216164970397949219e+01 1.464626216888427734e+01 -2.761349439620971680e+00
3.463000000000000000e+03 2.344482040405273438e+01 -1.087812709808349609e+01 2.903247070312500000e+01 1.959138870239257812e+01 1.458715820312500000e+01 -2.211266756057739258e+00
3.464000000000000000e+03 2.345370101928710938e+01 -1.086080169677734375e+01 3.114520454406738281e+01 1.769761276245117188e+01 1.465284538269042969e+01 -7.096992135047912598e-01
3.465000000000000000e+03 2.345903778076171875e+01 -1.084207916259765625e+01 3.276346588134765625e+01 1.636742591857910156e+01 1.473926734924316406e+01 1.782289743423461914e+00
3.466000000000000000e+03 2.346062660217285156e+01 -1.082267570495605469e+01 3.316843032836914062e+01 1.572114849090576172e+01 1.466687393188476562e+01 4.673177242279052734e+00
3.467000000000000000e+03 2.345841026306152344e+01 -1.080333423614501953e+01 3.228530502319335938e+01 1.617952156066894531e+01 1.453944873809814453e+01 7.955444812774658203e+00
3.468000000000000000e+03 2.345246887207031250e+01 -1.078479480743408203e+01 3.017103767395019531e+01 1.771397399902343750e+01 1.436550426483154297e+01 1.072751617431640625e+01
3.469000000000000000e+03 2.344303321838378906e+01 -1.076776599884033203e+01 2.637522697448730469e+01 1.991047477722167969e+01 1.388570976257324219e+01 1.300092029571533203e+01
3.470000000000000000e+03 2.343046188354492188e+01 -1.075290012359619141e+01 2.207741546630859375e+01 2.258742713928222656e+01 1.339945316314697266e+01 1.394423389434814453e+01
3.471000000000000000e+03 2.341523742675781250e+01 -1.074076652526855469e+01 1.683788490295410156e+01 2.505797767639160156e+01 1.256875896453857422e+01 1.366845607757568359e+01
3.472000000000000000e+03 2.339794349670410156e+01 -1.073182868957519531e+01 1.200056076049804688e+01 2.699952316284179688e+01 1.170002460479736328e+01 1.203027057647705078e+01
3.473000000000000000e+03 2.337923812866210938e+01 -1.072642898559570312e+01 7.340091705322265625e+00 2.770268821716308594e+01 1.051283359527587891e+01 9.357933998107910156e+00
3.474000000000000000e+03 2.335984039306640625e+01 -1.072477436065673828e+01 3.894791126251220703e+00 2.722617912292480469e+01 9.336291313171386719e+00 5.728881359100341797e+00
3.475000000000000000e+03 2.334049224853515625e+01 -1.072692775726318359e+01 1.325880408287048340e+00 2.499295425415039062e+01 7.895650386810302734e+00 1.781317234039306641e+00
3.476000000000000000e+03 2.332193183898925781e+01 -1.073280620574951172e+01 2.002807140350341797e+00 2.000814247131347656e+01 6.603284835815429688e+00 -3.958730936050415039e+00
