# el_label, x, y, sXX, sYY, sZZ, sXY
1.000000000000000000e+00 7.258379364013671875e+01 -1.228372573852539062e+01 -6.877946853637695312e+00 -2.523477792739868164e+00 -2.820427417755126953e+00 -2.895099639892578125e+00
2.000000000000000000e+00 7.238519287109375000e+01 -1.229689693450927734e+01 -1.577482700347900391e+00 9.775230884552001953e-01 -1.799878776073455811e-01 7.551566362380981445e-01
3.000000000000000000e+00 7.218658447265625000e+01 -1.231006717681884766e+01 -2.571350336074829102e+00 -4.323421418666839600e-01 -9.011077880859375000e-01 -6.603594869375228882e-02
4.000000000000000000e+00 7.198798370361328125e+01 -1.232323932647705078e+01 -2.564484834671020508e+00 2.298543155193328857e-01 -7.003891468048095703e-01 1.336431652307510376e-01
5.000000000000000000e+00 7.259334564208984375e+01 -1.234134387969970703e+01 9.525371551513671875e+00 -2.616647243499755859e+00 2.072617292404174805e+00 1.225551843643188477e+00
6.000000000000000000e+00 7.240110015869140625e+01 -1.239292812347412109e+01 2.610672950744628906e+00 1.256178170442581177e-01 8.208872079849243164e-01 9.978092908859252930e-01
7.000000000000000000e+00 7.220886230468750000e+01 -1.244451236724853516e+01 2.759020566940307617e+00 7.744264006614685059e-01 1.060034036636352539e+00 1.836044311523437500e+00
8.000000000000000000e+00 7.201662445068359375e+01 -1.249609661102294922e+01 1.580281496047973633e+00 1.060449331998825073e-01 5.058979392051696777e-01 1.014748573303222656e+00
9.000000000000000000e+00 7.261392974853515625e+01 -1.239600276947021484e+01 1.544908809661865234e+01 1.920871853828430176e+00 5.210988044738769531e+00 8.378448486328125000e+00
1.000000000000000000e+01 7.243540191650390625e+01 -1.248402500152587891e+01 9.023578643798828125e+00 1.228440880775451660e+00 3.075605869293212891e+00 4.704026222229003906e+00
1.100000000000000000e+01 7.225688171386718750e+01 -1.257204818725585938e+01 5.878951072692871094e+00 1.689137816429138184e+00 2.270426750183105469e+00 3.722640752792358398e+00
1.200000000000000000e+01 7.207836914062500000e+01 -1.266007137298583984e+01 5.118985652923583984e+00 1.827688932418823242e+00 2.084002256393432617e+00 3.526021242141723633e+00
1.300000000000000000e+01 7.264475250244140625e+01 -1.244560813903808594e+01 1.765222167968750000e+01 8.798358917236328125e+00 7.935174465179443359e+00 1.404559040069580078e+01
1.400000000000000000e+01 7.248678588867187500e+01 -1.256670188903808594e+01 1.102510070800781250e+01 5.330654144287109375e+00 4.906726360321044922e+00 9.037791252136230469e+00
1.500000000000000000e+01 7.232881927490234375e+01 -1.268779468536376953e+01 8.586836814880371094e+00 4.437939643859863281e+00 3.907433032989501953e+00 6.915267467498779297e+00
1.600000000000000000e+01 7.217085266113281250e+01 -1.280888748168945312e+01 6.716392517089843750e+00 3.842275142669677734e+00 3.167600393295288086e+00 5.803413391113281250e+00
1.700000000000000000e+01 7.268464660644531250e+01 -1.248826313018798828e+01 1.598091030120849609e+01 1.747343826293945312e+01 1.003630447387695312e+01 1.781469917297363281e+01
1.800000000000000000e+01 7.255327606201171875e+01 -1.263779258728027344e+01 1.128419876098632812e+01 1.124315452575683594e+01 6.758205890655517578e+00 1.227998924255371094e+01
1.900000000000000000e+01 7.242190551757812500e+01 -1.278732204437255859e+01 8.613321304321289062e+00 8.894209861755371094e+00 5.252259254455566406e+00 9.607838630676269531e+00
2.000000000000000000e+01 7.229053497314453125e+01 -1.293685150146484375e+01 7.127327442169189453e+00 7.620671749114990234e+00 4.424399852752685547e+00 8.116673469543457031e+00
2.100000000000000000e+01 7.273208618164062500e+01 -1.252233505249023438e+01 1.313715362548828125e+01 2.669000816345214844e+01 1.194814872741699219e+01 1.889293289184570312e+01
2.200000000000000000e+01 7.263233947753906250e+01 -1.269457912445068359e+01 9.509168624877929688e+00 1.809975242614746094e+01 8.282676696777343750e+00 1.371243572235107422e+01
2.300000000000000000e+01 7.253259277343750000e+01 -1.286682319641113281e+01 7.602954864501953125e+00 1.443374156951904297e+01 6.611009120941162109e+00 1.118655681610107422e+01
2.400000000000000000e+01 7.243284606933593750e+01 -1.303906726837158203e+01 6.119680404663085938e+00 1.241934394836425781e+01 5.561707496643066406e+00 9.485880851745605469e+00
2.500000000000000000e+01 7.278524780273437500e+01 -1.254651927947998047e+01 9.726398468017578125e+00 3.532886123657226562e+01 1.351657867431640625e+01 1.717989730834960938e+01
2.600000000000000000e+01 7.272094726562500000e+01 -1.273488712310791016e+01 7.484421253204345703e+00 2.489472007751464844e+01 9.713742256164550781e+00 1.327182102203369141e+01
2.700000000000000000e+01 7.265663909912109375e+01 -1.292325401306152344e+01 5.709193706512451172e+00 2.017764282226562500e+01 7.766051292419433594e+00 1.105939483642578125e+01
2.800000000000000000e+01 7.259233093261718750e+01 -1.311162090301513672e+01 4.728703975677490234e+00 1.745939636230468750e+01 6.656429767608642578e+00 9.619795799255371094e+00
2.900000000000000000e+01 7.284210205078125000e+01 -1.255989170074462891e+01 7.540577888488769531e+00 4.226385498046875000e+01 1.494132995605468750e+01 1.332334995269775391e+01
3.000000000000000000e+01 7.281569671630859375e+01 -1.275717449188232422e+01 5.556622505187988281e+00 3.078333282470703125e+01 1.090198707580566406e+01 1.097549343109130859e+01
3.100000000000000000e+01 7.278929901123046875e+01 -1.295445632934570312e+01 4.203374385833740234e+00 2.536416244506835938e+01 8.870261192321777344e+00 9.465478897094726562e+00
3.200000000000000000e+01 7.276289367675781250e+01 -1.315173816680908203e+01 3.145916223526000977e+00 2.198699188232421875e+01 7.539872169494628906e+00 8.218013763427734375e+00
3.300000000000000000e+01 7.290046691894531250e+01 -1.256194019317626953e+01 6.960244178771972656e+00 4.674620056152343750e+01 1.611193275451660156e+01 8.051357269287109375e+00
3.400000000000000000e+01 7.291297912597656250e+01 -1.276058769226074219e+01 4.802176952362060547e+00 3.517158889770507812e+01 1.199212932586669922e+01 7.535892963409423828e+00
3.500000000000000000e+01 7.292549133300781250e+01 -1.295923519134521484e+01 3.322770833969116211e+00 2.930532455444335938e+01 9.788429260253906250e+00 6.552899837493896484e+00
3.600000000000000000e+01 7.293799591064453125e+01 -1.315788269042968750e+01 2.331344842910766602e+00 2.564435577392578125e+01 8.392709732055664062e+00 5.842501163482666016e+00
3.700000000000000000e+01 7.295812225341796875e+01 -1.255258560180664062e+01 8.486946105957031250e+00 4.867308807373046875e+01 1.714801025390625000e+01 2.674286603927612305e+00
3.800000000000000000e+01 7.300906372070312500e+01 -1.274499702453613281e+01 5.370279312133789062e+00 3.760360336303710938e+01 1.289216423034667969e+01 3.418271303176879883e+00
3.900000000000000000e+01 7.306000518798828125e+01 -1.293740844726562500e+01 3.643978834152221680e+00 3.175278282165527344e+01 1.061902809143066406e+01 3.171174526214599609e+00
4.000000000000000000e+01 7.311094665527343750e+01 -1.312981891632080078e+01 2.537642717361450195e+00 2.793690681457519531e+01 9.142364501953125000e+00 2.791321992874145508e+00
4.100000000000000000e+01 7.301284790039062500e+01 -1.253218650817871094e+01 1.173427867889404297e+01 4.820491790771484375e+01 1.798176002502441406e+01 -2.004178285598754883e+00
4.200000000000000000e+01 7.310027313232421875e+01 -1.271099853515625000e+01 7.395414829254150391e+00 3.822613525390625000e+01 1.368646430969238281e+01 -4.284451901912689209e-01
4.300000000000000000e+01 7.318769836425781250e+01 -1.288981056213378906e+01 5.221307754516601562e+00 3.245336914062500000e+01 1.130240345001220703e+01 -2.086990922689437866e-01
4.400000000000000000e+01 7.327513122558593750e+01 -1.306862258911132812e+01 3.850138187408447266e+00 2.878806686401367188e+01 9.791461944580078125e+00 -1.253774017095565796e-01
4.500000000000000000e+01 7.306255340576171875e+01 -1.250152397155761719e+01 1.610260581970214844e+01 4.620094299316406250e+01 1.869106483459472656e+01 -5.142534255981445312e+00
4.600000000000000000e+01 7.318312072753906250e+01 -1.265989303588867188e+01 1.057302856445312500e+01 3.714400100708007812e+01 1.431510925292968750e+01 -3.486061573028564453e+00
4.700000000000000000e+01 7.330368804931640625e+01 -1.281826305389404297e+01 7.871443271636962891e+00 3.181166839599609375e+01 1.190493392944335938e+01 -2.840244054794311523e+00
4.800000000000000000e+01 7.342425537109375000e+01 -1.297663402557373047e+01 6.147142887115478516e+00 2.811362648010253906e+01 1.027823066711425781e+01 -2.545677423477172852e+00
4.900000000000000000e+01 7.310533905029296875e+01 -1.246177005767822266e+01 2.082369995117187500e+01 4.327853393554687500e+01 1.923067092895507812e+01 -6.548370838165283203e+00
5.000000000000000000e+01 7.325443267822265625e+01 -1.259363842010498047e+01 1.434318828582763672e+01 3.511876678466796875e+01 1.483858680725097656e+01 -5.188869953155517578e+00
5.100000000000000000e+01 7.340352630615234375e+01 -1.272550582885742188e+01 1.119128513336181641e+01 3.002322387695312500e+01 1.236435222625732422e+01 -4.400839805603027344e+00
5.200000000000000000e+01 7.355261993408203125e+01 -1.285737323760986328e+01 9.025692939758300781e+00 2.670625114440917969e+01 1.071958255767822266e+01 -3.971835374832153320e+00
5.300000000000000000e+01 7.313957214355468750e+01 -1.241444778442382812e+01 2.509211158752441406e+01 4.040108871459960938e+01 1.964796066284179688e+01 -6.272050380706787109e+00
5.400000000000000000e+01 7.331148529052734375e+01 -1.251476669311523438e+01 1.812539100646972656e+01 3.261658477783203125e+01 1.522259235382080078e+01 -5.359515190124511719e+00
5.500000000000000000e+01 7.348339080810546875e+01 -1.261508560180664062e+01 1.446405029296875000e+01 2.792496299743652344e+01 1.271670436859130859e+01 -4.700952529907226562e+00
5.600000000000000000e+01 7.365530395507812500e+01 -1.271540546417236328e+01 1.209406852722167969e+01 2.482650375366210938e+01 1.107617187500000000e+01 -4.171224117279052734e+00
5.700000000000000000e+01 7.316393280029296875e+01 -1.236136627197265625e+01 2.836270713806152344e+01 3.802378845214843750e+01 1.991594886779785156e+01 -4.637325286865234375e+00
5.800000000000000000e+01 7.335208892822265625e+01 -1.242629814147949219e+01 2.123973464965820312e+01 3.044597816467285156e+01 1.550571346282958984e+01 -4.154615402221679688e+00
5.900000000000000000e+01 7.354023742675781250e+01 -1.249123001098632812e+01 1.713987350463867188e+01 2.600514221191406250e+01 1.294350433349609375e+01 -3.697595834732055664e+00
6.000000000000000000e+01 7.372838592529296875e+01 -1.255616188049316406e+01 1.455651378631591797e+01 2.305379104614257812e+01 1.128309154510498047e+01 -3.326822519302368164e+00
6.100000000000000000e+01 7.317749786376953125e+01 -1.230455780029296875e+01 3.028381919860839844e+01 3.668110275268554688e+01 2.008947753906250000e+01 -2.130621671676635742e+00
6.200000000000000000e+01 7.337468719482421875e+01 -1.233161735534667969e+01 2.313673591613769531e+01 2.900219917297363281e+01 1.564168071746826172e+01 -1.928695440292358398e+00
6.300000000000000000e+01 7.357187652587890625e+01 -1.235867786407470703e+01 1.880560111999511719e+01 2.486976432800292969e+01 1.310260963439941406e+01 -1.729557991027832031e+00
6.400000000000000000e+01 7.376907348632812500e+01 -1.238573646545410156e+01 1.588033390045166016e+01 2.181448936462402344e+01 1.130844688415527344e+01 -1.590640306472778320e+00
6.500000000000000000e+01 7.317974090576171875e+01 -1.224619674682617188e+01 3.065506362915039062e+01 3.642424011230468750e+01 2.012379074096679688e+01 7.705822587013244629e-01
6.600000000000000000e+01 7.337842559814453125e+01 -1.223434829711914062e+01 2.351521301269531250e+01 2.875683593750000000e+01 1.568161487579345703e+01 7.284938693046569824e-01
6.700000000000000000e+01 7.357711029052734375e+01 -1.222250080108642578e+01 1.912865066528320312e+01 2.463220214843750000e+01 1.312825584411621094e+01 7.065758705139160156e-01
6.800000000000000000e+01 7.377580261230468750e+01 -1.221065235137939453e+01 1.616829109191894531e+01 2.169111824035644531e+01 1.135782241821289062e+01 5.657074451446533203e-01
6.900000000000000000e+01 7.317057800292968750e+01 -1.218851470947265625e+01 2.946591186523437500e+01 3.733204650878906250e+01 2.003938674926757812e+01 3.504423379898071289e+00
7.000000000000000000e+01 7.336315155029296875e+01 -1.213821315765380859e+01 2.228355598449707031e+01 2.972943305969238281e+01 1.560389709472656250e+01 3.228479623794555664e+00
7.100000000000000000e+01 7.355573272705078125e+01 -1.208791065216064453e+01 1.808764266967773438e+01 2.538635444641113281e+01 1.304219913482666016e+01 2.918881654739379883e+00
7.200000000000000000e+01 7.374831390380859375e+01 -1.203760814666748047e+01 1.531356143951416016e+01 2.264652824401855469e+01 1.138802623748779297e+01 2.600867033004760742e+00
7.300000000000000000e+01 7.315036010742187500e+01 -1.213372135162353516e+01 2.681979942321777344e+01 3.932461929321289062e+01 1.984332656860351562e+01 5.571942329406738281e+00
7.400000000000000000e+01 7.332946014404296875e+01 -1.204688930511474609e+01 1.968829536437988281e+01 3.164247131347656250e+01 1.539923000335693359e+01 4.957643508911132812e+00
7.500000000000000000e+01 7.350856018066406250e+01 -1.196005725860595703e+01 1.579958629608154297e+01 2.707664680480957031e+01 1.286286926269531250e+01 4.343985557556152344e+00
7.600000000000000000e+01 7.368766021728515625e+01 -1.187322616577148438e+01 1.326660346984863281e+01 2.415665435791015625e+01 1.122697734832763672e+01 3.939348459243774414e+00
7.700000000000000000e+01 7.311986541748046875e+01 -1.208391094207763672e+01 2.297832107543945312e+01 4.208652114868164062e+01 1.951945304870605469e+01 6.498603820800781250e+00
7.800000000000000000e+01 7.327863311767578125e+01 -1.196387290954589844e+01 1.617084884643554688e+01 3.406906127929687500e+01 1.507197284698486328e+01 5.406471729278564453e+00
7.900000000000000000e+01 7.343740081787109375e+01 -1.184383487701416016e+01 1.268681240081787109e+01 2.923754501342773438e+01 1.257730770111083984e+01 4.662332534790039062e+00
8.000000000000000000e+01 7.359616851806640625e+01 -1.172379684448242188e+01 1.031034183502197266e+01 2.596738052368164062e+01 1.088331699371337891e+01 4.177144050598144531e+00
8.100000000000000000e+01 7.308025360107421875e+01 -1.204099178314208984e+01 1.845070457458496094e+01 4.508115768432617188e+01 1.905955886840820312e+01 5.863041400909423828e+00
8.200000000000000000e+01 7.321261596679687500e+01 -1.189234066009521484e+01 1.231594181060791016e+01 3.642902755737304688e+01 1.462349128723144531e+01 4.354245185852050781e+00
8.300000000000000000e+01 7.334497833251953125e+01 -1.174368953704833984e+01 9.327333450317382812e+00 3.119590759277343750e+01 1.215697193145751953e+01 3.659177303314208984e+00
8.400000000000000000e+01 7.347734069824218750e+01 -1.159503841400146484e+01 7.270812034606933594e+00 2.773789596557617188e+01 1.050261211395263672e+01 3.337514162063598633e+00
8.500000000000000000e+01 7.303304290771484375e+01 -1.200660514831542969e+01 1.386358356475830078e+01 4.760655593872070312e+01 1.844104194641113281e+01 3.465208292007446289e+00
8.600000000000000000e+01 7.313393402099609375e+01 -1.183502864837646484e+01 8.852330207824707031e+00 3.801179504394531250e+01 1.405923748016357422e+01 1.843542337417602539e+00
8.700000000000000000e+01 7.323482513427734375e+01 -1.166345310211181641e+01 6.298247337341308594e+00 3.239253997802734375e+01 1.160723686218261719e+01 1.442681074142456055e+00
8.800000000000000000e+01 7.333571624755859375e+01 -1.149187755584716797e+01 4.827755451202392578e+00 2.868752670288085938e+01 1.005458450317382812e+01 1.334524750709533691e+00
8.900000000000000000e+01 7.298004150390625000e+01 -1.198206615447998047e+01 1.012977600097656250e+01 4.887436676025390625e+01 1.770124244689941406e+01 -6.019564867019653320e-01
9.000000000000000000e+01 7.304560089111328125e+01 -1.179413223266601562e+01 6.250422000885009766e+00 3.817281341552734375e+01 1.332697105407714844e+01 -1.753458619117736816e+00
9.100000000000000000e+01 7.311116027832031250e+01 -1.160619735717773438e+01 4.306292057037353516e+00 3.230243682861328125e+01 1.098261928558349609e+01 -1.676832795143127441e+00
9.200000000000000000e+01 7.317671203613281250e+01 -1.141826248168945312e+01 2.992104053497314453e+00 2.843371200561523438e+01 9.427744865417480469e+00 -1.557477235794067383e+00
9.300000000000000000e+01 7.292327880859375000e+01 -1.196831607818603516e+01 7.816448211669921875e+00 4.802889251708984375e+01 1.675360107421875000e+01 -5.796494007110595703e+00
9.400000000000000000e+01 7.295099639892578125e+01 -1.177121353149414062e+01 5.094025611877441406e+00 3.656275177001953125e+01 1.249703311920166016e+01 -5.843564987182617188e+00
9.500000000000000000e+01 7.297871398925781250e+01 -1.157411193847656250e+01 3.439639329910278320e+00 3.054858970642089844e+01 1.019646835327148438e+01 -5.206264495849609375e+00
9.600000000000000000e+01 7.300642395019531250e+01 -1.137701034545898438e+01 2.298082113265991211e+00 2.682117271423339844e+01 8.735776901245117188e+00 -4.604843139648437500e+00
9.700000000000000000e+01 7.286492919921875000e+01 -1.196587848663330078e+01 7.572443485260009766e+00 4.469806671142578125e+01 1.568115329742431641e+01 -1.129376411437988281e+01
9.800000000000000000e+01 7.285373687744140625e+01 -1.176715183258056641e+01 5.337939739227294922e+00 3.287442016601562500e+01 1.146370697021484375e+01 -9.667763710021972656e+00
9.900000000000000000e+01 7.284255218505859375e+01 -1.156842613220214844e+01 3.836257934570312500e+00 2.727526473999023438e+01 9.333456993103027344e+00 -8.402500152587890625e+00
1.000000000000000000e+02 7.283136749267578125e+01 -1.136969947814941406e+01 2.791448354721069336e+00 2.365617752075195312e+01 7.934287548065185547e+00 -7.347377300262451172e+00
1.010000000000000000e+02 7.280722045898437500e+01 -1.197484874725341797e+01 9.097167968750000000e+00 3.865910720825195312e+01 1.432688331604003906e+01 -1.586981296539306641e+01
1.020000000000000000e+02 7.275755310058593750e+01 -1.178210258483886719e+01 6.984826564788818359e+00 2.754655647277832031e+01 1.035941505432128906e+01 -1.258976745605468750e+01
1.030000000000000000e+02 7.270789337158203125e+01 -1.158935642242431641e+01 5.131741523742675781e+00 2.240236282348632812e+01 8.260231018066406250e+00 -1.051969814300537109e+01
1.040000000000000000e+02 7.265823364257812500e+01 -1.139660930633544922e+01 4.118834018707275391e+00 1.950645637512207031e+01 7.087587356567382812e+00 -9.217113494873046875e+00
1.050000000000000000e+02 7.275235748291015625e+01 -1.199488258361816406e+01 1.236021614074707031e+01 3.054488754272460938e+01 1.287153148651123047e+01 -1.864227676391601562e+01
1.060000000000000000e+02 7.266612243652343750e+01 -1.181549263000488281e+01 8.980392456054687500e+00 2.090002441406250000e+01 8.964124679565429688e+00 -1.379041957855224609e+01
1.070000000000000000e+02 7.257988739013671875e+01 -1.163610172271728516e+01 7.187697410583496094e+00 1.678930282592773438e+01 7.193099975585937500e+00 -1.131326484680175781e+01
1.080000000000000000e+02 7.249365234375000000e+01 -1.145671176910400391e+01 5.555128097534179688e+00 1.432745456695556641e+01 5.964774608612060547e+00 -9.600530624389648438e+00
1.090000000000000000e+02 7.270244598388671875e+01 -1.202521419525146484e+01 1.557053279876708984e+01 2.120759201049804688e+01 1.103343772888183594e+01 -1.871673202514648438e+01
1.100000000000000000e+02 7.258293151855468750e+01 -1.186604404449462891e+01 1.118616104125976562e+01 1.385797405242919922e+01 7.513240337371826172e+00 -1.308974170684814453e+01
1.110000000000000000e+02 7.246342468261718750e+01 -1.170687389373779297e+01 8.555460929870605469e+00 1.098208808898925781e+01 5.861264705657958984e+00 -1.032186222076416016e+01
1.120000000000000000e+02 7.234391784667968750e+01 -1.154770469665527344e+01 7.050176143646240234e+00 9.459543228149414062e+00 4.952916145324707031e+00 -8.838678359985351562e+00
1.130000000000000000e+02 7.265939331054687500e+01 -1.206468105316162109e+01 1.814623260498046875e+01 1.178859901428222656e+01 8.980449676513671875e+00 -1.593863868713378906e+01
1.140000000000000000e+02 7.251118469238281250e+01 -1.193182277679443359e+01 1.175250053405761719e+01 7.421290874481201172e+00 5.752137184143066406e+00 -1.030028247833251953e+01
1.150000000000000000e+02 7.236296844482421875e+01 -1.179896450042724609e+01 9.129596710205078125e+00 6.000631809234619141e+00 4.539068698883056641e+00 -8.065702438354492188e+00
1.160000000000000000e+02 7.221476745605468750e+01 -1.166610622406005859e+01 7.177884101867675781e+00 5.393527507781982422e+00 3.771423339843750000e+00 -6.689380168914794922e+00
1.170000000000000000e+02 7.262484741210937500e+01 -1.211177539825439453e+01 1.744619941711425781e+01 3.916720151901245117e+00 6.408875942230224609e+00 -1.059888744354248047e+01
1.180000000000000000e+02 7.245360565185546875e+01 -1.201031208038330078e+01 1.068202209472656250e+01 2.362266540527343750e+00 3.913286685943603516e+00 -6.190111160278320312e+00
1.190000000000000000e+02 7.228237152099609375e+01 -1.190884971618652344e+01 7.267828464508056641e+00 2.793790578842163086e+00 3.018485784530639648e+00 -4.756039619445800781e+00
1.200000000000000000e+02 7.211112976074218750e+01 -1.180738735198974609e+01 6.153592586517333984e+00 2.537710905075073242e+00 2.607391119003295898e+00 -4.392411708831787109e+00
1.210000000000000000e+02 7.260012817382812500e+01 -1.216469192504882812e+01 1.315390682220458984e+01 -2.241858482360839844e+00 3.273614406585693359e+00 -3.206277608871459961e+00
1.220000000000000000e+02 7.241241455078125000e+01 -1.209850788116455078e+01 5.284065246582031250e+00 7.076547741889953613e-01 1.797516107559204102e+00 -1.920598149299621582e+00
1.230000000000000000e+02 7.222470092773437500e+01 -1.203232383728027344e+01 4.729423046112060547e+00 1.141656637191772461e+00 1.761323928833007812e+00 -2.573055505752563477e+00
1.240000000000000000e+02 7.203698730468750000e+01 -1.196614074707031250e+01 3.382318258285522461e+00 4.425458908081054688e-01 1.147459268569946289e+00 -1.637106776237487793e+00
1.250000000000000000e+02 7.258618927001953125e+01 -1.222140884399414062e+01 -1.878737807273864746e+00 -2.880929708480834961e+00 -1.427900314331054688e+00 2.556564092636108398e+00
1.260000000000000000e+02 7.238918304443359375e+01 -1.219303607940673828e+01 1.477886676788330078e+00 1.126451969146728516e+00 7.813015580177307129e-01 -9.777406454086303711e-01
1.270000000000000000e+02 7.219217681884765625e+01 -1.216466331481933594e+01 -4.046494141221046448e-02 -3.926132619380950928e-01 -1.299234628677368164e-01 -8.528310805559158325e-02
1.280000000000000000e+02 7.199517059326171875e+01 -1.213628959655761719e+01 -4.998429119586944580e-01 2.265294492244720459e-01 -8.199404180049896240e-02 -2.197061479091644287e-01
1.290000000000000000e+02 6.975741577148437500e+01 -1.290161514282226562e+01 -2.108529359102249146e-01 8.431059122085571289e-02 -3.796270489692687988e-02 -2.769933342933654785e-01
1.300000000000000000e+02 6.955282592773437500e+01 -1.348651123046875000e+01 5.474494695663452148e-01 3.777613639831542969e-01 2.775632441043853760e-01 -3.089386224746704102e-02
1.310000000000000000e+02 6.784479522705078125e+01 -1.293547058105468750e+01 -1.455016583204269409e-01 -4.604013562202453613e-01 -1.817709058523178101e-01 -3.569622635841369629e-01
1.320000000000000000e+02 6.877869415283203125e+01 -1.331188869476318359e+01 -8.380082249641418457e-02 2.440036088228225708e-01 4.806083813309669495e-02 -3.723342120647430420e-01
1.330000000000000000e+02 6.953019714355468750e+01 -1.265568542480468750e+01 -8.097640275955200195e-01 -1.035965532064437866e-01 -2.740081846714019775e-01 -2.614350020885467529e-01
1.340000000000000000e+02 6.918376159667968750e+01 -1.272720146179199219e+01 -5.719472765922546387e-01 2.218905389308929443e-01 -1.050170212984085083e-01 -4.222111403942108154e-01
1.350000000000000000e+02 6.849085998535156250e+01 -1.234822368621826172e+01 -4.717542529106140137e-01 -1.318301353603601456e-02 -1.454811841249465942e-01 -1.960945576429367065e-01
1.360000000000000000e+02 6.928286743164062500e+01 -1.231964302062988281e+01 -1.455792307853698730e+00 7.527364790439605713e-02 -4.141556024551391602e-01 -9.944847971200942993e-02
1.370000000000000000e+02 6.953802490234375000e+01 -1.307133197784423828e+01 -1.103787589818239212e-02 1.721564978361129761e-01 4.833558574318885803e-02 -3.234444856643676758e-01
1.380000000000000000e+02 6.974775695800781250e+01 -1.255254745483398438e+01 -1.288686990737915039e+00 1.750007867813110352e-01 -3.341058492660522461e-01 -2.641248106956481934e-01
1.390000000000000000e+02 6.970729827880859375e+01 -1.239416790008544922e+01 -1.789644479751586914e+00 7.804371416568756104e-02 -5.134802460670471191e-01 -1.617056578397750854e-01
1.400000000000000000e+02 6.973292541503906250e+01 -1.309143543243408203e+01 1.037602797150611877e-01 1.110302135348320007e-01 6.443715095520019531e-02 -2.485885620117187500e-01
1.410000000000000000e+02 6.826117706298828125e+01 -1.322443962097167969e+01 -3.359712958335876465e-01 -2.502657473087310791e-01 -1.758711040019989014e-01 -6.078828573226928711e-01
1.420000000000000000e+02 6.924626159667968750e+01 -1.318949317932128906e+01 -7.323260884732007980e-03 2.638905346393585205e-01 7.697018235921859741e-02 -3.427557647228240967e-01
1.430000000000000000e+02 6.867279052734375000e+01 -1.284545612335205078e+01 -4.731688797473907471e-01 -7.709651440382003784e-02 -1.650796234607696533e-01 -5.797055363655090332e-01
1.440000000000000000e+02 6.976387786865234375e+01 -1.272912216186523438e+01 -8.422539830207824707e-01 5.374496337026357651e-03 -2.510638535022735596e-01 -1.860063672065734863e-01
1.450000000000000000e+02 6.959822845458984375e+01 -1.284644126892089844e+01 -3.649698793888092041e-01 1.082648783922195435e-01 -7.701149582862854004e-02 -3.052023351192474365e-01
1.460000000000000000e+02 6.968576049804687500e+01 -1.327070426940917969e+01 2.990544438362121582e-01 2.151734977960586548e-01 1.542683839797973633e-01 -1.592338979244232178e-01
1.470000000000000000e+02 7.123709869384765625e+01 -1.084495162963867188e+01 2.980011463165283203e+00 3.002060651779174805e+00 1.794621706008911133e+00 -3.208461999893188477e+00
1.480000000000000000e+02 7.016387176513671875e+01 -1.108527755737304688e+01 1.073129296302795410e+00 7.517157793045043945e-01 5.474535226821899414e-01 -4.936668872833251953e-01
1.490000000000000000e+02 7.256725311279296875e+01 -1.122438144683837891e+01 3.496510028839111328e+00 1.687078666687011719e+01 6.110189437866210938e+00 -8.297187805175781250e+00
1.500000000000000000e+02 7.245761108398437500e+01 -1.085523128509521484e+01 2.538958549499511719e+00 1.399469566345214844e+01 4.960096359252929688e+00 -6.953745841979980469e+00
1.510000000000000000e+02 7.323706817626953125e+01 -1.348630619049072266e+01 1.359327435493469238e+00 2.366331481933593750e+01 7.506792545318603516e+00 1.959214091300964355e+00
1.520000000000000000e+02 7.179299926757812500e+01 -1.233270549774169922e+01 -2.649326086044311523e+00 -1.257467120885848999e-01 -8.325217962265014648e-01 5.394688993692398071e-02
1.530000000000000000e+02 7.215966796875000000e+01 -1.310063934326171875e+01 5.909585952758789062e+00 6.727925777435302734e+00 3.791253566741943359e+00 7.071953296661376953e+00
1.540000000000000000e+02 7.273760223388671875e+01 -1.362789249420166016e+01 1.641804337501525879e+00 1.807693481445312500e+01 5.915621757507324219e+00 6.166987419128417969e+00
1.550000000000000000e+02 7.397422027587890625e+01 -1.203745174407958984e+01 1.345594692230224609e+01 2.010115242004394531e+01 1.006713008880615234e+01 2.042680740356445312e+00
1.560000000000000000e+02 7.341666412353515625e+01 -1.101255416870117188e+01 1.633237719535827637e+00 2.331792449951171875e+01 7.485348701477050781e+00 -1.833811700344085693e-01
1.570000000000000000e+02 6.997934722900390625e+01 -1.203271484375000000e+01 -1.547165513038635254e+00 -3.632533252239227295e-01 -5.731256604194641113e-01 -4.022886604070663452e-02
1.580000000000000000e+02 7.000722503662109375e+01 -1.184409904479980469e+01 -7.732224464416503906e-01 -2.468752413988113403e-01 -3.060292899608612061e-01 1.674724519252777100e-01
1.590000000000000000e+02 7.099356079101562500e+01 -1.202564334869384766e+01 -1.436768174171447754e+00 2.354871248826384544e-03 -4.303239881992340088e-01 5.376346781849861145e-02
1.600000000000000000e+02 7.140290069580078125e+01 -1.206226634979248047e+01 -1.277493119239807129e+00 4.661958664655685425e-02 -3.692620694637298584e-01 -4.587544500827789307e-02
1.610000000000000000e+02 7.179896545410156250e+01 -1.210937690734863281e+01 -8.484820723533630371e-01 -1.881112158298492432e-02 -2.601879537105560303e-01 -6.408394873142242432e-02
1.620000000000000000e+02 7.302516937255859375e+01 -1.115966701507568359e+01 1.566722273826599121e+00 2.397646141052246094e+01 7.662954807281494141e+00 -4.249355316162109375e+00
1.630000000000000000e+02 7.221110534667968750e+01 -1.136987781524658203e+01 5.648453235626220703e+00 8.360269546508789062e+00 4.202616691589355469e+00 -7.496292591094970703e+00
1.640000000000000000e+02 7.173232269287109375e+01 -1.159853553771972656e+01 4.238822937011718750e+00 1.787012815475463867e+00 1.807750701904296875e+00 -3.120172023773193359e+00
1.650000000000000000e+02 7.184798431396484375e+01 -1.190182209014892578e+01 2.632356643676757812e+00 6.589307785034179688e-01 9.873862266540527344e-01 -1.582105517387390137e+00
1.660000000000000000e+02 7.182970428466796875e+01 -1.253670787811279297e+01 1.048361063003540039e+00 3.609347045421600342e-01 4.227887392044067383e-01 9.717825055122375488e-01
1.670000000000000000e+02 7.339012145996093750e+01 -1.325127792358398438e+01 3.047773599624633789e+00 2.587503242492675781e+01 8.676841735839843750e+00 -3.470991253852844238e-01
1.680000000000000000e+02 7.172505950927734375e+01 -1.361574077606201172e+01 3.848960399627685547e+00 5.375800609588623047e+00 2.767428159713745117e+00 5.156550407409667969e+00
1.690000000000000000e+02 7.072314453125000000e+01 -1.261336994171142578e+01 -9.452349543571472168e-01 1.423679739236831665e-01 -2.408601045608520508e-01 4.836241900920867920e-02
1.700000000000000000e+02 6.998149871826171875e+01 -1.245154762268066406e+01 -1.591722965240478516e+00 -7.095619291067123413e-02 -4.988037645816802979e-01 -2.074146419763565063e-01
1.710000000000000000e+02 7.014041137695312500e+01 -1.229796314239501953e+01 -2.310427188873291016e+00 7.534369826316833496e-02 -6.705250740051269531e-01 2.223288640379905701e-02
1.720000000000000000e+02 6.991082763671875000e+01 -1.354345607757568359e+01 1.012150168418884277e+00 8.198550939559936523e-01 5.496016144752502441e-01 4.300932288169860840e-01
1.730000000000000000e+02 7.011849975585937500e+01 -1.355230236053466797e+01 1.208102822303771973e+00 7.788695693016052246e-01 5.960916876792907715e-01 6.200374364852905273e-01
1.740000000000000000e+02 7.090728759765625000e+01 -1.356933879852294922e+01 2.637593507766723633e+00 1.798674225807189941e+00 1.330880284309387207e+00 2.080593824386596680e+00
1.750000000000000000e+02 7.296714782714843750e+01 -1.336280822753906250e+01 1.590090394020080566e+00 2.316451263427734375e+01 7.426380634307861328e+00 5.136056423187255859e+00
1.760000000000000000e+02 7.234110260009765625e+01 -1.323439216613769531e+01 5.010268688201904297e+00 1.146559715270996094e+01 4.942759513854980469e+00 8.392188072204589844e+00
1.770000000000000000e+02 7.180965423583984375e+01 -1.309033393859863281e+01 4.704756259918212891e+00 3.172380685806274414e+00 2.363141059875488281e+00 4.392076969146728516e+00
1.780000000000000000e+02 7.135072326660156250e+01 -1.330588436126708984e+01 3.321391344070434570e+00 2.178472042083740234e+00 1.649958968162536621e+00 2.912747144699096680e+00
1.790000000000000000e+02 7.031858825683593750e+01 -1.356796550750732422e+01 1.473542451858520508e+00 1.133807420730590820e+00 7.822049260139465332e-01 9.465088248252868652e-01
1.800000000000000000e+02 7.340129852294921875e+01 -1.128253269195556641e+01 3.253316164016723633e+00 2.584313583374023438e+01 8.728935241699218750e+00 7.278842926025390625e-01
1.810000000000000000e+02 7.373259735107421875e+01 -1.112769031524658203e+01 3.554112195968627930e+00 2.217342567443847656e+01 7.718261241912841797e+00 2.266964673995971680e+00
1.820000000000000000e+02 7.386545562744140625e+01 -1.171946430206298828e+01 1.045186614990234375e+01 2.208868026733398438e+01 9.762164115905761719e+00 3.724407434463500977e+00
1.830000000000000000e+02 7.421611022949218750e+01 -1.185946655273437500e+01 1.078412914276123047e+01 1.835661888122558594e+01 8.742224693298339844e+00 2.537055015563964844e+00
1.840000000000000000e+02 7.393682098388671875e+01 -1.238931179046630859e+01 1.457674884796142578e+01 2.030884170532226562e+01 1.046567726135253906e+01 -1.335416436195373535e+00
1.850000000000000000e+02 7.397442626953125000e+01 -1.273795700073242188e+01 1.103339576721191406e+01 2.081396484375000000e+01 9.554208755493164062e+00 -3.300594568252563477e+00
1.860000000000000000e+02 7.006565856933593750e+01 -1.077169609069824219e+01 1.450040340423583984e+00 1.108224868774414062e+00 7.674795389175415039e-01 -8.495653271675109863e-01
1.870000000000000000e+02 7.401559448242187500e+01 -1.184367847442626953e+01 1.131601142883300781e+01 2.022472572326660156e+01 9.462221145629882812e+00 2.926154613494873047e+00
1.880000000000000000e+02 7.396217346191406250e+01 -1.222027397155761719e+01 1.425865650177001953e+01 1.986058425903320312e+01 1.023577213287353516e+01 4.641440510749816895e-01
1.890000000000000000e+02 7.357486724853515625e+01 -1.141010189056396484e+01 5.353535652160644531e+00 2.532376098632812500e+01 9.203188896179199219e+00 2.717260122299194336e+00
1.900000000000000000e+02 7.373621368408203125e+01 -1.156210517883300781e+01 8.121455192565917969e+00 2.374900054931640625e+01 9.561136245727539062e+00 3.916004419326782227e+00
1.910000000000000000e+02 7.321573638916015625e+01 -1.120583724975585938e+01 1.954235792160034180e+00 2.546765708923339844e+01 8.226568222045898438e+00 -1.726054191589355469e+00
1.920000000000000000e+02 7.204875946044921875e+01 -1.151307964324951172e+01 5.953561305999755859e+00 4.803056240081787109e+00 3.226985216140747070e+00 -5.923141002655029297e+00
1.930000000000000000e+02 7.283439636230468750e+01 -1.114038467407226562e+01 1.948568224906921387e+00 2.130131149291992188e+01 6.974963665008544922e+00 -6.372007369995117188e+00
1.940000000000000000e+02 7.239614105224609375e+01 -1.128222846984863281e+01 4.879523754119873047e+00 1.286613750457763672e+01 5.323698520660400391e+00 -8.608887672424316406e+00
1.950000000000000000e+02 7.226216888427734375e+01 -1.085900783538818359e+01 3.169206857681274414e+00 1.121297264099121094e+01 4.314653873443603516e+00 -6.755053043365478516e+00
1.960000000000000000e+02 7.248606109619140625e+01 -1.105646896362304688e+01 3.214973688125610352e+00 1.445713329315185547e+01 5.301631927490234375e+00 -7.581495285034179688e+00
1.970000000000000000e+02 7.165534973144531250e+01 -1.184523296356201172e+01 1.946841239929199219e+00 4.167790412902832031e-01 7.090861201286315918e-01 -1.201282858848571777e+00
1.980000000000000000e+02 7.193089294433593750e+01 -1.170193862915039062e+01 4.989172458648681641e+00 1.898527979850769043e+00 2.066310167312622070e+00 -3.539685487747192383e+00
1.990000000000000000e+02 7.405547332763671875e+01 -1.154495716094970703e+01 7.862223625183105469e+00 2.002974128723144531e+01 8.367588996887207031e+00 3.643781423568725586e+00
2.000000000000000000e+02 7.365547943115234375e+01 -1.125129508972167969e+01 4.260819911956787109e+00 2.380284881591796875e+01 8.419100761413574219e+00 2.373477458953857422e+00
2.010000000000000000e+02 7.251672363281250000e+01 -1.360600566864013672e+01 2.499702930450439453e+00 1.492683792114257812e+01 5.227962493896484375e+00 7.102301120758056641e+00
2.020000000000000000e+02 7.318664550781250000e+01 -1.331993770599365234e+01 1.841278314590454102e+00 2.543426132202148438e+01 8.182662010192871094e+00 2.130937576293945312e+00
2.030000000000000000e+02 7.208113861083984375e+01 -1.344374656677246094e+01 4.205264091491699219e+00 8.118851661682128906e+00 3.697234630584716797e+00 6.512331485748291016e+00
2.040000000000000000e+02 7.370494842529296875e+01 -1.300967884063720703e+01 7.370930194854736328e+00 2.423305892944335938e+01 9.481196403503417969e+00 -3.690454483032226562e+00
2.050000000000000000e+02 7.355975341796875000e+01 -1.314095973968505859e+01 5.086509704589843750e+00 2.540413284301757812e+01 9.147192955017089844e+00 -2.447171688079833984e+00
2.060000000000000000e+02 7.392331695556640625e+01 -1.255956268310546875e+01 1.311509704589843750e+01 2.094751167297363281e+01 1.021878242492675781e+01 -2.746895313262939453e+00
2.070000000000000000e+02 7.117904663085937500e+01 -1.237105846405029297e+01 -2.531422376632690430e+00 -2.910485304892063141e-02 -7.681581377983093262e-01 7.441859692335128784e-02
2.080000000000000000e+02 7.400230407714843750e+01 -1.305115318298339844e+01 7.396162509918212891e+00 2.074967193603515625e+01 8.443750381469726562e+00 -3.536958932876586914e+00
2.090000000000000000e+02 7.199706268310546875e+01 -1.294396209716796875e+01 5.659827709197998047e+00 3.650286197662353516e+00 2.793034076690673828e+00 5.171582698822021484e+00
2.100000000000000000e+02 7.253601074218750000e+01 -1.333328914642333984e+01 3.667531728744506836e+00 1.547443199157714844e+01 5.742588996887207031e+00 8.238686561584472656e+00
2.110000000000000000e+02 7.413462066650390625e+01 -1.264842605590820312e+01 1.122622776031494141e+01 1.873660278320312500e+01 8.988848686218261719e+00 -2.677245855331420898e+00
2.120000000000000000e+02 7.303958129882812500e+01 -1.353228282928466797e+01 1.135366082191467285e+00 2.210539054870605469e+01 6.972227096557617188e+00 4.085824966430664062e+00
2.130000000000000000e+02 7.381085968017578125e+01 -1.137734508514404297e+01 6.114922523498535156e+00 2.275122261047363281e+01 8.659843444824218750e+00 3.511747121810913086e+00
2.140000000000000000e+02 7.387552642822265625e+01 -1.319470024108886719e+01 5.801412105560302734e+00 2.229897689819335938e+01 8.430116653442382812e+00 -3.249266386032104492e+00
2.150000000000000000e+02 7.356314086914062500e+01 -1.344202041625976562e+01 2.539525985717773438e+00 2.327747535705566406e+01 7.745100021362304688e+00 -9.767993688583374023e-01
2.160000000000000000e+02 7.415912628173828125e+01 -1.170088577270507812e+01 9.440542221069335938e+00 1.918885231018066406e+01 8.588818550109863281e+00 3.418493986129760742e+00
2.170000000000000000e+02 7.410414123535156250e+01 -1.249327087402343750e+01 1.222698783874511719e+01 1.877279281616210938e+01 9.299934387207031250e+00 -1.824702024459838867e+00
2.180000000000000000e+02 7.425901794433593750e+01 -1.224552249908447266e+01 1.184344291687011719e+01 1.770190048217773438e+01 8.863602638244628906e+00 1.683578789234161377e-01
2.190000000000000000e+02 7.421868896484375000e+01 -1.276028060913085938e+01 1.018815898895263672e+01 1.846879005432128906e+01 8.597084999084472656e+00 -3.060369729995727539e+00
2.200000000000000000e+02 7.423184204101562500e+01 -1.204549407958984375e+01 1.160061264038085938e+01 1.792215538024902344e+01 8.856830596923828125e+00 1.409358024597167969e+00
2.210000000000000000e+02 7.322592163085937500e+01 -1.094780731201171875e+01 9.603598117828369141e-01 2.269396209716796875e+01 7.096296787261962891e+00 -2.077961921691894531e+00
2.220000000000000000e+02 7.189832305908203125e+01 -1.115559005737304688e+01 4.740104198455810547e+00 5.840750694274902344e+00 3.174256324768066406e+00 -5.809564590454101562e+00
2.230000000000000000e+02 7.165100097656250000e+01 -1.088700771331787109e+01 3.739650487899780273e+00 4.908431053161621094e+00 2.594424486160278320e+00 -4.767127037048339844e+00
2.240000000000000000e+02 7.119995117187500000e+01 -1.204031276702880859e+01 -1.389758229255676270e+00 4.941130056977272034e-02 -4.021040797233581543e-01 2.398864552378654480e-02
2.250000000000000000e+02 7.032477569580078125e+01 -1.096582221984863281e+01 1.478011965751647949e+00 7.806478738784790039e-01 6.775979399681091309e-01 -8.786519765853881836e-01
2.260000000000000000e+02 7.003628540039062500e+01 -1.098189830780029297e+01 1.021630883216857910e+00 7.388386130332946777e-01 5.281408429145812988e-01 -5.086806416511535645e-01
2.270000000000000000e+02 7.186185455322265625e+01 -1.087378215789794922e+01 3.782509088516235352e+00 6.866872787475585938e+00 3.194814682006835938e+00 -5.697351455688476562e+00
2.280000000000000000e+02 7.284165191650390625e+01 -1.088585186004638672e+01 1.171304821968078613e+00 1.924004936218261719e+01 6.123406410217285156e+00 -5.327497482299804688e+00
2.290000000000000000e+02 7.265087890625000000e+01 -1.086689281463623047e+01 1.723430275917053223e+00 1.709012031555175781e+01 5.644065380096435547e+00 -6.395800590515136719e+00
2.300000000000000000e+02 7.160250091552734375e+01 -1.208502483367919922e+01 -1.079422354698181152e+00 -2.891931399062741548e-05 -3.238354027271270752e-01 -8.259246498346328735e-02
2.310000000000000000e+02 7.096965789794921875e+01 -1.235559940338134766e+01 -2.559566497802734375e+00 2.008833363652229309e-02 -7.618435025215148926e-01 8.119771629571914673e-02
2.320000000000000000e+02 6.999789428710937500e+01 -1.265808677673339844e+01 -1.017858266830444336e+00 1.016845256090164185e-01 -2.748521268367767334e-01 -2.183461785316467285e-01
2.330000000000000000e+02 7.191657257080078125e+01 -1.363183975219726562e+01 3.720074415206909180e+00 7.164825439453125000e+00 3.265470027923583984e+00 5.844717025756835938e+00
2.340000000000000000e+02 7.223070526123046875e+01 -1.339308452606201172e+01 4.403591156005859375e+00 1.022463512420654297e+01 4.388467788696289062e+00 7.507265090942382812e+00
2.350000000000000000e+02 7.070851135253906250e+01 -1.358369827270507812e+01 2.193927288055419922e+00 1.262879729270935059e+00 1.037042021751403809e+00 1.646722793579101562e+00
2.360000000000000000e+02 6.995796966552734375e+01 -1.311272239685058594e+01 2.402170300483703613e-01 2.692245841026306152e-01 1.528324782848358154e-01 -1.280242353677749634e-01
2.370000000000000000e+02 7.189102935791015625e+01 -1.327683830261230469e+01 4.977690696716308594e+00 5.096553325653076172e+00 3.022273063659667969e+00 5.644112110137939453e+00
2.380000000000000000e+02 7.132170104980468750e+01 -1.357160186767578125e+01 3.342480182647705078e+00 3.023177385330200195e+00 1.909697294235229492e+00 3.319791555404663086e+00
2.390000000000000000e+02 7.110868072509765625e+01 -1.327394580841064453e+01 2.617696285247802734e+00 1.360574007034301758e+00 1.193481087684631348e+00 1.935433864593505859e+00
2.400000000000000000e+02 7.230667114257812500e+01 -1.361154556274414062e+01 3.229341506958007812e+00 1.172188377380371094e+01 4.485367774963378906e+00 7.137667655944824219e+00
2.410000000000000000e+02 7.275080108642578125e+01 -1.337358856201171875e+01 2.277348279953002930e+00 1.999979400634765625e+01 6.683142662048339844e+00 7.045279502868652344e+00
2.420000000000000000e+02 7.026153564453125000e+01 -1.077430915832519531e+01 1.571134686470031738e+00 1.000859498977661133e+00 7.715982794761657715e-01 -9.794322252273559570e-01
2.430000000000000000e+02 7.005308532714843750e+01 -1.162149906158447266e+01 -2.053984068334102631e-02 5.457691475749015808e-02 1.021112315356731415e-02 1.196403950452804565e-01
2.440000000000000000e+02 7.058245849609375000e+01 -1.204951095581054688e+01 -1.574562430381774902e+00 1.159111335873603821e-01 -4.375953972339630127e-01 4.080428183078765869e-02
2.450000000000000000e+02 7.014809417724609375e+01 -1.200920486450195312e+01 -1.436155319213867188e+00 1.576946079730987549e-01 -3.835382163524627686e-01 7.838974148035049438e-02
2.460000000000000000e+02 7.049380493164062500e+01 -1.191011810302734375e+01 -9.835118651390075684e-01 7.429848611354827881e-02 -2.727639973163604736e-01 1.319129765033721924e-01
2.470000000000000000e+02 7.001920318603515625e+01 -1.116814994812011719e+01 6.650162339210510254e-01 3.657063841819763184e-01 3.092167675495147705e-01 -8.349372446537017822e-02
2.480000000000000000e+02 6.997923278808593750e+01 -1.289154815673828125e+01 -2.497707158327102661e-01 1.180455386638641357e-01 -3.951755166053771973e-02 -1.681826859712600708e-01
2.490000000000000000e+02 7.026902008056640625e+01 -1.261288356781005859e+01 -1.117921471595764160e+00 1.892480999231338501e-02 -3.296989798545837402e-01 -1.541769057512283325e-01
2.500000000000000000e+02 7.044258880615234375e+01 -1.079429912567138672e+01 1.796809434890747070e+00 1.334735512733459473e+00 9.394634962081909180e-01 -1.324726104736328125e+00
2.510000000000000000e+02 7.143976593017578125e+01 -1.087516117095947266e+01 3.393042564392089844e+00 3.796097755432128906e+00 2.156742095947265625e+00 -3.914882898330688477e+00
2.520000000000000000e+02 7.150643920898437500e+01 -1.131505107879638672e+01 3.816742420196533203e+00 2.359754800796508789e+00 1.852949142456054688e+00 -3.329903364181518555e+00
2.530000000000000000e+02 7.210958862304687500e+01 -1.113844966888427734e+01 4.645849227905273438e+00 8.326390266418457031e+00 3.891671895980834961e+00 -6.845085144042968750e+00
2.540000000000000000e+02 7.081647491455078125e+01 -1.112695503234863281e+01 2.173668861389160156e+00 1.142676472663879395e+00 9.949035644531250000e-01 -1.505385756492614746e+00
2.550000000000000000e+02 7.169600677490234375e+01 -1.119500732421875000e+01 4.220494747161865234e+00 3.810902118682861328e+00 2.409419059753417969e+00 -4.325766563415527344e+00
2.560000000000000000e+02 7.084167480468750000e+01 -1.083241844177246094e+01 2.375058174133300781e+00 2.012089252471923828e+00 1.316144227981567383e+00 -2.173982143402099609e+00
2.570000000000000000e+02 7.042135620117187500e+01 -1.206791019439697266e+01 -1.725187659263610840e+00 -1.064340621232986450e-01 -5.494865179061889648e-01 2.450825832784175873e-02
2.580000000000000000e+02 7.077878570556640625e+01 -1.202158546447753906e+01 -1.497824430465698242e+00 -5.907785519957542419e-02 -4.670706987380981445e-01 1.846922561526298523e-02
2.590000000000000000e+02 7.033383178710937500e+01 -1.233189964294433594e+01 -2.391013383865356445e+00 -4.987283051013946533e-02 -7.322658300399780273e-01 -1.240525394678115845e-02
2.600000000000000000e+02 7.055366516113281250e+01 -1.233393287658691406e+01 -2.496317625045776367e+00 1.436210703104734421e-02 -7.445866465568542480e-01 -2.199121937155723572e-02
2.610000000000000000e+02 7.152836608886718750e+01 -1.359255313873291016e+01 3.737381696701049805e+00 4.233119010925292969e+00 2.391150236129760742e+00 4.263850212097167969e+00
2.620000000000000000e+02 7.043556213378906250e+01 -1.317053985595703125e+01 9.889636039733886719e-01 4.903795719146728516e-01 4.438029527664184570e-01 4.955610930919647217e-01
2.630000000000000000e+02 7.189118194580078125e+01 -1.274312400817871094e+01 3.887863874435424805e+00 1.143174886703491211e+00 1.509311676025390625e+00 2.679213762283325195e+00
2.640000000000000000e+02 7.056927490234375000e+01 -1.300632858276367188e+01 6.633613109588623047e-01 3.170475065708160400e-01 2.941226363182067871e-01 3.180600404739379883e-01
2.650000000000000000e+02 7.035990142822265625e+01 -1.337014007568359375e+01 1.292430043220520020e+00 7.438695430755615234e-01 6.108898520469665527e-01 7.220065593719482422e-01
2.660000000000000000e+02 7.038182830810546875e+01 -1.139667034149169922e+01 8.001534938812255859e-01 3.649072349071502686e-01 3.495182096958160400e-01 -2.690550982952117920e-01
2.670000000000000000e+02 6.993351745605468750e+01 -1.332899665832519531e+01 5.971760153770446777e-01 4.948296546936035156e-01 3.276017010211944580e-01 1.167457625269889832e-01
2.680000000000000000e+02 7.134406280517578125e+01 -1.148948764801025391e+01 2.532513141632080078e+00 1.052285432815551758e+00 1.075439572334289551e+00 -1.832460999488830566e+00
2.690000000000000000e+02 7.176477813720703125e+01 -1.341236782073974609e+01 4.496663093566894531e+00 4.511732101440429688e+00 2.702518463134765625e+00 5.108086109161376953e+00
2.700000000000000000e+02 7.063615417480468750e+01 -1.082870197296142578e+01 1.994268417358398438e+00 1.507877111434936523e+00 1.050643682479858398e+00 -1.646682024002075195e+00
2.710000000000000000e+02 7.015787506103515625e+01 -1.333804225921630859e+01 9.948906302452087402e-01 6.342746615409851074e-01 4.887495934963226318e-01 4.233811497688293457e-01
2.720000000000000000e+02 7.152809906005859375e+01 -1.154873752593994141e+01 3.301022052764892578e+00 1.516068935394287109e+00 1.445127248764038086e+00 -2.410716056823730469e+00
2.730000000000000000e+02 7.102162933349609375e+01 -1.140578842163085938e+01 1.978107810020446777e+00 7.899143099784851074e-01 8.304066061973571777e-01 -1.245337843894958496e+00
2.740000000000000000e+02 7.145211029052734375e+01 -1.259212970733642578e+01 6.811264157295227051e-02 2.950656712055206299e-01 1.089534983038902283e-01 7.031036615371704102e-01
2.750000000000000000e+02 7.076316070556640625e+01 -1.234221744537353516e+01 -2.562483549118041992e+00 5.424143746495246887e-02 -7.524726390838623047e-01 3.194434940814971924e-02
2.760000000000000000e+02 7.157862091064453125e+01 -1.335592269897460938e+01 3.873423576354980469e+00 3.366688013076782227e+00 2.172033309936523438e+00 3.941864490509033203e+00
2.770000000000000000e+02 7.111263275146484375e+01 -1.356111049652099609e+01 3.046334266662597656e+00 2.434117078781127930e+00 1.644135355949401855e+00 2.780811309814453125e+00
2.780000000000000000e+02 7.021266937255859375e+01 -1.311405372619628906e+01 5.150864124298095703e-01 3.548695147037506104e-01 2.609867751598358154e-01 1.509929448366165161e-01
2.790000000000000000e+02 7.111005401611328125e+01 -1.297148036956787109e+01 1.695919394493103027e+00 6.873347759246826172e-01 7.149762511253356934e-01 1.179578542709350586e+00
2.800000000000000000e+02 7.055107116699218750e+01 -1.169453811645507812e+01 -7.544832676649093628e-02 1.549252867698669434e-01 2.384309098124504089e-02 -1.204514801502227783e-01
2.810000000000000000e+02 7.119766235351562500e+01 -1.110700321197509766e+01 2.994216918945312500e+00 2.036856412887573242e+00 1.509321928024291992e+00 -2.615952253341674805e+00
2.820000000000000000e+02 7.164268493652343750e+01 -1.255967235565185547e+01 2.685043811798095703e-01 1.402145028114318848e-01 1.226156651973724365e-01 7.829279303550720215e-01
2.830000000000000000e+02 7.133376312255859375e+01 -1.272733688354492188e+01 7.758420109748840332e-01 4.175080657005310059e-01 3.580050170421600342e-01 8.302786946296691895e-01
2.840000000000000000e+02 7.031159210205078125e+01 -1.165419578552246094e+01 -6.350095570087432861e-02 8.475010842084884644e-02 6.374746561050415039e-03 -3.926186263561248779e-02
2.850000000000000000e+02 7.024897766113281250e+01 -1.287247562408447266e+01 -1.949403285980224609e-01 1.990346163511276245e-01 1.228290726430714130e-03 -5.617405846714973450e-02
2.860000000000000000e+02 7.061026000976562500e+01 -1.113078308105468750e+01 1.763969898223876953e+00 8.754015564918518066e-01 7.918114066123962402e-01 -1.061904549598693848e+00
2.870000000000000000e+02 7.051393127441406250e+01 -1.358316707611083984e+01 1.863990902900695801e+00 1.202718496322631836e+00 9.200128316879272461e-01 1.350992679595947266e+00
2.880000000000000000e+02 7.060488891601562500e+01 -1.326754474639892578e+01 1.570801377296447754e+00 7.834579348564147949e-01 7.062777876853942871e-01 8.918381929397583008e-01
2.890000000000000000e+02 6.996892547607421875e+01 -1.226903438568115234e+01 -2.286084651947021484e+00 -1.820078492164611816e-01 -7.404277920722961426e-01 7.749649137258529663e-02
2.900000000000000000e+02 7.069372558593750000e+01 -1.340069007873535156e+01 1.936662793159484863e+00 1.049704194068908691e+00 8.959100842475891113e-01 1.310143470764160156e+00
2.910000000000000000e+02 7.075420379638671875e+01 -1.312985420227050781e+01 1.460470557212829590e+00 6.213564276695251465e-01 6.245480775833129883e-01 9.121735692024230957e-01
2.920000000000000000e+02 7.087798309326171875e+01 -1.332375907897949219e+01 2.152641296386718750e+00 1.135579347610473633e+00 9.864661693572998047e-01 1.497237443923950195e+00
2.930000000000000000e+02 7.004747009277343750e+01 -1.137403488159179688e+01 4.527749121189117432e-01 2.884882688522338867e-01 2.223789542913436890e-01 -1.120603922754526138e-02
2.940000000000000000e+02 7.101317596435546875e+01 -1.111913776397705078e+01 2.617111206054687500e+00 1.621143817901611328e+00 1.271476507186889648e+00 -2.095892667770385742e+00
2.950000000000000000e+02 7.145557403564453125e+01 -1.179956436157226562e+01 1.556347370147705078e+00 4.052786827087402344e-01 5.884878039360046387e-01 -9.259923100471496582e-01
2.960000000000000000e+02 7.103988647460937500e+01 -1.083642101287841797e+01 2.670420885086059570e+00 2.419337749481201172e+00 1.526927590370178223e+00 -2.639096021652221680e+00
2.970000000000000000e+02 7.124555206298828125e+01 -1.174404621124267578e+01 1.187120556831359863e+00 3.236132860183715820e-01 4.532201588153839111e-01 -7.665959000587463379e-01
2.980000000000000000e+02 7.136585998535156250e+01 -1.115198516845703125e+01 3.514808177947998047e+00 2.541253089904785156e+00 1.816818356513977051e+00 -3.167287826538085938e+00
2.990000000000000000e+02 7.206462860107421875e+01 -1.086804676055908203e+01 3.535617589950561523e+00 8.898124694824218750e+00 3.730122804641723633e+00 -6.320987224578857422e+00
3.000000000000000000e+02 7.230996704101562500e+01 -1.108850765228271484e+01 3.991652727127075195e+00 1.167315864562988281e+01 4.699443340301513672e+00 -7.596260547637939453e+00
3.010000000000000000e+02 7.265367889404296875e+01 -1.109130191802978516e+01 2.556244373321533203e+00 1.800435066223144531e+01 6.168178558349609375e+00 -7.384561061859130859e+00
3.020000000000000000e+02 7.303346252441406250e+01 -1.090806007385253906e+01 8.400734066963195801e-01 2.126568984985351562e+01 6.631729125976562500e+00 -3.864482641220092773e+00
3.030000000000000000e+02 7.358725738525390625e+01 -1.106246662139892578e+01 2.335470199584960938e+00 2.323025131225585938e+01 7.669716358184814453e+00 1.135104537010192871e+00
3.040000000000000000e+02 7.386797332763671875e+01 -1.123580169677734375e+01 4.548507690429687500e+00 2.196899795532226562e+01 7.955251693725585938e+00 2.930016040802001953e+00
3.050000000000000000e+02 7.396730804443359375e+01 -1.137504386901855469e+01 6.553898334503173828e+00 2.126868438720703125e+01 8.346775054931640625e+00 3.636138677597045898e+00
3.060000000000000000e+02 7.427727508544921875e+01 -1.243759155273437500e+01 1.128787517547607422e+01 1.756492424011230469e+01 8.655839920043945312e+00 -1.314097881317138672e+00
3.070000000000000000e+02 7.426927185058593750e+01 -1.260966682434082031e+01 1.077443408966064453e+01 1.780494689941406250e+01 8.573814392089843750e+00 -2.188509225845336914e+00
3.080000000000000000e+02 7.411809539794921875e+01 -1.290361404418945312e+01 8.706271171569824219e+00 1.947941589355468750e+01 8.455705642700195312e+00 -3.495622873306274414e+00
3.090000000000000000e+02 7.372982025146484375e+01 -1.332623863220214844e+01 4.092037677764892578e+00 2.307082366943359375e+01 8.148858070373535156e+00 -2.484605789184570312e+00
3.100000000000000000e+02 7.341605377197265625e+01 -1.355170822143554688e+01 1.499462127685546875e+00 2.315560150146484375e+01 7.396519184112548828e+00 3.866380751132965088e-01
3.110000000000000000e+02 7.327265930175781250e+01 -1.362875652313232422e+01 9.488376975059509277e-01 2.178985214233398438e+01 6.821606636047363281e+00 2.039536237716674805e+00
3.120000000000000000e+02 7.310311889648437500e+01 -1.366913986206054688e+01 7.125492095947265625e-01 2.128348541259765625e+01 6.598810195922851562e+00 3.058187723159790039e+00
3.130000000000000000e+02 7.293381500244140625e+01 -1.366237545013427734e+01 9.295942783355712891e-01 2.028557395935058594e+01 6.364550590515136719e+00 4.860502719879150391e+00
3.140000000000000000e+02 7.102107238769531250e+01 -1.171313762664794922e+01 6.972063779830932617e-01 2.544796466827392578e-01 2.855058014392852783e-01 -5.738756656646728516e-01
3.150000000000000000e+02 7.078728485107421875e+01 -1.172006511688232422e+01 1.870854943990707397e-01 1.665874719619750977e-01 1.061018854379653931e-01 -2.049606293439865112e-01
3.160000000000000000e+02 7.031771850585937500e+01 -1.192889690399169922e+01 -1.212072253227233887e+00 -4.847104102373123169e-02 -3.781629800796508789e-01 1.637329012155532837e-01
3.170000000000000000e+02 7.210968780517578125e+01 -1.363307476043701172e+01 3.598597764968872070e+00 9.080805778503417969e+00 3.803821086883544922e+00 6.470514774322509766e+00
3.180000000000000000e+02 7.184944152832031250e+01 -1.137904739379882812e+01 4.849066734313964844e+00 3.958014249801635742e+00 2.642124176025390625e+00 -4.821666717529296875e+00
3.190000000000000000e+02 7.159831237792968750e+01 -1.233987236022949219e+01 -2.611290216445922852e+00 1.253285706043243408e-01 -7.457884550094604492e-01 1.423638034611940384e-02
3.200000000000000000e+02 7.139246368408203125e+01 -1.236164188385009766e+01 -2.543934345245361328e+00 -8.223952353000640869e-02 -7.878521680831909180e-01 1.077487785369157791e-02
3.210000000000000000e+02 7.168787384033203125e+01 -1.277363204956054688e+01 3.069890260696411133e+00 9.138570427894592285e-01 1.195124149322509766e+00 2.147953510284423828e+00
3.220000000000000000e+02 7.114685821533203125e+01 -1.267620182037353516e+01 -1.168597396463155746e-02 8.559411764144897461e-02 2.217244356870651245e-02 3.364951908588409424e-01
3.230000000000000000e+02 7.050587463378906250e+01 -1.260292148590087891e+01 -1.167159438133239746e+00 4.926501587033271790e-02 -3.353683352470397949e-01 -2.199831977486610413e-02
3.240000000000000000e+02 7.382624053955078125e+01 -1.286258029937744141e+01 9.714008331298828125e+00 2.277371788024902344e+01 9.746317863464355469e+00 -3.915766716003417969e+00
3.250000000000000000e+02 7.407303619384765625e+01 -1.232345485687255859e+01 1.328563213348388672e+01 1.915228462219238281e+01 9.731374740600585938e+00 -4.634611010551452637e-01
3.260000000000000000e+02 7.207784271240234375e+01 -1.327337360382080078e+01 5.205695629119873047e+00 7.078531742095947266e+00 3.685268163681030273e+00 6.792519569396972656e+00
3.270000000000000000e+02 7.191962432861328125e+01 -1.344882011413574219e+01 4.414599895477294922e+00 6.840007781982421875e+00 3.376382350921630859e+00 6.119677066802978516e+00
3.280000000000000000e+02 7.059139251708984375e+01 -1.141752052307128906e+01 9.936626553535461426e-01 3.605768978595733643e-01 4.062718749046325684e-01 -5.300098657608032227e-01
3.290000000000000000e+02 7.121868133544921875e+01 -1.132792186737060547e+01 2.728393316268920898e+00 1.218682050704956055e+00 1.184122562408447266e+00 -1.960672736167907715e+00
3.300000000000000000e+02 7.148342895507812500e+01 -1.293892002105712891e+01 2.914193391799926758e+00 9.978315234184265137e-01 1.173607468605041504e+00 2.024859189987182617e+00
3.310000000000000000e+02 7.161789703369140625e+01 -1.314849281311035156e+01 3.988898038864135742e+00 2.873168945312500000e+00 2.058620214462280273e+00 3.733430385589599609e+00
3.320000000000000000e+02 7.041103363037109375e+01 -1.116497039794921875e+01 1.355502128601074219e+00 7.093287706375122070e-01 6.194492578506469727e-01 -7.530527114868164062e-01
3.330000000000000000e+02 7.087825775146484375e+01 -1.291897392272949219e+01 9.183372855186462402e-01 3.939294517040252686e-01 3.936800062656402588e-01 6.154686808586120605e-01
3.340000000000000000e+02 7.080522155761718750e+01 -1.142028427124023438e+01 1.383669614791870117e+00 5.449041128158569336e-01 5.785720944404602051e-01 -8.376766443252563477e-01
3.350000000000000000e+02 7.166334533691406250e+01 -1.297135543823242188e+01 3.875484704971313477e+00 1.741863369941711426e+00 1.685204386711120605e+00 2.969909906387329102e+00
3.360000000000000000e+02 7.024259185791015625e+01 -1.127793025970458984e+01 7.606630921363830566e-01 3.069904148578643799e-01 3.202960491180419922e-01 -3.011301457881927490e-01
3.370000000000000000e+02 7.053411102294921875e+01 -1.341103267669677734e+01 1.587486863136291504e+00 9.397730827331542969e-01 7.581779956817626953e-01 1.098757743835449219e+00
3.380000000000000000e+02 7.149798583984375000e+01 -1.276585578918457031e+01 1.934357523918151855e+00 6.501130461692810059e-01 7.753411531448364258e-01 1.337853550910949707e+00
3.390000000000000000e+02 7.142111968994140625e+01 -1.309838485717773438e+01 3.249174118041992188e+00 1.519579291343688965e+00 1.430626034736633301e+00 2.532456159591674805e+00
3.400000000000000000e+02 7.131663513183593750e+01 -1.295009613037109375e+01 2.186303853988647461e+00 8.124188780784606934e-01 8.996168375015258789e-01 1.509754657745361328e+00
3.410000000000000000e+02 7.093469238281250000e+01 -1.264569282531738281e+01 -6.070238351821899414e-01 1.230355501174926758e-01 -1.451964825391769409e-01 1.463471651077270508e-01
3.420000000000000000e+02 7.067794036865234375e+01 -1.284077167510986328e+01 6.714908778667449951e-02 1.880474090576171875e-01 7.655894756317138672e-02 2.387752383947372437e-01
3.430000000000000000e+02 7.048342132568359375e+01 -1.283998680114746094e+01 -1.054732799530029297e-01 1.761714667081832886e-01 2.120945416390895844e-02 7.747171819210052490e-02
3.440000000000000000e+02 4.781020355224609375e+01 1.900483131408691406e+01 5.116846561431884766e-01 1.867129504680633545e-01 2.095192819833755493e-01 2.620821893215179443e-01
3.450000000000000000e+02 4.501997375488281250e+01 1.728395080566406250e+01 9.495474696159362793e-01 6.816659569740295410e-01 4.893640279769897461e-01 7.369744181632995605e-01
3.460000000000000000e+02 3.663658905029296875e+01 1.546414852142333984e+01 2.302929013967514038e-01 3.507117331027984619e-01 1.743014007806777954e-01 3.927861452102661133e-01
3.470000000000000000e+02 2.827439498901367188e+01 1.480188369750976562e+01 -2.737624645233154297e-01 -3.504704535007476807e-01 -1.872698813676834106e-01 3.414892852306365967e-01
3.480000000000000000e+02 2.438068771362304688e+01 1.583018302917480469e+01 -3.323752284049987793e-01 -8.332580327987670898e-01 -3.496899902820587158e-01 4.994404613971710205e-01
3.490000000000000000e+02 2.357203483581542969e+01 1.487113571166992188e+01 -8.196600079536437988e-01 -8.721484541893005371e-01 -5.075425505638122559e-01 7.679412364959716797e-01
3.500000000000000000e+02 2.527778053283691406e+01 1.297380638122558594e+01 -5.803831219673156738e-01 -1.482723712921142578e+00 -6.189320683479309082e-01 7.288540005683898926e-01
3.510000000000000000e+02 2.585594749450683594e+01 1.105653476715087891e+01 -1.767415553331375122e-01 -1.055034041404724121e+00 -3.695327043533325195e-01 3.676967024803161621e-01
3.520000000000000000e+02 2.577056312561035156e+01 8.570351600646972656e+00 1.459184885025024414e-01 -5.998227745294570923e-02 2.578086405992507935e-02 2.959968745708465576e-01
3.530000000000000000e+02 2.613241386413574219e+01 7.315324783325195312e+00 3.359422683715820312e-01 2.475702762603759766e-02 1.082097813487052917e-01 3.736928701400756836e-01
3.540000000000000000e+02 2.497271347045898438e+01 6.692519664764404297e+00 4.630447328090667725e-01 3.874419629573822021e-01 2.551459968090057373e-01 4.166027903556823730e-01
3.550000000000000000e+02 2.401336669921875000e+01 5.837554931640625000e+00 6.890176534652709961e-01 4.623865485191345215e-01 3.454212546348571777e-01 5.020642876625061035e-01
3.560000000000000000e+02 2.167645454406738281e+01 4.560491085052490234e+00 7.148143649101257324e-01 1.962522715330123901e-01 2.733199894428253174e-01 3.435510993003845215e-01
3.570000000000000000e+02 1.969848632812500000e+01 -2.394057273864746094e+00 -9.786524176597595215e-01 -7.384983897209167480e-01 -5.151452422142028809e-01 7.507574558258056641e-01
3.580000000000000000e+02 2.139175605773925781e+01 -4.245142459869384766e+00 -9.022092223167419434e-01 -6.495499014854431152e-01 -4.655277431011199951e-01 7.040610313415527344e-01
3.590000000000000000e+02 2.189799880981445312e+01 -4.893917560577392578e+00 -8.477553129196166992e-01 -6.243567466735839844e-01 -4.416336119174957275e-01 6.704812645912170410e-01
3.600000000000000000e+02 2.246865653991699219e+01 -4.454085826873779297e+00 -8.395723104476928711e-01 -4.620807468891143799e-01 -3.904959261417388916e-01 5.923061966896057129e-01
3.610000000000000000e+02 2.280256080627441406e+01 -6.226685523986816406e+00 -7.015404105186462402e-01 -5.681208968162536621e-01 -3.808983862400054932e-01 6.152226924896240234e-01
3.620000000000000000e+02 2.552713966369628906e+01 -1.089901924133300781e+01 -3.111754059791564941e-01 -2.800856828689575195e-01 -1.773783266544342041e-01 3.430253267288208008e-01
3.630000000000000000e+02 2.660310173034667969e+01 -1.283363628387451172e+01 -2.391131669282913208e-01 -1.788679063320159912e-01 -1.253943145275115967e-01 2.564994394779205322e-01
3.640000000000000000e+02 2.709327697753906250e+01 -1.346378040313720703e+01 -2.227163612842559814e-01 -1.439372599124908447e-01 -1.099960803985595703e-01 2.311984598636627197e-01
3.650000000000000000e+02 2.718966102600097656e+01 -1.246936130523681641e+01 -2.798999845981597900e-01 -1.524909585714340210e-01 -1.297172755002975464e-01 2.797696590423583984e-01
3.660000000000000000e+02 3.392454147338867188e+01 -1.799749755859375000e+01 -2.841093242168426514e-01 1.170217711478471756e-02 -8.172214031219482422e-02 8.085878938436508179e-02
3.670000000000000000e+02 3.644836425781250000e+01 -1.846505165100097656e+01 -3.370079398155212402e-01 1.008790452033281326e-02 -9.807600826025009155e-02 1.542483922094106674e-02
3.680000000000000000e+02 3.474488067626953125e+01 -1.644125938415527344e+01 -3.617721199989318848e-01 2.959079481661319733e-02 -9.965439885854721069e-02 1.011344715952873230e-01
3.690000000000000000e+02 3.454879760742187500e+01 -1.878564262390136719e+01 -2.598849833011627197e-01 -8.807246922515332699e-04 -7.822971045970916748e-02 1.806731335818767548e-02
3.700000000000000000e+02 5.398902511596679688e+01 1.745615196228027344e+01 4.652860760688781738e-01 9.613944292068481445e-01 4.280041456222534180e-01 -6.434537768363952637e-01
3.710000000000000000e+02 5.572880172729492188e+01 1.850633621215820312e+01 3.416621088981628418e-01 1.920890212059020996e+00 6.787657141685485840e-01 -5.683479309082031250e-01
3.720000000000000000e+02 5.379907608032226562e+01 2.441717338562011719e+01 6.284209489822387695e-01 1.379297971725463867e+00 6.023156642913818359e-01 -3.474288880825042725e-01
3.730000000000000000e+02 5.466390991210937500e+01 3.291206359863281250e+01 5.988406538963317871e-01 1.858136057853698730e+00 7.370930314064025879e-01 -1.873647570610046387e-01
3.740000000000000000e+02 5.730663681030273438e+01 4.032831573486328125e+01 5.223693847656250000e-01 2.346830129623413086e+00 8.607598543167114258e-01 -5.932040140032768250e-02
3.750000000000000000e+02 5.233362197875976562e+01 4.065071105957031250e+01 6.240039467811584473e-01 1.676169395446777344e+00 6.900520324707031250e-01 -1.450892910361289978e-02
3.760000000000000000e+02 4.840331649780273438e+01 2.784136962890625000e+01 6.545808911323547363e-01 9.996784329414367676e-01 4.962778091430664062e-01 2.041841298341751099e-02
3.770000000000000000e+02 4.803794479370117188e+01 2.287928390502929688e+01 6.401817202568054199e-01 6.272196173667907715e-01 3.802203834056854248e-01 1.749495714902877808e-01
3.780000000000000000e+02 4.917601776123046875e+01 1.902797508239746094e+01 3.441713750362396240e-01 1.092402413487434387e-01 1.360234916210174561e-01 7.796937972307205200e-02
3.790000000000000000e+02 5.188930511474609375e+01 1.859660911560058594e+01 3.863034248352050781e-01 3.830271363258361816e-01 2.307991683483123779e-01 -3.136937916278839111e-01
3.800000000000000000e+02 5.790431976318359375e+01 1.450702190399169922e+01 5.293921828269958496e-01 2.138228654861450195e+00 8.002862930297851562e-01 -3.705420494079589844e-01
3.810000000000000000e+02 6.120906066894531250e+01 1.139925956726074219e+01 6.427360773086547852e-01 2.234664916992187500e+00 8.632202744483947754e-01 -5.060703158378601074e-01
3.820000000000000000e+02 7.258396911621093750e+01 3.567500591278076172e+00 -6.793377548456192017e-02 5.922131538391113281e+00 1.756259441375732422e+00 -1.324395895004272461e+00
3.830000000000000000e+02 7.838887023925781250e+01 -2.672456741333007812e+00 -2.060610949993133545e-01 9.808419227600097656e+00 2.880707263946533203e+00 2.042429447174072266e-01
3.840000000000000000e+02 7.937619018554687500e+01 2.794981718063354492e+00 -1.194346789270639420e-02 9.763373374938964844e+00 2.925428867340087891e+00 -1.411022394895553589e-01
3.850000000000000000e+02 7.805178070068359375e+01 4.194372177124023438e+00 -1.521729119122028351e-02 8.680347442626953125e+00 2.599539041519165039e+00 -4.730143547058105469e-01
3.860000000000000000e+02 7.932586669921875000e+01 8.391323089599609375e+00 1.035063527524471283e-02 8.275531768798828125e+00 2.485764741897583008e+00 -1.553258746862411499e-01
3.870000000000000000e+02 6.453364562988281250e+01 2.447180366516113281e+01 3.632713258266448975e-01 3.335611104965209961e+00 1.109664678573608398e+00 -5.451475381851196289e-01
3.880000000000000000e+02 6.063195419311523438e+01 1.594812011718750000e+01 5.891230702400207520e-01 2.461746215820312500e+00 9.152607917785644531e-01 -5.280262231826782227e-01
3.890000000000000000e+02 5.570188903808593750e+01 1.431001853942871094e+01 3.514730334281921387e-01 2.442721128463745117e+00 8.382582664489746094e-01 -4.964598417282104492e-01
3.900000000000000000e+02 5.561558151245117188e+01 1.305399799346923828e+01 8.656101673841476440e-02 2.251776933670043945e+00 7.015013694763183594e-01 -1.087714508175849915e-01
3.910000000000000000e+02 5.544346237182617188e+01 1.171537494659423828e+01 1.484465450048446655e-01 2.105992078781127930e+00 6.763315796852111816e-01 1.313997358083724976e-01
3.920000000000000000e+02 5.697275924682617188e+01 1.238256740570068359e+01 3.883108496665954590e-01 2.134688854217529297e+00 7.568999528884887695e-01 -2.087547183036804199e-01
3.930000000000000000e+02 6.273953247070312500e+01 6.740260601043701172e+00 5.543779730796813965e-01 1.933564066886901855e+00 7.463825941085815430e-01 -6.600115895271301270e-01
3.940000000000000000e+02 6.775599670410156250e+01 -5.816364765167236328e+00 -2.761351585388183594e+00 2.037240982055664062e+00 -2.172331809997558594e-01 -1.508858799934387207e+00
3.950000000000000000e+02 7.436939239501953125e+01 -1.303118228912353516e+01 7.454827785491943359e+00 1.795936393737792969e+01 7.624257087707519531e+00 -3.309303283691406250e+00
3.960000000000000000e+02 7.253944396972656250e+01 -1.392666625976562500e+01 1.474452972412109375e+00 1.441987609863281250e+01 4.768299102783203125e+00 5.888514995574951172e+00
3.970000000000000000e+02 7.827279663085937500e+01 -2.359111213684082031e+01 -1.316092163324356079e-01 1.030315113067626953e+01 3.051462411880493164e+00 -1.670385152101516724e-01
3.980000000000000000e+02 7.942755126953125000e+01 -2.226340293884277344e+01 -3.900738805532455444e-02 1.083759498596191406e+01 3.239576339721679688e+00 -1.672213971614837646e-01
3.990000000000000000e+02 7.845674896240234375e+01 -1.646833801269531250e+01 -1.416889876127243042e-01 7.705606460571289062e+00 2.269175291061401367e+00 -1.923682689666748047e+00
4.000000000000000000e+02 5.513508605957031250e+01 1.035831069946289062e+01 3.286319971084594727e-01 1.956015586853027344e+00 6.853942871093750000e-01 5.116550922393798828e-01
4.010000000000000000e+02 5.353324508666992188e+01 7.871777534484863281e+00 7.966814041137695312e-01 8.120775818824768066e-01 4.826276898384094238e-01 6.720174551010131836e-01
4.020000000000000000e+02 5.227192687988281250e+01 7.062142848968505859e+00 8.130654096603393555e-01 4.196379482746124268e-01 3.698109984397888184e-01 5.255975127220153809e-01
4.030000000000000000e+02 5.097186279296875000e+01 6.476456165313720703e+00 5.724251866340637207e-01 2.007760107517242432e-01 2.319603562355041504e-01 3.324334323406219482e-01
4.040000000000000000e+02 4.940454864501953125e+01 4.034550189971923828e+00 -1.777260564267635345e-02 1.199543997645378113e-01 3.065453842282295227e-02 4.919246733188629150e-01
4.050000000000000000e+02 4.967894363403320312e+01 6.095228672027587891e+00 1.375471353530883789e-01 4.448149725794792175e-02 5.460858717560768127e-02 2.486052215099334717e-01
4.060000000000000000e+02 4.434930801391601562e+01 8.767067909240722656e+00 -2.046730965375900269e-01 6.720814108848571777e-02 -4.123948514461517334e-02 1.212006062269210815e-01
4.070000000000000000e+02 3.928830337524414062e+01 3.677669763565063477e+00 -3.661463260650634766e-01 2.585490345954895020e-01 -3.227918595075607300e-02 3.456285297870635986e-01
4.080000000000000000e+02 2.659796142578125000e+01 4.524147033691406250e+00 2.289958447217941284e-01 4.717074800282716751e-03 7.011387497186660767e-02 2.147681862115859985e-01
4.090000000000000000e+02 4.533325958251953125e+01 7.965455055236816406e+00 -2.845858037471771240e-01 -1.658461987972259521e-01 -1.351296007633209229e-01 2.231468260288238525e-01
4.100000000000000000e+02 4.285371780395507812e+01 1.184036350250244141e+01 7.295271009206771851e-02 1.184137821197509766e+00 3.771271407604217529e-01 6.735763698816299438e-02
4.110000000000000000e+02 4.159778213500976562e+01 1.175500965118408203e+01 5.408174917101860046e-02 8.667683601379394531e-01 2.762550413608551025e-01 3.669714927673339844e-01
4.120000000000000000e+02 4.287274932861328125e+01 1.462731170654296875e+01 4.003693461418151855e-01 1.719105243682861328e+00 6.358423829078674316e-01 5.460960268974304199e-01
4.130000000000000000e+02 4.265104675292968750e+01 1.616934776306152344e+01 6.008307337760925293e-01 1.351049780845642090e+00 5.855641365051269531e-01 5.290232300758361816e-01
4.140000000000000000e+02 4.397631454467773438e+01 1.662997245788574219e+01 8.009170889854431152e-01 1.367138862609863281e+00 6.504167914390563965e-01 8.133872747421264648e-01
4.150000000000000000e+02 4.105638885498046875e+01 1.598356246948242188e+01 4.719217121601104736e-01 8.929578661918640137e-01 4.094638824462890625e-01 3.286503255367279053e-01
4.160000000000000000e+02 4.490594100952148438e+01 1.959800529479980469e+01 4.549131393432617188e-01 8.257430195808410645e-01 3.841968476772308350e-01 4.937591552734375000e-01
4.170000000000000000e+02 1.840180778503417969e+01 1.673675727844238281e+01 8.605019450187683105e-01 1.949610263109207153e-01 3.166388869285583496e-01 4.631525576114654541e-01
4.180000000000000000e+02 1.466527843475341797e+01 2.094024658203125000e+01 1.698871701955795288e-01 -9.537722915410995483e-02 2.235298044979572296e-02 2.734144032001495361e-01
4.190000000000000000e+02 6.653610706329345703e+00 3.182360076904296875e+01 1.653222180902957916e-02 -8.485468626022338867e-01 -2.496043890714645386e-01 6.731743365526199341e-02
4.200000000000000000e+02 6.434573531150817871e-01 3.318638610839843750e+01 -2.787488745525479317e-03 -1.292234063148498535e+00 -3.885064721107482910e-01 3.910783678293228149e-03
4.210000000000000000e+02 1.950021624565124512e+00 3.032792282104492188e+01 3.151764394715428352e-03 -1.169878244400024414e+00 -3.500179648399353027e-01 1.616567559540271759e-02
4.220000000000000000e+02 6.505281329154968262e-01 2.763497924804687500e+01 6.780830444768071175e-04 -1.244152903556823730e+00 -3.730424642562866211e-01 7.874175906181335449e-03
4.230000000000000000e+02 1.993972420692443848e+00 2.623644256591796875e+01 3.461057785898447037e-03 -1.111560344696044922e+00 -3.324297964572906494e-01 2.980108745396137238e-02
4.240000000000000000e+02 1.439902973175048828e+01 1.611093711853027344e+01 5.868735313415527344e-01 -3.061765059828758240e-02 1.668767631053924561e-01 2.646218240261077881e-01
4.250000000000000000e+02 1.577455997467041016e+01 1.596337032318115234e+01 7.863751649856567383e-01 4.081843495368957520e-01 3.583678603172302246e-01 4.524532854557037354e-01
4.260000000000000000e+02 1.551140403747558594e+01 1.469938659667968750e+01 6.892493963241577148e-01 5.517880320549011230e-01 3.723112344741821289e-01 5.437117218971252441e-01
4.270000000000000000e+02 1.709687042236328125e+01 1.617448997497558594e+01 1.014154911041259766e+00 4.751857519149780273e-01 4.468021988868713379e-01 5.863822698593139648e-01
4.280000000000000000e+02 1.924195671081542969e+01 1.944501495361328125e+01 2.111019045114517212e-01 1.556487870402634144e-03 6.379751861095428467e-02 6.045148372650146484e-01
4.290000000000000000e+02 2.451462173461914062e+01 1.394161033630371094e+01 -7.639585733413696289e-01 -1.187690973281860352e+00 -5.854948759078979492e-01 8.812707066535949707e-01
4.300000000000000000e+02 2.200232887268066406e+01 1.754226875305175781e+01 1.348248273134231567e-01 -5.277935266494750977e-01 -1.178906038403511047e-01 5.662615895271301270e-01
4.310000000000000000e+02 1.985350418090820312e+01 1.680957412719726562e+01 3.977299928665161133e-01 -6.464886246249079704e-04 1.191250458359718323e-01 3.634783923625946045e-01
4.320000000000000000e+02 2.288764572143554688e+01 5.116694450378417969e+00 7.887023091316223145e-01 3.355501890182495117e-01 3.372757434844970703e-01 4.592907726764678955e-01
4.330000000000000000e+02 1.946548080444335938e+01 3.537369251251220703e+00 -1.750987917184829712e-01 -1.555379480123519897e-01 -9.919102489948272705e-02 5.241582989692687988e-01
4.340000000000000000e+02 1.746416282653808594e+01 2.154011726379394531e-01 -5.733623504638671875e-01 -7.855842113494873047e-01 -4.076839685440063477e-01 7.736088633537292480e-01
4.350000000000000000e+02 1.940923309326171875e+01 1.981080055236816406e+00 -3.304194211959838867e-01 -3.634570240974426270e-01 -2.081629335880279541e-01 6.937565207481384277e-01
4.360000000000000000e+02 1.548245620727539062e+01 3.793641030788421631e-01 -5.388106703758239746e-01 -6.810767650604248047e-01 -3.659662306308746338e-01 6.891571879386901855e-01
4.370000000000000000e+02 1.469480705261230469e+01 7.145634293556213379e-01 -4.958469867706298828e-01 -5.812653303146362305e-01 -3.231337070465087891e-01 5.979727506637573242e-01
4.380000000000000000e+02 1.413293361663818359e+01 1.894425868988037109e+00 -3.978075087070465088e-01 -6.433019042015075684e-01 -3.123328089714050293e-01 5.429971814155578613e-01
4.390000000000000000e+02 1.065958118438720703e+01 1.745498299598693848e+00 -2.918537259101867676e-01 -1.269325613975524902e-01 -1.256358921527862549e-01 1.923453658819198608e-01
4.400000000000000000e+02 5.627641677856445312e-01 6.409730434417724609e+00 -7.041715085506439209e-03 -1.728104241192340851e-02 -7.296827156096696854e-03 2.250333130359649658e-02
4.410000000000000000e+02 4.736511707305908203e+00 2.564885616302490234e+00 -6.823022663593292236e-02 -2.805136889219284058e-02 -2.888447791337966919e-02 3.020837716758251190e-02
4.420000000000000000e+02 1.506651687622070312e+01 1.667363405227661133e+00 -4.072495400905609131e-01 -7.331656813621520996e-01 -3.421245515346527100e-01 6.485775113105773926e-01
4.430000000000000000e+02 1.448293590545654297e+01 8.383871078491210938e+00 -4.779464900493621826e-01 -1.711384296417236328e+00 -6.567992568016052246e-01 6.696895956993103027e-01
4.440000000000000000e+02 1.446090602874755859e+01 1.096016979217529297e+01 -3.954404592514038086e-02 -7.071048021316528320e-01 -2.239946573972702026e-01 1.573928296566009521e-01
4.450000000000000000e+02 1.461444664001464844e+01 1.228735160827636719e+01 1.080763339996337891e-01 -1.924841701984405518e-01 -2.532235160470008850e-02 1.834367215633392334e-01
4.460000000000000000e+02 1.496866989135742188e+01 1.355826282501220703e+01 2.589800357818603516e-01 3.172788321971893311e-01 1.728776544332504272e-01 3.605626523494720459e-01
4.470000000000000000e+02 6.919875335693359375e+01 -9.875301361083984375e+00 7.084913253784179688e-01 8.903627991676330566e-01 4.796562194824218750e-01 -8.145072460174560547e-01
4.480000000000000000e+02 6.871047973632812500e+01 -1.029103279113769531e+01 2.680641114711761475e-01 -6.812562048435211182e-02 5.998154729604721069e-02 -1.354728341102600098e-01
4.490000000000000000e+02 6.774711608886718750e+01 -7.160025119781494141e+00 -2.005604505538940430e+00 9.887480139732360840e-01 -3.050569593906402588e-01 -3.851164579391479492e-01
4.500000000000000000e+02 6.668013000488281250e+01 -7.019471168518066406e+00 -3.812484264373779297e+00 5.444968491792678833e-02 -1.127410411834716797e+00 4.673236608505249023e-01
4.510000000000000000e+02 7.034526062011718750e+01 -1.376409339904785156e+01 1.816940426826477051e+00 1.469367861747741699e+00 9.858924746513366699e-01 1.262336850166320801e+00
4.520000000000000000e+02 6.545191955566406250e+01 -1.807443428039550781e+01 -5.347855091094970703e-01 -6.047528982162475586e-01 -3.418615162372589111e-01 -5.413734912872314453e-01
4.530000000000000000e+02 6.185142898559570312e+01 -2.235973739624023438e+01 -1.271987557411193848e+00 -1.200156927108764648e+00 -7.416433691978454590e-01 -1.213492393493652344e+00
4.540000000000000000e+02 6.086977005004882812e+01 -2.338783645629882812e+01 -1.569811344146728516e+00 -1.305102586746215820e+00 -8.624742031097412109e-01 -1.378191590309143066e+00
4.550000000000000000e+02 6.062514114379882812e+01 -2.534843826293945312e+01 -1.312473058700561523e+00 -6.605219244956970215e-01 -5.918985009193420410e-01 -8.600745201110839844e-01
4.560000000000000000e+02 5.632405090332031250e+01 -2.698002815246582031e+01 -1.948885560035705566e+00 -8.399522900581359863e-01 -8.366513848304748535e-01 -1.235221743583679199e+00
4.570000000000000000e+02 5.847857284545898438e+01 -4.053791809082031250e+01 9.016388058662414551e-01 3.628567755222320557e-01 3.793486654758453369e-01 -1.938299648463726044e-02
4.580000000000000000e+02 6.313291168212890625e+01 -4.069347763061523438e+01 8.552223443984985352e-01 1.930175185203552246e+00 8.356192708015441895e-01 7.998178899288177490e-02
4.590000000000000000e+02 6.787897491455078125e+01 -4.096303558349609375e+01 6.288853883743286133e-01 3.939392566680908203e+00 1.370483398437500000e+00 8.560806512832641602e-02
4.600000000000000000e+02 7.245343780517578125e+01 -3.885029983520507812e+01 3.231860697269439697e-01 6.357938289642333984e+00 2.004337310791015625e+00 1.679143607616424561e-01
4.610000000000000000e+02 7.924095916748046875e+01 -3.340092468261718750e+01 -3.688441589474678040e-02 1.024288654327392578e+01 3.061800718307495117e+00 8.292613923549652100e-02
4.620000000000000000e+02 7.779406738281250000e+01 -3.055389976501464844e+01 1.270812191069126129e-02 9.679379463195800781e+00 2.907626390457153320e+00 2.122338265180587769e-01
4.630000000000000000e+02 7.935269165039062500e+01 -2.645098495483398438e+01 -1.644250564277172089e-02 1.103047180175781250e+01 3.304208755493164062e+00 2.212558314204216003e-02
4.640000000000000000e+02 6.794313812255859375e+01 -2.377170181274414062e+01 -6.065776944160461426e-01 3.469620227813720703e+00 8.589127659797668457e-01 6.054400801658630371e-01
4.650000000000000000e+02 6.635942840576171875e+01 -2.543038749694824219e+01 -5.330346226692199707e-01 2.466472148895263672e+00 5.800312757492065430e-01 4.660170674324035645e-01
4.660000000000000000e+02 7.301548767089843750e+01 -3.131096839904785156e+01 3.323470591567456722e-04 6.911104679107666016e+00 2.073431015014648438e+00 5.340573191642761230e-01
4.670000000000000000e+02 6.343412780761718750e+01 -2.967603874206542969e+01 -8.308310061693191528e-02 1.369788646697998047e+00 3.860116899013519287e-01 2.601734101772308350e-01
4.680000000000000000e+02 6.447460937500000000e+01 -3.188398742675781250e+01 2.272673696279525757e-01 2.036449670791625977e+00 6.791151165962219238e-01 3.863182365894317627e-01
4.690000000000000000e+02 5.555851364135742188e+01 -2.903326988220214844e+01 -1.120523095130920410e+00 -7.022615671157836914e-01 -5.468354225158691406e-01 -8.745009899139404297e-01
4.700000000000000000e+02 6.747254943847656250e+01 -1.406887340545654297e+01 -1.879523992538452148e-01 -1.125109434127807617e+00 -3.939185440540313721e-01 -4.449311494827270508e-01
4.710000000000000000e+02 6.947837066650390625e+01 -1.392341804504394531e+01 9.339905977249145508e-01 8.086530566215515137e-01 5.227931141853332520e-01 3.384792804718017578e-01
4.720000000000000000e+02 5.508098220825195312e+01 -2.763854217529296875e+01 -1.890460729598999023e+00 -7.188836932182312012e-01 -7.828032970428466797e-01 -1.116209626197814941e+00
4.730000000000000000e+02 5.012162780761718750e+01 -3.004328536987304688e+01 -1.202114224433898926e+00 -3.405602276325225830e-01 -4.628023505210876465e-01 -6.103031039237976074e-01
4.740000000000000000e+02 4.727394485473632812e+01 -4.119645690917968750e+01 3.855147659778594971e-01 -5.072790384292602539e-01 -3.652928769588470459e-02 -6.290534138679504395e-02
4.750000000000000000e+02 4.842053222656250000e+01 -3.470330810546875000e+01 -5.782857164740562439e-02 -4.530203640460968018e-01 -1.532546877861022949e-01 -4.452112913131713867e-01
4.760000000000000000e+02 4.621070480346679688e+01 -3.129485702514648438e+01 -5.394949316978454590e-01 -8.391469717025756836e-02 -1.870228946208953857e-01 -2.273288220167160034e-01
4.770000000000000000e+02 4.365117645263671875e+01 -3.604159545898437500e+01 8.307857438921928406e-03 -2.499943226575851440e-01 -7.250594347715377808e-02 -2.385118156671524048e-01
4.780000000000000000e+02 4.352505874633789062e+01 -3.214900588989257812e+01 -2.805262506008148193e-01 -5.612008273601531982e-02 -1.009938940405845642e-01 -1.539742946624755859e-01
4.790000000000000000e+02 3.900144958496093750e+01 -3.311647415161132812e+01 -3.852332755923271179e-02 -4.015471786260604858e-02 -2.360341325402259827e-02 -4.736665263772010803e-02
4.800000000000000000e+02 3.314217376708984375e+01 -3.215102386474609375e+01 3.057070262730121613e-02 5.693826824426651001e-04 9.342025965452194214e-03 -4.680394195020198822e-03
4.810000000000000000e+02 2.898335266113281250e+01 -3.120821380615234375e+01 2.166387997567653656e-02 6.611349526792764664e-04 6.697504315525293350e-03 -4.909873474389314651e-03
4.820000000000000000e+02 2.275300216674804688e+01 -2.817798995971679688e+01 4.400014877319335938e-03 8.713339921087026596e-04 1.581404707394540310e-03 -1.490521128289401531e-03
4.830000000000000000e+02 1.851545715332031250e+01 -2.724474334716796875e+01 1.980866072699427605e-03 2.071385970339179039e-04 6.564013892784714699e-04 -1.636529486859217286e-04
4.840000000000000000e+02 1.629348754882812500e+01 -2.530986785888671875e+01 9.728777222335338593e-04 1.251933135790750384e-04 3.294213092885911465e-04 3.029368963325396180e-05
4.850000000000000000e+02 1.411213684082031250e+01 -2.097193336486816406e+01 2.010313473874703050e-04 1.708623603917658329e-04 1.115681152441538870e-04 1.663911243667826056e-04
4.860000000000000000e+02 1.214627265930175781e+01 -1.892268180847167969e+01 1.179322352982126176e-04 7.669095066376030445e-05 5.838695506099611521e-05 1.446719688829034567e-04
4.870000000000000000e+02 1.029265213012695312e+01 -1.673203468322753906e+01 8.997474651550874114e-05 8.538670226698741317e-05 5.260843317955732346e-05 1.475565222790464759e-04
4.880000000000000000e+02 8.586438179016113281e+00 -1.615897941589355469e+01 6.911810487508773804e-05 1.147509392467327416e-04 5.516071178135462105e-05 1.126792922150343657e-04
4.890000000000000000e+02 8.873001098632812500e+00 -1.302747631072998047e+01 -2.580245200078934431e-04 -2.972087531816214323e-04 -1.665699819568544626e-04 -7.238725811475887895e-05
4.900000000000000000e+02 4.192692279815673828e+00 -1.871350169181823730e+00 -1.938157765835057944e-05 7.386697689071297646e-06 -3.598463990783784539e-06 5.165637958270963281e-06
4.910000000000000000e+02 5.329238176345825195e-01 -1.070801639556884766e+01 1.306565536651760340e-04 8.954122677096165717e-06 4.188320235698483884e-05 4.901556849290500395e-08
4.920000000000000000e+02 1.597030520439147949e+00 -1.072407627105712891e+01 -8.626278577139601111e-05 7.566013664472848177e-06 -2.360903272347059101e-05 -1.793486808310262859e-05
4.930000000000000000e+02 7.028139829635620117e-01 -1.779489135742187500e+01 -4.763024116982705891e-05 -2.852896614058408886e-05 -2.284776201122440398e-05 1.232516387972282246e-05
4.940000000000000000e+02 2.085897207260131836e+00 -1.783425521850585938e+01 5.637292997562326491e-05 -2.857206482076435350e-06 1.605471697985194623e-05 -5.981950016575865448e-05
4.950000000000000000e+02 6.334642171859741211e-01 -2.495661163330078125e+01 8.397558303840924054e-06 -1.268569485546322539e-05 -1.286441147385630757e-06 1.947364580701105297e-05
4.960000000000000000e+02 7.409018278121948242e-01 -3.188039207458496094e+01 1.200273618451319635e-05 4.372541443444788456e-04 1.347770594293251634e-04 1.072971426765434444e-04
4.970000000000000000e+02 4.867090225219726562e+00 -4.023942565917968750e+01 -2.672596019692718983e-04 3.362553543411195278e-04 2.069872061838395894e-05 2.537986729294061661e-04
4.980000000000000000e+02 8.076518774032592773e-01 -3.732363891601562500e+01 5.247091758064925671e-05 9.612163412384688854e-04 3.041061863768845797e-04 2.126199251506477594e-05
4.990000000000000000e+02 8.519050598144531250e+00 -3.767273712158203125e+01 -4.666130116675049067e-04 1.156434183940291405e-03 2.069463516818359494e-04 4.417630261741578579e-04
5.000000000000000000e+02 5.262106418609619141e+00 -3.192128944396972656e+01 -5.725598384742625058e-05 3.031944506801664829e-04 7.378154259640723467e-05 3.850527282338589430e-04
5.010000000000000000e+02 1.419743633270263672e+01 -2.313641548156738281e+01 4.589474410749971867e-04 1.237312972079962492e-04 1.748036302160471678e-04 1.015141097013838589e-04
5.020000000000000000e+02 1.236021709442138672e+01 -2.296939659118652344e+01 4.129610315430909395e-04 1.383529252052539960e-06 1.243033620994538069e-04 7.931740401545539498e-05
5.030000000000000000e+02 6.634486317634582520e-01 -2.355086517333984375e+01 1.027239704853855073e-05 -4.392100890981964767e-05 -1.009458355838432908e-05 2.575249709479976445e-06
5.040000000000000000e+02 2.398991584777832031e+01 -2.885896492004394531e+01 6.045387126505374908e-03 5.392294260673224926e-04 1.975385006517171860e-03 -2.095338655635714531e-03
5.050000000000000000e+02 2.032210350036621094e+01 -2.674679946899414062e+01 2.357367891818284988e-03 8.247442310675978661e-04 9.546336368657648563e-04 -8.216122514568269253e-04
5.060000000000000000e+02 1.013441276550292969e+01 -1.216817951202392578e+01 5.494541710504563525e-06 2.597079146653413773e-04 7.956073386594653130e-05 1.221402817463967949e-05
5.070000000000000000e+02 1.296307659149169922e+01 -1.184146118164062500e+01 -1.447958402422955260e-05 9.667230187915265560e-05 2.465781471983063966e-05 1.874110057542566210e-05
5.080000000000000000e+02 1.888283348083496094e+01 -7.165778160095214844e+00 -2.645781023602467030e-06 -1.173324926639907062e-05 -4.313708814152050763e-06 -6.012422545609297231e-06
5.090000000000000000e+02 1.873182487487792969e+01 -1.090229415893554688e+01 2.797685283439932391e-06 -4.830527177546173334e-05 -1.365227581118233502e-05 -7.048919087537797168e-06
5.100000000000000000e+02 1.972341728210449219e+01 -8.303332328796386719e+00 4.252854523656424135e-06 -1.536011768621392548e-05 -3.332179176140925847e-06 -7.327143521251855418e-06
5.110000000000000000e+02 1.870307540893554688e+01 -8.162589073181152344e+00 5.983192295389017090e-06 -1.769145455909892917e-05 -3.512478770062443800e-06 -1.074582905857823789e-05
5.120000000000000000e+02 2.116438674926757812e+01 -1.074943161010742188e+01 -3.927266902792325709e-07 -7.433451173710636795e-06 -2.347853296669200063e-06 1.214189182974223513e-06
5.130000000000000000e+02 1.902940750122070312e+01 -1.387173461914062500e+01 2.435431088088080287e-05 -5.086602322990074754e-05 -7.953513886604923755e-06 1.551908644614741206e-05
5.140000000000000000e+02 2.217141151428222656e+01 -1.280684661865234375e+01 -3.696386556839570403e-06 -1.872363782240427099e-06 -1.670625124461366795e-06 4.180561063549248502e-06
5.150000000000000000e+02 2.346980476379394531e+01 -1.483862304687500000e+01 1.187986526929307729e-05 -5.398299890657654032e-06 1.944469659065362066e-06 -5.142475856700912118e-06
5.160000000000000000e+02 2.480687522888183594e+01 -1.699405860900878906e+01 -8.184300895663909614e-06 -1.256334053323371336e-05 -6.224292519618757069e-06 -8.897845873434562236e-06
5.170000000000000000e+02 1.719183158874511719e+01 -5.292453289031982422e+00 4.394994903123006225e-06 1.128170515585225075e-05 4.703009835793636739e-06 1.958369693966233172e-06
5.180000000000000000e+02 1.583407878875732422e+01 -4.242970943450927734e+00 4.155036549491342157e-06 7.645512596354819834e-06 3.540164925652788952e-06 1.370706399939081166e-06
5.190000000000000000e+02 1.269940185546875000e+01 -2.716191768646240234e+00 2.605179815873270854e-06 -1.100726407798902073e-07 7.485321020794799551e-07 -8.649758456158451736e-06
5.200000000000000000e+02 1.102486228942871094e+01 -2.203385353088378906e+00 2.072096776828402653e-06 5.071892701380420476e-07 7.737858140899334103e-07 -1.683348273218143731e-05
5.210000000000000000e+02 9.413046836853027344e+00 -1.881081938743591309e+00 -1.050669311553065199e-06 -7.128143693080346566e-07 -5.290451099426718429e-07 -1.804333805921487510e-05
5.220000000000000000e+02 1.173667240142822266e+01 -1.067872714996337891e+01 2.284879701619502157e-05 5.643219628836959600e-05 2.378429780947044492e-05 4.290755532565526664e-05
5.230000000000000000e+02 8.675182342529296875e+00 -1.862446308135986328e+00 6.064131412131246179e-06 -1.509223238826962188e-06 1.366472474728652742e-06 1.370385780319338664e-05
5.240000000000000000e+02 1.756928253173828125e+01 -4.076427459716796875e+01 -2.710824832320213318e-03 1.357946777716279030e-03 -4.058634513057768345e-04 4.577066574711352587e-04
5.250000000000000000e+02 2.026873970031738281e+01 -2.985639762878417969e+01 3.820876125246286392e-03 -9.162245551124215126e-04 8.713955176062881947e-04 4.162582044955343008e-04
5.260000000000000000e+02 2.238498878479003906e+01 -3.790176391601562500e+01 -3.892632434144616127e-03 -1.072247687261551619e-04 -1.199957216158509254e-03 3.794000484049320221e-03
5.270000000000000000e+02 2.193674278259277344e+01 -3.510485076904296875e+01 1.282879733480513096e-03 3.710886812768876553e-04 4.961905069649219513e-04 3.438756102696061134e-03
5.280000000000000000e+02 2.524862098693847656e+01 -2.945497894287109375e+01 7.924010977149009705e-03 1.055799890309572220e-03 2.693943446502089500e-03 -2.611786127090454102e-03
5.290000000000000000e+02 2.755603981018066406e+01 -4.115467834472656250e+01 -1.045172195881605148e-02 -3.847855608910322189e-03 -4.289873410016298294e-03 7.821961480658501387e-05
5.300000000000000000e+02 3.188317680358886719e+01 -3.708675384521484375e+01 -9.005285799503326416e-03 -1.180064957588911057e-02 -6.241780705749988556e-03 -6.698591168969869614e-03
5.310000000000000000e+02 3.176914405822753906e+01 -3.189091110229492188e+01 2.882421389222145081e-02 4.633359203580766916e-04 8.786264806985855103e-03 -4.077197983860969543e-03
5.320000000000000000e+02 3.714914703369140625e+01 -3.746291351318359375e+01 -1.490607950836420059e-02 -6.201308220624923706e-02 -2.307574823498725891e-02 -4.632427543401718140e-02
5.330000000000000000e+02 3.740398025512695312e+01 -3.282087326049804688e+01 1.770497183315455914e-03 -7.286039646714925766e-03 -1.654662773944437504e-03 -1.698008179664611816e-02
5.340000000000000000e+02 7.849173736572265625e+01 -4.028335189819335938e+01 -6.860882788896560669e-02 9.251027107238769531e+00 2.754725694656372070e+00 2.410718947649002075e-01
5.350000000000000000e+02 7.745337677001953125e+01 -3.699968338012695312e+01 -2.758469618856906891e-02 9.015771865844726562e+00 2.696456193923950195e+00 1.979465186595916748e-01
5.360000000000000000e+02 7.797862243652343750e+01 1.129633522033691406e+01 2.811157517135143280e-02 7.206161975860595703e+00 2.170282125473022461e+00 -3.909584879875183105e-01
5.370000000000000000e+02 7.932920074462890625e+01 1.677622985839843750e+01 1.445031259208917618e-03 6.655382156372070312e+00 1.997048139572143555e+00 -8.734627813100814819e-02
5.380000000000000000e+02 7.200685119628906250e+01 2.393144226074218750e+01 1.526617854833602905e-01 4.711275100708007812e+00 1.459181070327758789e+00 -4.663819074630737305e-01
5.390000000000000000e+02 6.191566467285156250e+01 3.261009597778320312e+01 4.037965834140777588e-01 2.974265575408935547e+00 1.013418674468994141e+00 -3.402673602104187012e-01
5.400000000000000000e+02 7.796109008789062500e+01 1.965185737609863281e+01 1.643313094973564148e-02 6.071928977966308594e+00 1.826508641242980957e+00 -2.166243493556976318e-01
5.410000000000000000e+02 7.927857208251953125e+01 2.376325988769531250e+01 6.666485569439828396e-05 5.895195484161376953e+00 1.768578648567199707e+00 -5.636462941765785217e-02
5.420000000000000000e+02 7.316359710693359375e+01 3.113331413269042969e+01 9.333691000938415527e-02 4.688496589660644531e+00 1.434550046920776367e+00 -2.605964839458465576e-01
5.430000000000000000e+02 6.248807144165039062e+01 4.011596298217773438e+01 3.801434040069580078e-01 3.058303356170654297e+00 1.031533956527709961e+00 -7.775291800498962402e-02
5.440000000000000000e+02 6.060690689086914062e+01 2.973553276062011719e+01 4.421374201774597168e-01 2.724035501480102539e+00 9.498518705368041992e-01 -3.654029071331024170e-01
5.450000000000000000e+02 7.647170257568359375e+01 2.255383300781250000e+01 4.178533330559730530e-02 5.571018695831298828e+00 1.683841228485107422e+00 -2.862496972084045410e-01
5.460000000000000000e+02 7.921792602539062500e+01 2.940864181518554688e+01 7.402939256280660629e-03 5.509924888610839844e+00 1.655198335647583008e+00 -3.714824095368385315e-02
5.470000000000000000e+02 7.173791503906250000e+01 3.783522033691406250e+01 1.120831817388534546e-01 4.366888046264648438e+00 1.343691349029541016e+00 -9.928120672702789307e-02
5.480000000000000000e+02 7.917286682128906250e+01 3.230969238281250000e+01 6.544754374772310257e-03 5.398698806762695312e+00 1.621573090553283691e+00 -2.775645814836025238e-02
5.490000000000000000e+02 7.947872161865234375e+01 3.745652770996093750e+01 -7.640941068530082703e-03 5.216563701629638672e+00 1.562676787376403809e+00 -1.551900710910558701e-02
5.500000000000000000e+02 7.783361816406250000e+01 3.781150817871093750e+01 -1.860237796790897846e-03 5.104568958282470703e+00 1.530812621116638184e+00 -7.469391822814941406e-02
5.510000000000000000e+02 4.237688827514648438e+01 4.036622619628906250e+01 6.229119300842285156e-01 7.604076266288757324e-01 4.149958789348602295e-01 1.769754849374294281e-02
5.520000000000000000e+02 4.425869369506835938e+01 3.292126464843750000e+01 6.229581236839294434e-01 8.498884439468383789e-01 4.418539702892303467e-01 7.186751067638397217e-02
5.530000000000000000e+02 4.656428146362304688e+01 2.304079437255859375e+01 5.880046486854553223e-01 6.922830939292907715e-01 3.840863108634948730e-01 2.760703861713409424e-01
5.540000000000000000e+02 4.355707168579101562e+01 2.315277862548828125e+01 4.367966949939727783e-01 7.540105581283569336e-01 3.572421669960021973e-01 3.074704408645629883e-01
5.550000000000000000e+02 3.724798583984375000e+01 4.050448989868164062e+01 5.770018100738525391e-01 4.545049667358398438e-01 3.094520568847656250e-01 2.632948011159896851e-02
5.560000000000000000e+02 4.296643447875976562e+01 3.636631011962890625e+01 6.184680461883544922e-01 7.857134938240051270e-01 4.212544858455657959e-01 4.712084680795669556e-02
5.570000000000000000e+02 3.436203002929687500e+01 2.949717140197753906e+01 4.709109961986541748e-01 2.323765307664871216e-01 2.109862565994262695e-01 1.666408628225326538e-01
5.580000000000000000e+02 4.082925415039062500e+01 2.358917045593261719e+01 4.047469496726989746e-01 6.677242517471313477e-01 3.217413723468780518e-01 2.402600347995758057e-01
5.590000000000000000e+02 3.918850326538085938e+01 2.452477455139160156e+01 4.090892970561981201e-01 5.531598329544067383e-01 2.886747419834136963e-01 2.098445892333984375e-01
5.600000000000000000e+02 3.238528060913085938e+01 4.101496505737304688e+01 4.992164671421051025e-01 1.682699322700500488e-01 2.002459168434143066e-01 2.439469099044799805e-02
5.610000000000000000e+02 3.185430335998535156e+01 3.811903381347656250e+01 4.913320541381835938e-01 1.539949476718902588e-01 1.935981065034866333e-01 6.942448019981384277e-02
5.620000000000000000e+02 3.120014953613281250e+01 2.868362045288085938e+01 4.359303712844848633e-01 2.514111623167991638e-02 1.383214443922042847e-01 2.046629637479782104e-01
5.630000000000000000e+02 2.850486755371093750e+01 2.368470382690429688e+01 3.653245866298675537e-01 -2.117749005556106567e-01 4.606490954756736755e-02 2.807394862174987793e-01
5.640000000000000000e+02 3.227305984497070312e+01 2.517986869812011719e+01 3.938467502593994141e-01 3.838160634040832520e-02 1.296685039997100830e-01 2.058854103088378906e-01
5.650000000000000000e+02 1.779202079772949219e+01 4.060976791381835938e+01 1.859739422798156738e-01 -3.780462741851806641e-01 -5.762169882655143738e-02 4.152662307024002075e-02
5.660000000000000000e+02 2.286870002746582031e+01 4.067794799804687500e+01 2.867786586284637451e-01 -2.140576094388961792e-01 2.181631326675415039e-02 4.374143108725547791e-02
5.670000000000000000e+02 2.579927253723144531e+01 3.011092567443847656e+01 3.685767650604248047e-01 -1.640697121620178223e-01 6.135211512446403503e-02 2.694076895713806152e-01
5.680000000000000000e+02 2.315486907958984375e+01 2.333863449096679688e+01 3.122190833091735840e-01 -3.367957770824432373e-01 -7.373009342700242996e-03 4.784481823444366455e-01
5.690000000000000000e+02 2.073928070068359375e+01 2.333951759338378906e+01 2.349143773317337036e-01 -2.501365840435028076e-01 -4.566663410514593124e-03 5.215512514114379883e-01
5.700000000000000000e+02 1.754556846618652344e+01 3.707277297973632812e+01 1.809846162796020508e-01 -3.756293058395385742e-01 -5.839340761303901672e-02 1.119356006383895874e-01
5.710000000000000000e+02 1.342076301574707031e+01 3.156302261352539062e+01 8.479905873537063599e-02 -4.706098437309265137e-01 -1.157432347536087036e-01 1.754455268383026123e-01
5.720000000000000000e+02 1.495745277404785156e+01 2.285306358337402344e+01 1.110155135393142700e-01 -1.751551479101181030e-01 -1.924188807606697083e-02 3.012230992317199707e-01
5.730000000000000000e+02 1.280966854095458984e+01 4.090950775146484375e+01 8.906816691160202026e-02 -5.919397473335266113e-01 -1.508614718914031982e-01 2.457613311707973480e-02
5.740000000000000000e+02 5.286853313446044922e+00 4.031172561645507812e+01 -7.639991817995905876e-04 -1.019314408302307129e+00 -3.060235083103179932e-01 3.024267777800559998e-02
5.750000000000000000e+02 7.425835609436035156e+00 3.427586746215820312e+01 2.711801230907440186e-02 -8.211048245429992676e-01 -2.381960302591323853e-01 6.356969475746154785e-02
5.760000000000000000e+02 2.093958854675292969e+00 4.162436294555664062e+01 -1.993295177817344666e-02 -1.236328721046447754e+00 -3.768784999847412109e-01 -5.646005738526582718e-03
5.770000000000000000e+02 5.516335010528564453e+00 3.762942504882812500e+01 1.535784639418125153e-02 -9.892132282257080078e-01 -2.921566367149353027e-01 4.829824343323707581e-02
5.780000000000000000e+02 6.558599472045898438e-01 2.057153892517089844e+01 1.179447630420327187e-03 -1.083238124847412109e+00 -3.246175944805145264e-01 2.585610747337341309e-02
5.790000000000000000e+02 1.900945305824279785e+00 1.625473213195800781e+01 1.276246272027492523e-02 -7.593027949333190918e-01 -2.239621132612228394e-01 1.388622671365737915e-01
5.800000000000000000e+02 1.191560649871826172e+01 1.009273624420166016e+01 -2.379059344530105591e-01 -5.317278504371643066e-01 -2.308901399374008179e-01 6.447570323944091797e-01
5.810000000000000000e+02 1.292697906494140625e+01 1.515473556518554688e+01 5.064544081687927246e-01 -3.138058781623840332e-01 5.779455602169036865e-02 3.762007057666778564e-01
5.820000000000000000e+02 6.394456028938293457e-01 1.489140605926513672e+01 -2.704913495108485222e-03 -7.134780287742614746e-01 -2.148548811674118042e-01 5.598352476954460144e-02
5.830000000000000000e+02 1.712578177452087402e+00 9.165887832641601562e+00 -1.550492364913225174e-02 -2.319416552782058716e-01 -7.423397153615951538e-02 1.271819472312927246e-01
5.840000000000000000e+02 1.321144676208496094e+01 9.843750953674316406e+00 -2.550375163555145264e-01 -8.648192882537841797e-01 -3.359570205211639404e-01 6.167607903480529785e-01
5.850000000000000000e+02 5.458579540252685547e+00 1.860470771789550781e+00 -5.185234174132347107e-02 -1.752952113747596741e-02 -2.081455849111080170e-02 2.094400487840175629e-02
5.860000000000000000e+02 1.226064300537109375e+01 1.379650950431823730e+00 -3.695732653141021729e-01 -2.585220336914062500e-01 -1.884285956621170044e-01 3.229802548885345459e-01
5.870000000000000000e+02 1.768110656738281250e+01 -8.984947204589843750e-01 -8.077657222747802734e-01 -7.931507825851440430e-01 -4.802749454975128174e-01 8.098625540733337402e-01
5.880000000000000000e+02 3.908082962036132812e+01 -1.845327568054199219e+01 -3.953396975994110107e-01 8.823224343359470367e-03 -1.159549430012702942e-01 -1.714035309851169586e-02
5.890000000000000000e+02 4.437577819824218750e+01 -1.739322662353515625e+01 -5.795612931251525879e-01 -3.970308974385261536e-02 -1.857793182134628296e-01 -1.508210897445678711e-01
5.900000000000000000e+02 4.329076004028320312e+01 -1.333654594421386719e+01 -6.923695206642150879e-01 1.114738583564758301e-01 -1.742687076330184937e-01 -1.271746703423559666e-03
5.910000000000000000e+02 4.609356307983398438e+01 -5.298558473587036133e-01 -4.872956871986389160e-01 1.747931241989135742e-01 -9.375076740980148315e-02 3.957273066043853760e-01
5.920000000000000000e+02 4.633001327514648438e+01 7.064266204833984375e+00 -4.480288624763488770e-01 -2.168022245168685913e-01 -1.994493156671524048e-01 2.748911976814270020e-01
5.930000000000000000e+02 4.293185424804687500e+01 -1.657753944396972656e+01 -5.641372799873352051e-01 2.272622101008892059e-02 -1.624233275651931763e-01 -7.460875064134597778e-02
5.940000000000000000e+02 4.307062911987304688e+01 -1.778132057189941406e+01 -4.961127042770385742e-01 -1.608628779649734497e-02 -1.536597013473510742e-01 -1.185681000351905823e-01
5.950000000000000000e+02 5.315545272827148438e+01 -1.357757472991943359e+01 -1.030412793159484863e+00 -2.477045059204101562e-01 -3.834351897239685059e-01 -5.097365379333496094e-01
5.960000000000000000e+02 5.721971130371093750e+01 -9.661282539367675781e+00 -1.879824757575988770e+00 -2.609624564647674561e-01 -6.422361731529235840e-01 -7.317812442779541016e-01
5.970000000000000000e+02 6.395196151733398438e+01 -6.989742279052734375e+00 -6.030605316162109375e+00 -1.055632948875427246e+00 -2.125871419906616211e+00 -1.589631915092468262e+00
5.980000000000000000e+02 5.293709182739257812e+01 6.022577285766601562e+00 4.366399049758911133e-01 5.954362750053405762e-01 3.096228539943695068e-01 4.769570529460906982e-01
5.990000000000000000e+02 5.509803390502929688e+01 -6.718222141265869141e+00 -1.625900387763977051e+00 2.429206818342208862e-01 -4.148939251899719238e-01 -4.049554839730262756e-02
6.000000000000000000e+02 5.770361328125000000e+01 -7.952755451202392578e+00 -2.140855073928833008e+00 -3.568753972649574280e-02 -6.529628038406372070e-01 -5.168682336807250977e-01
6.010000000000000000e+02 4.917283630371093750e+01 -6.252512454986572266e+00 -1.018497824668884277e+00 2.889202833175659180e-01 -2.188732475042343140e-01 2.016261667013168335e-01
6.020000000000000000e+02 5.054109191894531250e+01 -2.158993482589721680e+00 -7.530435323715209961e-01 3.249931335449218750e-01 -1.284151077270507812e-01 4.557190537452697754e-01
6.030000000000000000e+02 4.849573516845703125e+01 -1.330955410003662109e+01 -8.748553991317749023e-01 4.432178661227226257e-02 -2.491600960493087769e-01 -1.967029124498367310e-01
6.040000000000000000e+02 5.074116134643554688e+01 -1.492897891998291016e+01 -7.721282839775085449e-01 -1.352198421955108643e-01 -2.722044587135314941e-01 -3.551382422447204590e-01
6.050000000000000000e+02 7.250767517089843750e+01 1.022110462188720703e+01 2.513395547866821289e-01 5.428461551666259766e+00 1.703940391540527344e+00 -1.054427742958068848e+00
6.060000000000000000e+02 7.228774261474609375e+01 9.010135650634765625e+00 2.483978271484375000e-01 5.397414684295654297e+00 1.693743705749511719e+00 -1.133170604705810547e+00
6.070000000000000000e+02 4.836803054809570312e+01 2.519618988037109375e+01 6.697834134101867676e-01 8.537058234214782715e-01 4.570467770099639893e-01 7.268979400396347046e-02
6.080000000000000000e+02 5.433338546752929688e+01 2.295103645324707031e+01 5.793162584304809570e-01 1.404419422149658203e+00 5.951207280158996582e-01 -4.270277321338653564e-01
6.090000000000000000e+02 7.729465007781982422e+00 2.501290702819824219e+01 5.933536961674690247e-02 -6.767181158065795898e-01 -1.852148324251174927e-01 1.327582597732543945e-01
6.100000000000000000e+02 8.887522697448730469e+00 2.313379669189453125e+01 1.029922589659690857e-01 -5.677304863929748535e-01 -1.394214779138565063e-01 1.669008284807205200e-01
6.110000000000000000e+02 2.751522064208984375e+01 1.705077552795410156e+01 -3.667955100536346436e-02 -4.634130001068115234e-01 -1.500277668237686157e-01 2.813044786453247070e-01
6.120000000000000000e+02 2.759111595153808594e+01 1.209833717346191406e+01 -3.824084699153900146e-01 -3.986801505088806152e-01 -2.343265861272811890e-01 5.293328762054443359e-01
6.130000000000000000e+02 3.905007553100585938e+01 1.158748817443847656e+01 7.702881842851638794e-02 5.277923941612243652e-01 1.814463585615158081e-01 5.218864083290100098e-01
6.140000000000000000e+02 3.894427108764648438e+01 9.166276931762695312e+00 -1.635726243257522583e-01 4.781283438205718994e-01 9.436670690774917603e-02 4.974009692668914795e-01
6.150000000000000000e+02 3.918653106689453125e+01 1.731443595886230469e+01 3.910457789897918701e-01 6.015017032623291016e-01 2.977642416954040527e-01 2.799883484840393066e-01
6.160000000000000000e+02 5.453174972534179688e+01 9.005770683288574219e+00 6.238808035850524902e-01 1.306863427162170410e+00 5.792232751846313477e-01 7.068808674812316895e-01
6.170000000000000000e+02 5.484263610839843750e+01 5.486948966979980469e+00 2.884304523468017578e-01 8.214046955108642578e-01 3.329505324363708496e-01 3.490346968173980713e-01
6.180000000000000000e+02 6.321663665771484375e+01 -6.007933139801025391e+00 -3.873759508132934570e+00 -7.138710618019104004e-01 -1.376289129257202148e+00 -3.807070851325988770e-01
6.190000000000000000e+02 6.185470581054687500e+01 1.237230300903320312e+01 6.449678540229797363e-01 2.424433946609497070e+00 9.208205342292785645e-01 -5.828480720520019531e-01
6.200000000000000000e+02 2.729517173767089844e+01 1.092578220367431641e+01 -2.840892672538757324e-01 -4.215798377990722656e-01 -2.117007374763488770e-01 6.410265564918518066e-01
6.210000000000000000e+02 2.881665229797363281e+01 5.602962493896484375e+00 1.744560897350311279e-01 -1.453546285629272461e-01 8.730437606573104858e-03 3.899405598640441895e-01
6.220000000000000000e+02 2.630707359313964844e+01 -4.129410266876220703e+00 -6.851282119750976562e-01 -3.011128492653369904e-02 -2.145718485116958618e-01 3.538826704025268555e-01
6.230000000000000000e+02 3.523824691772460938e+01 -1.267362689971923828e+01 -5.016250014305114746e-01 9.574748575687408447e-02 -1.217632591724395752e-01 1.810353696346282959e-01
6.240000000000000000e+02 4.798738098144531250e+01 -1.226245498657226562e+01 -9.031006693840026855e-01 1.018695682287216187e-01 -2.403693348169326782e-01 -1.325652003288269043e-01
6.250000000000000000e+02 3.982127761840820312e+01 4.971955299377441406e+00 -3.558041751384735107e-01 3.062362670898437500e-01 -1.487036794424057007e-02 3.479165732860565186e-01
6.260000000000000000e+02 4.129113769531250000e+01 -5.747231006622314453e+00 -6.630966663360595703e-01 2.229431569576263428e-01 -1.320460587739944458e-01 2.546277344226837158e-01
6.270000000000000000e+02 4.227197265625000000e+01 -6.304073333740234375e+00 -7.041525840759277344e-01 2.295238077640533447e-01 -1.423886418342590332e-01 2.379095256328582764e-01
6.280000000000000000e+02 6.356617355346679688e+01 9.794480800628662109e-01 9.701977251097559929e-05 1.102817416191101074e+00 3.308743238449096680e-01 -7.469359636306762695e-01
6.290000000000000000e+02 7.355678558349609375e+01 2.088372945785522461e+00 -2.480824291706085205e-01 6.690238475799560547e+00 1.932646751403808594e+00 -1.172094345092773438e+00
6.300000000000000000e+02 7.947426605224609375e+01 -5.506279945373535156e+00 -8.596986532211303711e-02 9.202874183654785156e+00 2.735071420669555664e+00 4.433000087738037109e-01
6.310000000000000000e+02 5.905007553100585938e+01 -9.890037536621093750e+00 -2.112092733383178711e+00 -6.650101542472839355e-01 -8.331308364868164062e-01 -1.145236968994140625e+00
6.320000000000000000e+02 3.813101577758789062e+01 -5.863751411437988281e+00 -6.166428327560424805e-01 2.064107358455657959e-01 -1.230696365237236023e-01 2.602740526199340820e-01
6.330000000000000000e+02 2.611939048767089844e+01 -5.059310436248779297e+00 -6.900776624679565430e-01 -7.335343211889266968e-02 -2.290293276309967041e-01 3.921559751033782959e-01
6.340000000000000000e+02 3.463167953491210938e+01 -1.340564727783203125e+01 -4.683496057987213135e-01 7.638906687498092651e-02 -1.175881624221801758e-01 1.738812476396560669e-01
6.350000000000000000e+02 6.463150978088378906e-01 -3.047702980041503906e+01 4.542918759398162365e-05 2.885795838665217161e-04 1.002026328933425248e-04 4.477361289900727570e-05
6.360000000000000000e+02 4.849819183349609375e+00 -3.405504989624023438e+01 -1.960119698196649551e-04 4.590989847201853991e-04 7.892610301496461034e-05 5.521642160601913929e-04
6.370000000000000000e+02 7.373831939697265625e+01 -3.252759552001953125e+01 6.288921833038330078e-02 7.254046440124511719e+00 2.195080757141113281e+00 4.874611794948577881e-01
6.380000000000000000e+02 1.920129013061523438e+01 -2.592145538330078125e+01 1.294800196774303913e-03 -2.279533873661421239e-05 3.816014504991471767e-04 -8.259893511421978474e-04
6.390000000000000000e+02 7.169396209716796875e+01 2.558889961242675781e+01 1.394305527210235596e-01 4.617634773254394531e+00 1.427119612693786621e+00 -4.304618835449218750e-01
6.400000000000000000e+02 5.129911804199218750e+01 3.369797515869140625e+01 6.404069662094116211e-01 1.501965045928955078e+00 6.427116394042968750e-01 -7.955984026193618774e-02
6.410000000000000000e+02 5.349405288696289062e+01 3.015300750732421875e+01 6.295140385627746582e-01 1.640059590339660645e+00 6.808720827102661133e-01 -1.908466666936874390e-01
6.420000000000000000e+02 7.140724945068359375e+01 2.889547538757324219e+01 1.453516930341720581e-01 4.486730575561523438e+00 1.389624714851379395e+00 -3.499361276626586914e-01
6.430000000000000000e+02 4.533708190917968750e+01 2.999274444580078125e+01 6.254650354385375977e-01 8.735738396644592285e-01 4.497116506099700928e-01 9.467308223247528076e-02
6.440000000000000000e+02 3.905954360961914062e+01 3.437381744384765625e+01 5.649947524070739746e-01 5.299751758575439453e-01 3.284909725189208984e-01 9.573028236627578735e-02
6.450000000000000000e+02 3.325230407714843750e+01 3.373419189453125000e+01 4.856148958206176758e-01 1.868408620357513428e-01 2.017367333173751831e-01 1.364722698926925659e-01
6.460000000000000000e+02 1.327113628387451172e+01 3.444944000244140625e+01 9.668851643800735474e-02 -5.289964675903320312e-01 -1.296923905611038208e-01 1.278115212917327881e-01
6.470000000000000000e+02 5.056396102905273438e+01 1.885614967346191406e+01 2.783741950988769531e-01 9.684257209300994873e-02 1.125650256872177124e-01 -8.791236579418182373e-02
6.480000000000000000e+02 5.488890838623046875e+01 1.644008064270019531e+01 6.397669315338134766e-01 1.751204371452331543e+00 7.172914147377014160e-01 -7.577875852584838867e-01
6.490000000000000000e+02 4.650498962402343750e+01 5.278791904449462891e+00 -1.570799499750137329e-01 -1.173787787556648254e-01 -8.233761787414550781e-02 2.504046857357025146e-01
6.500000000000000000e+02 4.310675811767578125e+01 9.114130973815917969e+00 -2.196998596191406250e-01 3.629638850688934326e-01 4.297921061515808105e-02 1.369375437498092651e-01
6.510000000000000000e+02 4.639137268066406250e+01 1.922185897827148438e+01 5.648964643478393555e-01 4.534163475036621094e-01 3.054938316345214844e-01 4.627697467803955078e-01
6.520000000000000000e+02 2.248557472229003906e+01 1.569154071807861328e+01 -6.754590272903442383e-01 -5.447422266006469727e-01 -3.660603761672973633e-01 6.011509299278259277e-01
6.530000000000000000e+02 2.047864532470703125e+01 4.125022411346435547e+00 2.939094007015228271e-01 7.716189324855804443e-02 1.113213822245597839e-01 3.144159317016601562e-01
6.540000000000000000e+02 1.434058952331542969e+01 7.194213867187500000e+00 -7.893708348274230957e-01 -1.405642032623291016e+00 -6.585038304328918457e-01 7.268779873847961426e-01
6.550000000000000000e+02 7.022608184814453125e+01 -1.042923069000244141e+01 1.598603487014770508e+00 1.718480706214904785e+00 9.951252341270446777e-01 -1.456847786903381348e+00
6.560000000000000000e+02 7.203727722167968750e+01 -1.056189155578613281e+01 2.464979171752929688e+00 9.201710700988769531e+00 3.500007152557373047e+00 -5.691964149475097656e+00
6.570000000000000000e+02 7.286073303222656250e+01 -1.056755256652832031e+01 4.789943695068359375e-01 1.750199699401855469e+01 5.394297599792480469e+00 -4.460971355438232422e+00
6.580000000000000000e+02 7.307399749755859375e+01 -1.059408283233642578e+01 1.936475485563278198e-01 1.913894271850585938e+01 5.799777030944824219e+00 -3.215352773666381836e+00
6.590000000000000000e+02 7.458244323730468750e+01 -1.241172504425048828e+01 9.904039382934570312e+00 1.571837615966796875e+01 7.686724662780761719e+00 -8.859748244285583496e-01
6.600000000000000000e+02 7.416674804687500000e+01 -1.342344284057617188e+01 4.471885204315185547e+00 1.919491577148437500e+01 7.100040435791015625e+00 -3.176333189010620117e+00
6.610000000000000000e+02 7.949008178710937500e+01 -1.523258113861083984e+01 3.817666321992874146e-02 4.504975318908691406e+00 1.362945556640625000e+00 -7.813189625740051270e-01
6.620000000000000000e+02 7.358020019531250000e+01 -1.378429698944091797e+01 1.037967562675476074e+00 2.099497795104980469e+01 6.609883785247802734e+00 -2.204953730106353760e-01
6.630000000000000000e+02 7.330112457275390625e+01 -1.428160572052001953e+01 -3.361589312553405762e-01 1.800946998596191406e+01 5.301992893218994141e+00 1.901796936988830566e+00
6.640000000000000000e+02 7.166695404052734375e+01 -1.399155426025390625e+01 2.995290756225585938e+00 6.410839080810546875e+00 2.821838855743408203e+00 4.932844161987304688e+00
6.650000000000000000e+02 7.122827148437500000e+01 -1.391028213500976562e+01 2.840177059173583984e+00 3.790510416030883789e+00 1.989206194877624512e+00 3.507910490036010742e+00
6.660000000000000000e+02 7.101478576660156250e+01 -1.387240314483642578e+01 2.601350307464599609e+00 3.028965473175048828e+00 1.689094662666320801e+00 2.860357046127319336e+00
6.670000000000000000e+02 7.068943023681640625e+01 -1.391224765777587891e+01 2.332572460174560547e+00 1.965221047401428223e+00 1.289338111877441406e+00 2.089543342590332031e+00
6.680000000000000000e+02 7.048345947265625000e+01 -1.389982414245605469e+01 2.184335947036743164e+00 1.755183577537536621e+00 1.181855916976928711e+00 1.743985414505004883e+00
6.690000000000000000e+02 6.815066528320312500e+01 -1.400064277648925781e+01 1.740497350692749023e-02 -6.288258358836174011e-03 3.335014451295137405e-03 -2.798168659210205078e-01
6.700000000000000000e+02 6.835147094726562500e+01 -1.489385986328125000e+01 3.695189952850341797e-01 4.381848573684692383e-01 2.423111647367477417e-01 2.960449159145355225e-01
6.710000000000000000e+02 6.621453094482421875e+01 -1.694813156127929688e+01 -3.432780802249908447e-01 -5.661259293556213379e-01 -2.728211879730224609e-01 -3.938177824020385742e-01
6.720000000000000000e+02 6.460884857177734375e+01 -1.918206596374511719e+01 -7.423938512802124023e-01 -6.875506639480590820e-01 -4.289833605289459229e-01 -6.892220377922058105e-01
6.730000000000000000e+02 6.278924942016601562e+01 -2.131106376647949219e+01 -1.028364777565002441e+00 -1.001550674438476562e+00 -6.089746356010437012e-01 -1.021476387977600098e+00
6.740000000000000000e+02 6.169142532348632812e+01 -2.428060913085937500e+01 -1.235938310623168945e+00 -5.173181891441345215e-01 -5.259769558906555176e-01 -7.838991880416870117e-01
6.750000000000000000e+02 5.872584533691406250e+01 -2.533063888549804688e+01 -1.973728656768798828e+00 -1.181499719619750977e+00 -9.465685486793518066e-01 -1.453372836112976074e+00
6.760000000000000000e+02 5.755505371093750000e+01 -2.620895767211914062e+01 -2.027178764343261719e+00 -1.017907500267028809e+00 -9.135258793830871582e-01 -1.371471405029296875e+00
6.770000000000000000e+02 5.693313598632812500e+01 -2.841096687316894531e+01 -1.152968287467956543e+00 -7.571022510528564453e-01 -5.730211734771728516e-01 -8.732659816741943359e-01
6.780000000000000000e+02 5.263594055175781250e+01 -2.883198165893554688e+01 -1.504300594329833984e+00 -5.113804340362548828e-01 -6.047043204307556152e-01 -8.679710626602172852e-01
6.790000000000000000e+02 5.142496871948242188e+01 -2.949958610534667969e+01 -1.368342995643615723e+00 -4.406448900699615479e-01 -5.426963567733764648e-01 -7.460027337074279785e-01
6.800000000000000000e+02 4.747288894653320312e+01 -3.084270477294921875e+01 -7.508348822593688965e-01 -1.338383257389068604e-01 -2.654019594192504883e-01 -3.027954101562500000e-01
6.810000000000000000e+02 4.300103759765625000e+01 -3.433522415161132812e+01 -1.161191835999488831e-01 -1.383258849382400513e-01 -7.633352279663085938e-02 -2.198767364025115967e-01
6.820000000000000000e+02 4.062309265136718750e+01 -3.299449539184570312e+01 -8.548371493816375732e-02 -2.947469986975193024e-02 -3.448752313852310181e-02 -7.582120597362518311e-02
6.830000000000000000e+02 3.593486785888671875e+01 -3.261522293090820312e+01 2.172705344855785370e-02 -2.979403361678123474e-03 5.624294746667146683e-03 -7.658530957996845245e-03
6.840000000000000000e+02 3.451158142089843750e+01 -3.242810440063476562e+01 2.949311397969722748e-02 9.390852646902203560e-04 9.129659272730350494e-03 -4.089890979230403900e-03
6.850000000000000000e+02 3.135948753356933594e+01 -3.320135498046875000e+01 1.715945638716220856e-02 -1.309301733272150159e-04 5.108558107167482376e-03 -3.426461189519613981e-04
6.860000000000000000e+02 3.034888267517089844e+01 -3.163760375976562500e+01 2.603188715875148773e-02 1.984779024496674538e-03 8.404999971389770508e-03 -4.287505522370338440e-03
6.870000000000000000e+02 2.650329399108886719e+01 -3.001192283630371094e+01 9.919187985360622406e-03 9.771215263754129410e-04 3.268892876803874969e-03 -3.871602704748511314e-03
6.880000000000000000e+02 2.473305702209472656e+01 -3.083492088317871094e+01 7.747003808617591858e-03 -7.419791654683649540e-04 2.101507270708680153e-03 -3.284768899902701378e-04
6.890000000000000000e+02 2.212294960021972656e+01 -2.947938156127929688e+01 4.924240987747907639e-03 -7.433034479618072510e-04 1.254281378351151943e-03 -3.397183027118444443e-04
6.900000000000000000e+02 2.152527618408203125e+01 -2.747302055358886719e+01 3.169375937432050705e-03 2.101587597280740738e-04 1.013860455714166164e-03 -1.320912735536694527e-03
6.910000000000000000e+02 1.712219810485839844e+01 -2.401265907287597656e+01 3.117322339676320553e-04 -2.181034506065770984e-04 2.808863246173132211e-05 -4.336804850026965141e-04
6.920000000000000000e+02 1.510130500793457031e+01 -2.199237823486328125e+01 -2.190328268625307828e-05 -2.263757050968706608e-04 -7.448369433404877782e-05 -2.329454146092757583e-04
6.930000000000000000e+02 1.313078498840332031e+01 -1.994948959350585938e+01 -1.397206506226211786e-04 -1.686569303274154663e-04 -9.251327719539403915e-05 -1.321203453699126840e-04
6.940000000000000000e+02 1.116935634613037109e+01 -1.787506294250488281e+01 -1.433109719073399901e-04 -1.486612018197774887e-04 -8.759165211813524365e-05 -6.860596477054059505e-05
6.950000000000000000e+02 9.595796585083007812e+00 -1.547008514404296875e+01 -1.741611777106299996e-04 -1.180882754852063954e-04 -8.767483814153820276e-05 -1.242159924004226923e-04
6.960000000000000000e+02 1.558943843841552734e+01 -1.275460052490234375e+01 6.175524504214990884e-06 8.108572365017607808e-05 2.617837526486255229e-05 2.601294727355707437e-05
6.970000000000000000e+02 1.818555450439453125e+01 -8.640484809875488281e+00 -1.715326470730360597e-05 1.894510205602273345e-05 5.375513865146785975e-07 9.795488040253985673e-06
6.980000000000000000e+02 1.968230628967285156e+01 -1.466730308532714844e+01 -2.680873876670375466e-05 -1.627343226573430002e-05 -1.292465094593353570e-05 -1.732488090055994689e-05
6.990000000000000000e+02 2.076825714111328125e+01 -1.526480197906494141e+01 1.633194005989935249e-05 2.181510171794798225e-05 1.144411271525314078e-05 9.856395081442315131e-06
7.000000000000000000e+02 2.312535285949707031e+01 -1.543064785003662109e+01 -1.148541468865005299e-05 -1.727611743262968957e-05 -8.628459909232333302e-06 -2.216815573774510995e-06
7.010000000000000000e+02 2.684943008422851562e+01 -1.795527076721191406e+01 -9.906946615956258029e-06 -1.562149554956704378e-05 -7.658532922505401075e-06 1.776980639078828972e-06
7.020000000000000000e+02 2.594019126892089844e+01 -1.770586013793945312e+01 9.289483386965002865e-06 1.662177965044975281e-05 7.773379365971777588e-06 1.028213091558427550e-06
7.030000000000000000e+02 2.290248870849609375e+01 -1.422052192687988281e+01 -4.873375019087688997e-06 -1.410722234140848741e-06 -1.885229153231193777e-06 1.745881036185892299e-06
7.040000000000000000e+02 2.389064025878906250e+01 -1.545771980285644531e+01 -5.994231287331786007e-06 2.150262662325985730e-05 4.652518782677361742e-06 5.553192295337794349e-06
7.050000000000000000e+02 2.418940162658691406e+01 -1.625665473937988281e+01 3.473020342426025309e-06 -2.114539347530808300e-05 -5.301712008076719940e-06 7.121102044038707390e-06
7.060000000000000000e+02 2.252269744873046875e+01 -1.348799514770507812e+01 2.209430931543465704e-06 -1.129569955082843080e-05 -2.725880449361284263e-06 -2.121518889453000156e-07
7.070000000000000000e+02 2.178282546997070312e+01 -1.212684822082519531e+01 -2.590238182165194303e-06 -8.235854693339206278e-06 -3.247827862651320174e-06 1.672417056397534907e-06
7.080000000000000000e+02 2.149174118041992188e+01 -1.140429592132568359e+01 1.696694880592986010e-06 7.621263193868799135e-06 2.795387445075903088e-06 1.303601493418682367e-06
7.090000000000000000e+02 2.048528671264648438e+01 -9.478175163269042969e+00 6.969446076254826039e-06 -1.699362474028021097e-05 -3.007253326359204948e-06 -2.687862888706149533e-06
7.100000000000000000e+02 2.082795715332031250e+01 -1.011038875579833984e+01 -4.416862793732434511e-06 1.347141915175598115e-05 2.716366907407063991e-06 -1.278413037653081119e-06
7.110000000000000000e+02 1.931052017211914062e+01 -7.734572410583496094e+00 -4.401840101309062447e-07 1.220814283442450687e-05 3.530387630235054530e-06 7.816804100002627820e-06
7.120000000000000000e+02 1.685079383850097656e+01 -1.328359889984130859e+01 -9.439394489163532853e-06 -7.213924254756420851e-05 -2.447359111101832241e-05 -1.838374919316265732e-05
7.130000000000000000e+02 1.837991905212402344e+01 -6.562260150909423828e+00 4.241256647219415754e-06 8.290933692478574812e-06 3.759657147384132259e-06 3.005164444402907975e-06
7.140000000000000000e+02 1.654039573669433594e+01 -4.732983589172363281e+00 -5.303903435560641810e-06 -9.789324394660070539e-06 -4.527968485490418971e-06 -1.374921680508123245e-06
7.150000000000000000e+02 1.531569576263427734e+01 -4.910899162292480469e+00 -4.406581865623593330e-06 -6.147409749246435240e-06 -3.166197302562068217e-06 -1.221975026055588387e-06
7.160000000000000000e+02 1.511162185668945312e+01 -3.774755954742431641e+00 -4.292070116207469255e-06 -3.393269707885337994e-06 -2.305602038177312352e-06 -5.020710887038148940e-07
7.170000000000000000e+02 1.186458587646484375e+01 -2.438040256500244141e+00 -1.658452106312324759e-06 5.453339895211684052e-07 -3.339354464060306782e-07 1.122671346820425242e-05
7.180000000000000000e+02 1.154986763000488281e+01 -3.213442325592041016e+00 5.858083113707834855e-06 1.160680653811141383e-06 2.105629164361744188e-06 -1.553360198158770800e-05
7.190000000000000000e+02 7.954684257507324219e+00 -2.589469909667968750e+00 8.667535439599305391e-06 -1.419401428393030073e-06 2.174440169255831279e-06 1.369570964016020298e-05
7.200000000000000000e+02 7.189104080200195312e+00 -1.863512396812438965e+00 9.421970389666967094e-06 -5.156012775842100382e-06 1.279787397834297735e-06 8.334623089467640966e-06
7.210000000000000000e+02 6.438700675964355469e+00 -1.873263478279113770e+00 -9.211179531121160835e-06 8.687390618433710188e-06 -1.571367818087310297e-07 -6.782832770113600418e-06
7.220000000000000000e+02 5.686505317687988281e+00 -1.882473468780517578e+00 6.929774826858192682e-06 -1.018987313727848232e-05 -9.780294476513518021e-07 6.828369805589318275e-06
7.230000000000000000e+02 4.937751293182373047e+00 -1.883866429328918457e+00 1.305929890804691240e-05 2.393163185843150131e-06 4.635738605429651216e-06 -3.309746034574345686e-06
7.240000000000000000e+02 3.454817056655883789e+00 -1.860467910766601562e+00 1.604829230927862227e-05 -8.436612006335053593e-06 2.283504045408335514e-06 -8.765349775785580277e-06
7.250000000000000000e+02 3.546979427337646484e+00 -2.552448034286499023e+00 -2.658314224390778691e-05 8.367496775463223457e-06 -5.464693458634428680e-06 1.557132054585963488e-05
7.260000000000000000e+02 1.999091506004333496e+00 -2.013572454452514648e+00 -1.552753201394807547e-05 4.330917818151647225e-06 -3.358984486112603918e-06 -1.031917872751364484e-05
7.270000000000000000e+02 1.238373517990112305e+00 -2.135286092758178711e+00 1.846586201281752437e-05 -1.660506313783116639e-05 5.582392645919753704e-07 3.767184580283355899e-06
7.280000000000000000e+02 4.234377443790435791e-01 -2.199874877929687500e+00 2.999235402967315167e-05 1.051243452820926905e-05 1.215143674926366657e-05 2.903597078329767101e-06
7.290000000000000000e+02 2.016802549362182617e+00 -4.162171936035156250e+01 -6.613868026761338115e-05 1.179197803139686584e-03 3.339177346788346767e-04 1.848955616878811270e-05
7.300000000000000000e+02 9.803776741027832031e-01 -3.868353271484375000e+01 2.564321584941353649e-05 1.060670358128845692e-03 3.258940705563873053e-04 7.427465607179328799e-05
7.310000000000000000e+02 7.469317317008972168e-01 -3.477101516723632812e+01 1.021466814563609660e-04 7.191177573986351490e-04 2.463793498463928699e-04 9.559968748362734914e-05
7.320000000000000000e+02 8.695569634437561035e-01 -3.335875320434570312e+01 -4.835497384192422032e-05 6.033072131685912609e-04 1.664856681600213051e-04 7.060702773742377758e-05
7.330000000000000000e+02 5.982785820960998535e-01 -2.909576797485351562e+01 -4.204232755000703037e-05 1.715905964374542236e-04 3.886448030243627727e-05 4.618347884388640523e-05
7.340000000000000000e+02 5.916118621826171875e-01 -2.772332191467285156e+01 4.325736881582997739e-05 8.832709136186167598e-05 3.947533696191385388e-05 3.365207885508425534e-05
7.350000000000000000e+02 6.074567437171936035e-01 -2.634740447998046875e+01 -1.827589221647940576e-05 1.853135290730278939e-05 7.663854972861372516e-08 1.742629319778643548e-05
7.360000000000000000e+02 6.927141547203063965e-01 -2.213416290283203125e+01 -7.464843747584382072e-06 -3.546948937582783401e-05 -1.288029943680157885e-05 -5.429115503829962108e-07
7.370000000000000000e+02 7.152554988861083984e-01 -2.070182991027832031e+01 1.112162635763525032e-06 -5.353416054276749492e-05 -1.572659857629332691e-05 8.032508048927411437e-06
7.380000000000000000e+02 2.140693664550781250e+00 -2.094959640502929688e+01 4.040552448714151978e-05 2.412457979517057538e-05 1.935903128469362855e-05 -2.855889033526182175e-05
7.390000000000000000e+02 6.668787598609924316e-01 -1.634964561462402344e+01 7.459859625669196248e-05 -1.074785632226848975e-05 1.915522261697333306e-05 -2.238374872831627727e-05
7.400000000000000000e+02 6.302625536918640137e-01 -1.492187023162841797e+01 -1.045863973558880389e-04 -5.128531029185978696e-06 -3.291447865194641054e-05 1.220068133989116177e-05
7.410000000000000000e+02 5.934982895851135254e-01 -1.351043033599853516e+01 1.260614953935146332e-04 -6.495347406598739326e-07 3.762358755921013653e-05 -1.200169208459556103e-05
7.420000000000000000e+02 1.778112292289733887e+00 -1.345868301391601562e+01 -9.471767407376319170e-05 1.476018132962053642e-05 -2.398724791419226676e-05 1.325368157267803326e-05
7.430000000000000000e+02 5.232440233230590820e-01 -9.314287185668945312e+00 -1.185084693133831024e-04 5.980477908451575786e-06 -3.375839878572151065e-05 -5.972746635052317288e-07
7.440000000000000000e+02 5.303246974945068359e-01 -7.925606727600097656e+00 1.001444470603018999e-04 8.782164513831958175e-06 3.267798456363379955e-05 8.746400794734654482e-07
7.450000000000000000e+02 4.236809730529785156e+00 -2.643118381500244141e+00 2.866424256353639066e-05 -2.316072368557797745e-06 7.904451194917783141e-06 2.347400567259683157e-07
7.460000000000000000e+02 5.564547777175903320e-01 -6.535351753234863281e+00 -7.692131475778296590e-05 7.907737199275288731e-06 -2.070407208520919085e-05 -2.094841875077690929e-06
7.470000000000000000e+02 7.233876037597656250e+01 -4.126843261718750000e+01 3.367625176906585693e-01 6.367238521575927734e+00 2.011200189590454102e+00 6.051512435078620911e-02
7.480000000000000000e+02 5.494641494750976562e+01 -3.914835357666015625e+01 7.636904120445251465e-01 -2.585634589195251465e-01 1.515380889177322388e-01 -1.235273256897926331e-01
7.490000000000000000e+02 1.263533973693847656e+01 -4.071612930297851562e+01 -1.301494077779352665e-03 1.340463757514953613e-03 1.169089409813750535e-05 6.376768578775227070e-04
7.500000000000000000e+02 7.881323242187500000e+01 4.003847122192382812e+01 -2.793786674737930298e-02 5.105780601501464844e+00 1.523352861404418945e+00 -5.266347154974937439e-02
7.510000000000000000e+02 7.920752716064453125e+01 3.868897628784179688e+01 -4.972575698047876358e-04 5.173050403594970703e+00 1.551765918731689453e+00 -2.108525298535823822e-02
7.520000000000000000e+02 7.940178680419921875e+01 3.502198791503906250e+01 -4.651763476431369781e-03 5.312741279602050781e+00 1.592426776885986328e+00 -1.537409797310829163e-02
7.530000000000000000e+02 7.793569946289062500e+01 3.424622344970703125e+01 5.808016750961542130e-03 5.174398899078369141e+00 1.554062008857727051e+00 -6.235284730792045593e-02
7.540000000000000000e+02 7.929589843750000000e+01 3.367946624755859375e+01 3.901246469467878342e-03 5.351879119873046875e+00 1.606734037399291992e+00 -1.752841472625732422e-02
7.550000000000000000e+02 7.915406799316406250e+01 3.087244987487792969e+01 -1.073864870704710484e-03 5.447752952575683594e+00 1.634003639221191406e+00 -2.992291003465652466e-02
7.560000000000000000e+02 7.668550109863281250e+01 2.817537689208984375e+01 2.805283106863498688e-02 5.283377170562744141e+00 1.593429088592529297e+00 -1.586515456438064575e-01
7.570000000000000000e+02 7.928705596923828125e+01 2.656152343750000000e+01 -1.485683256760239601e-03 5.685986518859863281e+00 1.705350279808044434e+00 -4.530021548271179199e-02
7.580000000000000000e+02 7.631491088867187500e+01 2.563241004943847656e+01 3.745346888899803162e-02 5.359705448150634766e+00 1.619147777557373047e+00 -2.368818521499633789e-01
7.590000000000000000e+02 7.927831268310546875e+01 2.516627883911132812e+01 6.245630327612161636e-03 5.785457611083984375e+00 1.737510919570922852e+00 -5.097240954637527466e-02
7.600000000000000000e+02 7.931050109863281250e+01 2.095465087890625000e+01 1.917967339977622032e-03 6.152288913726806641e+00 1.846262097358703613e+00 -6.676164269447326660e-02
7.610000000000000000e+02 7.932228851318359375e+01 1.955798912048339844e+01 2.275754231959581375e-03 6.302397251129150391e+00 1.891401886940002441e+00 -7.119228690862655640e-02
7.620000000000000000e+02 7.932794189453125000e+01 1.816636085510253906e+01 5.822377279400825500e-03 6.469632148742675781e+00 1.942636370658874512e+00 -7.996477931737899780e-02
7.630000000000000000e+02 7.933237457275390625e+01 1.398972892761230469e+01 3.416856750845909119e-03 7.092381477355957031e+00 2.128739356994628906e+00 -1.092045307159423828e-01
7.640000000000000000e+02 7.933220672607421875e+01 1.259379291534423828e+01 5.915487650781869888e-03 7.348277568817138672e+00 2.206258058547973633e+00 -1.193882077932357788e-01
7.650000000000000000e+02 7.933109283447265625e+01 1.119666576385498047e+01 7.825036533176898956e-03 7.632521152496337891e+00 2.292104005813598633e+00 -1.342756748199462891e-01
7.660000000000000000e+02 7.932791900634765625e+01 6.989777088165283203e+00 -3.964735660701990128e-03 8.632555961608886719e+00 2.588577270507812500e+00 -1.618958860635757446e-01
7.670000000000000000e+02 7.933557891845703125e+01 5.591685295104980469e+00 4.724265541881322861e-03 9.002947807312011719e+00 2.702301502227783203e+00 -1.635219752788543701e-01
7.680000000000000000e+02 7.935289764404296875e+01 4.193606376647949219e+00 -7.051960099488496780e-03 9.386035919189453125e+00 2.813695192337036133e+00 -1.614239811897277832e-01
7.690000000000000000e+02 7.942425537109375000e+01 1.676806807518005371e-02 -2.774944528937339783e-02 1.037589359283447266e+01 3.104443311691284180e+00 -6.000910326838493347e-02
7.700000000000000000e+02 7.944581604003906250e+01 -1.364524126052856445e+00 -2.609462663531303406e-02 1.051912498474121094e+01 3.147909164428710938e+00 6.512809079140424728e-03
7.710000000000000000e+02 7.840996551513671875e+01 -4.018675327301025391e+00 -2.868110537528991699e-01 9.657239913940429688e+00 2.811128616333007812e+00 5.694751739501953125e-01
7.720000000000000000e+02 7.947050476074218750e+01 -4.124021053314208984e+00 -4.889425635337829590e-02 1.004729938507080078e+01 2.999521493911743164e+00 2.558970451354980469e-01
7.730000000000000000e+02 7.949027252197265625e+01 -8.266253471374511719e+00 -5.129685625433921814e-02 5.998344421386718750e+00 1.784114241600036621e+00 7.726529836654663086e-01
7.740000000000000000e+02 7.949539947509765625e+01 -1.102300262451171875e+01 1.371299922466278076e-01 2.315990924835205078e+00 7.359362840652465820e-01 4.733191132545471191e-01
7.750000000000000000e+02 7.827031707763671875e+01 -1.789622879028320312e+01 -3.639354407787322998e-01 8.866938591003417969e+00 2.550901174545288086e+00 -1.608393788337707520e+00
7.760000000000000000e+02 7.942385101318359375e+01 -1.804865074157714844e+01 -7.039196789264678955e-02 8.297858238220214844e+00 2.468240022659301758e+00 -6.468500494956970215e-01
7.770000000000000000e+02 7.941546630859375000e+01 -2.365728950500488281e+01 -2.722167409956455231e-02 1.105087947845458984e+01 3.307097196578979492e+00 -8.610973507165908813e-02
7.780000000000000000e+02 7.818639373779296875e+01 -2.497908210754394531e+01 -9.407933056354522705e-02 1.027150821685791016e+01 3.053228855133056641e+00 -2.387068979442119598e-02
7.790000000000000000e+02 7.938858032226562500e+01 -2.505358314514160156e+01 -2.523140422999858856e-02 1.109749698638916016e+01 3.321679830551147461e+00 -2.394207194447517395e-02
7.800000000000000000e+02 7.928957366943359375e+01 -2.923483085632324219e+01 4.332690499722957611e-03 1.073633575439453125e+01 3.222200632095336914e+00 6.043799221515655518e-02
7.810000000000000000e+02 7.775892639160156250e+01 -3.193941307067871094e+01 -1.775634102523326874e-02 9.519739151000976562e+00 2.850594997406005859e+00 2.339270114898681641e-01
7.820000000000000000e+02 7.925590515136718750e+01 -3.201033020019531250e+01 2.111751772463321686e-02 1.040658187866210938e+01 3.128309965133666992e+00 6.556489318609237671e-02
7.830000000000000000e+02 7.920387268066406250e+01 -3.611793899536132812e+01 -4.091189429163932800e-02 9.886476516723632812e+00 2.953669548034667969e+00 9.966681897640228271e-02
7.840000000000000000e+02 7.906442260742187500e+01 -3.745396804809570312e+01 -2.438069088384509087e-03 9.672892570495605469e+00 2.901136398315429688e+00 1.306344568729400635e-01
7.850000000000000000e+02 7.869105529785156250e+01 -3.884251785278320312e+01 -5.987061932682991028e-02 9.448587417602539062e+00 2.816615104675292969e+00 1.824360191822052002e-01
7.860000000000000000e+02 7.802479553222656250e+01 -4.174983215332031250e+01 3.215040564537048340e-01 9.094866752624511719e+00 2.824911355972290039e+00 9.009637683629989624e-02
7.870000000000000000e+02 9.334080696105957031e+00 3.808952713012695312e+01 4.569715261459350586e-02 -7.546586990356445312e-01 -2.126884609460830688e-01 4.444880783557891846e-02
7.880000000000000000e+02 2.768771362304687500e+01 4.106455612182617188e+01 4.043983221054077148e-01 -3.533262386918067932e-02 1.107197105884552002e-01 2.618233114480972290e-02
7.890000000000000000e+02 5.186817550659179688e+01 3.703643417358398438e+01 6.273335218429565430e-01 1.616025209426879883e+00 6.730076074600219727e-01 -4.820001125335693359e-02
7.900000000000000000e+02 6.751548004150390625e+01 4.049811553955078125e+01 2.317241132259368896e-01 3.765884399414062500e+00 1.199282526969909668e+00 -6.045444309711456299e-02
7.910000000000000000e+02 3.805041015148162842e-01 2.184571504592895508e+00 -6.149132968857884407e-05 2.477120608091354370e-02 7.412914186716079712e-03 -6.392863579094409943e-03
7.920000000000000000e+02 2.659557342529296875e+00 2.736105918884277344e+00 -2.754448354244232178e-02 -9.880430065095424652e-03 -1.122747454792261124e-02 -1.553280977532267570e-03
7.930000000000000000e+02 1.695422887802124023e+00 6.344668865203857422e+00 -2.541257068514823914e-02 -7.906847447156906128e-02 -3.134431317448616028e-02 6.500433385372161865e-02
7.940000000000000000e+02 5.745227336883544922e-01 9.240922927856445312e+00 -6.717604119330644608e-03 -1.954744011163711548e-01 -6.065760180354118347e-02 4.782667383551597595e-02
7.950000000000000000e+02 6.264938116073608398e-01 1.206310558319091797e+01 -6.751935463398694992e-03 -4.514043927192687988e-01 -1.374468952417373657e-01 6.057076901197433472e-02
7.960000000000000000e+02 1.895781636238098145e+00 1.197390937805175781e+01 1.882333657704293728e-03 -4.494428336620330811e-01 -1.342681497335433960e-01 1.681005805730819702e-01
7.970000000000000000e+02 6.371662020683288574e-01 1.630877304077148438e+01 7.634158246219158173e-03 -8.318210244178771973e-01 -2.472560554742813110e-01 4.992310330271720886e-02
7.980000000000000000e+02 1.905806422233581543e+00 1.767849159240722656e+01 2.067885175347328186e-02 -8.439632058143615723e-01 -2.469853013753890991e-01 1.195476800203323364e-01
7.990000000000000000e+02 6.399863362312316895e-01 1.772801589965820312e+01 4.788327205460518599e-04 -9.338427186012268066e-01 -2.800091505050659180e-01 4.139956459403038025e-02
8.000000000000000000e+02 6.638237237930297852e-01 2.199172973632812500e+01 4.047454334795475006e-03 -1.133738279342651367e+00 -3.389072418212890625e-01 2.023710124194622040e-02
8.010000000000000000e+02 6.677502393722534180e-01 2.340968894958496094e+01 1.255165087059140205e-03 -1.171811342239379883e+00 -3.511668443679809570e-01 1.464875042438507080e-02
8.020000000000000000e+02 2.006596326828002930e+00 2.341397476196289062e+01 1.062332838773727417e-02 -1.055310249328613281e+00 -3.134060800075531006e-01 4.768089205026626587e-02
8.030000000000000000e+02 6.659219861030578613e-01 2.482345008850097656e+01 1.453243778087198734e-03 -1.200891733169555664e+00 -3.598315417766571045e-01 1.180682517588138580e-02
8.040000000000000000e+02 6.441431045532226562e-01 2.903247451782226562e+01 1.031192601658403873e-03 -1.260152220726013184e+00 -3.777363300323486328e-01 5.983081646263599396e-03
8.050000000000000000e+02 6.406590342521667480e-01 3.042575263977050781e+01 -6.631075520999729633e-04 -1.273779511451721191e+00 -3.823328018188476562e-01 5.709895398467779160e-03
8.060000000000000000e+02 3.290682792663574219e+00 2.896434593200683594e+01 7.844761013984680176e-03 -1.046321153640747070e+00 -3.115429282188415527e-01 3.903961181640625000e-02
8.070000000000000000e+02 6.386997699737548828e-01 3.180878067016601562e+01 2.785821212455630302e-03 -1.283886790275573730e+00 -3.843303024768829346e-01 2.981398021802306175e-03
8.080000000000000000e+02 7.643761038780212402e-01 3.592357254028320312e+01 -4.463176883291453123e-04 -1.290010690689086914e+00 -3.871370851993560791e-01 -4.097269382327795029e-03
8.090000000000000000e+02 2.607573509216308594e+00 3.658896255493164062e+01 5.793010350316762924e-03 -1.178078770637512207e+00 -3.516857326030731201e-01 1.395744970068335533e-03
8.100000000000000000e+02 1.138238072395324707e+00 3.861725234985351562e+01 8.264495991170406342e-04 -1.261093139648437500e+00 -3.780800104141235352e-01 -1.225019618868827820e-02
8.110000000000000000e+02 1.478326201438903809e+00 4.002313613891601562e+01 5.129952449351549149e-03 -1.243773579597473145e+00 -3.715930581092834473e-01 -1.681085862219333649e-02
8.120000000000000000e+02 9.880743026733398438e+00 1.852254986763000488e+00 -2.515617907047271729e-01 -1.007002517580986023e-01 -1.056786105036735535e-01 1.507137566804885864e-01
8.130000000000000000e+02 9.132924079895019531e+00 1.878829002380371094e+00 -2.099975496530532837e-01 -5.156673118472099304e-02 -7.846928387880325317e-02 1.089405417442321777e-01
8.140000000000000000e+02 8.391801834106445312e+00 1.887925267219543457e+00 -1.706591844558715820e-01 -4.336025565862655640e-02 -6.420583277940750122e-02 8.262781053781509399e-02
8.150000000000000000e+02 7.683442592620849609e+00 2.659912586212158203e+00 -1.978811025619506836e-01 -5.273343995213508606e-02 -7.518436014652252197e-02 9.992434084415435791e-02
8.160000000000000000e+02 6.919425487518310547e+00 1.880505323410034180e+00 -1.009421944618225098e-01 -2.296073175966739655e-02 -3.717087581753730774e-02 4.432193562388420105e-02
8.170000000000000000e+02 4.729920387268066406e+00 1.856911897659301758e+00 -3.496046364307403564e-02 -9.070272557437419891e-03 -1.320922095328569412e-02 9.503751993179321289e-03
8.180000000000000000e+02 4.004295825958251953e+00 1.865587234497070312e+00 -1.987284608185291290e-02 -1.504350174218416214e-02 -1.047490444034337997e-02 5.011478788219392300e-04
8.190000000000000000e+02 3.285191774368286133e+00 1.886781930923461914e+00 -1.451020129024982452e-02 -5.407736636698246002e-03 -5.975381471216678619e-03 -7.430694065988063812e-03
8.200000000000000000e+02 1.856201291084289551e+00 2.013724088668823242e+00 -1.972677186131477356e-03 2.545549767091870308e-03 1.718617713777348399e-04 -1.695397496223449707e-02
8.210000000000000000e+02 1.131452918052673340e+00 2.117807149887084961e+00 1.097663262044079602e-04 1.010807976126670837e-02 3.065353957936167717e-03 -1.310928165912628174e-02
8.220000000000000000e+02 1.146078586578369141e+01 1.565149188041687012e+00 -3.238346874713897705e-01 -2.084608972072601318e-01 -1.596886813640594482e-01 2.566216588020324707e-01
8.230000000000000000e+02 1.307365417480468750e+01 1.197026729583740234e+00 -4.025143980979919434e-01 -3.864281475543975830e-01 -2.366827726364135742e-01 4.061103761196136475e-01
8.240000000000000000e+02 1.389105701446533203e+01 9.895005226135253906e-01 -4.543164372444152832e-01 -4.648029506206512451e-01 -2.757358253002166748e-01 5.126669406890869141e-01
8.250000000000000000e+02 1.622873115539550781e+01 3.421537160873413086e+00 -3.932523131370544434e-01 -9.783251285552978516e-01 -4.114732146263122559e-01 7.202908992767333984e-01
8.260000000000000000e+02 1.624984169006347656e+01 1.410849392414093018e-02 -6.253906488418579102e-01 -7.455509305000305176e-01 -4.112824797630310059e-01 7.299156188964843750e-01
8.270000000000000000e+02 1.837266349792480469e+01 -1.371640920639038086e+00 -8.717917203903198242e-01 -7.949144244194030762e-01 -5.000118613243103027e-01 7.998433113098144531e-01
8.280000000000000000e+02 1.906002044677734375e+01 -1.849409937858581543e+00 -9.448813796043395996e-01 -7.624306678771972656e-01 -5.121936202049255371e-01 7.726765871047973633e-01
8.290000000000000000e+02 2.084051513671875000e+01 -3.617644786834716797e+00 -9.707630872726440430e-01 -6.767274737358093262e-01 -4.942471683025360107e-01 7.345972657203674316e-01
8.300000000000000000e+02 2.324346542358398438e+01 -6.895143508911132812e+00 -6.162811517715454102e-01 -5.296184420585632324e-01 -3.437698781490325928e-01 5.724912881851196289e-01
8.310000000000000000e+02 2.365790748596191406e+01 -7.568902969360351562e+00 -5.579381585121154785e-01 -4.921320676803588867e-01 -3.150210678577423096e-01 5.277003049850463867e-01
8.320000000000000000e+02 2.443111610412597656e+01 -8.917503356933593750e+00 -4.402833282947540283e-01 -4.103727638721466064e-01 -2.551968395709991455e-01 4.519631564617156982e-01
8.330000000000000000e+02 2.481243896484375000e+01 -9.588163375854492188e+00 -3.845728933811187744e-01 -3.650998175144195557e-01 -2.249018102884292603e-01 4.124726951122283936e-01
8.340000000000000000e+02 2.586914062500000000e+01 -1.154653358459472656e+01 -2.812849283218383789e-01 -2.487586885690689087e-01 -1.590130925178527832e-01 3.123587667942047119e-01
8.350000000000000000e+02 2.620578956604003906e+01 -1.218704414367675781e+01 -2.496323585510253906e-01 -2.125589102506637573e-01 -1.386573761701583862e-01 2.829817235469818115e-01
8.360000000000000000e+02 2.821295547485351562e+01 -1.458270931243896484e+01 -2.221343517303466797e-01 -9.359616041183471680e-02 -9.471915662288665771e-02 1.955755650997161865e-01
8.370000000000000000e+02 2.761547470092773438e+01 -1.406718158721923828e+01 -2.171799689531326294e-01 -1.155412718653678894e-01 -9.981636703014373779e-02 2.087517380714416504e-01
8.380000000000000000e+02 2.960743331909179688e+01 -1.541155052185058594e+01 -2.498534917831420898e-01 -6.083058193325996399e-02 -9.320522099733352661e-02 1.648745983839035034e-01
8.390000000000000000e+02 3.033174896240234375e+01 -1.581518745422363281e+01 -2.627593278884887695e-01 -4.564221575856208801e-02 -9.252046793699264526e-02 1.477973014116287231e-01
8.400000000000000000e+02 3.106943130493164062e+01 -1.621630668640136719e+01 -2.741746604442596436e-01 -2.166182175278663635e-02 -8.875094354152679443e-02 1.318196803331375122e-01
8.410000000000000000e+02 3.180512809753417969e+01 -1.662489509582519531e+01 -2.805071771144866943e-01 -9.381102398037910461e-03 -8.696648478507995605e-02 1.204523071646690369e-01
8.420000000000000000e+02 3.321401977539062500e+01 -1.749015426635742188e+01 -2.908303141593933105e-01 1.769695617258548737e-02 -8.194001019001007080e-02 8.578044921159744263e-02
8.430000000000000000e+02 3.380249023437500000e+01 -1.534765148162841797e+01 -3.779589235782623291e-01 3.532580286264419556e-02 -1.027899309992790222e-01 1.398424804210662842e-01
8.440000000000000000e+02 3.773831939697265625e+01 -1.848963737487792969e+01 -3.803082406520843506e-01 6.749456282705068588e-03 -1.120676323771476746e-01 -9.083375916816294193e-04
8.450000000000000000e+02 4.042665863037109375e+01 -1.834137725830078125e+01 -4.000073075294494629e-01 1.266096718609333038e-02 -1.162039041519165039e-01 -4.508708417415618896e-02
8.460000000000000000e+02 4.167456817626953125e+01 -1.555003738403320312e+01 -5.724962949752807617e-01 6.513551622629165649e-02 -1.522082388401031494e-01 -1.820224523544311523e-02
8.470000000000000000e+02 4.568309783935546875e+01 -1.699069976806640625e+01 -6.311458945274353027e-01 -4.167445003986358643e-02 -2.018461078405380249e-01 -1.678521484136581421e-01
8.480000000000000000e+02 4.698498916625976562e+01 -1.657903671264648438e+01 -6.217119693756103516e-01 -4.081494733691215515e-02 -1.987580806016921997e-01 -1.936329901218414307e-01
8.490000000000000000e+02 4.950620269775390625e+01 -1.552657794952392578e+01 -7.270980477333068848e-01 -1.080992594361305237e-01 -2.505591809749603271e-01 -2.936493158340454102e-01
8.500000000000000000e+02 5.136447525024414062e+01 -1.318637561798095703e+01 -9.909477233886718750e-01 -6.635603308677673340e-02 -3.171911239624023438e-01 -3.477788865566253662e-01
8.510000000000000000e+02 5.436323547363281250e+01 -1.289291572570800781e+01 -1.108841180801391602e+00 -2.808165550231933594e-01 -4.168973267078399658e-01 -5.766534209251403809e-01
8.520000000000000000e+02 5.670932769775390625e+01 -1.140984249114990234e+01 -1.480655908584594727e+00 -4.792824685573577881e-01 -5.879815220832824707e-01 -8.302379846572875977e-01
8.530000000000000000e+02 5.787785720825195312e+01 -1.064630317687988281e+01 -1.748327493667602539e+00 -5.531488656997680664e-01 -6.904429197311401367e-01 -9.975384473800659180e-01
8.540000000000000000e+02 6.023407745361328125e+01 -9.142577171325683594e+00 -2.503060579299926758e+00 -7.246437072753906250e-01 -9.683112502098083496e-01 -1.361147284507751465e+00
8.550000000000000000e+02 6.143163681030273438e+01 -8.409763336181640625e+00 -3.072694778442382812e+00 -8.542949557304382324e-01 -1.178096890449523926e+00 -1.531907320022583008e+00
8.560000000000000000e+02 6.264694213867187500e+01 -7.682714939117431641e+00 -3.910320043563842773e+00 -9.247161746025085449e-01 -1.450510859489440918e+00 -1.903133630752563477e+00
8.570000000000000000e+02 7.429029846191406250e+01 -1.137859344482421875e+01 6.555787563323974609e+00 1.848214721679687500e+01 7.511380672454833984e+00 3.533947229385375977e+00
8.580000000000000000e+02 7.317503356933593750e+01 -1.391230583190917969e+01 3.060211241245269775e-01 1.985305976867675781e+01 6.047724723815917969e+00 2.710018634796142578e+00
8.590000000000000000e+02 7.337890625000000000e+01 -1.386041927337646484e+01 4.583627283573150635e-01 2.054018402099609375e+01 6.299563884735107422e+00 1.452468872070312500e+00
8.600000000000000000e+02 7.450391387939453125e+01 -1.174799156188964844e+01 8.791757583618164062e+00 1.653183746337890625e+01 7.597078800201416016e+00 2.421572923660278320e+00
8.610000000000000000e+02 7.460803985595703125e+01 -1.219465827941894531e+01 9.506963729858398438e+00 1.553043651580810547e+01 7.511219978332519531e+00 3.417886793613433838e-01
8.620000000000000000e+02 7.439847564697265625e+01 -1.155986213684082031e+01 7.754211902618408203e+00 1.760387802124023438e+01 7.607427120208740234e+00 3.276869535446166992e+00
8.630000000000000000e+02 7.429845428466796875e+01 -1.323727703094482422e+01 5.814086437225341797e+00 1.860238265991210938e+01 7.324940681457519531e+00 -3.446865797042846680e+00
8.640000000000000000e+02 7.454775238037109375e+01 -1.262456321716308594e+01 9.601027488708496094e+00 1.617750358581542969e+01 7.733559131622314453e+00 -1.706398963928222656e+00
8.650000000000000000e+02 7.445300292968750000e+01 -1.283463191986083984e+01 8.689982414245605469e+00 1.710478782653808594e+01 7.738430976867675781e+00 -2.757705688476562500e+00
8.660000000000000000e+02 7.456964874267578125e+01 -1.403885269165039062e+01 1.947617769241333008e+00 1.667322349548339844e+01 5.586252689361572266e+00 -2.723159313201904297e+00
8.670000000000000000e+02 7.264910888671875000e+01 -1.054965591430664062e+01 9.625568389892578125e-01 1.557918167114257812e+01 4.962521553039550781e+00 -5.443228244781494141e+00
8.680000000000000000e+02 7.949716186523437500e+01 -9.645217895507812500e+00 5.419637262821197510e-02 3.938750267028808594e+00 1.197883963584899902e+00 7.555390000343322754e-01
8.690000000000000000e+02 7.404724121093750000e+01 -1.100974178314208984e+01 3.601734161376953125e+00 1.990830421447753906e+01 7.053011417388916016e+00 2.860960483551025391e+00
8.700000000000000000e+02 7.848834228515625000e+01 -9.434966087341308594e+00 1.178544759750366211e-01 6.568577766418457031e+00 2.005929708480834961e+00 1.945694088935852051e+00
8.710000000000000000e+02 7.108129882812500000e+01 -1.032765674591064453e+01 2.458369255065917969e+00 3.899193048477172852e+00 1.907268643379211426e+00 -3.385265111923217773e+00
8.720000000000000000e+02 6.996971130371093750e+01 -1.040641307830810547e+01 1.250138044357299805e+00 1.187038421630859375e+00 7.311529517173767090e-01 -1.040793895721435547e+00
8.730000000000000000e+02 7.106327056884765625e+01 -1.056706714630126953e+01 2.623777389526367188e+00 3.254329681396484375e+00 1.763432025909423828e+00 -3.067614316940307617e+00
8.740000000000000000e+02 7.164466094970703125e+01 -1.057485198974609375e+01 2.814720153808593750e+00 6.215739250183105469e+00 2.709137916564941406e+00 -4.824889659881591797e+00
8.750000000000000000e+02 7.144882965087890625e+01 -1.058010101318359375e+01 2.978451251983642578e+00 4.885440826416015625e+00 2.359167575836181641e+00 -4.286722660064697266e+00
8.760000000000000000e+02 7.244259643554687500e+01 -1.054706668853759766e+01 1.482681393623352051e+00 1.355776214599609375e+01 4.512133121490478516e+00 -5.894186496734619141e+00
8.770000000000000000e+02 7.067313385009765625e+01 -1.050519657135009766e+01 2.227412700653076172e+00 2.398640155792236328e+00 1.387815833091735840e+00 -2.249812841415405273e+00
8.780000000000000000e+02 7.223888397216796875e+01 -1.055703926086425781e+01 2.015737056732177734e+00 1.124362373352050781e+01 3.977808237075805664e+00 -5.921581745147705078e+00
8.790000000000000000e+02 7.144747161865234375e+01 -1.394590377807617188e+01 2.926317214965820312e+00 5.079171657562255859e+00 2.401646614074707031e+00 4.227914810180664062e+00
8.800000000000000000e+02 7.017142486572265625e+01 -1.382156848907470703e+01 1.629369735717773438e+00 1.244086384773254395e+00 8.620368242263793945e-01 9.432995915412902832e-01
8.810000000000000000e+02 6.883200836181640625e+01 -1.394974231719970703e+01 4.337226748466491699e-01 3.540684878826141357e-01 2.363373488187789917e-01 -7.337000221014022827e-02
8.820000000000000000e+02 6.759844207763671875e+01 -1.676978302001953125e+01 5.448346585035324097e-02 7.912675738334655762e-01 2.537253201007843018e-01 4.858497381210327148e-01
8.830000000000000000e+02 7.190448760986328125e+01 -1.397640419006347656e+01 2.899831295013427734e+00 8.038170814514160156e+00 3.281400680541992188e+00 5.573744297027587891e+00
8.840000000000000000e+02 7.233380889892578125e+01 -1.393629646301269531e+01 2.039880275726318359e+00 1.248635482788085938e+01 4.357870578765869141e+00 6.191639423370361328e+00
8.850000000000000000e+02 6.689307403564453125e+01 -1.586438846588134766e+01 -2.045705169439315796e-01 -6.785035729408264160e-01 -2.649222314357757568e-01 -3.029207289218902588e-01
8.860000000000000000e+02 6.761293792724609375e+01 -1.518404102325439453e+01 -1.836552098393440247e-02 -3.824338316917419434e-01 -1.202398091554641724e-01 -4.139734804630279541e-02
8.870000000000000000e+02 7.038384246826171875e+01 -1.409430885314941406e+01 2.031016349792480469e+00 2.114184141159057617e+00 1.243560194969177246e+00 1.753754138946533203e+00
8.880000000000000000e+02 6.993360137939453125e+01 -1.388615417480468750e+01 1.407059431076049805e+00 9.951424598693847656e-01 7.206605672836303711e-01 8.078465461730957031e-01
8.890000000000000000e+02 1.695793724060058594e+01 -1.206008529663085938e+01 1.543616963317617774e-05 5.762747969129122794e-05 2.191909516113810241e-05 6.095301614550407976e-06
8.900000000000000000e+02 1.769000244140625000e+01 -7.076074123382568359e+00 -4.016030743514420465e-06 -1.103674094338202849e-05 -4.515831733442610130e-06 -1.757853169692680240e-06
8.910000000000000000e+02 1.986599731445312500e+01 -9.797756195068359375e+00 -1.009470543067436665e-05 2.572112134657800198e-05 4.687924501922680065e-06 5.265949312160955742e-06
8.920000000000000000e+02 2.011810684204101562e+01 -8.876522064208984375e+00 -6.695980573567794636e-06 1.644648546061944216e-05 2.925151193267083727e-06 5.577981937676668167e-06
8.930000000000000000e+02 1.803175354003906250e+01 -1.385142326354980469e+01 4.913079919788287953e-06 7.492400618502870202e-05 2.395112642261665314e-05 1.231673741131089628e-05
8.940000000000000000e+02 2.725226974487304688e+01 -1.088562679290771484e+01 -3.876745998859405518e-01 -1.434485316276550293e-01 -1.593369394540786743e-01 3.402453660964965820e-01
8.950000000000000000e+02 2.687913513183593750e+01 -1.185914421081542969e+01 -3.069620728492736816e-01 -1.719283014535903931e-01 -1.436671167612075806e-01 3.031263053417205811e-01
8.960000000000000000e+02 2.655330085754394531e+01 -1.121322250366210938e+01 -3.353587388992309570e-01 -1.918738484382629395e-01 -1.581697762012481689e-01 3.307529687881469727e-01
8.970000000000000000e+02 2.620615386962890625e+01 -1.055033683776855469e+01 -3.723462820053100586e-01 -2.220589369535446167e-01 -1.783215701580047607e-01 3.592591881752014160e-01
8.980000000000000000e+02 2.517836380004882812e+01 -1.024870967864990234e+01 -3.494849503040313721e-01 -3.243212103843688965e-01 -2.021418511867523193e-01 3.736047148704528809e-01
8.990000000000000000e+02 2.584274482727050781e+01 -9.880896568298339844e+00 -4.071267843246459961e-01 -2.480009645223617554e-01 -1.965383291244506836e-01 3.894571065902709961e-01
9.000000000000000000e+02 9.323602676391601562e+00 3.405474424362182617e+00 -3.329630792140960693e-01 -1.321014910936355591e-01 -1.395193785429000854e-01 2.007601559162139893e-01
9.010000000000000000e+02 8.447504043579101562e+00 2.661622285842895508e+00 -2.376362979412078857e-01 -6.036766618490219116e-02 -8.940119296312332153e-02 1.238771304488182068e-01
9.020000000000000000e+02 6.188093662261962891e+00 1.870391249656677246e+00 -7.468838989734649658e-02 -9.407198056578636169e-03 -2.522867731750011444e-02 3.066873736679553986e-02
9.030000000000000000e+02 1.666453361511230469e+00 7.781115055084228516e+00 -2.197889238595962524e-02 -1.482897698879241943e-01 -5.108059942722320557e-02 1.016699522733688354e-01
9.040000000000000000e+02 9.221289634704589844e+00 2.637818813323974609e+00 -2.791873216629028320e-01 -1.067095324397087097e-01 -1.157690584659576416e-01 1.601731926202774048e-01
9.050000000000000000e+02 7.653875350952148438e+00 1.887263774871826172e+00 -1.326658129692077637e-01 -1.856644079089164734e-02 -4.536967724561691284e-02 5.855375155806541443e-02
9.060000000000000000e+02 6.930715084075927734e+00 2.640406847000122070e+00 -1.593014746904373169e-01 -2.865024097263813019e-02 -5.638551712036132812e-02 7.509630173444747925e-02
9.070000000000000000e+02 8.510099411010742188e+00 3.435756444931030273e+00 -2.922956049442291260e-01 -1.070710644125938416e-01 -1.198100000619888306e-01 1.736094951629638672e-01
9.080000000000000000e+02 1.327542901039123535e+00 3.392805814743041992e+00 -1.069317944347858429e-02 6.991480942815542221e-03 -1.110509620048105717e-03 -5.049183964729309082e-03
9.090000000000000000e+02 4.067872047424316406e+00 3.307132244110107422e+00 -7.137290388345718384e-02 -4.232008010149002075e-02 -3.410789743065834045e-02 4.210982099175453186e-02
9.100000000000000000e+02 2.569074630737304688e+00 1.927106261253356934e+00 -4.808963276445865631e-03 -1.068184152245521545e-02 -4.647241439670324326e-03 -1.096878573298454285e-02
9.110000000000000000e+02 2.052500247955322266e+00 3.021979331970214844e+00 -1.642872765660285950e-02 -1.351458113640546799e-02 -8.982992731034755707e-03 -2.437521703541278839e-03
9.120000000000000000e+02 1.805863189697265625e+01 -1.203754997253417969e+01 -7.076403107930673286e-06 -5.232452531345188618e-05 -1.782027902663685381e-05 -1.560213263473997358e-06
9.130000000000000000e+02 1.927076911926269531e+01 -1.007776832580566406e+01 1.545511622680351138e-05 -3.943599585909396410e-05 -7.194263616838725284e-06 -1.014276676869485527e-05
9.140000000000000000e+02 2.046720123291015625e+01 -1.106378078460693359e+01 8.883918098945287056e-07 1.186250938189914450e-05 3.825270596280461177e-06 -1.054371659847674891e-05
9.150000000000000000e+02 2.016599273681640625e+01 -1.205918884277343750e+01 5.061747287982143462e-06 -1.099478868127334863e-05 -1.779912395249994006e-06 -2.145814505638554692e-05
9.160000000000000000e+02 4.982244968414306641e+00 -2.689101219177246094e+00 -2.447806537020369433e-06 -6.450070941355079412e-06 -2.669363311724737287e-06 -2.508549187041353434e-06
9.170000000000000000e+02 7.934695720672607422e+00 -1.858803987503051758e+00 -3.417505240577156655e-06 1.765028287081804592e-06 -4.957430519425543025e-07 -1.141262146120425314e-05
9.180000000000000000e+02 2.728743553161621094e+00 -1.904727458953857422e+00 -2.011806685686678975e-07 5.370127837522886693e-06 1.550684146423009224e-06 1.344931297353468835e-05
9.190000000000000000e+02 1.600687384605407715e+00 -8.068941116333007812e+00 -7.123972318368032575e-05 -2.337630348847596906e-06 -2.207320721936412156e-05 -1.242736834683455527e-05
9.200000000000000000e+02 2.747282981872558594e+00 -7.034787654876708984e+00 -4.391581751406192780e-05 -9.327551197202410549e-06 -1.597301161382347345e-05 -4.098874342162162066e-06
9.210000000000000000e+02 1.667816042900085449e+00 -6.765582084655761719e+00 7.394231943180784583e-05 4.315551450417842716e-06 2.347736153751611710e-05 7.662568350497167557e-06
9.220000000000000000e+02 5.732498168945312500e-01 -3.638443231582641602e+00 -3.522318729665130377e-05 4.684886789618758485e-06 -9.161490197584498674e-06 -4.923369033349445090e-06
9.230000000000000000e+02 6.260179281234741211e-01 -5.107718944549560547e+00 5.201475505600683391e-05 5.700454948964761570e-06 1.731456359266303480e-05 4.976760465069673955e-06
9.240000000000000000e+02 1.118908977508544922e+01 -3.982809543609619141e+00 -7.117362656572367996e-06 -5.176260856387671083e-06 -3.688086962938541546e-06 1.456398240406997502e-05
9.250000000000000000e+02 8.662437438964843750e+00 -2.588832616806030273e+00 -6.591567398572806269e-06 9.184491318592336029e-07 -1.701935502751439344e-06 -1.883497316157445312e-05
9.260000000000000000e+02 6.486945152282714844e+00 -2.633051156997680664e+00 1.092158890969585627e-05 -4.495314442465314642e-06 1.927882294694427401e-06 1.517070722911739722e-05
9.270000000000000000e+02 5.734941959381103516e+00 -2.669231891632080078e+00 -8.774067282502073795e-06 8.264928510470781475e-06 -1.527416060298492084e-07 -8.452441761619411409e-06
9.280000000000000000e+02 9.354144096374511719e+00 -2.614970922470092773e+00 8.162732228811364621e-06 -4.181321855867281556e-06 1.194423248307430185e-06 2.160062467737589031e-05
9.290000000000000000e+02 1.019409275054931641e+01 -1.992329716682434082e+00 1.159271278083906509e-06 -6.110149115556851029e-07 1.644769156428083079e-07 1.579559284436982125e-05
9.300000000000000000e+02 2.465412139892578125e+01 -7.875615596771240234e+00 -5.516337156295776367e-01 -3.461021780967712402e-01 -2.693207561969757080e-01 4.791480898857116699e-01
9.310000000000000000e+02 2.404636573791503906e+01 -8.244788169860839844e+00 -4.921401739120483398e-01 -4.469267129898071289e-01 -2.817200720310211182e-01 4.907813966274261475e-01
9.320000000000000000e+02 2.546076583862304688e+01 -9.210780143737792969e+00 -4.536537230014801025e-01 -2.818792760372161865e-01 -2.206598967313766479e-01 4.190271496772766113e-01
9.330000000000000000e+02 2.506150627136230469e+01 -8.544494628906250000e+00 -4.951853454113006592e-01 -3.102889060974121094e-01 -2.416422814130783081e-01 4.498143792152404785e-01
9.340000000000000000e+02 2.190149879455566406e+01 -1.584214496612548828e+01 -5.550366950046736747e-06 -2.941181992355268449e-05 -1.048865669872611761e-05 -5.818071713292738423e-06
9.350000000000000000e+02 2.235600280761718750e+01 -5.559866428375244141e+00 -7.739297151565551758e-01 -5.902040004730224609e-01 -4.092400968074798584e-01 6.453368663787841797e-01
9.360000000000000000e+02 2.397260856628417969e+01 -5.443074703216552734e+00 -7.431655526161193848e-01 -3.123227059841156006e-01 -3.166464865207672119e-01 5.114494562149047852e-01
9.370000000000000000e+02 2.424424743652343750e+01 -7.196554183959960938e+00 -6.028583049774169922e-01 -3.726783394813537598e-01 -2.926609814167022705e-01 5.093478560447692871e-01
9.380000000000000000e+02 2.382418441772460938e+01 -6.511778831481933594e+00 -6.707486510276794434e-01 -4.034210741519927979e-01 -3.222509026527404785e-01 5.382490158081054688e-01
9.390000000000000000e+02 2.141049575805664062e+01 -3.099832773208618164e+00 -9.049041271209716797e-01 -5.030207037925720215e-01 -4.223774373531341553e-01 6.147674918174743652e-01
9.400000000000000000e+02 1.698090553283691406e+01 -4.154992103576660156e-01 -6.915376782417297363e-01 -7.855231165885925293e-01 -4.431182444095611572e-01 7.854975461959838867e-01
9.410000000000000000e+02 1.685214424133300781e+01 4.215401649475097656e+00 -5.742651224136352539e-01 -8.799933791160583496e-01 -4.362775385379791260e-01 6.806822419166564941e-01
9.420000000000000000e+02 1.594014358520507812e+01 1.212214946746826172e+00 -4.326449334621429443e-01 -7.888107299804687500e-01 -3.664367198944091797e-01 6.971936821937561035e-01
9.430000000000000000e+02 1.549910449981689453e+01 6.615614414215087891e+00 -9.340258836746215820e-01 -1.470624685287475586e+00 -7.213951945304870605e-01 1.006578683853149414e+00
9.440000000000000000e+02 1.644095230102539062e+01 5.783371448516845703e+00 -9.412702918052673340e-01 -9.949225187301635742e-01 -5.808578729629516602e-01 9.880011081695556641e-01
9.450000000000000000e+02 1.323809051513671875e+01 1.971070408821105957e+00 -4.132463634014129639e-01 -4.583112597465515137e-01 -2.614672780036926270e-01 4.446233510971069336e-01
9.460000000000000000e+02 1.162135696411132812e+01 2.299823999404907227e+00 -3.750745952129364014e-01 -2.683890163898468018e-01 -1.930390894412994385e-01 2.982171475887298584e-01
9.470000000000000000e+02 2.195692634582519531e+01 -3.771529912948608398e+00 -8.857544064521789551e-01 -4.869683384895324707e-01 -4.118168056011199951e-01 6.082109212875366211e-01
9.480000000000000000e+02 2.083554649353027344e+01 -2.445344686508178711e+00 -8.954148888587951660e-01 -5.382986664772033691e-01 -4.301140606403350830e-01 6.315193772315979004e-01
9.490000000000000000e+02 2.027807044982910156e+01 -2.999956607818603516e+00 -9.988874197006225586e-01 -6.927608847618103027e-01 -5.074945092201232910e-01 7.411626577377319336e-01
9.500000000000000000e+02 2.022053718566894531e+01 -1.812509655952453613e+00 -8.627586960792541504e-01 -5.771951079368591309e-01 -4.319861531257629395e-01 6.572639942169189453e-01
9.510000000000000000e+02 3.250780105590820312e+01 -1.705636215209960938e+01 -2.726963758468627930e-01 1.317938230931758881e-02 -7.785510271787643433e-02 1.010468080639839172e-01
9.520000000000000000e+02 3.154592704772949219e+01 -1.553871917724609375e+01 -3.115192055702209473e-01 -1.022966392338275909e-02 -9.652465581893920898e-02 1.529532670974731445e-01
9.530000000000000000e+02 2.889887428283691406e+01 -1.500266838073730469e+01 -2.367276549339294434e-01 -7.791108638048171997e-02 -9.439162164926528931e-02 1.796640008687973022e-01
9.540000000000000000e+02 2.781063079833984375e+01 -1.228254890441894531e+01 -3.220758140087127686e-01 -1.161336228251457214e-01 -1.314628273248672485e-01 2.877571582794189453e-01
9.550000000000000000e+02 3.007984352111816406e+01 -1.473922252655029297e+01 -2.871130704879760742e-01 -4.832236468791961670e-02 -1.006306260824203491e-01 1.858474314212799072e-01
9.560000000000000000e+02 3.362506484985351562e+01 -1.691855621337890625e+01 -3.146618008613586426e-01 1.895825192332267761e-02 -8.871106803417205811e-02 1.016412749886512756e-01
9.570000000000000000e+02 3.236616516113281250e+01 -1.593984127044677734e+01 -3.189385533332824707e-01 1.233975775539875031e-02 -9.197963774204254150e-02 1.331798136234283447e-01
9.580000000000000000e+02 1.885261917114257812e+01 -7.637201547622680664e-01 -7.353999614715576172e-01 -6.869451403617858887e-01 -4.267035126686096191e-01 7.415493726730346680e-01
9.590000000000000000e+02 1.815997123718261719e+01 -3.009421825408935547e-01 -6.256107091903686523e-01 -7.561134696006774902e-01 -4.145172536373138428e-01 7.687937021255493164e-01
9.600000000000000000e+02 2.882970046997070312e+01 -1.283101749420166016e+01 -3.302640914916992188e-01 -7.660413533449172974e-02 -1.220604702830314636e-01 2.646076679229736328e-01
9.610000000000000000e+02 2.821199417114257812e+01 -1.338739967346191406e+01 -2.787348330020904541e-01 -9.922264516353607178e-02 -1.133872419595718384e-01 2.463890612125396729e-01
9.620000000000000000e+02 2.304391098022460938e+01 -1.631328392028808594e+01 3.873074547300348058e-06 3.412700971239246428e-05 1.140002586907939985e-05 5.312422217684797943e-07
9.630000000000000000e+02 2.227384567260742188e+01 -1.495807456970214844e+01 7.510931482102023438e-06 1.852797140600159764e-05 7.811670911905821413e-06 2.188089183619013056e-06
9.640000000000000000e+02 1.434329414367675781e+01 -3.375304698944091797e+00 2.093224111376912333e-06 1.485609004703292158e-06 1.073649855243274942e-06 -1.010139840218471363e-06
9.650000000000000000e+02 1.462053871154785156e+01 -4.494684696197509766e+00 5.102104751131264493e-06 3.779367034439928830e-06 2.664441581146093085e-06 8.296979103761259466e-07
9.660000000000000000e+02 1.438698673248291016e+01 -6.242162704467773438e+00 2.789416157611412928e-06 -2.104904069710755721e-06 2.053536576340775355e-07 -7.291127076314296573e-06
9.670000000000000000e+02 1.657577896118164062e+01 -5.890955924987792969e+00 -3.445637503318721429e-06 -1.298407005378976464e-05 -4.928912403556751087e-06 -2.229063653658158728e-07
9.680000000000000000e+02 1.779453277587890625e+01 -5.923157691955566406e+00 -4.535217158263549209e-06 -9.051184861164074391e-06 -4.075920514878816903e-06 -1.829859229474095628e-06
9.690000000000000000e+02 1.597285747528076172e+01 -6.479900360107421875e+00 3.000196556968148798e-06 1.489301939727738500e-05 5.367964604374719784e-06 1.861067744357569609e-07
9.700000000000000000e+02 1.005405426025390625e+01 -2.729633331298828125e+00 -3.109133785983431153e-07 6.499805294879479334e-06 1.856667608990392182e-06 -2.436724025756120682e-05
9.710000000000000000e+02 1.312439346313476562e+01 -3.800091981887817383e+00 6.146672603790648282e-06 -1.432145921853589243e-07 1.801037456061749253e-06 -6.273725375649519265e-06
9.720000000000000000e+02 1.195583915710449219e+01 -4.276983261108398438e+00 8.230529601860325783e-06 2.723937313930946402e-06 3.286340188424219377e-06 -1.516928477940382436e-05
9.730000000000000000e+02 1.233749389648437500e+01 -3.495788335800170898e+00 -6.194411980686709285e-06 6.506280101348238532e-07 -1.663135094531753566e-06 9.040642908075824380e-06
9.740000000000000000e+02 1.352576637268066406e+01 -3.038842916488647461e+00 -2.664733756319037639e-06 1.142039991464116611e-06 -4.568080953504249919e-07 3.439375177549663931e-06
9.750000000000000000e+02 6.943364715576171875e+01 -1.037151336669921875e+01 8.580489754676818848e-01 7.687374353408813477e-01 4.880359172821044922e-01 -4.938292801380157471e-01
9.760000000000000000e+02 6.813352966308593750e+01 -9.600765228271484375e+00 2.349133342504501343e-01 -4.061684906482696533e-01 -5.137654393911361694e-02 -1.159989163279533386e-01
9.770000000000000000e+02 1.849135971069335938e+01 4.294156551361083984e+00 -6.028740406036376953e-01 -3.790892958641052246e-01 -2.945889830589294434e-01 5.588269233703613281e-01
9.780000000000000000e+02 1.742990684509277344e+01 4.952451705932617188e+00 -1.048341631889343262e+00 -8.685542345046997070e-01 -5.750687718391418457e-01 8.365161418914794922e-01
9.790000000000000000e+02 6.871024322509765625e+01 -7.009396076202392578e+00 -1.531559228897094727e+00 2.697872161865234375e+00 3.498938679695129395e-01 -1.377690196037292480e+00
9.800000000000000000e+02 6.801421356201171875e+01 -8.369819641113281250e+00 -6.441816091537475586e-01 2.765227854251861572e-01 -1.102976500988006592e-01 -8.046089112758636475e-02
9.810000000000000000e+02 2.825840568542480469e+01 8.812326431274414062e+00 6.770482659339904785e-02 -3.020712435245513916e-01 -7.030992209911346436e-02 6.260539293289184570e-01
9.820000000000000000e+02 2.715169334411621094e+01 9.804867744445800781e+00 -2.890704572200775146e-02 -4.440736174583435059e-01 -1.418942064046859741e-01 6.301687955856323242e-01
9.830000000000000000e+02 6.413591766357421875e+01 -5.097182750701904297e+00 -2.795611858367919922e+00 -9.524999260902404785e-01 -1.124433517456054688e+00 -3.899877071380615234e-01
9.840000000000000000e+02 6.538188934326171875e+01 -6.723835945129394531e+00 -6.739339828491210938e+00 -8.676902651786804199e-01 -2.282109022140502930e+00 -2.076775729656219482e-01
9.850000000000000000e+02 1.386422443389892578e+01 1.376567268371582031e+01 4.791944026947021484e-01 -1.703183799982070923e-01 9.266281127929687500e-02 4.649934172630310059e-01
9.860000000000000000e+02 1.558665752410888672e+01 1.858819580078125000e+01 3.124639093875885010e-01 1.140302270650863647e-01 1.279482394456863403e-01 2.643649578094482422e-01
9.870000000000000000e+02 2.124659347534179688e+01 1.633209609985351562e+01 -2.625457942485809326e-01 -2.735561430454254150e-01 -1.608305722475051880e-01 3.580622076988220215e-01
9.880000000000000000e+02 2.061132049560546875e+01 1.833695793151855469e+01 2.458062916994094849e-01 -1.998860836029052734e-01 1.377606391906738281e-02 6.561320424079895020e-01
9.890000000000000000e+02 1.331920814514160156e+01 2.678665161132812500e+00 -4.051057696342468262e-01 -5.679575800895690918e-01 -2.919190227985382080e-01 4.696432650089263916e-01
9.900000000000000000e+02 2.302123451232910156e+01 1.875947189331054688e+01 2.250437587499618530e-01 -5.629212856292724609e-01 -1.013632565736770630e-01 5.529664754867553711e-01
9.910000000000000000e+02 1.558181571960449219e+01 2.586954593658447266e+00 -3.724177181720733643e-01 -8.470397591590881348e-01 -3.658372461795806885e-01 6.324323415756225586e-01
9.920000000000000000e+02 2.581452941894531250e+01 5.539859294891357422e+00 4.070439636707305908e-01 9.143193252384662628e-03 1.248561516404151917e-01 2.360047101974487305e-01
9.930000000000000000e+02 2.118296432495117188e+01 3.099928855895996094e+00 -7.997870445251464844e-02 1.071147248148918152e-01 8.140807040035724640e-03 4.417948722839355469e-01
9.940000000000000000e+02 2.474604797363281250e+01 4.803596973419189453e+00 3.514871001243591309e-01 2.308654040098190308e-01 1.747057437896728516e-01 2.020063102245330811e-01
9.950000000000000000e+02 6.669036102294921875e+01 -5.715127944946289062e+00 -3.156886816024780273e+00 5.918135046958923340e-01 -7.695220112800598145e-01 -1.696322441101074219e+00
9.960000000000000000e+02 1.569262886047363281e+01 1.733254623413085938e+01 5.572665929794311523e-01 1.711242347955703735e-01 2.185172587633132935e-01 2.634929716587066650e-01
9.970000000000000000e+02 1.417447280883789062e+01 1.495458889007568359e+01 6.160577535629272461e-01 -1.327487379312515259e-01 1.449927091598510742e-01 3.570859134197235107e-01
9.980000000000000000e+02 2.580365180969238281e+01 9.807041168212890625e+00 -2.652929397299885750e-03 -5.335686802864074707e-01 -1.608664840459823608e-01 1.981027424335479736e-01
9.990000000000000000e+02 1.336126995086669922e+01 1.114760971069335938e+01 2.641953527927398682e-02 -6.325901746749877930e-01 -1.818511933088302612e-01 4.660636782646179199e-01
1.000000000000000000e+03 2.352634429931640625e+01 4.127288818359375000e+00 3.140627443790435791e-01 2.815459966659545898e-01 1.786826252937316895e-01 2.430464476346969604e-01
1.001000000000000000e+03 2.533731460571289062e+01 1.490325641632080078e+01 -4.331649541854858398e-01 -9.342871308326721191e-01 -4.102356135845184326e-01 4.478731155395507812e-01
1.002000000000000000e+03 2.325564956665039062e+01 1.672253608703613281e+01 -1.499600559473037720e-01 -7.113267183303833008e-01 -2.583860158920288086e-01 4.821770787239074707e-01
1.003000000000000000e+03 2.746215438842773438e+01 7.655200481414794922e+00 2.347106039524078369e-01 -2.633435428142547607e-01 -8.589881472289562225e-03 4.898984730243682861e-01
1.004000000000000000e+03 2.715638542175292969e+01 8.712624549865722656e+00 1.759263724088668823e-01 -3.443351984024047852e-01 -5.052264407277107239e-02 5.485748648643493652e-01
1.005000000000000000e+03 1.241831684112548828e+01 2.126963615417480469e+00 -3.835885822772979736e-01 -3.836692273616790771e-01 -2.301773428916931152e-01 3.747321665287017822e-01
1.006000000000000000e+03 1.729014205932617188e+01 1.427665352821350098e+00 -4.108750820159912109e-01 -7.929500341415405273e-01 -3.611475527286529541e-01 7.668303251266479492e-01
1.007000000000000000e+03 2.079033660888671875e+01 -1.204129338264465332e+00 -7.478368878364562988e-01 -4.247634410858154297e-01 -3.517800867557525635e-01 5.748899579048156738e-01
1.008000000000000000e+03 1.313179206848144531e+01 8.612166404724121094e+00 -5.298626422882080078e-01 -7.523819208145141602e-01 -3.846733570098876953e-01 6.300010085105895996e-01
1.009000000000000000e+03 1.440301990509033203e+01 9.641986846923828125e+00 -5.566966906189918518e-02 -1.246033191680908203e+00 -3.905108571052551270e-01 2.747718989849090576e-01
1.010000000000000000e+03 1.149688911437988281e+01 -1.169152545928955078e+01 5.473146302392706275e-06 -1.026970858220010996e-04 -2.916718221968039870e-05 -1.722227807476883754e-06
1.011000000000000000e+03 2.644763469696044922e+00 -1.069385910034179688e+01 3.244175604777410626e-05 -8.352936333722027484e-07 9.481938832323066890e-06 3.641885632532648742e-05
1.012000000000000000e+03 7.645157337188720703e+00 -1.376688194274902344e+01 1.918642810778692365e-04 1.686963951215147972e-04 1.081682057701982558e-04 3.376736640348099172e-05
1.013000000000000000e+03 9.218754768371582031e+00 -1.418423843383789062e+01 2.686961088329553604e-04 1.549382868688553572e-04 1.270903158001601696e-04 2.118115517077967525e-04
1.014000000000000000e+03 1.228040409088134766e+01 -9.620221138000488281e+00 -7.611046157762757502e-07 -1.050840182870160788e-05 -3.380851921974681318e-06 -7.905692655185703188e-06
1.015000000000000000e+03 4.281431961059570312e+01 7.650469779968261719e+00 -3.500705957412719727e-01 3.274161517620086670e-01 -6.796326488256454468e-03 2.076019346714019775e-01
1.016000000000000000e+03 4.310208129882812500e+01 1.050487327575683594e+01 -8.342479169368743896e-02 6.288925409317016602e-01 1.636403203010559082e-01 3.268510103225708008e-02
1.017000000000000000e+03 9.270708084106445312e+00 -1.754688644409179688e+01 -1.036802423186600208e-04 -7.365553028648719192e-05 -5.320073250913992524e-05 -1.028759943437762558e-04
1.018000000000000000e+03 4.595718383789062500e+01 1.792971611022949219e+01 7.452495098114013672e-01 3.497608006000518799e-01 3.285031020641326904e-01 4.932724237442016602e-01
1.019000000000000000e+03 1.450519275665283203e+01 -1.134787654876708984e+01 -1.256361315427056979e-06 5.039650204707868397e-05 1.474204145779367536e-05 1.945446456375066191e-05
1.020000000000000000e+03 5.982812500000000000e+01 -2.438061714172363281e+01 -1.799514532089233398e+00 -1.274762153625488281e+00 -9.222829937934875488e-01 -1.459817767143249512e+00
1.021000000000000000e+03 4.490332031250000000e+01 -3.175640487670898438e+01 -4.126491248607635498e-01 -7.424656301736831665e-02 -1.460687071084976196e-01 -1.879994422197341919e-01
1.022000000000000000e+03 4.877572250366210938e+01 -3.045024681091308594e+01 -1.010102868080139160e+00 -2.401428818702697754e-01 -3.750737309455871582e-01 -4.541070163249969482e-01
1.023000000000000000e+03 3.690360641479492188e+01 -3.466595077514648438e+01 -2.312487550079822540e-02 -2.260496839880943298e-02 -1.371895335614681244e-02 -3.303261473774909973e-02
1.024000000000000000e+03 4.717544937133789062e+01 -3.262113189697265625e+01 -4.209083318710327148e-01 -2.623402178287506104e-01 -2.049745619297027588e-01 -4.019131660461425781e-01
1.025000000000000000e+03 1.020085144042968750e+01 -1.881250572204589844e+01 1.599147508386522532e-04 1.453109580324962735e-04 9.156771557172760367e-05 9.510749077890068293e-05
1.026000000000000000e+03 4.922347640991210938e+01 -3.148674774169921875e+01 -6.734709143638610840e-01 -3.715921044349670410e-01 -3.135188817977905273e-01 -5.029643774032592773e-01
1.027000000000000000e+03 1.227082252502441406e+01 -2.093955993652343750e+01 2.590948424767702818e-04 9.669904102338477969e-05 1.067381672328338027e-04 1.373887062072753906e-04
1.028000000000000000e+03 1.699909973144531250e+01 -7.665948867797851562e+00 6.750557076884433627e-06 1.532328133180271834e-05 6.622151431656675413e-06 7.460873803211143240e-07
1.029000000000000000e+03 1.431321144104003906e+01 -1.224393558502197266e+01 -4.945125056110555306e-06 -9.110152313951402903e-05 -2.881399450416211039e-05 -2.577674058557022363e-05
1.030000000000000000e+03 2.773147773742675781e+01 -3.061548233032226562e+01 1.591454260051250458e-02 2.353164134547114372e-03 5.480312276631593704e-03 -3.695717314258217812e-03
1.031000000000000000e+03 7.673648071289062500e+01 -3.813078308105468750e+01 -2.737848833203315735e-02 8.729464530944824219e+00 2.610625743865966797e+00 8.072124421596527100e-02
1.032000000000000000e+03 7.923052215576171875e+01 -3.477058410644531250e+01 3.175826743245124817e-02 1.006944561004638672e+01 3.030361413955688477e+00 8.375809341669082642e-02
1.033000000000000000e+03 7.931705474853515625e+01 -2.784553146362304688e+01 -1.289170049130916595e-02 1.089568233489990234e+01 3.264837265014648438e+00 5.272201448678970337e-02
1.034000000000000000e+03 7.744693756103515625e+01 3.290235900878906250e+01 1.799400523304939270e-02 5.175422191619873047e+00 1.558024764060974121e+00 -8.845902979373931885e-02
1.035000000000000000e+03 7.952083587646484375e+01 3.629399871826171875e+01 7.931099273264408112e-03 5.272568702697753906e+00 1.584149956703186035e+00 -1.504392363131046295e-02
1.036000000000000000e+03 7.942060089111328125e+01 -2.086695480346679688e+01 -7.948260754346847534e-02 1.035423374176025391e+01 3.082425117492675781e+00 -3.128748536109924316e-01
1.037000000000000000e+03 7.794253540039062500e+01 -2.777858352661132812e+01 -4.021979123353958130e-02 1.000897979736328125e+01 2.990628004074096680e+00 1.643386036157608032e-01
1.038000000000000000e+03 7.806726074218750000e+01 -2.637743949890136719e+01 -8.415542542934417725e-02 1.015813350677490234e+01 3.022193431854248047e+00 8.892772346735000610e-02
1.039000000000000000e+03 7.927118682861328125e+01 -3.062121009826660156e+01 -1.606824621558189392e-02 1.056940269470214844e+01 3.166000366210937500e+00 7.244180887937545776e-02
1.040000000000000000e+03 7.770281982421875000e+01 -3.333866119384765625e+01 8.594018407166004181e-03 9.368222236633300781e+00 2.813045024871826172e+00 2.186699956655502319e-01
1.041000000000000000e+03 7.574212646484375000e+01 -4.072789382934570312e+01 1.435114443302154541e-01 8.366686820983886719e+00 2.553059577941894531e+00 -1.050173938274383545e-01
1.042000000000000000e+03 7.798244476318359375e+01 1.410049152374267578e+01 2.722469158470630646e-02 6.754705905914306641e+00 2.034579038619995117e+00 -3.207596838474273682e-01
1.043000000000000000e+03 7.933065795898437500e+01 1.538436222076416016e+01 7.766539696604013443e-03 6.861154556274414062e+00 2.060676336288452148e+00 -9.762287139892578125e-02
1.044000000000000000e+03 7.792996215820312500e+01 2.105036544799804688e+01 1.732519268989562988e-02 5.931213855743408203e+00 1.784561753273010254e+00 -1.951979547739028931e-01
1.045000000000000000e+03 7.929323577880859375e+01 2.235702323913574219e+01 4.072852432727813721e-03 6.016272544860839844e+00 1.806103587150573730e+00 -6.086900085210800171e-02
1.046000000000000000e+03 7.742474365234375000e+01 3.122480201721191406e+01 8.844572119414806366e-03 5.223408699035644531e+00 1.569675922393798828e+00 -9.971989691257476807e-02
1.047000000000000000e+03 7.789378356933593750e+01 2.811608123779296875e+01 1.213815528899431229e-02 5.435688495635986328e+00 1.634348034858703613e+00 -1.162068024277687073e-01
1.048000000000000000e+03 7.927186584472656250e+01 2.796971702575683594e+01 2.035810379311442375e-03 5.591976165771484375e+00 1.678203582763671875e+00 -4.520467668771743774e-02
1.049000000000000000e+03 7.782640075683593750e+01 2.535229492187500000e+01 1.485350448638200760e-02 5.593461990356445312e+00 1.682494640350341797e+00 -1.473781317472457886e-01
1.050000000000000000e+03 7.782884979248046875e+01 2.391091537475585938e+01 1.637593843042850494e-02 5.685115337371826172e+00 1.710447311401367188e+00 -1.654114425182342529e-01
1.051000000000000000e+03 7.797209167480468750e+01 1.826928329467773438e+01 2.012638002634048462e-02 6.219053268432617188e+00 1.871753931045532227e+00 -2.353155910968780518e-01
1.052000000000000000e+03 7.797398376464843750e+01 1.688697433471679688e+01 2.335197478532791138e-02 6.378603935241699219e+00 1.920586824417114258e+00 -2.644800245761871338e-01
1.053000000000000000e+03 7.798067474365234375e+01 1.270043468475341797e+01 2.881227619946002960e-02 6.971907615661621094e+00 2.100215911865234375e+00 -3.598117828369140625e-01
1.054000000000000000e+03 7.658899688720703125e+01 1.140196037292480469e+01 7.253058254718780518e-02 6.742447853088378906e+00 2.044493675231933594e+00 -6.084716916084289551e-01
1.055000000000000000e+03 7.795924377441406250e+01 8.450192451477050781e+00 1.795660890638828278e-02 7.745662212371826172e+00 2.329085588455200195e+00 -4.555686712265014648e-01
1.056000000000000000e+03 7.932750701904296875e+01 9.795339584350585938e+00 6.539707537740468979e-04 7.942981719970703125e+00 2.383090734481811523e+00 -1.429411172866821289e-01
1.057000000000000000e+03 7.827426147460937500e+01 2.234333753585815430e-02 -1.046476289629936218e-01 9.600893974304199219e+00 2.848873853683471680e+00 -2.279812097549438477e-01
1.058000000000000000e+03 7.940087890625000000e+01 1.402061462402343750e+00 -1.507127657532691956e-02 1.010662651062011719e+01 3.027466535568237305e+00 -1.108510568737983704e-01
1.059000000000000000e+03 7.795734405517578125e+01 7.025484561920166016e+00 2.140457928180694580e-02 8.031382560729980469e+00 2.415836095809936523e+00 -4.812640249729156494e-01
1.060000000000000000e+03 7.940380859375000000e+01 -1.946049118041992188e+01 -6.311264634132385254e-02 9.508769989013671875e+00 2.833697080612182617e+00 -4.874239563941955566e-01
1.061000000000000000e+03 7.773669433593750000e+01 2.959371566772460938e+01 2.320838347077369690e-02 5.337920665740966797e+00 1.608338713645935059e+00 -1.092095971107482910e-01
1.062000000000000000e+03 7.948075103759765625e+01 -6.886096477508544922e+00 -5.025409534573554993e-02 7.846178531646728516e+00 2.338777303695678711e+00 6.265410184860229492e-01
1.063000000000000000e+03 7.950082397460937500e+01 -1.382171058654785156e+01 1.696768403053283691e-01 2.686088323593139648e+00 8.567295670509338379e-01 -5.268397331237792969e-01
1.064000000000000000e+03 7.950028228759765625e+01 -1.241373538970947266e+01 2.023756653070449829e-01 1.806717991828918457e+00 6.027280688285827637e-01 -7.743249647319316864e-03
1.065000000000000000e+03 7.641151428222656250e+01 3.722084045410156250e+01 -4.873085708823055029e-04 5.027333736419677734e+00 1.508053898811340332e+00 -5.406312271952629089e-02
1.066000000000000000e+03 7.797083282470703125e+01 9.878820419311523438e+00 2.535373158752918243e-02 7.464575767517089844e+00 2.246978998184204102e+00 -4.321334064006805420e-01
1.067000000000000000e+03 7.712676239013671875e+01 -3.443656861782073975e-02 -2.453964799642562866e-01 8.954167366027832031e+00 2.612631320953369141e+00 -3.816085755825042725e-01
1.068000000000000000e+03 7.812985992431640625e+01 2.782064437866210938e+00 -4.283553361892700195e-02 9.018924713134765625e+00 2.692826747894287109e+00 -4.302921593189239502e-01
1.069000000000000000e+03 7.833877563476562500e+01 -1.329892992973327637e+00 -1.526945978403091431e-01 9.768921852111816406e+00 2.884868144989013672e+00 -3.915388509631156921e-02
1.070000000000000000e+03 7.946228027343750000e+01 -2.743629455566406250e+00 -5.660304054617881775e-02 1.044752502441406250e+01 3.117276430130004883e+00 1.156770363450050354e-01
1.071000000000000000e+03 7.846623229980468750e+01 -8.091096878051757812e+00 -2.032497972249984741e-01 7.679455280303955078e+00 2.242861509323120117e+00 1.904445290565490723e+00
1.072000000000000000e+03 7.841139221191406250e+01 -5.376522541046142578e+00 -3.345643579959869385e-01 9.267387390136718750e+00 2.679847002029418945e+00 1.021806955337524414e+00
1.073000000000000000e+03 7.847378540039062500e+01 -1.077605438232421875e+01 6.158474087715148926e-01 5.612328052520751953e+00 1.868452668190002441e+00 1.362656116485595703e+00
1.074000000000000000e+03 7.946966552734375000e+01 -1.663949584960937500e+01 -2.453885972499847412e-02 6.575236320495605469e+00 1.965209245681762695e+00 -7.815272212028503418e-01
1.075000000000000000e+03 7.828942871093750000e+01 -2.083069610595703125e+01 -2.691548466682434082e-01 9.944712638854980469e+00 2.902667284011840820e+00 -6.676889061927795410e-01
1.076000000000000000e+03 7.820046997070312500e+01 -1.938098335266113281e+01 -3.699698448181152344e-01 9.522561073303222656e+00 2.745777130126953125e+00 -1.154031991958618164e+00
1.077000000000000000e+03 2.131501579284667969e+01 -1.442329978942871094e+01 -1.529297696833964437e-05 -1.809539935493376106e-05 -1.001651344267884269e-05 1.095424067898420617e-06
1.078000000000000000e+03 2.707244300842285156e+01 -3.170429420471191406e+01 1.211138535290956497e-02 -2.412890607956796885e-04 3.561028977856040001e-03 1.083558890968561172e-05
1.079000000000000000e+03 6.272021865844726562e+01 -2.323857307434082031e+01 -1.100994706153869629e+00 -3.071250319480895996e-01 -4.224359095096588135e-01 -6.776432394981384277e-01
1.080000000000000000e+03 5.384287261962890625e+01 -2.821218109130859375e+01 -1.717792272567749023e+00 -5.714970827102661133e-01 -6.867868304252624512e-01 -1.000027537345886230e+00
1.081000000000000000e+03 5.430503463745117188e+01 -2.936741828918457031e+01 -1.133296132087707520e+00 -6.219599843025207520e-01 -5.265768170356750488e-01 -8.915510177612304688e-01
1.082000000000000000e+03 6.698625946044921875e+01 -1.770260429382324219e+01 -2.010141611099243164e-01 5.668307542800903320e-01 1.097449883818626404e-01 2.402900755405426025e-01
1.083000000000000000e+03 6.817901611328125000e+01 -1.610457229614257812e+01 1.842439174652099609e-01 1.046445727348327637e+00 3.692068755626678467e-01 6.649063825607299805e-01
1.084000000000000000e+03 1.575365924835205078e+01 -1.173774337768554688e+01 -6.826850494690006599e-06 -5.516604142030701041e-05 -1.859786789282225072e-05 -1.665323907218407840e-05
1.085000000000000000e+03 4.813793563842773438e+01 -3.184826660156250000e+01 -5.939416289329528809e-01 -2.983627021312713623e-01 -2.676913142204284668e-01 -4.496544301509857178e-01
1.086000000000000000e+03 6.630767822265625000e+01 -1.881145095825195312e+01 -4.331951439380645752e-01 5.445786118507385254e-01 3.341504931449890137e-02 3.013089671730995178e-02
1.087000000000000000e+03 5.219897079467773438e+01 -3.083524894714355469e+01 -7.653625011444091797e-01 -5.812440514564514160e-01 -4.039819836616516113e-01 -6.778541803359985352e-01
1.088000000000000000e+03 1.815080261230468750e+01 -2.499216461181640625e+01 8.553509251214563847e-04 5.606078775599598885e-04 4.247876349836587906e-04 -1.921576040331274271e-04
1.089000000000000000e+03 2.601890754699707031e+01 -3.116213798522949219e+01 1.134743541479110718e-02 -5.608806386590003967e-04 3.235966432839632034e-03 -2.487691526766866446e-04
1.090000000000000000e+03 6.459414672851562500e+01 -2.316209793090820312e+01 -7.859385609626770020e-01 7.967068552970886230e-01 3.230497706681489944e-03 -1.193611398339271545e-01
1.091000000000000000e+03 6.370833587646484375e+01 -2.025386238098144531e+01 -8.684559464454650879e-01 -7.949727177619934082e-01 -4.990285933017730713e-01 -8.507131338119506836e-01
1.092000000000000000e+03 4.210921478271484375e+01 -3.251802444458007812e+01 -1.678580641746520996e-01 -5.464806407690048218e-02 -6.675183773040771484e-02 -1.056341007351875305e-01
1.093000000000000000e+03 4.442177200317382812e+01 -3.386290359497070312e+01 -1.763226687908172607e-01 -1.728206872940063477e-01 -1.047430112957954407e-01 -2.524621486663818359e-01
1.094000000000000000e+03 1.945236015319824219e+01 -1.254170417785644531e+01 -3.540224895459687104e-07 -1.746450107020791620e-05 -5.345556928659789264e-06 1.623760726943146437e-05
1.095000000000000000e+03 2.016751289367675781e+01 -1.042343997955322266e+01 9.226880138157866895e-06 -2.575154758233111352e-05 -4.957400051353033632e-06 2.679224962776061147e-06
1.096000000000000000e+03 3.259477233886718750e+01 -3.345105743408203125e+01 1.573698781430721283e-02 -1.572898821905255318e-03 4.249226767569780350e-03 -1.618141308426856995e-03
1.097000000000000000e+03 6.554340362548828125e+01 -1.998904609680175781e+01 -5.889032483100891113e-01 3.695240318775177002e-01 -6.581376492977142334e-02 -1.608603596687316895e-01
1.098000000000000000e+03 1.127392292022705078e+01 -1.988298034667968750e+01 -1.335704146185889840e-04 -1.285314356209710240e-04 -7.863055361667647958e-05 -1.285534817725419998e-04
1.099000000000000000e+03 3.389990615844726562e+01 -3.404299545288085938e+01 3.336284076794981956e-03 -1.741709187626838684e-03 4.783724725712090731e-04 -6.810961291193962097e-03
1.100000000000000000e+03 5.328292465209960938e+01 -2.991295051574707031e+01 -1.009327292442321777e+00 -6.034739613533020020e-01 -4.838403761386871338e-01 -8.127290606498718262e-01
1.101000000000000000e+03 6.466981506347656250e+01 -2.113138580322265625e+01 -7.374990582466125488e-01 1.634134054183959961e-01 -1.722256988286972046e-01 -3.503417670726776123e-01
1.102000000000000000e+03 2.339506721496582031e+01 -3.026065254211425781e+01 6.236603949218988419e-03 -1.267680636374279857e-04 1.832950743846595287e-03 -2.715859445743262768e-04
1.103000000000000000e+03 2.090225982666015625e+01 -2.868882179260253906e+01 3.551841480657458305e-03 1.451838907087221742e-04 1.109107630327343941e-03 -1.572815817780792713e-04
1.104000000000000000e+03 5.070974731445312500e+01 -3.138867568969726562e+01 -6.795561313629150391e-01 -4.968764483928680420e-01 -3.529297709465026855e-01 -6.016513705253601074e-01
1.105000000000000000e+03 5.950005722045898438e+01 -2.643207550048828125e+01 -1.293845295906066895e+00 -7.273594141006469727e-01 -6.063613891601562500e-01 -8.536012768745422363e-01
1.106000000000000000e+03 3.545146942138671875e+01 -3.431659317016601562e+01 -4.618504084646701813e-03 -6.050955504179000854e-03 -3.200837876647710800e-03 -1.115252822637557983e-02
1.107000000000000000e+03 6.371385955810546875e+01 -2.220220756530761719e+01 -9.128518104553222656e-01 -4.278520494699478149e-02 -2.866910994052886963e-01 -5.375925898551940918e-01
1.108000000000000000e+03 1.738338279724121094e+01 -2.633320617675781250e+01 1.420969609171152115e-03 -4.670019261538982391e-04 2.861903340090066195e-04 -3.955625288654118776e-04
1.109000000000000000e+03 1.522497749328613281e+01 -2.424155807495117188e+01 3.992968995589762926e-04 -2.468442835379391909e-04 4.573578917188569903e-05 -2.620218438096344471e-04
1.110000000000000000e+03 1.610438537597656250e+01 -2.300923347473144531e+01 3.955334250349551439e-04 3.070628736168146133e-04 2.107788895955309272e-04 8.663398330099880695e-05
1.111000000000000000e+03 4.261877441406250000e+01 4.849704265594482422e+00 -3.529619872570037842e-01 2.108603715896606445e-01 -4.263048246502876282e-02 2.382802516222000122e-01
1.112000000000000000e+03 5.657670211791992188e+01 1.116934967041015625e+01 3.785150051116943359e-01 1.951284050941467285e+00 6.989396810531616211e-01 1.053598448634147644e-01
1.113000000000000000e+03 6.197548675537109375e+01 -6.752864360809326172e+00 -3.869179725646972656e+00 -3.462617695331573486e-01 -1.264632463455200195e+00 -9.075033664703369141e-01
1.114000000000000000e+03 6.077048873901367188e+01 -7.469759941101074219e+00 -2.979735374450683594e+00 -3.610600531101226807e-01 -1.002238631248474121e+00 -1.038184285163879395e+00
1.115000000000000000e+03 4.850025558471679688e+01 5.381214618682861328e+00 -8.846992254257202148e-02 -1.710097864270210266e-02 -3.167127072811126709e-02 3.139188885688781738e-01
1.116000000000000000e+03 5.050146102905273438e+01 4.736031532287597656e+00 7.423869520425796509e-02 2.546502351760864258e-01 9.866668283939361572e-02 5.166193842887878418e-01
1.117000000000000000e+03 4.744001770019531250e+01 6.354899883270263672e+00 -3.270579278469085693e-01 -1.244632154703140259e-01 -1.354563385248184204e-01 2.345380187034606934e-01
1.118000000000000000e+03 4.175483322143554688e+01 -1.810614967346191406e+01 -4.395781457424163818e-01 -3.324594115838408470e-03 -1.328708231449127197e-01 -8.142642676830291748e-02
1.119000000000000000e+03 3.794729995727539062e+01 -1.709480285644531250e+01 -4.123768508434295654e-01 3.071929141879081726e-02 -1.144972667098045349e-01 2.851849049329757690e-02
1.120000000000000000e+03 5.055881118774414062e+01 2.050804710388183594e+01 6.453272104263305664e-01 3.901232481002807617e-01 3.106351494789123535e-01 -1.356362849473953247e-01
1.121000000000000000e+03 4.786413574218750000e+01 2.088971710205078125e+01 5.973638892173767090e-01 4.491495490074157715e-01 3.139540255069732666e-01 3.090111017227172852e-01
1.122000000000000000e+03 4.825502395629882812e+01 -1.608384704589843750e+01 -6.645541787147521973e-01 -7.290619611740112305e-02 -2.212381213903427124e-01 -2.451334297657012939e-01
1.123000000000000000e+03 3.918693923950195312e+01 -1.709048271179199219e+01 -4.441945254802703857e-01 3.741936758160591125e-02 -1.220325455069541931e-01 -4.248844925314188004e-03
1.124000000000000000e+03 4.169267654418945312e+01 -1.681818008422851562e+01 -5.152016282081604004e-01 3.841169178485870361e-02 -1.430369764566421509e-01 -4.873296618461608887e-02
1.125000000000000000e+03 5.184392929077148438e+01 2.046908760070800781e+01 5.880187749862670898e-01 6.532859802246093750e-01 3.723914027214050293e-01 -3.620008230209350586e-01
1.126000000000000000e+03 4.416833877563476562e+01 -1.625949287414550781e+01 -6.016501784324645996e-01 5.309368018060922623e-03 -1.789022386074066162e-01 -9.942802041769027710e-02
1.127000000000000000e+03 4.781372070312500000e+01 -1.493981838226318359e+01 -7.464464306831359863e-01 -8.387453854084014893e-03 -2.264501750469207764e-01 -2.072313129901885986e-01
1.128000000000000000e+03 5.194935989379882812e+01 -1.426689815521240234e+01 -8.910214900970458984e-01 -2.045570015907287598e-01 -3.286735415458679199e-01 -4.330327510833740234e-01
1.129000000000000000e+03 5.554389190673828125e+01 -1.217036151885986328e+01 -1.234039187431335449e+00 -3.590945899486541748e-01 -4.779401421546936035e-01 -6.967888474464416504e-01
1.130000000000000000e+03 5.254778671264648438e+01 -1.251666069030761719e+01 -1.088303208351135254e+00 -1.142351850867271423e-01 -3.607615232467651367e-01 -4.069921970367431641e-01
1.131000000000000000e+03 3.442885971069335938e+01 -1.734518241882324219e+01 -3.111790418624877930e-01 2.140339836478233337e-02 -8.693269640207290649e-02 8.079946786165237427e-02
1.132000000000000000e+03 4.539958572387695312e+01 -1.586635875701904297e+01 -6.358392834663391113e-01 -8.094843477010726929e-03 -1.931802481412887573e-01 -1.419377624988555908e-01
1.133000000000000000e+03 5.192914199829101562e+01 -1.148917961120605469e+01 -1.157135248184204102e+00 1.691945455968379974e-02 -3.420647382736206055e-01 -3.180877864360809326e-01
1.134000000000000000e+03 5.307946395874023438e+01 -1.080841064453125000e+01 -1.301967382431030273e+00 7.040387019515037537e-03 -3.884781301021575928e-01 -3.556722998619079590e-01
1.135000000000000000e+03 4.661497497558593750e+01 -1.542815208435058594e+01 -6.981922984123229980e-01 -2.470344770699739456e-03 -2.101988047361373901e-01 -1.842154115438461304e-01
1.136000000000000000e+03 5.488806915283203125e+01 -1.112912559509277344e+01 -1.415141344070434570e+00 -1.569605618715286255e-01 -4.716305732727050781e-01 -5.647600889205932617e-01
1.137000000000000000e+03 5.605142211914062500e+01 -1.040023136138916016e+01 -1.600237488746643066e+00 -1.999977529048919678e-01 -5.400705337524414062e-01 -6.505376100540161133e-01
1.138000000000000000e+03 4.900467300415039062e+01 -1.439632701873779297e+01 -7.987478971481323242e-01 -2.744679525494575500e-02 -2.478584051132202148e-01 -2.562579214572906494e-01
1.139000000000000000e+03 5.839315032958984375e+01 -8.923983573913574219e+00 -2.152192831039428711e+00 -2.989251613616943359e-01 -7.353354096412658691e-01 -8.458026051521301270e-01
1.140000000000000000e+03 5.372568130493164062e+01 -1.183151245117187500e+01 -1.225655078887939453e+00 -1.378184258937835693e-01 -4.090420603752136230e-01 -5.035728812217712402e-01
1.141000000000000000e+03 4.479787826538085938e+01 1.827219390869140625e+01 5.121167898178100586e-01 9.489895105361938477e-01 4.383318722248077393e-01 6.369467377662658691e-01
1.142000000000000000e+03 4.279500579833984375e+01 1.324801731109619141e+01 8.179057389497756958e-02 1.544030427932739258e+00 4.877462983131408691e-01 2.361327856779098511e-01
1.143000000000000000e+03 4.146492767333984375e+01 1.313125705718994141e+01 2.684570252895355225e-01 1.049805760383605957e+00 3.954788446426391602e-01 4.526865184307098389e-01
1.144000000000000000e+03 4.131124114990234375e+01 1.449944019317626953e+01 4.578134119510650635e-01 9.225804805755615234e-01 4.141181707382202148e-01 4.396306574344635010e-01
1.145000000000000000e+03 5.518832778930664062e+01 1.980801582336425781e+01 4.338230192661285400e-01 1.615025401115417480e+00 6.146545410156250000e-01 -6.145744919776916504e-01
1.146000000000000000e+03 5.425384902954101562e+01 6.749354839324951172e+00 5.126525163650512695e-01 8.660107851028442383e-01 4.135989844799041748e-01 4.510390758514404297e-01
1.147000000000000000e+03 5.560614395141601562e+01 7.195601940155029297e+00 4.942145049571990967e-01 1.096787214279174805e+00 4.773004949092864990e-01 3.253637254238128662e-01
1.148000000000000000e+03 4.647813796997070312e+01 2.107583045959472656e+01 5.082713365554809570e-01 6.029968261718750000e-01 3.333804607391357422e-01 3.771111071109771729e-01
1.149000000000000000e+03 5.343779373168945312e+01 1.892798233032226562e+01 4.520270228385925293e-01 8.735411167144775391e-01 3.976704478263854980e-01 -4.921548962593078613e-01
1.150000000000000000e+03 4.346426773071289062e+01 1.967958831787109375e+01 3.999074697494506836e-01 8.943408131599426270e-01 3.882744908332824707e-01 4.012068808078765869e-01
1.151000000000000000e+03 5.738095855712890625e+01 1.349389839172363281e+01 4.993681013584136963e-01 2.031655550003051758e+00 7.593070864677429199e-01 -3.388301730155944824e-01
1.152000000000000000e+03 4.743593215942382812e+01 4.313056468963623047e+00 -1.543992608785629272e-01 -4.904806241393089294e-02 -6.103419885039329529e-02 3.757073581218719482e-01
1.153000000000000000e+03 4.388900756835937500e+01 7.516659736633300781e+00 -3.410362303256988525e-01 2.051464021205902100e-01 -4.076694324612617493e-02 1.648347973823547363e-01
1.154000000000000000e+03 1.308135747909545898e+00 -4.005475234985351562e+01 -1.766927744029089808e-05 1.146905822679400444e-03 3.387709730304777622e-04 6.896483682794496417e-05
1.155000000000000000e+03 3.151872634887695312e+00 3.773965072631835938e+01 1.328823529183864594e-02 -1.154626369476318359e+00 -3.424014449119567871e-01 -2.902628621086478233e-03
1.156000000000000000e+03 6.761369705200195312e-01 3.456030273437500000e+01 5.361981224268674850e-03 -1.295392990112304688e+00 -3.870092928409576416e-01 -6.699127261526882648e-04
1.157000000000000000e+03 6.590952873229980469e-01 2.623347091674804688e+01 7.818483863957226276e-04 -1.224542379379272461e+00 -3.671281635761260986e-01 9.428080171346664429e-03
1.158000000000000000e+03 1.952172279357910156e+00 2.897861099243164062e+01 2.937623532488942146e-03 -1.154905796051025391e+00 -3.455904722213745117e-01 2.184743247926235199e-02
1.159000000000000000e+03 9.165465235710144043e-01 3.726911926269531250e+01 4.931730218231678009e-03 -1.277148127555847168e+00 -3.816649019718170166e-01 -9.496395476162433624e-03
1.160000000000000000e+03 6.454244256019592285e-01 -3.603025436401367188e+01 -1.321271120104938745e-04 9.117603767663240433e-04 2.338899794267490506e-04 4.551423626253381371e-05
1.161000000000000000e+03 2.555042266845703125e+00 -3.316765975952148438e+01 -5.332876753527671099e-05 5.065259756520390511e-04 1.359591551590710878e-04 3.051310486625880003e-04
1.162000000000000000e+03 3.327939271926879883e+00 2.764077758789062500e+01 5.691344384104013443e-03 -1.027828693389892578e+00 -3.066412210464477539e-01 4.335972666740417480e-02
1.163000000000000000e+03 3.379490613937377930e+00 2.487503242492675781e+01 1.751877367496490479e-02 -9.791716337203979492e-01 -2.884958386421203613e-01 6.442557275295257568e-02
1.164000000000000000e+03 1.946707129478454590e+00 3.164669227600097656e+01 6.431730580516159534e-04 -1.184817194938659668e+00 -3.552522063255310059e-01 1.683334261178970337e-02
1.165000000000000000e+03 1.937716603279113770e+00 3.294702911376953125e+01 4.628786817193031311e-03 -1.196099877357482910e+00 -3.574413359165191650e-01 1.105832587927579880e-02
1.166000000000000000e+03 3.935505151748657227e+00 3.896720123291015625e+01 5.493458360433578491e-03 -1.143141031265258789e+00 -3.412942886352539062e-01 1.420900970697402954e-02
1.167000000000000000e+03 1.795315861701965332e+00 -2.914343452453613281e+01 8.856513159116730094e-05 2.095953823300078511e-04 8.944815635913982987e-05 1.187484740512445569e-04
1.168000000000000000e+03 1.857603192329406738e+00 -2.659681320190429688e+01 7.467483374057337642e-05 9.944875637302175164e-05 5.223707557888701558e-05 7.685070886509492993e-05
1.169000000000000000e+03 5.622081160545349121e-01 7.830110073089599609e+00 -3.147119656205177307e-03 -9.074121713638305664e-02 -2.816650085151195526e-02 3.503987193107604980e-02
1.170000000000000000e+03 1.574448108673095703e+00 -9.386578559875488281e+00 7.489707058994099498e-05 1.356986285827588290e-05 2.654007948876824230e-05 2.018792656599543989e-05
1.171000000000000000e+03 1.975785613059997559e+00 -1.631832885742187500e+01 -7.834663847461342812e-05 -7.108361842256272212e-06 -2.563650014053564519e-05 2.864786074496805668e-05
1.172000000000000000e+03 2.325812578201293945e+00 -3.677008438110351562e+01 -9.060330921784043312e-05 9.119524620473384857e-04 2.464047574903815985e-04 2.804758551064878702e-04
1.173000000000000000e+03 6.470410227775573730e-01 1.915006446838378906e+01 6.270246114581823349e-03 -1.017514944076538086e+00 -3.033733963966369629e-01 3.376280888915061951e-02
1.174000000000000000e+03 6.399644017219543457e-01 1.347575664520263672e+01 6.755419075489044189e-03 -5.854209065437316895e-01 -1.735996454954147339e-01 5.968371778726577759e-02
1.175000000000000000e+03 3.322002172470092773e+00 -3.910500335693359375e+01 4.990501111024059355e-05 1.062871888279914856e-03 3.338330716360360384e-04 3.002621233463287354e-04
1.176000000000000000e+03 2.653885126113891602e+00 -3.803811645507812500e+01 -5.232542753219604492e-05 9.068844956345856190e-04 2.563677262514829636e-04 9.147483069682493806e-05
1.177000000000000000e+03 4.048893928527832031e+00 -3.773624420166015625e+01 -1.473167358199134469e-04 6.096863653510808945e-04 1.387108932249248028e-04 5.493156495504081249e-04
1.178000000000000000e+03 1.819527983665466309e+00 -3.546436691284179688e+01 -2.470926665409933776e-05 6.288775475695729256e-04 1.812504779081791639e-04 1.972399477381259203e-04
1.179000000000000000e+03 2.174670457839965820e+00 -3.172474479675292969e+01 1.026496975100599229e-04 3.822827129624783993e-04 1.454797165933996439e-04 1.618373935343697667e-04
1.180000000000000000e+03 1.810720443725585938e+00 -2.788685798645019531e+01 -4.025699308840557933e-05 1.269039203180000186e-04 2.599407889647409320e-05 9.216911712428554893e-05
1.181000000000000000e+03 3.163365125656127930e+00 -2.691085052490234375e+01 -9.338255040347576141e-06 8.408687426708638668e-05 2.242458504042588174e-05 1.517411728855222464e-04
1.182000000000000000e+03 2.083973407745361328e+00 -2.243378448486328125e+01 -2.390026747889351100e-05 -3.464939800323918462e-05 -1.756490019033662975e-05 2.667690569069236517e-05
1.183000000000000000e+03 1.917921900749206543e+00 -2.524946594238281250e+01 -2.855395359802059829e-05 2.468467937433160841e-05 -1.160782062470389064e-06 4.863412323174998164e-05
1.184000000000000000e+03 2.152045249938964844e+00 -1.939872741699218750e+01 -3.043849210371263325e-05 -3.843812010018154979e-05 -2.066298475256189704e-05 3.056926288991235197e-05
1.185000000000000000e+03 7.220367193222045898e-01 -1.925098609924316406e+01 2.237189983134157956e-05 -2.793126805045176297e-05 -1.667810352046217304e-06 -2.172346648876555264e-05
1.186000000000000000e+03 1.674390196800231934e+00 -1.208293437957763672e+01 9.063622565008699894e-05 -1.108389005821663886e-05 2.386569940426852554e-05 -1.927875246110488661e-06
1.187000000000000000e+03 5.585519671440124512e-01 -1.210715770721435547e+01 -1.353897532681003213e-04 7.260888651217101142e-06 -3.843866215902380645e-05 1.873438009170058649e-06
1.188000000000000000e+03 3.771137714385986328e+00 -4.311916351318359375e+00 8.116073877317830920e-05 1.180359049612889066e-05 2.788929850794374943e-05 2.239356399513781071e-05
1.189000000000000000e+03 2.953909397125244141e+00 -2.646714210510253906e+00 -5.537479864869965240e-06 -2.347248300793580711e-05 -8.702988452569115907e-06 -1.023566892399685457e-05
1.190000000000000000e+03 2.309085130691528320e+00 -4.428629875183105469e+00 7.945980905788019300e-05 1.901538598758634180e-05 2.954255796794313937e-05 -2.363908606639597565e-06
1.191000000000000000e+03 5.288305282592773438e-01 4.979437351226806641e+00 -3.524352097883820534e-03 2.297940850257873535e-02 5.836516618728637695e-03 8.821338415145874023e-03
1.192000000000000000e+03 6.903520584106445312e+00 4.164890289306640625e+00 -2.301984876394271851e-01 -7.606889307498931885e-02 -9.188020974397659302e-02 1.519210338592529297e-01
1.193000000000000000e+03 1.799207687377929688e+00 1.056076526641845703e+01 -1.409954112023115158e-02 -3.368573188781738281e-01 -1.052870601415634155e-01 1.588474512100219727e-01
1.194000000000000000e+03 5.998021364212036133e-01 1.065149974822998047e+01 1.398139982484281063e-03 -3.190584480762481689e-01 -9.529809653759002686e-02 5.369241908192634583e-02
1.195000000000000000e+03 1.935188293457031250e+00 1.339941596984863281e+01 2.982054138556122780e-04 -5.523417592048645020e-01 -1.656130701303482056e-01 1.706404834985733032e-01
1.196000000000000000e+03 1.955975174903869629e+00 2.054994201660156250e+01 1.750033348798751831e-02 -9.726278185844421387e-01 -2.865382432937622070e-01 7.804062217473983765e-02
1.197000000000000000e+03 1.926371932029724121e+00 1.911301994323730469e+01 1.489788200706243515e-02 -9.147900938987731934e-01 -2.699676454067230225e-01 9.617658704519271851e-02
1.198000000000000000e+03 2.008885383605957031e+00 2.483271598815917969e+01 6.162774749100208282e-03 -1.086636543273925781e+00 -3.241420984268188477e-01 3.559296950697898865e-02
1.199000000000000000e+03 7.296217346191406250e+01 -1.392873573303222656e+01 3.743104636669158936e-01 1.857057952880859375e+01 5.683466911315917969e+00 4.097631931304931641e+00
1.200000000000000000e+03 7.385667419433593750e+01 -1.089489459991455078e+01 2.349240064620971680e+00 2.074014854431152344e+01 6.926816463470458984e+00 2.044143676757812500e+00
1.201000000000000000e+03 7.180588531494140625e+01 -1.024588966369628906e+01 1.946459054946899414e+00 8.016345024108886719e+00 2.988841056823730469e+00 -4.911861896514892578e+00
1.202000000000000000e+03 7.125548553466796875e+01 -1.057785511016845703e+01 2.884093761444091797e+00 3.905561208724975586e+00 2.036896467208862305e+00 -3.670138597488403320e+00
1.203000000000000000e+03 7.184017944335937500e+01 -1.056563282012939453e+01 2.695219039916992188e+00 7.552205562591552734e+00 3.074227333068847656e+00 -5.331992149353027344e+00
1.204000000000000000e+03 7.328103637695312500e+01 -1.063572883605957031e+01 1.813758760690689087e-01 2.030579376220703125e+01 6.146150588989257812e+00 -1.873513460159301758e+00
1.205000000000000000e+03 7.073481750488281250e+01 -1.018673133850097656e+01 1.960446119308471680e+00 3.059921026229858398e+00 1.506110072135925293e+00 -2.671430587768554688e+00
1.206000000000000000e+03 7.212358856201171875e+01 -1.395375156402587891e+01 2.611196041107177734e+00 1.002547264099121094e+01 3.791000604629516602e+00 6.037094116210937500e+00
1.207000000000000000e+03 6.899750518798828125e+01 -1.466556549072265625e+01 7.364061474800109863e-01 9.935770034790039062e-01 5.189949274063110352e-01 5.437963604927062988e-01
1.208000000000000000e+03 7.302643585205078125e+01 -1.427265262603759766e+01 -1.083795130252838135e-01 1.689742660522460938e+01 5.036714076995849609e+00 3.277272224426269531e+00
1.209000000000000000e+03 7.587274169921875000e+01 -1.667639160156250000e+01 -1.125248074531555176e+00 1.146718215942382812e+01 3.102580070495605469e+00 -2.121376991271972656e+00
1.210000000000000000e+03 7.400968170166015625e+01 -1.401974582672119141e+01 1.212053298950195312e+00 1.879031562805175781e+01 6.000710487365722656e+00 -1.560793399810791016e+00
1.211000000000000000e+03 7.378243255615234375e+01 -1.369222736358642578e+01 1.910408496856689453e+00 2.091558837890625000e+01 6.847799301147460938e+00 -1.576163411140441895e+00
1.212000000000000000e+03 7.763455963134765625e+01 -1.502588653564453125e+01 4.121448993682861328e-01 8.307394981384277344e+00 2.615861892700195312e+00 -2.543098926544189453e+00
1.213000000000000000e+03 7.505414581298828125e+01 -1.174916648864746094e+01 7.022401809692382812e+00 1.394102096557617188e+01 6.289026737213134766e+00 1.752046704292297363e+00
1.214000000000000000e+03 7.854067993164062500e+01 -1.362196063995361328e+01 6.848478913307189941e-01 5.436880111694335938e+00 1.836518406867980957e+00 -1.270079851150512695e+00
1.215000000000000000e+03 7.381436157226562500e+01 -1.048044395446777344e+01 6.596952676773071289e-01 1.922979545593261719e+01 5.966846942901611328e+00 9.022319316864013672e-01
1.216000000000000000e+03 7.850219726562500000e+01 -1.505571174621582031e+01 1.756044328212738037e-01 6.471062660217285156e+00 1.994000196456909180e+00 -1.868202328681945801e+00
1.217000000000000000e+03 7.476703643798828125e+01 -1.291389942169189453e+01 7.523443222045898438e+00 1.570768642425537109e+01 6.969338893890380859e+00 -2.359475851058959961e+00
1.218000000000000000e+03 7.361087799072265625e+01 -1.037814807891845703e+01 -5.348442122340202332e-02 1.907491302490234375e+01 5.706429004669189453e+00 -2.776232361793518066e-01
1.219000000000000000e+03 7.851945495605468750e+01 -1.217963600158691406e+01 9.268096089363098145e-01 5.084475517272949219e+00 1.803385615348815918e+00 1.649567633867263794e-01
1.220000000000000000e+03 7.460302734375000000e+01 -1.196303749084472656e+01 9.273128509521484375e+00 1.577830028533935547e+01 7.515428543090820312e+00 1.332997918128967285e+00
1.221000000000000000e+03 7.378413391113281250e+01 -1.438416862487792969e+01 -2.002528905868530273e-01 1.793568420410156250e+01 5.320629596710205078e+00 -1.376177221536636353e-01
1.222000000000000000e+03 7.045275878906250000e+01 -1.044366550445556641e+01 1.903255224227905273e+00 1.926788568496704102e+00 1.149013161659240723e+00 -1.814490318298339844e+00
1.223000000000000000e+03 7.217403411865234375e+01 -1.438158416748046875e+01 1.272256731986999512e+00 1.083119010925292969e+01 3.631033897399902344e+00 5.150040626525878906e+00
1.224000000000000000e+03 1.046895980834960938e+01 -3.684285879135131836e+00 6.813448635512031615e-06 1.091974081646185368e-05 5.319956926541635767e-06 -2.329508788534440100e-05
1.225000000000000000e+03 1.952199172973632812e+01 -9.224550247192382812e+00 1.027265261654974893e-05 -2.358397614443674684e-05 -3.993397058366099373e-06 -7.363121312664588913e-06
1.226000000000000000e+03 1.913721466064453125e+01 -8.687726974487304688e+00 -8.554843589081428945e-06 2.253396451123990119e-05 4.193736458546482027e-06 9.274504918721504509e-06
1.227000000000000000e+03 6.833092498779296875e+01 -1.748934936523437500e+01 -3.214061632752418518e-02 2.077103376388549805e+00 6.134887933731079102e-01 9.208891391754150391e-01
1.228000000000000000e+03 6.982450866699218750e+01 -1.502479934692382812e+01 1.201051950454711914e+00 2.364793300628662109e+00 1.069753527641296387e+00 1.578202009201049805e+00
1.229000000000000000e+03 2.797961235046386719e+01 -1.055445289611816406e+01 -4.281921386718750000e-01 -9.276974201202392578e-02 -1.562885642051696777e-01 3.424405157566070557e-01
1.230000000000000000e+03 1.820906448364257812e+01 -7.642018318176269531e+00 1.862024873844347894e-06 1.055534721672302112e-05 3.725211627170210704e-06 7.224207820399897173e-06
1.231000000000000000e+03 1.894496726989746094e+01 -9.589333534240722656e+00 -1.807265289244242013e-05 2.554074308136478066e-05 2.240426738353562541e-06 5.374932698032353073e-06
1.232000000000000000e+03 1.714710807800292969e+01 -6.470926761627197266e+00 2.970582045236369595e-06 1.337476714979857206e-05 4.903604803985217586e-06 1.237841615875368007e-06
1.233000000000000000e+03 1.694375228881835938e+01 -1.092543220520019531e+01 -2.386010783084202558e-05 -3.306757207610644400e-05 -1.707830415398348123e-05 -1.466981393605237827e-05
1.234000000000000000e+03 1.597067642211914062e+01 -5.373328208923339844e+00 3.668780664156656712e-06 1.117984720622189343e-05 4.454588179214624688e-06 5.125434086039604153e-07
1.235000000000000000e+03 1.789843750000000000e+01 -1.005192661285400391e+01 -2.236496766272466630e-05 -2.253968887089286000e-05 -1.347139732388313860e-05 -1.884499761217739433e-05
1.236000000000000000e+03 1.482227134704589844e+01 -5.582683086395263672e+00 1.724890694276837166e-06 8.785064892435912043e-06 3.152986664645140991e-06 2.453954493830678985e-06
1.237000000000000000e+03 1.389118766784667969e+01 -4.128666400909423828e+00 -6.247155852179275826e-06 1.631454324524383992e-06 -1.384710458296467550e-06 4.620655147391516948e-07
1.238000000000000000e+03 2.689906692504882812e+01 -1.018992519378662109e+01 -4.208602011203765869e-01 -1.585971266031265259e-01 -1.738371998071670532e-01 3.663935363292694092e-01
1.239000000000000000e+03 2.757078552246093750e+01 -1.157764053344726562e+01 -3.526957333087921143e-01 -1.256784051656723022e-01 -1.435122489929199219e-01 3.134566247463226318e-01
1.240000000000000000e+03 5.459612846374511719e+00 2.576694011688232422e+00 -9.553787112236022949e-02 -2.014133334159851074e-02 -3.470376133918762207e-02 4.167883843183517456e-02
1.241000000000000000e+03 4.748895168304443359e+00 3.248583793640136719e+00 -9.980584681034088135e-02 -3.326467052102088928e-02 -3.992115333676338196e-02 5.200206488370895386e-02
1.242000000000000000e+03 2.613054752349853516e+00 3.521644830703735352e+00 -2.921302430331707001e-02 -2.568185888230800629e-02 -1.646846532821655273e-02 1.596907339990139008e-02
1.243000000000000000e+03 3.323997020721435547e+00 2.664022207260131836e+00 -3.166656196117401123e-02 -2.110905945301055908e-02 -1.583268679678440094e-02 4.998112563043832779e-03
1.244000000000000000e+03 4.022193431854248047e+00 2.596528768539428711e+00 -4.937724396586418152e-02 -2.041496895253658295e-02 -2.093766443431377411e-02 1.538888551294803619e-02
1.245000000000000000e+03 5.446096420288085938e+00 3.283322811126708984e+00 -1.269607990980148315e-01 -4.292348772287368774e-02 -5.096528679132461548e-02 7.121927291154861450e-02
1.246000000000000000e+03 6.170166969299316406e+00 3.345978498458862305e+00 -1.625711172819137573e-01 -3.975819423794746399e-02 -6.069879233837127686e-02 8.772298693656921387e-02
1.247000000000000000e+03 1.000806903839111328e+01 2.575239658355712891e+00 -3.141193389892578125e-01 -1.337391585111618042e-01 -1.343575567007064819e-01 1.924576014280319214e-01
1.248000000000000000e+03 6.189591407775878906e+00 2.608998537063598633e+00 -1.243981197476387024e-01 -3.240655362606048584e-02 -4.704140126705169678e-02 5.910845473408699036e-02
1.249000000000000000e+03 7.709820270538330078e+00 3.431717157363891602e+00 -2.459268122911453247e-01 -6.658570468425750732e-02 -9.375375509262084961e-02 1.393256485462188721e-01
1.250000000000000000e+03 6.927673339843750000e+00 3.400238037109375000e+00 -2.020110636949539185e-01 -6.107152625918388367e-02 -7.892477512359619141e-02 1.159260049462318420e-01
1.251000000000000000e+03 1.081406784057617188e+01 2.458523511886596680e+00 -3.460311293601989746e-01 -2.149430215358734131e-01 -1.682922542095184326e-01 2.486996352672576904e-01
1.252000000000000000e+03 1.097774791717529297e+01 3.210948228836059570e+00 -3.974753618240356445e-01 -2.648399174213409424e-01 -1.986945867538452148e-01 2.803357243537902832e-01
1.253000000000000000e+03 1.898378944396972656e+01 -1.172553920745849609e+01 -4.157298462814651430e-06 3.974138599005527794e-05 1.067522589437430725e-05 -9.059463991434313357e-06
1.254000000000000000e+03 2.167571067810058594e+01 -1.351086616516113281e+01 1.033591161103686318e-05 2.666461841727141291e-05 1.110015909944195300e-05 -7.171317975007696077e-06
1.255000000000000000e+03 2.087383270263671875e+01 -1.237538051605224609e+01 1.393289767293026671e-05 2.212311846960801631e-05 1.081680511560989544e-05 -2.796552109884942183e-07
1.256000000000000000e+03 3.410246372222900391e+00 -3.163081884384155273e+00 3.985453076893463731e-05 2.656139622558839619e-05 1.992477882595267147e-05 -2.121580138236822677e-07
1.257000000000000000e+03 2.340409278869628906e+00 -2.979145765304565430e+00 1.985166636586654931e-05 2.224944910267367959e-05 1.263033482246100903e-05 8.731205525691621006e-06
1.258000000000000000e+03 4.513240814208984375e+00 -4.988217353820800781e+00 -7.550717418780550361e-05 -1.494540447311010212e-05 -2.713577305257786065e-05 -3.030807056347839534e-05
1.259000000000000000e+03 1.833612561225891113e+00 -5.464250564575195312e+00 -6.837700493633747101e-05 -1.449999308533733711e-05 -2.486309858795721084e-05 5.091435014037415385e-06
1.260000000000000000e+03 7.228295803070068359e+00 -2.604075431823730469e+00 -5.137840616953326389e-06 -2.503630867067840882e-07 -1.616461076991981827e-06 -1.372016049572266638e-05
1.261000000000000000e+03 7.994680404663085938e+00 -3.345563173294067383e+00 -3.161662107231677510e-06 -7.290104804269503802e-06 -3.135530050712986849e-06 -1.678320222708862275e-05
1.262000000000000000e+03 5.802785873413085938e+00 -3.491590023040771484e+00 1.546006024000234902e-05 -5.047934905633155722e-07 4.486580110096838325e-06 2.113601658493280411e-05
1.263000000000000000e+03 8.683182716369628906e+00 -3.330670595169067383e+00 1.149714171333471313e-05 1.761245130182942376e-06 3.977515916631091386e-06 1.595858338987454772e-05
1.264000000000000000e+03 6.554854393005371094e+00 -3.409107923507690430e+00 -4.221895778755424544e-06 -7.635232577740680426e-06 -3.557138370524626225e-06 -1.844055441324599087e-05
1.265000000000000000e+03 2.524433898925781250e+01 -7.487728595733642578e+00 -5.886690616607666016e-01 -2.515723407268524170e-01 -2.520724236965179443e-01 4.627096652984619141e-01
1.266000000000000000e+03 2.338968276977539062e+01 -5.826187133789062500e+00 -7.280609607696533203e-01 -4.209906160831451416e-01 -3.447154760360717773e-01 5.606951713562011719e-01
1.267000000000000000e+03 2.612180137634277344e+01 -8.800724983215332031e+00 -5.015181303024291992e-01 -2.013490945100784302e-01 -2.108601629734039307e-01 4.171295464038848877e-01
1.268000000000000000e+03 2.041437530517578125e+01 -1.396414947509765625e+01 1.792102921172045171e-05 1.353570405626669526e-05 9.437019798497203737e-06 -2.002574746029495145e-07
1.269000000000000000e+03 1.988691902160644531e+01 -1.333741855621337891e+01 -7.920050848042592406e-06 2.614424556668382138e-05 5.467258233693428338e-06 -1.795159187167882919e-05
1.270000000000000000e+03 2.077298927307128906e+01 -1.319314861297607422e+01 -1.120808792620664462e-05 -2.985391620313748717e-05 -1.231860096595482901e-05 9.825796951190568507e-06
1.271000000000000000e+03 3.534335708618164062e+01 -1.801967048645019531e+01 -3.193192183971405029e-01 6.597240921109914780e-03 -9.381660073995590210e-02 4.393481090664863586e-02
1.272000000000000000e+03 2.294176101684570312e+01 -5.140413284301757812e+00 -7.918218970298767090e-01 -4.466808736324310303e-01 -3.715508282184600830e-01 5.785027742385864258e-01
1.273000000000000000e+03 1.271683883666992188e+01 -4.576723098754882812e+00 -1.108736978494562209e-05 3.375630740265478380e-06 -2.313521690666675568e-06 8.588701348344329745e-06
1.274000000000000000e+03 1.078436851501464844e+01 -2.948725223541259766e+00 -3.233109055145177990e-06 -3.434492782616871409e-06 -2.000280574065982364e-06 1.826081097533460706e-05
1.275000000000000000e+03 6.833567810058593750e+01 -9.949211120605468750e+00 2.065600603818893433e-01 -1.961008608341217041e-01 3.137761261314153671e-03 -1.641812920570373535e-01
1.276000000000000000e+03 1.280461215972900391e+01 6.433757781982421875e+00 -6.792687177658081055e-01 -7.673395276069641113e-01 -4.339824616909027100e-01 4.846106767654418945e-01
1.277000000000000000e+03 1.673185157775878906e+01 7.277213931083679199e-01 -4.663728773593902588e-01 -8.175861239433288574e-01 -3.851876854896545410e-01 7.605789899826049805e-01
1.278000000000000000e+03 1.648104095458984375e+01 2.004920244216918945e+00 -3.455469906330108643e-01 -8.783459067344665527e-01 -3.671678602695465088e-01 7.429104447364807129e-01
1.279000000000000000e+03 1.257661724090576172e+01 2.861015319824218750e+00 -4.243635833263397217e-01 -4.460016489028930664e-01 -2.611095607280731201e-01 3.940225541591644287e-01
1.280000000000000000e+03 1.492543506622314453e+01 5.598270416259765625e+00 -6.007798314094543457e-01 -1.114243865013122559e+00 -5.145071148872375488e-01 6.245065927505493164e-01
1.281000000000000000e+03 1.179342269897460938e+01 3.049559116363525391e+00 -4.082989990711212158e-01 -3.774709403514862061e-01 -2.357309907674789429e-01 3.446660935878753662e-01
1.282000000000000000e+03 2.090820884704589844e+01 1.624095916748046875e+00 -3.656921088695526123e-01 -1.116071566939353943e-01 -1.431897729635238647e-01 5.187088847160339355e-01
1.283000000000000000e+03 2.142138290405273438e+01 -1.903869748115539551e+00 -8.140877485275268555e-01 -3.885853290557861328e-01 -3.608019053936004639e-01 5.425054430961608887e-01
1.284000000000000000e+03 1.955166053771972656e+01 -1.238515257835388184e+00 -7.945416569709777832e-01 -6.476826071739196777e-01 -4.326672852039337158e-01 6.925873160362243652e-01
1.285000000000000000e+03 2.877722740173339844e+01 -1.389867401123046875e+01 -2.762120962142944336e-01 -8.092465996742248535e-02 -1.071410253643989563e-01 2.234511673450469971e-01
1.286000000000000000e+03 2.940707778930664062e+01 -1.432686042785644531e+01 -2.774601280689239502e-01 -6.284505128860473633e-02 -1.020915508270263672e-01 2.046666890382766724e-01
1.287000000000000000e+03 3.217889404296875000e+01 -1.419167900085449219e+01 -3.777960538864135742e-01 2.081638202071189880e-02 -1.070939078927040100e-01 1.842279732227325439e-01
1.288000000000000000e+03 3.078916931152343750e+01 -1.514684486389160156e+01 -2.987838387489318848e-01 -2.639108523726463318e-02 -9.755247086286544800e-02 1.684442758560180664e-01
1.289000000000000000e+03 3.302502822875976562e+01 -1.645242500305175781e+01 -3.241002559661865234e-01 1.747873798012733459e-02 -9.198645502328872681e-02 1.235996410250663757e-01
1.290000000000000000e+03 3.278442001342773438e+01 -1.516892433166503906e+01 -3.591014146804809570e-01 2.499824948608875275e-02 -1.002309471368789673e-01 1.536768823862075806e-01
1.291000000000000000e+03 3.377736282348632812e+01 -1.622238349914550781e+01 -3.449296057224273682e-01 3.160477429628372192e-02 -9.399744868278503418e-02 1.162964031100273132e-01
1.292000000000000000e+03 1.793289375305175781e+01 2.112386465072631836e+00 -3.097483813762664795e-01 -7.649180889129638672e-01 -3.223999440670013428e-01 7.589396238327026367e-01
1.293000000000000000e+03 1.929706382751464844e+01 -8.677392452955245972e-02 -5.988169312477111816e-01 -5.628046393394470215e-01 -3.484864830970764160e-01 7.055389285087585449e-01
1.294000000000000000e+03 2.482060241699218750e+01 -6.818679332733154297e+00 -6.440444588661193848e-01 -2.784861922264099121e-01 -2.767592072486877441e-01 4.837871491909027100e-01
1.295000000000000000e+03 2.440117073059082031e+01 -6.136188030242919922e+00 -6.899406313896179199e-01 -2.921653687953948975e-01 -2.946318089962005615e-01 5.000092983245849609e-01
1.296000000000000000e+03 2.764589309692382812e+01 -1.292985534667968750e+01 -2.795998156070709229e-01 -1.232541799545288086e-01 -1.208562031388282776e-01 2.598771750926971436e-01
1.297000000000000000e+03 1.415699481964111328e+01 -5.218945503234863281e+00 -6.641112577199237421e-06 1.805073679861379787e-06 -1.450811623726622202e-06 -3.155044851155253127e-06
1.298000000000000000e+03 1.789481353759765625e+01 -1.098192310333251953e+01 1.628048994462005794e-05 4.488951890380121768e-05 1.835100192693062127e-05 1.803303712222259492e-05
1.299000000000000000e+03 9.862815856933593750e+00 -3.397142648696899414e+00 2.864028374460758641e-06 -1.910711580421775579e-05 -4.872926183452364057e-06 2.749277336988598108e-05
1.300000000000000000e+03 2.305371856689453125e+01 -4.034745693206787109e+00 -8.225987553596496582e-01 -3.386451601982116699e-01 -3.483731746673583984e-01 5.221465826034545898e-01
1.301000000000000000e+03 2.200216865539550781e+01 -2.608972549438476562e+00 -8.377180695533752441e-01 -3.707338273525238037e-01 -3.625355660915374756e-01 5.304511189460754395e-01
1.302000000000000000e+03 1.474239444732666016e+01 3.265988111495971680e+00 -4.174293577671051025e-01 -8.320781588554382324e-01 -3.748522698879241943e-01 5.988976359367370605e-01
1.303000000000000000e+03 1.396880149841308594e+01 3.907984733581542969e+00 -4.422728717327117920e-01 -7.828149795532226562e-01 -3.675263524055480957e-01 4.825690686702728271e-01
1.304000000000000000e+03 1.115847587585449219e+01 3.996341705322265625e+00 -4.494862556457519531e-01 -3.528956174850463867e-01 -2.407145500183105469e-01 3.287726342678070068e-01
1.305000000000000000e+03 1.801297950744628906e+01 8.401045799255371094e-01 -4.462547302246093750e-01 -7.542155981063842773e-01 -3.601410984992980957e-01 7.603495121002197266e-01
1.306000000000000000e+03 3.679793930053710938e+01 -1.699394416809082031e+01 -4.000798761844635010e-01 3.068972192704677582e-02 -1.108170449733734131e-01 5.579216778278350830e-02
1.307000000000000000e+03 2.007185363769531250e+01 -5.181026458740234375e-01 -6.728610992431640625e-01 -4.822600781917572021e-01 -3.465363383293151855e-01 6.298606395721435547e-01
1.308000000000000000e+03 2.856804275512695312e+01 -1.210716247558593750e+01 -3.530519902706146240e-01 -8.300385624170303345e-02 -1.308167576789855957e-01 2.897928655147552490e-01
1.309000000000000000e+03 1.202282238006591797e+01 1.655506706237792969e+01 4.344114959239959717e-01 -3.852743208408355713e-01 1.474115066230297089e-02 3.038510084152221680e-01
1.310000000000000000e+03 3.929616928100585938e+01 -1.576657295227050781e+01 -5.015245079994201660e-01 6.663929671049118042e-02 -1.304655522108078003e-01 3.124451823532581329e-02
1.311000000000000000e+03 4.044554138183593750e+01 -1.699392509460449219e+01 -4.832786917686462402e-01 4.044788703322410583e-02 -1.328492313623428345e-01 -2.692864648997783661e-02
1.312000000000000000e+03 9.837242126464843750e+00 -2.182756614685058594e+01 6.323689740383997560e-05 -1.307445345446467400e-04 -2.025228968705050647e-05 1.937925480888225138e-05
1.313000000000000000e+03 3.005972290039062500e+01 6.195899963378906250e+00 8.575792610645294189e-02 -1.248338595032691956e-01 -1.172278076410293579e-02 4.795097708702087402e-01
1.314000000000000000e+03 2.690771102905273438e+01 6.122701168060302734e+00 3.641139566898345947e-01 -8.740493655204772949e-02 8.301270753145217896e-02 3.546870648860931396e-01
1.315000000000000000e+03 2.858667945861816406e+01 1.076628971099853516e+01 -1.773062944412231445e-01 -2.579419016838073730e-01 -1.305744647979736328e-01 6.254688501358032227e-01
1.316000000000000000e+03 6.873254394531250000e+01 -5.878086566925048828e+00 -2.023790597915649414e+00 3.166526079177856445e+00 3.428206741809844971e-01 -1.732579112052917480e+00
1.317000000000000000e+03 4.735712814331054688e+01 -1.383948802947998047e+01 -7.958634495735168457e-01 4.421076551079750061e-02 -2.254958152770996094e-01 -1.703444123268127441e-01
1.318000000000000000e+03 5.018700027465820312e+01 -1.381376171112060547e+01 -8.975090980529785156e-01 -4.761416092514991760e-02 -2.835369706153869629e-01 -3.066163361072540283e-01
1.319000000000000000e+03 4.396019744873046875e+01 -1.515430736541748047e+01 -6.399438977241516113e-01 4.481978714466094971e-02 -1.785372346639633179e-01 -7.333888113498687744e-02
1.320000000000000000e+03 5.019754028320312500e+01 -1.112799739837646484e+01 -1.073629260063171387e+00 1.080263108015060425e-01 -2.896808683872222900e-01 -1.803760677576065063e-01
1.321000000000000000e+03 2.607466506958007812e+01 1.404718685150146484e+01 -4.985526800155639648e-01 -7.348518371582031250e-01 -3.700213432312011719e-01 4.002763628959655762e-01
1.322000000000000000e+03 4.048962020874023438e+01 -1.568395042419433594e+01 -5.339186787605285645e-01 6.930078566074371338e-02 -1.393853724002838135e-01 4.572464618831872940e-03
1.323000000000000000e+03 1.911584091186523438e+01 -2.937992477416992188e+01 3.081006929278373718e-03 -6.976810254855081439e-05 9.033716050907969475e-04 4.136834759265184402e-04
1.324000000000000000e+03 2.433624267578125000e+01 -3.252389907836914062e+01 6.979670841246843338e-03 -8.002609247341752052e-04 1.853822963312268257e-03 2.473642583936452866e-03
1.325000000000000000e+03 4.448313117027282715e-01 3.566005229949951172e+00 -2.979778917506337166e-03 3.623431921005249023e-02 9.976362809538841248e-03 -4.201069823466241360e-04
1.326000000000000000e+03 6.566598510742187500e+01 -2.206979751586914062e+01 -6.718699336051940918e-01 1.288650751113891602e+00 1.850342452526092529e-01 8.292573690414428711e-02
1.327000000000000000e+03 5.552474212646484375e+01 -3.270446395874023438e+01 3.992608189582824707e-02 -4.570412635803222656e-01 -1.251345574855804443e-01 -4.812494218349456787e-01
1.328000000000000000e+03 1.051140117645263672e+01 -1.018105411529541016e+01 2.707743306018528529e-06 7.974099571583792567e-05 2.473462154739536345e-05 -6.342616688925772905e-05
1.329000000000000000e+03 9.502792358398437500e+00 -1.117349052429199219e+01 -3.643793024821206927e-05 -1.641453418415039778e-04 -6.017497798893600702e-05 -3.036597081518266350e-05
1.330000000000000000e+03 7.139769077301025391e+00 -1.275619220733642578e+01 -2.438570663798600435e-04 -1.049090278684161603e-04 -1.046298275468870997e-04 -9.836710887611843646e-06
1.331000000000000000e+03 4.391722869873046875e+01 6.384604454040527344e+00 -3.521557748317718506e-01 1.615745723247528076e-01 -5.717435851693153381e-02 1.570270061492919922e-01
1.332000000000000000e+03 4.472822570800781250e+01 7.026261806488037109e+00 -3.506860435009002686e-01 4.677848517894744873e-02 -9.117227047681808472e-02 1.380498409271240234e-01
1.333000000000000000e+03 3.623420715332031250e+01 -1.306740188598632812e+01 -5.143867135047912598e-01 1.006583794951438904e-01 -1.241184994578361511e-01 1.565977185964584351e-01
1.334000000000000000e+03 1.357634067535400391e+01 1.247569465637207031e+01 1.771365106105804443e-01 -3.673857450485229492e-01 -5.707477405667304993e-02 4.544569551944732666e-01
1.335000000000000000e+03 1.216934299468994141e+01 1.140398979187011719e+01 2.998958574607968330e-03 -5.694660544395446777e-01 -1.699401289224624634e-01 6.377682685852050781e-01
1.336000000000000000e+03 5.877235031127929688e+01 1.271739768981933594e+01 5.530624985694885254e-01 2.134699106216430664e+00 8.063284754753112793e-01 -3.237017989158630371e-01
1.337000000000000000e+03 1.547388458251953125e+01 -2.655858993530273438e+01 1.051244442351162434e-03 -3.853520902339369059e-04 1.997677172766998410e-04 -1.415677979821339250e-04
1.338000000000000000e+03 4.588658142089843750e+01 -3.334045028686523438e+01 -2.648274302482604980e-01 -2.218755036592483521e-01 -1.460108757019042969e-01 -3.350462317466735840e-01
1.339000000000000000e+03 4.673809814453125000e+01 -3.493667984008789062e+01 -7.183641940355300903e-02 -3.638299703598022461e-01 -1.306999176740646362e-01 -3.888572454452514648e-01
1.340000000000000000e+03 7.622811889648437500e+01 -2.220699501037597656e+01 -5.952141284942626953e-01 9.402723312377929688e+00 2.642252683639526367e+00 -4.104028344154357910e-01
1.341000000000000000e+03 7.784593200683593750e+01 -2.917218589782714844e+01 -2.354815043509006500e-02 9.835961341857910156e+00 2.943723917007446289e+00 2.183265388011932373e-01
1.342000000000000000e+03 7.417655944824218750e+01 -3.467813491821289062e+01 1.222979575395584106e-01 7.354582786560058594e+00 2.243064165115356445e+00 4.268229901790618896e-01
1.343000000000000000e+03 7.633626556396484375e+01 -3.616416168212890625e+01 5.529909394681453705e-03 8.354557037353515625e+00 2.508025884628295898e+00 2.144002914428710938e-01
1.344000000000000000e+03 7.770991516113281250e+01 -3.591997909545898438e+01 -1.079567056149244308e-02 9.226235389709472656e+00 2.764631986618041992e+00 2.165777683258056641e-01
1.345000000000000000e+03 7.519363403320312500e+01 1.572651100158691406e+01 1.148721277713775635e-01 5.849852085113525391e+00 1.789417266845703125e+00 -5.919260382652282715e-01
1.346000000000000000e+03 7.797760009765625000e+01 1.549734210968017578e+01 2.323480881750583649e-02 6.559586048126220703e+00 1.974846243858337402e+00 -2.924905717372894287e-01
1.347000000000000000e+03 7.575064849853515625e+01 3.407371520996093750e+01 2.750359103083610535e-02 4.951882839202880859e+00 1.493816018104553223e+00 -1.159192919731140137e-01
1.348000000000000000e+03 7.831099700927734375e+01 -2.221414375305175781e+01 -1.768831461668014526e-01 1.018439102172851562e+01 3.002252340316772461e+00 -3.863635063171386719e-01
1.349000000000000000e+03 7.718713378906250000e+01 -2.351581192016601562e+01 -2.848942577838897705e-01 9.718704223632812500e+00 2.830142974853515625e+00 -2.091862857341766357e-01
1.350000000000000000e+03 7.627075195312500000e+01 -3.050928497314453125e+01 -2.785785496234893799e-02 8.808308601379394531e+00 2.634135246276855469e+00 3.735769689083099365e-01
1.351000000000000000e+03 7.766512298583984375e+01 -3.469103622436523438e+01 -6.300196051597595215e-03 9.294521331787109375e+00 2.786466360092163086e+00 2.089252322912216187e-01
1.352000000000000000e+03 7.527028656005859375e+01 -3.726708221435546875e+01 8.312705904245376587e-02 7.826294898986816406e+00 2.372826576232910156e+00 2.614443302154541016e-01
1.353000000000000000e+03 7.634332275390625000e+01 -2.909123802185058594e+01 -3.807210922241210938e-02 8.954960823059082031e+00 2.675066709518432617e+00 3.131910264492034912e-01
1.354000000000000000e+03 7.681599426269531250e+01 -2.623978996276855469e+01 -1.622494757175445557e-01 9.389724731445312500e+00 2.768242597579956055e+00 1.437409520149230957e-01
1.355000000000000000e+03 7.703914642333984375e+01 -2.486353874206542969e+01 -2.295438349246978760e-01 9.602084159851074219e+00 2.811762094497680664e+00 2.910376060754060745e-03
1.356000000000000000e+03 7.597610473632812500e+01 -3.482145309448242188e+01 6.660803407430648804e-02 8.250674247741699219e+00 2.495184659957885742e+00 2.961001694202423096e-01
1.357000000000000000e+03 7.463992309570312500e+01 -3.058537673950195312e+01 -2.986254729330539703e-02 7.822744846343994141e+00 2.337864637374877930e+00 4.657925665378570557e-01
1.358000000000000000e+03 7.627738189697265625e+01 -3.189606666564941406e+01 9.514267556369304657e-03 8.643797874450683594e+00 2.595993757247924805e+00 3.723937273025512695e-01
1.359000000000000000e+03 7.515739440917968750e+01 -3.889941787719726562e+01 7.190094888210296631e-02 7.880675792694091797e+00 2.385772943496704102e+00 1.485601812601089478e-01
1.360000000000000000e+03 7.787862396240234375e+01 2.246951866149902344e+01 1.346631813794374466e-02 5.802860260009765625e+00 1.744897961616516113e+00 -1.818574517965316772e-01
1.361000000000000000e+03 7.659140014648437500e+01 1.974145126342773438e+01 4.655561223626136780e-02 5.812758445739746094e+00 1.757794260978698730e+00 -3.353965878486633301e-01
1.362000000000000000e+03 7.508773040771484375e+01 2.259312248229980469e+01 7.295361161231994629e-02 5.338164329528808594e+00 1.623335361480712891e+00 -3.663032352924346924e-01
1.363000000000000000e+03 7.655645751953125000e+01 2.112622451782226562e+01 3.688850998878479004e-02 5.695830821990966797e+00 1.719815850257873535e+00 -3.118252754211425781e-01
1.364000000000000000e+03 7.659474945068359375e+01 1.280991840362548828e+01 7.043884694576263428e-02 6.555194377899169922e+00 1.987690091133117676e+00 -5.514386296272277832e-01
1.365000000000000000e+03 7.511289978027343750e+01 8.589255332946777344e+00 1.151997223496437073e-01 6.546296596527099609e+00 1.998448967933654785e+00 -9.084776639938354492e-01
1.366000000000000000e+03 7.660000610351562500e+01 1.421059322357177734e+01 6.659213453531265259e-02 6.383822917938232422e+00 1.935124516487121582e+00 -5.065797567367553711e-01
1.367000000000000000e+03 7.637086486816406250e+01 2.404383659362792969e+01 3.761319071054458618e-02 5.458309650421142578e+00 1.648776888847351074e+00 -2.615916430950164795e-01
1.368000000000000000e+03 7.789281463623046875e+01 2.673464584350585938e+01 6.567616015672683716e-03 5.515322208404541016e+00 1.656566858291625977e+00 -1.323422342538833618e-01
1.369000000000000000e+03 7.724681091308593750e+01 -2.219588279724121094e+01 -3.958343565464019775e-01 9.770062446594238281e+00 2.812268495559692383e+00 -4.558911025524139404e-01
1.370000000000000000e+03 7.654626464843750000e+01 2.699730873107910156e+01 3.120783343911170959e-02 5.312509536743164062e+00 1.603115200996398926e+00 -1.971006244421005249e-01
1.371000000000000000e+03 7.652481079101562500e+01 7.042473793029785156e+00 4.029224440455436707e-02 7.413203716278076172e+00 2.236048698425292969e+00 -7.522872090339660645e-01
1.372000000000000000e+03 7.736113739013671875e+01 -3.923942565917968750e+00 -6.114537119865417480e-01 9.486688613891601562e+00 2.662570476531982422e+00 5.933628082275390625e-01
1.373000000000000000e+03 7.744229888916015625e+01 -7.952988147735595703e+00 -5.278309583663940430e-01 9.296782493591308594e+00 2.630685329437255859e+00 2.384733676910400391e+00
1.374000000000000000e+03 7.798619842529296875e+01 5.609306335449218750e+00 2.688959240913391113e-03 8.346312522888183594e+00 2.504700422286987305e+00 -4.971503317356109619e-01
1.375000000000000000e+03 7.689013671875000000e+01 2.699736356735229492e+00 -9.054730832576751709e-02 8.339336395263671875e+00 2.474636554718017578e+00 -6.693056225776672363e-01
1.376000000000000000e+03 7.686985778808593750e+01 3.539889144897460938e+01 1.234950614161789417e-03 5.028796195983886719e+00 1.509009361267089844e+00 -7.505317777395248413e-02
1.377000000000000000e+03 7.856351470947265625e+01 3.673816680908203125e+01 4.108268301934003830e-03 5.202880859375000000e+00 1.562096714973449707e+00 -4.724094644188880920e-02
1.378000000000000000e+03 7.658385467529296875e+01 5.580093383789062500e+00 1.863772608339786530e-02 7.665954113006591797e+00 2.305377483367919922e+00 -7.570865750312805176e-01
1.379000000000000000e+03 7.732513427734375000e+01 -2.635876655578613281e+00 -4.729299843311309814e-01 9.380278587341308594e+00 2.672204732894897461e+00 1.894593089818954468e-01
1.380000000000000000e+03 7.843170928955078125e+01 -6.733931064605712891e+00 -3.397662043571472168e-01 8.631608009338378906e+00 2.487552642822265625e+00 1.510326504707336426e+00
1.381000000000000000e+03 7.672853851318359375e+01 -1.029262065887451172e+01 1.531257867813110352e+00 1.008633422851562500e+01 3.485277652740478516e+00 2.643441438674926758e+00
1.382000000000000000e+03 7.403842926025390625e+01 3.533624267578125000e+01 5.351584404706954956e-02 4.694352149963378906e+00 1.424360394477844238e+00 -1.251354813575744629e-01
1.383000000000000000e+03 7.588270568847656250e+01 3.086672210693359375e+01 3.805364295840263367e-02 5.062325477600097656e+00 1.530113697052001953e+00 -1.656278967857360840e-01
1.384000000000000000e+03 7.658954620361328125e+01 1.837935829162597656e+01 5.141184478998184204e-02 5.934971809387207031e+00 1.795915126800537109e+00 -3.768668770790100098e-01
1.385000000000000000e+03 7.517224121093750000e+01 1.713554000854492188e+01 1.036700308322906494e-01 5.724796295166015625e+00 1.748539924621582031e+00 -5.358696579933166504e-01
1.386000000000000000e+03 7.657916259765625000e+01 9.967993736267089844e+00 6.757532805204391479e-02 6.941890239715576172e+00 2.102839708328247070e+00 -6.588966846466064453e-01
1.387000000000000000e+03 7.820536041259765625e+01 1.389414191246032715e+00 -6.843995302915573120e-02 9.335988044738769531e+00 2.780264616012573242e+00 -3.450090885162353516e-01
1.388000000000000000e+03 7.723493194580078125e+01 -1.348856449127197266e+00 -3.547650575637817383e-01 9.205727577209472656e+00 2.655288696289062500e+00 -1.506523638963699341e-01
1.389000000000000000e+03 7.818523406982421875e+01 3.548256683349609375e+01 -8.359616622328758240e-03 5.187171936035156250e+00 1.553643703460693359e+00 -4.277193173766136169e-02
1.390000000000000000e+03 7.673516082763671875e+01 4.127998828887939453e+00 -3.735409304499626160e-02 7.984430313110351562e+00 2.384122848510742188e+00 -7.417852282524108887e-01
1.391000000000000000e+03 7.735936737060546875e+01 -6.611139297485351562e+00 -8.209327459335327148e-01 9.523633956909179688e+00 2.610810518264770508e+00 1.764780879020690918e+00
1.392000000000000000e+03 7.703239440917968750e+01 -1.955487060546875000e+01 -7.573235630989074707e-01 9.782444953918457031e+00 2.707536458969116211e+00 -1.263378500938415527e+00
1.393000000000000000e+03 6.003552627563476562e+01 -6.519432544708251953e+00 -2.780957221984863281e+00 -3.086016140878200531e-02 -8.435452580451965332e-01 -4.806225895881652832e-01
1.394000000000000000e+03 5.957812881469726562e+01 -8.190417289733886719e+00 -2.572286605834960938e+00 -3.414907157421112061e-01 -8.741331696510314941e-01 -9.158912301063537598e-01
1.395000000000000000e+03 1.435340881347656250e+01 -2.542436218261718750e+01 8.894190541468560696e-04 -2.179007424274459481e-05 2.602887107059359550e-04 1.409598189638927579e-04
1.396000000000000000e+03 5.566324234008789062e+01 8.553934097290039062e+00 5.438158512115478516e-01 1.347500324249267578e+00 5.673948526382446289e-01 3.602327108383178711e-01
1.397000000000000000e+03 1.588401508331298828e+01 4.941812515258789062e+00 -7.161489129066467285e-01 -1.098101735115051270e+00 -5.442751646041870117e-01 7.832265496253967285e-01
1.398000000000000000e+03 3.574835586547851562e+01 -3.586624908447265625e+01 -1.373555138707160950e-02 -2.447218261659145355e-02 -1.146232057362794876e-02 -3.010487370193004608e-02
1.399000000000000000e+03 1.390127468109130859e+01 6.105533599853515625e+00 -6.783660650253295898e-01 -9.193688631057739258e-01 -4.793204665184020996e-01 5.272997617721557617e-01
1.400000000000000000e+03 1.405480289459228516e+01 2.731710910797119141e+00 -4.109829664230346680e-01 -6.757860779762268066e-01 -3.260307013988494873e-01 5.184818506240844727e-01
1.401000000000000000e+03 6.657556152343750000e+01 -2.080269622802734375e+01 -5.675737857818603516e-01 1.638699650764465332e+00 3.213377594947814941e-01 3.103569447994232178e-01
1.402000000000000000e+03 2.701921653747558594e+01 1.474970626831054688e+01 -3.329200744628906250e-01 -5.862600803375244141e-01 -2.757540643215179443e-01 3.590903580188751221e-01
1.403000000000000000e+03 5.653678894042968750e+01 -8.676678657531738281e+00 -1.853859305381774902e+00 -2.423445135354995728e-02 -5.634281635284423828e-01 -4.904636144638061523e-01
1.404000000000000000e+03 5.537702178955078125e+01 -9.398872375488281250e+00 -1.665810108184814453e+00 -4.548015072941780090e-03 -5.011074542999267578e-01 -4.458337128162384033e-01
1.405000000000000000e+03 5.422523117065429688e+01 -1.011224460601806641e+01 -1.449394464492797852e+00 -1.037188339978456497e-03 -4.351294934749603271e-01 -4.129171967506408691e-01
1.406000000000000000e+03 3.812808227539062500e+01 -1.576190757751464844e+01 -4.743614494800567627e-01 6.385324150323867798e-02 -1.231524571776390076e-01 5.290699750185012817e-02
1.407000000000000000e+03 4.641642570495605469e+00 3.287760925292968750e+01 1.544199045747518539e-02 -9.970866441726684570e-01 -2.944934070110321045e-01 4.169557988643646240e-02
1.408000000000000000e+03 3.417724847793579102e+00 3.484933471679687500e+01 1.273701339960098267e-02 -1.108287811279296875e+00 -3.286652565002441406e-01 2.133331075310707092e-02
1.409000000000000000e+03 3.324660301208496094e+00 3.026278495788574219e+01 7.035302929580211639e-03 -1.067330956459045410e+00 -3.180886805057525635e-01 3.606029227375984192e-02
1.410000000000000000e+03 1.970145344734191895e+00 2.761417007446289062e+01 3.471967298537492752e-03 -1.134184598922729492e+00 -3.392137885093688965e-01 2.519625797867774963e-02
1.411000000000000000e+03 2.206146717071533203e+00 3.543202590942382812e+01 1.251737214624881744e-02 -1.192120432853698730e+00 -3.538809120655059814e-01 2.515107626095414162e-03
1.412000000000000000e+03 6.811126232147216797e+00 3.825792694091796875e+01 2.257842384278774261e-02 -8.907307386398315430e-01 -2.604456841945648193e-01 3.773667663335800171e-02
1.413000000000000000e+03 1.987801432609558105e+00 3.421672821044921875e+01 3.478613216429948807e-03 -1.199235200881958008e+00 -3.587269783020019531e-01 9.274686686694622040e-03
1.414000000000000000e+03 4.202379226684570312e+00 3.403271102905273438e+01 1.445350423455238342e-02 -1.037536859512329102e+00 -3.069250285625457764e-01 3.462672606110572815e-02
1.415000000000000000e+03 4.770450592041015625e+00 3.016510009765625000e+01 1.143249124288558960e-02 -9.507174491882324219e-01 -2.817854881286621094e-01 5.300426483154296875e-02
1.416000000000000000e+03 3.347293138504028320e+00 3.153975677490234375e+01 4.975537769496440887e-03 -1.081481695175170898e+00 -3.229518532752990723e-01 2.869555354118347168e-02
1.417000000000000000e+03 3.193040370941162109e+00 -3.470528030395507812e+01 -1.264170577996992506e-06 7.169399759732186794e-04 2.147027407772839069e-04 1.973653124878183007e-04
1.418000000000000000e+03 4.064641475677490234e+00 -3.261527633666992188e+01 1.854719448601827025e-04 4.282201989553868771e-04 1.841076445998623967e-04 3.517861478030681610e-04
1.419000000000000000e+03 1.907037973403930664e+00 -3.040959739685058594e+01 -4.689064735430292785e-05 3.176970349159091711e-04 8.124191663227975368e-05 1.855246227933093905e-04
1.420000000000000000e+03 2.960885047912597656e+00 -2.923275947570800781e+01 -4.202583659207448363e-05 2.346736437175422907e-04 5.779434286523610353e-05 1.988041767617687583e-04
1.421000000000000000e+03 1.986448407173156738e+00 2.198394966125488281e+01 1.122473180294036865e-02 -1.017987012863159180e+00 -3.020286858081817627e-01 5.921784415841102600e-02
1.422000000000000000e+03 3.352425098419189453e+00 2.343756484985351562e+01 2.224092930555343628e-02 -9.512503147125244141e-01 -2.787028253078460693e-01 7.621447741985321045e-02
1.423000000000000000e+03 8.712048530578613281e+00 -1.024636173248291016e+01 3.955069769290275872e-05 9.888649947242811322e-05 4.153115878580138087e-05 2.953511466330382973e-05
1.424000000000000000e+03 4.415665626525878906e+00 -1.603060913085937500e+01 -7.006691157585009933e-05 1.589841303939465433e-05 -1.625054937903769314e-05 6.459560972871258855e-05
1.425000000000000000e+03 1.878417849540710449e+00 -1.486319255828857422e+01 8.485098805977031589e-05 -6.014618975314078853e-06 2.365091131650842726e-05 -4.019378320663236082e-05
1.426000000000000000e+03 3.140694141387939453e+00 1.765675354003906250e+01 3.914051130414009094e-02 -7.771518826484680176e-01 -2.214034199714660645e-01 1.797928661108016968e-01
1.427000000000000000e+03 3.217474222183227539e+00 1.185328388214111328e+01 -1.004615332931280136e-02 -4.383768439292907715e-01 -1.345269083976745605e-01 2.711347341537475586e-01
1.428000000000000000e+03 3.561681032180786133e+00 -1.952054786682128906e+01 8.729571709409356117e-05 5.848654836881905794e-05 4.373467891127802432e-05 -5.759602572652511299e-05
1.429000000000000000e+03 2.785841226577758789e+00 -1.198240566253662109e+01 -6.308485171757638454e-05 4.559141962090507150e-05 -5.248029083304572850e-06 -2.769537059066351503e-05
1.430000000000000000e+03 2.675215005874633789e+00 4.583664894104003906e+00 -5.108793452382087708e-02 -4.404623433947563171e-02 -2.854024991393089294e-02 4.323885589838027954e-02
1.431000000000000000e+03 2.747084379196166992e+00 7.769002914428710938e+00 -4.803082346916198730e-02 -1.752134263515472412e-01 -6.697327643632888794e-02 1.506253480911254883e-01
1.432000000000000000e+03 1.916372299194335938e+00 1.483077144622802734e+01 1.602974161505699158e-02 -6.614568829536437988e-01 -1.936281472444534302e-01 1.607001274824142456e-01
1.433000000000000000e+03 3.139874219894409180e+00 1.624023437500000000e+01 4.046194255352020264e-02 -7.080565690994262695e-01 -2.002783864736557007e-01 2.136169224977493286e-01
1.434000000000000000e+03 2.832913637161254883e+00 9.070619583129882812e+00 -4.475595429539680481e-02 -2.525316178798675537e-01 -8.918627351522445679e-02 2.020447999238967896e-01
1.435000000000000000e+03 2.951288938522338867e+00 -3.743903636932373047e+00 -5.429687007563188672e-05 -2.064829459413886070e-05 -2.248354940093122423e-05 3.914790340786566958e-06
1.436000000000000000e+03 3.112881422042846680e+00 -2.814749908447265625e+01 1.148886804003268480e-04 2.042369305854663253e-04 9.573768329573795199e-05 1.700668217381462455e-04
1.437000000000000000e+03 3.555763244628906250e+00 -2.123681640625000000e+01 -5.156381303095258772e-05 -4.049645212944597006e-05 -2.761807991191744804e-05 5.517244062502868474e-05
1.438000000000000000e+03 2.632609128952026367e+00 -9.453657150268554688e+00 -3.145011942251585424e-05 -2.497800414857920259e-05 -1.692843579803593457e-05 -2.826825220836326480e-05
1.439000000000000000e+03 2.692106246948242188e+00 -8.231116294860839844e+00 3.143876892863772810e-05 2.063208012259565294e-05 1.562125544296577573e-05 1.396883453708142042e-05
1.440000000000000000e+03 3.111714363098144531e+00 -1.472890853881835938e+01 -6.706053682137280703e-05 1.111665460484800860e-05 -1.678316402831114829e-05 3.882199234794825315e-05
1.441000000000000000e+03 2.000249624252319336e+00 -2.385943984985351562e+01 5.965704622212797403e-05 3.927428042516112328e-05 2.967939872178249061e-05 2.329489325347822160e-05
1.442000000000000000e+03 3.484478712081909180e+00 -2.280334854125976562e+01 1.060715294443070889e-04 9.370379848405718803e-05 5.993259765091352165e-05 -1.808336605790827889e-06
1.443000000000000000e+03 3.296509504318237305e+00 2.198835754394531250e+01 3.224313259124755859e-02 -9.201421141624450684e-01 -2.663697004318237305e-01 9.834852814674377441e-02
1.444000000000000000e+03 3.495184421539306641e+00 -3.134417343139648438e+01 -5.808312198496423662e-05 3.476108540780842304e-04 8.685831562615931034e-05 2.970881760120391846e-04
1.445000000000000000e+03 4.662453174591064453e+00 -3.077752304077148438e+01 1.931054284796118736e-04 3.615630266722291708e-04 1.664005394559353590e-04 3.889700456056743860e-04
1.446000000000000000e+03 3.208504915237426758e+00 -2.559793281555175781e+01 1.309459330514073372e-04 1.064131647581234574e-04 7.120773079805076122e-05 7.876882591517642140e-05
1.447000000000000000e+03 4.655561447143554688e+00 -2.472615242004394531e+01 1.473330048611387610e-04 1.585951249580830336e-04 9.177843458019196987e-05 7.782811007928103209e-05
1.448000000000000000e+03 8.297821044921875000e+00 -1.948111534118652344e+01 1.146413487731479108e-04 2.462262636981904507e-04 1.082602830138057470e-04 -1.467417678213678300e-05
1.449000000000000000e+03 2.969403028488159180e+00 -1.332312488555908203e+01 7.357457070611417294e-05 -4.717079355032183230e-05 7.921133146737702191e-06 -2.575841972429770976e-05
1.450000000000000000e+03 8.296210289001464844e+00 -1.201284027099609375e+01 1.001353230094537139e-04 1.044266900862567127e-04 6.136860611150041223e-05 6.550815305672585964e-05
1.451000000000000000e+03 2.985421895980834961e+00 1.042186355590820312e+01 -2.715686894953250885e-02 -3.390882015228271484e-01 -1.098735183477401733e-01 2.347691953182220459e-01
1.452000000000000000e+03 3.281851053237915039e+00 1.335419368743896484e+01 1.897849701344966888e-02 -5.384944081306457520e-01 -1.558547765016555786e-01 2.676891684532165527e-01
1.453000000000000000e+03 3.172422170639038086e+00 1.909309387207031250e+01 4.336313530802726746e-02 -8.359796404838562012e-01 -2.377849519252777100e-01 1.510612219572067261e-01
1.454000000000000000e+03 1.854095077514648438e+01 -1.299160289764404297e+01 -5.361066541809123009e-06 2.227231925644446164e-05 5.073375632491661236e-06 -4.148118478042306378e-06
1.455000000000000000e+03 5.756963729858398438e+01 -3.000220489501953125e+01 -4.672010838985443115e-01 -4.799247086048126221e-01 -2.841377556324005127e-01 -5.236164331436157227e-01
1.456000000000000000e+03 5.907329940795898438e+01 -2.871755981445312500e+01 -6.446411013603210449e-01 -4.039562046527862549e-01 -3.145791888236999512e-01 -4.982944726943969727e-01
1.457000000000000000e+03 5.827444839477539062e+01 -2.748787689208984375e+01 -1.185645818710327148e+00 -7.427227497100830078e-01 -5.785105824470520020e-01 -8.603814840316772461e-01
1.458000000000000000e+03 1.657623481750488281e+01 -2.770642089843750000e+01 1.486301072873175144e-03 -1.339054288109764457e-04 4.057186888530850410e-04 4.670731723308563232e-04
1.459000000000000000e+03 1.969621467590332031e+01 -2.798288726806640625e+01 2.463238546624779701e-03 -4.751395026687532663e-04 5.964296869933605194e-04 -2.808361605275422335e-04
1.460000000000000000e+03 9.432351112365722656e+00 -1.994310760498046875e+01 -8.752799476496875286e-05 -2.142009616363793612e-04 -9.051868983078747988e-05 -3.310632382635958493e-05
1.461000000000000000e+03 2.138993835449218750e+01 -3.074263763427734375e+01 3.819691250100731850e-03 -4.611023177858442068e-04 1.007576705887913704e-03 8.762421784922480583e-04
1.462000000000000000e+03 2.269662857055664062e+01 -3.185140609741210938e+01 5.107594188302755356e-03 -1.332877320237457752e-03 1.132415141910314560e-03 1.970373559743165970e-03
1.463000000000000000e+03 6.141057968139648438e+01 -2.626510620117187500e+01 -9.439710378646850586e-01 -8.361407369375228882e-02 -3.082755506038665771e-01 -4.310973286628723145e-01
1.464000000000000000e+03 1.241783809661865234e+01 1.270386886596679688e+01 2.548162043094635010e-01 -4.753663241863250732e-01 -6.616503745317459106e-02 5.672971606254577637e-01
1.465000000000000000e+03 6.353613662719726562e+01 -2.416277122497558594e+01 -8.901501297950744629e-01 4.595561623573303223e-01 -1.291781961917877197e-01 -2.562976479530334473e-01
1.466000000000000000e+03 3.852053833007812500e+01 -3.557873535156250000e+01 -2.274836972355842590e-02 -5.998685583472251892e-02 -2.482056804001331329e-02 -6.255209445953369141e-02
1.467000000000000000e+03 5.354013442993164062e+01 -3.200521850585937500e+01 -3.237493038177490234e-01 -6.402626633644104004e-01 -2.892035841941833496e-01 -6.206339001655578613e-01
1.468000000000000000e+03 5.064245223999023438e+01 -3.285028076171875000e+01 -3.108431994915008545e-01 -5.536429286003112793e-01 -2.593458294868469238e-01 -5.501830577850341797e-01
1.469000000000000000e+03 5.244047927856445312e+01 -3.369515228271484375e+01 -2.825149521231651306e-02 -6.129990816116333008e-01 -1.923751831054687500e-01 -5.043013095855712891e-01
1.470000000000000000e+03 2.973679733276367188e+01 -3.315558242797851562e+01 1.345805823802947998e-02 -1.289400039240717888e-03 3.650597296655178070e-03 2.417298499494791031e-03
1.471000000000000000e+03 3.153962135314941406e+01 -3.447549438476562500e+01 2.511617960408329964e-03 -1.713526668027043343e-03 2.394273906247690320e-04 1.087421551346778870e-03
1.472000000000000000e+03 4.962755203247070312e+01 -1.013312053680419922e+01 -1.086471557617187500e+00 1.678967624902725220e-01 -2.755724191665649414e-01 -8.677510172128677368e-02
1.473000000000000000e+03 5.429289245605468750e+01 -3.058804893493652344e+01 -6.417987346649169922e-01 -6.240231990814208984e-01 -3.797465860843658447e-01 -7.458675503730773926e-01
1.474000000000000000e+03 6.725072479248046875e+01 -1.950741577148437500e+01 -4.035334885120391846e-01 1.773317933082580566e+00 4.109353125095367432e-01 5.480019450187683105e-01
1.475000000000000000e+03 2.282184982299804688e+01 2.626395702362060547e+00 -1.197949200868606567e-01 1.899300068616867065e-01 2.104052528738975525e-02 2.929683625698089600e-01
1.476000000000000000e+03 2.227918052673339844e+01 3.606969594955444336e+00 1.537040323019027710e-01 2.475693523883819580e-01 1.203820183873176575e-01 2.985121011734008789e-01
1.477000000000000000e+03 4.691789245605468750e+01 -3.656380081176757812e+01 1.225594282150268555e-01 -4.171545803546905518e-01 -8.837854862213134766e-02 -3.380421698093414307e-01
1.478000000000000000e+03 1.976062965393066406e+01 -1.139159965515136719e+01 5.469184088724432513e-06 -2.695419425435829908e-05 -6.445503004215424880e-06 1.602349220775067806e-05
1.479000000000000000e+03 1.322903919219970703e+01 -2.202220726013183594e+01 1.788062581908889115e-05 -1.438773324480280280e-04 -3.779901089728809893e-05 -1.912033912958577275e-04
1.480000000000000000e+03 1.503819751739501953e+01 -9.351589202880859375e+00 2.990113216583267786e-06 1.029497252602595836e-05 3.985525836469605565e-06 1.383369726681848988e-05
1.481000000000000000e+03 2.023892402648925781e+01 2.557609081268310547e+00 -2.094059139490127563e-01 -1.182259544730186462e-01 -9.828955680131912231e-02 5.934078693389892578e-01
1.482000000000000000e+03 2.205459594726562500e+01 -1.400317072868347168e+00 -7.300577759742736816e-01 -2.642897367477416992e-01 -2.983042597770690918e-01 4.678127467632293701e-01
1.483000000000000000e+03 6.031425094604492188e+01 -2.745645713806152344e+01 -8.091788887977600098e-01 -2.682580947875976562e-01 -3.232311010360717773e-01 -4.912538230419158936e-01
1.484000000000000000e+03 6.302121353149414062e+01 -2.778951072692871094e+01 -3.968532681465148926e-01 9.420968890190124512e-01 1.635730862617492676e-01 7.967053353786468506e-02
1.485000000000000000e+03 2.816571998596191406e+01 -3.259704589843750000e+01 1.159379445016384125e-02 -4.822078044526278973e-04 3.333475906401872635e-03 2.483994700014591217e-03
1.486000000000000000e+03 2.970407485961914062e+01 -3.483026123046875000e+01 4.474406130611896515e-03 -2.130314009264111519e-03 7.032275898382067680e-04 1.065441756509244442e-03
1.487000000000000000e+03 2.670653152465820312e+01 -3.383508682250976562e+01 6.460003089159727097e-03 -8.123920415528118610e-04 1.694283331744372845e-03 4.012580495327711105e-03
1.488000000000000000e+03 2.775243759155273438e+01 -3.547528076171875000e+01 -7.200512336567044258e-04 -2.732784720137715340e-03 -1.035850844345986843e-03 7.037308532744646072e-03
1.489000000000000000e+03 4.509074020385742188e+01 -1.477001380920410156e+01 -6.892252564430236816e-01 4.492628946900367737e-02 -1.932896822690963745e-01 -1.057244688272476196e-01
1.490000000000000000e+03 4.280851364135742188e+01 -1.425538730621337891e+01 -6.469438672065734863e-01 9.028448164463043213e-02 -1.669978201389312744e-01 -1.338494941592216492e-02
1.491000000000000000e+03 2.179945755004882812e+01 1.972017860412597656e+01 2.515986263751983643e-01 -3.822306096553802490e-01 -3.918959572911262512e-02 6.172095537185668945e-01
1.492000000000000000e+03 2.808965682983398438e+01 6.622861862182617188e+00 2.566490471363067627e-01 -1.814063936471939087e-01 2.257279306650161743e-02 4.339045584201812744e-01
1.493000000000000000e+03 2.851399421691894531e+01 8.011738777160644531e+00 1.457235217094421387e-01 -2.489156275987625122e-01 -3.095763176679611206e-02 5.747795104980468750e-01
1.494000000000000000e+03 4.848214340209960938e+01 -3.344850921630859375e+01 -2.761840224266052246e-01 -4.195209145545959473e-01 -2.087114751338958740e-01 -4.803648293018341064e-01
1.495000000000000000e+03 2.421175956726074219e+01 1.783391380310058594e+01 1.174860894680023193e-01 -6.914646029472351074e-01 -1.721935421228408813e-01 4.397217631340026855e-01
1.496000000000000000e+03 1.316978168487548828e+01 -1.097697639465332031e+01 1.752831963131029624e-06 -5.438510197564028203e-05 -1.578968112880829722e-05 -2.906017834902741015e-05
1.497000000000000000e+03 2.511894416809082031e+01 2.181306838989257812e+00 -1.627763807773590088e-01 1.369307190179824829e-01 -7.753697689622640610e-03 1.512489765882492065e-01
1.498000000000000000e+03 4.351592254638671875e+01 2.135979652404785156e+01 3.954301476478576660e-01 8.330253362655639648e-01 3.685366511344909668e-01 3.596234321594238281e-01
1.499000000000000000e+03 4.217891693115234375e+01 1.791308784484863281e+01 4.542412757873535156e-01 9.440999031066894531e-01 4.195023477077484131e-01 3.263176381587982178e-01
1.500000000000000000e+03 2.534643745422363281e+01 1.687819099426269531e+01 -4.862665757536888123e-02 -7.177698016166687012e-01 -2.299189418554306030e-01 3.404976427555084229e-01
1.501000000000000000e+03 3.809104537963867188e+01 1.550626659393310547e+01 3.060095906257629395e-01 4.713112711906433105e-01 2.331962585449218750e-01 3.720209896564483643e-01
1.502000000000000000e+03 4.169713592529296875e+01 1.042449378967285156e+01 -1.200913637876510620e-01 7.311626672744750977e-01 1.833213865756988525e-01 3.769749999046325684e-01
1.503000000000000000e+03 6.577912330627441406e+00 -1.437868595123291016e+01 -7.813736010575667024e-05 -9.168052201857790351e-05 -5.094536390970461071e-05 -6.663227395620197058e-05
1.504000000000000000e+03 6.896447181701660156e+00 -1.557985496520996094e+01 -1.755383163981605321e-05 1.012159118545241654e-04 2.509862497390713543e-05 7.911907596280798316e-05
1.505000000000000000e+03 5.933618927001953125e+01 1.644718170166015625e+01 5.366908311843872070e-01 2.305235862731933594e+00 8.525780439376831055e-01 -4.332794845104217529e-01
1.506000000000000000e+03 5.891304969787597656e+00 -2.540451431274414062e+01 1.309097133344039321e-04 -1.005736630759201944e-04 9.100815077545121312e-06 1.703260059002786875e-04
1.507000000000000000e+03 1.265776062011718750e+01 -2.624714851379394531e+01 9.147338569164276123e-04 1.773707626853138208e-04 3.276313946116715670e-04 3.483795735519379377e-04
1.508000000000000000e+03 5.320641708374023438e+01 2.075437927246093750e+01 5.282871127128601074e-01 1.011013746261596680e+00 4.617902636528015137e-01 -4.527162313461303711e-01
1.509000000000000000e+03 5.291477203369140625e+01 2.237932014465332031e+01 6.336885094642639160e-01 1.039030909538269043e+00 5.018157958984375000e-01 -3.596189022064208984e-01
1.510000000000000000e+03 1.449720287322998047e+01 1.727997589111328125e+01 5.241677761077880859e-01 2.784822136163711548e-02 1.656047999858856201e-01 2.362744063138961792e-01
1.511000000000000000e+03 1.686377143859863281e+01 1.754230499267578125e+01 4.861223101615905762e-01 3.390613794326782227e-01 2.475551068782806396e-01 3.161936104297637939e-01
1.512000000000000000e+03 5.249073791503906250e+01 2.392237281799316406e+01 6.634511351585388184e-01 1.111569285392761230e+00 5.325061082839965820e-01 -2.620002329349517822e-01
1.513000000000000000e+03 5.064809036254882812e+01 2.208101654052734375e+01 6.749747991561889648e-01 6.724625825881958008e-01 4.042312204837799072e-01 -1.152260079979896545e-01
1.514000000000000000e+03 3.983171844482421875e+01 1.426520061492919922e+01 3.400545716285705566e-01 7.017522454261779785e-01 3.125420510768890381e-01 4.206576049327850342e-01
1.515000000000000000e+03 1.316308975219726562e+01 1.629293823242187500e+01 5.221086144447326660e-01 -2.669365406036376953e-01 7.655161619186401367e-02 3.056967258453369141e-01
1.516000000000000000e+03 5.734809112548828125e+01 1.636667442321777344e+01 5.488839745521545410e-01 2.028195858001708984e+00 7.731239199638366699e-01 -4.010402262210845947e-01
1.517000000000000000e+03 1.450155353546142578e+01 1.836991500854492188e+01 3.762786984443664551e-01 -2.223584987223148346e-02 1.062128543853759766e-01 2.114205211400985718e-01
1.518000000000000000e+03 5.614240264892578125e+01 9.899761199951171875e+00 4.885916113853454590e-01 1.671913743019104004e+00 6.481516361236572266e-01 2.531799376010894775e-01
1.519000000000000000e+03 5.778776168823242188e+01 1.050346946716308594e+01 5.378239750862121582e-01 1.806507349014282227e+00 7.032994031906127930e-01 -1.066118329763412476e-01
1.520000000000000000e+03 4.921446990966796875e+01 2.070388984680175781e+01 6.436048746109008789e-01 3.091311454772949219e-01 2.858208119869232178e-01 1.180924400687217712e-01
1.521000000000000000e+03 1.779854774475097656e+01 3.511989593505859375e+00 -3.436760306358337402e-01 -8.202279806137084961e-01 -3.491711914539337158e-01 7.512133121490478516e-01
1.522000000000000000e+03 4.168199539184570312e+01 9.106986999511718750e+00 -2.639889717102050781e-01 6.052883863449096680e-01 1.023898348212242126e-01 2.957628071308135986e-01
1.523000000000000000e+03 4.355259323120117188e+01 1.811644744873046875e+01 4.151528775691986084e-01 1.068996071815490723e+00 4.452446997165679932e-01 4.141944646835327148e-01
1.524000000000000000e+03 4.061516571044921875e+01 1.774219322204589844e+01 4.449778199195861816e-01 8.218228816986083984e-01 3.800401985645294189e-01 2.807975709438323975e-01
1.525000000000000000e+03 1.156551170349121094e+01 -5.047717094421386719e+00 -1.062319097400177270e-05 -4.105032985535217449e-06 -4.418467142386361957e-06 2.112835682055447251e-05
1.526000000000000000e+03 1.865712356567382812e+01 2.794479370117187500e+00 -3.681375682353973389e-01 -5.469319820404052734e-01 -2.745208740234375000e-01 7.823256254196166992e-01
1.527000000000000000e+03 4.009698104858398438e+01 1.295129299163818359e+01 2.526288628578186035e-01 6.637786030769348145e-01 2.749222517013549805e-01 4.901454150676727295e-01
1.528000000000000000e+03 4.035097503662109375e+01 1.039516162872314453e+01 -8.818576484918594360e-02 6.318187713623046875e-01 1.630899012088775635e-01 4.500672221183776855e-01
1.529000000000000000e+03 6.541117858886718750e+01 -5.563922882080078125e+00 -3.081540107727050781e+00 -8.118919730186462402e-01 -1.168029665946960449e+00 -1.058647036552429199e+00
1.530000000000000000e+03 6.225384902954101562e+01 -5.092997550964355469e+00 -2.555598974227905273e+00 -3.563303351402282715e-01 -8.735787868499755859e-01 -1.952412128448486328e-01
1.531000000000000000e+03 5.167572021484375000e+01 5.354696750640869141e+00 2.238673269748687744e-01 4.138042926788330078e-01 1.913014948368072510e-01 4.723808169364929199e-01
1.532000000000000000e+03 5.661957931518554688e+01 4.834280967712402344e+00 2.282629311084747314e-01 9.067502617835998535e-01 3.405039608478546143e-01 2.013901174068450928e-01
1.533000000000000000e+03 1.267351722717285156e+01 1.396493339538574219e+01 4.170849621295928955e-01 -4.280740022659301758e-01 -3.296707291156053543e-03 4.740004837512969971e-01
1.534000000000000000e+03 8.067639350891113281e+00 -1.489466476440429688e+01 -8.664286724524572492e-05 -1.491476723458617926e-04 -7.073716551531106234e-05 -1.129879601649008691e-04
1.535000000000000000e+03 4.205850124359130859e+00 -1.307581996917724609e+01 -2.098328695865347981e-05 8.805232209851965308e-05 2.012071126955561340e-05 -2.230925383628346026e-05
1.536000000000000000e+03 5.860741043090820312e+01 1.549127197265625000e+01 6.068852543830871582e-01 2.224724531173706055e+00 8.494829535484313965e-01 -4.493993520736694336e-01
1.537000000000000000e+03 5.640242385864257812e+01 1.740749549865722656e+01 3.431423306465148926e-01 1.959823131561279297e+00 6.908896565437316895e-01 -3.849396407604217529e-01
1.538000000000000000e+03 7.266030120849609375e+01 -1.013123416900634766e+01 5.685813352465629578e-02 1.425773715972900391e+01 4.294378280639648438e+00 -4.341530799865722656e+00
1.539000000000000000e+03 7.220397949218750000e+01 -1.021627616882324219e+01 1.172119379043579102e+00 1.119649887084960938e+01 3.710585355758666992e+00 -5.207292079925537109e+00
1.540000000000000000e+03 7.207040405273437500e+01 -9.955712318420410156e+00 8.853980302810668945e-01 1.011620330810546875e+01 3.300480365753173828e+00 -4.721586227416992188e+00
1.541000000000000000e+03 7.366981506347656250e+01 -1.079335117340087891e+01 1.357468247413635254e+00 2.118233871459960938e+01 6.761941909790039062e+00 1.020829319953918457e+00
1.542000000000000000e+03 7.319348144531250000e+01 -9.909019470214843750e+00 -8.605145215988159180e-01 1.631906700134277344e+01 4.637566089630126953e+00 -2.208002090454101562e+00
1.543000000000000000e+03 7.484579467773437500e+01 -1.358745765686035156e+01 4.090980052947998047e+00 1.578903293609619141e+01 5.964003562927246094e+00 -3.248721122741699219e+00
1.544000000000000000e+03 7.716483306884765625e+01 -1.128349304199218750e+01 2.162529945373535156e+00 8.383734703063964844e+00 3.163879632949829102e+00 1.533105492591857910e+00
1.545000000000000000e+03 7.731955718994140625e+01 -1.412350749969482422e+01 1.191395163536071777e+00 8.445329666137695312e+00 2.891017436981201172e+00 -2.192623853683471680e+00
1.546000000000000000e+03 7.536399078369140625e+01 -1.204416847229003906e+01 6.609506130218505859e+00 1.269371700286865234e+01 5.790966987609863281e+00 7.396438717842102051e-01
1.547000000000000000e+03 7.562362670898437500e+01 -1.247963714599609375e+01 5.864941120147705078e+00 1.190317630767822266e+01 5.330435276031494141e+00 -5.453913807868957520e-01
1.548000000000000000e+03 7.514000701904296875e+01 -1.254760360717773438e+01 7.662697792053222656e+00 1.356713008880615234e+01 6.368948459625244141e+00 -9.945510029792785645e-01
1.549000000000000000e+03 7.669035339355468750e+01 -1.614240455627441406e+01 -4.720055460929870605e-01 1.042669010162353516e+01 2.986405372619628906e+00 -2.613320589065551758e+00
1.550000000000000000e+03 7.504116058349609375e+01 -1.301923751831054688e+01 5.979631900787353516e+00 1.412586021423339844e+01 6.031647682189941406e+00 -2.281059741973876953e+00
1.551000000000000000e+03 7.509803771972656250e+01 -1.338344669342041016e+01 4.659873962402343750e+00 1.434342098236083984e+01 5.700988292694091797e+00 -2.957356452941894531e+00
1.552000000000000000e+03 7.258814239501953125e+01 -1.426560974121093750e+01 7.102864980697631836e-01 1.395558357238769531e+01 4.399761199951171875e+00 4.855753421783447266e+00
1.553000000000000000e+03 6.929311370849609375e+01 -1.529485130310058594e+01 7.842381596565246582e-01 1.915980696678161621e+00 8.100656270980834961e-01 1.200020670890808105e+00
1.554000000000000000e+03 7.120856475830078125e+01 -1.426102066040039062e+01 2.547292470932006836e+00 4.750106334686279297e+00 2.189219713211059570e+00 3.779895067214965820e+00
1.555000000000000000e+03 7.072304534912109375e+01 -1.412577152252197266e+01 2.348945379257202148e+00 2.672127962112426758e+00 1.506322026252746582e+00 2.428017854690551758e+00
1.556000000000000000e+03 7.192932128906250000e+01 -1.448571491241455078e+01 1.531575798988342285e+00 9.221890449523925781e+00 3.226039886474609375e+00 4.830573558807373047e+00
1.557000000000000000e+03 6.901953887939453125e+01 -8.887544631958007812e+00 4.715360701084136963e-02 1.471717238426208496e+00 4.556612670421600342e-01 -8.778639435768127441e-01
1.558000000000000000e+03 6.959107208251953125e+01 -1.449476814270019531e+01 1.163916349411010742e+00 1.495541095733642578e+00 7.978372573852539062e-01 9.816557168960571289e-01
1.559000000000000000e+03 6.874674224853515625e+01 -1.564809036254882812e+01 3.561069667339324951e-01 1.392330646514892578e+00 5.245312452316284180e-01 8.821288347244262695e-01
1.560000000000000000e+03 1.758355140686035156e+01 -8.237598419189453125e+00 3.929702415916835889e-06 -8.453725058643613011e-06 -1.357206656393827870e-06 -7.807670954207424074e-06
1.561000000000000000e+03 2.874124526977539062e+01 -1.019421577453613281e+01 -4.676182866096496582e-01 -4.834034293889999390e-02 -1.547875851392745972e-01 3.393064737319946289e-01
1.562000000000000000e+03 1.857915115356445312e+01 -9.105085372924804688e+00 1.023953063850058243e-05 -3.366809323779307306e-05 -7.028568688838277012e-06 -1.122889989346731454e-05
1.563000000000000000e+03 1.542171382904052734e+01 -6.006119728088378906e+00 -3.058879883610643446e-06 -1.284043082705466077e-05 -4.769793122250121087e-06 5.230662623034731951e-07
1.564000000000000000e+03 1.606970787048339844e+01 -9.729439735412597656e+00 -1.643909126869402826e-05 -1.078317836800124496e-05 -8.166681254806462675e-06 -1.295111178478691727e-05
1.565000000000000000e+03 1.632655715942382812e+01 -8.852778434753417969e+00 2.481816591171082109e-05 6.400080678758968133e-07 7.637451744813006371e-06 4.550114226731238887e-06
1.566000000000000000e+03 1.345305538177490234e+01 -4.889904022216796875e+00 9.959991984942462295e-06 -3.098166416748426855e-06 2.058547806882415898e-06 -3.031278765774914064e-06
1.567000000000000000e+03 1.487529563903808594e+01 -6.651380062103271484e+00 6.121700607764068991e-06 2.304139525222126395e-05 8.748928848945070058e-06 -1.084029236153583042e-06
1.568000000000000000e+03 8.570508003234863281e+00 4.217348575592041016e+00 -3.331882357597351074e-01 -1.242243424057960510e-01 -1.372237652540206909e-01 2.169471234083175659e-01
1.569000000000000000e+03 1.014781093597412109e+01 3.331901550292968750e+00 -3.730640113353729248e-01 -2.056250572204589844e-01 -1.736067235469818115e-01 2.454347163438796997e-01
1.570000000000000000e+03 2.761515617370605469e+01 -9.814400672912597656e+00 -4.669414758682250977e-01 -1.058355420827865601e-01 -1.718330979347229004e-01 3.657763004302978516e-01
1.571000000000000000e+03 2.652305603027343750e+01 -9.491885185241699219e+00 -4.634453654289245605e-01 -1.817675828933715820e-01 -1.935638785362243652e-01 3.921439349651336670e-01
1.572000000000000000e+03 1.947797584533691406e+01 -1.070734500885009766e+01 -1.053314645105274394e-05 3.732914774445816875e-05 8.038799933274276555e-06 -2.450525698804995045e-06
1.573000000000000000e+03 5.385796546936035156e+00 3.989000082015991211e+00 -1.491189897060394287e-01 -5.236461386084556580e-02 -6.044508144259452820e-02 9.542177617549896240e-02
1.574000000000000000e+03 9.427731513977050781e+00 4.191143035888671875e+00 -3.839240968227386475e-01 -1.879377365112304688e-01 -1.715585440397262573e-01 2.539139986038208008e-01
1.575000000000000000e+03 3.750090599060058594e+00 6.575047492980957031e+00 -9.834395349025726318e-02 -1.374714970588684082e-01 -7.074463367462158203e-02 1.573699861764907837e-01
1.576000000000000000e+03 4.071857929229736328e+00 5.046919345855712891e+00 -1.075207367539405823e-01 -7.669647783041000366e-02 -5.526516214013099670e-02 1.060399562120437622e-01
1.577000000000000000e+03 5.216703891754150391e+00 4.713536262512207031e+00 -1.546006947755813599e-01 -7.708073407411575317e-02 -6.950442492961883545e-02 1.283404380083084106e-01
1.578000000000000000e+03 3.372925043106079102e+00 3.448271751403808594e+00 -5.220685899257659912e-02 -3.430588915944099426e-02 -2.595382370054721832e-02 2.700363658368587494e-02
1.579000000000000000e+03 1.609204888343811035e+00 4.826539039611816406e+00 -2.258477918803691864e-02 -3.024187870323657990e-02 -1.584799773991107941e-02 3.045702911913394928e-02
1.580000000000000000e+03 2.568719100952148438e+01 -8.138549804687500000e+00 -5.466734766960144043e-01 -2.292154580354690552e-01 -2.327666729688644409e-01 4.395586848258972168e-01
1.581000000000000000e+03 9.306691169738769531e+00 -3.290249586105346680e+00 -1.093957234843401238e-05 -4.229283376844250597e-07 -3.408750217204215005e-06 -2.853872138075530529e-05
1.582000000000000000e+03 4.149352073669433594e+00 -3.498770236968994141e+00 -3.121208283118903637e-05 -2.008693445532117039e-05 -1.538970536785200238e-05 -3.230288029953953810e-06
1.583000000000000000e+03 7.352131843566894531e+00 -4.124590873718261719e+00 -5.616870566882425919e-06 -9.545360626361798495e-06 -4.548669494397472590e-06 -1.666076423134654760e-05
1.584000000000000000e+03 7.282305717468261719e+00 -3.363466262817382812e+00 7.029916105238953605e-06 4.216612069285474718e-06 3.373958406882593408e-06 1.775205782905686647e-05
1.585000000000000000e+03 7.427268505096435547e+00 -4.905907630920410156e+00 1.990533019124995917e-05 -2.896161504395422526e-06 5.102750492369523272e-06 3.877006747643463314e-06
1.586000000000000000e+03 6.660894393920898438e+00 -4.180424690246582031e+00 2.504052417862112634e-06 1.627289384487085044e-05 5.633084128930931911e-06 1.671474456088617444e-05
1.587000000000000000e+03 5.212595462799072266e+00 -4.552933216094970703e+00 4.278330015949904919e-05 1.065061132976552472e-05 1.603017335582990199e-05 1.672593498369678855e-05
1.588000000000000000e+03 5.958222866058349609e+00 -4.316683292388916016e+00 -5.953596428298624232e-06 -2.806380325637292117e-05 -1.020521995087619871e-05 -2.272806341352406889e-05
1.589000000000000000e+03 3.753108263015747070e+00 -7.201283931732177734e+00 -2.685894457954418613e-07 1.389001863572048023e-05 4.086428816663101315e-06 1.037993024510797113e-05
1.590000000000000000e+03 3.738135099411010742e+00 -6.240354537963867188e+00 -2.765946737781632692e-05 -1.934595275088213384e-05 -1.410162622050847858e-05 -1.303257067775120959e-05
1.591000000000000000e+03 2.890955924987792969e+00 -5.942610740661621094e+00 6.125307118054479361e-05 1.796648939489386976e-05 2.376586780883371830e-05 1.862661883933469653e-05
1.592000000000000000e+03 3.054177856445312500e+01 -1.407194900512695312e+01 -3.284779489040374756e-01 -2.776889130473136902e-02 -1.068740487098693848e-01 2.077565938234329224e-01
1.593000000000000000e+03 3.033451461791992188e+01 -1.290390110015869141e+01 -3.743976056575775146e-01 -2.045607380568981171e-02 -1.184561029076576233e-01 2.471024841070175171e-01
1.594000000000000000e+03 2.579517936706542969e+01 -7.075764179229736328e+00 -6.243268251419067383e-01 -1.820119917392730713e-01 -2.419016510248184204e-01 4.435550272464752197e-01
1.595000000000000000e+03 2.629736328125000000e+01 -7.671293258666992188e+00 -5.811052918434143066e-01 -1.499531865119934082e-01 -2.193175405263900757e-01 4.246090650558471680e-01
1.596000000000000000e+03 2.722305297851562500e+01 -9.080562591552734375e+00 -5.020987987518310547e-01 -1.151040047407150269e-01 -1.851608455181121826e-01 3.864475190639495850e-01
1.597000000000000000e+03 2.680204772949218750e+01 -8.334868431091308594e+00 -5.478852391242980957e-01 -1.321030110120773315e-01 -2.039964646100997925e-01 4.059814214706420898e-01
1.598000000000000000e+03 2.455503845214843750e+01 -5.077384948730468750e+00 -7.373287677764892578e-01 -2.131226807832717896e-01 -2.851354479789733887e-01 4.651217460632324219e-01
1.599000000000000000e+03 1.303774642944335938e+01 -5.677506446838378906e+00 -1.660891030041966587e-05 1.298235747526632622e-05 -1.087965756596531719e-06 5.630171017401153222e-06
1.600000000000000000e+03 1.649947357177734375e+01 -7.022463798522949219e+00 -2.967575255752308294e-06 -1.642491952225100249e-05 -5.817748387926258147e-06 -3.173681761836633086e-07
1.601000000000000000e+03 2.395396614074707031e+01 3.031191587448120117e+00 -1.212928164750337601e-02 2.069301754236221313e-01 5.844026803970336914e-02 1.832053661346435547e-01
1.602000000000000000e+03 1.313251399993896484e+01 4.337202072143554688e+00 -5.191619992256164551e-01 -6.468187570571899414e-01 -3.497942090034484863e-01 4.390152096748352051e-01
1.603000000000000000e+03 3.089250564575195312e+01 -1.219885826110839844e+01 -4.222733080387115479e-01 7.013180758804082870e-03 -1.245780363678932190e-01 2.588980197906494141e-01
1.604000000000000000e+03 2.254622459411621094e+01 -3.321552515029907227e+00 -8.422271609306335449e-01 -3.462225794792175293e-01 -3.565349280834197998e-01 5.222952961921691895e-01
1.605000000000000000e+03 3.120396041870117188e+01 -1.449938678741455078e+01 -3.360553979873657227e-01 -1.259247679263353348e-02 -1.045943647623062134e-01 1.880156993865966797e-01
1.606000000000000000e+03 3.192898368835449219e+01 -1.486273288726806641e+01 -3.434315025806427002e-01 6.558291148394346237e-03 -1.010619625449180603e-01 1.673038601875305176e-01
1.607000000000000000e+03 2.365741920471191406e+01 -3.642825365066528320e+00 -7.911892533302307129e-01 -2.268569618463516235e-01 -3.054138720035552979e-01 4.588644206523895264e-01
1.608000000000000000e+03 3.294393539428710938e+01 -1.432418155670166016e+01 -3.897794783115386963e-01 3.148620203137397766e-02 -1.074879840016365051e-01 1.739252656698226929e-01
1.609000000000000000e+03 1.863107872009277344e+01 2.753228545188903809e-01 -5.548030734062194824e-01 -6.826997995376586914e-01 -3.712508678436279297e-01 7.593225836753845215e-01
1.610000000000000000e+03 2.352696990966796875e+01 -4.742287635803222656e+00 -7.849506735801696777e-01 -3.197064101696014404e-01 -3.313971161842346191e-01 5.176013112068176270e-01
1.611000000000000000e+03 2.316218757629394531e+01 -2.903168916702270508e+00 -7.917775511741638184e-01 -2.427954524755477905e-01 -3.103719055652618408e-01 4.546968638896942139e-01
1.612000000000000000e+03 7.706977367401123047e+00 5.759446620941162109e+00 -3.123378753662109375e-01 -1.651935428380966187e-01 -1.432594209909439087e-01 2.958531379699707031e-01
1.613000000000000000e+03 1.443717861175537109e+01 4.692608356475830078e+00 -5.917775630950927734e-01 -8.764156699180603027e-01 -4.404579699039459229e-01 5.613781809806823730e-01
1.614000000000000000e+03 1.280803203582763672e+01 3.587021827697753906e+00 -4.397172927856445312e-01 -5.770932435989379883e-01 -3.050431609153747559e-01 4.251064062118530273e-01
1.615000000000000000e+03 2.262738227844238281e+01 -2.154580831527709961e+00 -7.784221768379211426e-01 -2.444400191307067871e-01 -3.068586587905883789e-01 4.548796713352203369e-01
1.616000000000000000e+03 1.118072509765625000e+01 -5.802550792694091797e+00 1.405554485245374963e-05 8.492522283631842583e-06 6.764420504623558372e-06 -4.006514063803479075e-05
1.617000000000000000e+03 1.148569869995117188e+01 -6.957818508148193359e+00 2.698780008358880877e-05 -2.648365864388324553e-07 8.016889296413864940e-06 -3.856313924188725650e-05
1.618000000000000000e+03 1.553744888305664062e+01 -8.554359436035156250e+00 1.707633055048063397e-05 1.048852300300495699e-05 8.269455975096207112e-06 -1.176008299808017910e-05
1.619000000000000000e+03 6.671494293212890625e+01 -4.368074417114257812e+00 -1.773357868194580078e+00 9.041032791137695312e-01 -2.607764005661010742e-01 -1.745322823524475098e+00
1.620000000000000000e+03 6.786690521240234375e+01 -4.482969760894775391e+00 -1.827924013137817383e+00 2.275688648223876953e+00 1.343293935060501099e-01 -2.122385025024414062e+00
1.621000000000000000e+03 7.377227783203125000e+01 -7.655202150344848633e-01 -7.832424044609069824e-01 7.372304439544677734e+00 1.976718664169311523e+00 -1.026739120483398438e+00
1.622000000000000000e+03 1.200386619567871094e+01 3.820136308670043945e+00 -4.614193439483642578e-01 -4.375665783882141113e-01 -2.696957886219024658e-01 3.601203262805938721e-01
1.623000000000000000e+03 2.073165702819824219e+01 1.726546138525009155e-01 -5.630925893783569336e-01 -3.129298090934753418e-01 -2.628067135810852051e-01 5.590914487838745117e-01
1.624000000000000000e+03 1.711347007751464844e+01 2.765276670455932617e+00 -3.742406666278839111e-01 -8.246399760246276855e-01 -3.596642017364501953e-01 7.345796227455139160e-01
1.625000000000000000e+03 2.143258094787597656e+01 -6.314584612846374512e-01 -6.711196303367614746e-01 -2.754283249378204346e-01 -2.839643955230712891e-01 5.012014508247375488e-01
1.626000000000000000e+03 1.866157722473144531e+01 1.421694159507751465e+00 -4.064550697803497314e-01 -6.124845743179321289e-01 -3.056818842887878418e-01 7.766280770301818848e-01
1.627000000000000000e+03 3.939389038085937500e+01 -1.448869800567626953e+01 -5.487248301506042480e-01 9.448514878749847412e-02 -1.362718939781188965e-01 5.801171064376831055e-02
1.628000000000000000e+03 9.620923995971679688e+00 -9.418215751647949219e+00 -5.285580300551373512e-06 -1.231580390594899654e-04 -3.853308589896187186e-05 2.085244886984582990e-06
1.629000000000000000e+03 7.367616653442382812e+00 -8.302114486694335938e+00 3.596621900214813650e-05 6.855469837319105864e-05 3.135627412120811641e-05 4.374011405161581933e-05
1.630000000000000000e+03 3.788947677612304688e+01 1.703722763061523438e+01 3.266788423061370850e-01 4.717920720577239990e-01 2.395412772893905640e-01 3.106628060340881348e-01
1.631000000000000000e+03 3.956460571289062500e+01 1.571624851226806641e+01 4.039191603660583496e-01 6.624683141708374023e-01 3.199162185192108154e-01 3.778077661991119385e-01
1.632000000000000000e+03 1.093842411041259766e+01 1.173800277709960938e+01 2.916045486927032471e-02 -4.935776293277740479e-01 -1.393251419067382812e-01 6.408363580703735352e-01
1.633000000000000000e+03 3.690826892852783203e+00 -9.555459976196289062e+00 1.226784479513298720e-05 6.289039447437971830e-05 2.254747232655063272e-05 5.137212792760692537e-05
1.634000000000000000e+03 1.821151542663574219e+01 -3.185249900817871094e+01 2.592019503936171532e-03 -1.122526824474334717e-03 4.408478271216154099e-04 1.630546874366700649e-03
1.635000000000000000e+03 5.686746978759765625e+01 8.319383621215820312e+00 5.213497877120971680e-01 1.405111551284790039e+00 5.779384374618530273e-01 1.039707362651824951e-01
1.636000000000000000e+03 4.282722854614257812e+01 -1.540145492553710938e+01 -6.006153821945190430e-01 5.644104629755020142e-02 -1.632522940635681152e-01 -3.907646611332893372e-02
1.637000000000000000e+03 4.054426193237304688e+01 -1.440947628021240234e+01 -5.808222293853759766e-01 9.606608003377914429e-02 -1.454268544912338257e-01 3.925221040844917297e-02
1.638000000000000000e+03 6.549127578735351562e+00 -1.767730712890625000e+01 1.073926032404415309e-04 2.160313306376338005e-04 9.702718671178445220e-05 -6.947261863388121128e-05
1.639000000000000000e+03 2.928013420104980469e+01 -1.329537773132324219e+01 -3.175514340400695801e-01 -6.034081056714057922e-02 -1.133676767349243164e-01 2.407166808843612671e-01
1.640000000000000000e+03 4.963497543334960938e+01 -1.274483394622802734e+01 -9.492402076721191406e-01 3.804299607872962952e-02 -2.733591496944427490e-01 -2.295323312282562256e-01
1.641000000000000000e+03 4.688872909545898438e+01 -1.277412319183349609e+01 -8.363949060440063477e-01 9.612645953893661499e-02 -2.220805287361145020e-01 -1.046566367149353027e-01
1.642000000000000000e+03 5.887392044067382812e+01 -7.230821132659912109e+00 -2.371236562728881836e+00 -5.951198935508728027e-02 -7.292245626449584961e-01 -5.345610976219177246e-01
1.643000000000000000e+03 5.811074066162109375e+01 -6.270455360412597656e+00 -2.161362886428833008e+00 1.461775004863739014e-01 -6.045556068420410156e-01 -2.046649903059005737e-01
1.644000000000000000e+03 1.173363399505615234e+01 1.540759563446044922e+01 4.275039136409759521e-01 -4.645669758319854736e-01 -1.111891679465770721e-02 4.062027633190155029e-01
1.645000000000000000e+03 4.374687957763671875e+01 -1.414078998565673828e+01 -6.780052185058593750e-01 8.311767131090164185e-02 -1.784662604331970215e-01 -4.208615049719810486e-02
1.646000000000000000e+03 4.173093032836914062e+01 -1.426094055175781250e+01 -6.147013306617736816e-01 9.572806954383850098e-02 -1.556919664144515991e-01 1.583514921367168427e-02
1.647000000000000000e+03 5.006180953979492188e+01 -7.526414871215820312e+00 -1.132197022438049316e+00 2.720062136650085449e-01 -2.580572366714477539e-01 9.238390624523162842e-02
1.648000000000000000e+03 1.043821907043457031e+01 4.939818859100341797e+00 -4.721440672874450684e-01 -3.072005510330200195e-01 -2.338033914566040039e-01 3.308603763580322266e-01
1.649000000000000000e+03 3.382588958740234375e+01 -1.358295154571533203e+01 -4.417165815830230713e-01 5.905608832836151123e-02 -1.147981509566307068e-01 1.817922890186309814e-01
1.650000000000000000e+03 5.354806518554687500e+01 -9.118143081665039062e+00 -1.463618993759155273e+00 1.286939382553100586e-01 -4.004774987697601318e-01 -2.394144982099533081e-01
1.651000000000000000e+03 1.367437076568603516e+01 -2.656603240966796875e+01 7.367455400526523590e-04 -4.394405113998800516e-04 8.919151150621473789e-05 7.982773968251422048e-05
1.652000000000000000e+03 1.328328132629394531e+01 -2.420358467102050781e+01 3.434057580307126045e-04 -1.110671364585869014e-04 6.970158574404194951e-05 -1.318771828664466739e-04
1.653000000000000000e+03 6.541414642333984375e+01 -2.427454948425292969e+01 -6.554082632064819336e-01 1.580695509910583496e+00 2.775861918926239014e-01 1.991098672151565552e-01
1.654000000000000000e+03 5.077845001220703125e+01 -1.214072132110595703e+01 -1.046618461608886719e+00 2.125110104680061340e-02 -3.076101839542388916e-01 -2.679927349090576172e-01
1.655000000000000000e+03 1.533344364166259766e+01 4.087050437927246094e+00 -4.588118791580200195e-01 -9.545789361000061035e-01 -4.240172505378723145e-01 5.738936662673950195e-01
1.656000000000000000e+03 2.455745315551757812e+01 -3.461343002319335938e+01 1.279425690881907940e-03 -1.399704604409635067e-03 -3.608368569985032082e-05 4.982393700629472733e-03
1.657000000000000000e+03 7.519034576416015625e+01 1.432363891601562500e+01 1.203249692916870117e-01 5.973241806030273438e+00 1.828070044517517090e+00 -6.511330008506774902e-01
1.658000000000000000e+03 7.597630310058593750e+01 -1.648342013359069824e-01 -4.406618475914001465e-01 8.401478767395019531e+00 2.388245105743408203e+00 -5.836383700370788574e-01
1.659000000000000000e+03 7.171031188964843750e+01 3.269390869140625000e+01 1.195145845413208008e-01 4.446443557739257812e+00 1.369787454605102539e+00 -2.502884864807128906e-01
1.660000000000000000e+03 7.459516143798828125e+01 3.236537551879882812e+01 5.416028574109077454e-02 4.826106071472167969e+00 1.464079856872558594e+00 -1.804620623588562012e-01
1.661000000000000000e+03 7.655112457275390625e+01 8.508699417114257812e+00 5.217329412698745728e-02 7.160136222839355469e+00 2.163692712783813477e+00 -7.206947803497314453e-01
1.662000000000000000e+03 7.516908264160156250e+01 1.006643390655517578e+01 1.241166964173316956e-01 6.403614044189453125e+00 1.958319306373596191e+00 -8.360464572906494141e-01
1.663000000000000000e+03 7.659348297119140625e+01 1.561074161529541016e+01 6.085684895515441895e-02 6.214185237884521484e+00 1.882512569427490234e+00 -4.573649466037750244e-01
1.664000000000000000e+03 7.701664733886718750e+01 1.311434388160705566e+00 -1.646218001842498779e-01 8.671336174011230469e+00 2.552014350891113281e+00 -5.599785447120666504e-01
1.665000000000000000e+03 7.583740997314453125e+01 1.163700819015502930e+00 -2.735230326652526855e-01 8.058580398559570312e+00 2.335517406463623047e+00 -7.613754272460937500e-01
1.666000000000000000e+03 7.498713684082031250e+01 7.046010494232177734e+00 7.825656235218048096e-02 6.692093849182128906e+00 2.031105279922485352e+00 -9.894405603408813477e-01
1.667000000000000000e+03 7.516037750244140625e+01 1.151180458068847656e+01 1.244774088263511658e-01 6.254904270172119141e+00 1.913814425468444824e+00 -7.725132703781127930e-01
1.668000000000000000e+03 7.378876495361328125e+01 1.015834903717041016e+01 1.824054419994354248e-01 5.887350559234619141e+00 1.820926785469055176e+00 -9.741362333297729492e-01
1.669000000000000000e+03 7.765799713134765625e+01 -1.219758415222167969e+01 1.816072344779968262e+00 7.063945770263671875e+00 2.664005517959594727e+00 2.611137032508850098e-01
1.670000000000000000e+03 7.748273468017578125e+01 -1.044005489349365234e+01 1.163845539093017578e+00 8.185150146484375000e+00 2.804698705673217773e+00 2.185175895690917969e+00
1.671000000000000000e+03 7.494876861572265625e+01 -1.229182529449462891e+01 8.382163047790527344e+00 1.417002105712890625e+01 6.765655040740966797e+00 -2.114523947238922119e-01
1.672000000000000000e+03 7.658713531494140625e+01 1.700355720520019531e+01 5.770687758922576904e-02 6.070998191833496094e+00 1.838611483573913574e+00 -4.138079285621643066e-01
1.673000000000000000e+03 7.375951385498046875e+01 1.727153587341308594e+01 1.608741432428359985e-01 5.385682106018066406e+00 1.663966774940490723e+00 -6.320499181747436523e-01
1.674000000000000000e+03 7.521421051025390625e+01 2.118654251098632812e+01 7.694724202156066895e-02 5.431819915771484375e+00 1.652630209922790527e+00 -4.033714234828948975e-01
1.675000000000000000e+03 7.522398376464843750e+01 1.985207748413085938e+01 7.550810277462005615e-02 5.542507648468017578e+00 1.685404658317565918e+00 -4.484012722969055176e-01
1.676000000000000000e+03 7.543901824951171875e+01 3.954092264175415039e+00 -5.735834687948226929e-02 7.350480079650878906e+00 2.187936544418334961e+00 -9.553351402282714844e-01
1.677000000000000000e+03 7.509934234619140625e+01 5.462363243103027344e+00 2.445224113762378693e-02 6.955705165863037109e+00 2.094047307968139648e+00 -1.005255222320556641e+00
1.678000000000000000e+03 7.422561645507812500e+01 3.610500097274780273e+00 -8.598265796899795532e-02 6.811134338378906250e+00 2.017545461654663086e+00 -1.117482185363769531e+00
1.679000000000000000e+03 7.271881103515625000e+01 2.890182304382324219e+01 1.084224358201026917e-01 4.696219921112060547e+00 1.441392779350280762e+00 -3.225614130496978760e-01
1.680000000000000000e+03 7.347878265380859375e+01 2.405518150329589844e+01 1.024402156472206116e-01 4.986516475677490234e+00 1.526687026023864746e+00 -4.128562211990356445e-01
1.681000000000000000e+03 7.564495086669921875e+01 2.792232322692871094e+01 4.540799930691719055e-02 5.144682407379150391e+00 1.557027101516723633e+00 -2.320959717035293579e-01
1.682000000000000000e+03 7.445740509033203125e+01 2.753674316406250000e+01 7.426770776510238647e-02 5.009329795837402344e+00 1.525079369544982910e+00 -2.860781848430633545e-01
1.683000000000000000e+03 7.648120117187500000e+01 2.950857925415039062e+01 2.750941924750804901e-02 5.237472534179687500e+00 1.579494476318359375e+00 -1.591822654008865356e-01
1.684000000000000000e+03 7.746489715576171875e+01 -9.242765426635742188e+00 1.015476360917091370e-01 8.805280685424804688e+00 2.672048330307006836e+00 2.612799406051635742e+00
1.685000000000000000e+03 7.476103973388671875e+01 -3.316644668579101562e+01 7.385385781526565552e-02 7.751045703887939453e+00 2.347469806671142578e+00 4.451013803482055664e-01
1.686000000000000000e+03 7.328803253173828125e+01 -3.661379241943359375e+01 1.426757127046585083e-01 6.807363033294677734e+00 2.085011720657348633e+00 3.586131930351257324e-01
1.687000000000000000e+03 7.655773162841796875e+01 -2.765106391906738281e+01 -1.284114569425582886e-01 9.136698722839355469e+00 2.702486276626586914e+00 2.594680786132812500e-01
1.688000000000000000e+03 7.473344421386718750e+01 -2.898526954650878906e+01 -1.080076396465301514e-01 7.950983047485351562e+00 2.352892637252807617e+00 4.449034929275512695e-01
1.689000000000000000e+03 7.524696350097656250e+01 -2.224023056030273438e+01 -7.904575467109680176e-01 9.054932594299316406e+00 2.479342460632324219e+00 -2.401969283819198608e-01
1.690000000000000000e+03 7.720780944824218750e+01 -2.088950920104980469e+01 -5.212360620498657227e-01 9.728288650512695312e+00 2.762115716934204102e+00 -7.993040084838867188e-01
1.691000000000000000e+03 7.627418518066406250e+01 -2.647737026214599609e+00 -7.791417837142944336e-01 9.056240081787109375e+00 2.483129501342773438e+00 6.701437290757894516e-03
1.692000000000000000e+03 7.531648254394531250e+01 2.952234458923339844e+01 5.496320500969886780e-02 5.014402389526367188e+00 1.520809769630432129e+00 -2.062638252973556519e-01
1.693000000000000000e+03 7.616542816162109375e+01 -3.330929946899414062e+01 2.968924120068550110e-02 8.429800033569335938e+00 2.537846803665161133e+00 3.540099561214447021e-01
1.694000000000000000e+03 7.596734619140625000e+01 -2.469233512878417969e+01 -3.670721948146820068e-01 9.029596328735351562e+00 2.598757266998291016e+00 4.136486724019050598e-02
1.695000000000000000e+03 7.563552093505859375e+01 -2.600420761108398438e+01 -2.832341492176055908e-01 8.726253509521484375e+00 2.532905817031860352e+00 2.193930298089981079e-01
1.696000000000000000e+03 7.616469573974609375e+01 -2.342860603332519531e+01 -4.781349003314971924e-01 9.258361816406250000e+00 2.634068012237548828e+00 -1.617426872253417969e-01
1.697000000000000000e+03 7.604273223876953125e+01 -1.614198493957519531e+01 -6.872386336326599121e-01 1.155456542968750000e+01 3.260198116302490234e+00 -2.480279207229614258e+00
1.698000000000000000e+03 7.724016571044921875e+01 -1.751672744750976562e+01 -7.099072337150573730e-01 9.672697067260742188e+00 2.688837051391601562e+00 -2.052951335906982422e+00
1.699000000000000000e+03 7.596534729003906250e+01 -1.990863800048828125e+01 -1.095501661300659180e+00 9.882820129394531250e+00 2.636195659637451172e+00 -9.443141818046569824e-01
1.700000000000000000e+03 7.640334320068359375e+01 -6.715196132659912109e+00 -1.238474607467651367e+00 1.025786876678466797e+01 2.705818176269531250e+00 1.708589315414428711e+00
1.701000000000000000e+03 7.731704711914062500e+01 -5.252337932586669922e+00 -7.797890901565551758e-01 9.555316925048828125e+00 2.632658243179321289e+00 1.161026000976562500e+00
1.702000000000000000e+03 7.583178710937500000e+01 -5.887832641601562500e+00 -1.500625014305114746e+00 1.021540069580078125e+01 2.614432573318481445e+00 1.072307825088500977e+00
1.703000000000000000e+03 7.612988281250000000e+01 -1.441118717193603516e+00 -5.962777733802795410e-01 8.727735519409179688e+00 2.439437389373779297e+00 -3.004868030548095703e-01
1.704000000000000000e+03 7.633633422851562500e+01 -3.819503545761108398e+00 -9.554814100265502930e-01 9.363512039184570312e+00 2.522408962249755859e+00 4.365125596523284912e-01
1.705000000000000000e+03 6.648797607421875000e+01 -2.320649528503417969e+01 -6.078063845634460449e-01 2.216286420822143555e+00 4.825439751148223877e-01 3.637486696243286133e-01
1.706000000000000000e+03 3.603622055053710938e+01 -1.430215740203857422e+01 -4.703453183174133301e-01 7.827053219079971313e-02 -1.176224350929260254e-01 1.308340877294540405e-01
1.707000000000000000e+03 3.701421737670898438e+01 -1.567369842529296875e+01 -4.444246590137481689e-01 5.809444189071655273e-02 -1.158990636467933655e-01 7.933613657951354980e-02
1.708000000000000000e+03 3.222490549087524414e+00 -1.620415878295898438e+01 5.025898644817061722e-05 8.789096682448871434e-06 1.771442475728690624e-05 -5.621431046165525913e-05
1.709000000000000000e+03 4.589164257049560547e+00 2.198890495300292969e+01 5.179173871874809265e-02 -8.326715826988220215e-01 -2.342639416456222534e-01 1.255807131528854370e-01
1.710000000000000000e+03 3.422039985656738281e+00 -1.779218864440917969e+01 -7.227115565910935402e-05 1.318999511568108574e-05 -1.772434734448324889e-05 2.949705594801343977e-05
1.711000000000000000e+03 4.372089385986328125e+00 -1.453957557678222656e+01 6.190254498505964875e-05 -1.970708035514689982e-05 1.265863920707488433e-05 -4.698500561062246561e-05
1.712000000000000000e+03 4.935859680175781250e+00 -1.978744316101074219e+01 -1.131122480728663504e-04 -7.111880404409021139e-05 -5.526931636268272996e-05 9.529336966807022691e-05
1.713000000000000000e+03 3.229223728179931641e+00 2.053930282592773438e+01 3.487901017069816589e-02 -8.822247982025146484e-01 -2.542037367820739746e-01 1.195441633462905884e-01
1.714000000000000000e+03 7.049978733062744141e+00 -1.857931709289550781e+01 -4.549850928015075624e-05 9.029145439853891730e-05 1.343788244412280619e-05 -1.541196252219378948e-04
1.715000000000000000e+03 4.342825412750244141e+00 1.766621780395507812e+01 7.481645047664642334e-02 -7.267505526542663574e-01 -1.955802291631698608e-01 2.314882576465606689e-01
1.716000000000000000e+03 4.377865791320800781e+00 1.908708190917968750e+01 6.898126751184463501e-02 -7.713039517402648926e-01 -2.106968015432357788e-01 1.892502456903457642e-01
1.717000000000000000e+03 4.358497619628906250e+00 1.627298736572265625e+01 6.528268754482269287e-02 -6.704110503196716309e-01 -1.815385073423385620e-01 2.684338986873626709e-01
1.718000000000000000e+03 4.785336971282958984e+00 2.493576812744140625e+01 2.959673851728439331e-02 -8.784250617027282715e-01 -2.546485066413879395e-01 8.718324452638626099e-02
1.719000000000000000e+03 4.796959877014160156e+00 2.638128852844238281e+01 2.280636504292488098e-02 -9.018052220344543457e-01 -2.636996507644653320e-01 7.724600285291671753e-02
1.720000000000000000e+03 4.596799850463867188e+00 2.899760627746582031e+01 9.062907658517360687e-03 -9.542506337165832520e-01 -2.835563123226165771e-01 5.378269776701927185e-02
1.721000000000000000e+03 4.492134571075439453e+00 -2.718425369262695312e+01 2.264726354042068124e-04 1.556512434035539627e-04 1.146371578215621412e-04 1.478168996982276440e-04
1.722000000000000000e+03 3.340744256973266602e+00 -2.423787117004394531e+01 -3.064164047827944160e-05 -6.961022336327005178e-06 -1.128079838963458315e-05 7.408957753796130419e-05
1.723000000000000000e+03 4.992286682128906250e+00 -2.157954978942871094e+01 1.534737675683572888e-04 1.116709172492846847e-04 7.954340253490954638e-05 -7.504498353227972984e-05
1.724000000000000000e+03 3.177576541900634766e+00 1.482694816589355469e+01 2.694806270301342010e-02 -6.292324066162109375e-01 -1.806852966547012329e-01 2.389219403266906738e-01
1.725000000000000000e+03 5.230031013488769531e+00 1.262054824829101562e+01 1.644517108798027039e-02 -4.842455089092254639e-01 -1.403401046991348267e-01 3.870187997817993164e-01
1.726000000000000000e+03 4.548680305480957031e+00 1.357595920562744141e+01 2.781465277075767517e-02 -5.322247743606567383e-01 -1.513230353593826294e-01 3.317316770553588867e-01
1.727000000000000000e+03 3.369632244110107422e+00 2.628299140930175781e+01 1.131467334926128387e-02 -1.007264137268066406e+00 -2.987848222255706787e-01 4.996520653367042542e-02
1.728000000000000000e+03 5.857083797454833984e+00 2.195571708679199219e+01 7.990244030952453613e-02 -7.529582381248474121e-01 -2.019167393445968628e-01 1.533543914556503296e-01
1.729000000000000000e+03 4.707543849945068359e+00 2.346202087402343750e+01 4.225274920463562012e-02 -8.553385734558105469e-01 -2.439257353544235229e-01 1.074804440140724182e-01
1.730000000000000000e+03 6.209521770477294922e+00 -2.404712486267089844e+01 1.244821323780342937e-04 2.209968515671789646e-04 1.036436951835639775e-04 7.545234257122501731e-05
1.731000000000000000e+03 4.909256458282470703e+00 -2.327611732482910156e+01 1.367163440590957180e-05 -8.748834807192906737e-05 -2.214501364505849779e-05 1.125214112107641995e-04
1.732000000000000000e+03 3.826273679733276367e+00 -8.392710685729980469e+00 8.873626939021050930e-06 -2.578259227448143065e-05 -5.072689873486524448e-06 -4.839679945689567830e-07
1.733000000000000000e+03 7.999315738677978516e+00 -9.299999237060546875e+00 -3.398197441129013896e-05 -1.087937416741624475e-04 -4.283271482563577592e-05 -3.387809920241124928e-05
1.734000000000000000e+03 7.103209495544433594e+00 1.373444366455078125e+01 8.887418359518051147e-02 -5.283116698265075684e-01 -1.318312436342239380e-01 4.522196352481842041e-01
1.735000000000000000e+03 3.068739891052246094e+00 -3.023259735107421875e+01 1.624309225007891655e-04 2.640421153046190739e-04 1.279419084312394261e-04 2.206789795309305191e-04
1.736000000000000000e+03 4.562159061431884766e+00 -2.858694076538085938e+01 5.846246494911611080e-05 9.844829037319868803e-05 4.707322659669443965e-05 2.701614284887909889e-04
1.737000000000000000e+03 5.779059886932373047e+00 2.942640113830566406e+01 1.520083844661712646e-02 -8.799030780792236328e-01 -2.594106793403625488e-01 6.987669318914413452e-02
1.738000000000000000e+03 6.907242774963378906e+00 3.668981933593750000e+01 2.531669847667217255e-02 -8.830238580703735352e-01 -2.573121488094329834e-01 4.415806382894515991e-02
1.739000000000000000e+03 4.020003318786621094e+00 3.570807647705078125e+01 2.300128526985645294e-02 -1.078192234039306641e+00 -3.165572583675384521e-01 2.001920528709888458e-02
1.740000000000000000e+03 4.965713024139404297e+00 -1.130010509490966797e+01 6.356693484121933579e-05 6.830646452726796269e-05 3.956201908295042813e-05 3.922267933376133442e-05
1.741000000000000000e+03 5.428793430328369141e+00 -1.251665687561035156e+01 -1.084494724636897445e-04 -1.068898345693014562e-04 -6.460179429268464446e-05 -1.099488690670114011e-05
1.742000000000000000e+03 4.480843544006347656e+00 1.149417304992675781e+01 -1.995981112122535706e-02 -4.209032952785491943e-01 -1.322589367628097534e-01 3.424858748912811279e-01
1.743000000000000000e+03 5.031754016876220703e+00 -5.858973979949951172e+00 8.283575880341231823e-05 4.072384399478323758e-06 2.607244277896825224e-05 4.980540325050242245e-05
1.744000000000000000e+03 5.882793903350830078e+00 -3.084961700439453125e+01 1.423286885255947709e-04 1.520330406492576003e-04 8.830851584207266569e-05 4.329127841629087925e-04
1.745000000000000000e+03 4.022600173950195312e+00 -2.972449493408203125e+01 6.292025500442832708e-05 2.220354072051122785e-04 8.548670302843675017e-05 2.553332888055592775e-04
1.746000000000000000e+03 3.265860795974731445e+00 3.278839492797851562e+01 6.727798841893672943e-03 -1.098346829414367676e+00 -3.274857401847839355e-01 2.724538184702396393e-02
1.747000000000000000e+03 5.152535438537597656e+00 3.464617919921875000e+01 2.382652461528778076e-02 -9.871651530265808105e-01 -2.890015840530395508e-01 4.628136381506919861e-02
1.748000000000000000e+03 3.943234682083129883e+00 8.933039665222167969e+00 -7.138016074895858765e-02 -2.619356215000152588e-01 -9.999473392963409424e-02 2.540348470211029053e-01
1.749000000000000000e+03 3.243338346481323242e+00 -5.051383972167968750e+00 -9.645899262977764010e-05 -7.267426099133444950e-06 -3.111792466370388865e-05 -2.310048512299545109e-05
1.750000000000000000e+03 3.287793159484863281e+00 5.629111289978027344e+00 -7.218379527330398560e-02 -9.835411608219146729e-02 -5.116137117147445679e-02 1.033207252621650696e-01
1.751000000000000000e+03 5.468264007568359375e+01 -8.409371376037597656e+00 -1.600627660751342773e+00 1.324422508478164673e-01 -4.404556155204772949e-01 -2.525787651538848877e-01
1.752000000000000000e+03 1.561455631256103516e+01 -2.901939582824707031e+01 1.483978587202727795e-03 -3.680463996715843678e-04 3.347796737216413021e-04 3.880064759869128466e-04
1.753000000000000000e+03 1.472703742980957031e+01 -1.036399269104003906e+01 -2.628485844979877584e-06 -2.967042382806539536e-05 -9.689672879176214337e-06 -1.717399936751462519e-05
1.754000000000000000e+03 1.349985027313232422e+01 -9.997342109680175781e+00 1.331250405200989917e-05 2.165154728572815657e-05 1.048921512847300619e-05 1.751413765305187553e-05
1.755000000000000000e+03 5.775089645385742188e+01 -3.327044677734375000e+01 2.822703719139099121e-01 -9.421786665916442871e-02 5.641575530171394348e-02 -2.783707678318023682e-01
1.756000000000000000e+03 5.584482574462890625e+01 -3.069626235961914062e+01 -4.700165987014770508e-01 -5.423552393913269043e-01 -3.037115633487701416e-01 -6.404842734336853027e-01
1.757000000000000000e+03 1.050388526916503906e+01 -2.086466026306152344e+01 2.201283350586891174e-04 1.551737223053351045e-04 1.125906128436326981e-04 8.112745126709342003e-05
1.758000000000000000e+03 7.507299900054931641e+00 -2.163163948059082031e+01 2.635905984789133072e-04 1.618627575226128101e-04 1.276360126212239265e-04 4.182376414973987266e-06
1.759000000000000000e+03 4.473242568969726562e+01 -1.371617889404296875e+01 -7.174565196037292480e-01 8.336421102285385132e-02 -1.902277022600173950e-01 -5.955751612782478333e-02
1.760000000000000000e+03 5.242792129516601562e+01 -9.820634841918945312e+00 -1.303042411804199219e+00 1.173321157693862915e-01 -3.557130694389343262e-01 -2.300700396299362183e-01
1.761000000000000000e+03 6.120090484619140625e+01 -3.080719375610351562e+01 -4.290483891963958740e-03 6.744297146797180176e-01 2.010417729616165161e-01 4.201784031465649605e-04
1.762000000000000000e+03 4.459274673461914062e+01 5.312914371490478516e+00 -2.758423984050750732e-01 6.142025068402290344e-02 -6.432664394378662109e-02 1.890151053667068481e-01
1.763000000000000000e+03 4.833377075195312500e+01 3.190056085586547852e+00 -1.603264510631561279e-01 6.838507950305938721e-02 -2.758241072297096252e-02 4.542999863624572754e-01
1.764000000000000000e+03 3.275833129882812500e+01 -3.549690246582031250e+01 -1.332558225840330124e-03 -7.349488325417041779e-03 -2.604614011943340302e-03 -4.782413132488727570e-03
1.765000000000000000e+03 3.936719512939453125e+01 -3.957646942138671875e+01 4.093709588050842285e-02 -1.559153497219085693e-01 -3.449347987771034241e-02 -5.434148758649826050e-02
1.766000000000000000e+03 5.026829528808593750e+01 2.804500341415405273e+00 -1.689953953027725220e-01 2.627248764038085938e-01 2.811884321272373199e-02 5.423281788825988770e-01
1.767000000000000000e+03 5.363518905639648438e+01 4.877085685729980469e+00 1.718498766422271729e-01 6.761710643768310547e-01 2.544062733650207520e-01 4.482166171073913574e-01
1.768000000000000000e+03 6.312559127807617188e+01 -4.393030166625976562e+00 -2.223855972290039062e+00 -4.620380401611328125e-01 -8.057682514190673828e-01 -2.512767612934112549e-01
1.769000000000000000e+03 4.691511154174804688e+01 -3.863970184326171875e+01 3.002345263957977295e-01 -4.579236209392547607e-01 -4.730672761797904968e-02 -2.264464348554611206e-01
1.770000000000000000e+03 4.978342437744140625e+01 -3.410348129272460938e+01 -9.044582396745681763e-02 -5.328937768936157227e-01 -1.870018690824508667e-01 -4.923208951950073242e-01
1.771000000000000000e+03 2.047031593322753906e+01 -3.178413200378417969e+01 4.087104462087154388e-03 -1.164141809567809105e-03 8.768887491896748543e-04 2.089901128783822060e-03
1.772000000000000000e+03 2.143503952026367188e+01 -3.301996612548828125e+01 2.193324966356158257e-03 -9.481337619945406914e-04 3.735573554877191782e-04 2.994231646880507469e-03
1.773000000000000000e+03 4.273694229125976562e+01 6.219830036163330078e+00 -3.426844477653503418e-01 2.520240843296051025e-01 -2.719810046255588531e-02 2.098938971757888794e-01
1.774000000000000000e+03 4.640918731689453125e+01 3.349332332611083984e+00 -2.108916789293289185e-01 1.173761766403913498e-02 -5.974621698260307312e-02 3.342835903167724609e-01
1.775000000000000000e+03 1.119817161560058594e+01 1.298653507232666016e+01 2.142122983932495117e-01 -5.362861752510070801e-01 -9.662216156721115112e-02 5.843605399131774902e-01
1.776000000000000000e+03 6.246642684936523438e+01 -2.516705131530761719e+01 -9.443622827529907227e-01 1.319208294153213501e-01 -2.437324374914169312e-01 -3.751152157783508301e-01
1.777000000000000000e+03 5.826715087890625000e+01 1.163963985443115234e+01 5.677649378776550293e-01 1.925023198127746582e+00 7.478364109992980957e-01 -2.088408172130584717e-01
1.778000000000000000e+03 1.062234497070312500e+01 1.049692153930664062e+01 -1.524813026189804077e-01 -4.855463802814483643e-01 -1.914083063602447510e-01 6.298524141311645508e-01
1.779000000000000000e+03 4.154607009887695312e+01 7.715974807739257812e+00 -3.205445706844329834e-01 4.251157045364379883e-01 3.137134015560150146e-02 2.839158475399017334e-01
1.780000000000000000e+03 1.718089675903320312e+01 -9.024804115295410156e+00 -1.641370727156754583e-05 -6.992580892983824015e-06 -7.021886631264351308e-06 -3.057663661820697598e-06
1.781000000000000000e+03 5.444465255737304688e+01 -3.491240310668945312e+01 3.339799046516418457e-01 -4.994023442268371582e-01 -4.962673410773277283e-02 -3.791110515594482422e-01
1.782000000000000000e+03 4.354249572753906250e+01 -3.823312377929687500e+01 1.096173599362373352e-01 -3.065795898437500000e-01 -5.908866971731185913e-02 -1.776454448699951172e-01
1.783000000000000000e+03 5.548284149169921875e+01 4.322712421417236328e+00 1.241824254393577576e-01 7.778875827789306641e-01 2.706210017204284668e-01 3.199047744274139404e-01
1.784000000000000000e+03 2.886098098754882812e+01 1.188187599182128906e+01 -2.820025980472564697e-01 -2.610867619514465332e-01 -1.629268079996109009e-01 6.058516502380371094e-01
1.785000000000000000e+03 2.688434028625488281e+01 1.356516551971435547e+01 -5.008713006973266602e-01 -5.873053073883056641e-01 -3.264529705047607422e-01 4.505468308925628662e-01
1.786000000000000000e+03 1.781251907348632812e+01 -2.879472732543945312e+01 2.332979813218116760e-03 -9.638069896027445793e-04 4.107518761884421110e-04 3.736218786798417568e-04
1.787000000000000000e+03 6.374554443359375000e+01 -2.675992012023925781e+01 -5.210019946098327637e-01 1.089451074600219727e+00 1.705347001552581787e-01 1.152679100632667542e-01
1.788000000000000000e+03 6.761450195312500000e+01 -2.264805030822753906e+01 -6.279233694076538086e-01 2.983169794082641602e+00 7.065739035606384277e-01 5.791813731193542480e-01
1.789000000000000000e+03 6.783819580078125000e+01 -1.839778137207031250e+01 -2.409584075212478638e-01 1.926096796989440918e+00 5.055415034294128418e-01 7.680579423904418945e-01
1.790000000000000000e+03 5.932651519775390625e+01 1.374727916717529297e+01 5.927451848983764648e-01 2.205358028411865234e+00 8.394309878349304199e-01 -4.411044418811798096e-01
1.791000000000000000e+03 8.110909461975097656e+00 -1.816305351257324219e+01 1.417817384208319709e-05 -2.067308923869859427e-05 -1.948474391610943712e-06 6.010916695231571794e-05
1.792000000000000000e+03 7.881450653076171875e+00 -2.054661750793457031e+01 -1.910835708258673549e-04 -7.428279059240594506e-05 -7.960990478750318289e-05 -2.655460593814495951e-05
1.793000000000000000e+03 3.399654388427734375e+01 -3.676159286499023438e+01 -1.377626135945320129e-02 -2.031543850898742676e-02 -1.022750977426767349e-02 -1.530229207128286362e-02
1.794000000000000000e+03 7.699468994140625000e+01 3.894356918334960938e+01 -9.611273184418678284e-03 5.068681716918945312e+00 1.517721056938171387e+00 -6.020236015319824219e-02
1.795000000000000000e+03 6.117709732055664062e+01 -5.809324741363525391e+00 -2.858943700790405273e+00 -1.610040217638015747e-01 -9.059843420982360840e-01 -2.128792107105255127e-01
1.796000000000000000e+03 6.032868576049804688e+01 -4.863432884216308594e+00 -2.144654989242553711e+00 -3.192074829712510109e-03 -6.443541049957275391e-01 -3.628289699554443359e-02
1.797000000000000000e+03 4.913331985473632812e+01 -3.246001434326171875e+01 -4.830119907855987549e-01 -4.080232083797454834e-01 -2.673105597496032715e-01 -4.998387992382049561e-01
1.798000000000000000e+03 5.172546005249023438e+01 2.202129364013671875e+01 6.584959626197814941e-01 8.186674714088439941e-01 4.431490302085876465e-01 -2.734621763229370117e-01
1.799000000000000000e+03 4.504748535156250000e+01 2.309381675720214844e+01 4.957351088523864746e-01 7.485179901123046875e-01 3.732759356498718262e-01 3.142825365066528320e-01
1.800000000000000000e+03 2.949244880676269531e+01 -3.662052154541015625e+01 -3.571479581296443939e-03 -6.636377424001693726e-03 -3.062357194721698761e-03 3.957467153668403625e-03
1.801000000000000000e+03 2.329987907409667969e+01 -1.738765835762023926e+00 -7.099337577819824219e-01 -1.528987288475036621e-01 -2.588497400283813477e-01 3.888440132141113281e-01
1.802000000000000000e+03 2.181342124938964844e+01 2.146477222442626953e+00 -2.378520369529724121e-01 6.345079094171524048e-02 -5.232037603855133057e-02 4.103419184684753418e-01
1.803000000000000000e+03 1.588125133514404297e+01 -1.070166301727294922e+01 9.722934919409453869e-06 3.097730586887337267e-05 1.221007187268696725e-05 1.168836570286657661e-05
1.804000000000000000e+03 2.640358543395996094e+01 1.587802028656005859e+01 -2.102784961462020874e-01 -5.955194234848022461e-01 -2.417393773794174194e-01 3.066116571426391602e-01
1.805000000000000000e+03 2.561681556701660156e+01 3.862851142883300781e+00 1.634194403886795044e-01 7.122664898633956909e-02 7.039383053779602051e-02 1.522454321384429932e-01
1.806000000000000000e+03 2.424659156799316406e+01 1.977737665176391602e+00 -2.230774015188217163e-01 1.129789277911186218e-01 -3.302953764796257019e-02 1.977205425500869751e-01
1.807000000000000000e+03 5.951837921142578125e+01 1.094399452209472656e+01 6.017286181449890137e-01 1.994966030120849609e+00 7.790083885192871094e-01 -3.399254083633422852e-01
1.808000000000000000e+03 6.004077529907226562e+01 1.202016258239746094e+01 6.326817870140075684e-01 2.124807119369506836e+00 8.272467255592346191e-01 -4.270007014274597168e-01
1.809000000000000000e+03 7.462508201599121094e+00 -1.685850906372070312e+01 -4.703052763943560421e-05 -9.515087003819644451e-05 -4.265442112227901816e-05 5.770677489636000246e-06
1.810000000000000000e+03 2.418939781188964844e+01 1.997954368591308594e+01 2.746962904930114746e-01 -5.260726809501647949e-01 -7.541292160749435425e-02 4.726734459400177002e-01
1.811000000000000000e+03 2.304750061035156250e+01 2.099165344238281250e+01 2.907485961914062500e-01 -4.290097057819366455e-01 -4.147833213210105896e-02 5.350942015647888184e-01
1.812000000000000000e+03 2.638126182556152344e+01 1.799900054931640625e+01 9.516867995262145996e-02 -5.512517690658569336e-01 -1.368249207735061646e-01 3.033690154552459717e-01
1.813000000000000000e+03 3.187736320495605469e+01 -3.914133453369140625e+01 -8.612300269305706024e-03 -2.454530075192451477e-02 -9.947280399501323700e-03 -3.053813008591532707e-03
1.814000000000000000e+03 1.133133220672607422e+01 1.801301765441894531e+01 3.464077711105346680e-01 -4.123850762844085693e-01 -1.979318819940090179e-02 2.531602680683135986e-01
1.815000000000000000e+03 5.597185897827148438e+01 2.372870254516601562e+01 5.368927717208862305e-01 1.797766685485839844e+00 7.003978490829467773e-01 -4.547498524188995361e-01
1.816000000000000000e+03 5.475728225708007812e+01 2.135137557983398438e+01 5.067451596260070801e-01 1.426243662834167480e+00 5.798966288566589355e-01 -5.118542909622192383e-01
1.817000000000000000e+03 5.128439712524414062e+01 2.335752487182617188e+01 6.987096667289733887e-01 9.061892032623291016e-01 4.814696609973907471e-01 -1.842540353536605835e-01
1.818000000000000000e+03 3.831884002685546875e+01 1.395508193969726562e+01 2.524006366729736328e-01 4.771186411380767822e-01 2.188557833433151245e-01 4.788660109043121338e-01
1.819000000000000000e+03 3.002836418151855469e+01 8.077784538269042969e+00 3.752628341317176819e-02 -1.559167057275772095e-01 -3.551712632179260254e-02 5.946758389472961426e-01
1.820000000000000000e+03 2.837343406677246094e+01 9.736236572265625000e+00 -6.816176325082778931e-02 -2.714590430259704590e-01 -1.018862426280975342e-01 6.633405089378356934e-01
1.821000000000000000e+03 7.259803009033203125e+01 -1.479696464538574219e+01 -1.513885557651519775e-01 1.304809093475341797e+01 3.869010686874389648e+00 3.728743553161621094e+00
1.822000000000000000e+03 7.155556488037109375e+01 -1.007930564880371094e+01 1.902099013328552246e+00 6.738475799560546875e+00 2.592172384262084961e+00 -4.445843696594238281e+00
1.823000000000000000e+03 7.061043548583984375e+01 -9.500209808349609375e+00 1.082171440124511719e+00 4.204276561737060547e+00 1.585934400558471680e+00 -2.722457170486450195e+00
1.824000000000000000e+03 7.140086364746093750e+01 -1.011550045013427734e+01 2.022706508636474609e+00 5.997903347015380859e+00 2.406183004379272461e+00 -4.136067390441894531e+00
1.825000000000000000e+03 7.200592041015625000e+01 -1.023018836975097656e+01 1.628044486045837402e+00 9.355589866638183594e+00 3.295090436935424805e+00 -5.128000736236572266e+00
1.826000000000000000e+03 7.163513946533203125e+01 -1.453672504425048828e+01 1.869596004486083984e+00 7.182650089263916016e+00 2.715673923492431641e+00 4.397898197174072266e+00
1.827000000000000000e+03 6.983963012695312500e+01 -1.957684135437011719e+01 -6.697090268135070801e-01 4.841968059539794922e+00 1.251677632331848145e+00 1.231377959251403809e+00
1.828000000000000000e+03 7.290512847900390625e+01 -1.500426197052001953e+01 -6.630164384841918945e-01 1.405184078216552734e+01 4.016647338867187500e+00 2.859571218490600586e+00
1.829000000000000000e+03 7.567755126953125000e+01 -1.043596744537353516e+01 2.206466197967529297e+00 1.280895805358886719e+01 4.504627227783203125e+00 3.171480655670166016e+00
1.830000000000000000e+03 7.516854095458984375e+01 -1.279733657836914062e+01 6.687839031219482422e+00 1.349532032012939453e+01 6.054947853088378906e+00 -1.562253475189208984e+00
1.831000000000000000e+03 7.484458160400390625e+01 -1.152840423583984375e+01 6.728067874908447266e+00 1.522238826751708984e+01 6.585136890411376953e+00 2.670893907546997070e+00
1.832000000000000000e+03 7.530052947998046875e+01 -1.318866825103759766e+01 4.892218589782714844e+00 1.326258563995361328e+01 5.446441173553466797e+00 -2.495291709899902344e+00
1.833000000000000000e+03 7.419133758544921875e+01 -1.117750072479248047e+01 4.980345726013183594e+00 1.917587089538574219e+01 7.246864795684814453e+00 3.458946466445922852e+00
1.834000000000000000e+03 7.106127929687500000e+01 -1.009986209869384766e+01 1.943410873413085938e+00 4.367532253265380859e+00 1.893282890319824219e+00 -3.263321638107299805e+00
1.835000000000000000e+03 7.492705535888671875e+01 -1.422715568542480469e+01 1.543928861618041992e+00 1.504821586608886719e+01 4.977643489837646484e+00 -2.840169906616210938e+00
1.836000000000000000e+03 7.098197174072265625e+01 -1.487873935699462891e+01 1.578087091445922852e+00 4.998037338256835938e+00 1.972837448120117188e+00 3.124858379364013672e+00
1.837000000000000000e+03 6.924512481689453125e+01 -1.626714515686035156e+01 4.306832253932952881e-01 2.573251962661743164e+00 9.011805653572082520e-01 1.519504308700561523e+00
1.838000000000000000e+03 7.009616088867187500e+01 -1.431926536560058594e+01 1.653446197509765625e+00 1.850483417510986328e+00 1.051178812980651855e+00 1.508830547332763672e+00
1.839000000000000000e+03 7.080676269531250000e+01 -1.447335243225097656e+01 2.045261621475219727e+00 3.756285905838012695e+00 1.740464210510253906e+00 2.800040721893310547e+00
1.840000000000000000e+03 7.425584411621093750e+01 -1.064124393463134766e+01 2.098333597183227539e+00 1.822782516479492188e+01 6.097847461700439453e+00 2.631218910217285156e+00
1.841000000000000000e+03 7.000760650634765625e+01 -9.346963882446289062e+00 7.842832207679748535e-01 2.934474229812622070e+00 1.115627288818359375e+00 -1.909163475036621094e+00
1.842000000000000000e+03 6.888011169433593750e+01 -8.041910171508789062e+00 -8.889628052711486816e-01 2.174784183502197266e+00 3.857464194297790527e-01 -1.067634701728820801e+00
1.843000000000000000e+03 2.831069946289062500e+01 -1.130891132354736328e+01 -3.947485089302062988e-01 -8.640725910663604736e-02 -1.443467289209365845e-01 3.173564672470092773e-01
1.844000000000000000e+03 2.794074821472167969e+01 -8.656357765197753906e+00 -5.373079180717468262e-01 -6.274043768644332886e-02 -1.800145059823989868e-01 3.767513334751129150e-01
1.845000000000000000e+03 1.625066566467285156e+01 -8.122027397155761719e+00 -2.276215127494651824e-05 -1.211863764183362946e-05 -1.046423676598351449e-05 1.103002978197764605e-05
1.846000000000000000e+03 6.878797912597656250e+01 -1.680053710937500000e+01 2.005522400140762329e-01 2.355629205703735352e+00 7.668544054031372070e-01 1.218061208724975586e+00
1.847000000000000000e+03 7.260980987548828125e+01 -1.867736625671386719e+01 -1.432644248008728027e+00 8.815630912780761719e+00 2.214895963668823242e+00 9.460302591323852539e-01
1.848000000000000000e+03 2.835632514953613281e+01 -9.413425445556640625e+00 -5.006428360939025879e-01 -5.238049849867820740e-02 -1.659069955348968506e-01 3.592876493930816650e-01
1.849000000000000000e+03 6.010094642639160156e+00 4.857584476470947266e+00 -1.927086263895034790e-01 -9.134390950202941895e-02 -8.521576225757598877e-02 1.577418744564056396e-01
1.850000000000000000e+03 1.029349517822265625e+01 4.119397163391113281e+00 -4.182853102684020996e-01 -2.423081845045089722e-01 -1.981780380010604858e-01 2.804238796234130859e-01
1.851000000000000000e+03 1.925114631652832031e+01 6.707057356834411621e-01 -4.901118576526641846e-01 -5.234291553497314453e-01 -3.040623068809509277e-01 7.000497579574584961e-01
1.852000000000000000e+03 4.188233375549316406e+00 3.961771488189697266e+00 -9.763329476118087769e-02 -4.776877164840698242e-02 -4.362061992287635803e-02 6.623061001300811768e-02
1.853000000000000000e+03 4.749987125396728516e+00 3.880698680877685547e+00 -1.174239739775657654e-01 -5.422527343034744263e-02 -5.149477347731590271e-02 8.049642294645309448e-02
1.854000000000000000e+03 6.113605499267578125e+00 4.092474460601806641e+00 -1.857745796442031860e-01 -6.971377134323120117e-02 -7.664650678634643555e-02 1.269554197788238525e-01
1.855000000000000000e+03 4.799337387084960938e+00 6.510026931762695312e+00 -1.442842483520507812e-01 -1.489342600107192993e-01 -8.796555548906326294e-02 2.072107642889022827e-01
1.856000000000000000e+03 7.727278232574462891e+00 4.206355571746826172e+00 -2.810422778129577637e-01 -1.080125272274017334e-01 -1.167164370417594910e-01 1.915970444679260254e-01
1.857000000000000000e+03 8.615571975708007812e+00 5.012143611907958984e+00 -3.611092269420623779e-01 -1.715868115425109863e-01 -1.598088145256042480e-01 2.771147191524505615e-01
1.858000000000000000e+03 7.729296684265136719e+00 4.982261180877685547e+00 -3.038091361522674561e-01 -1.245566383004188538e-01 -1.285097301006317139e-01 2.317037880420684814e-01
1.859000000000000000e+03 4.558870315551757812e+00 4.444546699523925781e+00 -1.238082349300384521e-01 -6.783043593168258667e-02 -5.749160051345825195e-02 9.446153789758682251e-02
1.860000000000000000e+03 1.374014377593994141e+01 -5.973555564880371094e+00 7.578636541438754648e-06 -8.017615982680581510e-06 -1.316938664785993751e-07 4.311796601541573182e-06
1.861000000000000000e+03 1.420316410064697266e+01 -6.943886280059814453e+00 -1.259208238479914144e-05 -2.269871765747666359e-05 -1.058723955793539062e-05 1.126949791796505451e-05
1.862000000000000000e+03 3.159400939941406250e+01 -1.390269756317138672e+01 -3.690901100635528564e-01 6.018247921019792557e-03 -1.089215576648712158e-01 2.012673914432525635e-01
1.863000000000000000e+03 6.228026866912841797e+00 -5.082395076751708984e+00 8.549794074497185647e-06 4.611301119439303875e-05 1.639884067117236555e-05 2.529491030145436525e-05
1.864000000000000000e+03 1.077915000915527344e+01 -6.542953491210937500e+00 -2.170737025153357536e-05 -1.311880896537331864e-05 -1.044785403792047873e-05 4.432287460076622665e-05
1.865000000000000000e+03 8.056838989257812500e+00 -4.102494716644287109e+00 1.004807836579857394e-05 3.641759576566983014e-06 4.106951109861256555e-06 2.404249426035676152e-05
1.866000000000000000e+03 5.661647319793701172e+00 -5.454559803009033203e+00 -5.302356294123455882e-05 -2.516731183277443051e-05 -2.345726352359633893e-05 -3.793237920035608113e-05
1.867000000000000000e+03 1.276893520355224609e+01 -8.626469612121582031e+00 -8.053392775764223188e-06 2.491749910404905677e-05 5.059232080384390429e-06 1.186780446005286649e-05
1.868000000000000000e+03 1.079203510284423828e+01 -4.729898929595947266e+00 3.314602054160786793e-06 1.623259049665648490e-05 5.864157628820976242e-06 -2.396827403572387993e-05
1.869000000000000000e+03 2.671159553527832031e+01 -7.092848300933837891e+00 -6.133156418800354004e-01 -1.005395799875259399e-01 -2.141565531492233276e-01 4.093780815601348877e-01
1.870000000000000000e+03 2.537991714477539062e+01 -6.437035083770751953e+00 -6.598438620567321777e-01 -1.936871558427810669e-01 -2.560592889785766602e-01 4.558334946632385254e-01
1.871000000000000000e+03 2.593950843811035156e+01 -6.058163642883300781e+00 -6.702892780303955078e-01 -1.303737908601760864e-01 -2.401989251375198364e-01 4.255073368549346924e-01
1.872000000000000000e+03 2.944632720947265625e+01 -1.182721996307373047e+01 -3.998610675334930420e-01 -3.867502138018608093e-02 -1.315608322620391846e-01 2.871867716312408447e-01
1.873000000000000000e+03 2.497322273254394531e+01 -5.769465446472167969e+00 -7.022516131401062012e-01 -2.097364217042922974e-01 -2.735964059829711914e-01 4.628025293350219727e-01
1.874000000000000000e+03 2.380239677429199219e+01 7.156195640563964844e-01 -4.262792170047760010e-01 3.668808937072753906e-02 -1.168773397803306580e-01 2.626102864742279053e-01
1.875000000000000000e+03 1.353698062896728516e+01 3.278349399566650391e+00 -4.459320604801177979e-01 -6.508809924125671387e-01 -3.290439248085021973e-01 4.867247343063354492e-01
1.876000000000000000e+03 3.295195388793945312e+01 -1.345194625854492188e+01 -4.254904985427856445e-01 4.520535841584205627e-02 -1.140855401754379272e-01 1.979056149721145630e-01
1.877000000000000000e+03 1.341698265075683594e+01 -6.782616615295410156e+00 -1.281432741961907595e-05 2.764028431556653231e-05 4.447786977834766731e-06 -1.921305738505907357e-06
1.878000000000000000e+03 1.231322383880615234e+01 -5.364704132080078125e+00 1.510249330749502406e-05 -3.149800704704830423e-06 3.585807689887587912e-06 -1.788574445527046919e-05
1.879000000000000000e+03 9.470571517944335938e+00 -3.910700321197509766e+00 -2.210054390161531046e-06 4.792068648384884000e-05 1.371318921883357689e-05 1.776258159225108102e-06
1.880000000000000000e+03 8.786255836486816406e+00 -4.926011085510253906e+00 1.115800841944292188e-05 -3.564068174455314875e-05 -7.344802725128829479e-06 3.192399890394881368e-05
1.881000000000000000e+03 2.411940193176269531e+01 -4.367641448974609375e+00 -7.703449130058288574e-01 -2.264888286590576172e-01 -2.990501224994659424e-01 4.629630148410797119e-01
1.882000000000000000e+03 6.923001098632812500e+01 -3.593466997146606445e+00 -1.571247220039367676e+00 4.029941558837890625e+00 7.376083731651306152e-01 -2.175465106964111328e+00
1.883000000000000000e+03 1.537379837036132812e+01 -7.085582733154296875e+00 3.581426881282823160e-06 -1.141100347012979910e-05 -2.348872840229887515e-06 -2.225286380053148605e-06
1.884000000000000000e+03 1.586073780059814453e+01 -7.520004749298095703e+00 4.219192533128079958e-07 2.716935341595672071e-05 8.277381311927456409e-06 -6.088140253268647939e-06
1.885000000000000000e+03 2.381506347656250000e+01 -2.517255544662475586e+00 -7.441022992134094238e-01 -1.420505791902542114e-01 -2.658458650112152100e-01 3.959243893623352051e-01
1.886000000000000000e+03 1.225687026977539062e+01 4.624590873718261719e+00 -5.095953941345214844e-01 -5.527025461196899414e-01 -3.186893761157989502e-01 4.078390300273895264e-01
1.887000000000000000e+03 1.135392093658447266e+01 4.817763805389404297e+00 -4.925734698772430420e-01 -3.998867869377136230e-01 -2.677380740642547607e-01 3.519321680068969727e-01
1.888000000000000000e+03 1.390212821960449219e+01 -8.955237388610839844e+00 -3.756155592782306485e-06 -1.566181708767544478e-05 -5.825391781399957836e-06 -4.407247160997940227e-06
1.889000000000000000e+03 5.401880264282226562e+00 -9.509964942932128906e+00 6.914480763953179121e-05 4.715285831480287015e-05 3.488930087769404054e-05 4.639161124941892922e-05
1.890000000000000000e+03 1.226088047027587891e+01 -7.345194816589355469e+00 -2.708781721594277769e-05 2.470863364578690380e-05 -7.137552415770187508e-07 1.819069802877493203e-05
1.891000000000000000e+03 3.102791595458984375e+01 -1.341512107849121094e+01 -3.724264800548553467e-01 -5.742846522480249405e-03 -1.134507954120635986e-01 2.223057895898818970e-01
1.892000000000000000e+03 2.989401435852050781e+01 -1.365203094482421875e+01 -3.222567141056060791e-01 -4.722361266613006592e-02 -1.108440980315208435e-01 2.257512062788009644e-01
1.893000000000000000e+03 7.623083591461181641e+00 6.543053150177001953e+00 -2.987992167472839355e-01 -1.965223997831344604e-01 -1.485964804887771606e-01 3.273612558841705322e-01
1.894000000000000000e+03 6.968015289306640625e+01 -7.806577205657958984e+00 -7.633805274963378906e-01 3.664867877960205078e+00 8.704462051391601562e-01 -1.802695751190185547e+00
1.895000000000000000e+03 6.956642150878906250e+01 -6.906852722167968750e+00 -1.407480359077453613e+00 3.983503580093383789e+00 7.728069424629211426e-01 -1.826630115509033203e+00
1.896000000000000000e+03 6.358362960815429688e+01 -3.550537109375000000e+00 -1.496889948844909668e+00 -3.398435711860656738e-01 -5.510200262069702148e-01 -4.193430840969085693e-01
1.897000000000000000e+03 6.246323394775390625e+01 -3.566970348358154297e+00 -1.580650687217712402e+00 -1.247710734605789185e-01 -5.116265416145324707e-01 -1.531988382339477539e-01
1.898000000000000000e+03 7.705256652832031250e+01 -1.266690635681152344e+01 2.952876091003417969e+00 8.841813087463378906e+00 3.538406610488891602e+00 -5.775778293609619141e-01
1.899000000000000000e+03 7.589434814453125000e+01 -1.333659267425537109e+01 4.007310867309570312e+00 1.173471736907958984e+01 4.722608566284179688e+00 -2.286077737808227539e+00
1.900000000000000000e+03 7.626591491699218750e+01 -8.558128356933593750e+00 -7.299348115921020508e-01 1.103775024414062500e+01 3.092344760894775391e+00 2.575623750686645508e+00
1.901000000000000000e+03 5.527337074279785156e+00 1.093574237823486328e+01 -4.666595160961151123e-02 -3.942038714885711670e-01 -1.322609484195709229e-01 4.064995348453521729e-01
1.902000000000000000e+03 7.649427795410156250e+01 -1.532633590698242188e+01 1.624355465173721313e-01 1.072088336944580078e+01 3.264995574951171875e+00 -2.790606975555419922e+00
1.903000000000000000e+03 3.214134216308593750e+01 -1.349507427215576172e+01 -4.040051698684692383e-01 2.554284594953060150e-02 -1.135386973619461060e-01 2.078457176685333252e-01
1.904000000000000000e+03 2.633957290649414062e+01 1.720416903495788574e+00 -2.002229094505310059e-01 7.742489129304885864e-02 -3.683940693736076355e-02 1.541506499052047729e-01
1.905000000000000000e+03 8.804261207580566406e+00 -4.104740142822265625e+00 1.072557438419607934e-06 -2.263048736494965851e-05 -6.467379080277169123e-06 -2.524387673474848270e-05
1.906000000000000000e+03 7.527596282958984375e+01 -1.461411380767822266e+01 9.002670049667358398e-01 1.390249061584472656e+01 4.440827369689941406e+00 -2.839844703674316406e+00
1.907000000000000000e+03 2.956163978576660156e+01 -1.263637256622314453e+01 -3.663361668586730957e-01 -4.397689551115036011e-02 -1.230939179658889771e-01 2.649718821048736572e-01
1.908000000000000000e+03 1.302361869812011719e+01 7.477559089660644531e+00 -6.351538300514221191e-01 -7.678925395011901855e-01 -4.209139347076416016e-01 5.153247714042663574e-01
1.909000000000000000e+03 1.182885265350341797e+01 8.800348281860351562e+00 -4.170512855052947998e-01 -5.842063426971435547e-01 -3.003772795200347900e-01 6.016227602958679199e-01
1.910000000000000000e+03 4.908922576904296875e+01 -1.171476268768310547e+01 -9.885464310646057129e-01 1.028599143028259277e-01 -2.657059431076049805e-01 -1.535703390836715698e-01
1.911000000000000000e+03 4.856051254272460938e+01 -1.071489238739013672e+01 -9.948673248291015625e-01 1.608107239007949829e-01 -2.502169907093048096e-01 -7.725890725851058960e-02
1.912000000000000000e+03 7.654354858398437500e+01 -1.844143676757812500e+01 -1.019639611244201660e+00 1.007387161254882812e+01 2.716269493103027344e+00 -1.608095169067382812e+00
1.913000000000000000e+03 3.883256149291992188e+01 7.853845119476318359e+00 -2.332431524991989136e-01 4.122486114501953125e-01 5.370163545012474060e-02 4.719592630863189697e-01
1.914000000000000000e+03 5.995469284057617188e+01 1.479611396789550781e+01 5.840715169906616211e-01 2.306645631790161133e+00 8.672151565551757812e-01 -4.659606814384460449e-01
1.915000000000000000e+03 2.350507354736328125e+01 -5.322247743606567383e-01 -5.889241099357604980e-01 -5.817470327019691467e-02 -1.941296309232711792e-01 3.256335556507110596e-01
1.916000000000000000e+03 1.794858741760253906e+01 -9.249333381652832031e+00 2.222955117758829147e-05 1.445615180273307487e-05 1.100571080314693972e-05 1.116908060794230551e-05
1.917000000000000000e+03 1.701848411560058594e+01 -9.941983222961425781e+00 2.339528145967051387e-05 1.623170828679576516e-05 1.188809710583882406e-05 1.040504776028683409e-05
1.918000000000000000e+03 3.386822891235351562e+01 -1.441446685791015625e+01 -4.124212265014648438e-01 4.906302317976951599e-02 -1.090074628591537476e-01 1.637713462114334106e-01
1.919000000000000000e+03 3.488471221923828125e+01 -1.541968154907226562e+01 -4.054714143276214600e-01 5.148756131529808044e-02 -1.061951518058776855e-01 1.209416761994361877e-01
1.920000000000000000e+03 1.350362205505371094e+01 5.165013313293457031e+00 -5.502440929412841797e-01 -8.161641359329223633e-01 -4.099224507808685303e-01 4.929511547088623047e-01
1.921000000000000000e+03 1.253341770172119141e+01 5.486320495605468750e+00 -5.653741359710693359e-01 -6.166464686393737793e-01 -3.546061813831329346e-01 4.155111014842987061e-01
1.922000000000000000e+03 1.122782039642333984e+01 -9.156933784484863281e+00 -3.238302451791241765e-05 1.029837767418939620e-05 -6.625394235015846789e-06 3.465446934569627047e-05
1.923000000000000000e+03 1.036718463897705078e+01 -8.579231262207031250e+00 1.662506838329136372e-05 6.380274135153740644e-05 2.412834328424651176e-05 -5.441191024146974087e-05
1.924000000000000000e+03 2.239449691772460938e+01 1.220370173454284668e+00 -3.970682024955749512e-01 1.936191320419311523e-02 -1.133118942379951477e-01 3.654522001743316650e-01
1.925000000000000000e+03 5.177042007446289062e+01 -8.863012313842773438e+00 -1.291695356369018555e+00 2.025556266307830811e-01 -3.267419040203094482e-01 -9.268019348382949829e-02
1.926000000000000000e+03 9.594920158386230469e+00 5.845727443695068359e+00 -4.350836575031280518e-01 -2.593052983283996582e-01 -2.083166837692260742e-01 3.667425811290740967e-01
1.927000000000000000e+03 1.145908164978027344e+01 1.421646595001220703e+01 3.493230640888214111e-01 -4.818770587444305420e-01 -3.976619616150856018e-02 4.965165257453918457e-01
1.928000000000000000e+03 2.763031005859375000e+00 6.499700069427490234e+00 -5.565352737903594971e-02 -1.158654838800430298e-01 -5.145570263266563416e-02 1.155874058604240417e-01
1.929000000000000000e+03 5.070555496215820312e+01 -9.529512405395507812e+00 -1.165512800216674805e+00 1.818838864564895630e-01 -2.950886785984039307e-01 -9.643203020095825195e-02
1.930000000000000000e+03 7.354943847656250000e+01 -2.507438659667968750e+01 -5.441796183586120605e-01 7.638912677764892578e+00 2.128419876098632812e+00 3.350709080696105957e-01
1.931000000000000000e+03 7.667014122009277344e+00 -1.102298641204833984e+01 -8.676754077896475792e-05 -1.214983421959914267e-04 -6.247976125450804830e-05 -3.463540269876830280e-05
1.932000000000000000e+03 6.427529907226562500e+01 -2.518558311462402344e+01 -6.964358687400817871e-01 1.128555536270141602e+00 1.296359002590179443e-01 6.229690462350845337e-02
1.933000000000000000e+03 7.101010131835937500e+01 -2.890142250061035156e+01 -1.669863760471343994e-01 5.770117282867431641e+00 1.680939316749572754e+00 6.127502322196960449e-01
1.934000000000000000e+03 3.574756622314453125e+01 -1.675324249267578125e+01 -3.788648247718811035e-01 3.610511869192123413e-02 -1.028279140591621399e-01 7.370923459529876709e-02
1.935000000000000000e+03 3.594514846801757812e+01 -1.553767299652099609e+01 -4.271486401557922363e-01 5.265859514474868774e-02 -1.123470142483711243e-01 1.050944775342941284e-01
1.936000000000000000e+03 3.716424560546875000e+01 -1.441979789733886719e+01 -4.978696703910827637e-01 8.562380075454711914e-02 -1.236737594008445740e-01 1.069592311978340149e-01
1.937000000000000000e+03 6.882380676269531250e+01 -1.896732902526855469e+01 -4.040909409523010254e-01 3.391634941101074219e+00 8.962631821632385254e-01 1.104368567466735840e+00
1.938000000000000000e+03 6.773728942871093750e+01 -2.133734512329101562e+01 -5.938662290573120117e-01 2.805340051651000977e+00 6.634421944618225098e-01 6.417807936668395996e-01
1.939000000000000000e+03 6.826905059814453125e+01 -2.008256530761718750e+01 -5.371199250221252441e-01 3.048856735229492188e+00 7.535210251808166504e-01 8.327593803405761719e-01
1.940000000000000000e+03 2.005865669250488281e+01 1.069962263107299805e+00 -4.550974667072296143e-01 -3.243720829486846924e-01 -2.338408678770065308e-01 6.412341594696044922e-01
1.941000000000000000e+03 2.627173233032226562e+01 1.233672809600830078e+01 -4.680869281291961670e-01 -1.018085718154907227e+00 -4.458517730236053467e-01 5.478583574295043945e-01
1.942000000000000000e+03 1.298986625671386719e+01 -2.736212921142578125e+01 6.219277274794876575e-04 -2.962249564006924629e-04 9.771084296517074108e-05 1.023597651510499418e-04
1.943000000000000000e+03 1.223536682128906250e+01 -2.499736022949218750e+01 4.177386290393769741e-04 -2.218193985754624009e-04 5.877576768398284912e-05 4.712904410553164780e-05
1.944000000000000000e+03 5.284401702880859375e+01 -8.135969161987304688e+00 -1.393139600753784180e+00 2.168480455875396729e-01 -3.528874516487121582e-01 -8.956947922706604004e-02
1.945000000000000000e+03 5.544614791870117188e+00 -1.454031753540039062e+01 -1.754574186634272337e-04 1.710390461084898561e-05 -4.750605148728936911e-05 8.966742461780086160e-05
1.946000000000000000e+03 6.569080829620361328e+00 -1.175532054901123047e+01 8.716747834114357829e-05 1.032237705658189952e-04 5.711737321689724922e-05 3.495481723803095520e-05
1.947000000000000000e+03 5.131190490722656250e+01 -1.049698448181152344e+01 -1.188634276390075684e+00 1.105697974562644958e-01 -3.234193623065948486e-01 -2.013870179653167725e-01
1.948000000000000000e+03 4.058726882934570312e+01 -1.317703628540039062e+01 -6.187327504158020020e-01 1.229007989168167114e-01 -1.487495899200439453e-01 6.580055505037307739e-02
1.949000000000000000e+03 4.169418716430664062e+01 -1.307003879547119141e+01 -6.511900424957275391e-01 1.222494915127754211e-01 -1.586821675300598145e-01 4.447652399539947510e-02
1.950000000000000000e+03 2.330659103393554688e+01 1.647858500480651855e+00 -3.005197048187255859e-01 1.050075739622116089e-01 -5.865364149212837219e-02 2.638342380523681641e-01
1.951000000000000000e+03 3.827031707763671875e+01 -1.448831367492675781e+01 -5.192651748657226562e-01 8.996680378913879395e-02 -1.287895143032073975e-01 8.437319844961166382e-02
1.952000000000000000e+03 7.402039337158203125e+01 2.938249778747558594e+01 7.720607519149780273e-02 4.849627494812011719e+00 1.478050112724304199e+00 -2.668470740318298340e-01
1.953000000000000000e+03 2.950438690185546875e+01 4.562132358551025391e+00 5.217379331588745117e-02 -8.246357738971710205e-02 -9.086935780942440033e-03 3.396484851837158203e-01
1.954000000000000000e+03 2.765906524658203125e+01 5.075885295867919922e+00 2.147054672241210938e-01 -9.749629348516464233e-02 3.516275063157081604e-02 2.771989703178405762e-01
1.955000000000000000e+03 7.410317993164062500e+01 -2.411769676208496094e+01 -6.422804594039916992e-01 8.062732696533203125e+00 2.226135730743408203e+00 2.154757231473922729e-01
1.956000000000000000e+03 5.642937660217285156e+00 -1.591730785369873047e+01 1.533967006253078580e-04 -2.495438457117415965e-05 3.853269299725070596e-05 -1.050051942002028227e-04
1.957000000000000000e+03 4.574351310729980469e+00 -1.747410202026367188e+01 1.066686945705441758e-05 -3.016741720784921199e-05 -5.850164143339497969e-06 -8.889236778486520052e-05
1.958000000000000000e+03 1.146196365356445312e+01 -2.187328147888183594e+01 3.064379416173323989e-05 -1.113504986278712749e-04 -2.421201133984141052e-05 -1.002849894575774670e-04
1.959000000000000000e+03 1.113701343536376953e+01 -2.558637237548828125e+01 6.633060402236878872e-04 3.030678817594889551e-05 2.080838457914069295e-04 1.408417738275602460e-04
1.960000000000000000e+03 7.371725463867187500e+01 2.254832458496093750e+01 1.089972332119941711e-01 5.105351448059082031e+00 1.564304590225219727e+00 -4.397680163383483887e-01
1.961000000000000000e+03 7.492763519287109375e+01 2.410095405578613281e+01 6.833767145872116089e-02 5.238404273986816406e+00 1.592022538185119629e+00 -3.387871086597442627e-01
1.962000000000000000e+03 7.465920257568359375e+01 9.679387807846069336e-01 -3.923270404338836670e-01 7.460680484771728516e+00 2.120506048202514648e+00 -9.583254456520080566e-01
1.963000000000000000e+03 7.568412017822265625e+01 2.535786151885986328e+00 -1.562003046274185181e-01 7.718573093414306641e+00 2.268711805343627930e+00 -8.828818202018737793e-01
1.964000000000000000e+03 7.481010437011718750e+01 -3.676561415195465088e-01 -6.212694644927978516e-01 7.786193847656250000e+00 2.149477481842041016e+00 -8.275364041328430176e-01
1.965000000000000000e+03 7.516050720214843750e+01 1.292443943023681641e+01 1.287350058555603027e-01 6.114160537719726562e+00 1.872868657112121582e+00 -7.193706035614013672e-01
1.966000000000000000e+03 7.517376708984375000e+01 1.852347946166992188e+01 9.588634222745895386e-02 5.632840633392333984e+00 1.718618154525756836e+00 -4.831407964229583740e-01
1.967000000000000000e+03 7.382164764404296875e+01 1.584376049041748047e+01 1.698051840066909790e-01 5.482992172241210938e+00 1.695839285850524902e+00 -6.878482699394226074e-01
1.968000000000000000e+03 7.368470764160156250e+01 8.752880096435546875e+00 1.788381189107894897e-01 5.990568161010742188e+00 1.850821852684020996e+00 -1.046827912330627441e+00
1.969000000000000000e+03 7.325367736816406250e+01 2.567477989196777344e+01 1.036792322993278503e-01 4.880086421966552734e+00 1.495129704475402832e+00 -3.765757977962493896e-01
1.970000000000000000e+03 7.300208282470703125e+01 2.733898925781250000e+01 1.030645444989204407e-01 4.789701938629150391e+00 1.467829942703247070e+00 -3.444999456405639648e-01
1.971000000000000000e+03 7.477720642089843750e+01 2.576698112487792969e+01 6.234226003289222717e-02 5.127554893493652344e+00 1.556969165802001953e+00 -3.102814853191375732e-01
1.972000000000000000e+03 7.368869018554687500e+01 1.159308052062988281e+01 1.971532851457595825e-01 5.722429275512695312e+00 1.775874853134155273e+00 -9.049215316772460938e-01
1.973000000000000000e+03 7.263555908203125000e+01 4.472661972045898438e+00 -1.285445038229227066e-02 5.835979461669921875e+00 1.746937513351440430e+00 -1.318815946578979492e+00
1.974000000000000000e+03 7.369052124023437500e+01 1.876663017272949219e+01 1.409348249435424805e-01 5.274743080139160156e+00 1.624703288078308105e+00 -5.813467502593994141e-01
1.975000000000000000e+03 7.455957794189453125e+01 2.306974411010742188e+00 -2.157102078199386597e-01 7.168089389801025391e+00 2.085713624954223633e+00 -1.053877711296081543e+00
1.976000000000000000e+03 7.343121337890625000e+01 7.314023017883300781e+00 1.423357874155044556e-01 5.991828918457031250e+00 1.840249419212341309e+00 -1.134829044342041016e+00
1.977000000000000000e+03 7.616886901855468750e+01 -2.102821731567382812e+01 -8.222344517707824707e-01 9.584519386291503906e+00 2.628685474395751953e+00 -6.887205243110656738e-01
1.978000000000000000e+03 7.520653533935546875e+01 -2.333225631713867188e+01 -6.311325430870056152e-01 8.818936347961425781e+00 2.456341266632080078e+00 -6.810907274484634399e-02
1.979000000000000000e+03 7.309437561035156250e+01 3.384655761718750000e+01 8.972990512847900391e-02 4.582541942596435547e+00 1.401681542396545410e+00 -1.922925561666488647e-01
1.980000000000000000e+03 7.212358856201171875e+01 3.547480010986328125e+01 9.989842027425765991e-02 4.404117107391357422e+00 1.351204633712768555e+00 -1.657704412937164307e-01
1.981000000000000000e+03 7.498265075683593750e+01 -2.445232009887695312e+01 -5.238013267517089844e-01 8.527448654174804688e+00 2.401094198226928711e+00 1.274938136339187622e-01
1.982000000000000000e+03 7.499247741699218750e+01 -2.017123031616210938e+01 -1.272981405258178711e+00 9.602040290832519531e+00 2.498717546463012695e+00 -4.839298129081726074e-01
1.983000000000000000e+03 7.589937591552734375e+01 -1.769515228271484375e+01 -1.303909897804260254e+00 1.075456619262695312e+01 2.835196733474731445e+00 -1.722306728363037109e+00
1.984000000000000000e+03 6.985909271240234375e+01 -4.916075229644775391e+00 -1.848958611488342285e+00 4.819417953491210938e+00 8.911377787590026855e-01 -2.101790189743041992e+00
1.985000000000000000e+03 7.526596069335937500e+01 -4.678984165191650391e+00 -1.527394771575927734e+00 9.612457275390625000e+00 2.425518751144409180e+00 2.827340960502624512e-01
1.986000000000000000e+03 7.520741271972656250e+01 -2.740655136108398438e+01 -2.023880779743194580e-01 8.361163139343261719e+00 2.447632551193237305e+00 3.398340046405792236e-01
1.987000000000000000e+03 7.324657440185546875e+01 -2.848690414428710938e+01 -1.832799017429351807e-01 7.169695377349853516e+00 2.095924615859985352e+00 5.006195902824401855e-01
1.988000000000000000e+03 7.379414367675781250e+01 1.446586322784423828e+01 1.841233819723129272e-01 5.570784091949462891e+00 1.726472258567810059e+00 -7.568024396896362305e-01
1.989000000000000000e+03 7.624360656738281250e+01 -4.985958099365234375e+00 -1.199018239974975586e+00 9.747591018676757812e+00 2.564571857452392578e+00 8.672564029693603516e-01
1.990000000000000000e+03 7.534336090087890625e+01 -3.738109827041625977e+00 -1.293439388275146484e+00 9.256962776184082031e+00 2.389057159423828125e+00 8.994673192501068115e-02
1.991000000000000000e+03 6.530617523193359375e+01 -3.376430988311767578e+00 -1.261139392852783203e+00 2.913237214088439941e-01 -2.909447252750396729e-01 -1.182511210441589355e+00
1.992000000000000000e+03 7.261447906494140625e+01 -3.387039184570312500e+01 1.388889104127883911e-01 6.562868118286132812e+00 2.010527133941650391e+00 5.144045352935791016e-01
1.993000000000000000e+03 7.395980834960937500e+01 2.121706008911132812e+01 1.168757230043411255e-01 5.205823421478271484e+00 1.596809625625610352e+00 -4.656290411949157715e-01
1.994000000000000000e+03 7.372672271728515625e+01 4.987730979919433594e+00 1.163601223379373550e-02 6.345760345458984375e+00 1.907218933105468750e+00 -1.180169701576232910e+00
1.995000000000000000e+03 5.837266921997070312e+01 -4.612032413482666016e+00 -1.798859715461730957e+00 2.049686461687088013e-01 -4.781673252582550049e-01 8.828084915876388550e-02
1.996000000000000000e+03 5.697569656372070312e+01 -6.982524394989013672e+00 -1.947631120681762695e+00 1.357416659593582153e-01 -5.435668230056762695e-01 -2.341211587190628052e-01
1.997000000000000000e+03 4.729352474212646484e+00 2.775480461120605469e+01 1.510691083967685699e-02 -9.334929585456848145e-01 -2.755158245563507080e-01 6.159515678882598877e-02
1.998000000000000000e+03 4.414159297943115234e+00 -2.596515083312988281e+01 -1.217405406350735575e-05 3.862113226205110550e-05 7.934123459563124925e-06 1.365792704746127129e-04
1.999000000000000000e+03 7.423441314697265625e+01 -2.131415748596191406e+01 -1.124389529228210449e+00 8.841804504394531250e+00 2.315224647521972656e+00 -7.072300463914871216e-02
2.000000000000000000e+03 4.483489513397216797e+00 -1.016480731964111328e+01 -5.868268635822460055e-05 -8.657679427415132523e-05 -4.357784564490430057e-05 -3.818314144155010581e-05
2.001000000000000000e+03 3.892320871353149414e+00 -1.175503063201904297e+01 -3.013925925188232213e-05 -4.655173688661307096e-05 -2.300729829585179687e-05 1.824834907893091440e-05
2.002000000000000000e+03 3.007430076599121094e+01 1.577607631683349609e+01 -8.562225103378295898e-02 -1.590453237295150757e-01 -7.340027391910552979e-02 3.262876570224761963e-01
2.003000000000000000e+03 7.499695587158203125e+01 -1.646806120872497559e+00 -8.916656970977783203e-01 8.308654785156250000e+00 2.225096702575683594e+00 -5.667189359664916992e-01
2.004000000000000000e+03 7.448489379882812500e+01 -3.345214605331420898e+00 -1.407878398895263672e+00 8.744812965393066406e+00 2.201080322265625000e+00 -4.244224131107330322e-01
2.005000000000000000e+03 7.455141448974609375e+01 -2.563437271118164062e+01 -4.017389416694641113e-01 8.148835182189941406e+00 2.324128866195678711e+00 2.741169035434722900e-01
2.006000000000000000e+03 7.397376251220703125e+01 -2.695060729980468750e+01 -3.032826781272888184e-01 7.712306976318359375e+00 2.222707271575927734e+00 4.076586067676544189e-01
2.007000000000000000e+03 6.371646881103515625e+00 -2.165881729125976562e+01 -5.921297270106151700e-05 -4.549572622636333108e-05 -3.141261186101473868e-05 6.153760477900505066e-05
2.008000000000000000e+03 6.074544429779052734e+00 2.345580863952636719e+01 5.877566710114479065e-02 -7.629484534263610840e-01 -2.112518399953842163e-01 1.280599534511566162e-01
2.009000000000000000e+03 5.215579509735107422e+00 -1.840479469299316406e+01 2.330643910681828856e-04 1.258821721421554685e-04 1.076839689631015062e-04 -8.996140968520194292e-05
2.010000000000000000e+03 4.556527709960937500e+01 6.167961597442626953e+00 -2.928644120693206787e-01 -6.053784489631652832e-02 -1.060206815600395203e-01 1.399732679128646851e-01
2.011000000000000000e+03 5.614835262298583984e+00 -1.725947952270507812e+01 -1.974376791622489691e-04 -5.061971751274541020e-05 -7.441722118528559804e-05 9.243890963261947036e-05
2.012000000000000000e+03 6.636203765869140625e+00 1.779596138000488281e+01 1.454516947269439697e-01 -6.504219770431518555e-01 -1.514910757541656494e-01 2.893189489841461182e-01
2.013000000000000000e+03 1.094097900390625000e+01 1.690881538391113281e+01 3.712596297264099121e-01 -4.776633381843566895e-01 -3.192111477255821228e-02 3.292001783847808838e-01
2.014000000000000000e+03 8.590177536010742188e+00 1.656583213806152344e+01 2.363616973161697388e-01 -5.722438693046569824e-01 -1.007646396756172180e-01 3.663864433765411377e-01
2.015000000000000000e+03 5.508500099182128906e+00 1.771004104614257812e+01 1.060523465275764465e-01 -6.844911575317382812e-01 -1.735316514968872070e-01 2.621950209140777588e-01
2.016000000000000000e+03 4.418934822082519531e+00 1.491290092468261719e+01 5.375194922089576721e-02 -6.061747074127197266e-01 -1.657268404960632324e-01 3.058926463127136230e-01
2.017000000000000000e+03 4.466488361358642578e+00 2.052922821044921875e+01 6.584351509809494019e-02 -8.071281909942626953e-01 -2.223853915929794312e-01 1.579667627811431885e-01
2.018000000000000000e+03 1.001928615570068359e+01 -2.560336112976074219e+01 3.154351143166422844e-04 -3.482596657704561949e-04 -9.847364708548411727e-06 3.808876208495348692e-04
2.019000000000000000e+03 6.228687763214111328e+00 2.499145507812500000e+01 4.695408791303634644e-02 -7.775751352310180664e-01 -2.191863209009170532e-01 1.158194392919540405e-01
2.020000000000000000e+03 1.068364715576171875e+01 -2.274320983886718750e+01 2.456601650919765234e-04 5.556658652494661510e-05 9.036802657647058368e-05 9.982189112633932382e-06
2.021000000000000000e+03 6.005431175231933594e+00 -1.066997718811035156e+01 -8.190149674192070961e-05 -8.079330291366204619e-05 -4.880844062427058816e-05 -4.517528577707707882e-05
2.022000000000000000e+03 5.667206764221191406e+00 1.501443195343017578e+01 8.608110249042510986e-02 -5.880612730979919434e-01 -1.505940407514572144e-01 3.635936081409454346e-01
2.023000000000000000e+03 4.926270008087158203e+00 3.149256896972656250e+01 9.905527345836162567e-03 -9.618087410926818848e-01 -2.855709791183471680e-01 5.339534580707550049e-02
2.024000000000000000e+03 7.266767978668212891e+00 -1.973216438293457031e+01 1.112039099098183215e-04 -7.367379294009879231e-05 1.125903690990526229e-05 1.443655055481940508e-04
2.025000000000000000e+03 5.653687953948974609e+00 2.049955749511718750e+01 9.355878829956054688e-02 -7.390807271003723145e-01 -1.936565786600112915e-01 1.805088669061660767e-01
2.026000000000000000e+03 5.533080101013183594e+00 1.908647537231445312e+01 1.054380014538764954e-01 -7.177890539169311523e-01 -1.837053149938583374e-01 2.238961905241012573e-01
2.027000000000000000e+03 6.027868270874023438e+00 3.336223602294921875e+01 1.629778742790222168e-02 -9.042215943336486816e-01 -2.663771212100982666e-01 6.185687705874443054e-02
2.028000000000000000e+03 1.144355583190917969e+01 -3.383246994018554688e+01 3.478009602986276150e-04 5.609337240457534790e-04 2.726204111240804195e-04 8.622967288829386234e-04
2.029000000000000000e+03 6.326478958129882812e+00 -3.317791366577148438e+01 2.695997827686369419e-04 3.863934834953397512e-04 1.967979769688099623e-04 5.272787529975175858e-04
2.030000000000000000e+03 1.461701297760009766e+01 -2.769811630249023438e+01 1.088908524252474308e-03 -2.670972316991537809e-04 2.465434081386774778e-04 4.804832569789141417e-04
2.031000000000000000e+03 5.246221160888671875e+01 4.202886581420898438e+00 6.329011172056198120e-02 4.983347654342651367e-01 1.684874594211578369e-01 5.189648866653442383e-01
2.032000000000000000e+03 5.134590911865234375e+01 3.521112918853759766e+00 -5.374747887253761292e-02 3.623437583446502686e-01 9.257888048887252808e-02 5.333258509635925293e-01
2.033000000000000000e+03 4.123959541320800781e+00 1.019207191467285156e+01 -5.767458304762840271e-02 -3.328256607055664062e-01 -1.171500682830810547e-01 3.047893643379211426e-01
2.034000000000000000e+03 5.179935455322265625e+00 9.929193496704101562e+00 -8.303613960742950439e-02 -3.323714733123779297e-01 -1.246222779154777527e-01 3.562987148761749268e-01
2.035000000000000000e+03 7.155133724212646484e+00 1.144726562500000000e+01 -3.946940228343009949e-02 -4.158652126789093018e-01 -1.366003900766372681e-01 4.971759617328643799e-01
2.036000000000000000e+03 5.396601104736328125e+01 -7.423273563385009766e+00 -1.527414202690124512e+00 2.348414510488510132e-01 -3.877718448638916016e-01 -7.434029132127761841e-02
2.037000000000000000e+03 5.582878112792968750e+01 -7.696908473968505859e+00 -1.800985097885131836e+00 1.467939764261245728e-01 -4.962573349475860596e-01 -2.520749568939208984e-01
2.038000000000000000e+03 6.057831764221191406e+00 -1.349171638488769531e+01 2.361385413678362966e-04 1.001397904474288225e-04 1.008834951790049672e-04 -4.623327549779787660e-05
2.039000000000000000e+03 4.552130508422851562e+01 4.333065509796142578e+00 -2.452606558799743652e-01 6.193077657371759415e-03 -7.172027230262756348e-02 2.561627924442291260e-01
2.040000000000000000e+03 5.075441837310791016e+00 8.770381927490234375e+00 -1.167485564947128296e-01 -2.644307017326354980e-01 -1.143537834286689758e-01 3.223070502281188965e-01
2.041000000000000000e+03 3.823755502700805664e+00 7.724665641784667969e+00 -9.268913418054580688e-02 -1.953229308128356934e-01 -8.640362322330474854e-02 2.173945605754852295e-01
2.042000000000000000e+03 1.027930355072021484e+01 -7.245930194854736328e+00 1.582134063937701285e-05 5.003112892154604197e-05 1.975574014068115503e-05 -4.854615326621569693e-05
2.043000000000000000e+03 4.653716087341308594e+00 -7.124639511108398438e+00 6.952149851713329554e-05 -1.129892825701972470e-05 1.746677116898354143e-05 3.179422128596343100e-05
2.044000000000000000e+03 6.107317447662353516e+00 3.553197097778320312e+01 3.037889301776885986e-02 -9.145709276199340820e-01 -2.652575969696044922e-01 5.555929988622665405e-02
2.045000000000000000e+03 5.724977874755859375e+01 6.319487571716308594e+00 4.195128381252288818e-01 1.147160649299621582e+00 4.700020551681518555e-01 1.004639267921447754e-01
2.046000000000000000e+03 3.980405807495117188e+00 -5.553659439086914062e+00 1.014944209600798786e-04 6.866706826258450747e-06 3.250833833590149879e-05 3.883163662976585329e-05
2.047000000000000000e+03 5.693491363525390625e+01 -3.599530410766601562e+01 6.064636111259460449e-01 -6.422560662031173706e-02 1.626713871955871582e-01 -1.868854910135269165e-01
2.048000000000000000e+03 5.946487808227539062e+01 -2.460366487503051758e+00 -1.164417743682861328e+00 2.587424814701080322e-01 -2.717025876045227051e-01 1.829202920198440552e-01
2.049000000000000000e+03 5.922964096069335938e+01 -5.568121910095214844e+00 -2.223318576812744141e+00 8.687887340784072876e-02 -6.409319043159484863e-01 -7.142414152622222900e-02
2.050000000000000000e+03 6.316385269165039062e+01 -2.602565574645996094e+01 -7.324191927909851074e-01 6.879855990409851074e-01 -1.333007309585809708e-02 -9.104493260383605957e-02
2.051000000000000000e+03 6.716870117187500000e+01 -2.430919456481933594e+01 -5.455759763717651367e-01 2.951653003692626953e+00 7.218230962753295898e-01 4.853498041629791260e-01
2.052000000000000000e+03 6.558654022216796875e+01 -4.416640281677246094e+00 -1.854845404624938965e+00 6.593007594347000122e-02 -5.366745591163635254e-01 -1.282686829566955566e+00
2.053000000000000000e+03 1.146838665008544922e+01 -2.378583526611328125e+01 3.449494543019682169e-04 -6.802551069995388389e-05 8.307718235300853848e-05 6.815500091761350632e-05
2.054000000000000000e+03 4.031153106689453125e+01 9.116093635559082031e+00 -1.975737512111663818e-01 5.458126664161682129e-01 1.044716760516166687e-01 4.430605173110961914e-01
2.055000000000000000e+03 4.020428085327148438e+01 7.776015281677246094e+00 -2.971683144569396973e-01 4.740287661552429199e-01 5.305813252925872803e-02 3.910269439220428467e-01
2.056000000000000000e+03 2.946524810791015625e+01 9.502716064453125000e+00 -4.157783091068267822e-02 -1.860526651144027710e-01 -6.828914582729339600e-02 6.336266994476318359e-01
2.057000000000000000e+03 2.978256034851074219e+01 1.050919914245605469e+01 -1.345185488462448120e-01 -1.640671044588088989e-01 -8.957570046186447144e-02 6.562926769256591797e-01
2.058000000000000000e+03 2.925099372863769531e+01 7.201196193695068359e+00 1.208214461803436279e-01 -1.932653933763504028e-01 -2.173318527638912201e-02 5.492610335350036621e-01
2.059000000000000000e+03 2.913266563415527344e+01 8.612445831298828125e+00 2.632941864430904388e-02 -2.094039618968963623e-01 -5.492236465215682983e-02 6.394790410995483398e-01
2.060000000000000000e+03 4.622110366821289062e+01 -1.432582378387451172e+01 -7.350286245346069336e-01 4.162611439824104309e-02 -2.080207616090774536e-01 -1.313454806804656982e-01
2.061000000000000000e+03 5.012280654907226562e+01 -3.832841110229492188e+01 4.501705467700958252e-01 -5.269974470138549805e-01 -2.304806560277938843e-02 -2.646216452121734619e-01
2.062000000000000000e+03 5.104302597045898438e+01 -3.530592727661132812e+01 1.648740768432617188e-01 -5.635625123977661133e-01 -1.196065321564674377e-01 -4.143203496932983398e-01
2.063000000000000000e+03 1.336719226837158203e+01 1.740021705627441406e+01 4.636477828025817871e-01 -2.198322266340255737e-01 7.314465939998626709e-02 2.256164997816085815e-01
2.064000000000000000e+03 4.920166015625000000e+01 2.017818689346313477e+00 -2.448592782020568848e-01 1.848751753568649292e-01 -1.799523457884788513e-02 5.240660309791564941e-01
2.065000000000000000e+03 2.060040664672851562e+01 2.081394767761230469e+01 2.269335091114044189e-01 -2.365826070308685303e-01 -2.894729608669877052e-03 6.128355860710144043e-01
2.066000000000000000e+03 8.884186744689941406e+00 -2.107919502258300781e+01 2.593017707113176584e-04 1.426406088285148144e-04 1.205827138619497418e-04 -1.696994513622485101e-05
2.067000000000000000e+03 6.120562362670898438e+01 -2.838073348999023438e+01 -4.826197922229766846e-01 2.668478786945343018e-01 -6.473156809806823730e-02 -1.815617829561233521e-01
2.068000000000000000e+03 6.558179473876953125e+01 -2.649837493896484375e+01 -3.957952558994293213e-01 2.104765415191650391e+00 5.126910805702209473e-01 3.200895786285400391e-01
2.069000000000000000e+03 4.533417129516601562e+01 -1.220556831359863281e+01 -7.963333725929260254e-01 1.320574730634689331e-01 -1.992827653884887695e-01 -2.559761889278888702e-02
2.070000000000000000e+03 4.346815490722656250e+01 2.508684349060058594e+01 4.948494136333465576e-01 7.355485558509826660e-01 3.691193759441375732e-01 2.464613765478134155e-01
2.071000000000000000e+03 3.813740539550781250e+01 1.844520187377929688e+01 3.599496483802795410e-01 5.246463418006896973e-01 2.653788030147552490e-01 2.453921884298324585e-01
2.072000000000000000e+03 6.633147716522216797e+00 1.909318923950195312e+01 1.399949938058853149e-01 -6.702293753623962402e-01 -1.590703278779983521e-01 2.390607297420501709e-01
2.073000000000000000e+03 4.426969909667968750e+01 -1.271470642089843750e+01 -7.399879097938537598e-01 1.232805252075195312e-01 -1.850122213363647461e-01 -1.347358524799346924e-02
2.074000000000000000e+03 3.222788238525390625e+01 -4.136544036865234375e+01 -1.312526967376470566e-02 -2.369746565818786621e-02 -1.104682125151157379e-02 1.096663181670010090e-03
2.075000000000000000e+03 4.139672088623046875e+01 6.283120155334472656e+00 -3.586287200450897217e-01 3.464781641960144043e-01 -3.645167918875813484e-03 2.854966521263122559e-01
2.076000000000000000e+03 4.124647521972656250e+01 4.810156822204589844e+00 -3.579701185226440430e-01 2.734871804714202881e-01 -2.534488402307033539e-02 2.855018675327301025e-01
2.077000000000000000e+03 5.010638046264648438e+01 2.454693984985351562e+01 6.888494491577148438e-01 9.052633643150329590e-01 4.782338440418243408e-01 -6.366305053234100342e-02
2.078000000000000000e+03 4.068221282958984375e+01 -3.701198959350585938e+01 7.204973138868808746e-03 -1.533048748970031738e-01 -4.382997006177902222e-02 -1.169040352106094360e-01
2.079000000000000000e+03 1.972798347473144531e+01 -3.296703720092773438e+01 1.818026998080313206e-03 1.266909093828871846e-04 5.834153853356838226e-04 2.137343864887952805e-03
2.080000000000000000e+03 6.222226333618164062e+01 -2.915116882324218750e+01 -2.528311014175415039e-01 7.767101526260375977e-01 1.571637243032455444e-01 7.568757236003875732e-02
2.081000000000000000e+03 8.047725677490234375e+00 -4.089719772338867188e+01 -4.285558243282139301e-04 9.031504159793257713e-04 1.423783833160996437e-04 -1.935315776790957898e-05
2.082000000000000000e+03 6.071417236328125000e+01 1.038065910339355469e+01 6.415138244628906250e-01 2.038424730300903320e+00 8.039816021919250488e-01 -4.461392462253570557e-01
2.083000000000000000e+03 6.062800979614257812e+01 1.305587768554687500e+01 6.234555840492248535e-01 2.292829751968383789e+00 8.748856186866760254e-01 -4.724836051464080811e-01
2.084000000000000000e+03 7.205904388427734375e+01 4.085478210449218750e+01 1.041444316506385803e-01 4.439148426055908203e+00 1.362987875938415527e+00 -2.602941356599330902e-02
2.085000000000000000e+03 7.443613433837890625e+01 3.756264495849609375e+01 3.984206169843673706e-02 4.720638275146484375e+00 1.428144097328186035e+00 -7.189066708087921143e-02
2.086000000000000000e+03 7.241670227050781250e+01 -1.013951587677001953e+01 5.694538950920104980e-01 1.265653896331787109e+01 3.967797756195068359e+00 -4.904442310333251953e+00
2.087000000000000000e+03 7.182306671142578125e+01 -9.760765075683593750e+00 8.822161555290222168e-01 8.796417236328125000e+00 2.903589963912963867e+00 -4.328823089599609375e+00
2.088000000000000000e+03 7.245862579345703125e+01 -9.535768508911132812e+00 -4.025333821773529053e-01 1.206757545471191406e+01 3.499512672424316406e+00 -3.726287841796875000e+00
2.089000000000000000e+03 7.311485290527343750e+01 -9.636721611022949219e+00 -1.043023228645324707e+00 1.511842155456542969e+01 4.222619533538818359e+00 -2.296739101409912109e+00
2.090000000000000000e+03 7.301824951171875000e+01 -1.463197612762451172e+01 -5.761718750000000000e-01 1.544408702850341797e+01 4.460374832153320312e+00 2.961516618728637695e+00
2.091000000000000000e+03 7.405995178222656250e+01 -9.714047431945800781e+00 -7.164258360862731934e-01 1.620711326599121094e+01 4.647205829620361328e+00 8.133323192596435547e-01
2.092000000000000000e+03 7.414440917968750000e+01 -1.004726982116699219e+01 -9.782741218805313110e-02 1.691026496887207031e+01 5.043731212615966797e+00 1.352086186408996582e+00
2.093000000000000000e+03 7.375328826904296875e+01 -9.836836814880371094e+00 -8.010351657867431641e-01 1.677827644348144531e+01 4.793172359466552734e+00 -1.793917268514633179e-01
2.094000000000000000e+03 7.261417388916015625e+01 -9.153569221496582031e+00 -1.014798045158386230e+00 1.220628738403320312e+01 3.357446670532226562e+00 -2.973001956939697266e+00
2.095000000000000000e+03 7.198605346679687500e+01 -1.502494525909423828e+01 4.798322618007659912e-01 9.757175445556640625e+00 3.071102380752563477e+00 3.976129531860351562e+00
2.096000000000000000e+03 7.458145904541015625e+01 -1.065382957458496094e+01 2.529168367385864258e+00 1.679224586486816406e+01 5.796424388885498047e+00 2.916051149368286133e+00
2.097000000000000000e+03 7.435688018798828125e+01 -1.556568336486816406e+01 -1.255792856216430664e+00 1.418684864044189453e+01 3.879316568374633789e+00 -9.079352617263793945e-01
2.098000000000000000e+03 7.648903656005859375e+01 -1.308438014984130859e+01 3.529818773269653320e+00 9.963547706604003906e+00 4.048009872436523438e+00 -1.454902410507202148e+00
2.099000000000000000e+03 7.621591949462890625e+01 -1.121712303161621094e+01 2.999603986740112305e+00 1.089379882812500000e+01 4.168021202087402344e+00 2.010571718215942383e+00
2.100000000000000000e+03 6.960086822509765625e+01 -9.013689041137695312e+00 2.028432041406631470e-01 2.326074123382568359e+00 7.586751580238342285e-01 -1.423237681388854980e+00
2.101000000000000000e+03 7.525012207031250000e+01 -1.388360691070556641e+01 2.918395996093750000e+00 1.407168292999267578e+01 5.097023487091064453e+00 -2.999307155609130859e+00
2.102000000000000000e+03 7.618381500244140625e+01 -1.242442035675048828e+01 4.542267322540283203e+00 1.058758258819580078e+01 4.538954734802246094e+00 -3.350645303726196289e-01
2.103000000000000000e+03 7.580686950683593750e+01 -1.164715576171875000e+01 4.955135345458984375e+00 1.164151573181152344e+01 4.978995323181152344e+00 1.431307673454284668e+00
2.104000000000000000e+03 7.644459533691406250e+01 -1.702738952636718750e+01 -1.032202601432800293e+00 1.057235622406005859e+01 2.862046241760253906e+00 -2.220856904983520508e+00
2.105000000000000000e+03 7.222623443603515625e+01 -1.576979827880859375e+01 -5.271376967430114746e-01 1.017028236389160156e+01 2.892943382263183594e+00 2.946095466613769531e+00
2.106000000000000000e+03 7.033305358886718750e+01 -1.475708293914794922e+01 1.590569734573364258e+00 2.883668184280395508e+00 1.342271447181701660e+00 2.118115663528442383e+00
2.107000000000000000e+03 7.098796844482421875e+01 -9.460942268371582031e+00 1.011371254920959473e+00 5.308844566345214844e+00 1.896064758300781250e+00 -3.206390857696533203e+00
2.108000000000000000e+03 2.911993217468261719e+01 -8.966363906860351562e+00 -5.334246158599853516e-01 -5.253592506051063538e-03 -1.616034507751464844e-01 3.482079207897186279e-01
2.109000000000000000e+03 7.660200500488281250e+01 -9.156045913696289062e+00 9.152518957853317261e-02 1.061039066314697266e+01 3.210574865341186523e+00 2.859908819198608398e+00
2.110000000000000000e+03 7.651175689697265625e+01 -7.795097351074218750e+00 -9.416221380233764648e-01 1.051409530639648438e+01 2.871742010116577148e+00 2.322708129882812500e+00
2.111000000000000000e+03 7.334948730468750000e+01 -9.478096008300781250e+00 -1.366951107978820801e+00 1.523031044006347656e+01 4.159007549285888672e+00 -1.408233046531677246e+00
2.112000000000000000e+03 4.910857677459716797e+00 7.624418258666992188e+00 -1.352834999561309814e-01 -2.019012272357940674e-01 -1.011554226279258728e-01 2.572190165519714355e-01
2.113000000000000000e+03 2.752167701721191406e+01 -7.912536621093750000e+00 -5.728992223739624023e-01 -6.802769750356674194e-02 -1.922780722379684448e-01 3.903802633285522461e-01
2.114000000000000000e+03 7.560418701171875000e+01 -1.893765640258789062e+01 -1.316219091415405273e+00 1.024625301361083984e+01 2.679010152816772461e+00 -1.066796422004699707e+00
2.115000000000000000e+03 7.696099090576171875e+01 -1.479596233367919922e+01 7.751692533493041992e-01 9.901788711547851562e+00 3.203087568283081055e+00 -2.748142957687377930e+00
2.116000000000000000e+03 7.645743560791015625e+01 -1.434055137634277344e+01 1.103949069976806641e+00 1.068730068206787109e+01 3.537374973297119141e+00 -2.935032129287719727e+00
2.117000000000000000e+03 7.661070251464843750e+01 -1.164149570465087891e+01 3.433438539505004883e+00 9.575679779052734375e+00 3.902735710144042969e+00 1.143499016761779785e+00
2.118000000000000000e+03 7.666118621826171875e+01 -1.379045391082763672e+01 2.000057935714721680e+00 9.889746665954589844e+00 3.566941499710083008e+00 -2.270599126815795898e+00
2.119000000000000000e+03 7.767893981933593750e+01 -1.331302738189697266e+01 1.455147147178649902e+00 7.234145641326904297e+00 2.606787919998168945e+00 -1.540580630302429199e+00
2.120000000000000000e+03 6.812382221221923828e+00 5.697457790374755859e+00 -2.504450678825378418e-01 -1.349290907382965088e-01 -1.156122460961341858e-01 2.382291108369827271e-01
2.121000000000000000e+03 9.521800994873046875e+00 5.002071857452392578e+00 -4.193789064884185791e-01 -2.048676609992980957e-01 -1.872739642858505249e-01 2.996536791324615479e-01
2.122000000000000000e+03 4.927418708801269531e+00 5.514555454254150391e+00 -1.405395120382308960e-01 -1.105179116129875183e-01 -7.531722635030746460e-02 1.529470235109329224e-01
2.123000000000000000e+03 7.662393188476562500e+01 -1.213864421844482422e+01 3.616907835006713867e+00 9.432480812072753906e+00 3.914816617965698242e+00 1.277573704719543457e-01
2.124000000000000000e+03 7.622249603271484375e+01 -1.193501186370849609e+01 4.805662631988525391e+00 1.055722999572753906e+01 4.608867645263671875e+00 6.644267439842224121e-01
2.125000000000000000e+03 7.590061950683593750e+01 -1.557320594787597656e+01 -3.503161966800689697e-01 1.192603874206542969e+01 3.472716808319091797e+00 -2.640058755874633789e+00
2.126000000000000000e+03 7.606491088867187500e+01 -1.474145984649658203e+01 8.842205405235290527e-01 1.168163585662841797e+01 3.769757032394409180e+00 -2.973995447158813477e+00
2.127000000000000000e+03 7.661459350585937500e+01 -1.083697319030761719e+01 2.095652818679809570e+00 1.001528167724609375e+01 3.633280277252197266e+00 2.343491315841674805e+00
2.128000000000000000e+03 7.476093292236328125e+01 -1.020446395874023438e+01 1.078521728515625000e+00 1.563139343261718750e+01 5.012974262237548828e+00 2.702434778213500977e+00
2.129000000000000000e+03 7.637091827392578125e+01 -9.805950164794921875e+00 8.230648636817932129e-01 1.093332004547119141e+01 3.526915550231933594e+00 2.834306478500366211e+00
2.130000000000000000e+03 7.599650573730468750e+01 -9.063743591308593750e+00 -1.255679279565811157e-01 1.201358032226562500e+01 3.566403627395629883e+00 2.787389993667602539e+00
2.131000000000000000e+03 7.571437072753906250e+01 -6.973182678222656250e+00 -1.587728619575500488e+00 1.096986579895019531e+01 2.814641237258911133e+00 1.508163213729858398e+00
2.132000000000000000e+03 6.859463691711425781e+00 4.932916641235351562e+00 -2.468925267457962036e-01 -1.131070330739021301e-01 -1.079998686909675598e-01 2.057483047246932983e-01
2.133000000000000000e+03 5.892455577850341797e+00 5.655261039733886719e+00 -1.987146586179733276e-01 -1.251491010189056396e-01 -9.715912491083145142e-02 2.114846110343933105e-01
2.134000000000000000e+03 6.225685119628906250e+00 -6.304064273834228516e+00 4.953711322741582990e-05 4.630765397450886667e-05 2.875342943298164755e-05 4.185409488854929805e-05
2.135000000000000000e+03 2.864808464050292969e+01 -8.186762809753417969e+00 -5.632719397544860840e-01 -7.476268336176872253e-03 -1.712244600057601929e-01 3.625258803367614746e-01
2.136000000000000000e+03 8.239218711853027344e+00 -7.707294464111328125e+00 -2.146689803339540958e-05 -8.207306382246315479e-05 -3.106198710156604648e-05 -2.807584132824558765e-05
2.137000000000000000e+03 6.790051460266113281e+00 -4.920241355895996094e+00 1.568583502375986427e-05 -2.592442615423351526e-05 -3.071577339142095298e-06 -7.601550805702572688e-06
2.138000000000000000e+03 1.042070484161376953e+01 -5.463293552398681641e+00 -7.819439247214177158e-07 -1.773328222043346614e-05 -5.554567906074225903e-06 3.698385262396186590e-05
2.139000000000000000e+03 1.002311229705810547e+01 -4.389193058013916016e+00 -3.372281753399875015e-06 -2.863800727936904877e-05 -9.603086255083326250e-06 1.683232039795257151e-05
2.140000000000000000e+03 1.172359943389892578e+01 6.617069244384765625e+00 -5.883265137672424316e-01 -4.776694178581237793e-01 -3.197987675666809082e-01 4.575290679931640625e-01
2.141000000000000000e+03 2.818272018432617188e+01 -7.502086639404296875e+00 -5.918331146240234375e-01 -1.830681413412094116e-02 -1.830419749021530151e-01 3.725350797176361084e-01
2.142000000000000000e+03 2.729883384704589844e+01 -7.183020114898681641e+00 -6.066878437995910645e-01 -7.054202258586883545e-02 -2.031689584255218506e-01 3.979394733905792236e-01
2.143000000000000000e+03 1.098347949981689453e+01 -7.763357162475585938e+00 -3.318837843835353851e-05 -1.095976222131866962e-05 -1.324444201600272208e-05 3.968846067436970770e-05
2.144000000000000000e+03 2.514109992980957031e+01 -4.729725837707519531e+00 -7.260746359825134277e-01 -1.412115097045898438e-01 -2.601858377456665039e-01 4.218352138996124268e-01
2.145000000000000000e+03 2.628098297119140625e+01 -6.661687374114990234e+00 -6.377615332603454590e-01 -1.210267469286918640e-01 -2.276364713907241821e-01 4.220483303070068359e-01
2.146000000000000000e+03 8.289367675781250000e+00 -5.520985603332519531e+00 1.796212745830416679e-05 4.382593033369630575e-05 1.853641697380226105e-05 2.139879507012665272e-05
2.147000000000000000e+03 2.554860305786132812e+01 -5.411076545715332031e+00 -6.970428228378295898e-01 -1.309115141630172729e-01 -2.483863085508346558e-01 4.264506399631500244e-01
2.148000000000000000e+03 2.430560874938964844e+01 -1.610919684171676636e-01 -5.174012780189514160e-01 1.753763109445571899e-02 -1.499590873718261719e-01 2.699016630649566650e-01
2.149000000000000000e+03 2.472696495056152344e+01 -4.017036914825439453e+00 -7.460758090019226074e-01 -1.388138681650161743e-01 -2.654668986797332764e-01 4.157620072364807129e-01
2.150000000000000000e+03 2.295875740051269531e+01 3.251172006130218506e-01 -5.052484273910522461e-01 -2.333674579858779907e-02 -1.585755497217178345e-01 3.364632725715637207e-01
2.151000000000000000e+03 7.436524200439453125e+01 -1.845148277282714844e+01 -1.650311589241027832e+00 1.048244857788085938e+01 2.649641036987304688e+00 -3.810460567474365234e-01
2.152000000000000000e+03 2.275033187866210938e+01 -9.439162015914916992e-01 -6.638655066490173340e-01 -1.419231742620468140e-01 -2.417365908622741699e-01 3.965742290019989014e-01
2.153000000000000000e+03 2.466909217834472656e+01 1.047178506851196289e+00 -3.509146571159362793e-01 8.684119582176208496e-02 -7.922203838825225830e-02 2.084459066390991211e-01
2.154000000000000000e+03 3.110392761230468750e+01 -1.098299312591552734e+01 -4.773291647434234619e-01 3.402759134769439697e-02 -1.329904645681381226e-01 2.824114859104156494e-01
2.155000000000000000e+03 2.428984832763671875e+01 -3.278619527816772461e+00 -7.513835430145263672e-01 -1.479044854640960693e-01 -2.697864174842834473e-01 4.034746885299682617e-01
2.156000000000000000e+03 2.402642440795898438e+01 -1.357658505439758301e+00 -6.501739621162414551e-01 -6.090190261602401733e-02 -2.133227735757827759e-01 3.328164815902709961e-01
2.157000000000000000e+03 6.962782287597656250e+01 -5.936952114105224609e+00 -1.726568102836608887e+00 4.509691715240478516e+00 8.349371552467346191e-01 -2.003388166427612305e+00
2.158000000000000000e+03 8.504654884338378906e+00 9.290971755981445312e+00 -2.358821481466293335e-01 -3.511592745780944824e-01 -1.761124283075332642e-01 5.285224914550781250e-01
2.159000000000000000e+03 1.191145515441894531e+01 -6.157818317413330078e+00 -2.424630656605586410e-05 1.036312187352450565e-05 -4.164955043961526826e-06 2.498097092029638588e-05
2.160000000000000000e+03 7.240913391113281250e+01 -3.941680908203125000e+00 -1.710164546966552734e+00 7.600383281707763672e+00 1.767065644264221191e+00 -1.366303086280822754e+00
2.161000000000000000e+03 6.892360687255859375e+01 -4.731729030609130859e+00 -1.906339168548583984e+00 3.786051273345947266e+00 5.639135837554931641e-01 -2.082546472549438477e+00
2.162000000000000000e+03 6.888490295410156250e+01 -2.165846633911132812e+01 -6.533051729202270508e-01 4.026620388031005859e+00 1.011994481086730957e+00 8.331367373466491699e-01
2.163000000000000000e+03 1.265101146697998047e+01 -6.495918750762939453e+00 2.011637843679636717e-05 -1.618548412807285786e-05 1.179268224404950161e-06 -1.290166710532503203e-05
2.164000000000000000e+03 1.155068016052246094e+01 5.685157775878906250e+00 -5.674795508384704590e-01 -4.809163212776184082e-01 -3.145187497138977051e-01 4.010869860649108887e-01
2.165000000000000000e+03 1.183676338195800781e+01 7.634420394897460938e+00 -5.548903942108154297e-01 -5.381826162338256836e-01 -3.279218971729278564e-01 5.716494321823120117e-01
2.166000000000000000e+03 1.006900978088378906e+01 9.461187362670898438e+00 -2.782906293869018555e-01 -4.151529967784881592e-01 -2.080330848693847656e-01 6.084418892860412598e-01
2.167000000000000000e+03 2.919246673583984375e+01 1.310515308380126953e+01 -3.095778524875640869e-01 -1.861626356840133667e-01 -1.487221419811248779e-01 4.971899092197418213e-01
2.168000000000000000e+03 2.798177337646484375e+01 1.337019920349121094e+01 -4.264729917049407959e-01 -4.414049386978149414e-01 -2.603633701801300049e-01 4.599377810955047607e-01
2.169000000000000000e+03 6.475933837890625000e+01 -2.279967784881591797e+00 -7.954623103141784668e-01 5.159270167350769043e-01 -8.386057615280151367e-02 -1.031257987022399902e+00
2.170000000000000000e+03 6.138990783691406250e+01 -4.117113590240478516e+00 -1.896010637283325195e+00 -8.197460323572158813e-02 -5.933955311775207520e-01 -3.676196560263633728e-03
2.171000000000000000e+03 7.387710571289062500e+01 -1.521631431579589844e+01 -1.195907115936279297e+00 1.515268230438232422e+01 4.187032699584960938e+00 4.605834931135177612e-02
2.172000000000000000e+03 4.368614959716796875e+01 4.381288051605224609e+00 -3.234610855579376221e-01 1.407374888658523560e-01 -5.481707677245140076e-02 2.280103862285614014e-01
2.173000000000000000e+03 4.703174209594726562e+01 -1.024250221252441406e+01 -9.215012192726135254e-01 1.850013583898544312e-01 -2.209499627351760864e-01 1.194022712297737598e-03
2.174000000000000000e+03 1.022992515563964844e+01 1.453372478485107422e+01 2.827688753604888916e-01 -5.465413331985473633e-01 -7.913173735141754150e-02 4.913888275623321533e-01
2.175000000000000000e+03 2.952062416076660156e+01 -9.799330711364746094e+00 -4.969865679740905762e-01 -2.889592200517654419e-03 -1.499628573656082153e-01 3.299615085124969482e-01
2.176000000000000000e+03 2.910629272460937500e+01 -1.099162006378173828e+01 -4.321735203266143799e-01 -4.157517105340957642e-02 -1.421246081590652466e-01 3.153668642044067383e-01
2.177000000000000000e+03 2.154064369201660156e+01 7.280776500701904297e-01 -4.809380471706390381e-01 -1.212549060583114624e-01 -1.806578785181045532e-01 4.730551838874816895e-01
2.178000000000000000e+03 4.067362213134765625e+01 -1.196804618835449219e+01 -6.546068191528320312e-01 1.518282741308212280e-01 -1.508335620164871216e-01 1.028409153223037720e-01
2.179000000000000000e+03 7.011522674560546875e+01 -1.556822299957275391e+01 8.930045366287231445e-01 3.677507162094116211e+00 1.371153473854064941e+00 2.093757152557373047e+00
2.180000000000000000e+03 6.914852142333984375e+01 -1.801172065734863281e+01 -2.079699188470840454e-01 3.600769281387329102e+00 1.017839789390563965e+00 1.344512581825256348e+00
2.181000000000000000e+03 7.345564270019531250e+01 -2.346768951416015625e+01 -7.891191244125366211e-01 7.783363819122314453e+00 2.098273277282714844e+00 2.892814874649047852e-01
2.182000000000000000e+03 8.871230125427246094e+00 -8.599928855895996094e+00 2.014975325437262654e-05 8.814897591946646571e-05 3.248961729696020484e-05 8.981582141132093966e-06
2.183000000000000000e+03 7.876001358032226562e+00 -2.282704925537109375e+01 -2.352273804717697203e-05 1.875358284451067448e-04 4.920392530038952827e-05 -2.254917308164294809e-05
2.184000000000000000e+03 4.579549789428710938e+01 -1.325564002990722656e+01 -7.720791101455688477e-01 9.041173011064529419e-02 -2.045002132654190063e-01 -8.678773045539855957e-02
2.185000000000000000e+03 1.513255023956298828e+01 -7.838726997375488281e+00 -9.988454621634446084e-06 -3.733457197085954249e-05 -1.419690761395031586e-05 4.751027063321089372e-06
2.186000000000000000e+03 2.216250228881835938e+01 -1.246039196848869324e-01 -5.860672593116760254e-01 -1.410811394453048706e-01 -2.181445211172103882e-01 4.179686903953552246e-01
2.187000000000000000e+03 3.839386367797851562e+01 -1.325156974792480469e+01 -5.618633031845092773e-01 1.159595623612403870e-01 -1.337711215019226074e-01 1.103275492787361145e-01
2.188000000000000000e+03 4.409787654876708984e+00 -6.203417778015136719e+00 -7.893591828178614378e-05 9.706882337923161685e-06 -2.076870987366419286e-05 -3.186996764270588756e-05
2.189000000000000000e+03 5.324103546142578125e+01 -6.427807807922363281e+00 -1.384623527526855469e+00 2.999711632728576660e-01 -3.253957033157348633e-01 8.452214300632476807e-02
2.190000000000000000e+03 5.012477111816406250e+01 -8.566290855407714844e+00 -1.145228743553161621e+00 2.314348667860031128e-01 -2.741381525993347168e-01 7.473021280020475388e-03
2.191000000000000000e+03 3.682291412353515625e+01 1.384629535675048828e+01 1.615327596664428711e-01 3.707645237445831299e-01 1.596891880035400391e-01 4.723049402236938477e-01
2.192000000000000000e+03 6.426883220672607422e+00 -8.919228553771972656e+00 -4.850391269428655505e-05 -7.260516576934605837e-05 -3.633272353908978403e-05 -4.086254557478241622e-05
2.193000000000000000e+03 2.648481750488281250e+01 3.036292791366577148e+00 -1.960670948028564453e-02 4.727081581950187683e-02 8.299232460558414459e-03 1.666567325592041016e-01
2.194000000000000000e+03 2.503933334350585938e+01 3.040134906768798828e+00 1.898671686649322510e-02 1.401356011629104614e-01 4.773669689893722534e-02 1.315514296293258667e-01
2.195000000000000000e+03 9.586672782897949219e+00 -5.182973861694335938e+00 -3.953075520257698372e-06 1.975223131012171507e-05 4.739746600534999743e-06 -3.697884312714450061e-05
2.196000000000000000e+03 6.723359107971191406e+00 -5.650917053222656250e+00 -1.091517333406955004e-05 -5.233764386503025889e-05 -1.897584479593206197e-05 -7.703491746724466793e-07
2.197000000000000000e+03 1.416518783569335938e+01 -7.871875762939453125e+00 5.127362783241551369e-06 3.108605596935376525e-05 1.086402608052594587e-05 -6.016376801198930480e-07
2.198000000000000000e+03 3.956073379516601562e+01 -1.199783897399902344e+01 -6.208835840225219727e-01 1.456090360879898071e-01 -1.425823569297790527e-01 1.208409890532493591e-01
2.199000000000000000e+03 3.947821044921875000e+01 -1.324181747436523438e+01 -5.888336300849914551e-01 1.206960380077362061e-01 -1.404412835836410522e-01 9.167579561471939087e-02
2.200000000000000000e+03 8.573863029479980469e+00 6.707610130310058594e+00 -3.626941740512847900e-01 -2.232087254524230957e-01 -1.757708638906478882e-01 3.925675153732299805e-01
2.201000000000000000e+03 6.640438079833984375e+01 -3.030480623245239258e+00 -1.081670045852661133e+00 1.233822345733642578e+00 4.564570263028144836e-02 -1.639268279075622559e+00
2.202000000000000000e+03 1.293807411193847656e+01 -3.095481109619140625e+01 1.069017918780446053e-03 1.255852839676663280e-04 3.583809593692421913e-04 8.100850391201674938e-04
2.203000000000000000e+03 1.439887523651123047e+01 -3.015065574645996094e+01 9.200790664181113243e-04 -4.696674877777695656e-04 1.351234823232516646e-04 9.303385159000754356e-04
2.204000000000000000e+03 2.735427665710449219e+01 3.567664384841918945e+00 5.092210322618484497e-02 -1.877947524189949036e-02 9.642789140343666077e-03 1.822618693113327026e-01
2.205000000000000000e+03 7.203479766845703125e+01 -2.758069992065429688e+01 -2.865843176841735840e-01 6.380197048187255859e+00 1.828083872795104980e+00 5.611798167228698730e-01
2.206000000000000000e+03 7.148069763183593750e+01 -3.271166610717773438e+01 1.050565615296363831e-01 5.908790588378906250e+00 1.804154157638549805e+00 5.704341530799865723e-01
2.207000000000000000e+03 4.029173660278320312e+01 1.166991043090820312e+01 6.177984923124313354e-02 7.149800658226013184e-01 2.330279797315597534e-01 5.244092941284179688e-01
2.208000000000000000e+03 7.162902069091796875e+01 -2.082234573364257812e+01 -1.061766147613525391e+00 6.971327304840087891e+00 1.772868275642395020e+00 8.072338104248046875e-01
2.209000000000000000e+03 6.878578186035156250e+01 -2.353890037536621094e+01 -6.576585173606872559e-01 3.959631681442260742e+00 9.905919432640075684e-01 7.131504416465759277e-01
2.210000000000000000e+03 6.864311981201171875e+01 -2.264318084716796875e+01 -6.420981287956237793e-01 3.858970165252685547e+00 9.650616049766540527e-01 7.784818410873413086e-01
2.211000000000000000e+03 9.436749458312988281e+00 2.687042045593261719e+01 5.330294370651245117e-02 -5.921077132225036621e-01 -1.616414338350296021e-01 1.467076092958450317e-01
2.212000000000000000e+03 1.048218822479248047e+01 3.381267929077148438e+01 5.493220314383506775e-02 -6.492081880569458008e-01 -1.782827973365783691e-01 1.019368395209312439e-01
2.213000000000000000e+03 3.090541267395019531e+01 1.013698482513427734e+01 -9.263402968645095825e-02 -5.974169075489044189e-02 -4.571271687746047974e-02 6.319532394409179688e-01
2.214000000000000000e+03 7.103947448730468750e+01 1.874181556701660156e+01 2.499667853116989136e-01 4.682333946228027344e+00 1.479690313339233398e+00 -6.959392428398132324e-01
2.215000000000000000e+03 7.251419067382812500e+01 1.593408584594726562e+01 2.257169634103775024e-01 5.154342174530029297e+00 1.614017724990844727e+00 -7.533594369888305664e-01
2.216000000000000000e+03 7.038102722167968750e+01 1.159138298034667969e+01 3.716482222080230713e-01 4.616218566894531250e+00 1.496360063552856445e+00 -1.041642427444458008e+00
2.217000000000000000e+03 8.458339691162109375e+00 3.265780258178710938e+01 2.741026319563388824e-02 -7.509412169456481934e-01 -2.170592844486236572e-01 8.650019019842147827e-02
2.218000000000000000e+03 7.427346801757812500e+01 -2.230451393127441406e+01 -8.985486030578613281e-01 8.602606773376464844e+00 2.311217308044433594e+00 -5.824813619256019592e-03
2.219000000000000000e+03 7.356752777099609375e+01 9.560562968254089355e-01 -4.659085869789123535e-01 6.866150856018066406e+00 1.920072555541992188e+00 -1.168527126312255859e+00
2.220000000000000000e+03 7.171570587158203125e+01 4.423878669738769531e+00 6.946727167814970016e-03 5.325879573822021484e+00 1.599847912788391113e+00 -1.414816975593566895e+00
2.221000000000000000e+03 7.328369903564453125e+01 3.099926233291625977e+00 -1.469977945089340210e-01 6.349903106689453125e+00 1.860871672630310059e+00 -1.239840149879455566e+00
2.222000000000000000e+03 7.365684509277343750e+01 1.305439281463623047e+01 2.000265270471572876e-01 5.624571323394775391e+00 1.747379422187805176e+00 -8.311743140220642090e-01
2.223000000000000000e+03 7.136743164062500000e+01 1.059955310821533203e+01 3.219754397869110107e-01 4.921275138854980469e+00 1.572975158691406250e+00 -1.086302757263183594e+00
2.224000000000000000e+03 8.545981407165527344e+00 1.977943038940429688e+01 1.902257502079010010e-01 -5.852077603340148926e-01 -1.184946075081825256e-01 2.337470054626464844e-01
2.225000000000000000e+03 7.461514472961425781e+00 2.337210083007812500e+01 8.375875651836395264e-02 -6.733298301696777344e-01 -1.768713146448135376e-01 1.526120603084564209e-01
2.226000000000000000e+03 7.386527252197265625e+01 2.006684112548828125e+01 1.239052787423133850e-01 5.228303909301757812e+00 1.605662822723388672e+00 -5.215395092964172363e-01
2.227000000000000000e+03 7.144413757324218750e+01 2.729395675659179688e+01 1.470148712396621704e-01 4.524969577789306641e+00 1.401595354080200195e+00 -3.966986238956451416e-01
2.228000000000000000e+03 4.139845657348632812e+01 1.914161682128906250e+00 -4.042668342590332031e-01 1.999088227748870850e-01 -6.130740046501159668e-02 3.058226704597473145e-01
2.229000000000000000e+03 6.043584823608398438e+01 -3.210859060287475586e+00 -1.422648787498474121e+00 8.752464503049850464e-02 -4.005372524261474609e-01 8.642626553773880005e-02
2.230000000000000000e+03 6.267525196075439453e+00 2.653203964233398438e+01 3.352396935224533081e-02 -8.014401793479919434e-01 -2.303748577833175659e-01 9.748126566410064697e-02
2.231000000000000000e+03 5.729402923583984375e+01 -5.289506435394287109e+00 -1.801329612731933594e+00 2.444867342710494995e-01 -4.670528471469879150e-01 6.843394041061401367e-02
2.232000000000000000e+03 5.722129821777343750e+01 3.794819355010986328e+00 1.076217144727706909e-01 8.490782380104064941e-01 2.870099842548370361e-01 1.725017279386520386e-01
2.233000000000000000e+03 7.500991821289062500e+01 -5.449253082275390625e+00 -1.732587575912475586e+00 1.003183364868164062e+01 2.489773750305175781e+00 3.782029151916503906e-01
2.234000000000000000e+03 7.517676544189453125e+01 -2.118211364746093750e+01 -1.015527367591857910e+00 9.303136825561523438e+00 2.486282825469970703e+00 -3.998211622238159180e-01
2.235000000000000000e+03 7.517666625976562500e+01 -1.814492607116699219e+01 -1.540865302085876465e+00 1.076262569427490234e+01 2.766528129577636719e+00 -1.081059575080871582e+00
2.236000000000000000e+03 5.911362171173095703e+00 -7.826877117156982422e+00 4.989793887943960726e-05 4.240483394823968410e-05 2.769083221210166812e-05 5.361514558899216354e-05
2.237000000000000000e+03 4.927866458892822266e+00 -8.279171943664550781e+00 -6.919956649653613567e-05 -1.120817796618212014e-05 -2.412232242932077497e-05 -3.768192982533946633e-05
2.238000000000000000e+03 5.445653438568115234e+00 -2.668798637390136719e+01 1.380677131237462163e-04 1.879405026556923985e-04 9.780246182344853878e-05 2.226629731012508273e-04
2.239000000000000000e+03 6.952730655670166016e+00 -2.325640296936035156e+01 3.605110105127096176e-04 -6.179739284561946988e-05 8.961408457253128290e-05 5.927986785536631942e-05
2.240000000000000000e+03 6.687716674804687500e+01 -2.783891105651855469e+01 -2.384480983018875122e-01 3.073252201080322266e+00 8.504412174224853516e-01 5.430566072463989258e-01
2.241000000000000000e+03 5.558933258056640625e+00 1.634998321533203125e+01 1.089745014905929565e-01 -6.446933746337890625e-01 -1.607156544923782349e-01 3.149232566356658936e-01
2.242000000000000000e+03 6.705248355865478516e+00 1.648354339599609375e+01 1.495234668254852295e-01 -6.211847066879272461e-01 -1.414983570575714111e-01 3.349621593952178955e-01
2.243000000000000000e+03 9.513566017150878906e+00 1.614272308349609375e+01 2.901564836502075195e-01 -5.615211129188537598e-01 -8.140938729047775269e-02 3.901079297065734863e-01
2.244000000000000000e+03 5.731745243072509766e+00 1.372147560119628906e+01 5.783037468791007996e-02 -5.418285131454467773e-01 -1.451994329690933228e-01 3.988279700279235840e-01
2.245000000000000000e+03 6.763911247253417969e+00 2.041914367675781250e+01 1.263972669839859009e-01 -6.775903701782226562e-01 -1.653579324483871460e-01 2.017214298248291016e-01
2.246000000000000000e+03 6.173685550689697266e+00 -1.871179771423339844e+01 -1.397402811562642455e-04 -1.202550556627102196e-04 -7.799860031809657812e-05 1.081693990272469819e-04
2.247000000000000000e+03 7.803215503692626953e+00 2.670738029479980469e+01 4.650701954960823059e-02 -6.933016180992126465e-01 -1.940383762121200562e-01 1.236949115991592407e-01
2.248000000000000000e+03 1.242263984680175781e+01 -2.915143585205078125e+01 4.853596037719398737e-04 -3.842505684588104486e-04 3.033270513697061688e-05 5.613580578938126564e-04
2.249000000000000000e+03 5.437023544311523438e+01 3.715090036392211914e+00 1.570800878107547760e-02 6.503449678421020508e-01 1.998158991336822510e-01 4.217309057712554932e-01
2.250000000000000000e+03 5.896270751953125000e+01 5.751515865325927734e+00 4.126976430416107178e-01 1.224958181381225586e+00 4.912967383861541748e-01 -1.350075453519821167e-01
2.251000000000000000e+03 6.097180366516113281e+00 1.013794136047363281e+01 -9.952028095722198486e-02 -3.398324251174926758e-01 -1.318058073520660400e-01 4.212979078292846680e-01
2.252000000000000000e+03 8.621604919433593750e+00 7.605802059173583984e+00 -3.317342996597290039e-01 -2.639844417572021484e-01 -1.787156313657760620e-01 4.252763092517852783e-01
2.253000000000000000e+03 1.686134147644042969e+01 1.879042625427246094e+01 2.564360201358795166e-01 1.542041599750518799e-01 1.231920570135116577e-01 3.878923654556274414e-01
2.254000000000000000e+03 7.353680419921875000e+01 -2.836672544479370117e+00 -1.402006745338439941e+00 7.951878547668457031e+00 1.964961647987365723e+00 -9.309759736061096191e-01
2.255000000000000000e+03 5.944992446899414062e+01 -3.947771549224853516e+00 -1.698492169380187988e+00 1.412658393383026123e-01 -4.671679139137268066e-01 1.410025358200073242e-01
2.256000000000000000e+03 5.860298538208007812e+01 -3.051712036132812500e+00 -1.309291124343872070e+00 2.637736797332763672e-01 -3.136552572250366211e-01 2.236496508121490479e-01
2.257000000000000000e+03 7.111666107177734375e+01 -4.235675334930419922e+00 -1.763507723808288574e+00 6.361168384552001953e+00 1.379298210144042969e+00 -1.901791810989379883e+00
2.258000000000000000e+03 9.432186126708984375e+00 1.098020362854003906e+01 -8.191564679145812988e-02 -4.364024102687835693e-01 -1.554954051971435547e-01 6.090494394302368164e-01
2.259000000000000000e+03 8.735681533813476562e+00 8.522163391113281250e+00 -2.993677258491516113e-01 -3.041731417179107666e-01 -1.810622662305831909e-01 5.009826421737670898e-01
2.260000000000000000e+03 6.515934944152832031e+00 9.350017547607421875e+00 -1.479932665824890137e-01 -3.124486207962036133e-01 -1.381325572729110718e-01 4.243517220020294189e-01
2.261000000000000000e+03 5.857043838500976562e+01 8.646523475646972656e+00 5.509538650512695312e-01 1.576385021209716797e+00 6.382017135620117188e-01 -1.568046659231185913e-01
2.262000000000000000e+03 5.684137344360351562e+01 7.334504127502441406e+00 4.677497744560241699e-01 1.260136723518371582e+00 5.183659791946411133e-01 1.277701258659362793e-01
2.263000000000000000e+03 5.465922355651855469e+00 -6.796059131622314453e+00 -6.697604112559929490e-05 -2.743829099927097559e-05 -2.832430072885472327e-05 -4.901264401269145310e-05
2.264000000000000000e+03 1.356151103973388672e+01 1.848496818542480469e+01 3.736245036125183105e-01 -1.417746394872665405e-01 6.955496221780776978e-02 2.007097303867340088e-01
2.265000000000000000e+03 1.037261009216308594e+01 1.851535034179687500e+01 2.894255816936492920e-01 -4.839646518230438232e-01 -5.836172029376029968e-02 2.674856781959533691e-01
2.266000000000000000e+03 4.327074432373046875e+01 -1.052095031738281250e+01 -7.537563443183898926e-01 1.826103478670120239e-01 -1.713438034057617188e-01 8.946474641561508179e-02
2.267000000000000000e+03 6.461210632324218750e+01 -2.621734237670898438e+01 -5.166645050048828125e-01 1.535956501960754395e+00 3.057875931262969971e-01 2.590448856353759766e-01
2.268000000000000000e+03 6.920657348632812500e+01 -2.455948829650878906e+01 -5.985378623008728027e-01 4.409245967864990234e+00 1.143212437629699707e+00 6.690581440925598145e-01
2.269000000000000000e+03 4.266646957397460938e+01 -1.250074672698974609e+01 -6.955071687698364258e-01 1.380535662174224854e-01 -1.672360748052597046e-01 4.011454433202743530e-02
2.270000000000000000e+03 4.004793167114257812e+01 6.390190124511718750e+00 -3.287278413772583008e-01 3.716227710247039795e-01 1.286847423762083054e-02 3.578385114669799805e-01
2.271000000000000000e+03 4.617270660400390625e+01 2.749376296997070312e+01 6.125041842460632324e-01 8.593415617942810059e-01 4.415537416934967041e-01 1.230206266045570374e-01
2.272000000000000000e+03 3.657345962524414062e+01 1.227770996093750000e+01 6.966626644134521484e-02 3.261253237724304199e-01 1.187374815344810486e-01 5.340073108673095703e-01
2.273000000000000000e+03 3.365607833862304688e+01 9.899773597717285156e+00 -7.043547928333282471e-02 1.126106604933738708e-01 1.265255548059940338e-02 5.964986085891723633e-01
2.274000000000000000e+03 5.905515289306640625e+01 9.801282882690429688e+00 6.017241477966308594e-01 1.757766962051391602e+00 7.078472971916198730e-01 -2.350297868251800537e-01
2.275000000000000000e+03 2.431351280212402344e+01 2.223854255676269531e+01 3.255955278873443604e-01 -3.991157710552215576e-01 -2.205606736242771149e-02 4.511378407478332520e-01
2.276000000000000000e+03 2.189420890808105469e+01 2.209743118286132812e+01 2.710891366004943848e-01 -3.225758075714111328e-01 -1.544600538909435272e-02 5.524626970291137695e-01
2.277000000000000000e+03 3.861791610717773438e+01 2.008696937561035156e+01 3.512717485427856445e-01 5.611060857772827148e-01 2.737133502960205078e-01 2.233267426490783691e-01
2.278000000000000000e+03 3.885094451904296875e+01 2.214000129699707031e+01 3.569307625293731689e-01 5.449498891830444336e-01 2.705641984939575195e-01 2.133251577615737915e-01
2.279000000000000000e+03 5.112759017944335938e+01 1.615643739700317383e+00 -2.982342839241027832e-01 3.378417193889617920e-01 1.188222970813512802e-02 5.501024127006530762e-01
2.280000000000000000e+03 4.728670883178710938e+01 2.292956352233886719e+00 -2.520656585693359375e-01 6.622083485126495361e-02 -5.575344339013099670e-02 4.268688261508941650e-01
2.281000000000000000e+03 6.178795623779296875e+01 1.002279853820800781e+01 6.309941411018371582e-01 2.143791913986206055e+00 8.324357867240905762e-01 -5.587179660797119141e-01
2.282000000000000000e+03 5.005307769775390625e+01 8.525256514549255371e-01 -3.937683999538421631e-01 2.743492424488067627e-01 -3.582575172185897827e-02 5.327689647674560547e-01
2.283000000000000000e+03 4.814588165283203125e+01 1.179116606712341309e+00 -3.406496644020080566e-01 1.541062593460083008e-01 -5.596302077174186707e-02 4.781581163406372070e-01
2.284000000000000000e+03 4.198507308959960938e+01 1.968437576293945312e+01 3.650916516780853271e-01 8.850451111793518066e-01 3.750410377979278564e-01 3.175199329853057861e-01
2.285000000000000000e+03 4.036959457397460938e+01 1.971913909912109375e+01 3.532736301422119141e-01 7.156230807304382324e-01 3.206690251827239990e-01 2.452559173107147217e-01
2.286000000000000000e+03 2.568696403503417969e+01 -3.698925018310546875e+01 -2.886657137423753738e-03 9.933830006048083305e-04 -5.679822643287479877e-04 3.920689225196838379e-03
2.287000000000000000e+03 6.395632934570312500e+01 -2.823109626770019531e+01 -2.856588959693908691e-01 1.494643688201904297e+00 3.626954257488250732e-01 2.301323115825653076e-01
2.288000000000000000e+03 6.761032867431640625e+01 -2.620556259155273438e+01 -4.437637329101562500e-01 3.424446582794189453e+00 8.942048549652099609e-01 5.734012722969055176e-01
2.289000000000000000e+03 7.046889495849609375e+01 3.125044631958007812e+01 1.550812274217605591e-01 4.307126998901367188e+00 1.338662505149841309e+00 -3.112729787826538086e-01
2.290000000000000000e+03 6.004109191894531250e+01 -2.982169723510742188e+01 -2.809848487377166748e-01 3.092722594738006592e-02 -7.501728832721710205e-02 -2.584197521209716797e-01
2.291000000000000000e+03 1.232361602783203125e+01 1.764915084838867188e+01 4.124744832515716553e-01 -3.223729431629180908e-01 2.703046612441539764e-02 2.561894357204437256e-01
2.292000000000000000e+03 6.226917266845703125e+01 -2.490848779678344727e+00 -1.135367035865783691e+00 3.180085122585296631e-02 -3.310698270797729492e-01 -1.381111890077590942e-01
2.293000000000000000e+03 5.791085815429687500e+01 -2.158449411392211914e+00 -1.047331571578979492e+00 3.518559336662292480e-01 -2.086427062749862671e-01 2.760746181011199951e-01
2.294000000000000000e+03 2.529319381713867188e+01 1.899048042297363281e+01 2.091738581657409668e-01 -5.881842970848083496e-01 -1.137031316757202148e-01 3.836608231067657471e-01
2.295000000000000000e+03 3.980118942260742188e+01 -9.571087837219238281e+00 -6.598145365715026855e-01 1.857425868511199951e-01 -1.422215998172760010e-01 1.764490753412246704e-01
2.296000000000000000e+03 9.239412307739257812e+00 -2.268334770202636719e+01 2.100371202686801553e-04 1.038166301441378891e-04 9.415612294105812907e-05 -1.580669486429542303e-04
2.297000000000000000e+03 9.866097450256347656e+00 -2.352663421630859375e+01 4.128706641495227814e-04 -3.505815402604639530e-05 1.133437544922344387e-04 6.756231596227735281e-05
2.298000000000000000e+03 9.718921661376953125e+00 -2.898372650146484375e+01 4.387553199194371700e-04 -3.068976511713117361e-04 3.955729698645882308e-05 6.749131716787815094e-04
2.299000000000000000e+03 5.995454025268554688e+01 2.159632110595703125e+01 4.407315850257873535e-01 2.529818058013916016e+00 8.911648988723754883e-01 -5.400243997573852539e-01
2.300000000000000000e+03 5.808890533447265625e+01 2.260899734497070312e+01 4.587554037570953369e-01 2.214747428894042969e+00 8.020508289337158203e-01 -5.092731714248657227e-01
2.301000000000000000e+03 3.867022323608398438e+01 6.531818866729736328e+00 -2.941876649856567383e-01 3.582912087440490723e-01 1.923106051981449127e-02 4.335245192050933838e-01
2.302000000000000000e+03 8.412915229797363281e+00 -2.204538536071777344e+01 1.314777618972584605e-04 -1.875405287137255073e-04 -1.681883077253587544e-05 9.819338447414338589e-05
2.303000000000000000e+03 8.574478149414062500e+00 1.365919589996337891e+01 1.431155651807785034e-01 -5.429428219795227051e-01 -1.199481785297393799e-01 5.081897377967834473e-01
2.304000000000000000e+03 4.048246765136718750e+01 2.171094703674316406e+01 3.621734976768493652e-01 6.899777650833129883e-01 3.156453669071197510e-01 2.502863705158233643e-01
2.305000000000000000e+03 6.126078033447265625e+01 1.412481689453125000e+01 6.165360212326049805e-01 2.452919483184814453e+00 9.208366870880126953e-01 -5.478301048278808594e-01
2.306000000000000000e+03 1.684224510192871094e+01 -3.041066932678222656e+01 1.411805162206292152e-03 -2.794325118884444237e-04 3.397117834538221359e-04 1.319368486292660236e-03
2.307000000000000000e+03 7.056093597412109375e+01 -8.185934066772460938e+00 -5.163570642471313477e-01 5.192380905151367188e+00 1.402807116508483887e+00 -2.395049333572387695e+00
2.308000000000000000e+03 7.418064880371093750e+01 -1.476375770568847656e+01 -4.509514272212982178e-01 1.621203804016113281e+01 4.728326320648193359e+00 -1.156019210815429688e+00
2.309000000000000000e+03 7.037818908691406250e+01 -9.019110679626464844e+00 5.292646884918212891e-01 4.011764049530029297e+00 1.362308621406555176e+00 -2.357084989547729492e+00
2.310000000000000000e+03 7.128763580322265625e+01 -1.512561893463134766e+01 1.126645326614379883e+00 6.577294826507568359e+00 2.311182022094726562e+00 3.559078931808471680e+00
2.311000000000000000e+03 7.470832824707031250e+01 -8.671699523925781250e+00 -1.424963235855102539e+00 1.347981262207031250e+01 3.616454839706420898e+00 1.343291521072387695e+00
2.312000000000000000e+03 7.345275115966796875e+01 -9.873843193054199219e+00 -9.404925704002380371e-01 1.688625144958496094e+01 4.783728122711181641e+00 -1.169273376464843750e+00
2.313000000000000000e+03 7.116590881347656250e+01 -9.081276893615722656e+00 3.623011708259582520e-01 6.238543987274169922e+00 1.980253458023071289e+00 -3.172132253646850586e+00
2.314000000000000000e+03 7.555233764648437500e+01 -1.628140449523925781e+01 -1.050444483757019043e+00 1.213779449462890625e+01 3.326205015182495117e+00 -2.101979494094848633e+00
2.315000000000000000e+03 7.612221527099609375e+01 -1.390679454803466797e+01 2.420632600784301758e+00 1.156965351104736328e+01 4.197085857391357422e+00 -2.610596656799316406e+00
2.316000000000000000e+03 7.588449096679687500e+01 -1.082444953918457031e+01 2.978453636169433594e+00 1.204476547241210938e+01 4.506965637207031250e+00 2.769264698028564453e+00
2.317000000000000000e+03 6.965873718261718750e+01 -1.582965850830078125e+01 6.178024411201477051e-01 2.791310071945190430e+00 1.022733688354492188e+00 1.615459680557250977e+00
2.318000000000000000e+03 7.501254272460937500e+01 -9.088065147399902344e+00 -8.903710246086120605e-01 1.368966197967529297e+01 3.839787244796752930e+00 1.937168240547180176e+00
2.319000000000000000e+03 7.060134887695312500e+01 -1.527973365783691406e+01 1.180512547492980957e+00 4.337326049804687500e+00 1.655351519584655762e+00 2.658907413482666016e+00
2.320000000000000000e+03 6.993476104736328125e+01 -1.792679023742675781e+01 -3.643408715724945068e-01 4.731725692749023438e+00 1.310215473175048828e+00 1.631556034088134766e+00
2.321000000000000000e+03 7.560794067382812500e+01 -8.354844093322753906e+00 -1.186004877090454102e+00 1.209755706787109375e+01 3.273465633392333984e+00 2.076766014099121094e+00
2.322000000000000000e+03 7.524508666992187500e+01 -1.060348606109619141e+01 2.659347534179687500e+00 1.404597187042236328e+01 5.011595726013183594e+00 3.129229545593261719e+00
2.323000000000000000e+03 6.999364471435546875e+01 -8.498291015625000000e+00 -2.159184515476226807e-01 3.675189256668090820e+00 1.037781238555908203e+00 -1.961638212203979492e+00
2.324000000000000000e+03 2.991890525817871094e+01 -8.578689575195312500e+00 -5.508074164390563965e-01 3.639050200581550598e-02 -1.543250679969787598e-01 3.343683779239654541e-01
2.325000000000000000e+03 5.870124340057373047e+00 6.529999732971191406e+00 -2.013757824897766113e-01 -1.547051221132278442e-01 -1.068242713809013367e-01 2.458350062370300293e-01
2.326000000000000000e+03 7.439346313476562500e+01 -6.804615020751953125e+00 -2.124755382537841797e+00 1.119203948974609375e+01 2.720185041427612305e+00 2.216766923666000366e-01
2.327000000000000000e+03 7.530531311035156250e+01 -6.478024959564208984e+00 -1.794086575508117676e+00 1.084702682495117188e+01 2.715882062911987305e+00 1.042704939842224121e+00
2.328000000000000000e+03 6.941513824462890625e+01 -1.732600975036621094e+01 -1.387485954910516739e-02 3.558386802673339844e+00 1.063353657722473145e+00 1.635773301124572754e+00
2.329000000000000000e+03 6.802390098571777344e+00 6.449965476989746094e+00 -2.466704249382019043e-01 -1.686955839395523071e-01 -1.246097981929779053e-01 2.914507091045379639e-01
2.330000000000000000e+03 8.628322601318359375e+00 5.833210468292236328e+00 -3.756786882877349854e-01 -1.856362372636795044e-01 -1.683944761753082275e-01 3.186429738998413086e-01
2.331000000000000000e+03 2.975294303894042969e+01 -7.810623168945312500e+00 -5.747576355934143066e-01 4.300409182906150818e-02 -1.595260649919509888e-01 3.389517962932586670e-01
2.332000000000000000e+03 7.397626495361328125e+01 -4.165140628814697266e+00 -1.711521983146667480e+00 8.815834999084472656e+00 2.131293773651123047e+00 -5.683271884918212891e-01
2.333000000000000000e+03 7.459099578857421875e+01 -6.171694755554199219e+00 -1.954074859619140625e+00 1.055812454223632812e+01 2.581214904785156250e+00 3.078466653823852539e-01
2.334000000000000000e+03 8.082578659057617188e+00 1.037227439880371094e+01 -1.168605014681816101e-01 -3.847111165523529053e-01 -1.504714936017990112e-01 5.391587018966674805e-01
2.335000000000000000e+03 1.012639236450195312e+01 -6.158373355865478516e+00 1.028184033202705905e-05 1.700169923424255103e-05 8.185062142729293555e-06 -6.026167829986661673e-05
2.336000000000000000e+03 2.715187644958496094e+01 -5.209474563598632812e+00 -6.628297567367553711e-01 -1.765726320445537567e-02 -2.041461169719696045e-01 3.662681877613067627e-01
2.337000000000000000e+03 6.931021881103515625e+01 -2.060877418518066406e+01 -6.812955737113952637e-01 4.282529830932617188e+00 1.080370306968688965e+00 9.763078689575195312e-01
2.338000000000000000e+03 7.309638977050781250e+01 -1.984086418151855469e+01 -1.400794029235839844e+00 8.687526702880859375e+00 2.186019897460937500e+00 4.481120109558105469e-01
2.339000000000000000e+03 3.067672729492187500e+01 -8.234244346618652344e+00 -5.634382367134094238e-01 6.793538480997085571e-02 -1.486508548259735107e-01 3.195869028568267822e-01
2.340000000000000000e+03 2.916264343261718750e+01 -7.623488903045654297e+00 -5.806611776351928711e-01 2.504438348114490509e-02 -1.666850298643112183e-01 3.478477895259857178e-01
2.341000000000000000e+03 9.636055946350097656e+00 -7.917227268218994141e+00 -9.777352715900633484e-06 -8.597767009632661939e-05 -2.872650657081976533e-05 1.150772914115805179e-05
2.342000000000000000e+03 7.567887878417968750e+01 -1.425295352935791016e+01 1.782494544982910156e+00 1.275928401947021484e+01 4.362533569335937500e+00 -3.002930641174316406e+00
2.343000000000000000e+03 7.580027008056640625e+01 -9.581551551818847656e+00 2.795844674110412598e-01 1.264091682434082031e+01 3.876150369644165039e+00 2.932040452957153320e+00
2.344000000000000000e+03 2.572691535949707031e+01 -4.405903816223144531e+00 -7.065204977989196777e-01 -7.430790364742279053e-02 -2.342485338449478149e-01 3.871619999408721924e-01
2.345000000000000000e+03 7.577005004882812500e+01 -7.676762104034423828e+00 -1.418155193328857422e+00 1.139104270935058594e+01 2.991866111755371094e+00 1.828791022300720215e+00
2.346000000000000000e+03 7.345805358886718750e+01 -8.915651321411132812e+00 -1.705531001091003418e+00 1.379663753509521484e+01 3.627331972122192383e+00 -1.120724201202392578e+00
2.347000000000000000e+03 2.451738929748535156e+01 -2.160365104675292969e+00 -6.868233084678649902e-01 -7.458481192588806152e-02 -2.284224480390548706e-01 3.405241966247558594e-01
2.348000000000000000e+03 2.536329078674316406e+01 -3.696069955825805664e+00 -7.156718373298645020e-01 -7.833302021026611328e-02 -2.382014542818069458e-01 3.710185587406158447e-01
2.349000000000000000e+03 2.679937553405761719e+01 -6.404689788818359375e+00 -6.440508961677551270e-01 -6.654606014490127563e-02 -2.131790965795516968e-01 3.984313607215881348e-01
2.350000000000000000e+03 2.655296516418457031e+01 -5.706042289733886719e+00 -6.664122343063354492e-01 -6.270008534193038940e-02 -2.187336981296539307e-01 3.940260708332061768e-01
2.351000000000000000e+03 2.580640983581542969e+01 2.505058050155639648e+00 -6.150615215301513672e-02 6.907330453395843506e-02 2.270144643262028694e-03 1.393660902976989746e-01
2.352000000000000000e+03 1.057149982452392578e+01 5.797368526458740234e+00 -5.040636062622070312e-01 -3.192412257194519043e-01 -2.469914555549621582e-01 3.819954991340637207e-01
2.353000000000000000e+03 9.645746231079101562e+00 6.718677043914794922e+00 -4.365745782852172852e-01 -2.770027220249176025e-01 -2.140731960535049438e-01 4.101280868053436279e-01
2.354000000000000000e+03 7.038512420654296875e+01 -7.572210311889648438e+00 -9.660520553588867188e-01 5.197398662567138672e+00 1.269403934478759766e+00 -2.267719507217407227e+00
2.355000000000000000e+03 7.516979980468750000e+01 -7.037211418151855469e+00 -1.838326811790466309e+00 1.133833503723144531e+01 2.850002288818359375e+00 1.104687213897705078e+00
2.356000000000000000e+03 2.496598243713378906e+01 -2.942726612091064453e+00 -7.113050818443298340e-01 -6.988471746444702148e-02 -2.343569397926330566e-01 3.595952093601226807e-01
2.357000000000000000e+03 2.526932144165039062e+01 -1.828054070472717285e+00 -6.328442692756652832e-01 -7.535766344517469406e-03 -1.921140104532241821e-01 2.984509170055389404e-01
2.358000000000000000e+03 3.491199111938476562e+01 -1.433168411254882812e+01 -4.452327191829681396e-01 6.528722494840621948e-02 -1.139836534857749939e-01 1.510486751794815063e-01
2.359000000000000000e+03 3.283318710327148438e+01 8.950091361999511719e+00 -7.136494666337966919e-02 5.283582583069801331e-02 -5.558737087994813919e-03 6.073005795478820801e-01
2.360000000000000000e+03 3.009541702270507812e+01 1.158793067932128906e+01 -1.951846629381179810e-01 -1.003321930766105652e-01 -8.865505456924438477e-02 5.979194045066833496e-01
2.361000000000000000e+03 2.552324295043945312e+01 1.355273604393005371e+00 -2.740175127983093262e-01 8.552700281143188477e-02 -5.654715374112129211e-02 1.671181768178939819e-01
2.362000000000000000e+03 2.836952781677246094e+01 4.068104267120361328e+00 8.026655018329620361e-02 -6.426556408405303955e-02 4.800293594598770142e-03 2.659502923488616943e-01
2.363000000000000000e+03 7.052580261230468750e+01 -1.872955894470214844e+01 -7.018821835517883301e-01 5.738897323608398438e+00 1.511104464530944824e+00 1.470300197601318359e+00
2.364000000000000000e+03 1.313915348052978516e+01 -7.671095848083496094e+00 1.084930954675655812e-05 -2.443646189931314439e-05 -4.076145614817505702e-06 -5.363558102544629946e-06
2.365000000000000000e+03 7.380825042724609375e+01 -1.949668693542480469e+01 -1.512908339500427246e+00 9.418212890625000000e+00 2.371591329574584961e+00 1.096070632338523865e-01
2.366000000000000000e+03 4.181501770019531250e+01 -1.197065830230712891e+01 -6.872593760490417480e-01 1.527390182018280029e-01 -1.603561192750930786e-01 7.620076090097427368e-02
2.367000000000000000e+03 3.850215148925781250e+01 -1.200530529022216797e+01 -5.932443737983703613e-01 1.387688219547271729e-01 -1.363426595926284790e-01 1.411830037832260132e-01
2.368000000000000000e+03 6.981457519531250000e+01 -1.676592826843261719e+01 2.017699629068374634e-01 3.853091478347778320e+00 1.216458439826965332e+00 1.834956407546997070e+00
2.369000000000000000e+03 2.960979080200195312e+01 1.780884170532226562e+01 7.944609969854354858e-02 -2.353859096765518188e-01 -4.678194597363471985e-02 2.636589705944061279e-01
2.370000000000000000e+03 2.877575683593750000e+01 1.632663726806640625e+01 -8.414948731660842896e-02 -3.269798755645751953e-01 -1.233388036489486694e-01 2.808700501918792725e-01
2.371000000000000000e+03 3.224196624755859375e+01 -1.216365337371826172e+01 -4.542883932590484619e-01 4.499954357743263245e-02 -1.227866560220718384e-01 2.408055365085601807e-01
2.372000000000000000e+03 7.411162567138671875e+01 -2.037396430969238281e+01 -1.312124848365783691e+00 9.116538047790527344e+00 2.341324090957641602e+00 -8.847621828317642212e-02
2.373000000000000000e+03 7.335989379882812500e+01 -2.052320480346679688e+01 -1.312687397003173828e+00 8.663113594055175781e+00 2.205127716064453125e+00 2.728558182716369629e-01
2.374000000000000000e+03 3.846153259277343750e+01 5.270398616790771484e+00 -3.168163895606994629e-01 3.001503348350524902e-01 -4.999816883355379105e-03 4.030636250972747803e-01
2.375000000000000000e+03 9.696838378906250000e+00 1.210704803466796875e+01 4.630667716264724731e-02 -5.057296156883239746e-01 -1.378268897533416748e-01 5.928125381469726562e-01
2.376000000000000000e+03 4.597559356689453125e+01 -1.068847942352294922e+01 -8.675561547279357910e-01 1.780133098363876343e-01 -2.068628519773483276e-01 1.730613969266414642e-02
2.377000000000000000e+03 4.906183624267578125e+01 -9.117249488830566406e+00 -1.061561942100524902e+00 2.196044474840164185e-01 -2.525872588157653809e-01 5.865069106221199036e-03
2.378000000000000000e+03 3.310971832275390625e+01 -1.259205818176269531e+01 -4.587925672531127930e-01 5.986674502491950989e-02 -1.196777448058128357e-01 2.174827009439468384e-01
2.379000000000000000e+03 4.749419021606445312e+01 -1.124362945556640625e+01 -9.237847328186035156e-01 1.491761058568954468e-01 -2.323825955390930176e-01 -5.870819464325904846e-02
2.380000000000000000e+03 4.200403594970703125e+01 -1.075594806671142578e+01 -7.104330062866210938e-01 1.755574643611907959e-01 -1.604626625776290894e-01 1.090803816914558411e-01
2.381000000000000000e+03 1.811640357971191406e+01 2.095916938781738281e+01 1.610184162855148315e-01 1.028171740472316742e-02 5.139004066586494446e-02 4.944740533828735352e-01
2.382000000000000000e+03 1.416485881805419922e+01 1.929113960266113281e+01 2.783121764659881592e-01 -8.318042010068893433e-02 5.853952467441558838e-02 2.215678989887237549e-01
2.383000000000000000e+03 7.030362606048583984e+00 -9.996158599853515625e+00 5.580635115620680153e-05 7.421883492497727275e-05 3.900755837094038725e-05 4.695550524047575891e-05
2.384000000000000000e+03 4.453421020507812500e+01 3.402967214584350586e+00 -2.887089550495147705e-01 8.340328186750411987e-02 -6.159169599413871765e-02 2.670066356658935547e-01
2.385000000000000000e+03 4.626764297485351562e+01 1.393409252166748047e+00 -3.407227694988250732e-01 1.067439615726470947e-01 -7.019364088773727417e-02 3.885115981101989746e-01
2.386000000000000000e+03 7.219752502441406250e+01 1.343276977539062500e+01 2.637142241001129150e-01 5.180612087249755859e+00 1.633297801017761230e+00 -8.948846459388732910e-01
2.387000000000000000e+03 7.145925140380859375e+01 1.549475479125976562e+01 2.804870903491973877e-01 4.892252445220947266e+00 1.551821827888488770e+00 -8.357902765274047852e-01
2.388000000000000000e+03 7.537687683105468750e+01 -1.579587936401367188e+01 -8.193319439888000488e-01 1.274516677856445312e+01 3.577750444412231445e+00 -2.228309631347656250e+00
2.389000000000000000e+03 3.206245040893554688e+01 8.166113853454589844e+00 -4.297825694084167480e-02 -1.651603542268276215e-02 -1.784828864037990570e-02 5.936024785041809082e-01
2.390000000000000000e+03 3.732465362548828125e+01 -1.320251941680908203e+01 -5.344260334968566895e-01 1.087081506848335266e-01 -1.277153789997100830e-01 1.331461220979690552e-01
2.391000000000000000e+03 3.164210510253906250e+01 -1.282184696197509766e+01 -4.129092097282409668e-01 2.196622081100940704e-02 -1.172828972339630127e-01 2.286032140254974365e-01
2.392000000000000000e+03 6.459937286376953125e+01 -4.052301406860351562e+00 -1.643836617469787598e+00 -3.526080250740051270e-01 -5.989333987236022949e-01 -8.947849869728088379e-01
2.393000000000000000e+03 1.058519554138183594e+01 1.573843479156494141e+01 3.428926467895507812e-01 -5.028967857360839844e-01 -4.800123721361160278e-02 3.966289758682250977e-01
2.394000000000000000e+03 7.716750144958496094e+00 1.667005157470703125e+01 1.929722577333450317e-01 -6.019080877304077148e-01 -1.226807460188865662e-01 3.542076349258422852e-01
2.395000000000000000e+03 1.180105590820312500e+01 -8.227740287780761719e+00 2.438833689666353166e-05 -5.704496743419440463e-06 5.605152182397432625e-06 -2.615324228827375919e-05
2.396000000000000000e+03 7.208650970458984375e+01 5.204041481018066406e+00 9.323835372924804688e-02 5.511983394622802734e+00 1.681566476821899414e+00 -1.336621403694152832e+00
2.397000000000000000e+03 7.198777770996093750e+01 7.759198188781738281e+00 2.254980951547622681e-01 5.285060405731201172e+00 1.653167486190795898e+00 -1.198981881141662598e+00
2.398000000000000000e+03 1.945800590515136719e+01 2.209626960754394531e+01 1.815820336341857910e-01 -1.415654122829437256e-01 1.200498454272747040e-02 5.533159971237182617e-01
2.399000000000000000e+03 6.905859375000000000e+01 -2.556972503662109375e+00 -1.133975267410278320e+00 3.862675189971923828e+00 8.186099529266357422e-01 -2.069631814956665039e+00
2.400000000000000000e+03 6.825926971435546875e+01 -3.298161506652832031e+00 -1.353602409362792969e+00 2.770292043685913086e+00 4.250068664550781250e-01 -2.087619304656982422e+00
2.401000000000000000e+03 1.068710613250732422e+01 8.680986404418945312e+00 -3.855352699756622314e-01 -4.015437364578247070e-01 -2.361237108707427979e-01 5.893015265464782715e-01
2.402000000000000000e+03 9.052646636962890625e+00 9.976571083068847656e+00 -1.859313398599624634e-01 -3.894481360912322998e-01 -1.726138442754745483e-01 5.641473531723022461e-01
2.403000000000000000e+03 5.206611633300781250e+01 -7.139048099517822266e+00 -1.307954072952270508e+00 2.824229896068572998e-01 -3.076592981815338135e-01 5.534668266773223877e-02
2.404000000000000000e+03 6.810515594482421875e+01 -2.822221183776855469e+01 -2.232535928487777710e-01 3.799385786056518555e+00 1.072839617729187012e+00 5.856059789657592773e-01
2.405000000000000000e+03 7.285987854003906250e+01 -2.625905227661132812e+01 -4.330747425556182861e-01 7.083935260772705078e+00 1.995258212089538574e+00 4.679605066776275635e-01
2.406000000000000000e+03 8.501176834106445312e+00 -2.671726608276367188e+01 2.972682123072445393e-04 -2.219957677880302072e-04 2.258172935398761183e-05 3.860128344967961311e-04
2.407000000000000000e+03 7.431320953369140625e+01 -2.325806808471679688e+01 -7.659080624580383301e-01 8.414839744567871094e+00 2.294679641723632812e+00 9.190323203802108765e-02
2.408000000000000000e+03 7.172478485107421875e+01 -2.344705581665039062e+01 -7.957035899162292480e-01 6.601302146911621094e+00 1.741679549217224121e+00 5.738996267318725586e-01
2.409000000000000000e+03 7.283222198486328125e+01 6.069224834442138672e+00 1.159461960196495056e-01 5.823888778686523438e+00 1.781950592994689941e+00 -1.224600195884704590e+00
2.410000000000000000e+03 7.081199169158935547e+00 2.183648681640625000e+01 1.030987575650215149e-01 -6.740022301673889160e-01 -1.712710410356521606e-01 1.707578450441360474e-01
2.411000000000000000e+03 2.479980278015136719e+01 -1.004299044609069824e+00 -5.848129391670227051e-01 -6.263737566769123077e-03 -1.773229986429214478e-01 2.778704166412353516e-01
2.412000000000000000e+03 4.369652557373046875e+01 -1.169793033599853516e+01 -7.524262666702270508e-01 1.556429862976074219e-01 -1.790349930524826050e-01 4.022401571273803711e-02
2.413000000000000000e+03 7.262021636962890625e+01 1.931740403175354004e+00 -3.025310933589935303e-01 6.111463546752929688e+00 1.742679715156555176e+00 -1.360926866531372070e+00
2.414000000000000000e+03 7.266811370849609375e+01 1.090726971626281738e+00 -4.546879231929779053e-01 6.275279521942138672e+00 1.746177434921264648e+00 -1.349451303482055664e+00
2.415000000000000000e+03 7.233977508544921875e+01 1.136854457855224609e+01 2.601937949657440186e-01 5.276209831237792969e+00 1.660921096801757812e+00 -9.919837117195129395e-01
2.416000000000000000e+03 6.952397918701171875e+01 9.498621940612792969e+00 4.004425108432769775e-01 4.307505607604980469e+00 1.412384510040283203e+00 -1.139390587806701660e+00
2.417000000000000000e+03 7.079426574707031250e+01 4.581615924835205078e+00 9.115098416805267334e-02 4.856646537780761719e+00 1.484339237213134766e+00 -1.427608966827392578e+00
2.418000000000000000e+03 7.224359130859375000e+01 1.887610054016113281e+01 2.006755173206329346e-01 4.942138195037841797e+00 1.542844176292419434e+00 -6.364647150039672852e-01
2.419000000000000000e+03 6.897486114501953125e+01 1.667420005798339844e+01 3.719092011451721191e-01 4.205018520355224609e+00 1.373078227043151855e+00 -7.889349460601806641e-01
2.420000000000000000e+03 5.327703094482421875e+01 3.036299467086791992e+00 -1.084677129983901978e-01 5.440956354141235352e-01 1.306883692741394043e-01 4.923571050167083740e-01
2.421000000000000000e+03 1.068040943145751953e+01 6.697256565093994141e+00 -5.046290755271911621e-01 -3.821880519390106201e-01 -2.660451531410217285e-01 4.643052518367767334e-01
2.422000000000000000e+03 2.714817237854003906e+01 2.154911518096923828e+00 -1.264711767435073853e-01 2.613357454538345337e-02 -3.010128065943717957e-02 1.630850285291671753e-01
2.423000000000000000e+03 2.901474189758300781e+01 3.057668209075927734e+00 -6.337393820285797119e-02 -2.044223062694072723e-02 -2.514485083520412445e-02 2.432048618793487549e-01
2.424000000000000000e+03 5.778639984130859375e+01 5.281296730041503906e+00 3.103646039962768555e-01 1.066172599792480469e+00 4.129611551761627197e-01 5.132791772484779358e-02
2.425000000000000000e+03 7.775082111358642578e+00 1.792459678649902344e+01 1.892085224390029907e-01 -6.103910803794860840e-01 -1.263547688722610474e-01 2.924832403659820557e-01
2.426000000000000000e+03 8.880744934082031250e+00 1.778680610656738281e+01 2.440368086099624634e-01 -5.724537968635559082e-01 -9.852509200572967529e-02 3.088580965995788574e-01
2.427000000000000000e+03 7.747449398040771484e+00 2.026898193359375000e+01 1.456367224454879761e-01 -6.247646808624267578e-01 -1.437383890151977539e-01 2.115855962038040161e-01
2.428000000000000000e+03 6.986877441406250000e+01 -2.214580726623535156e+01 -7.431077361106872559e-01 5.001407146453857422e+00 1.277489781379699707e+00 8.256393671035766602e-01
2.429000000000000000e+03 3.900991439819335938e+01 1.042161560058593750e+01 -4.743611440062522888e-02 5.326654911041259766e-01 1.455688178539276123e-01 5.463809967041015625e-01
2.430000000000000000e+03 3.790849685668945312e+01 1.185003566741943359e+01 7.185270637273788452e-02 4.516767859458923340e-01 1.570588499307632446e-01 5.558801889419555664e-01
2.431000000000000000e+03 3.349465179443359375e+01 -1.178071022033691406e+01 -4.958364367485046387e-01 8.100571483373641968e-02 -1.244492232799530029e-01 2.306421697139739990e-01
2.432000000000000000e+03 7.156494903564453125e+01 1.239182376861572266e+01 3.032440841197967529e-01 5.032846927642822266e+00 1.600827336311340332e+00 -9.661225080490112305e-01
2.433000000000000000e+03 6.203695774078369141e+00 8.504879951477050781e+00 -1.680346131324768066e-01 -2.623745501041412354e-01 -1.291227489709854126e-01 3.646753430366516113e-01
2.434000000000000000e+03 7.125027656555175781e+00 8.408981323242187500e+00 -2.294046431779861450e-01 -2.489403784275054932e-01 -1.435035020112991333e-01 4.126673936843872070e-01
2.435000000000000000e+03 7.391886901855468750e+01 -1.766167283058166504e+00 -1.066868424415588379e+00 7.800344944000244141e+00 2.020042896270751953e+00 -8.837906122207641602e-01
2.436000000000000000e+03 5.220045089721679688e+01 2.336258411407470703e+00 -2.134922295808792114e-01 4.302268922328948975e-01 6.502039730548858643e-02 5.402861833572387695e-01
2.437000000000000000e+03 1.125447463989257812e+01 2.906226539611816406e+01 5.592587962746620178e-02 -5.275408029556274414e-01 -1.414844840764999390e-01 1.653953492641448975e-01
2.438000000000000000e+03 3.759612274169921875e+01 9.273943901062011719e+00 -1.157979369163513184e-01 3.835257589817047119e-01 8.031834661960601807e-02 5.568391084671020508e-01
2.439000000000000000e+03 4.540036010742187500e+01 2.418427228927612305e+00 -3.036265373229980469e-01 7.827527076005935669e-02 -6.760538369417190552e-02 3.337940871715545654e-01
2.440000000000000000e+03 8.440526962280273438e+00 1.239677333831787109e+01 4.060076922178268433e-02 -4.767557382583618164e-01 -1.308465003967285156e-01 5.423143506050109863e-01
2.441000000000000000e+03 1.263839149475097656e+01 1.870673751831054688e+01 3.403711915016174316e-01 -2.701575756072998047e-01 2.106408216059207916e-02 2.091511040925979614e-01
2.442000000000000000e+03 8.223460197448730469e+00 2.156024169921875000e+01 1.373910605907440186e-01 -6.066273450851440430e-01 -1.407708823680877686e-01 1.883493065834045410e-01
2.443000000000000000e+03 5.749342727661132812e+01 -3.578073024749755859e+00 -1.410448789596557617e+00 3.070115447044372559e-01 -3.310311734676361084e-01 2.641336023807525635e-01
2.444000000000000000e+03 1.352061367034912109e+01 2.024687385559082031e+01 2.245479375123977661e-01 -1.712418198585510254e-01 1.599183306097984314e-02 2.218182682991027832e-01
2.445000000000000000e+03 4.078511047363281250e+01 -1.077209758758544922e+01 -6.730682849884033203e-01 1.720843762159347534e-01 -1.502951681613922119e-01 1.311227530241012573e-01
2.446000000000000000e+03 3.652568817138671875e+01 -1.190428829193115234e+01 -5.525649189949035645e-01 1.253465563058853149e-01 -1.281654983758926392e-01 1.789319068193435669e-01
2.447000000000000000e+03 4.943527221679687500e+01 -2.914952039718627930e+00 -7.874052524566650391e-01 3.016597032546997070e-01 -1.457236707210540771e-01 4.102918207645416260e-01
2.448000000000000000e+03 4.202180099487304688e+01 2.146763229370117188e+01 3.684403002262115479e-01 7.806447744369506836e-01 3.447255194187164307e-01 2.907250821590423584e-01
2.449000000000000000e+03 7.030097198486328125e+01 -2.118434715270996094e+01 -8.324240446090698242e-01 5.491122722625732422e+00 1.397609591484069824e+00 9.742038249969482422e-01
2.450000000000000000e+03 6.210642337799072266e+00 1.190113162994384766e+01 -9.937779046595096588e-03 -4.427236318588256836e-01 -1.357984244823455811e-01 4.351629912853240967e-01
2.451000000000000000e+03 7.046424865722656250e+00 1.047889804840087891e+01 -9.490197896957397461e-02 -3.840493559837341309e-01 -1.436854004859924316e-01 4.812899827957153320e-01
2.452000000000000000e+03 6.641258239746093750e+01 -3.169214439392089844e+01 1.834239363670349121e-01 2.986618280410766602e+00 9.510126709938049316e-01 4.885503649711608887e-01
2.453000000000000000e+03 7.067868804931640625e+01 1.437543869018554688e+00 -3.213761746883392334e-01 4.962913990020751953e+00 1.392461419105529785e+00 -1.611985683441162109e+00
2.454000000000000000e+03 7.022714233398437500e+01 -3.796743392944335938e+00 -1.641919136047363281e+00 5.200109481811523438e+00 1.067457079887390137e+00 -2.059698343276977539e+00
2.455000000000000000e+03 3.525378417968750000e+01 1.538882064819335938e+01 1.502043008804321289e-01 2.510307431221008301e-01 1.203705146908760071e-01 3.915514051914215088e-01
2.456000000000000000e+03 5.107512283325195312e+01 -7.946382045745849609e+00 -1.219184756278991699e+00 2.551335394382476807e-01 -2.892153561115264893e-01 2.403833344578742981e-02
2.457000000000000000e+03 1.109992504119873047e+01 -2.767154121398925781e+01 5.167375784367322922e-04 -4.399585304781794548e-04 2.303372093592770398e-05 5.074348882772028446e-04
2.458000000000000000e+03 6.743101501464843750e+01 -2.392984628677368164e+00 -9.485560059547424316e-01 2.233942985534667969e+00 3.856160640716552734e-01 -1.851811408996582031e+00
2.459000000000000000e+03 4.272152709960937500e+01 3.589764118194580078e+00 -3.479776084423065186e-01 1.804949641227722168e-01 -5.024479702115058899e-02 2.707442939281463623e-01
2.460000000000000000e+03 4.346358108520507812e+01 2.474577903747558594e+00 -3.638659715652465820e-01 1.544271409511566162e-01 -6.283164769411087036e-02 2.927878797054290771e-01
2.461000000000000000e+03 6.385050582885742188e+01 1.260605430603027344e+01 6.216529607772827148e-01 2.820543527603149414e+00 1.032658934593200684e+00 -7.342818975448608398e-01
2.462000000000000000e+03 6.896868133544921875e+01 2.353722381591796875e+01 2.576352357864379883e-01 4.146674156188964844e+00 1.321292757987976074e+00 -5.570662617683410645e-01
2.463000000000000000e+03 7.237438201904296875e+01 2.235784721374511719e+01 1.584094017744064331e-01 4.833116531372070312e+00 1.497457742691040039e+00 -5.175778269767761230e-01
2.464000000000000000e+03 3.558783340454101562e+01 1.395764636993408203e+01 1.094346046447753906e-01 2.635983228683471680e-01 1.119098737835884094e-01 4.747679829597473145e-01
2.465000000000000000e+03 4.139075088500976562e+01 3.313857793807983398e+00 -3.801979422569274902e-01 2.227318733930587769e-01 -4.723981767892837524e-02 2.959300279617309570e-01
2.466000000000000000e+03 4.805562591552734375e+01 -9.753996849060058594e+00 -9.871547818183898926e-01 1.990858912467956543e-01 -2.364206612110137939e-01 3.459402592852711678e-03
2.467000000000000000e+03 2.545977592468261719e+01 2.121953582763671875e+01 3.095131218433380127e-01 -4.465974271297454834e-01 -4.112529382109642029e-02 3.997006416320800781e-01
2.468000000000000000e+03 5.621394729614257812e+01 -6.003260135650634766e+00 -1.757356405258178711e+00 2.640524506568908691e-01 -4.479911923408508301e-01 -9.085850790143013000e-03
2.469000000000000000e+03 7.377050876617431641e+00 -2.465481758117675781e+01 6.960150494705885649e-05 -1.534016628284007311e-04 -2.514004700060468167e-05 2.092838112730532885e-04
2.470000000000000000e+03 7.142812252044677734e+00 -2.611941528320312500e+01 2.877339429687708616e-04 2.101235440932214260e-04 1.493572490289807320e-04 1.267446932615712285e-04
2.471000000000000000e+03 6.205202579498291016e+00 -2.000557327270507812e+01 1.432524877600371838e-04 1.227948960149660707e-04 7.981421367730945349e-05 -6.122162449173629284e-05
2.472000000000000000e+03 6.332978820800781250e+01 -1.336367249488830566e+00 -5.349639058113098145e-01 4.481176137924194336e-01 -2.605388686060905457e-02 -5.969550013542175293e-01
2.473000000000000000e+03 6.114182662963867188e+01 -1.265684247016906738e+00 -7.113187313079833984e-01 2.993816435337066650e-01 -1.235811337828636169e-01 -2.688772231340408325e-02
2.474000000000000000e+03 1.112951564788818359e+01 -2.926963996887207031e+01 8.575925021432340145e-04 1.657859975239261985e-04 3.070135426241904497e-04 3.428475756663829088e-04
2.475000000000000000e+03 6.221482086181640625e+01 1.080811882019042969e+01 6.534872055053710938e-01 2.337933778762817383e+00 8.974262475967407227e-01 -6.201382279396057129e-01
2.476000000000000000e+03 7.264564514160156250e+01 -2.426116561889648438e+01 -7.062742710113525391e-01 7.170014858245849609e+00 1.939122200012207031e+00 4.363635182380676270e-01
2.477000000000000000e+03 6.787533569335937500e+01 -2.957157325744628906e+01 -3.710139170289039612e-02 3.734248399734497070e+00 1.109144091606140137e+00 5.637978315353393555e-01
2.478000000000000000e+03 9.379906654357910156e+00 2.878576278686523438e+01 4.477560520172119141e-02 -6.312086582183837891e-01 -1.759299039840698242e-01 1.379280984401702881e-01
2.479000000000000000e+03 6.958602905273437500e+00 1.515044212341308594e+01 1.441924273967742920e-01 -5.853193998336791992e-01 -1.323380917310714722e-01 4.074573516845703125e-01
2.480000000000000000e+03 9.929687500000000000e+00 1.331375026702880859e+01 1.749391704797744751e-01 -5.131110548973083496e-01 -1.014515757560729980e-01 5.582330226898193359e-01
2.481000000000000000e+03 6.504468536376953125e+01 -2.830446052551269531e+01 -1.455962955951690674e-01 2.063534259796142578e+00 5.753813982009887695e-01 3.731372952461242676e-01
2.482000000000000000e+03 1.163561630249023438e+01 -2.668986892700195312e+01 4.085482214577496052e-04 -1.665753516135737300e-04 7.259186531882733107e-05 8.191737288143485785e-05
2.483000000000000000e+03 1.052465057373046875e+01 -2.450151634216308594e+01 2.421520621282979846e-04 6.620595377171412110e-05 9.250740549759939313e-05 -5.120923742651939392e-05
2.484000000000000000e+03 1.588141536712646484e+01 2.164986419677734375e+01 1.395783573389053345e-01 -7.792310416698455811e-02 1.849657669663429260e-02 3.520667850971221924e-01
2.485000000000000000e+03 6.971980285644531250e+01 -3.435387420654296875e+01 2.597365975379943848e-01 5.076624870300292969e+00 1.600908398628234863e+00 4.774291217327117920e-01
2.486000000000000000e+03 7.119540405273437500e+01 -3.570602035522460938e+01 2.669393420219421387e-01 5.731515884399414062e+00 1.799536585807800293e+00 4.656354486942291260e-01
2.487000000000000000e+03 4.215439605712890625e+01 2.319431304931640625e+01 4.131538569927215576e-01 7.469733357429504395e-01 3.480381667613983154e-01 2.771080136299133301e-01
2.488000000000000000e+03 6.004434585571289062e+01 -1.841998815536499023e+00 -9.569055438041687012e-01 2.462504953145980835e-01 -2.131965160369873047e-01 1.278373897075653076e-01
2.489000000000000000e+03 9.557005882263183594e+00 -3.092874526977539062e+01 3.126363735646009445e-04 3.900553856510668993e-04 2.108075277647003531e-04 5.387241835705935955e-04
2.490000000000000000e+03 5.542079925537109375e+01 -5.028189182281494141e+00 -1.488420844078063965e+00 3.150994181632995605e-01 -3.519964218139648438e-01 1.755105257034301758e-01
2.491000000000000000e+03 3.041890716552734375e+01 1.274788188934326172e+01 -2.013132423162460327e-01 -9.940595179796218872e-02 -9.021575748920440674e-02 5.348013639450073242e-01
2.492000000000000000e+03 8.691299438476562500e+00 -2.503519058227539062e+01 3.955442225560545921e-04 1.951145823113620281e-04 1.771976385498419404e-04 -3.578005998861044645e-05
2.493000000000000000e+03 5.281360626220703125e+01 2.539629745483398438e+01 6.539334058761596680e-01 1.260490894317626953e+00 5.743272900581359863e-01 -2.561913430690765381e-01
2.494000000000000000e+03 6.144390487670898438e+01 -3.390704727172851562e+01 4.779186248779296875e-01 1.015397191047668457e+00 4.479947388172149658e-01 9.646505862474441528e-02
2.495000000000000000e+03 5.255540084838867188e+01 -5.396474361419677734e+00 -1.252879500389099121e+00 3.389641642570495605e-01 -2.741745710372924805e-01 2.113111466169357300e-01
2.496000000000000000e+03 7.222735881805419922e+00 3.013383483886718750e+01 2.333179488778114319e-02 -7.931009531021118164e-01 -2.309307456016540527e-01 8.641663938760757446e-02
2.497000000000000000e+03 7.671632766723632812e+00 2.841932868957519531e+01 3.379856422543525696e-02 -7.340269684791564941e-01 -2.100685238838195801e-01 1.048203557729721069e-01
2.498000000000000000e+03 7.689397335052490234e+00 -3.498580551147460938e+01 -4.147821746300905943e-04 4.048504633828997612e-04 -2.979508053613244556e-06 8.390598814003169537e-04
2.499000000000000000e+03 9.118264198303222656e+00 -3.320558547973632812e+01 2.593306417111307383e-04 8.387695561395958066e-05 1.029622799251228571e-04 7.536406628787517548e-04
2.500000000000000000e+03 6.253619384765625000e+01 1.340544795989990234e+01 6.280470490455627441e-01 2.598333835601806641e+00 9.679142832756042480e-01 -6.058936119079589844e-01
2.501000000000000000e+03 6.383252334594726562e+01 1.562683200836181641e+01 5.587436556816101074e-01 3.024037122726440430e+00 1.074834227561950684e+00 -6.777375340461730957e-01
2.502000000000000000e+03 3.109896278381347656e+01 7.801031112670898438e+00 -3.499048994854092598e-03 -7.580259442329406738e-02 -2.379049360752105713e-02 5.928797721862792969e-01
2.503000000000000000e+03 3.046456336975097656e+01 9.121211051940917969e+00 -5.000392720103263855e-02 -1.127662211656570435e-01 -4.883104562759399414e-02 6.476877927780151367e-01
2.504000000000000000e+03 7.009341430664062500e+01 2.548035430908203125e+01 1.963928341865539551e-01 4.293225765228271484e+00 1.346885681152343750e+00 -4.696829617023468018e-01
2.505000000000000000e+03 5.601043319702148438e+01 1.552717089653015137e+00 -2.741914987564086914e-01 5.871172547340393066e-01 9.387772530317306519e-02 3.663946092128753662e-01
2.506000000000000000e+03 5.900735092163085938e+01 1.981026649475097656e+01 4.500369131565093994e-01 2.358186721801757812e+00 8.424670696258544922e-01 -5.324962735176086426e-01
2.507000000000000000e+03 7.209759521484375000e+01 -3.002538108825683594e+01 -6.644447147846221924e-02 6.394176959991455078e+00 1.898319721221923828e+00 5.663720369338989258e-01
2.508000000000000000e+03 6.992113494873046875e+01 -2.564525794982910156e+01 -5.053843855857849121e-01 4.974359035491943359e+00 1.340692400932312012e+00 6.476303935050964355e-01
2.509000000000000000e+03 7.157262420654296875e+01 -9.284832000732421875e+00 4.732032716274261475e-01 7.713187694549560547e+00 2.455917119979858398e+00 -3.732315063476562500e+00
2.510000000000000000e+03 7.228290557861328125e+01 -8.876075744628906250e+00 -9.219989180564880371e-01 1.050178432464599609e+01 2.873935699462890625e+00 -3.074315786361694336e+00
2.511000000000000000e+03 7.384529876708984375e+01 -9.501183509826660156e+00 -1.335134387016296387e+00 1.563848209381103516e+01 4.291004180908203125e+00 -1.361663043498992920e-01
2.512000000000000000e+03 7.500952911376953125e+01 -9.797174453735351562e+00 2.184197306632995605e-01 1.436459159851074219e+01 4.374903678894042969e+00 2.588615179061889648e+00
2.513000000000000000e+03 7.459138488769531250e+01 -1.474716949462890625e+01 2.970844693481922150e-02 1.540732383728027344e+01 4.631109714508056641e+00 -1.948147535324096680e+00
2.514000000000000000e+03 7.283152008056640625e+01 -1.539014434814453125e+01 -8.780150413513183594e-01 1.273285293579101562e+01 3.556451320648193359e+00 2.671823501586914062e+00
2.515000000000000000e+03 7.494097137451171875e+01 -1.492052078247070312e+01 -3.258991613984107971e-02 1.455225276947021484e+01 4.355898857116699219e+00 -2.321607828140258789e+00
2.516000000000000000e+03 7.155410003662109375e+01 -1.603106117248535156e+01 -8.167836070060729980e-02 7.915297985076904297e+00 2.350085973739624023e+00 2.889466524124145508e+00
2.517000000000000000e+03 7.103309631347656250e+01 -1.571234130859375000e+01 5.976921916007995605e-01 6.122368812561035156e+00 2.016018390655517578e+00 2.951451539993286133e+00
2.518000000000000000e+03 7.013409423828125000e+01 -1.615980911254882812e+01 5.011950731277465820e-01 4.231339454650878906e+00 1.419760465621948242e+00 2.175419569015502930e+00
2.519000000000000000e+03 7.326929473876953125e+01 -1.514331436157226562e+01 -1.118920445442199707e+00 1.469148159027099609e+01 4.071768283843994141e+00 1.640519618988037109e+00
2.520000000000000000e+03 7.600690460205078125e+01 -1.018932437896728516e+01 1.747817397117614746e+00 1.188408851623535156e+01 4.089571952819824219e+00 2.983782052993774414e+00
2.521000000000000000e+03 2.991862487792968750e+01 -1.061189651489257812e+01 -4.677451848983764648e-01 -4.645519889891147614e-03 -1.417172104120254517e-01 3.107943534851074219e-01
2.522000000000000000e+03 7.518587493896484375e+01 -1.532451248168945312e+01 -4.640306532382965088e-01 1.355351543426513672e+01 3.926845550537109375e+00 -2.332946538925170898e+00
2.523000000000000000e+03 7.533124542236328125e+01 -9.398611068725585938e+00 -3.963482752442359924e-02 1.350346755981445312e+01 4.039149761199951172e+00 2.640197277069091797e+00
2.524000000000000000e+03 7.547879791259765625e+01 -8.922256469726562500e+00 -7.341060638427734375e-01 1.265381431579589844e+01 3.575912475585937500e+00 2.334847450256347656e+00
2.525000000000000000e+03 7.084585666656494141e+00 7.159887790679931641e+00 -2.625707089900970459e-01 -1.994160264730453491e-01 -1.385960131883621216e-01 3.436378240585327148e-01
2.526000000000000000e+03 7.448027801513671875e+01 -4.869281768798828125e+00 -1.762925863265991211e+00 9.536265373229980469e+00 2.332001924514770508e+00 -1.039276123046875000e-01
2.527000000000000000e+03 7.469203948974609375e+01 -1.925609397888183594e+01 -1.493798732757568359e+00 1.001791000366210938e+01 2.557233333587646484e+00 -4.984691143035888672e-01
2.528000000000000000e+03 2.693725776672363281e+01 -4.086977005004882812e+00 -6.619141697883605957e-01 5.405701696872711182e-03 -1.969525367021560669e-01 3.376168310642242432e-01
2.529000000000000000e+03 9.038422584533691406e+00 -7.162273406982421875e+00 1.218918441736605018e-05 6.754937930963933468e-05 2.392156966379843652e-05 2.220430360466707498e-06
2.530000000000000000e+03 8.629182815551757812e+00 -6.302136421203613281e+00 -3.124145678157219663e-06 -6.454037065850570798e-05 -2.029935421887785196e-05 -3.066343197133392096e-05
2.531000000000000000e+03 7.333865356445312500e+01 -2.137205314636230469e+01 -1.156347274780273438e+00 8.272864341735839844e+00 2.134955167770385742e+00 2.553416490554809570e-01
2.532000000000000000e+03 7.540377044677734375e+01 -1.710920333862304688e+01 -1.468488693237304688e+00 1.150489425659179688e+01 3.010921716690063477e+00 -1.602265715599060059e+00
2.533000000000000000e+03 9.708591461181640625e+00 8.557711601257324219e+00 -3.292765021324157715e-01 -3.623995184898376465e-01 -2.075028121471405029e-01 5.249581933021545410e-01
2.534000000000000000e+03 3.031387519836425781e+01 -1.145248603820800781e+01 -4.375156164169311523e-01 -1.390092889778316021e-03 -1.316717118024826050e-01 2.862467169761657715e-01
2.535000000000000000e+03 2.761683654785156250e+01 -4.491600990295410156e+00 -6.476877331733703613e-01 3.311904519796371460e-02 -1.843706071376800537e-01 3.310279846191406250e-01
2.536000000000000000e+03 2.663566398620605469e+01 -4.668562412261962891e+00 -6.766436100006103516e-01 -2.517523057758808136e-02 -2.105456590652465820e-01 3.659163713455200195e-01
2.537000000000000000e+03 7.892646789550781250e+00 9.655277252197265625e+00 -1.772666126489639282e-01 -3.484552204608917236e-01 -1.577165573835372925e-01 5.106166601181030273e-01
2.538000000000000000e+03 8.285889625549316406e+00 1.130453014373779297e+01 -5.122830346226692200e-02 -4.392133653163909912e-01 -1.471325010061264038e-01 5.414751172065734863e-01
2.539000000000000000e+03 9.707236289978027344e+00 -6.693238735198974609e+00 -7.854320756450761110e-06 -6.574459257535636425e-05 -2.207967372669372708e-05 1.525706102256663144e-05
2.540000000000000000e+03 7.520813751220703125e+01 -7.622418880462646484e+00 -1.726782083511352539e+00 1.183358287811279297e+01 3.032040357589721680e+00 1.370212078094482422e+00
2.541000000000000000e+03 7.042362976074218750e+01 -6.029237747192382812e+00 -1.678278446197509766e+00 5.604144096374511719e+00 1.177759766578674316e+00 -2.083746433258056641e+00
2.542000000000000000e+03 7.031912231445312500e+01 -6.839032649993896484e+00 -1.375365614891052246e+00 5.422001361846923828e+00 1.213990688323974609e+00 -2.179998874664306641e+00
2.543000000000000000e+03 7.317829895019531250e+01 -3.743501186370849609e+00 -1.693430066108703613e+00 8.081849098205566406e+00 1.916525602340698242e+00 -1.015641689300537109e+00
2.544000000000000000e+03 7.315784454345703125e+01 -5.259823322296142578e+00 -2.040558099746704102e+00 9.080433845520019531e+00 2.111962556838989258e+00 -1.038012742996215820e+00
2.545000000000000000e+03 7.043444824218750000e+01 -1.722269630432128906e+01 -2.685595750808715820e-01 5.443751335144042969e+00 1.552557468414306641e+00 1.950115919113159180e+00
2.546000000000000000e+03 7.127948760986328125e+01 -1.947697448730468750e+01 -1.045931935310363770e+00 6.834598064422607422e+00 1.736599802970886230e+00 1.179495334625244141e+00
2.547000000000000000e+03 2.605820274353027344e+01 -3.426728010177612305e+00 -6.836226582527160645e-01 -2.060026675462722778e-02 -2.112668752670288086e-01 3.405199348926544189e-01
2.548000000000000000e+03 2.569858360290527344e+01 -2.638864040374755859e+00 -6.625726222991943359e-01 -1.942363567650318146e-02 -2.045988738536834717e-01 3.153976798057556152e-01
2.549000000000000000e+03 7.131114196777343750e+01 -1.820609092712402344e+01 -9.173810482025146484e-01 7.095559120178222656e+00 1.853453397750854492e+00 1.666357517242431641e+00
2.550000000000000000e+03 2.959707069396972656e+01 -7.169440269470214844e+00 -5.915987491607666016e-01 5.278962478041648865e-02 -1.616427451372146606e-01 3.380984067916870117e-01
2.551000000000000000e+03 1.074282360076904297e+01 7.649173259735107422e+00 -4.731298387050628662e-01 -4.092789590358734131e-01 -2.647226452827453613e-01 5.010098218917846680e-01
2.552000000000000000e+03 1.390219879150390625e+01 2.201081085205078125e+01 1.409206390380859375e-01 -1.967065185308456421e-01 -1.673576049506664276e-02 2.565242350101470947e-01
2.553000000000000000e+03 3.965139007568359375e+01 -1.075244712829589844e+01 -6.461911797523498535e-01 1.687104105949401855e-01 -1.432442367076873779e-01 1.530700773000717163e-01
2.554000000000000000e+03 4.085256958007812500e+01 -9.621802330017089844e+00 -6.891272068023681641e-01 1.913639456033706665e-01 -1.493289917707443237e-01 1.616393476724624634e-01
2.555000000000000000e+03 7.504666137695312500e+01 -1.655442047119140625e+01 -1.425083041191101074e+00 1.236878013610839844e+01 3.283108949661254883e+00 -1.463309168815612793e+00
2.556000000000000000e+03 7.311945343017578125e+01 -1.548851966857910156e+01 -1.277519702911376953e+00 1.361873435974121094e+01 3.702364444732666016e+00 1.779137611389160156e+00
2.557000000000000000e+03 2.560448074340820312e+01 -6.691406965255737305e-01 -5.209664702415466309e-01 4.316328838467597961e-02 -1.433409601449966431e-01 2.404642403125762939e-01
2.558000000000000000e+03 2.513559532165527344e+01 1.794047653675079346e-01 -4.465064108371734619e-01 5.052727088332176208e-02 -1.187937408685684204e-01 2.192440330982208252e-01
2.559000000000000000e+03 2.597917938232421875e+01 5.118948817253112793e-01 -3.768700659275054932e-01 7.597532123327255249e-02 -9.026842564344406128e-02 1.888272613286972046e-01
2.560000000000000000e+03 2.683033561706542969e+01 8.674692511558532715e-01 -3.034690618515014648e-01 5.927503108978271484e-02 -7.325820624828338623e-02 1.711781471967697144e-01
2.561000000000000000e+03 7.075998687744140625e+01 -2.025357818603515625e+01 -9.271132946014404297e-01 6.096386909484863281e+00 1.550782203674316406e+00 1.083209276199340820e+00
2.562000000000000000e+03 4.834698867797851562e+01 -8.285569190979003906e+00 -1.019864797592163086e+00 2.484412044286727905e-01 -2.314270883798599243e-01 8.502317219972610474e-02
2.563000000000000000e+03 4.447443389892578125e+01 -1.005798053741455078e+01 -8.121262192726135254e-01 1.960994899272918701e-01 -1.848080158233642578e-01 8.219164609909057617e-02
2.564000000000000000e+03 6.035580158233642578e+00 7.478023529052734375e+00 -1.941902637481689453e-01 -2.086877971887588501e-01 -1.208634153008460999e-01 3.177610337734222412e-01
2.565000000000000000e+03 4.003795242309570312e+01 -8.571276664733886719e+00 -6.685570478439331055e-01 1.983268409967422485e-01 -1.410690546035766602e-01 1.981578171253204346e-01
2.566000000000000000e+03 7.307251739501953125e+01 -1.479952931404113770e+00 -1.082687854766845703e+00 7.098543643951416016e+00 1.804756760597229004e+00 -1.236536264419555664e+00
2.567000000000000000e+03 7.086751556396484375e+01 -1.031579852104187012e+00 -8.879350423812866211e-01 5.389521121978759766e+00 1.350475788116455078e+00 -1.743369340896606445e+00
2.568000000000000000e+03 4.881315994262695312e+01 -7.289763450622558594e+00 -1.026074767112731934e+00 2.717351615428924561e-01 -2.263018935918807983e-01 1.476592421531677246e-01
2.569000000000000000e+03 5.022744369506835938e+01 -6.444333553314208984e+00 -1.112076640129089355e+00 3.009912669658660889e-01 -2.433256059885025024e-01 1.764334887266159058e-01
2.570000000000000000e+03 3.073612785339355469e+01 5.070327281951904297e+00 5.361401010304689407e-03 -6.548604369163513184e-02 -1.803739368915557861e-02 4.226735234260559082e-01
2.571000000000000000e+03 3.139509582519531250e+01 6.728141784667968750e+00 -3.397960215806961060e-03 -6.655750423669815063e-02 -2.098663896322250366e-02 5.456844568252563477e-01
2.572000000000000000e+03 6.942532348632812500e+01 -2.300351905822753906e+01 -6.980062127113342285e-01 4.585530757904052734e+00 1.166257381439208984e+00 7.293695807456970215e-01
2.573000000000000000e+03 7.163846015930175781e+00 9.084877967834472656e+00 -1.959169507026672363e-01 -2.894763350486755371e-01 -1.456179916858673096e-01 4.362035989761352539e-01
2.574000000000000000e+03 7.842069625854492188e+00 9.078313827514648438e+00 -2.372775524854660034e-01 -2.966442108154296875e-01 -1.601765304803848267e-01 4.732264578342437744e-01
2.575000000000000000e+03 6.888987731933593750e+01 -2.687944793701171875e+01 -3.465582132339477539e-01 4.283204078674316406e+00 1.180993795394897461e+00 6.188846826553344727e-01
2.576000000000000000e+03 6.672116851806640625e+01 -1.256361007690429688e+00 -5.378624200820922852e-01 1.910752654075622559e+00 4.118670821189880371e-01 -1.599792599678039551e+00
2.577000000000000000e+03 3.030149650573730469e+01 -9.387415885925292969e+00 -5.258312225341796875e-01 3.309296071529388428e-02 -1.478214710950851440e-01 3.216861486434936523e-01
2.578000000000000000e+03 3.561509323120117188e+01 5.342844963073730469e+00 -2.195823639631271362e-01 1.891336739063262939e-01 -9.134606458246707916e-03 4.724210500717163086e-01
2.579000000000000000e+03 2.802527999877929688e+01 2.607566595077514648e+00 -8.872464299201965332e-02 6.404702086001634598e-03 -2.469598315656185150e-02 2.082006782293319702e-01
2.580000000000000000e+03 5.140188217163085938e+01 -6.050186634063720703e+00 -1.174942970275878906e+00 3.117600977420806885e-01 -2.589548528194427490e-01 1.793352514505386353e-01
2.581000000000000000e+03 7.182762622833251953e+00 1.246509170532226562e+01 3.217538446187973022e-02 -4.878485798835754395e-01 -1.367019563913345337e-01 4.848076701164245605e-01
2.582000000000000000e+03 7.093032073974609375e+01 -2.456131553649902344e+01 -6.495072841644287109e-01 5.851649284362792969e+00 1.560642600059509277e+00 6.433849930763244629e-01
2.583000000000000000e+03 3.388428497314453125e+01 1.321737575531005859e+01 1.035270560532808304e-02 1.541441828012466431e-01 4.934906587004661560e-02 5.115094780921936035e-01
2.584000000000000000e+03 3.725027847290039062e+01 6.632262229919433594e+00 -2.358348369598388672e-01 2.941171228885650635e-01 1.748468726873397827e-02 4.825215637683868408e-01
2.585000000000000000e+03 5.363541793823242188e+01 -4.752049922943115234e+00 -1.281260251998901367e+00 3.548395335674285889e-01 -2.779262065887451172e-01 2.499833256006240845e-01
2.586000000000000000e+03 4.898014831542968750e+01 5.096888169646263123e-02 -4.607423245906829834e-01 2.316068410873413086e-01 -6.874064356088638306e-02 5.011919736862182617e-01
2.587000000000000000e+03 1.314253807067871094e+01 2.294653129577636719e+01 1.159578114748001099e-01 -2.765531837940216064e-01 -4.817861318588256836e-02 2.400097697973251343e-01
2.588000000000000000e+03 1.107187271118164062e+01 2.510094451904296875e+01 8.285228908061981201e-02 -4.632254242897033691e-01 -1.141119375824928284e-01 1.862133741378784180e-01
2.589000000000000000e+03 5.617520904541015625e+01 3.239767313003540039e+00 -6.682094652205705643e-03 7.242261171340942383e-01 2.152632027864456177e-01 2.957989871501922607e-01
2.590000000000000000e+03 5.962168121337890625e+01 4.668112754821777344e+00 3.238549828529357910e-01 1.147829532623291016e+00 4.415053725242614746e-01 -1.710510551929473877e-01
2.591000000000000000e+03 5.785227966308593750e+01 7.739210128784179688e+00 5.095770359039306641e-01 1.392401456832885742e+00 5.705935359001159668e-01 -1.924371719360351562e-02
2.592000000000000000e+03 3.643551254272460938e+01 1.715069389343261719e+01 2.693312764167785645e-01 3.451453447341918945e-01 1.843429952859878540e-01 3.086781501770019531e-01
2.593000000000000000e+03 7.012945556640625000e+01 -2.372993850708007812e+01 -6.958767175674438477e-01 5.266242504119873047e+00 1.371109724044799805e+00 6.938027739524841309e-01
2.594000000000000000e+03 7.113381958007812500e+01 5.577697753906250000e+00 1.823055893182754517e-01 5.023601531982421875e+00 1.561772108078002930e+00 -1.352119445800781250e+00
2.595000000000000000e+03 5.515652084350585938e+01 2.590345621109008789e+00 -1.390829980373382568e-01 6.247437000274658203e-01 1.456982195377349854e-01 3.908239305019378662e-01
2.596000000000000000e+03 5.692680740356445312e+01 2.246536970138549805e+00 -1.284769028425216675e-01 6.864361166954040527e-01 1.673877686262130737e-01 2.655638158321380615e-01
2.597000000000000000e+03 8.036339759826660156e+00 1.563558006286621094e+01 1.923261135816574097e-01 -5.840141773223876953e-01 -1.175064146518707275e-01 4.030682444572448730e-01
2.598000000000000000e+03 6.834716033935546875e+01 -1.556279301643371582e+00 -7.641240954399108887e-01 3.271411418914794922e+00 7.521862387657165527e-01 -1.892302036285400391e+00
2.599000000000000000e+03 9.436709403991699219e+00 -6.022629261016845703e+00 -8.427489888163108844e-07 3.409970304346643388e-05 9.977085937862284482e-06 3.703799302456900477e-05
2.600000000000000000e+03 1.665907287597656250e+01 2.021908760070800781e+01 1.715675741434097290e-01 4.911286756396293640e-02 6.620413064956665039e-02 3.892557024955749512e-01
2.601000000000000000e+03 3.639801788330078125e+01 1.899578094482421875e+01 3.119486570358276367e-01 3.478264510631561279e-01 1.979325264692306519e-01 2.415269911289215088e-01
2.602000000000000000e+03 3.492388153076171875e+01 1.710062217712402344e+01 2.048575282096862793e-01 2.227791994810104370e-01 1.282910257577896118e-01 3.194318711757659912e-01
2.603000000000000000e+03 5.906988143920898438e+01 -4.505648314952850342e-01 -6.116152405738830566e-01 4.196837544441223145e-01 -5.757945030927658081e-02 1.662367731332778931e-01
2.604000000000000000e+03 6.579581451416015625e+01 -1.843415737152099609e+00 -6.422867178916931152e-01 1.215305447578430176e+00 1.719056069850921631e-01 -1.364934325218200684e+00
2.605000000000000000e+03 6.391728210449218750e+01 -8.426912873983383179e-02 -2.042010277509689331e-01 9.450281858444213867e-01 2.222481518983840942e-01 -8.086739778518676758e-01
2.606000000000000000e+03 7.483041286468505859e+00 -5.775804042816162109e+00 -3.055166598642244935e-05 -2.556263552833115682e-06 -9.932378816301934421e-06 -2.235857573396060616e-05
2.607000000000000000e+03 7.727136611938476562e+00 -6.741740703582763672e+00 2.985045284731313586e-05 4.480719871935434639e-05 2.239729656139388680e-05 2.942498213087674230e-05
2.608000000000000000e+03 9.906544685363769531e+00 1.734251022338867188e+01 3.031763732433319092e-01 -5.184479355812072754e-01 -6.458146870136260986e-02 3.129377067089080811e-01
2.609000000000000000e+03 5.530003738403320312e+01 -3.321643114089965820e+00 -1.193238735198974609e+00 3.660791814327239990e-01 -2.481478899717330933e-01 3.367050290107727051e-01
2.610000000000000000e+03 3.745976638793945312e+01 7.943861961364746094e+00 -1.937619298696517944e-01 3.388481438159942627e-01 4.352586716413497925e-02 5.164799690246582031e-01
2.611000000000000000e+03 3.768046951293945312e+01 1.058024024963378906e+01 -2.577434852719306946e-02 4.003281295299530029e-01 1.123661324381828308e-01 5.502386689186096191e-01
2.612000000000000000e+03 3.683142852783203125e+01 2.071249961853027344e+01 3.252510428428649902e-01 3.845236897468566895e-01 2.129324227571487427e-01 2.066072374582290649e-01
2.613000000000000000e+03 4.440640640258789062e+01 1.491268038749694824e+00 -3.741118311882019043e-01 1.309534013271331787e-01 -7.294753193855285645e-02 3.273482024669647217e-01
2.614000000000000000e+03 4.710862350463867188e+01 3.213795125484466553e-01 -4.168822765350341797e-01 1.542263031005859375e-01 -7.879679650068283081e-02 4.374150633811950684e-01
2.615000000000000000e+03 4.791671752929687500e+01 -7.760971784591674805e-01 -5.296275019645690918e-01 2.144933044910430908e-01 -9.454025328159332275e-02 4.520801007747650146e-01
2.616000000000000000e+03 2.957059478759765625e+01 1.442865753173828125e+01 -2.186949402093887329e-01 -1.988813430070877075e-01 -1.252728849649429321e-01 3.921749591827392578e-01
2.617000000000000000e+03 7.244892120361328125e+01 1.470465183258056641e+01 2.432276159524917603e-01 5.198245525360107422e+00 1.632441878318786621e+00 -8.234118223190307617e-01
2.618000000000000000e+03 3.875030517578125000e+01 1.266421508789062500e+01 1.477257311344146729e-01 5.370203256607055664e-01 2.054238170385360718e-01 5.059454441070556641e-01
2.619000000000000000e+03 7.876197814941406250e+00 8.459916114807128906e+00 -2.565064728260040283e-01 -2.862923145294189453e-01 -1.628396362066268921e-01 4.450773894786834717e-01
2.620000000000000000e+03 6.816140651702880859e+00 -7.253583908081054688e+00 -3.650912549346685410e-05 -6.506426871055737138e-05 -3.047201789740938693e-05 -4.482291478780098259e-05
2.621000000000000000e+03 6.041102218627929688e+01 9.195570945739746094e+00 6.007115244865417480e-01 1.884811282157897949e+00 7.456568479537963867e-01 -4.062355756759643555e-01
2.622000000000000000e+03 3.749491119384765625e+01 -1.199913978576660156e+01 -5.725468993186950684e-01 1.326509565114974976e-01 -1.319687813520431519e-01 1.577039361000061035e-01
2.623000000000000000e+03 1.179338359832763672e+01 1.899501800537109375e+01 3.057099580764770508e-01 -3.587902486324310303e-01 -1.592408493161201477e-02 2.303998172283172607e-01
2.624000000000000000e+03 6.684981346130371094e+00 -2.764652633666992188e+01 2.186954952776432037e-04 -6.432156806113198400e-05 4.631217598216608167e-05 3.242820384912192822e-04
2.625000000000000000e+03 1.014222049713134766e+01 2.031271934509277344e+01 2.122116982936859131e-01 -4.802286922931671143e-01 -8.040509372949600220e-02 2.155588716268539429e-01
2.626000000000000000e+03 5.088435745239257812e+01 -3.006726801395416260e-01 -5.429899096488952637e-01 3.293291628360748291e-01 -6.409823149442672729e-02 5.223714709281921387e-01
2.627000000000000000e+03 7.169619750976562500e+01 2.044889068603515625e+01 1.931672990322113037e-01 4.772252082824707031e+00 1.489625811576843262e+00 -5.982016324996948242e-01
2.628000000000000000e+03 2.738552665710449219e+01 1.910645675659179688e+01 1.816290467977523804e-01 -4.433144927024841309e-01 -7.850562781095504761e-02 2.893841266632080078e-01
2.629000000000000000e+03 2.842656707763671875e+01 1.842753601074218750e+01 1.340306699275970459e-01 -3.423516452312469482e-01 -6.249629333615303040e-02 2.560576796531677246e-01
2.630000000000000000e+03 4.527835845947265625e+01 5.026373863220214844e-01 -4.160867929458618164e-01 1.414997428655624390e-01 -8.237611502408981323e-02 3.707655668258666992e-01
2.631000000000000000e+03 3.195063018798828125e+01 9.643429756164550781e+00 -7.273416966199874878e-02 -1.093018706887960434e-02 -2.509930729866027832e-02 6.246132254600524902e-01
2.632000000000000000e+03 3.131745338439941406e+01 1.119804954528808594e+01 -1.217209771275520325e-01 -4.026228189468383789e-02 -4.859497770667076111e-02 6.090697050094604492e-01
2.633000000000000000e+03 5.308079528808593750e+01 1.144510507583618164e+00 -3.751539587974548340e-01 4.615445435047149658e-01 2.591717429459095001e-02 5.171766877174377441e-01
2.634000000000000000e+03 5.413375854492187500e+01 1.869534373283386230e+00 -2.630495131015777588e-01 5.295285582542419434e-01 7.994372397661209106e-02 4.719736576080322266e-01
2.635000000000000000e+03 1.110154533386230469e+01 3.131677246093750000e+01 6.277614831924438477e-02 -5.730657577514648438e-01 -1.530868858098983765e-01 1.453799009323120117e-01
2.636000000000000000e+03 9.073918342590332031e+00 3.075142097473144531e+01 3.965009748935699463e-02 -6.889744997024536133e-01 -1.947973221540451050e-01 1.122695058584213257e-01
2.637000000000000000e+03 6.002014541625976562e+01 7.921891212463378906e+00 5.738173127174377441e-01 1.651955366134643555e+00 6.677317619323730469e-01 -3.199164569377899170e-01
2.638000000000000000e+03 6.151424884796142578e+00 2.803042602539062500e+01 2.568649873137474060e-02 -8.285815119743347168e-01 -2.408684939146041870e-01 8.782783895730972290e-02
2.639000000000000000e+03 9.338813781738281250e+00 2.496077728271484375e+01 7.595553994178771973e-02 -5.638570189476013184e-01 -1.463704407215118408e-01 1.615893691778182983e-01
2.640000000000000000e+03 6.821460723876953125e+01 -3.109173011779785156e+01 8.222322165966033936e-02 3.947727203369140625e+00 1.208985090255737305e+00 5.537457466125488281e-01
2.641000000000000000e+03 6.491468811035156250e+01 -2.978409957885742188e+01 -3.756942227482795715e-02 2.138871431350708008e+00 6.303905844688415527e-01 4.240453541278839111e-01
2.642000000000000000e+03 8.218647956848144531e+00 -2.840978240966796875e+01 3.372324281372129917e-04 2.602397580631077290e-04 1.792416587704792619e-04 3.068089426960796118e-04
2.643000000000000000e+03 9.886004447937011719e+00 -2.722030258178710938e+01 5.571518559008836746e-04 1.959697983693331480e-04 2.259364991914480925e-04 1.160905521828681231e-04
2.644000000000000000e+03 7.094508361816406250e+01 -2.662731933593750000e+01 -4.061450064182281494e-01 5.723802089691162109e+00 1.595297098159790039e+00 6.171815991401672363e-01
2.645000000000000000e+03 8.984824180603027344e+00 1.494069766998291016e+01 2.181611359119415283e-01 -5.471910238265991211e-01 -9.870896488428115845e-02 4.559435844421386719e-01
2.646000000000000000e+03 1.710400772094726562e+01 2.249217414855957031e+01 1.280390471220016479e-01 -1.013180539011955261e-01 8.016297593712806702e-03 4.073730409145355225e-01
2.647000000000000000e+03 3.451064300537109375e+01 7.216220378875732422e+00 -1.295300275087356567e-01 1.536437571048736572e-01 7.234120741486549377e-03 5.463544726371765137e-01
2.648000000000000000e+03 6.975092315673828125e+01 -3.011792564392089844e+01 -3.565280511975288391e-02 4.985971927642822266e+00 1.485095739364624023e+00 5.629638433456420898e-01
2.649000000000000000e+03 6.194707107543945312e+01 1.529963779449462891e+01 5.898432731628417969e-01 2.591360807418823242e+00 9.543612003326416016e-01 -5.638315081596374512e-01
2.650000000000000000e+03 6.278154373168945312e+01 1.665380287170410156e+01 5.395634174346923828e-01 2.832540988922119141e+00 1.011631250381469727e+00 -5.997654199600219727e-01
2.651000000000000000e+03 5.736816787719726562e+01 1.925844383239746094e+01 4.339460134506225586e-01 2.031921625137329102e+00 7.397602796554565430e-01 -4.784830212593078613e-01
2.652000000000000000e+03 7.064657592773437500e+01 8.045015335083007812e+00 3.082183301448822021e-01 4.704672336578369141e+00 1.503867149353027344e+00 -1.228783130645751953e+00
2.653000000000000000e+03 7.157463836669921875e+01 6.604417800903320312e+00 2.172172665596008301e-01 5.162369728088378906e+00 1.613876104354858398e+00 -1.273985385894775391e+00
2.654000000000000000e+03 7.087370300292968750e+01 1.347992610931396484e+01 3.308113813400268555e-01 4.749667644500732422e+00 1.524143695831298828e+00 -9.254733920097351074e-01
2.655000000000000000e+03 7.115859985351562500e+01 1.756474876403808594e+01 2.671156823635101318e-01 4.748139381408691406e+00 1.504576563835144043e+00 -7.456454038619995117e-01
2.656000000000000000e+03 4.758923339843750000e+01 -8.875181198120117188e+00 -9.713407158851623535e-01 2.249750047922134399e-01 -2.239097207784652710e-01 5.721763893961906433e-02
2.657000000000000000e+03 7.060867309570312500e+01 1.659027290344238281e+01 3.034352660179138184e-01 4.629259586334228516e+00 1.479808449745178223e+00 -8.020321130752563477e-01
2.658000000000000000e+03 7.037551116943359375e+01 1.476521205902099609e+01 3.394514918327331543e-01 4.590764522552490234e+00 1.479064822196960449e+00 -8.804171681404113770e-01
2.659000000000000000e+03 7.865985870361328125e+00 -3.015937042236328125e+01 3.191626747138798237e-04 -7.708634075243026018e-05 7.262290455400943756e-05 5.268398090265691280e-04
2.660000000000000000e+03 1.527937793731689453e+01 1.978821563720703125e+01 2.170989662408828735e-01 6.423815619200468063e-03 6.705683469772338867e-02 2.853474318981170654e-01
2.661000000000000000e+03 6.602740478515625000e+01 -2.458966672420501709e-01 -2.826822996139526367e-01 1.790372371673583984e+00 4.523070156574249268e-01 -1.367697596549987793e+00
2.662000000000000000e+03 5.945236206054687500e+01 -1.253130197525024414e+00 -7.998776435852050781e-01 3.661536276340484619e-01 -1.301171928644180298e-01 1.703451573848724365e-01
2.663000000000000000e+03 2.683513832092285156e+01 2.255235481262207031e+01 3.400511741638183594e-01 -3.287560343742370605e-01 3.388545941561460495e-03 3.325188755989074707e-01
2.664000000000000000e+03 2.210997009277343750e+01 2.743453788757324219e+01 2.801040410995483398e-01 -2.595993876457214355e-01 6.151397712528705597e-03 3.849966228008270264e-01
2.665000000000000000e+03 2.809177970886230469e+01 -1.809558868408203125e+00 -5.301541090011596680e-01 7.809071987867355347e-02 -1.356190294027328491e-01 2.490690052509307861e-01
2.666000000000000000e+03 7.089756011962890625e+01 9.373515129089355469e+00 3.337035775184631348e-01 4.785555362701416016e+00 1.535777807235717773e+00 -1.144473910331726074e+00
2.667000000000000000e+03 5.640654373168945312e+01 -4.236473560333251953e+00 -1.461727619171142578e+00 3.207782208919525146e-01 -3.422848284244537354e-01 2.212013751268386841e-01
2.668000000000000000e+03 1.373269462585449219e+01 -3.316355514526367188e+01 1.197519522975198925e-04 -2.625505730975419283e-04 -4.283958696760237217e-05 1.385503914207220078e-03
2.669000000000000000e+03 1.547045040130615234e+01 -3.189706993103027344e+01 1.183688873425126076e-03 -2.853983278328087181e-05 3.465446934569627047e-04 1.051641302183270454e-03
2.670000000000000000e+03 4.496503067016601562e+01 2.497781944274902344e+01 5.547003149986267090e-01 7.672387361526489258e-01 3.965817093849182129e-01 2.371213585138320923e-01
2.671000000000000000e+03 4.424198150634765625e+01 2.665533065795898438e+01 5.426606535911560059e-01 7.626830339431762695e-01 3.916031122207641602e-01 1.930921673774719238e-01
2.672000000000000000e+03 7.100038146972656250e+01 2.207053565979003906e+01 2.103745192289352417e-01 4.584087371826171875e+00 1.438338518142700195e+00 -5.584506392478942871e-01
2.673000000000000000e+03 3.129031944274902344e+01 1.521577262878417969e+01 -5.887154117226600647e-02 -4.407716169953346252e-02 -3.088461048901081085e-02 3.754659891128540039e-01
2.674000000000000000e+03 3.073698234558105469e+01 1.703556060791015625e+01 3.162564709782600403e-02 -1.201815158128738403e-01 -2.656676061451435089e-02 2.799365520477294922e-01
2.675000000000000000e+03 3.842757225036621094e+00 -3.623364257812500000e+01 6.436122930608689785e-05 4.607687296811491251e-04 1.575389760546386242e-04 2.834026818163692951e-04
2.676000000000000000e+03 3.524441528320312500e+01 2.254941701889038086e+00 -3.219726085662841797e-01 1.601932197809219360e-01 -4.853381589055061340e-02 3.620239496231079102e-01
2.677000000000000000e+03 6.317811965942382812e+01 1.452774715423583984e+01 5.953391194343566895e-01 2.790213108062744141e+00 1.015665650367736816e+00 -6.410638093948364258e-01
2.678000000000000000e+03 7.013532257080078125e+01 3.449352264404296875e+01 1.556286811828613281e-01 4.183484554290771484e+00 1.301733970642089844e+00 -2.349708676338195801e-01
2.679000000000000000e+03 3.264543151855468750e+01 7.281972885131835938e+00 -6.447729468345642090e-02 3.268803656101226807e-02 -9.536775760352611542e-03 5.673741102218627930e-01
2.680000000000000000e+03 5.588747406005859375e+01 -1.220933794975280762e+00 -7.833384275436401367e-01 4.465502500534057617e-01 -1.010364592075347900e-01 3.993022739887237549e-01
2.681000000000000000e+03 5.975720214843750000e+01 -3.264329147338867188e+01 2.763484418392181396e-01 3.453841209411621094e-01 1.865197718143463135e-01 -9.764128923416137695e-02
2.682000000000000000e+03 6.404711151123046875e+01 -3.431341934204101562e+01 4.731643795967102051e-01 2.054028034210205078e+00 7.581576704978942871e-01 3.294993340969085693e-01
2.683000000000000000e+03 4.910101699829101562e+01 -4.685203552246093750e+00 -9.184545874595642090e-01 3.027443289756774902e-01 -1.847130805253982544e-01 3.154510557651519775e-01
2.684000000000000000e+03 6.019633483886718750e+01 -1.118913531303405762e+00 -7.300314903259277344e-01 3.066506683826446533e-01 -1.270142495632171631e-01 8.184109628200531006e-02
2.685000000000000000e+03 4.637197494506835938e+01 -8.112537384033203125e+00 -8.984252810478210449e-01 2.390561252832412720e-01 -1.978107392787933350e-01 1.338144689798355103e-01
2.686000000000000000e+03 7.372316741943359375e+01 -7.817683219909667969e+00 -2.115578413009643555e+00 1.213925743103027344e+01 3.007103681564331055e+00 -4.774567186832427979e-01
2.687000000000000000e+03 7.103923034667968750e+01 -7.416630744934082031e+00 -1.203997015953063965e+00 6.677025794982910156e+00 1.641908645629882812e+00 -2.397569179534912109e+00
2.688000000000000000e+03 7.205985260009765625e+01 -9.169390678405761719e+00 -3.121013641357421875e-01 9.865589141845703125e+00 2.866046428680419922e+00 -3.549840211868286133e+00
2.689000000000000000e+03 7.465916442871093750e+01 -9.560127258300781250e+00 -4.721659719944000244e-01 1.487944126129150391e+01 4.322182655334472656e+00 1.911189317703247070e+00
2.690000000000000000e+03 7.130795288085937500e+01 -1.671458816528320312e+01 -3.638016283512115479e-01 7.146629810333251953e+00 2.034848451614379883e+00 2.399995803833007812e+00
2.691000000000000000e+03 7.081060028076171875e+01 -8.708028793334960938e+00 2.577610779553651810e-03 5.532790660858154297e+00 1.660610437393188477e+00 -2.702532052993774414e+00
2.692000000000000000e+03 7.425408935546875000e+01 -1.515698051452636719e+01 -8.995230793952941895e-01 1.517778682708740234e+01 4.283479213714599609e+00 -9.836284518241882324e-01
2.693000000000000000e+03 7.486389160156250000e+01 -1.599766731262207031e+01 -1.307125210762023926e+00 1.315282917022705078e+01 3.553711175918579102e+00 -1.487553834915161133e+00
2.694000000000000000e+03 7.071402740478515625e+01 -1.641879463195800781e+01 1.372083723545074463e-01 5.673519611358642578e+00 1.743218421936035156e+00 2.426849126815795898e+00
2.695000000000000000e+03 7.323857116699218750e+01 -1.716366004943847656e+01 -1.637231349945068359e+00 1.089273357391357422e+01 2.776650905609130859e+00 8.931480050086975098e-01
2.696000000000000000e+03 7.193743896484375000e+01 -8.618722915649414062e+00 -8.613026738166809082e-01 9.148966789245605469e+00 2.486299276351928711e+00 -2.991907119750976562e+00
2.697000000000000000e+03 7.252610015869140625e+01 -1.787375450134277344e+01 -1.386852145195007324e+00 9.290525436401367188e+00 2.371102094650268555e+00 1.275276780128479004e+00
2.698000000000000000e+03 7.401647186279296875e+01 -1.590160942077636719e+01 -1.571246981620788574e+00 1.359497928619384766e+01 3.607119798660278320e+00 -1.188352331519126892e-01
2.699000000000000000e+03 7.249060058593750000e+01 -1.545894908905029297e+01 -6.062194705009460449e-01 1.148969459533691406e+01 3.265042543411254883e+00 3.055959224700927734e+00
2.700000000000000000e+03 2.832576942443847656e+01 -5.098066806793212891e+00 -6.331148147583007812e-01 4.436722025275230408e-02 -1.766242831945419312e-01 3.325335979461669922e-01
2.701000000000000000e+03 7.434791564941406250e+01 -8.245748519897460938e+00 -1.895526885986328125e+00 1.290841102600097656e+01 3.303865194320678711e+00 5.051566958427429199e-01
2.702000000000000000e+03 7.479572296142578125e+01 -7.573608398437500000e+00 -1.883053421974182129e+00 1.206118869781494141e+01 3.053440570831298828e+00 9.745252132415771484e-01
2.703000000000000000e+03 7.247308349609375000e+01 -1.937791061401367188e+01 -1.368451952934265137e+00 8.372013092041015625e+00 2.101068258285522461e+00 7.721135020256042480e-01
2.704000000000000000e+03 7.378491210937500000e+01 -1.571300601959228516e+01 -1.517450809478759766e+00 1.396105098724365234e+01 3.733080148696899414e+00 2.332342863082885742e-01
2.705000000000000000e+03 7.393792724609375000e+01 -6.925514221191406250e+00 -2.130915403366088867e+00 1.104610919952392578e+01 2.674558162689208984e+00 -2.219249606132507324e-01
2.706000000000000000e+03 7.612370491027832031e+00 7.811068058013916016e+00 -2.645845711231231689e-01 -2.514528334140777588e-01 -1.548112332820892334e-01 4.106308817863464355e-01
2.707000000000000000e+03 9.692838668823242188e+00 7.617027282714843750e+00 -3.997689783573150635e-01 -3.093429803848266602e-01 -2.127335965633392334e-01 4.967834353446960449e-01
2.708000000000000000e+03 7.562286376953125000e+01 -1.506150245666503906e+01 1.792508959770202637e-01 1.264544963836669922e+01 3.847410202026367188e+00 -2.752800226211547852e+00
2.709000000000000000e+03 3.076006698608398438e+01 -1.018426227569580078e+01 -4.983298480510711670e-01 3.604079410433769226e-02 -1.386867165565490723e-01 3.017469048500061035e-01
2.710000000000000000e+03 3.103262329101562500e+01 -8.942276954650878906e+00 -5.453310608863830566e-01 6.726881116628646851e-02 -1.434186697006225586e-01 3.115561604499816895e-01
2.711000000000000000e+03 7.562373352050781250e+01 -1.004644012451171875e+01 1.267529964447021484e+00 1.294979381561279297e+01 4.265197277069091797e+00 2.978243112564086914e+00
2.712000000000000000e+03 2.775622940063476562e+01 -5.782910823822021484e+00 -6.403765082359313965e-01 2.859346801415085793e-03 -1.912551522254943848e-01 3.632851243019104004e-01
2.713000000000000000e+03 2.782847976684570312e+01 -6.885132312774658203e+00 -6.137866377830505371e-01 -1.701468788087368011e-02 -1.892403960227966309e-01 3.769090473651885986e-01
2.714000000000000000e+03 7.412088012695312500e+01 -7.786371231079101562e+00 -2.092501401901245117e+00 1.229589939117431641e+01 3.061019420623779297e+00 8.873502910137176514e-02
2.715000000000000000e+03 7.479534912109375000e+01 -1.746692848205566406e+01 -1.672541379928588867e+00 1.145170402526855469e+01 2.933748960494995117e+00 -9.583079218864440918e-01
2.716000000000000000e+03 2.763758277893066406e+01 -3.023141860961914062e+00 -6.095927953720092773e-01 5.620120838284492493e-02 -1.660174876451492310e-01 2.909401357173919678e-01
2.717000000000000000e+03 2.683815765380859375e+01 -3.259936332702636719e+00 -6.447799801826477051e-01 2.049282751977443695e-02 -1.872861385345458984e-01 3.080289959907531738e-01
2.718000000000000000e+03 7.326021575927734375e+01 -2.242722702026367188e+01 -9.513797760009765625e-01 7.894437313079833984e+00 2.082917213439941406e+00 2.919357717037200928e-01
2.719000000000000000e+03 7.120749664306640625e+01 -8.464750289916992188e+00 -4.507559835910797119e-01 6.904052257537841797e+00 1.935988903045654297e+00 -2.905329704284667969e+00
2.720000000000000000e+03 7.112763214111328125e+01 -7.994367599487304688e+00 -8.756964802742004395e-01 6.843168258666992188e+00 1.790241479873657227e+00 -2.629791498184204102e+00
2.721000000000000000e+03 7.378893280029296875e+01 -5.979689598083496094e+00 -2.042237758636474609e+00 1.002057456970214844e+01 2.393501043319702148e+00 -4.495923817157745361e-01
2.722000000000000000e+03 7.201904296875000000e+01 -2.002892303466796875e+01 -1.212385296821594238e+00 7.610738754272460938e+00 1.919505953788757324e+00 8.371654152870178223e-01
2.723000000000000000e+03 3.435873031616210938e+01 -1.217000198364257812e+01 -4.972829222679138184e-01 8.871491998434066772e-02 -1.225704029202461243e-01 2.091831713914871216e-01
2.724000000000000000e+03 6.148846054077148438e+01 7.287476539611816406e+00 5.632038712501525879e-01 1.800609230995178223e+00 7.091439366340637207e-01 -5.085739493370056152e-01
2.725000000000000000e+03 7.247885894775390625e+01 -2.122416687011718750e+01 -1.131474018096923828e+00 7.685841083526611328e+00 1.966310143470764160e+00 5.510087013244628906e-01
2.726000000000000000e+03 2.647283172607421875e+01 -2.368167877197265625e+00 -6.164286136627197266e-01 2.909761853516101837e-02 -1.761993020772933960e-01 2.862578630447387695e-01
2.727000000000000000e+03 2.605444145202636719e+01 -1.514578461647033691e+00 -5.766069293022155762e-01 2.824257500469684601e-02 -1.645092964172363281e-01 2.583892345428466797e-01
2.728000000000000000e+03 7.185012054443359375e+01 -4.665966033935546875e+00 -1.839838504791259766e+00 7.332079887390136719e+00 1.647672414779663086e+00 -1.625257372856140137e+00
2.729000000000000000e+03 4.194549560546875000e+01 -9.500013351440429688e+00 -7.221402525901794434e-01 1.980605572462081909e-01 -1.572239100933074951e-01 1.469950377941131592e-01
2.730000000000000000e+03 3.152066993713378906e+01 -1.163041687011718750e+01 -4.560316801071166992e-01 3.367220610380172729e-02 -1.267078369855880737e-01 2.626947164535522461e-01
2.731000000000000000e+03 3.387181472778320312e+01 -1.096494483947753906e+01 -5.246584415435791016e-01 1.009008511900901794e-01 -1.271272748708724976e-01 2.385085076093673706e-01
2.732000000000000000e+03 2.738059425354003906e+01 -6.475093841552734375e+00 -6.374940872192382812e-01 -4.114703088998794556e-02 -2.035923302173614502e-01 3.862150311470031738e-01
2.733000000000000000e+03 2.872132492065429688e+01 -7.004551410675048828e+00 -5.996889472007751465e-01 2.305408939719200134e-02 -1.729904562234878540e-01 3.556052446365356445e-01
2.734000000000000000e+03 3.779209136962890625e+01 2.481034994125366211e+00 -3.707497417926788330e-01 2.204502075910568237e-01 -4.508985579013824463e-02 3.567278981208801270e-01
2.735000000000000000e+03 4.021981430053710938e+01 2.996234416961669922e+00 -3.881202638149261475e-01 2.428942322731018066e-01 -4.356781393289566040e-02 3.205462396144866943e-01
2.736000000000000000e+03 3.305435943603515625e+01 -1.059758758544921875e+01 -5.217071175575256348e-01 9.058804064989089966e-02 -1.293357163667678833e-01 2.566815018653869629e-01
2.737000000000000000e+03 7.346261596679687500e+01 -4.733910083770751953e+00 -1.910381197929382324e+00 8.850216865539550781e+00 2.081950902938842773e+00 -8.208656311035156250e-01
2.738000000000000000e+03 6.979855346679687500e+01 4.731716156005859375e+00 1.849288344383239746e-01 4.332116127014160156e+00 1.355113387107849121e+00 -1.412341117858886719e+00
2.739000000000000000e+03 7.005904388427734375e+01 5.788334369659423828e+00 2.508533596992492676e-01 4.490303516387939453e+00 1.422347068786621094e+00 -1.348323583602905273e+00
2.740000000000000000e+03 7.177552795410156250e+01 -3.328411340713500977e+00 -1.609407305717468262e+00 6.786103725433349609e+00 1.553008794784545898e+00 -1.628009080886840820e+00
2.741000000000000000e+03 7.236540985107421875e+01 -9.293448925018310547e-01 -9.382728338241577148e-01 6.521300792694091797e+00 1.674908399581909180e+00 -1.427646279335021973e+00
2.742000000000000000e+03 1.275094509124755859e+01 2.393926048278808594e+01 1.040941923856735229e-01 -3.358037769794464111e-01 -6.951287388801574707e-02 2.310791611671447754e-01
2.743000000000000000e+03 3.629653167724609375e+01 1.078899288177490234e+01 -2.699021995067596436e-02 3.155843615531921387e-01 8.657823503017425537e-02 5.714891552925109863e-01
2.744000000000000000e+03 4.813002395629882812e+01 -5.639727592468261719e+00 -9.159914851188659668e-01 2.806487977504730225e-01 -1.906028240919113159e-01 2.572044432163238525e-01
2.745000000000000000e+03 4.756942749023437500e+01 -6.834216594696044922e+00 -9.216996431350708008e-01 2.634348273277282715e-01 -1.974794566631317139e-01 1.907122880220413208e-01
2.746000000000000000e+03 3.924163818359375000e+01 -8.180862426757812500e+00 -6.541921496391296387e-01 1.999076902866363525e-01 -1.362853348255157471e-01 2.145451158285140991e-01
2.747000000000000000e+03 3.472940444946289062e+01 -1.131376171112060547e+01 -5.297108292579650879e-01 1.097092404961585999e-01 -1.260004788637161255e-01 2.170084118843078613e-01
2.748000000000000000e+03 7.250160217285156250e+01 -2.403606176376342773e+00 -1.355338692665100098e+00 7.005128383636474609e+00 1.694936871528625488e+00 -1.397223830223083496e+00
2.749000000000000000e+03 7.311582183837890625e+01 -7.527356594800949097e-02 -6.720104217529296875e-01 6.823381900787353516e+00 1.845411419868469238e+00 -1.224496603012084961e+00
2.750000000000000000e+03 7.109819793701171875e+01 -1.746966934204101562e+01 -5.831303596496582031e-01 6.701834678649902344e+00 1.835611224174499512e+00 2.016913652420043945e+00
2.751000000000000000e+03 7.160796165466308594e+00 9.687862396240234375e+00 -1.531841158866882324e-01 -3.281882405281066895e-01 -1.444116979837417603e-01 4.706187546253204346e-01
2.752000000000000000e+03 5.400541687011718750e+01 -8.953902125358581543e-02 -5.779735445976257324e-01 4.467872977256774902e-01 -3.935586661100387573e-02 4.767941832542419434e-01
2.753000000000000000e+03 5.198836898803710938e+01 4.330591261386871338e-01 -4.755823016166687012e-01 3.869365751743316650e-01 -2.659371867775917053e-02 5.319411754608154297e-01
2.754000000000000000e+03 7.077278900146484375e+01 -2.277542877197265625e+01 -8.201534152030944824e-01 5.871779441833496094e+00 1.515487790107727051e+00 7.450616955757141113e-01
2.755000000000000000e+03 4.526979446411132812e+01 -8.471584320068359375e+00 -8.521400094032287598e-01 2.310963273048400879e-01 -1.863131076097488403e-01 1.392220705747604370e-01
2.756000000000000000e+03 4.305518341064453125e+01 -9.273640632629394531e+00 -7.562851309776306152e-01 2.062367647886276245e-01 -1.650145053863525391e-01 1.422387659549713135e-01
2.757000000000000000e+03 3.468596267700195312e+01 1.371849536895751953e+01 4.781623184680938721e-02 2.088129818439483643e-01 7.698876410722732544e-02 4.773909449577331543e-01
2.758000000000000000e+03 3.204921722412109375e+01 5.596586704254150391e+00 -5.139419063925743103e-02 -1.002616900950670242e-02 -1.842610724270343781e-02 4.757435321807861328e-01
2.759000000000000000e+03 7.189438629150390625e+01 9.416441917419433594e-01 -4.646641314029693604e-01 5.780230045318603516e+00 1.594669818878173828e+00 -1.502089381217956543e+00
2.760000000000000000e+03 7.235603332519531250e+01 3.652455210685729980e-01 -5.926290750503540039e-01 6.206590652465820312e+00 1.684188485145568848e+00 -1.422999501228332520e+00
2.761000000000000000e+03 3.194362831115722656e+01 1.351935005187988281e+01 -9.267511963844299316e-02 1.943337172269821167e-02 -2.197252586483955383e-02 4.868072867393493652e-01
2.762000000000000000e+03 7.019191741943359375e+01 1.828759384155273438e+01 3.009612560272216797e-01 4.457540988922119141e+00 1.427550673484802246e+00 -7.420770525932312012e-01
2.763000000000000000e+03 7.034809875488281250e+01 2.008713340759277344e+01 2.558913528919219971e-01 4.484036445617675781e+00 1.421978354454040527e+00 -6.606085300445556641e-01
2.764000000000000000e+03 6.210971069335937500e+01 -3.584693968296051025e-01 -3.509585559368133545e-01 5.727774500846862793e-01 6.654566526412963867e-02 -3.331911265850067139e-01
2.765000000000000000e+03 5.783138275146484375e+01 2.833447456359863281e+00 5.315963644534349442e-03 7.594725489616394043e-01 2.294365614652633667e-01 1.510659754276275635e-01
2.766000000000000000e+03 7.184268188476562500e+01 -2.542185401916503906e+01 -5.558838248252868652e-01 6.388766288757324219e+00 1.749864816665649414e+00 5.564237236976623535e-01
2.767000000000000000e+03 3.877083206176757812e+01 -9.327968597412109375e+00 -6.373130083084106445e-01 1.812368184328079224e-01 -1.368228644132614136e-01 1.970367133617401123e-01
2.768000000000000000e+03 3.855488967895507812e+01 -1.066662025451660156e+01 -6.208401918411254883e-01 1.630356907844543457e-01 -1.373413503170013428e-01 1.707901656627655029e-01
2.769000000000000000e+03 7.159143829345703125e+01 3.548389911651611328e+00 -5.191974714398384094e-02 5.322753429412841797e+00 1.581250071525573730e+00 -1.448923468589782715e+00
2.770000000000000000e+03 7.155750274658203125e+01 2.633250951766967773e+00 -1.678698509931564331e-01 5.421342849731445312e+00 1.576041936874389648e+00 -1.463409900665283203e+00
2.771000000000000000e+03 6.759537506103515625e+01 -4.937592148780822754e-01 -4.446955025196075439e-01 2.691818714141845703e+00 6.741369962692260742e-01 -1.722621798515319824e+00
2.772000000000000000e+03 3.411328887939453125e+01 1.487387752532958984e+01 7.254330813884735107e-02 1.696419268846511841e-01 7.265556603670120239e-02 4.294911623001098633e-01
2.773000000000000000e+03 2.769319534301757812e+01 1.250287652015686035e+00 -2.483118921518325806e-01 5.074719712138175964e-02 -5.926940962672233582e-02 1.867514550685882568e-01
2.774000000000000000e+03 2.859596443176269531e+01 1.646877765655517578e+00 -2.022763043642044067e-01 2.757256664335727692e-02 -5.241112038493156433e-02 2.032959312200546265e-01
2.775000000000000000e+03 5.964376068115234375e+01 6.649672508239746094e+00 4.951681196689605713e-01 1.414911985397338867e+00 5.730240345001220703e-01 -2.544488310813903809e-01
2.776000000000000000e+03 7.694664478302001953e+00 1.914970588684082031e+01 1.811728030443191528e-01 -6.205264925956726074e-01 -1.318061053752899170e-01 2.516088187694549561e-01
2.777000000000000000e+03 4.978262710571289062e+01 -1.064734339714050293e+00 -6.090687513351440430e-01 2.902576029300689697e-01 -9.564334154129028320e-02 4.861684441566467285e-01
2.778000000000000000e+03 1.250889205932617188e+01 1.966539382934570312e+01 2.775316238403320312e-01 -2.596864998340606689e-01 5.353532265871763229e-03 1.969508230686187744e-01
2.779000000000000000e+03 1.100886249542236328e+01 1.960655975341796875e+01 2.617528438568115234e-01 -4.100796282291412354e-01 -4.449803382158279419e-02 2.163120657205581665e-01
2.780000000000000000e+03 4.347790145874023438e+01 5.256808400154113770e-01 -4.366186261177062988e-01 1.687420904636383057e-01 -8.036296069622039795e-02 3.291509449481964111e-01
2.781000000000000000e+03 6.299037933349609375e+01 1.160486030578613281e+01 6.416158676147460938e-01 2.546292543411254883e+00 9.563725590705871582e-01 -6.644362211227416992e-01
2.782000000000000000e+03 3.431277465820312500e+01 1.202479934692382812e+01 -1.361535303294658661e-02 1.910037398338317871e-01 5.321651697158813477e-02 5.520995259284973145e-01
2.783000000000000000e+03 3.533821487426757812e+01 1.278724002838134766e+01 5.119172111153602600e-02 2.574205398559570312e-01 9.258367121219635010e-02 5.310435891151428223e-01
2.784000000000000000e+03 1.102212142944335938e+01 2.142920875549316406e+01 1.768879294395446777e-01 -3.966861665248870850e-01 -6.593946367502212524e-02 1.972372233867645264e-01
2.785000000000000000e+03 3.709744262695312500e+01 5.393407344818115234e+00 -2.784918844699859619e-01 2.667822539806365967e-01 -3.512885421514511108e-03 4.465559422969818115e-01
2.786000000000000000e+03 6.104995727539062500e+01 4.791142940521240234e+00 3.970952332019805908e-01 1.359696865081787109e+00 5.270376205444335938e-01 -3.920447230339050293e-01
2.787000000000000000e+03 1.010179805755615234e+01 2.243254661560058594e+01 1.358413398265838623e-01 -4.863294363021850586e-01 -1.051464304327964783e-01 1.873666346073150635e-01
2.788000000000000000e+03 5.692837524414062500e+01 6.714749336242675781e-01 -4.139439761638641357e-01 5.481212735176086426e-01 4.025319218635559082e-02 3.236824572086334229e-01
2.789000000000000000e+03 4.741742706298828125e+01 -7.973091602325439453e+00 -9.499732255935668945e-01 2.515405416488647461e-01 -2.095298022031784058e-01 1.346475630998611450e-01
2.790000000000000000e+03 5.869887542724609375e+01 -1.646950125694274902e+00 -9.086561799049377441e-01 3.419766128063201904e-01 -1.700038760900497437e-01 2.270159274339675903e-01
2.791000000000000000e+03 6.977525329589843750e+01 1.590027618408203125e+01 3.505381047725677490e-01 4.416158199310302734e+00 1.430008888244628906e+00 -8.310932517051696777e-01
2.792000000000000000e+03 2.726567077636718750e+01 -2.095703840255737305e+00 -5.730060338973999023e-01 5.383235961198806763e-02 -1.557521075010299683e-01 2.591784000396728516e-01
2.793000000000000000e+03 6.192956447601318359e+00 -2.928875541687011719e+01 1.920759968925267458e-04 2.898306120187044144e-04 1.445719826733693480e-04 3.457428247202187777e-04
2.794000000000000000e+03 4.760465240478515625e+01 -2.702221393585205078e+00 -6.941627860069274902e-01 2.516773939132690430e-01 -1.327456235885620117e-01 3.918215036392211914e-01
2.795000000000000000e+03 5.840106964111328125e+01 6.753622055053710938e+00 4.636720418930053711e-01 1.355308055877685547e+00 5.456940531730651855e-01 -7.356007397174835205e-02
2.796000000000000000e+03 5.835578155517578125e+01 4.256780147552490234e+00 2.182721793651580811e-01 9.670345783233642578e-01 3.555920124053955078e-01 1.581935770809650421e-02
2.797000000000000000e+03 2.649119949340820312e+01 2.014390373229980469e+01 2.551352977752685547e-01 -4.518402516841888428e-01 -5.901148915290832520e-02 3.357059955596923828e-01
2.798000000000000000e+03 5.190757369995117188e+01 -4.322350978851318359e+00 -1.069392561912536621e+00 3.482990860939025879e-01 -2.163280248641967773e-01 3.266620337963104248e-01
2.799000000000000000e+03 1.118605613708496094e+01 2.701871681213378906e+01 6.335949152708053589e-02 -4.946098923683166504e-01 -1.293751150369644165e-01 1.813240796327590942e-01
2.800000000000000000e+03 1.720554924011230469e+01 2.485813140869140625e+01 1.244506835937500000e-01 -2.054969221353530884e-01 -2.431387081742286682e-02 3.730623722076416016e-01
2.801000000000000000e+03 7.052420806884765625e+01 2.373977279663085938e+01 2.019533962011337280e-01 4.448187828063964844e+00 1.395042300224304199e+00 -5.282042026519775391e-01
2.802000000000000000e+03 5.475387573242187500e+01 -1.374508619308471680e+00 -8.124500513076782227e-01 4.217766225337982178e-01 -1.172020286321640015e-01 4.418093562126159668e-01
2.803000000000000000e+03 5.697356033325195312e+01 -2.512126684188842773e+00 -1.121164917945861816e+00 3.546065688133239746e-01 -2.299675196409225464e-01 3.153281211853027344e-01
2.804000000000000000e+03 6.126296234130859375e+01 1.733699035644531250e+01 5.211402773857116699e-01 2.609486579895019531e+00 9.391880631446838379e-01 -5.331621766090393066e-01
2.805000000000000000e+03 4.983737945556640625e+01 -5.519453048706054688e+00 -1.021041512489318848e+00 3.068822026252746582e-01 -2.142477780580520630e-01 2.548284828662872314e-01
2.806000000000000000e+03 7.033191680908203125e+01 6.866092205047607422e+00 2.915193736553192139e-01 4.616892814636230469e+00 1.472523570060729980e+00 -1.302083730697631836e+00
2.807000000000000000e+03 6.647847747802734375e+01 -2.969079399108886719e+01 -3.609902039170265198e-02 2.896891832351684570e+00 8.582378625869750977e-01 5.108355879783630371e-01
2.808000000000000000e+03 5.882459259033203125e+01 3.281929254531860352e+00 1.221857964992523193e-01 9.017179012298583984e-01 3.071711063385009766e-01 3.644811920821666718e-03
2.809000000000000000e+03 4.656024169921875000e+01 2.520647621154785156e+01 6.030056476593017578e-01 7.906580567359924316e-01 4.180991351604461670e-01 1.814298331737518311e-01
2.810000000000000000e+03 2.580403327941894531e+01 2.514705467224121094e+01 3.669686019420623779e-01 -2.691815793514251709e-01 2.933610603213310242e-02 3.528107106685638428e-01
2.811000000000000000e+03 5.507531356811523438e+01 7.128786444664001465e-01 -4.531338512897491455e-01 5.113524198532104492e-01 1.746556349098682404e-02 4.357632100582122803e-01
2.812000000000000000e+03 4.416273880004882812e+01 -8.913635253906250000e+00 -7.961580753326416016e-01 2.157333493232727051e-01 -1.741274297237396240e-01 1.364026218652725220e-01
2.813000000000000000e+03 6.522451782226562500e+01 -7.859069705009460449e-01 -3.689088225364685059e-01 1.188184380531311035e+00 2.457826733589172363e-01 -1.177657842636108398e+00
2.814000000000000000e+03 6.531002044677734375e+01 5.831096172332763672e-01 -8.222667872905731201e-02 1.619126677513122559e+00 4.610700011253356934e-01 -1.157439470291137695e+00
2.815000000000000000e+03 6.662915039062500000e+01 -3.383682250976562500e+01 3.730472028255462646e-01 3.144790887832641602e+00 1.055351495742797852e+00 4.295806288719177246e-01
2.816000000000000000e+03 7.057194519042968750e+01 -3.141616821289062500e+01 2.826956100761890411e-02 5.495137214660644531e+00 1.657021999359130859e+00 5.862384438514709473e-01
2.817000000000000000e+03 6.998097991943359375e+01 -2.783792877197265625e+01 -2.648961544036865234e-01 5.091363906860351562e+00 1.447940230369567871e+00 5.984949469566345215e-01
2.818000000000000000e+03 6.128747940063476562e+01 1.889963912963867188e+01 4.970200955867767334e-01 2.678627729415893555e+00 9.526943564414978027e-01 -5.716692805290222168e-01
2.819000000000000000e+03 6.973806762695312500e+01 2.941213417053222656e+01 1.811531484127044678e-01 4.245277881622314453e+00 1.327929258346557617e+00 -3.701722025871276855e-01
2.820000000000000000e+03 3.561638641357421875e+01 2.200165367126464844e+01 3.513741195201873779e-01 2.893638908863067627e-01 1.922214031219482422e-01 2.046249657869338989e-01
2.821000000000000000e+03 6.774839782714843750e+01 1.729022026062011719e+01 3.994092941284179688e-01 3.934985399246215820e+00 1.300318360328674316e+00 -7.500472068786621094e-01
2.822000000000000000e+03 4.326536941528320312e+01 -6.954143047332763672e+00 -7.397767901420593262e-01 2.296449989080429077e-01 -1.530395448207855225e-01 2.192693501710891724e-01
2.823000000000000000e+03 3.241005325317382812e+01 1.466090869903564453e+01 -2.763199433684349060e-02 6.134845688939094543e-02 1.011493895202875137e-02 4.293737411499023438e-01
2.824000000000000000e+03 3.814213180541992188e+01 4.126577377319335938e+00 -3.411151468753814697e-01 2.653449177742004395e-01 -2.273106947541236877e-02 3.857695162296295166e-01
2.825000000000000000e+03 1.696683502197265625e+01 -3.364431762695312500e+01 -1.806885265978053212e-04 4.048112896271049976e-04 6.723683327436447144e-05 2.567148301750421524e-03
2.826000000000000000e+03 1.129298400878906250e+01 -3.125330162048339844e+01 2.763443335425108671e-04 -2.588284842204302549e-04 5.254758889350341633e-06 1.002705306746065617e-03
2.827000000000000000e+03 7.284906005859375000e+01 -8.807643890380859375e+00 -1.513083219528198242e+00 1.234258842468261719e+01 3.248851537704467773e+00 -2.230402708053588867e+00
2.828000000000000000e+03 7.250734710693359375e+01 -8.503357887268066406e+00 -1.435866355895996094e+00 1.093454933166503906e+01 2.849604845046997070e+00 -2.509230136871337891e+00
2.829000000000000000e+03 7.262117767333984375e+01 -1.645305442810058594e+01 -1.241253614425659180e+00 1.072761726379394531e+01 2.845909118652343750e+00 1.942157626152038574e+00
2.830000000000000000e+03 7.206709289550781250e+01 -1.631044387817382812e+01 -7.401340007781982422e-01 9.384876251220703125e+00 2.593422651290893555e+00 2.533457279205322266e+00
2.831000000000000000e+03 7.356885528564453125e+01 -1.594960594177246094e+01 -1.600107312202453613e+00 1.324827003479003906e+01 3.494448900222778320e+00 7.337827682495117188e-01
2.832000000000000000e+03 7.261425781250000000e+01 -1.589922237396240234e+01 -1.055294036865234375e+00 1.139548492431640625e+01 3.102057218551635742e+00 2.292657852172851562e+00
2.833000000000000000e+03 7.405640411376953125e+01 -9.194756507873535156e+00 -1.416106700897216797e+00 1.477947521209716797e+01 4.009010791778564453e+00 3.196659982204437256e-01
2.834000000000000000e+03 7.400611114501953125e+01 -8.575781822204589844e+00 -1.860789775848388672e+00 1.353452396392822266e+01 3.502120494842529297e+00 5.471738427877426147e-02
2.835000000000000000e+03 7.360495758056640625e+01 -9.274992942810058594e+00 -1.466670632362365723e+00 1.498477268218994141e+01 4.055430889129638672e+00 -7.944461703300476074e-01
2.836000000000000000e+03 7.192256927490234375e+01 -1.695682525634765625e+01 -9.249700903892517090e-01 8.775538444519042969e+00 2.355170726776123047e+00 2.098518848419189453e+00
2.837000000000000000e+03 7.372098541259765625e+01 -7.322063922882080078e+00 -2.134934663772583008e+00 1.131560325622558594e+01 2.754200696945190430e+00 -5.055581927299499512e-01
2.838000000000000000e+03 7.382955932617187500e+01 -1.619011878967285156e+01 -1.633654713630676270e+00 1.305664539337158203e+01 3.426897287368774414e+00 2.290495187044143677e-01
2.839000000000000000e+03 7.417932891845703125e+01 -1.641576385498046875e+01 -1.661389112472534180e+00 1.273399448394775391e+01 3.321781635284423828e+00 -4.129115641117095947e-01
2.840000000000000000e+03 3.041968917846679688e+01 -7.535660266876220703e+00 -5.784746408462524414e-01 7.282243669033050537e-02 -1.516956686973571777e-01 3.258191645145416260e-01
2.841000000000000000e+03 2.872847557067871094e+01 -3.551431179046630859e+00 -5.955867767333984375e-01 8.339589834213256836e-02 -1.536572724580764771e-01 2.887922227382659912e-01
2.842000000000000000e+03 7.223889160156250000e+01 -5.742936134338378906e+00 -1.982962727546691895e+00 8.327515602111816406e+00 1.903365969657897949e+00 -1.594394087791442871e+00
2.843000000000000000e+03 7.350004577636718750e+01 -1.865364074707031250e+01 -1.631668686866760254e+00 9.821501731872558594e+00 2.456949710845947266e+00 3.438210487365722656e-01
2.844000000000000000e+03 7.186190032958984375e+01 -1.888041114807128906e+01 -1.204210758209228516e+00 7.716628551483154297e+00 1.953725337982177734e+00 1.248033881187438965e+00
2.845000000000000000e+03 7.214296722412109375e+01 -6.485627174377441406e+00 -1.922375917434692383e+00 8.602160453796386719e+00 2.003935337066650391e+00 -1.815868496894836426e+00
2.846000000000000000e+03 7.353249359130859375e+01 -6.644613742828369141e+00 -2.126039266586303711e+00 1.051465034484863281e+01 2.516583204269409180e+00 -6.303285360336303711e-01
2.847000000000000000e+03 7.388172149658203125e+01 -1.709316635131835938e+01 -1.770173072814941406e+00 1.166954708099365234e+01 2.969812154769897461e+00 1.215585842728614807e-01
2.848000000000000000e+03 7.069527435302734375e+01 -5.161794662475585938e+00 -1.805872201919555664e+00 5.961748600006103516e+00 1.246762871742248535e+00 -2.005935668945312500e+00
2.849000000000000000e+03 7.150264739990234375e+01 -6.625105857849121094e+00 -1.697937965393066406e+00 7.533014297485351562e+00 1.750522851943969727e+00 -2.117917060852050781e+00
2.850000000000000000e+03 7.333624267578125000e+01 -1.786406135559082031e+01 -1.655695915222167969e+00 1.031886196136474609e+01 2.598949670791625977e+00 5.892497897148132324e-01
2.851000000000000000e+03 7.281652069091796875e+01 -7.453349590301513672e+00 -1.981209158897399902e+00 1.050008583068847656e+01 2.555662870407104492e+00 -1.592216968536376953e+00
2.852000000000000000e+03 7.095487976074218750e+01 -6.806171894073486328e+00 -1.490720152854919434e+00 6.444461345672607422e+00 1.486122369766235352e+00 -2.234775066375732422e+00
2.853000000000000000e+03 6.934041595458984375e+01 2.358874559402465820e+00 -8.532550930976867676e-02 4.062296390533447266e+00 1.193091392517089844e+00 -1.591590642929077148e+00
2.854000000000000000e+03 6.130949783325195312e+01 3.487923145294189453e+00 2.590988576412200928e-01 1.159866809844970703e+00 4.256897270679473877e-01 -3.790884017944335938e-01
2.855000000000000000e+03 7.124457550048828125e+01 -2.177130317687988281e+01 -9.326347112655639648e-01 6.390616893768310547e+00 1.637394666671752930e+00 7.696439623832702637e-01
2.856000000000000000e+03 7.057926940917968750e+01 3.548009872436523438e+00 -1.327964290976524353e-02 4.751960754394531250e+00 1.421604394912719727e+00 -1.510347008705139160e+00
2.857000000000000000e+03 7.177386474609375000e+01 -1.766475677490234375e+01 -1.000927090644836426e+00 8.163567543029785156e+00 2.148792028427124023e+00 1.747418880462646484e+00
2.858000000000000000e+03 2.686457633972167969e+01 -1.208874702453613281e+00 -5.229536294937133789e-01 6.019110977649688721e-02 -1.388287544250488281e-01 2.378538995981216431e-01
2.859000000000000000e+03 7.270558929443359375e+01 -2.042047119140625000e+01 -1.260544657707214355e+00 8.062881469726562500e+00 2.040700912475585938e+00 5.621431469917297363e-01
2.860000000000000000e+03 2.643314743041992188e+01 -3.421168327331542969e-01 -4.562154114246368408e-01 5.732396617531776428e-02 -1.196674332022666931e-01 2.081823498010635376e-01
2.861000000000000000e+03 2.830315017700195312e+01 -6.356184482574462891e+00 -6.209615468978881836e-01 1.296615786850452423e-02 -1.823986172676086426e-01 3.572888970375061035e-01
2.862000000000000000e+03 2.925634002685546875e+01 -6.534431457519531250e+00 -6.051540970802307129e-01 5.328067764639854431e-02 -1.655620187520980835e-01 3.377630710601806641e-01
2.863000000000000000e+03 6.482927703857421875e+01 9.624766349792480469e+00 6.052482128143310547e-01 2.783919334411621094e+00 1.016750335693359375e+00 -8.632792234420776367e-01
2.864000000000000000e+03 6.834103393554687500e+01 9.278265953063964844e+00 4.579596221446990967e-01 3.869185209274291992e+00 1.298143386840820312e+00 -1.115884065628051758e+00
2.865000000000000000e+03 3.223291397094726562e+01 -1.019668292999267578e+01 -5.200893878936767578e-01 7.803725451231002808e-02 -1.326156258583068848e-01 2.765502035617828369e-01
2.866000000000000000e+03 3.561117172241210938e+01 -1.165043544769287109e+01 -5.388767719268798828e-01 1.167636737227439880e-01 -1.266339421272277832e-01 1.971257179975509644e-01
2.867000000000000000e+03 2.957359695434570312e+01 2.045675516128540039e+00 -1.752977222204208374e-01 1.852592267096042633e-02 -4.703154042363166809e-02 2.497434020042419434e-01
2.868000000000000000e+03 3.267169952392578125e+01 -1.138236045837402344e+01 -4.934991598129272461e-01 7.122509926557540894e-02 -1.266822218894958496e-01 2.502313852310180664e-01
2.869000000000000000e+03 7.163764190673828125e+01 -1.783134698867797852e+00 -1.174196720123291016e+00 6.125535011291503906e+00 1.485401511192321777e+00 -1.649646997451782227e+00
2.870000000000000000e+03 6.480431365966796875e+01 1.625369834899902344e+01 5.281580090522766113e-01 3.233817100524902344e+00 1.128592491149902344e+00 -7.185796499252319336e-01
2.871000000000000000e+03 7.222438812255859375e+01 -2.228272819519042969e+01 -9.607508778572082520e-01 7.201642513275146484e+00 1.872267484664916992e+00 5.369951128959655762e-01
2.872000000000000000e+03 5.849091339111328125e+01 1.988700270652770996e+00 -9.619975090026855469e-02 7.157053947448730469e-01 1.858516931533813477e-01 1.212768107652664185e-01
2.873000000000000000e+03 6.938806152343750000e+01 8.188665390014648438e+00 3.882042467594146729e-01 4.226444244384765625e+00 1.384394526481628418e+00 -1.210866451263427734e+00
2.874000000000000000e+03 3.672317504882812500e+01 -1.082560157775878906e+01 -5.765891075134277344e-01 1.415441781282424927e-01 -1.305134892463684082e-01 1.967754364013671875e-01
2.875000000000000000e+03 3.590401077270507812e+01 -1.061158657073974609e+01 -5.679280757904052734e-01 1.370135098695755005e-01 -1.292743682861328125e-01 2.099669575691223145e-01
2.876000000000000000e+03 3.756532287597656250e+01 -1.077420043945312500e+01 -5.991800427436828613e-01 1.546735465526580811e-01 -1.333519369363784790e-01 1.859151422977447510e-01
2.877000000000000000e+03 4.183050155639648438e+01 -8.270919799804687500e+00 -7.169475555419921875e-01 2.121948897838592529e-01 -1.514257937669754028e-01 1.882945895195007324e-01
2.878000000000000000e+03 1.282463359832763672e+01 2.128743934631347656e+01 1.773065626621246338e-01 -2.540680170059204102e-01 -2.302843518555164337e-02 2.176511734724044800e-01
2.879000000000000000e+03 6.898249053955078125e+01 1.437521934509277344e+01 4.077943265438079834e-01 4.176341533660888672e+00 1.375240683555603027e+00 -8.892203569412231445e-01
2.880000000000000000e+03 3.134519767761230469e+01 3.942252635955810547e+00 -9.005808830261230469e-02 -4.917891696095466614e-03 -2.849279530346393585e-02 3.710514605045318604e-01
2.881000000000000000e+03 3.012385368347167969e+01 3.501145839691162109e+00 -6.009436771273612976e-02 -2.948183752596378326e-02 -2.687286213040351868e-02 3.138070702552795410e-01
2.882000000000000000e+03 5.931258010864257812e+01 1.658760309219360352e+00 -1.078198179602622986e-01 7.001260519027709961e-01 1.776918768882751465e-01 3.326321765780448914e-02
2.883000000000000000e+03 5.957416534423828125e+01 7.579641342163085938e-01 -2.694756090641021729e-01 5.683934688568115234e-01 8.967535197734832764e-02 3.957648575305938721e-02
2.884000000000000000e+03 6.282300186157226562e+01 9.045548439025878906e+00 6.289249062538146973e-01 2.303054571151733398e+00 8.795938491821289062e-01 -6.891513466835021973e-01
2.885000000000000000e+03 3.188295173645019531e+01 -1.097070884704589844e+01 -4.918502271175384521e-01 5.641932785511016846e-02 -1.306292712688446045e-01 2.711336612701416016e-01
2.886000000000000000e+03 7.167359161376953125e+01 1.738784670829772949e+00 -3.354994356632232666e-01 5.562433242797851562e+00 1.568080186843872070e+00 -1.511348485946655273e+00
2.887000000000000000e+03 5.777994537353515625e+01 1.345934152603149414e+00 -2.423040866851806641e-01 6.165317893028259277e-01 1.122683063149452209e-01 2.251866161823272705e-01
2.888000000000000000e+03 7.085363769531250000e+01 -2.710511207580566406e+00 -1.381030917167663574e+00 5.621059894561767578e+00 1.272008657455444336e+00 -1.903882026672363281e+00
2.889000000000000000e+03 7.017634582519531250e+01 -8.622186630964279175e-02 -6.050522327423095703e-01 4.670542240142822266e+00 1.219647049903869629e+00 -1.780020117759704590e+00
2.890000000000000000e+03 5.167125701904296875e+01 -1.448003411293029785e+00 -7.210498452186584473e-01 3.633887767791748047e-01 -1.072983294725418091e-01 4.817491173744201660e-01
2.891000000000000000e+03 5.282354736328125000e+01 -7.652372121810913086e-01 -6.578961014747619629e-01 4.051687121391296387e-01 -7.581822574138641357e-02 4.989067316055297852e-01
2.892000000000000000e+03 3.632600021362304688e+01 9.389194488525390625e+00 -9.970342367887496948e-02 2.862116396427154541e-01 5.595246702432632446e-02 5.673627257347106934e-01
2.893000000000000000e+03 3.259242248535156250e+01 1.070710277557373047e+01 -8.317156881093978882e-02 6.679928302764892578e-02 -4.911685362458229065e-03 6.043694615364074707e-01
2.894000000000000000e+03 5.461947250366210938e+01 -4.135426044464111328e+00 -1.310717463493347168e+00 3.473761975765228271e-01 -2.890023589134216309e-01 2.688035666942596436e-01
2.895000000000000000e+03 6.392258071899414062e+01 1.063045978546142578e+01 6.254124045372009277e-01 2.653594017028808594e+00 9.837019443511962891e-01 -7.728877663612365723e-01
2.896000000000000000e+03 5.409900283813476562e+01 -3.184786796569824219e+00 -1.072821736335754395e+00 3.960349559783935547e-01 -2.030360102653503418e-01 3.845655620098114014e-01
2.897000000000000000e+03 6.891426849365234375e+01 5.880125045776367188e+00 3.187591731548309326e-01 3.954024553298950195e+00 1.281835079193115234e+00 -1.327661156654357910e+00
2.898000000000000000e+03 5.619552612304687500e+01 -1.772709041833877563e-01 -6.013464331626892090e-01 4.801402986049652100e-01 -3.636185079813003540e-02 3.887084722518920898e-01
2.899000000000000000e+03 3.079438781738281250e+01 1.397966003417968750e+01 -1.565591692924499512e-01 -5.226735770702362061e-02 -6.264796108007431030e-02 4.528473019599914551e-01
2.900000000000000000e+03 1.306680488586425781e+01 2.704566001892089844e+01 7.548266649246215820e-02 -3.942882418632507324e-01 -9.564167261123657227e-02 2.203638851642608643e-01
2.901000000000000000e+03 6.910614013671875000e+01 1.086418533325195312e+01 4.328549504280090332e-01 4.202899932861328125e+00 1.390726447105407715e+00 -1.059904098510742188e+00
2.902000000000000000e+03 6.784293365478515625e+01 1.028451347351074219e+01 4.975231289863586426e-01 3.736067056655883789e+00 1.270077109336853027e+00 -1.063793778419494629e+00
2.903000000000000000e+03 4.085376358032226562e+01 -8.605764389038085938e+00 -6.888872385025024414e-01 2.029216140508651733e-01 -1.457896828651428223e-01 1.872145682573318481e-01
2.904000000000000000e+03 3.510896682739257812e+01 8.325222969055175781e+00 -1.217187196016311646e-01 2.039477229118347168e-01 2.466870099306106567e-02 5.640515089035034180e-01
2.905000000000000000e+03 5.732685852050781250e+01 -7.309514880180358887e-01 -7.102859020233154297e-01 4.508972167968750000e-01 -7.781661301851272583e-02 3.249377608299255371e-01
2.906000000000000000e+03 3.578142929077148438e+01 6.736441612243652344e+00 -1.868690699338912964e-01 2.179248780012130737e-01 9.316742420196533203e-03 5.137913823127746582e-01
2.907000000000000000e+03 4.251315689086914062e+01 1.387021183967590332e+00 -4.114361703395843506e-01 1.806042194366455078e-01 -6.924957782030105591e-02 3.113324642181396484e-01
2.908000000000000000e+03 4.271146392822265625e+01 -5.070991516113281250e+00 -6.836359500885009766e-01 2.310155481100082397e-01 -1.357861161231994629e-01 2.695138156414031982e-01
2.909000000000000000e+03 6.942807006835937500e+01 2.176598548889160156e+01 2.685970962047576904e-01 4.262396812438964844e+00 1.359298229217529297e+00 -6.079919934272766113e-01
2.910000000000000000e+03 6.283278656005859375e+01 1.003081035614013672e+01 6.372351646423339844e-01 2.365511178970336914e+00 9.008239507675170898e-01 -6.798518896102905273e-01
2.911000000000000000e+03 6.822947692871093750e+01 1.217930507659912109e+01 4.763170182704925537e-01 3.937384605407714844e+00 1.324110507965087891e+00 -9.802539944648742676e-01
2.912000000000000000e+03 3.293843460083007812e+01 1.195131492614746094e+01 -6.352033466100692749e-02 8.101527392864227295e-02 5.248480476438999176e-03 5.691856741905212402e-01
2.913000000000000000e+03 6.432717895507812500e+01 -1.141189575195312500e+00 -4.457298219203948975e-01 7.179970145225524902e-01 8.168014883995056152e-02 -9.076810479164123535e-01
2.914000000000000000e+03 6.470864105224609375e+01 1.393751651048660278e-01 -1.486016511917114258e-01 1.218261361122131348e+00 3.208979070186614990e-01 -1.004122376441955566e+00
2.915000000000000000e+03 6.954383850097656250e+01 1.751314735412597656e+01 3.358709216117858887e-01 4.324603557586669922e+00 1.398142337799072266e+00 -7.556977868080139160e-01
2.916000000000000000e+03 6.830635070800781250e+01 1.849961853027343750e+01 3.594837486743927002e-01 4.058092117309570312e+00 1.325272679328918457e+00 -7.219446897506713867e-01
2.917000000000000000e+03 6.501164245605468750e+01 2.935196399688720703e+00 2.579610049724578857e-01 1.971487879753112793e+00 6.688346266746520996e-01 -1.031065583229064941e+00
2.918000000000000000e+03 5.824083709716796875e+01 -7.913922071456909180e-01 -7.036912441253662109e-01 4.315508604049682617e-01 -8.164212107658386230e-02 2.651667296886444092e-01
2.919000000000000000e+03 1.598550605773925781e+01 2.393756866455078125e+01 1.124788299202919006e-01 -1.826785802841186523e-01 -2.105992659926414490e-02 3.456655740737915039e-01
2.920000000000000000e+03 1.282845497131347656e+01 2.528674507141113281e+01 8.774345368146896362e-02 -3.603465557098388672e-01 -8.178093284368515015e-02 2.281631827354431152e-01
2.921000000000000000e+03 1.833465576171875000e+01 2.347419548034667969e+01 1.464674025774002075e-01 -1.381656974554061890e-01 2.490507438778877258e-03 4.522300958633422852e-01
2.922000000000000000e+03 5.015335845947265625e+01 -3.925087928771972656e+00 -9.132025837898254395e-01 3.211329281330108643e-01 -1.776209026575088501e-01 3.639644682407379150e-01
2.923000000000000000e+03 7.196657562255859375e+01 3.014159393310546875e+01 1.201656684279441833e-01 4.552127361297607422e+00 1.401687979698181152e+00 -3.070143163204193115e-01
2.924000000000000000e+03 9.395201683044433594e+00 1.908771514892578125e+01 2.356770485639572144e-01 -5.336803793907165527e-01 -8.940100669860839844e-02 2.485622465610504150e-01
2.925000000000000000e+03 1.955111885070800781e+01 2.463984298706054688e+01 1.854703277349472046e-01 -2.139040380716323853e-01 -8.530113846063613892e-03 4.638234972953796387e-01
2.926000000000000000e+03 1.831948280334472656e+01 2.582419586181640625e+01 1.565626412630081177e-01 -2.256129980087280273e-01 -2.071510627865791321e-02 3.935763239860534668e-01
2.927000000000000000e+03 2.437184333801269531e+01 2.448642730712890625e+01 3.351968824863433838e-01 -3.138274252414703369e-01 6.410838104784488678e-03 4.180046319961547852e-01
2.928000000000000000e+03 2.857013893127441406e+01 1.979072570800781250e+01 2.182470858097076416e-01 -3.004218637943267822e-01 -2.465243265032768250e-02 2.576511204242706299e-01
2.929000000000000000e+03 2.337961769104003906e+01 2.588282203674316406e+01 3.164813220500946045e-01 -2.806484401226043701e-01 1.074986625462770462e-02 4.088928699493408203e-01
2.930000000000000000e+03 2.553012657165527344e+01 2.355539894104003906e+01 3.505368828773498535e-01 -3.238450586795806885e-01 8.007551543414592743e-03 3.844294548034667969e-01
2.931000000000000000e+03 5.848775482177734375e+01 2.111864662170410156e+01 4.561594724655151367e-01 2.267845630645751953e+00 8.172015547752380371e-01 -5.328688621520996094e-01
2.932000000000000000e+03 3.684366607666015625e+01 1.977458953857421875e+00 -3.692829012870788574e-01 1.981604993343353271e-01 -5.133672431111335754e-02 3.517745733261108398e-01
2.933000000000000000e+03 3.310832595825195312e+01 1.577361488342285156e+01 6.653969734907150269e-02 9.113372117280960083e-02 4.730202630162239075e-02 3.728694617748260498e-01
2.934000000000000000e+03 4.587826156616210938e+01 -5.512411594390869141e+00 -7.953370809555053711e-01 2.532009780406951904e-01 -1.626408249139785767e-01 2.650516033172607422e-01
2.935000000000000000e+03 4.833512115478515625e+01 -3.747084617614746094e+00 -8.056754469871520996e-01 2.809626162052154541e-01 -1.574138402938842773e-01 3.622872829437255859e-01
2.936000000000000000e+03 5.856050491333007812e+01 4.478341042995452881e-01 -3.990586996078491211e-01 5.371528267860412598e-01 4.142823815345764160e-02 1.959056556224822998e-01
2.937000000000000000e+03 3.935012817382812500e+01 1.527150988578796387e+00 -4.197019040584564209e-01 2.241367995738983154e-01 -5.866953358054161072e-02 3.269886374473571777e-01
2.938000000000000000e+03 5.360244369506835938e+01 -2.007432937622070312e+00 -8.702942132949829102e-01 4.052310287952423096e-01 -1.395189613103866577e-01 4.343258440494537354e-01
2.939000000000000000e+03 3.617441177368164062e+01 8.076992034912109375e+00 -1.430466026067733765e-01 2.622419297695159912e-01 3.575859963893890381e-02 5.555101633071899414e-01
2.940000000000000000e+03 3.521152496337890625e+01 9.378176689147949219e+00 -8.823575079441070557e-02 2.264607995748519897e-01 4.146751388907432556e-02 5.842003822326660156e-01
2.941000000000000000e+03 6.422392272949218750e+01 1.778919410705566406e+01 4.991376399993896484e-01 3.163812875747680664e+00 1.098885178565979004e+00 -6.622952818870544434e-01
2.942000000000000000e+03 7.108016204833984375e+01 4.887149333953857422e-01 -5.405234694480895996e-01 5.303892135620117188e+00 1.429010629653930664e+00 -1.631865739822387695e+00
2.943000000000000000e+03 3.342945098876953125e+01 6.238205432891845703e+00 -1.130813062191009521e-01 7.536132633686065674e-02 -1.131599210202693939e-02 5.248273015022277832e-01
2.944000000000000000e+03 4.386273193359375000e+01 -7.817879199981689453e+00 -7.833454608917236328e-01 2.300794869661331177e-01 -1.659797877073287964e-01 1.845196485519409180e-01
2.945000000000000000e+03 4.623406982421875000e+01 -6.834044933319091797e+00 -8.617338538169860840e-01 2.548576593399047852e-01 -1.820628643035888672e-01 2.069287896156311035e-01
2.946000000000000000e+03 4.432247543334960938e+01 -3.856082856655120850e-01 -4.775751829147338867e-01 1.744436472654342651e-01 -9.093946218490600586e-02 3.488398194313049316e-01
2.947000000000000000e+03 1.329598045349121094e+01 2.913454818725585938e+01 7.750126719474792480e-02 -4.311685562133789062e-01 -1.061001867055892944e-01 2.044258713722229004e-01
2.948000000000000000e+03 4.869204330444335938e+01 -1.865615129470825195e+00 -6.522223353385925293e-01 2.634447813034057617e-01 -1.166332587599754333e-01 4.439702033996582031e-01
2.949000000000000000e+03 6.449056243896484375e+01 1.381810951232910156e+01 5.854244828224182129e-01 3.055338144302368164e+00 1.092228770256042480e+00 -7.552404403686523438e-01
2.950000000000000000e+03 6.614335632324218750e+01 1.624174499511718750e+01 4.989753067493438721e-01 3.478251934051513672e+00 1.193168163299560547e+00 -7.642443180084228516e-01
2.951000000000000000e+03 9.231787681579589844e+00 2.102634620666503906e+01 1.684426963329315186e-01 -5.374702811241149902e-01 -1.107082739472389221e-01 1.980663239955902100e-01
2.952000000000000000e+03 7.166450500488281250e+01 -8.020520210266113281e+00 -1.133824110031127930e+00 8.256057739257812500e+00 2.136670112609863281e+00 -2.650999784469604492e+00
2.953000000000000000e+03 7.209470367431640625e+01 -7.108571052551269531e+00 -1.791310191154479980e+00 8.975975990295410156e+00 2.155399560928344727e+00 -2.022842407226562500e+00
2.954000000000000000e+03 7.405422210693359375e+01 -7.323167800903320312e+00 -2.158027887344360352e+00 1.174257469177246094e+01 2.875364065170288086e+00 -1.036535669118165970e-02
2.955000000000000000e+03 7.336901092529296875e+01 -8.190251350402832031e+00 -1.950490713119506836e+00 1.201290798187255859e+01 3.018725156784057617e+00 -1.105850934982299805e+00
2.956000000000000000e+03 7.257456207275390625e+01 -1.712149810791015625e+01 -1.352475643157958984e+00 1.001241207122802734e+01 2.597980976104736328e+00 1.613041281700134277e+00
2.957000000000000000e+03 7.402249908447265625e+01 -1.558955955505371094e+01 -1.371752738952636719e+00 1.409889602661132812e+01 3.818142890930175781e+00 -2.214987576007843018e-01
2.958000000000000000e+03 7.314045715332031250e+01 -9.117432594299316406e+00 -1.466713070869445801e+00 1.359068489074707031e+01 3.637191534042358398e+00 -1.855532288551330566e+00
2.959000000000000000e+03 7.157752990722656250e+01 -8.448766708374023438e+00 -7.505124807357788086e-01 8.018661499023437500e+00 2.180444717407226562e+00 -2.906653642654418945e+00
2.960000000000000000e+03 7.366650390625000000e+01 -8.290155410766601562e+00 -2.017499208450317383e+00 1.288065910339355469e+01 3.258948087692260742e+00 -6.106724143028259277e-01
2.961000000000000000e+03 7.336882781982421875e+01 -7.826655864715576172e+00 -2.025988817214965820e+00 1.165464305877685547e+01 2.888596296310424805e+00 -1.026944994926452637e+00
2.962000000000000000e+03 7.320417785644531250e+01 -1.652146720886230469e+01 -1.545117378234863281e+00 1.175963115692138672e+01 3.064354181289672852e+00 1.207311987876892090e+00
2.963000000000000000e+03 7.289939117431640625e+01 -4.401342868804931641e+00 -1.859673500061035156e+00 8.347981452941894531e+00 1.946492552757263184e+00 -1.137111425399780273e+00
2.964000000000000000e+03 7.300862884521484375e+01 -5.881676673889160156e+00 -2.090357780456542969e+00 9.310147285461425781e+00 2.165936946868896484e+00 -1.153735160827636719e+00
2.965000000000000000e+03 7.251491546630859375e+01 -5.021437168121337891e+00 -1.964649677276611328e+00 8.293515205383300781e+00 1.898659586906433105e+00 -1.344503998756408691e+00
2.966000000000000000e+03 3.152740478515625000e+01 -9.641122817993164062e+00 -5.285453200340270996e-01 6.785605102777481079e-02 -1.382067799568176270e-01 2.952695488929748535e-01
2.967000000000000000e+03 3.015451240539550781e+01 -6.850942611694335938e+00 -5.944084525108337402e-01 7.311413437128067017e-02 -1.563882976770401001e-01 3.280540704727172852e-01
2.968000000000000000e+03 2.843434333801269531e+01 -2.709144353866577148e+00 -5.685967206954956055e-01 7.950307428836822510e-02 -1.467280983924865723e-01 2.689700126647949219e-01
2.969000000000000000e+03 7.146911621093750000e+01 -5.480962753295898438e+00 -1.865374684333801270e+00 7.157693862915039062e+00 1.587695717811584473e+00 -1.886939167976379395e+00
2.970000000000000000e+03 7.112324523925781250e+01 -6.199927330017089844e+00 -1.727753400802612305e+00 6.839918136596679688e+00 1.533649444580078125e+00 -2.075313091278076172e+00
2.971000000000000000e+03 6.999940490722656250e+01 -1.864244580268859863e+00 -1.063998222351074219e+00 4.678062438964843750e+00 1.084219217300415039e+00 -1.944159269332885742e+00
2.972000000000000000e+03 2.808835983276367188e+01 -3.852721691131591797e+00 -6.241224408149719238e-01 5.177775025367736816e-02 -1.717033982276916504e-01 3.070562183856964111e-01
2.973000000000000000e+03 2.896668052673339844e+01 -1.541519641876220703e+00 -4.906454384326934814e-01 8.998750150203704834e-02 -1.201973780989646912e-01 2.410049736499786377e-01
2.974000000000000000e+03 3.032157516479492188e+01 -5.753596305847167969e+00 -6.016386151313781738e-01 9.764361381530761719e-02 -1.511985063552856445e-01 3.132845461368560791e-01
2.975000000000000000e+03 3.505109405517578125e+01 -1.038344383239746094e+01 -5.596432685852050781e-01 1.305733770132064819e-01 -1.287209689617156982e-01 2.290557026863098145e-01
2.976000000000000000e+03 3.343628311157226562e+01 -9.808521270751953125e+00 -5.465092658996582031e-01 1.102384179830551147e-01 -1.308812648057937622e-01 2.627193033695220947e-01
2.977000000000000000e+03 3.166449165344238281e+01 -8.472687721252441406e+00 -5.611400604248046875e-01 9.202737361192703247e-02 -1.407338082790374756e-01 3.015542030334472656e-01
2.978000000000000000e+03 3.133848571777343750e+01 -7.839011192321777344e+00 -5.722256302833557129e-01 9.460269659757614136e-02 -1.432868838310241699e-01 3.103568851947784424e-01
2.979000000000000000e+03 2.728803443908691406e+01 -9.433433413505554199e-03 -3.979831635951995850e-01 6.975319236516952515e-02 -9.846898913383483887e-02 2.004948407411575317e-01
2.980000000000000000e+03 3.074506568908691406e+01 -6.471609115600585938e+00 -5.936909317970275879e-01 1.018912121653556824e-01 -1.475399285554885864e-01 3.153027296066284180e-01
2.981000000000000000e+03 5.997293853759765625e+01 3.525947809219360352e+00 2.118392884731292725e-01 1.020601868629455566e+00 3.697323501110076904e-01 -1.691169738769531250e-01
2.982000000000000000e+03 6.106636047363281250e+01 -2.674634456634521484e-01 -3.984316885471343994e-01 4.571994245052337646e-01 1.763031445443630219e-02 -1.149102598428726196e-01
2.983000000000000000e+03 6.750650024414062500e+01 1.422905564308166504e+00 -7.006278634071350098e-02 2.942252635955810547e+00 8.616569042205810547e-01 -1.534646868705749512e+00
2.984000000000000000e+03 6.807094573974609375e+01 2.606298685073852539e+00 3.587227314710617065e-02 3.376869201660156250e+00 1.023822426795959473e+00 -1.509930491447448730e+00
2.985000000000000000e+03 3.164324951171875000e+01 1.233638763427734375e+01 -1.293324828147888184e-01 1.266164332628250122e-02 -3.500125184655189514e-02 5.534520149230957031e-01
2.986000000000000000e+03 2.817056846618652344e+01 3.333385288715362549e-01 -3.435878455638885498e-01 6.023197248578071594e-02 -8.500675857067108154e-02 1.980307251214981079e-01
2.987000000000000000e+03 3.272085952758789062e+01 -9.459781646728515625e+00 -5.485038757324218750e-01 1.016625985503196716e-01 -1.340523809194564819e-01 2.783141434192657471e-01
2.988000000000000000e+03 6.925895690917968750e+01 -7.839121818542480469e-01 -6.722089052200317383e-01 4.012317657470703125e+00 1.002032637596130371e+00 -1.842456579208374023e+00
2.989000000000000000e+03 6.675992584228515625e+01 4.930022954940795898e-01 -1.698824465274810791e-01 2.330518960952758789e+00 6.481909751892089844e-01 -1.492161393165588379e+00
2.990000000000000000e+03 6.675792694091796875e+01 9.582069396972656250e+00 5.393291711807250977e-01 3.326481342315673828e+00 1.159743189811706543e+00 -1.044177532196044922e+00
2.991000000000000000e+03 6.089979934692382812e+01 1.659915328025817871e+00 -1.362442784011363983e-02 7.953286170959472656e-01 2.345112562179565430e-01 -2.423367351293563843e-01
2.992000000000000000e+03 6.322208786010742188e+01 2.153291702270507812e+00 1.628985404968261719e-01 1.309195160865783691e+00 4.416281282901763916e-01 -6.838634610176086426e-01
2.993000000000000000e+03 3.775212097167968750e+01 -8.764966011047363281e+00 -6.245262622833251953e-01 1.822427511215209961e-01 -1.326850503683090210e-01 2.187555879354476929e-01
2.994000000000000000e+03 3.711016464233398438e+01 -9.848649024963378906e+00 -6.030017137527465820e-01 1.627377718687057495e-01 -1.320791840553283691e-01 2.083392292261123657e-01
2.995000000000000000e+03 3.619171142578125000e+01 -9.540497779846191406e+00 -5.944529175758361816e-01 1.593473106622695923e-01 -1.305316835641860962e-01 2.259516566991806030e-01
2.996000000000000000e+03 6.952391052246093750e+01 1.293569850921630859e+01 4.168111085891723633e-01 4.304610729217529297e+00 1.416426539421081543e+00 -9.557588100433349609e-01
2.997000000000000000e+03 6.615900421142578125e+01 1.237141418457031250e+01 5.684787631034851074e-01 3.350971937179565430e+00 1.175835251808166504e+00 -8.987942337989807129e-01
2.998000000000000000e+03 6.577690124511718750e+01 1.325874805450439453e+00 3.172633424401283264e-02 2.027929544448852539e+00 6.178967356681823730e-01 -1.249715685844421387e+00
2.999000000000000000e+03 2.908836936950683594e+01 6.805922985076904297e-01 -3.034498691558837891e-01 5.767076089978218079e-02 -7.373373955488204956e-02 2.221398949623107910e-01
3.000000000000000000e+03 3.005416297912597656e+01 1.025195598602294922e+00 -2.773089110851287842e-01 5.625880137085914612e-02 -6.631503254175186157e-02 2.435255348682403564e-01
3.001000000000000000e+03 4.052941513061523438e+01 -7.854660511016845703e+00 -6.825834512710571289e-01 2.106354832649230957e-01 -1.415843963623046875e-01 2.097484916448593140e-01
3.002000000000000000e+03 4.087398529052734375e+01 7.473766207695007324e-01 -4.459516406059265137e-01 2.057874053716659546e-01 -7.204927504062652588e-02 3.154166638851165771e-01
3.003000000000000000e+03 2.928058242797851562e+01 -2.484555482864379883e+00 -5.392016768455505371e-01 9.940040111541748047e-02 -1.319403797388076782e-01 2.643922865390777588e-01
3.004000000000000000e+03 3.964225006103515625e+01 2.289552927017211914e+00 -3.989122509956359863e-01 2.380546480417251587e-01 -4.825727641582489014e-02 3.293340206146240234e-01
3.005000000000000000e+03 6.956544494628906250e+01 1.058671355247497559e+00 -2.979736626148223877e-01 4.176761627197265625e+00 1.163636326789855957e+00 -1.681504964828491211e+00
3.006000000000000000e+03 3.800574874877929688e+01 1.613204956054687500e+00 -4.016025662422180176e-01 2.142117768526077271e-01 -5.621723458170890808e-02 3.368081748485565186e-01
3.007000000000000000e+03 3.881345367431640625e+01 2.595587015151977539e+00 -3.852610886096954346e-01 2.336988747119903564e-01 -4.546866193413734436e-02 3.453846275806427002e-01
3.008000000000000000e+03 7.166836547851562500e+01 -3.003795742988586426e-01 -7.298275828361511230e-01 5.855747222900390625e+00 1.537775874137878418e+00 -1.552310824394226074e+00
3.009000000000000000e+03 7.051511383056640625e+01 2.483748435974121094e+00 -1.411651372909545898e-01 4.780065536499023438e+00 1.391670107841491699e+00 -1.574273109436035156e+00
3.010000000000000000e+03 6.952544403076171875e+01 3.614014863967895508e+00 8.231253921985626221e-02 4.171907901763916016e+00 1.276266098022460938e+00 -1.505148291587829590e+00
3.011000000000000000e+03 3.435270309448242188e+01 8.926594734191894531e+00 -8.533708751201629639e-02 1.648539155721664429e-01 2.385504730045795441e-02 5.900371074676513672e-01
3.012000000000000000e+03 3.483750152587890625e+01 1.063904380798339844e+01 -4.246423393487930298e-02 2.049912214279174805e-01 4.875809699296951294e-02 5.838948488235473633e-01
3.013000000000000000e+03 5.571159362792968750e+01 -2.296779394149780273e+00 -1.032942533493041992e+00 3.841461241245269775e-01 -1.946389377117156982e-01 3.757795691490173340e-01
3.014000000000000000e+03 5.299549865722656250e+01 -3.706439733505249023e+00 -1.086808562278747559e+00 3.780140876770019531e-01 -2.126383334398269653e-01 3.577894568443298340e-01
3.015000000000000000e+03 5.237840652465820312e+01 -2.591840505599975586e+00 -8.890575170516967773e-01 3.680883049964904785e-01 -1.562907695770263672e-01 4.321624040603637695e-01
3.016000000000000000e+03 4.177239990234375000e+01 2.389951944351196289e-01 -4.619467556476593018e-01 1.972579061985015869e-01 -7.940665632486343384e-02 3.177275061607360840e-01
3.017000000000000000e+03 4.372070312500000000e+01 -3.748783111572265625e+00 -6.533308625221252441e-01 2.286255955696105957e-01 -1.274115741252899170e-01 3.092474937438964844e-01
3.018000000000000000e+03 4.494240951538085938e+01 -7.286188602447509766e+00 -8.090598583221435547e-01 2.385877519845962524e-01 -1.711416244506835938e-01 1.939903795719146729e-01
3.019000000000000000e+03 4.475333404541015625e+01 -3.159224033355712891e+00 -6.417604684829711914e-01 2.233822345733642578e-01 -1.255134791135787964e-01 3.309768736362457275e-01
3.020000000000000000e+03 5.124605178833007812e+01 -3.239412784576416016e+00 -9.138720631599426270e-01 3.496853709220886230e-01 -1.692560017108917236e-01 4.001835882663726807e-01
3.021000000000000000e+03 3.738510513305664062e+01 3.376806735992431641e+00 -3.409145176410675049e-01 2.272114902734756470e-01 -3.411091119050979614e-02 3.783662021160125732e-01
3.022000000000000000e+03 1.135881710052490234e+01 2.350092124938964844e+01 1.087533608078956604e-01 -4.090383648872375488e-01 -9.008549898862838745e-02 1.988120973110198975e-01
3.023000000000000000e+03 3.530297851562500000e+01 -9.451507568359375000e+00 -5.784304738044738770e-01 1.465947479009628296e-01 -1.295507252216339111e-01 2.403897047042846680e-01
3.024000000000000000e+03 3.064761734008789062e+01 2.430226325988769531e+00 -1.703506410121917725e-01 2.312468551099300385e-02 -4.416778683662414551e-02 2.876179516315460205e-01
3.025000000000000000e+03 6.326718902587890625e+01 7.632004737854003906e+00 5.852645635604858398e-01 2.167094707489013672e+00 8.257077932357788086e-01 -7.419188618659973145e-01
3.026000000000000000e+03 6.878924560546875000e+01 1.567380142211914062e+01 3.959921598434448242e-01 4.146857738494873047e+00 1.362854957580566406e+00 -8.302195668220520020e-01
3.027000000000000000e+03 4.581494522094726562e+01 -2.419006586074829102e+00 -6.218765974044799805e-01 2.202521711587905884e-01 -1.204873248934745789e-01 3.644259870052337646e-01
3.028000000000000000e+03 4.686534118652343750e+01 -1.608999133110046387e+00 -5.788242220878601074e-01 2.122624218463897705e-01 -1.099685356020927429e-01 4.077305793762207031e-01
3.029000000000000000e+03 6.586072540283203125e+01 1.351290512084960938e+01 5.634448528289794922e-01 3.309322595596313477e+00 1.161830186843872070e+00 -8.403089046478271484e-01
3.030000000000000000e+03 6.792287445068359375e+01 2.100102996826171875e+01 3.210347890853881836e-01 3.977969884872436523e+00 1.289701461791992188e+00 -6.344078779220581055e-01
3.031000000000000000e+03 6.919637298583984375e+01 1.945530509948730469e+01 3.131576180458068848e-01 4.242772579193115234e+00 1.366778969764709473e+00 -6.905602216720581055e-01
3.032000000000000000e+03 4.719517135620117188e+01 -4.699924945831298828e+00 -8.204550743103027344e-01 2.686108648777008057e-01 -1.655532568693161011e-01 3.035359978675842285e-01
3.033000000000000000e+03 3.456809234619140625e+01 1.905856895446777344e+01 2.642877399921417236e-01 1.921938359737396240e-01 1.369444727897644043e-01 2.403783500194549561e-01
3.034000000000000000e+03 6.609341430664062500e+01 1.481728267669677734e+01 5.283745527267456055e-01 3.410341739654541016e+00 1.181614875793457031e+00 -8.058683872222900391e-01
3.035000000000000000e+03 3.189378547668457031e+01 1.638017082214355469e+01 3.868579864501953125e-02 -9.965591132640838623e-03 8.616061881184577942e-03 3.231506049633026123e-01
3.036000000000000000e+03 3.148460197448730469e+01 1.811181449890136719e+01 1.221469491720199585e-01 -6.085939332842826843e-02 1.838626712560653687e-02 2.615804672241210938e-01
3.037000000000000000e+03 6.106942367553710938e+01 6.099581718444824219e+00 4.845933318138122559e-01 1.566293358802795410e+00 6.152660250663757324e-01 -4.117449223995208740e-01
3.038000000000000000e+03 5.686326980590820312e+01 2.054482841491699219e+01 4.176133573055267334e-01 2.002632379531860352e+00 7.260737419128417969e-01 -5.017092227935791016e-01
3.039000000000000000e+03 6.969261169433593750e+01 2.739312934875488281e+01 1.914644837379455566e-01 4.238962650299072266e+00 1.329128146171569824e+00 -4.078487753868103027e-01
3.040000000000000000e+03 6.246408843994140625e+01 5.776298046112060547e+00 4.891979098320007324e-01 1.752583146095275879e+00 6.725343465805053711e-01 -6.255166530609130859e-01
3.041000000000000000e+03 6.383644104003906250e+01 6.384770393371582031e+00 5.341348052024841309e-01 2.104589462280273438e+00 7.916172742843627930e-01 -8.249784708023071289e-01
3.042000000000000000e+03 1.542860794067382812e+01 2.888056373596191406e+01 1.092849820852279663e-01 -3.515830039978027344e-01 -7.268940657377243042e-02 2.552220523357391357e-01
3.043000000000000000e+03 6.880375671386718750e+01 4.909760475158691406e+00 2.588041722774505615e-01 3.878042221069335938e+00 1.241053938865661621e+00 -1.398543000221252441e+00
3.044000000000000000e+03 6.216949462890625000e+01 2.127315521240234375e+01 4.375219643115997314e-01 2.883070945739746094e+00 9.961778521537780762e-01 -5.567985177040100098e-01
3.045000000000000000e+03 6.485202789306640625e+01 1.505253696441650391e+01 5.544297695159912109e-01 3.189280509948730469e+00 1.123113036155700684e+00 -7.483187317848205566e-01
3.046000000000000000e+03 6.829297637939453125e+01 8.315488815307617188e+00 4.493052065372467041e-01 3.834245681762695312e+00 1.285065293312072754e+00 -1.164742469787597656e+00
3.047000000000000000e+03 7.303221130371093750e+01 -8.490460395812988281e+00 -1.719375491142272949e+00 1.224952220916748047e+01 3.159044027328491211e+00 -1.774191021919250488e+00
3.048000000000000000e+03 7.316969299316406250e+01 -7.553729534149169922e+00 -2.063620090484619141e+00 1.115622043609619141e+01 2.727780103683471680e+00 -1.260033607482910156e+00
3.049000000000000000e+03 7.285279846191406250e+01 -7.064614295959472656e+00 -2.051334619522094727e+00 1.005087375640869141e+01 2.399861812591552734e+00 -1.426882982254028320e+00
3.050000000000000000e+03 7.374533843994140625e+01 -1.656572723388671875e+01 -1.721636891365051270e+00 1.232858371734619141e+01 3.182083845138549805e+00 3.237844109535217285e-01
3.051000000000000000e+03 7.187210845947265625e+01 -7.571234703063964844e+00 -1.493822813034057617e+00 8.620697975158691406e+00 2.138062715530395508e+00 -2.371234893798828125e+00
3.052000000000000000e+03 7.212959289550781250e+01 -8.221621513366699219e+00 -1.313452124595642090e+00 9.655539512634277344e+00 2.502626419067382812e+00 -2.614574432373046875e+00
3.053000000000000000e+03 7.271316528320312500e+01 -7.851573467254638672e+00 -1.846997499465942383e+00 1.077422046661376953e+01 2.678166866302490234e+00 -1.847590446472167969e+00
3.054000000000000000e+03 3.105895614624023438e+01 -7.171312332153320312e+00 -5.848112106323242188e-01 9.569429606199264526e-02 -1.467350870370864868e-01 3.129596114158630371e-01
3.055000000000000000e+03 3.093882179260253906e+01 -5.266705989837646484e+00 -5.908747911453247070e-01 1.198536753654479980e-01 -1.413063257932662964e-01 3.015648126602172852e-01
3.056000000000000000e+03 3.275133132934570312e+01 -7.900367736816406250e+00 -5.767197608947753906e-01 1.268072128295898438e-01 -1.349737644195556641e-01 2.879294157028198242e-01
3.057000000000000000e+03 3.421701812744140625e+01 -1.011357498168945312e+01 -5.507043600082397461e-01 1.202026903629302979e-01 -1.291505098342895508e-01 2.460236996412277222e-01
3.058000000000000000e+03 2.888675498962402344e+01 -5.783068656921386719e+00 -6.185218691825866699e-01 5.535578355193138123e-02 -1.689498275518417358e-01 3.373990356922149658e-01
3.059000000000000000e+03 3.151260566711425781e+01 -4.088331222534179688e+00 -5.659057497978210449e-01 1.380985528230667114e-01 -1.283421665430068970e-01 2.867316603660583496e-01
3.060000000000000000e+03 2.874196815490722656e+01 -4.351200580596923828e+00 -6.187176704406738281e-01 7.226831465959548950e-02 -1.639348119497299194e-01 3.113560974597930908e-01
3.061000000000000000e+03 4.022867965698242188e+01 -1.791734248399734497e-01 -4.768396914005279541e-01 2.104940116405487061e-01 -7.990370690822601318e-02 3.141943514347076416e-01
3.062000000000000000e+03 3.145922279357910156e+01 2.538618445396423340e-01 -3.518777787685394287e-01 9.758480638265609741e-02 -7.628789544105529785e-02 2.719325125217437744e-01
3.063000000000000000e+03 3.107473373413085938e+01 1.350035429000854492e+00 -2.631869018077850342e-01 6.043571978807449341e-02 -6.082535535097122192e-02 2.810529172420501709e-01
3.064000000000000000e+03 3.247195816040039062e+01 -6.437285423278808594e+00 -5.867006182670593262e-01 1.369611322879791260e-01 -1.349218487739562988e-01 2.928856015205383301e-01
3.065000000000000000e+03 6.591501617431640625e+01 1.053237533569335938e+01 5.803295373916625977e-01 3.163439273834228516e+00 1.123130679130554199e+00 -9.527798295021057129e-01
3.066000000000000000e+03 3.687356567382812500e+01 -7.895691394805908203e+00 -6.112179160118103027e-01 1.826849132776260376e-01 -1.285599023103713989e-01 2.425347268581390381e-01
3.067000000000000000e+03 3.616403961181640625e+01 -8.551707267761230469e+00 -6.020380854606628418e-01 1.695708781480789185e-01 -1.297401487827301025e-01 2.412341535091400146e-01
3.068000000000000000e+03 3.211650466918945312e+01 -9.024363517761230469e+00 -5.522424578666687012e-01 9.712798893451690674e-02 -1.365343332290649414e-01 2.906775474548339844e-01
3.069000000000000000e+03 6.733507537841796875e+01 4.346743106842041016e+00 2.965844571590423584e-01 3.159244775772094727e+00 1.036748766899108887e+00 -1.317702174186706543e+00
3.070000000000000000e+03 4.137026977539062500e+01 -7.240424633026123047e+00 -6.977731585502624512e-01 2.185205519199371338e-01 -1.437757760286331177e-01 2.181773930788040161e-01
3.071000000000000000e+03 6.461110687255859375e+01 4.441399574279785156e+00 4.007036387920379639e-01 2.132206201553344727e+00 7.598729729652404785e-01 -9.774365425109863281e-01
3.072000000000000000e+03 6.448410797119140625e+01 9.998303651809692383e-01 8.381548337638378143e-03 1.381193518638610840e+00 4.168725311756134033e-01 -9.297640323638916016e-01
3.073000000000000000e+03 2.859501838684082031e+01 -5.982972979545593262e-01 -4.261435866355895996e-01 7.913912087678909302e-02 -1.041013374924659729e-01 2.242080271244049072e-01
3.074000000000000000e+03 2.770967483520507812e+01 -9.020904302597045898e-01 -4.703562557697296143e-01 6.909652799367904663e-02 -1.203779205679893494e-01 2.199112325906753540e-01
3.075000000000000000e+03 6.903442382812500000e+01 6.976950168609619141e+00 3.671599030494689941e-01 4.043390274047851562e+00 1.323165059089660645e+00 -1.270504713058471680e+00
3.076000000000000000e+03 3.183737945556640625e+01 2.781878232955932617e+00 -1.816595643758773804e-01 3.867864608764648438e-02 -4.289427399635314941e-02 3.381928205490112305e-01
3.077000000000000000e+03 3.409291839599609375e+01 4.966898918151855469e+00 -1.710676103830337524e-01 1.121811419725418091e-01 -1.766593940556049347e-02 4.626932740211486816e-01
3.078000000000000000e+03 4.649308776855468750e+01 -3.541207313537597656e+00 -7.108402252197265625e-01 2.451866865158081055e-01 -1.396960616111755371e-01 3.466677367687225342e-01
3.079000000000000000e+03 1.183478546142578125e+01 2.052771186828613281e+01 2.193482816219329834e-01 -3.299433588981628418e-01 -3.317851945757865906e-02 2.025909870862960815e-01
3.080000000000000000e+03 4.261901092529296875e+01 -4.542102217674255371e-01 -4.878850877285003662e-01 1.942385584115982056e-01 -8.809395879507064819e-02 3.239257037639617920e-01
3.081000000000000000e+03 4.161867523193359375e+01 -4.901069164276123047e+00 -6.518773436546325684e-01 2.260497957468032837e-01 -1.277482658624649048e-01 2.690773010253906250e-01
3.082000000000000000e+03 4.338840484619140625e+01 -1.272888064384460449e+00 -5.255529880523681641e-01 1.962048262357711792e-01 -9.880445152521133423e-02 3.347271084785461426e-01
3.083000000000000000e+03 6.714208221435546875e+01 1.317803001403808594e+01 5.142879486083984375e-01 3.679574251174926758e+00 1.258158683776855469e+00 -9.113023877143859863e-01
3.084000000000000000e+03 3.266578674316406250e+01 4.403660297393798828e+00 -1.270443201065063477e-01 3.781023249030113220e-02 -2.677022852003574371e-02 4.307536184787750244e-01
3.085000000000000000e+03 3.585190582275390625e+01 4.021149635314941406e+00 -2.760371863842010498e-01 1.892865598201751709e-01 -2.602518908679485321e-02 4.172768294811248779e-01
3.086000000000000000e+03 6.246823883056640625e+01 4.679338932037353516e+00 4.128111302852630615e-01 1.624897956848144531e+00 6.113127470016479492e-01 -6.011484861373901367e-01
3.087000000000000000e+03 6.424238586425781250e+01 7.106266975402832031e+00 5.675666928291320801e-01 2.377337217330932617e+00 8.834711909294128418e-01 -8.666211962699890137e-01
3.088000000000000000e+03 3.336080169677734375e+01 1.728158354759216309e+00 -2.965359091758728027e-01 1.117038428783416748e-01 -5.544961988925933838e-02 3.365734815597534180e-01
3.089000000000000000e+03 5.919129562377929688e+01 2.439609527587890625e+00 2.764874137938022614e-02 8.247838616371154785e-01 2.557297646999359131e-01 -1.598646340426057577e-04
3.090000000000000000e+03 6.156420898437500000e+01 1.192036151885986328e+00 -4.361879825592041016e-02 8.136447072029113770e-01 2.310077846050262451e-01 -3.065458834171295166e-01
3.091000000000000000e+03 6.497389984130859375e+01 7.864719390869140625e+00 5.590831637382507324e-01 2.656324148178100586e+00 9.646221995353698730e-01 -9.212803840637207031e-01
3.092000000000000000e+03 6.394331359863281250e+01 8.603507041931152344e+00 6.074990034103393555e-01 2.461326122283935547e+00 9.206475019454956055e-01 -8.031081557273864746e-01
3.093000000000000000e+03 1.393148326873779297e+01 2.372238922119140625e+01 1.041869521141052246e-01 -2.492437809705734253e-01 -4.351704940199851990e-02 2.681282758712768555e-01
3.094000000000000000e+03 1.453947925567626953e+01 2.497070693969726562e+01 9.902039170265197754e-02 -2.718301713466644287e-01 -5.184293538331985474e-02 2.804363071918487549e-01
3.095000000000000000e+03 3.629320144653320312e+01 2.898728609085083008e+00 -3.264799416065216064e-01 1.925930678844451904e-01 -4.016606137156486511e-02 3.812334537506103516e-01
3.096000000000000000e+03 6.499745941162109375e+01 1.160446548461914062e+01 6.056511402130126953e-01 3.013018131256103516e+00 1.085600852966308594e+00 -8.419830799102783203e-01
3.097000000000000000e+03 6.849962615966796875e+01 3.867185413837432861e-01 -3.436873257160186768e-01 3.484688043594360352e+00 9.423002600669860840e-01 -1.722160816192626953e+00
3.098000000000000000e+03 5.787701797485351562e+01 1.813306808471679688e+01 4.657538831233978271e-01 2.169685602188110352e+00 7.906318902969360352e-01 -5.166999101638793945e-01
3.099000000000000000e+03 6.499519348144531250e+01 2.107539558410644531e+01 4.040739238262176514e-01 3.397543191909790039e+00 1.140485167503356934e+00 -6.219983696937561035e-01
3.100000000000000000e+03 6.754131317138671875e+01 1.592478466033935547e+01 4.380349218845367432e-01 3.833494186401367188e+00 1.281458735466003418e+00 -7.900302410125732422e-01
3.101000000000000000e+03 6.750713348388671875e+01 1.447235488891601562e+01 4.799286425113677979e-01 3.779290914535522461e+00 1.277765870094299316e+00 -8.708325624465942383e-01
3.102000000000000000e+03 6.778780364990234375e+01 7.262269020080566406e+00 4.436323642730712891e-01 3.592677116394042969e+00 1.210892796516418457e+00 -1.203240394592285156e+00
3.103000000000000000e+03 1.207115650177001953e+01 2.231149101257324219e+01 1.448981761932373047e-01 -3.340891897678375244e-01 -5.675730481743812561e-02 2.119542360305786133e-01
3.104000000000000000e+03 3.319901275634765625e+01 1.845141983032226562e+01 2.054311335086822510e-01 8.185195922851562500e-02 8.618492633104324341e-02 2.618528008460998535e-01
3.105000000000000000e+03 1.746993446350097656e+01 2.827837562561035156e+01 1.397935003042221069e-01 -2.928846776485443115e-01 -4.592735320329666138e-02 3.096967935562133789e-01
3.106000000000000000e+03 3.977938461303710938e+01 -5.721478462219238281e+00 -6.353561878204345703e-01 2.168837785720825195e-01 -1.255417168140411377e-01 2.589482665061950684e-01
3.107000000000000000e+03 6.272080612182617188e+01 7.592097520828247070e-01 -8.052859455347061157e-02 9.410987496376037598e-01 2.581710517406463623e-01 -5.507678985595703125e-01
3.108000000000000000e+03 3.067124366760253906e+01 1.893000984191894531e+01 1.843180656433105469e-01 -1.422104537487030029e-01 1.263228338211774826e-02 2.423593848943710327e-01
3.109000000000000000e+03 5.641723251342773438e+01 2.204564476013183594e+01 4.635624885559082031e-01 1.909623265266418457e+00 7.119557261466979980e-01 -5.274669528007507324e-01
3.110000000000000000e+03 4.444059371948242188e+01 -6.122432708740234375e+00 -7.618536949157714844e-01 2.411064356565475464e-01 -1.562241762876510620e-01 2.404231280088424683e-01
3.111000000000000000e+03 6.330105972290039062e+01 1.962692832946777344e+01 4.514893293380737305e-01 3.047975063323974609e+00 1.049839258193969727e+00 -5.922207236289978027e-01
3.112000000000000000e+03 3.956797409057617188e+01 -1.011711120605468750e+00 -5.052416920661926270e-01 2.131535559892654419e-01 -8.762643486261367798e-02 3.116950094699859619e-01
3.113000000000000000e+03 2.201013755798339844e+01 2.463397407531738281e+01 2.727858424186706543e-01 -2.831251919269561768e-01 -3.101805690675973892e-03 4.705056250095367432e-01
3.114000000000000000e+03 6.674949645996093750e+01 7.913208007812500000e+00 5.134407281875610352e-01 3.213825702667236328e+00 1.118179917335510254e+00 -1.111374020576477051e+00
3.115000000000000000e+03 6.748047637939453125e+01 8.766894340515136719e+00 4.983941316604614258e-01 3.528764724731445312e+00 1.208147644996643066e+00 -1.121616840362548828e+00
3.116000000000000000e+03 7.338275909423828125e+01 -8.531269073486328125e+00 -1.853595018386840820e+00 1.292085170745849609e+01 3.320177078247070312e+00 -1.141741633415222168e+00
3.117000000000000000e+03 7.230965423583984375e+01 -7.765297412872314453e+00 -1.624022126197814941e+00 9.737119674682617188e+00 2.433929204940795898e+00 -2.244416952133178711e+00
3.118000000000000000e+03 7.332767486572265625e+01 -7.165979385375976562e+00 -2.165690660476684570e+00 1.086964797973632812e+01 2.611187219619750977e+00 -9.249183535575866699e-01
3.119000000000000000e+03 7.307344055175781250e+01 -8.181269645690917969e+00 -1.953927516937255859e+00 1.177638053894042969e+01 2.946736097335815430e+00 -1.425890564918518066e+00
3.120000000000000000e+03 2.964334487915039062e+01 -5.445659637451171875e+00 -6.098192930221557617e-01 8.420653641223907471e-02 -1.576838344335556030e-01 3.183884620666503906e-01
3.121000000000000000e+03 3.172478675842285156e+01 -6.796109676361083984e+00 -5.857467055320739746e-01 1.189091354608535767e-01 -1.400512754917144775e-01 3.031831681728363037e-01
3.122000000000000000e+03 7.287329864501953125e+01 -6.533628940582275391e+00 -2.039953947067260742e+00 9.646317481994628906e+00 2.281908988952636719e+00 -1.268150210380554199e+00
3.123000000000000000e+03 3.336135482788085938e+01 -8.005376815795898438e+00 -5.798088312149047852e-01 1.364818811416625977e-01 -1.329980790615081787e-01 2.806249558925628662e-01
3.124000000000000000e+03 3.198775100708007812e+01 -7.465610980987548828e+00 -5.795981287956237793e-01 1.142579838633537292e-01 -1.396020501852035522e-01 2.996193170547485352e-01
3.125000000000000000e+03 7.249395751953125000e+01 -7.292323112487792969e+00 -1.878296494483947754e+00 9.642817497253417969e+00 2.329356431961059570e+00 -1.762284636497497559e+00
3.126000000000000000e+03 3.311186599731445312e+01 -8.745909690856933594e+00 -5.656396746635437012e-01 1.210444569587707520e-01 -1.333785653114318848e-01 2.780911028385162354e-01
3.127000000000000000e+03 3.059587860107421875e+01 -4.315871715545654297e+00 -5.828396677970886230e-01 1.181378886103630066e-01 -1.394105255603790283e-01 2.913248240947723389e-01
3.128000000000000000e+03 2.982469940185546875e+01 -6.189356327056884766e+00 -6.056898832321166992e-01 7.397403568029403687e-02 -1.595147550106048584e-01 3.277637958526611328e-01
3.129000000000000000e+03 3.138049697875976562e+01 -6.077163219451904297e+00 -5.915593504905700684e-01 1.187188848853111267e-01 -1.418521255254745483e-01 3.024103641510009766e-01
3.130000000000000000e+03 2.989228630065917969e+01 -1.299837708473205566e+00 -4.606516957283020020e-01 1.009784638881683350e-01 -1.079019680619239807e-01 2.492962479591369629e-01
3.131000000000000000e+03 3.019121742248535156e+01 -2.297694444656372070e+00 -5.152906179428100586e-01 1.126288771629333496e-01 -1.207985207438468933e-01 2.611298859119415283e-01
3.132000000000000000e+03 3.450357437133789062e+01 -9.253898620605468750e+00 -5.718342065811157227e-01 1.378736793994903564e-01 -1.301881670951843262e-01 2.531244754791259766e-01
3.133000000000000000e+03 6.795481109619140625e+01 5.400575637817382812e+00 3.480961918830871582e-01 3.535424709320068359e+00 1.165056228637695312e+00 -1.302503585815429688e+00
3.134000000000000000e+03 3.839121246337890625e+01 -7.602547168731689453e+00 -6.370611190795898438e-01 1.993441134691238403e-01 -1.313150972127914429e-01 2.329773157835006714e-01
3.135000000000000000e+03 3.904247665405273438e+01 -6.608425140380859375e+00 -6.416334509849548340e-01 2.117233127355575562e-01 -1.289730370044708252e-01 2.469062954187393188e-01
3.136000000000000000e+03 2.952045059204101562e+01 -3.027991056442260742e-01 -3.901744782924652100e-01 8.133957535028457642e-02 -9.265047311782836914e-02 2.305148094892501831e-01
3.137000000000000000e+03 6.705482482910156250e+01 1.133311271667480469e+01 5.355128049850463867e-01 3.525418996810913086e+00 1.218279600143432617e+00 -9.871823191642761230e-01
3.138000000000000000e+03 3.749298477172851562e+01 -6.850399494171142578e+00 -6.199616193771362305e-01 1.988601535558700562e-01 -1.263304352760314941e-01 2.506138682365417480e-01
3.139000000000000000e+03 4.002899932861328125e+01 1.141407251358032227e+00 -4.305132031440734863e-01 2.180027216672897339e-01 -6.375315040349960327e-02 3.175317049026489258e-01
3.140000000000000000e+03 6.565596008300781250e+01 3.883021354675292969e+00 3.325794339179992676e-01 2.374662160873413086e+00 8.121724724769592285e-01 -1.116704463958740234e+00
3.141000000000000000e+03 6.843030548095703125e+01 3.853404521942138672e+00 1.814740449190139771e-01 3.689663648605346680e+00 1.161341309547424316e+00 -1.433146238327026367e+00
3.142000000000000000e+03 6.629624938964843750e+01 2.213723659515380859e+00 1.199460923671722412e-01 2.371091842651367188e+00 7.473113536834716797e-01 -1.296372056007385254e+00
3.143000000000000000e+03 6.013302612304687500e+01 2.576466321945190430e+00 1.013041734695434570e-01 8.829516172409057617e-01 2.952767312526702881e-01 -1.401492357254028320e-01
3.144000000000000000e+03 6.218735885620117188e+01 1.761447191238403320e+00 7.923404127359390259e-02 1.037920475006103516e+00 3.351463675498962402e-01 -4.565793573856353760e-01
3.145000000000000000e+03 4.104230880737304688e+01 -6.965941786766052246e-01 -4.970423281192779541e-01 2.078979611396789551e-01 -8.674331009387969971e-02 3.151758015155792236e-01
3.146000000000000000e+03 3.937602615356445312e+01 -4.114068984985351562e+00 -5.959876775741577148e-01 2.162267565727233887e-01 -1.139282658696174622e-01 2.798809409141540527e-01
3.147000000000000000e+03 4.509565734863281250e+01 -1.361688971519470215e+00 -5.369512438774108887e-01 1.910541206598281860e-01 -1.037691384553909302e-01 3.665034174919128418e-01
3.148000000000000000e+03 3.455245208740234375e+01 3.517222166061401367e+00 -2.518312335014343262e-01 1.368182897567749023e-01 -3.450388088822364807e-02 4.041873812675476074e-01
3.149000000000000000e+03 4.272095108032226562e+01 -3.874881505966186523e+00 -6.384128332138061523e-01 2.267494499683380127e-01 -1.234990060329437256e-01 2.958652675151824951e-01
3.150000000000000000e+03 4.530755996704101562e+01 -4.293875217437744141e+00 -7.236552834510803223e-01 2.439280897378921509e-01 -1.439181566238403320e-01 3.096577227115631104e-01
3.151000000000000000e+03 4.399906539916992188e+01 -4.907237052917480469e+00 -7.069557905197143555e-01 2.368664592504501343e-01 -1.410267949104309082e-01 2.784545123577117920e-01
3.152000000000000000e+03 2.944362449645996094e+01 2.197129821777343750e+01 3.164563179016113281e-01 -1.990520805120468140e-01 3.522127494215965271e-02 2.523960471153259277e-01
3.153000000000000000e+03 2.785423660278320312e+01 2.115971374511718750e+01 2.966184318065643311e-01 -3.243593573570251465e-01 -8.322278037667274475e-03 2.923029661178588867e-01
3.154000000000000000e+03 3.317955398559570312e+01 3.072659015655517578e+00 -2.191321104764938354e-01 8.791648596525192261e-02 -3.936468809843063354e-02 3.749835193157196045e-01
3.155000000000000000e+03 3.247099685668945312e+01 1.748416328430175781e+01 1.099451631307601929e-01 -3.818875411525368690e-03 3.183788433670997620e-02 2.873636782169342041e-01
3.156000000000000000e+03 3.192127990722656250e+01 2.077428054809570312e+01 2.789956033229827881e-01 -1.812255941331386566e-02 7.826191931962966919e-02 2.217358499765396118e-01
3.157000000000000000e+03 6.581180572509765625e+01 8.738968849182128906e+00 5.683646798133850098e-01 2.955682516098022461e+00 1.057214140892028809e+00 -1.003337502479553223e+00
3.158000000000000000e+03 6.611666107177734375e+01 1.790684700012207031e+01 4.383425414562225342e-01 3.538152217864990234e+00 1.192948460578918457e+00 -6.928491592407226562e-01
3.159000000000000000e+03 6.489424896240234375e+01 6.376328468322753906e+00 5.094685554504394531e-01 2.485063552856445312e+00 8.983595967292785645e-01 -9.676924943923950195e-01
3.160000000000000000e+03 1.686263084411621094e+01 2.643034362792968750e+01 1.270396858453750610e-01 -2.544028460979461670e-01 -3.820894658565521240e-02 3.346662223339080811e-01
3.161000000000000000e+03 1.503438758850097656e+01 2.674810791015625000e+01 9.622707962989807129e-02 -3.056864738464355469e-01 -6.283781677484512329e-02 2.800778448581695557e-01
3.162000000000000000e+03 3.884772491455078125e+01 9.759009480476379395e-01 -4.318549335002899170e-01 2.140194773674011230e-01 -6.535063683986663818e-02 3.242240548133850098e-01
3.163000000000000000e+03 3.608346557617187500e+01 1.305610775947570801e+00 -3.852001130580902100e-01 1.858287602663040161e-01 -5.981140583753585815e-02 3.413109481334686279e-01
3.164000000000000000e+03 4.316382217407226562e+01 -2.929929256439208984e+00 -6.036065816879272461e-01 2.174130231142044067e-01 -1.158580631017684937e-01 3.169926106929779053e-01
3.165000000000000000e+03 5.967087936401367188e+01 2.285883903503417969e+01 4.477980136871337891e-01 2.487196207046508789e+00 8.804982900619506836e-01 -5.301172137260437012e-01
3.166000000000000000e+03 5.978538131713867188e+01 2.456432723999023438e+01 4.471253156661987305e-01 2.499542474746704102e+00 8.840003013610839844e-01 -4.989517033100128174e-01
3.167000000000000000e+03 3.940435028076171875e+01 -3.291832685470581055e+00 -5.735629796981811523e-01 2.169169634580612183e-01 -1.069938018918037415e-01 2.910467386245727539e-01
3.168000000000000000e+03 3.388373184204101562e+01 2.119532585144042969e+01 3.142894804477691650e-01 1.424247622489929199e-01 1.370142698287963867e-01 2.158729285001754761e-01
3.169000000000000000e+03 3.048308944702148438e+01 -1.742579787969589233e-02 -3.641794025897979736e-01 8.650463074445724487e-02 -8.330243080854415894e-02 2.530291080474853516e-01
3.170000000000000000e+03 6.855698394775390625e+01 2.523055458068847656e+01 2.461974173784255981e-01 4.054448127746582031e+00 1.290193676948547363e+00 -5.024983882904052734e-01
3.171000000000000000e+03 6.124287414550781250e+01 2.428701877593994141e+00 1.265161484479904175e-01 9.968769550323486328e-01 3.370179235935211182e-01 -3.419954776763916016e-01
3.172000000000000000e+03 3.717642974853515625e+01 2.245067596435546875e+01 3.694880008697509766e-01 4.329622089862823486e-01 2.407350540161132812e-01 1.999339908361434937e-01
3.173000000000000000e+03 3.172647666931152344e+01 -4.955595493316650391e+00 -5.815087556838989258e-01 1.365633308887481689e-01 -1.334836184978485107e-01 2.902805507183074951e-01
3.174000000000000000e+03 3.220947647094726562e+01 -8.063768386840820312e+00 -5.712968707084655762e-01 1.135908737778663635e-01 -1.373118013143539429e-01 2.963775396347045898e-01
3.175000000000000000e+03 3.564751052856445312e+01 -7.917517185211181641e+00 -5.995954871177673340e-01 1.709093749523162842e-01 -1.286058276891708374e-01 2.544631361961364746e-01
3.176000000000000000e+03 3.377170181274414062e+01 -9.009798049926757812e+00 -5.682702064514160156e-01 1.293539106845855713e-01 -1.316748857498168945e-01 2.665010988712310791e-01
3.177000000000000000e+03 3.206531906127929688e+01 -5.724166393280029297e+00 -5.861717462539672852e-01 1.375276744365692139e-01 -1.345932334661483765e-01 2.950395345687866211e-01
3.178000000000000000e+03 3.041180801391601562e+01 -3.296173095703125000e+00 -5.559593439102172852e-01 1.174133494496345520e-01 -1.315637975931167603e-01 2.781817317008972168e-01
3.179000000000000000e+03 3.240094375610351562e+01 -4.007372379302978516e+00 -5.609002709388732910e-01 1.509220153093338013e-01 -1.229934766888618469e-01 2.809631526470184326e-01
3.180000000000000000e+03 2.952036285400390625e+01 -3.442911863327026367e+00 -5.757193565368652344e-01 1.015342548489570618e-01 -1.422555297613143921e-01 2.807669341564178467e-01
3.181000000000000000e+03 3.087215805053710938e+01 -1.078549385070800781e+00 -4.402776062488555908e-01 1.114349663257598877e-01 -9.865279495716094971e-02 2.576525509357452393e-01
3.182000000000000000e+03 3.644754028320312500e+01 -6.015691280364990234e+00 -5.970521569252014160e-01 1.927862614393234253e-01 -1.212797686457633972e-01 2.677404880523681641e-01
3.183000000000000000e+03 3.271774291992187500e+01 -7.190224647521972656e+00 -5.828759670257568359e-01 1.352598667144775391e-01 -1.342848241329193115e-01 2.913672327995300293e-01
3.184000000000000000e+03 6.697122955322265625e+01 6.136011600494384766e+00 4.279709458351135254e-01 3.172082901000976562e+00 1.080016136169433594e+00 -1.199331521987915039e+00
3.185000000000000000e+03 6.682880401611328125e+01 3.235681772232055664e+00 2.164606153964996338e-01 2.750303983688354492e+00 8.900293707847595215e-01 -1.315189957618713379e+00
3.186000000000000000e+03 4.410920333862304688e+01 -2.159232616424560547e+00 -5.768156647682189941e-01 2.091019451618194580e-01 -1.103141084313392639e-01 3.376905024051666260e-01
3.187000000000000000e+03 4.098913955688476562e+01 -2.010545969009399414e+00 -5.470202565193176270e-01 2.148073017597198486e-01 -9.966389834880828857e-02 3.105995357036590576e-01
3.188000000000000000e+03 3.940653991699218750e+01 3.495985865592956543e-01 -4.566235244274139404e-01 2.140467166900634766e-01 -7.277303934097290039e-02 3.206873238086700439e-01
3.189000000000000000e+03 3.808452987670898438e+01 8.604918718338012695e-01 -4.271391630172729492e-01 2.088532298803329468e-01 -6.548578292131423950e-02 3.298391997814178467e-01
3.190000000000000000e+03 6.494991302490234375e+01 5.395738124847412109e+00 4.597816765308380127e-01 2.370254039764404297e+00 8.490107059478759766e-01 -1.004231572151184082e+00
3.191000000000000000e+03 4.140858840942382812e+01 -2.828091859817504883e+00 -5.806424021720886230e-01 2.167605906724929810e-01 -1.091645509004592896e-01 3.036234080791473389e-01
3.192000000000000000e+03 4.178678131103515625e+01 -1.336244940757751465e+00 -5.247182846069335938e-01 2.063686996698379517e-01 -9.550487995147705078e-02 3.174307346343994141e-01
3.193000000000000000e+03 3.450837707519531250e+01 1.297896385192871094e+00 -3.455638289451599121e-01 1.486361473798751831e-01 -5.907830968499183655e-02 3.380699455738067627e-01
3.194000000000000000e+03 3.885849761962890625e+01 -4.977214336395263672e+00 -6.110565662384033203e-01 2.149695456027984619e-01 -1.188260987401008606e-01 2.702461481094360352e-01
3.195000000000000000e+03 3.216293716430664062e+01 1.617441773414611816e+00 -2.685794532299041748e-01 8.206056803464889526e-02 -5.595566704869270325e-02 3.112916648387908936e-01
3.196000000000000000e+03 4.064783477783203125e+01 -5.066355228424072266e+00 -6.373379826545715332e-01 2.230510413646697998e-01 -1.242860779166221619e-01 2.688212692737579346e-01
3.197000000000000000e+03 6.279047775268554688e+01 3.432611465454101562e+00 2.956120967864990234e-01 1.462297797203063965e+00 5.273729562759399414e-01 -6.373562216758728027e-01
3.198000000000000000e+03 6.457489776611328125e+01 1.967461228370666504e+00 1.531283855438232422e-01 1.637691259384155273e+00 5.372459292411804199e-01 -9.638590812683105469e-01
3.199000000000000000e+03 6.370301437377929688e+01 5.557682514190673828e+00 4.884415268898010254e-01 1.967452406883239746e+00 7.367681860923767090e-01 -7.882800698280334473e-01
3.200000000000000000e+03 4.036273193359375000e+01 -1.493168115615844727e+00 -5.238524675369262695e-01 2.126569300889968872e-01 -9.335866570472717285e-02 3.106143772602081299e-01
3.201000000000000000e+03 4.014549636840820312e+01 -2.282175779342651367e+00 -5.505560636520385742e-01 2.163806259632110596e-01 -1.002526357769966125e-01 3.048582375049591064e-01
3.202000000000000000e+03 4.034447860717773438e+01 -3.142964601516723633e+00 -5.810587406158447266e-01 2.195063829421997070e-01 -1.084657087922096252e-01 2.950478792190551758e-01
3.203000000000000000e+03 3.472715759277343750e+01 -8.421072959899902344e+00 -5.862769484519958496e-01 1.532104611396789551e-01 -1.299199461936950684e-01 2.587213218212127686e-01
3.204000000000000000e+03 3.241152954101562500e+01 4.909139871597290039e-01 -3.499038815498352051e-01 1.113912388682365417e-01 -7.155379652976989746e-02 2.955408990383148193e-01
3.205000000000000000e+03 3.863428497314453125e+01 -3.597535610198974609e+00 -5.730742216110229492e-01 2.138322144746780396e-01 -1.077726036310195923e-01 2.864152193069458008e-01
3.206000000000000000e+03 3.243966293334960938e+01 -4.769356250762939453e+00 -5.719364285469055176e-01 1.478466391563415527e-01 -1.272269338369369507e-01 2.863662242889404297e-01
3.207000000000000000e+03 3.514029312133789062e+01 -2.260963678359985352e+00 -5.047290921211242676e-01 1.836028993129730225e-01 -9.633785486221313477e-02 2.931332588195800781e-01
3.208000000000000000e+03 3.403015899658203125e+01 -8.206081390380859375e+00 -5.821155905723571777e-01 1.458741277456283569e-01 -1.308724433183670044e-01 2.700102925300598145e-01
3.209000000000000000e+03 3.542969894409179688e+01 -8.611450195312500000e+00 -5.914105772972106934e-01 1.589234322309494019e-01 -1.297461390495300293e-01 2.470385879278182983e-01
3.210000000000000000e+03 3.874842071533203125e+01 -4.137234985828399658e-01 -4.736140668392181396e-01 2.089615017175674438e-01 -7.939577102661132812e-02 3.146717548370361328e-01
3.211000000000000000e+03 3.780995178222656250e+01 5.670467391610145569e-02 -4.517403542995452881e-01 2.071361243724822998e-01 -7.338126748800277710e-02 3.210692107677459717e-01
3.212000000000000000e+03 3.138194274902343750e+01 -3.144615650177001953e+00 -5.385517477989196777e-01 1.346656382083892822e-01 -1.211658418178558350e-01 2.752181887626647949e-01
3.213000000000000000e+03 3.434537887573242188e+01 -5.817758083343505859e+00 -5.827089548110961914e-01 1.742555201053619385e-01 -1.225360259413719177e-01 2.807081937789916992e-01
3.214000000000000000e+03 3.119014930725097656e+01 -2.135237216949462891e+00 -4.985038340091705322e-01 1.263905912637710571e-01 -1.116339713335037231e-01 2.676189839839935303e-01
3.215000000000000000e+03 3.689173126220703125e+01 5.646887421607971191e-01 -4.201758503913879395e-01 1.973864585161209106e-01 -6.683681905269622803e-02 3.302232027053833008e-01
3.216000000000000000e+03 3.330073165893554688e+01 6.168471574783325195e-01 -3.595049381256103516e-01 1.277753859758377075e-01 -6.951886415481567383e-02 3.051714301109313965e-01
3.217000000000000000e+03 3.349600219726562500e+01 -7.201375484466552734e+00 -5.856912136077880859e-01 1.493172198534011841e-01 -1.309121996164321899e-01 2.828058898448944092e-01
3.218000000000000000e+03 3.256232070922851562e+01 -8.471868515014648438e+00 -5.671969056129455566e-01 1.137131005525588989e-01 -1.360451430082321167e-01 2.880810499191284180e-01
3.219000000000000000e+03 4.161775588989257812e+01 -3.862836360931396484e+00 -6.236605048179626465e-01 2.236438989639282227e-01 -1.200049743056297302e-01 2.904670536518096924e-01
3.220000000000000000e+03 3.519575119018554688e+01 -6.730533599853515625e+00 -5.966019034385681152e-01 1.765204370021820068e-01 -1.260244399309158325e-01 2.693992555141448975e-01
3.221000000000000000e+03 3.424069595336914062e+01 -7.410069942474365234e+00 -5.898724794387817383e-01 1.597402542829513550e-01 -1.290396600961685181e-01 2.734261155128479004e-01
3.222000000000000000e+03 3.546210861206054688e+01 4.547718465328216553e-01 -4.033652245998382568e-01 1.744935363531112671e-01 -6.866150349378585815e-02 3.268964886665344238e-01
3.223000000000000000e+03 3.320425033569335938e+01 -4.173254013061523438e+00 -5.586726665496826172e-01 1.593999266624450684e-01 -1.197818294167518616e-01 2.815667092800140381e-01
3.224000000000000000e+03 6.398258590698242188e+01 3.745553970336914062e+00 3.415612876415252686e-01 1.781819105148315430e+00 6.370141506195068359e-01 -8.598348498344421387e-01
3.225000000000000000e+03 4.043696212768554688e+01 -4.112737178802490234e+00 -6.081075072288513184e-01 2.202150076627731323e-01 -1.163677498698234558e-01 2.796522378921508789e-01
3.226000000000000000e+03 6.620014953613281250e+01 4.988493919372558594e+00 4.043679237365722656e-01 2.731266021728515625e+00 9.406901597976684570e-01 -1.160518765449523926e+00
3.227000000000000000e+03 3.822662353515625000e+01 -1.181847810745239258e+00 -4.981108903884887695e-01 2.082333862781524658e-01 -8.696325123310089111e-02 3.083189725875854492e-01
3.228000000000000000e+03 6.590702056884765625e+01 6.980486392974853516e+00 5.144422650337219238e-01 2.837796449661254883e+00 1.005671620368957520e+00 -1.064264774322509766e+00
3.229000000000000000e+03 3.245782470703125000e+01 -3.091536760330200195e+00 -5.288081765174865723e-01 1.502814739942550659e-01 -1.135580092668533325e-01 2.809287905693054199e-01
3.230000000000000000e+03 3.269070434570312500e+01 -5.368136882781982422e+00 -5.804615020751953125e-01 1.492553502321243286e-01 -1.293618381023406982e-01 2.887223362922668457e-01
3.231000000000000000e+03 3.443344879150390625e+01 -6.621829986572265625e+00 -5.903193950653076172e-01 1.710317134857177734e-01 -1.257863044738769531e-01 2.767765522003173828e-01
3.232000000000000000e+03 3.187010192871093750e+01 -8.580145835876464844e-01 -4.263067543506622314e-01 1.237798407673835754e-01 -9.075807780027389526e-02 2.735203504562377930e-01
3.233000000000000000e+03 3.376563262939453125e+01 -6.412544727325439453e+00 -5.854249596595764160e-01 1.577262878417968750e-01 -1.283096075057983398e-01 2.833297848701477051e-01
3.234000000000000000e+03 3.705812835693359375e+01 -4.950955390930175781e+00 -5.904960036277770996e-01 2.032669186592102051e-01 -1.161687225103378296e-01 2.748521864414215088e-01
3.235000000000000000e+03 3.489300918579101562e+01 -4.514273703098297119e-01 -4.302401840686798096e-01 1.695032417774200439e-01 -7.822108268737792969e-02 3.100633323192596436e-01
3.236000000000000000e+03 3.699644851684570312e+01 -1.872377395629882812e+00 -5.104959011077880859e-01 2.010626345872879028e-01 -9.282997995615005493e-02 2.994063198566436768e-01
3.237000000000000000e+03 3.417606735229492188e+01 -2.873451948165893555e+00 -5.208995938301086426e-01 1.717848777770996094e-01 -1.047344207763671875e-01 2.845854461193084717e-01
3.238000000000000000e+03 3.307305908203125000e+01 -4.866310119628906250e+00 -5.697639584541320801e-01 1.585953384637832642e-01 -1.233505830168724060e-01 2.834937274456024170e-01
3.239000000000000000e+03 3.409681320190429688e+01 3.101229071617126465e-01 -3.838184475898742676e-01 1.434536278247833252e-01 -7.210943847894668579e-02 3.112053871154785156e-01
3.240000000000000000e+03 3.279130172729492188e+01 -5.948189496994018555e-01 -4.177084565162658691e-01 1.334360241889953613e-01 -8.528172969818115234e-02 2.824440598487854004e-01
3.241000000000000000e+03 3.345615005493164062e+01 -3.461717367172241211e+00 -5.392025113105773926e-01 1.664500832557678223e-01 -1.118257343769073486e-01 2.814463675022125244e-01
3.242000000000000000e+03 3.496289443969726562e+01 -4.188868999481201172e+00 -5.609056949615478516e-01 1.847077161073684692e-01 -1.128593906760215759e-01 2.831013798713684082e-01
3.243000000000000000e+03 3.607341766357421875e+01 -3.638298988342285156e+00 -5.521948933601379395e-01 1.945241987705230713e-01 -1.073012128472328186e-01 2.843213081359863281e-01
3.244000000000000000e+03 3.495653915405273438e+01 -7.615175724029541016e+00 -5.945686101913452148e-01 1.668844670057296753e-01 -1.283052414655685425e-01 2.632473111152648926e-01
3.245000000000000000e+03 3.637995910644531250e+01 -3.054607808589935303e-01 -4.462652206420898438e-01 1.931992769241333008e-01 -7.591978460550308228e-02 3.186633884906768799e-01
3.246000000000000000e+03 3.422131347656250000e+01 -1.183007597923278809e+00 -4.542942047119140625e-01 1.618401408195495605e-01 -8.773621916770935059e-02 2.947400212287902832e-01
3.247000000000000000e+03 3.734245300292968750e+01 -8.354512453079223633e-01 -4.746277630329132080e-01 2.007617056369781494e-01 -8.215981721878051758e-02 3.122082948684692383e-01
3.248000000000000000e+03 3.230389022827148438e+01 -2.007845163345336914e+00 -4.885049164295196533e-01 1.427970826625823975e-01 -1.037123501300811768e-01 2.736789584159851074e-01
3.249000000000000000e+03 3.789082717895507812e+01 -4.183981895446777344e+00 -5.789811611175537109e-01 2.086032330989837646e-01 -1.111133769154548645e-01 2.793762087821960449e-01
3.250000000000000000e+03 3.802468490600585938e+01 -1.932318568229675293e+00 -5.249350070953369141e-01 2.088170349597930908e-01 -9.483538568019866943e-02 3.022785186767578125e-01
3.251000000000000000e+03 3.356446075439453125e+01 -2.720604538917541504e-01 -4.088119268417358398e-01 1.427365541458129883e-01 -7.982260733842849731e-02 2.970393896102905273e-01
3.252000000000000000e+03 3.397062683105468750e+01 -4.333807945251464844e+00 -5.599152445793151855e-01 1.723615825176239014e-01 -1.162661015987396240e-01 2.807177901268005371e-01
3.253000000000000000e+03 3.919491195678710938e+01 -2.454988718032836914e+00 -5.484306216239929199e-01 2.155323922634124756e-01 -9.986946731805801392e-02 3.008899986743927002e-01
3.254000000000000000e+03 3.586602401733398438e+01 -1.346130013465881348e+00 -4.800981581211090088e-01 1.873129010200500488e-01 -8.783558011054992676e-02 3.031496107578277588e-01
3.255000000000000000e+03 3.716253280639648438e+01 -3.078865289688110352e+00 -5.455012917518615723e-01 2.042826265096664429e-01 -1.023656055331230164e-01 2.910664081573486328e-01
3.256000000000000000e+03 5.620608806610107422e+00 -3.577602005004882812e+01 -1.671965728746727109e-04 9.045680635608732700e-04 2.212114486610516906e-04 2.489247126504778862e-04
3.257000000000000000e+03 7.332319259643554688e+00 -3.185299873352050781e+01 7.186408765846863389e-05 3.404171438887715340e-04 1.236843672813847661e-04 5.782401422038674355e-04
3.258000000000000000e+03 6.740813446044921875e+01 2.429742050170898438e+01 2.908118367195129395e-01 3.900454521179199219e+00 1.257379889488220215e+00 -5.498060584068298340e-01
3.259000000000000000e+03 6.100778198242187500e+01 2.243339920043945312e+01 4.367573261260986328e-01 2.693480253219604492e+00 9.390712976455688477e-01 -5.326548814773559570e-01
3.260000000000000000e+03 5.135794830322265625e+01 2.630775451660156250e+01 6.665795445442199707e-01 1.158205151557922363e+00 5.474354028701782227e-01 -1.410608291625976562e-01
3.261000000000000000e+03 4.189131164550781250e+01 2.492407608032226562e+01 4.567022621631622314e-01 6.935625672340393066e-01 3.450794517993927002e-01 2.372404336929321289e-01
3.262000000000000000e+03 3.856372070312500000e+01 2.915441703796386719e+01 4.977855384349822998e-01 4.893821179866790771e-01 2.961502969264984131e-01 1.680014282464981079e-01
3.263000000000000000e+03 6.764763641357421875e+01 2.736365509033203125e+01 2.586746811866760254e-01 3.867110967636108398e+00 1.237735748291015625e+00 -4.399782717227935791e-01
3.264000000000000000e+03 1.926534652709960938e+01 2.728294944763183594e+01 1.885010302066802979e-01 -2.534602582454681396e-01 -1.948777213692665100e-02 3.776261806488037109e-01
3.265000000000000000e+03 1.839127349853515625e+01 3.035004043579101562e+01 1.737557947635650635e-01 -3.072334527969360352e-01 -4.004330188035964966e-02 2.777735292911529541e-01
3.266000000000000000e+03 5.252759933471679688e+01 2.796076774597167969e+01 6.580685377120971680e-01 1.435880661010742188e+00 6.281847953796386719e-01 -2.003489434719085693e-01
3.267000000000000000e+03 6.265375137329101562e+01 -3.157608604431152344e+01 1.646979153156280518e-01 1.266786336898803711e+00 4.294452965259552002e-01 2.463907748460769653e-01
3.268000000000000000e+03 3.651581573486328125e+01 -4.111601638793945312e+01 1.878940127789974213e-02 -1.039755865931510925e-01 -2.555585466325283051e-02 -1.289296802133321762e-02
3.269000000000000000e+03 3.494388580322265625e+01 -3.868191146850585938e+01 -7.116705644875764847e-03 -4.799816384911537170e-02 -1.653446070849895477e-02 -2.869583107531070709e-02
3.270000000000000000e+03 1.823548507690429688e+01 -3.755073165893554688e+01 -2.284578979015350342e-03 1.576955430209636688e-03 -2.122870791936293244e-04 2.304467605426907539e-03
3.271000000000000000e+03 5.779940414428710938e+01 2.441223335266113281e+01 4.818993210792541504e-01 2.198557376861572266e+00 8.041369915008544922e-01 -4.798327386379241943e-01
3.272000000000000000e+03 6.726837158203125000e+01 -3.623097991943359375e+01 5.041746497154235840e-01 3.642784833908081055e+00 1.244087815284729004e+00 3.158478140830993652e-01
3.273000000000000000e+03 1.965812110900878906e+01 3.265815353393554688e+01 2.077906876802444458e-01 -3.017624318599700928e-01 -2.819152176380157471e-02 2.294466942548751831e-01
3.274000000000000000e+03 1.595885944366455078e+01 3.125236129760742188e+01 1.213324293494224548e-01 -3.840880095958709717e-01 -7.882667332887649536e-02 2.202132642269134521e-01
3.275000000000000000e+03 1.520988655090332031e+01 -3.573770523071289062e+01 -2.517939428798854351e-04 9.846349712461233139e-04 2.198523143306374550e-04 1.162166125141084194e-03
3.276000000000000000e+03 8.854659080505371094e+00 3.575457000732421875e+01 4.136200249195098877e-02 -7.490846514701843262e-01 -2.123167961835861206e-01 6.548661738634109497e-02
3.277000000000000000e+03 3.414852905273437500e+01 2.611580085754394531e+01 4.070750176906585693e-01 1.892974823713302612e-01 1.789117455482482910e-01 1.879582852125167847e-01
3.278000000000000000e+03 1.310797214508056641e+01 3.767230987548828125e+01 9.075581282377243042e-02 -5.681018233299255371e-01 -1.432037949562072754e-01 7.589709758758544922e-02
3.279000000000000000e+03 6.669614410400390625e+01 1.960875129699707031e+01 3.879888653755187988e-01 3.702230691909790039e+00 1.227065801620483398e+00 -6.622082591056823730e-01
3.280000000000000000e+03 2.497649383544921875e+01 2.695910835266113281e+01 3.558432757854461670e-01 -2.391973137855529785e-01 3.499379009008407593e-02 3.459765613079071045e-01
3.281000000000000000e+03 3.706344985961914062e+01 2.478421592712402344e+01 3.997828662395477295e-01 4.090733528137207031e-01 2.426568567752838135e-01 1.919834762811660767e-01
3.282000000000000000e+03 6.848938751220703125e+01 3.264154434204101562e+01 1.977999657392501831e-01 3.991853475570678711e+00 1.256896018981933594e+00 -2.924105226993560791e-01
3.283000000000000000e+03 4.728951454162597656e+00 3.664702224731445312e+01 1.967041753232479095e-02 -1.057568311691284180e+00 -3.113693594932556152e-01 3.038359433412551880e-02
3.284000000000000000e+03 6.932059478759765625e+01 -3.807931137084960938e+01 5.039396882057189941e-01 4.643145084381103516e+00 1.544125437736511230e+00 2.823228240013122559e-01
3.285000000000000000e+03 2.686150360107421875e+01 2.785177040100097656e+01 3.902706205844879150e-01 -1.608078628778457642e-01 6.883883476257324219e-02 2.929084599018096924e-01
3.286000000000000000e+03 4.282712173461914062e+01 2.863062667846679688e+01 5.564029216766357422e-01 7.230330705642700195e-01 3.838307857513427734e-01 1.608201116323471069e-01
3.287000000000000000e+03 2.260000038146972656e+01 -4.094925308227539062e+01 -6.838353816419839859e-03 2.279946580529212952e-03 -1.367522170767188072e-03 2.102364087477326393e-03
3.288000000000000000e+03 6.881572723388671875e+01 -3.274250030517578125e+01 1.890603899955749512e-01 4.423092365264892578e+00 1.383645772933959961e+00 4.765618443489074707e-01
3.289000000000000000e+03 3.308707427978515625e+01 2.329829025268554688e+01 3.593905270099639893e-01 8.729323744773864746e-02 1.340051293373107910e-01 2.023268193006515503e-01
3.290000000000000000e+03 3.145406341552734375e+01 2.689386749267578125e+01 4.108537435531616211e-01 1.796687021851539612e-02 1.286461800336837769e-01 2.094534933567047119e-01
3.291000000000000000e+03 6.750318145751953125e+01 3.005955123901367188e+01 2.425873130559921265e-01 3.843214273452758789e+00 1.225740432739257812e+00 -3.642355203628540039e-01
3.292000000000000000e+03 5.160701370239257812e+01 -4.098460388183593750e+01 6.775367259979248047e-01 -4.734315872192382812e-01 6.123153492808341980e-02 -8.443149179220199585e-02
3.293000000000000000e+03 6.007921600341796875e+01 -3.688045883178710938e+01 7.318408489227294922e-01 7.073870897293090820e-01 4.317683875560760498e-01 -1.284539885818958282e-02
3.294000000000000000e+03 2.374868011474609375e+01 2.883962059020996094e+01 3.256316184997558594e-01 -2.252024412155151367e-01 3.012875653803348541e-02 3.256775736808776855e-01
3.295000000000000000e+03 5.825078010559082031e+00 -3.787640762329101562e+01 3.566201485227793455e-05 4.667196481022983789e-04 1.507145061623305082e-04 7.974302570801228285e-05
3.296000000000000000e+03 2.830914497375488281e+01 -3.868719863891601562e+01 -1.068004965782165527e-02 -3.083895659074187279e-03 -4.129183944314718246e-03 3.426888259127736092e-03
3.297000000000000000e+03 5.268488311767578125e+01 -3.697766113281250000e+01 4.400325417518615723e-01 -5.436089634895324707e-01 -3.107292950153350830e-02 -2.993633449077606201e-01
3.298000000000000000e+03 5.619706344604492188e+01 3.629560852050781250e+01 5.490986108779907227e-01 2.155116796493530273e+00 8.112645745277404785e-01 -1.419905275106430054e-01
3.299000000000000000e+03 6.252737426757812500e+01 3.588760375976562500e+01 3.814985454082489014e-01 3.052278041839599609e+00 1.030132889747619629e+00 -2.159812897443771362e-01
3.300000000000000000e+03 6.380858612060546875e+01 -3.725927352905273438e+01 7.119184732437133789e-01 2.134266138076782227e+00 8.538553714752197266e-01 2.148265689611434937e-01
3.301000000000000000e+03 4.289389801025390625e+01 -4.100598907470703125e+01 1.576088815927505493e-01 -3.063953220844268799e-01 -4.463592916727066040e-02 -5.652289092540740967e-02
3.302000000000000000e+03 1.916804885864257812e+01 -3.489436340332031250e+01 3.361021517775952816e-04 -8.278882596641778946e-04 -1.475358440075069666e-04 3.202210413292050362e-03
3.303000000000000000e+03 1.213762855529785156e+01 -3.711858749389648438e+01 -8.316363091580569744e-04 3.043084579985588789e-04 -1.581983524374663830e-04 1.208633533678948879e-03
3.304000000000000000e+03 4.749645233154296875e+01 3.705736160278320312e+01 6.514292955398559570e-01 1.163796901702880859e+00 5.445678830146789551e-01 2.408088883385062218e-03
3.305000000000000000e+03 3.574766921997070312e+01 3.679762268066406250e+01 5.366204977035522461e-01 3.559277057647705078e-01 2.677644491195678711e-01 7.649010419845581055e-02
3.306000000000000000e+03 2.143371200561523438e+01 3.518910980224609375e+01 2.660401165485382080e-01 -2.567431926727294922e-01 2.789075719192624092e-03 1.696191430091857910e-01
3.307000000000000000e+03 2.452313804626464844e+01 3.714787673950195312e+01 3.365397751331329346e-01 -1.611295938491821289e-01 5.262305587530136108e-02 1.175397858023643494e-01
3.308000000000000000e+03 8.297430992126464844e+00 4.100362014770507812e+01 3.089399076998233795e-02 -8.295915126800537109e-01 -2.396092563867568970e-01 1.259304676204919815e-02
3.309000000000000000e+03 6.843685150146484375e+01 3.701314163208007812e+01 2.088095247745513916e-01 3.903426408767700195e+00 1.233670830726623535e+00 -1.560126096010208130e-01
3.310000000000000000e+03 6.633289337158203125e+01 2.274505233764648438e+01 3.380864858627319336e-01 3.688890695571899414e+00 1.208093166351318359e+00 -5.755698084831237793e-01
3.311000000000000000e+03 3.039912414550781250e+01 2.445882225036621094e+01 3.750641644001007080e-01 -7.977302372455596924e-02 8.858733624219894409e-02 2.306246608495712280e-01
3.312000000000000000e+03 3.497151947021484375e+01 2.408341979980468750e+01 3.820024430751800537e-01 2.264649122953414917e-01 1.825402081012725830e-01 1.870971769094467163e-01
3.313000000000000000e+03 6.358650588989257812e+01 2.833476066589355469e+01 3.663778007030487061e-01 3.224731206893920898e+00 1.077332735061645508e+00 -4.621126353740692139e-01
3.314000000000000000e+03 4.172963714599609375e+01 -3.515273666381835938e+01 -4.269659146666526794e-02 -1.432826668024063110e-01 -5.579377710819244385e-02 -1.557352691888809204e-01
3.315000000000000000e+03 3.123264884948730469e+01 2.263889312744140625e+01 3.439551293849945068e-01 -6.121110916137695312e-02 8.482320606708526611e-02 2.226226776838302612e-01
3.316000000000000000e+03 5.530757141113281250e+01 2.546637153625488281e+01 5.813298225402832031e-01 1.689394712448120117e+00 6.812173724174499512e-01 -3.763604760169982910e-01
3.317000000000000000e+03 2.409525108337402344e+01 3.253374099731445312e+01 3.362838327884674072e-01 -1.833912134170532227e-01 4.586778581142425537e-02 2.341869920492172241e-01
3.318000000000000000e+03 2.901252555847167969e+01 2.853428649902343750e+01 4.170204699039459229e-01 -7.064263522624969482e-02 1.039133518934249878e-01 2.371220141649246216e-01
3.319000000000000000e+03 6.600494384765625000e+01 3.459561920166015625e+01 2.774338424205780029e-01 3.567327976226806641e+00 1.153428554534912109e+00 -2.122227698564529419e-01
3.320000000000000000e+03 6.342040252685546875e+01 2.270081329345703125e+01 4.035574495792388916e-01 3.112727403640747070e+00 1.054885506629943848e+00 -5.480453968048095703e-01
3.321000000000000000e+03 2.763926315307617188e+01 2.566543960571289062e+01 3.808695077896118164e-01 -1.904338598251342773e-01 5.713069811463356018e-02 2.955156564712524414e-01
3.322000000000000000e+03 2.046694374084472656e+01 2.898765945434570312e+01 2.277604490518569946e-01 -2.691528797149658203e-01 -1.241773087531328201e-02 3.350475132465362549e-01
3.323000000000000000e+03 2.202769851684570312e+01 3.079656028747558594e+01 2.769432067871093750e-01 -2.455666810274124146e-01 9.412960149347782135e-03 2.870900332927703857e-01
3.324000000000000000e+03 4.054588699340820312e+01 2.679718017578125000e+01 4.704336822032928467e-01 6.091892123222351074e-01 3.238868713378906250e-01 1.994383931159973145e-01
3.325000000000000000e+03 5.414399719238281250e+01 2.693552970886230469e+01 6.183526515960693359e-01 1.563941121101379395e+00 6.546881198883056641e-01 -2.882251441478729248e-01
3.326000000000000000e+03 3.632012557983398438e+01 3.170113563537597656e+01 5.001295208930969238e-01 3.377381861209869385e-01 2.513603270053863525e-01 1.414782702922821045e-01
3.327000000000000000e+03 5.060855865478515625e+01 2.814475822448730469e+01 6.812505125999450684e-01 1.191619396209716797e+00 5.618609786033630371e-01 -8.435360342264175415e-02
3.328000000000000000e+03 5.764771652221679688e+01 3.132456779479980469e+01 5.339462161064147949e-01 2.244016885757446289e+00 8.333889245986938477e-01 -2.702507674694061279e-01
3.329000000000000000e+03 5.941721343994140625e+01 3.443545913696289062e+01 4.790466725826263428e-01 2.600593566894531250e+00 9.238920807838439941e-01 -1.933933496475219727e-01
3.330000000000000000e+03 4.115218353271484375e+01 3.130755615234375000e+01 5.677339434623718262e-01 6.542971730232238770e-01 3.666093349456787109e-01 1.284543424844741821e-01
3.331000000000000000e+03 5.083439636230468750e+01 3.075004386901855469e+01 6.501613855361938477e-01 1.335883736610412598e+00 5.958135128021240234e-01 -9.033006429672241211e-02
3.332000000000000000e+03 4.744498825073242188e+01 4.065259933471679688e+01 6.455693244934082031e-01 1.187582015991210938e+00 5.499454140663146973e-01 -2.925847365986555815e-04
3.333000000000000000e+03 6.172111511230468750e+01 2.394365310668945312e+01 4.176652729511260986e-01 2.829993724822998047e+00 9.742977023124694824e-01 -5.184776186943054199e-01
3.334000000000000000e+03 6.581981658935546875e+01 2.633876419067382812e+01 3.229904770851135254e-01 3.560551166534423828e+00 1.165062546730041504e+00 -4.941419661045074463e-01
3.335000000000000000e+03 6.247376251220703125e+01 2.597208976745605469e+01 3.899161815643310547e-01 3.003857851028442383e+00 1.018132209777832031e+00 -4.832529127597808838e-01
3.336000000000000000e+03 3.167263412475585938e+01 3.101675224304199219e+01 4.493016004562377930e-01 8.262318372726440430e-02 1.595774441957473755e-01 1.746572405099868774e-01
3.337000000000000000e+03 5.733684921264648438e+01 2.665470695495605469e+01 5.282484889030456543e-01 2.124337434768676758e+00 7.957757711410522461e-01 -3.973454833030700684e-01
3.338000000000000000e+03 1.663092994689941406e+01 3.397505569458007812e+01 1.496475487947463989e-01 -3.903506994247436523e-01 -7.221094518899917603e-02 1.778829991817474365e-01
3.339000000000000000e+03 3.294485473632812500e+01 2.781874847412109375e+01 4.303301274776458740e-01 1.194543391466140747e-01 1.649353355169296265e-01 1.954990178346633911e-01
3.340000000000000000e+03 2.851492691040039062e+01 3.115274238586425781e+01 4.212851822376251221e-01 -5.079160258173942566e-02 1.111480742692947388e-01 2.133550196886062622e-01
3.341000000000000000e+03 4.806768035888671875e+01 3.066452980041503906e+01 6.574485898017883301e-01 1.092406868934631348e+00 5.249566435813903809e-01 1.258093956857919693e-02
3.342000000000000000e+03 4.775321197509765625e+01 3.370661163330078125e+01 6.472026705741882324e-01 1.130993843078613281e+00 5.334589481353759766e-01 1.042215432971715927e-02
3.343000000000000000e+03 2.703124237060546875e+01 3.402005386352539062e+01 4.010825157165527344e-01 -8.015628159046173096e-02 9.627787023782730103e-02 1.815164387226104736e-01
3.344000000000000000e+03 5.589867782592773438e+01 2.877957725524902344e+01 5.800650119781494141e-01 1.944139719009399414e+00 7.572614550590515137e-01 -3.141700923442840576e-01
3.345000000000000000e+03 2.960829544067382812e+01 2.636272048950195312e+01 4.040785133838653564e-01 -8.786379545927047729e-02 9.486441314220428467e-02 2.421345263719558716e-01
3.346000000000000000e+03 3.623302459716796875e+01 2.734649848937988281e+01 4.459620118141174316e-01 3.370089232921600342e-01 2.348912805318832397e-01 1.762384921312332153e-01
3.347000000000000000e+03 6.479773712158203125e+01 3.123210334777832031e+01 3.371447026729583740e-01 3.339354276657104492e+00 1.102949619293212891e+00 -3.589308261871337891e-01
3.348000000000000000e+03 2.832262992858886719e+01 3.820859909057617188e+01 4.152985811233520508e-01 -2.638209424912929535e-02 1.166749447584152222e-01 8.224101364612579346e-02
3.349000000000000000e+03 5.991015243530273438e+01 2.693055534362792969e+01 4.615518748760223389e-01 2.558310985565185547e+00 9.059588909149169922e-01 -4.359492361545562744e-01
3.350000000000000000e+03 3.011123847961425781e+01 3.569276809692382812e+01 4.496952891349792480e-01 5.498178675770759583e-02 1.514031291007995605e-01 1.295217871665954590e-01
3.351000000000000000e+03 6.843550109863281250e+01 -9.113851547241210938e+00 8.489808440208435059e-02 2.945522665977478027e-01 1.138351038098335266e-01 -4.100603461265563965e-01
3.352000000000000000e+03 6.794937133789062500e+01 -9.998363494873046875e+00 2.590623199939727783e-01 -7.178586721420288086e-01 -1.376389116048812866e-01 -1.845290362834930420e-01
3.353000000000000000e+03 2.640732383728027344e+01 -1.767584419250488281e+01 -1.701795554254204035e-06 -1.277576575375860557e-05 -4.343268756201723590e-06 1.419144382452941500e-06
3.354000000000000000e+03 2.569843482971191406e+01 -1.739976501464843750e+01 1.597273694642353803e-05 2.391399539192207158e-05 1.196601988340262324e-05 6.405436579370871186e-06
3.355000000000000000e+03 7.051014709472656250e+01 -1.375064468383789062e+01 2.060992956161499023e+00 1.410521745681762695e+00 1.041454434394836426e+00 1.553233742713928223e+00
3.356000000000000000e+03 7.069036865234375000e+01 -1.375883293151855469e+01 2.340087652206420898e+00 1.585548281669616699e+00 1.177690744400024414e+00 1.916978478431701660e+00
3.357000000000000000e+03 7.085372161865234375e+01 -1.378814029693603516e+01 2.452432870864868164e+00 2.073427677154541016e+00 1.357758164405822754e+00 2.281463384628295898e+00
3.358000000000000000e+03 7.238567352294921875e+01 -1.430704593658447266e+01 1.036707401275634766e+00 1.243248653411865234e+01 4.040758132934570312e+00 5.190937995910644531e+00
3.359000000000000000e+03 7.274796295166015625e+01 -1.392532539367675781e+01 8.730016350746154785e-01 1.646619033813476562e+01 5.201757431030273438e+00 5.160017490386962891e+00
3.360000000000000000e+03 7.278906250000000000e+01 -1.423971176147460938e+01 2.547156214714050293e-01 1.580231666564941406e+01 4.817109584808349609e+00 4.350068569183349609e+00
3.361000000000000000e+03 7.424721527099609375e+01 -1.387280654907226562e+01 2.151784896850585938e+00 1.827667427062988281e+01 6.128537654876708984e+00 -2.464381694793701172e+00
3.362000000000000000e+03 7.374159240722656250e+01 -1.408828926086425781e+01 3.882579505443572998e-01 1.921578979492187500e+01 5.881214141845703125e+00 -4.166005849838256836e-01
3.363000000000000000e+03 7.397340393066406250e+01 -1.357073879241943359e+01 2.958888769149780273e+00 2.026177024841308594e+01 6.966197490692138672e+00 -2.392949581146240234e+00
3.364000000000000000e+03 7.450514221191406250e+01 -1.372498607635498047e+01 3.317998886108398438e+00 1.722437095642089844e+01 6.162711143493652344e+00 -3.080613851547241211e+00
3.365000000000000000e+03 7.465821075439453125e+01 -1.331266880035400391e+01 5.382979393005371094e+00 1.660491561889648438e+01 6.596368789672851562e+00 -3.279980421066284180e+00
3.366000000000000000e+03 7.467272949218750000e+01 -1.310848045349121094e+01 6.451606273651123047e+00 1.648448753356933594e+01 6.880827903747558594e+00 -2.947012186050415039e+00
3.367000000000000000e+03 7.510737609863281250e+01 -1.122598457336425781e+01 5.144807338714599609e+00 1.437067031860351562e+01 5.854643344879150391e+00 2.965668916702270508e+00
3.368000000000000000e+03 7.486295318603515625e+01 -1.080427360534667969e+01 3.294100284576416016e+00 1.550963973999023438e+01 5.641121864318847656e+00 3.122767925262451172e+00
3.369000000000000000e+03 7.402296447753906250e+01 -1.057095718383789062e+01 1.350704312324523926e+00 1.917283630371093750e+01 6.157062530517578125e+00 1.874244689941406250e+00
3.370000000000000000e+03 7.347835540771484375e+01 -1.070510292053222656e+01 5.381714105606079102e-01 2.084772300720214844e+01 6.415768146514892578e+00 -5.570738911628723145e-01
3.371000000000000000e+03 7.339542388916015625e+01 -1.027539539337158203e+01 -3.723473846912384033e-01 1.843858909606933594e+01 5.419872760772705078e+00 -1.319918513298034668e+00
3.372000000000000000e+03 7.290663146972656250e+01 -1.019251918792724609e+01 -2.997222542762756348e-01 1.608679199218750000e+01 4.736121177673339844e+00 -3.591574668884277344e+00
3.373000000000000000e+03 7.273199462890625000e+01 -9.732804298400878906e+00 -5.454304814338684082e-01 1.378022670745849609e+01 3.970438718795776367e+00 -3.488948822021484375e+00
3.374000000000000000e+03 7.161510467529296875e+01 -1.030511665344238281e+01 2.287811517715454102e+00 6.554610252380371094e+00 2.652726411819458008e+00 -4.616496562957763672e+00
3.375000000000000000e+03 7.143027496337890625e+01 -1.033317375183105469e+01 2.335129261016845703e+00 5.585708618164062500e+00 2.376251459121704102e+00 -4.200472354888916016e+00
3.376000000000000000e+03 7.125196075439453125e+01 -1.033584022521972656e+01 2.454621076583862305e+00 4.535655975341796875e+00 2.097083091735839844e+00 -3.685784816741943359e+00
3.377000000000000000e+03 7.087100219726562500e+01 -1.054219341278076172e+01 2.405443906784057617e+00 2.649861335754394531e+00 1.516591548919677734e+00 -2.595549106597900391e+00
3.378000000000000000e+03 7.091916656494140625e+01 -1.026438713073730469e+01 2.224333286285400391e+00 3.496775388717651367e+00 1.716332674026489258e+00 -2.921565771102905273e+00
3.379000000000000000e+03 7.001047515869140625e+01 -1.004464817047119141e+01 1.310180425643920898e+00 1.700625658035278320e+00 9.032418131828308105e-01 -1.428327560424804688e+00
3.380000000000000000e+03 7.802989196777343750e+01 4.160945892333984375e+01 5.691460520029067993e-02 5.081140041351318359e+00 1.541416287422180176e+00 -1.598836109042167664e-02
3.381000000000000000e+03 1.798681449890136719e+01 1.820802307128906250e+01 3.089903593063354492e-01 2.737027406692504883e-01 1.748079359531402588e-01 4.853801727294921875e-01
3.382000000000000000e+03 5.624819564819335938e+01 1.541256237030029297e+01 6.035705208778381348e-01 2.176193714141845703e+00 8.339293003082275391e-01 -5.518898367881774902e-01
3.383000000000000000e+03 6.803372955322265625e+01 -1.017637252807617188e+01 2.181086242198944092e-01 -5.694953799247741699e-01 -1.054160222411155701e-01 -3.309739828109741211e-01
3.384000000000000000e+03 7.131203460693359375e+01 -1.463117218017578125e+01 1.903652310371398926e+00 5.923412799835205078e+00 2.348119497299194336e+00 3.890505552291870117e+00
3.385000000000000000e+03 6.966538238525390625e+01 -9.617564201354980469e+00 7.651546597480773926e-01 1.619999408721923828e+00 7.155462503433227539e-01 -1.077909946441650391e+00
3.386000000000000000e+03 7.540328979492187500e+01 -1.140056324005126953e+01 5.016246795654296875e+00 1.302725791931152344e+01 5.413051605224609375e+00 2.314175128936767578e+00
3.387000000000000000e+03 7.466881561279296875e+01 -1.135625076293945312e+01 6.364406585693359375e+00 1.623325347900390625e+01 6.779298305511474609e+00 3.052688121795654297e+00
3.388000000000000000e+03 7.452455139160156250e+01 -1.120515727996826172e+01 5.358232975006103516e+00 1.741167068481445312e+01 6.830971240997314453e+00 3.323359966278076172e+00
3.389000000000000000e+03 7.446754455566406250e+01 -1.100027847290039062e+01 4.400424957275390625e+00 1.776249885559082031e+01 6.648877143859863281e+00 3.392057180404663086e+00
3.390000000000000000e+03 7.487297821044921875e+01 -1.109472274780273438e+01 4.610216617584228516e+00 1.523667812347412109e+01 5.954068183898925781e+00 3.086492776870727539e+00
3.391000000000000000e+03 7.467234039306640625e+01 -1.102313518524169922e+01 4.389837265014648438e+00 1.654203224182128906e+01 6.279561042785644531e+00 3.258480787277221680e+00
3.392000000000000000e+03 7.423652648925781250e+01 -1.034194850921630859e+01 8.945137262344360352e-01 1.765759086608886719e+01 5.565631389617919922e+00 1.988292217254638672e+00
3.393000000000000000e+03 7.383009338378906250e+01 -1.017548751831054688e+01 -2.374214828014373779e-01 1.802447509765625000e+01 5.336116313934326172e+00 4.141477346420288086e-01
3.394000000000000000e+03 7.314845275878906250e+01 -1.023831844329833984e+01 -4.473380446434020996e-01 1.746701622009277344e+01 5.105903148651123047e+00 -2.534103870391845703e+00
3.395000000000000000e+03 7.297232055664062500e+01 -9.864748954772949219e+00 -7.261068820953369141e-01 1.528507423400878906e+01 4.367690086364746094e+00 -2.995877742767333984e+00
3.396000000000000000e+03 7.052281188964843750e+01 -1.006955146789550781e+01 1.619575977325439453e+00 2.889024734497070312e+00 1.352580189704895020e+00 -2.212373733520507812e+00
3.397000000000000000e+03 7.028719329833984375e+01 -9.767275810241699219e+00 1.169361352920532227e+00 2.754034996032714844e+00 1.177018880844116211e+00 -1.984064817428588867e+00
3.398000000000000000e+03 7.165223693847656250e+01 -1.509428119659423828e+01 8.463650941848754883e-01 7.827169418334960938e+00 2.602060317993164062e+00 3.774580717086791992e+00
3.399000000000000000e+03 7.234616851806640625e+01 -1.461802577972412109e+01 5.735290646553039551e-01 1.173554515838623047e+01 3.692722320556640625e+00 4.599302768707275391e+00
3.400000000000000000e+03 7.274189758300781250e+01 -1.450700664520263672e+01 -8.955860137939453125e-02 1.452580928802490234e+01 4.330875396728515625e+00 3.924832105636596680e+00
3.401000000000000000e+03 7.353307342529296875e+01 -1.419387340545654297e+01 -1.130925938487052917e-01 1.877713966369628906e+01 5.599214076995849609e+00 7.077514529228210449e-01
3.402000000000000000e+03 7.414190673828125000e+01 -1.438182353973388672e+01 2.171684056520462036e-01 1.720322418212890625e+01 5.226118087768554688e+00 -1.406198978424072266e+00
3.403000000000000000e+03 7.455964660644531250e+01 -1.437560462951660156e+01 7.430028915405273438e-01 1.614703559875488281e+01 5.067011356353759766e+00 -2.346522569656372070e+00
3.404000000000000000e+03 7.488938140869140625e+01 -1.320734024047851562e+01 5.476922988891601562e+00 1.516945266723632812e+01 6.193912506103515625e+00 -2.926004409790039062e+00
3.405000000000000000e+03 7.488118743896484375e+01 -1.270433330535888672e+01 8.058407783508300781e+00 1.478387546539306641e+01 6.852684974670410156e+00 -1.633896112442016602e+00
3.406000000000000000e+03 2.076976203918457031e+01 -1.169057559967041016e+01 -1.333363343292148784e-05 1.135498564508452546e-06 -3.659440380943124183e-06 1.883682898551342078e-06
3.407000000000000000e+03 1.573636889457702637e+00 -3.415102481842041016e+00 -2.388707616773899645e-05 -1.306501599174225703e-05 -1.108562719309702516e-05 -1.387109477946069092e-06
3.408000000000000000e+03 7.531423187255859375e+01 4.012711334228515625e+01 4.544784128665924072e-02 4.862179756164550781e+00 1.472288250923156738e+00 -8.239848539233207703e-03
3.409000000000000000e+03 4.913950347900390625e+01 -3.631158065795898438e+01 1.824785917997360229e-01 -5.041021704673767090e-01 -9.648706763982772827e-02 -3.570389747619628906e-01
3.410000000000000000e+03 4.500436019897460938e+01 2.125431632995605469e+01 4.599452614784240723e-01 7.345541119575500488e-01 3.583498299121856689e-01 4.107633829116821289e-01
3.411000000000000000e+03 4.532520294189453125e+01 -3.560103988647460938e+01 -4.211131017655134201e-03 -2.905153334140777588e-01 -8.841793984174728394e-02 -3.050245344638824463e-01
3.412000000000000000e+03 5.842895126342773438e+01 1.713820457458496094e+01 4.520840346813201904e-01 2.232183694839477539e+00 8.052803277969360352e-01 -4.355273246765136719e-01
3.413000000000000000e+03 7.228283691406250000e+01 -9.789387702941894531e+00 2.654493451118469238e-01 1.147924709320068359e+01 3.523408889770507812e+00 -4.328074932098388672e+00
3.414000000000000000e+03 7.290344238281250000e+01 -9.398874282836914062e+00 -1.126181006431579590e+00 1.371511077880859375e+01 3.776679039001464844e+00 -2.651606798171997070e+00
3.415000000000000000e+03 7.072897338867187500e+01 -9.883425712585449219e+00 1.540985584259033203e+00 3.755819082260131836e+00 1.589041352272033691e+00 -2.801555156707763672e+00
3.416000000000000000e+03 6.880912780761718750e+01 -9.484235763549804688e+00 5.158481001853942871e-01 7.252534627914428711e-01 3.723304867744445801e-01 -7.242208123207092285e-01
3.417000000000000000e+03 7.122948455810546875e+01 -9.690077781677246094e+00 1.175503015518188477e+00 5.985123634338378906e+00 2.148188114166259766e+00 -3.568953514099121094e+00
3.418000000000000000e+03 7.124607086181640625e+01 -1.010152435302734375e+01 1.875199913978576660e+00 5.247223854064941406e+00 2.136727094650268555e+00 -3.650248765945434570e+00
3.419000000000000000e+03 7.098660278320312500e+01 -9.818746566772460938e+00 1.513581037521362305e+00 4.533369064331054688e+00 1.814085006713867188e+00 -3.236447334289550781e+00
3.420000000000000000e+03 7.233444976806640625e+01 -1.500312614440917969e+01 8.261517435312271118e-02 1.143095111846923828e+01 3.454069852828979492e+00 3.921369791030883789e+00
3.421000000000000000e+03 7.444721221923828125e+01 -1.005039882659912109e+01 3.228099346160888672e-01 1.636017036437988281e+01 5.004894256591796875e+00 2.077724933624267578e+00
3.422000000000000000e+03 7.169979858398437500e+01 -9.988785743713378906e+00 1.502394199371337891e+00 7.763200283050537109e+00 2.779678344726562500e+00 -4.519467353820800781e+00
3.423000000000000000e+03 2.598901748657226562e+01 -3.240232086181640625e+01 8.011958561837673187e-03 -1.610051025636494160e-03 1.920572365634143353e-03 2.350302413105964661e-03
3.424000000000000000e+03 7.218914794921875000e+01 -9.467686653137207031e+00 -1.289075762033462524e-01 1.055879306793212891e+01 3.128965616226196289e+00 -3.850605487823486328e+00
3.425000000000000000e+03 7.151074981689453125e+01 -9.627404212951660156e+00 9.046407938003540039e-01 7.183866977691650391e+00 2.426552295684814453e+00 -3.913032054901123047e+00
3.426000000000000000e+03 7.516785430908203125e+01 -1.015209770202636719e+01 1.281384825706481934e+00 1.430689144134521484e+01 4.676482677459716797e+00 3.027281761169433594e+00
3.427000000000000000e+03 5.945351028442382812e+01 1.859143257141113281e+01 4.675596654415130615e-01 2.353687047958374023e+00 8.463740348815917969e-01 -4.743222594261169434e-01
3.428000000000000000e+03 7.544059753417968750e+01 -1.100941276550292969e+01 3.868598937988281250e+00 1.331551074981689453e+01 5.155232906341552734e+00 2.945253610610961914e+00
3.429000000000000000e+03 7.184896087646484375e+01 -1.550370979309082031e+01 9.737538546323776245e-02 8.934561729431152344e+00 2.709581136703491211e+00 3.412574768066406250e+00
3.430000000000000000e+03 7.336381530761718750e+01 -1.472122764587402344e+01 -8.311535716056823730e-01 1.627732276916503906e+01 4.633851051330566406e+00 1.564272165298461914e+00
3.431000000000000000e+03 7.376869201660156250e+01 -1.476954174041748047e+01 -7.626049518585205078e-01 1.643615722656250000e+01 4.702065944671630859e+00 1.705580949783325195e-01
3.432000000000000000e+03 4.943410873413085938e+01 2.253000831604003906e+01 6.899771690368652344e-01 6.070150136947631836e-01 3.890976607799530029e-01 4.654863849282264709e-02
3.433000000000000000e+03 7.555740356445312500e+01 -1.292471122741699219e+01 5.210156440734863281e+00 1.231266593933105469e+01 5.256846427917480469e+00 -1.751999974250793457e+00
3.434000000000000000e+03 4.995282649993896484e+00 -3.598642110824584961e+00 -1.386939584335777909e-05 1.510746460553491488e-05 3.714205547566962196e-07 -2.099550471257316531e-07
3.435000000000000000e+03 7.151924133300781250e+01 -9.889673233032226562e+00 1.478927850723266602e+00 6.964974403381347656e+00 2.533170700073242188e+00 -4.136834621429443359e+00
3.436000000000000000e+03 7.133180236816406250e+01 -9.936098098754882812e+00 1.669820547103881836e+00 6.023246288299560547e+00 2.307919979095458984e+00 -3.929117202758789062e+00
3.437000000000000000e+03 5.860358810424804688e+01 -3.132752227783203125e+01 -9.075417369604110718e-02 -1.920010894536972046e-01 -8.482658118009567261e-02 -2.905844748020172119e-01
3.438000000000000000e+03 5.605754089355468750e+01 5.951403617858886719e+00 3.573265075683593750e-01 9.744051098823547363e-01 3.995194733142852783e-01 2.399640232324600220e-01
3.439000000000000000e+03 1.865517234802246094e+01 -1.014097690582275391e+01 1.131538920162711293e-05 3.070573802688159049e-05 1.260633871424943209e-05 2.176450288970954716e-05
3.440000000000000000e+03 7.191220092773437500e+01 -9.441016197204589844e+00 2.275448441505432129e-01 9.223515510559082031e+00 2.835318088531494141e+00 -3.949483394622802734e+00
3.441000000000000000e+03 7.174606323242187500e+01 -8.956380844116210938e+00 -3.197619318962097168e-01 8.488441467285156250e+00 2.450603723526000977e+00 -3.332030296325683594e+00
3.442000000000000000e+03 3.553718566894531250e+00 4.265374183654785156e+00 -7.558518648147583008e-02 -6.007320061326026917e-02 -4.069751501083374023e-02 6.109500676393508911e-02
3.443000000000000000e+03 7.542990875244140625e+01 -1.349985122680664062e+01 4.176734924316406250e+00 1.321530723571777344e+01 5.217612743377685547e+00 -2.807802915573120117e+00
3.444000000000000000e+03 7.432634735107421875e+01 -9.379596710205078125e+00 -1.016437888145446777e+00 1.515760993957519531e+01 4.242351531982421875e+00 1.169292807579040527e+00
3.445000000000000000e+03 7.357697296142578125e+01 -1.540091991424560547e+01 -1.327230811119079590e+00 1.447185897827148438e+01 3.943388462066650391e+00 8.545882105827331543e-01
3.446000000000000000e+03 7.337324523925781250e+01 -1.568395233154296875e+01 -1.435813784599304199e+00 1.363008785247802734e+01 3.658282279968261719e+00 1.368261694908142090e+00
3.447000000000000000e+03 5.731177902221679688e+01 9.369474411010742188e+00 5.279998183250427246e-01 1.591456770896911621e+00 6.358370184898376465e-01 5.906343832612037659e-02
3.448000000000000000e+03 7.462612915039062500e+01 -1.510041236877441406e+01 -6.221549510955810547e-01 1.474691200256347656e+01 4.237427234649658203e+00 -1.672311544418334961e+00
3.449000000000000000e+03 7.627655792236328125e+01 -1.052118873596191406e+01 2.037559270858764648e+00 1.110018825531005859e+01 3.941324234008789062e+00 2.817489624023437500e+00
3.450000000000000000e+03 7.476062774658203125e+01 -1.549990749359130859e+01 -9.395944476127624512e-01 1.406679821014404297e+01 3.938160896301269531e+00 -1.605312824249267578e+00
3.451000000000000000e+03 7.431879425048828125e+01 -8.954938888549804688e+00 -1.471716761589050293e+00 1.439668083190917969e+01 3.877489089965820312e+00 9.141378998756408691e-01
3.452000000000000000e+03 5.965371322631835938e+01 1.745697975158691406e+01 5.162545442581176758e-01 2.384306907653808594e+00 8.701684474945068359e-01 -5.095536112785339355e-01
3.453000000000000000e+03 1.360805797576904297e+01 -2.860315895080566406e+01 1.142604160122573376e-03 -9.838450932875275612e-05 3.132658894173800945e-04 5.006090505048632622e-04
3.454000000000000000e+03 6.900819396972656250e+01 -2.895371055603027344e+01 -1.281506419181823730e-01 4.447072505950927734e+00 1.295676469802856445e+00 6.084545254707336426e-01
3.455000000000000000e+03 6.357184982299804688e+01 -2.467605113983154297e+00 -9.523142576217651367e-01 2.169593796133995056e-02 -2.791855037212371826e-01 -5.831750631332397461e-01
3.456000000000000000e+03 8.093490600585937500e+00 -4.834928512573242188e+00 -2.829543336702045053e-05 1.132645411416888237e-05 -5.090693775855470449e-06 -3.108273813268169761e-05
3.457000000000000000e+03 7.379216766357421875e+01 -8.958670616149902344e+00 -1.660292029380798340e+00 1.422242069244384766e+01 3.768638610839843750e+00 -3.062871694564819336e-01
3.458000000000000000e+03 3.179814815521240234e+00 3.392119598388671875e+01 1.256693247705698013e-02 -1.114511609077453613e+00 -3.305833935737609863e-01 1.872746646404266357e-02
3.459000000000000000e+03 6.065079879760742188e+01 2.036222457885742188e+01 4.625271260738372803e-01 2.607640981674194336e+00 9.210504889488220215e-01 -5.419498682022094727e-01
3.460000000000000000e+03 7.505711364746093750e+01 -8.189802169799804688e+00 -1.562546491622924805e+00 1.254129886627197266e+01 3.293625831604003906e+00 1.500399231910705566e+00
3.461000000000000000e+03 2.075718307495117188e+01 2.599617385864257812e+01 2.358189672231674194e-01 -2.583489716053009033e-01 -6.759005133062601089e-03 4.295700192451477051e-01
3.462000000000000000e+03 7.293973541259765625e+01 -1.577021598815917969e+01 -1.213758349418640137e+00 1.214349937438964844e+01 3.278922319412231445e+00 2.014804601669311523e+00
3.463000000000000000e+03 7.324355316162109375e+01 -1.601575469970703125e+01 -1.503418564796447754e+00 1.259442996978759766e+01 3.327303409576416016e+00 1.372947812080383301e+00
3.464000000000000000e+03 1.936412620544433594e+01 -3.073053741455078125e+01 1.993603073060512543e-03 -4.225245502311736345e-04 4.713235539384186268e-04 1.327729085460305214e-03
3.465000000000000000e+03 7.466844940185546875e+01 -7.948966979980468750e+00 -1.882350683212280273e+00 1.255807590484619141e+01 3.202717781066894531e+00 8.964177966117858887e-01
3.466000000000000000e+03 1.208644390106201172e+01 -2.774850654602050781e+01 1.026130164973437786e-03 4.798228474101051688e-05 3.222337400075048208e-04 5.138328997418284416e-04
3.467000000000000000e+03 7.752349853515625000e+01 -1.626207923889160156e+01 -3.244788348674774170e-01 9.030784606933593750e+00 2.611891746520996094e+00 -2.467563629150390625e+00
3.468000000000000000e+03 3.630114316940307617e+00 -1.060033321380615234e+01 8.369194119950407185e-07 2.681410296645481139e-05 8.295306543004699051e-06 -3.229410867788828909e-05
3.469000000000000000e+03 3.138203239440917969e+01 8.735273361206054688e+00 -3.979723528027534485e-02 -5.397301539778709412e-02 -2.813107520341873169e-02 6.212747097015380859e-01
3.470000000000000000e+03 6.219639205932617188e+01 8.192972183227539062e+00 6.095431447029113770e-01 2.030116081237792969e+00 7.918977141380310059e-01 -5.937136411666870117e-01
3.471000000000000000e+03 6.219537734985351562e+01 -2.710411453247070312e+01 -6.294157505035400391e-01 4.029374122619628906e-01 -6.794349849224090576e-02 -1.467684954404830933e-01
3.472000000000000000e+03 7.160000610351562500e+01 -7.204867362976074219e+00 -1.514007091522216797e+00 7.936426639556884766e+00 1.926725864410400391e+00 -2.273402214050292969e+00
3.473000000000000000e+03 4.642018508911132812e+01 -1.172940540313720703e+01 -8.538401722908020020e-01 1.399074345827102661e-01 -2.141798138618469238e-01 -4.807041212916374207e-02
3.474000000000000000e+03 7.277546691894531250e+01 -8.241818428039550781e+00 -1.722151517868041992e+00 1.122598171234130859e+01 2.851149082183837891e+00 -2.078094720840454102e+00
3.475000000000000000e+03 3.333194732666015625e+01 1.406234836578369141e+01 -1.238909922540187836e-02 1.143821552395820618e-01 3.059791587293148041e-02 4.590126872062683105e-01
3.476000000000000000e+03 3.356424331665039062e+01 1.707090187072753906e+01 1.454818844795227051e-01 1.348400115966796875e-01 8.409657329320907593e-02 3.212082386016845703e-01
3.477000000000000000e+03 3.360228347778320312e+01 8.082178115844726562e+00 -8.501546829938888550e-02 9.071491658687591553e-02 1.709835487417876720e-03 5.820213556289672852e-01
3.478000000000000000e+03 6.102307510375976562e+01 -2.290956497192382812e+00 -1.116915106773376465e+00 1.636356413364410400e-01 -2.859838306903839111e-01 1.681338064372539520e-02
3.479000000000000000e+03 6.223479080200195312e+01 -1.379142522811889648e+00 -6.300256252288818359e-01 2.861416339874267578e-01 -1.031651943922042847e-01 -2.723802924156188965e-01
3.480000000000000000e+03 7.438343048095703125e+01 -1.601707267761230469e+01 -1.461210846900939941e+00 1.330909729003906250e+01 3.554365873336791992e+00 -7.519805431365966797e-01
3.481000000000000000e+03 7.446941375732421875e+01 -7.635416030883789062e+00 -2.011942625045776367e+00 1.216282749176025391e+01 3.045265436172485352e+00 4.779071807861328125e-01
3.482000000000000000e+03 7.142115783691406250e+01 -8.760349273681640625e+00 -2.826800346374511719e-01 7.458345413208007812e+00 2.152699470520019531e+00 -3.155461072921752930e+00
3.483000000000000000e+03 7.473155212402343750e+01 -7.105232715606689453e+00 -1.987849235534667969e+00 1.145541858673095703e+01 2.840270996093750000e+00 6.986335515975952148e-01
3.484000000000000000e+03 7.438983154296875000e+01 -7.238612174987792969e+00 -2.164898633956909180e+00 1.185459041595458984e+01 2.906907558441162109e+00 2.454515844583511353e-01
3.485000000000000000e+03 3.010915756225585938e+01 2.030291175842285156e+01 2.456325143575668335e-01 -1.880387067794799805e-01 1.727814041078090668e-02 2.458541393280029297e-01
3.486000000000000000e+03 3.298268508911132812e+01 1.314893722534179688e+01 -3.875816240906715393e-02 1.068487539887428284e-01 2.042717859148979187e-02 5.058191418647766113e-01
3.487000000000000000e+03 3.397210311889648438e+01 -1.288934898376464844e+01 -4.729676842689514160e-01 7.518050074577331543e-02 -1.193361580371856689e-01 1.977766603231430054e-01
3.488000000000000000e+03 6.168317413330078125e+01 9.039632797241210938e+00 6.267035603523254395e-01 2.010594606399536133e+00 7.911894321441650391e-01 -5.303143858909606934e-01
3.489000000000000000e+03 6.305443954467773438e+01 -2.669788300991058350e-01 -2.771259248256683350e-01 6.985267996788024902e-01 1.264202594757080078e-01 -5.760715603828430176e-01
3.490000000000000000e+03 3.706910705566406250e+01 4.288907527923583984e+00 -3.010495007038116455e-01 2.370146811008453369e-01 -1.921043917536735535e-02 4.165136814117431641e-01
3.491000000000000000e+03 8.857828140258789062e+00 -2.363602066040039062e+01 8.453040936728939414e-05 -2.024816058110445738e-04 -3.538536111591383815e-05 3.270616580266505480e-04
3.492000000000000000e+03 7.409391784667968750e+01 -1.772915458679199219e+01 -1.764722704887390137e+00 1.104406452178955078e+01 2.783802747726440430e+00 -1.476318240165710449e-01
3.493000000000000000e+03 7.490197753906250000e+01 -3.193934059143066406e+01 1.369151100516319275e-02 7.883720397949218750e+00 2.369223594665527344e+00 4.659502208232879639e-01
3.494000000000000000e+03 5.435730361938476562e+01 -5.741198539733886719e+00 -1.476238489151000977e+00 3.077066242694854736e-01 -3.505595624446868896e-01 1.111509278416633606e-01
3.495000000000000000e+03 6.438317871093750000e+01 -2.716773796081542969e+01 -4.237043857574462891e-01 1.664118766784667969e+00 3.721243143081665039e-01 2.978664338588714600e-01
3.496000000000000000e+03 6.511933898925781250e+01 -2.735581016540527344e+01 -5.121212005615234375e-01 1.790152072906494141e+00 3.834092617034912109e-01 3.546485006809234619e-01
3.497000000000000000e+03 3.204003906250000000e+01 1.920977210998535156e+01 2.234212160110473633e-01 -2.288266457617282867e-02 6.016156449913978577e-02 2.437912970781326294e-01
3.498000000000000000e+03 7.448094940185546875e+01 -1.685880088806152344e+01 -1.690332412719726562e+00 1.217512226104736328e+01 3.145437002182006836e+00 -7.143611311912536621e-01
3.499000000000000000e+03 4.486962509155273438e+01 -1.115711879730224609e+01 -8.066628575325012207e-01 1.679049432277679443e-01 -1.916273832321166992e-01 2.626320347189903259e-02
3.500000000000000000e+03 4.039056777954101562e+01 2.049998760223388672e+00 -4.110168516635894775e-01 2.256566137075424194e-01 -5.560807138681411743e-02 3.103574514389038086e-01
3.501000000000000000e+03 4.244642257690429688e+01 -2.162188053131103516e+00 -5.661257505416870117e-01 2.131718248128890991e-01 -1.058861762285232544e-01 3.172180652618408203e-01
3.502000000000000000e+03 6.809535217285156250e+01 -2.484794998168945312e+01 -5.321714282035827637e-01 3.654933691024780273e+00 9.368286728858947754e-01 5.822791457176208496e-01
3.503000000000000000e+03 6.000806427001953125e+01 -2.256847172975540161e-01 -4.906094372272491455e-01 4.368344545364379883e-01 -1.613249070942401886e-02 5.158388242125511169e-02
3.504000000000000000e+03 6.363265609741210938e+01 4.665220260620117188e+00 4.411885738372802734e-01 1.818239569664001465e+00 6.778284311294555664e-01 -7.804208993911743164e-01
3.505000000000000000e+03 7.381163787841796875e+01 -5.256543159484863281e+00 -1.956437587738037109e+00 9.480202674865722656e+00 2.257129430770874023e+00 -5.061679482460021973e-01
3.506000000000000000e+03 5.083104324340820312e+01 -4.945425033569335938e+00 -1.053297042846679688e+00 3.339255452156066895e-01 -2.158114314079284668e-01 2.892670929431915283e-01
3.507000000000000000e+03 6.583764648437500000e+01 -2.755795860290527344e+01 -3.283786177635192871e-01 2.351248979568481445e+00 6.068611145019531250e-01 4.875732362270355225e-01
3.508000000000000000e+03 6.016144561767578125e+01 1.782832503318786621e+00 -4.204849898815155029e-02 7.412085533142089844e-01 2.097480148077011108e-01 -1.114015877246856689e-01
3.509000000000000000e+03 7.306346130371093750e+01 -7.862215042114257812e+00 -1.988940596580505371e+00 1.140872383117675781e+01 2.825934886932373047e+00 -1.485038638114929199e+00
3.510000000000000000e+03 7.523330688476562500e+01 -2.763760328292846680e+00 -1.076665282249450684e+00 8.732375144958496094e+00 2.296712875366210938e+00 -2.683082222938537598e-01
3.511000000000000000e+03 7.288458251953125000e+01 2.090485000610351562e+01 1.555789411067962646e-01 5.006056785583496094e+00 1.548490762710571289e+00 -5.421336889266967773e-01
3.512000000000000000e+03 5.706520843505859375e+01 -1.573308467864990234e+00 -8.460801243782043457e-01 4.056928753852844238e-01 -1.321161687374114990e-01 3.430688381195068359e-01
3.513000000000000000e+03 4.558864974975585938e+01 -9.611848831176757812e+00 -8.611069917678833008e-01 2.059581726789474487e-01 -1.965446472167968750e-01 7.364079356193542480e-02
3.514000000000000000e+03 5.776240921020507812e+01 -4.982848465442657471e-02 -5.414657592773437500e-01 4.972662031650543213e-01 -1.325987279415130615e-02 2.793416976928710938e-01
3.515000000000000000e+03 6.114662170410156250e+01 5.827291607856750488e-01 -2.098229378461837769e-01 6.170144081115722656e-01 1.221574321389198303e-01 -1.843174546957015991e-01
3.516000000000000000e+03 6.043967437744140625e+01 1.080306053161621094e+00 -1.613022685050964355e-01 6.421877741813659668e-01 1.442656368017196655e-01 -1.118169352412223816e-01
3.517000000000000000e+03 6.195423126220703125e+01 5.195266008377075195e-01 -1.732159852981567383e-01 7.204552888870239258e-01 1.641718000173568726e-01 -3.472197353839874268e-01
3.518000000000000000e+03 4.663471984863281250e+01 -9.220832824707031250e+00 -9.211343526840209961e-01 2.188557237386703491e-01 -2.106835842132568359e-01 7.197982817888259888e-02
3.519000000000000000e+03 7.248804473876953125e+01 2.760722637176513672e+00 -1.939873546361923218e-01 5.955987930297851562e+00 1.728600144386291504e+00 -1.384205579757690430e+00
3.520000000000000000e+03 3.871706771850585938e+01 1.705343365669250488e+00 -4.025347232818603516e-01 2.193883657455444336e-01 -5.494390428066253662e-02 3.365732729434967041e-01
3.521000000000000000e+03 3.605105590820312500e+01 -7.126416206359863281e+00 -6.038582324981689453e-01 1.821262836456298828e-01 -1.265195906162261963e-01 2.593309879302978516e-01
3.522000000000000000e+03 4.287820816040039062e+01 -8.072630882263183594e+00 -7.428020238876342773e-01 2.209208756685256958e-01 -1.565643399953842163e-01 1.825984269380569458e-01
3.523000000000000000e+03 3.739242553710937500e+01 1.246593117713928223e+00 -4.090780019760131836e-01 2.073212116956710815e-01 -6.052703410387039185e-02 3.378050029277801514e-01
3.524000000000000000e+03 4.057984161376953125e+01 -6.486711502075195312e+00 -6.702611446380615234e-01 2.217658460140228271e-01 -1.345485895872116089e-01 2.437120527029037476e-01
3.525000000000000000e+03 7.238171386718750000e+01 1.733899688720703125e+01 2.115109115839004517e-01 5.061795711517333984e+00 1.581992030143737793e+00 -7.094829678535461426e-01
3.526000000000000000e+03 3.336552810668945312e+01 -1.717727422714233398e+00 -4.760258495807647705e-01 1.558132320642471313e-01 -9.606377780437469482e-02 2.856242358684539795e-01
3.527000000000000000e+03 2.962768936157226562e+01 -4.476854324340820312e+00 -6.021307110786437988e-01 9.417396038770675659e-02 -1.523870229721069336e-01 3.039386868476867676e-01
3.528000000000000000e+03 3.317854690551757812e+01 -5.923409938812255859e+00 -5.847617387771606445e-01 1.549365818500518799e-01 -1.289475411176681519e-01 2.863342463970184326e-01
3.529000000000000000e+03 3.984691619873046875e+01 -7.259945869445800781e+00 -6.632341146469116211e-01 2.117865830659866333e-01 -1.354342550039291382e-01 2.288546115159988403e-01
3.530000000000000000e+03 3.528581237792968750e+01 -5.591140270233154297e+00 -5.851316452026367188e-01 1.851474046707153320e-01 -1.199952736496925354e-01 2.755070924758911133e-01
3.531000000000000000e+03 3.885940933227539062e+01 -1.677581310272216797e+00 -5.213084220886230469e-01 2.126977294683456421e-01 -9.258320182561874390e-02 3.061200976371765137e-01
3.532000000000000000e+03 3.821722030639648438e+01 -2.774871826171875000e+00 -5.459393262863159180e-01 2.112545818090438843e-01 -1.004054173827171326e-01 2.948983311653137207e-01
3.533000000000000000e+03 3.377091979980468750e+01 -5.215879917144775391e+00 -5.745437741279602051e-01 1.674218028783798218e-01 -1.221365854144096375e-01 2.831709384918212891e-01
3.534000000000000000e+03 6.811247253417968750e+01 -1.113396644592285156e+01 1.838864833116531372e-01 -4.766914546489715576e-01 -8.784148842096328735e-02 3.085260391235351562e-01
3.535000000000000000e+03 6.825749969482421875e+01 -1.111268806457519531e+01 1.125816907733678818e-02 -1.693664044141769409e-01 -4.743247106671333313e-02 1.400020569562911987e-01
3.536000000000000000e+03 6.971682739257812500e+01 -1.102439022064208984e+01 7.143659591674804688e-01 2.392546534538269043e-01 2.860861718654632568e-01 -1.291765421628952026e-01
3.537000000000000000e+03 6.953819274902343750e+01 -1.197147083282470703e+01 -1.044260263442993164e+00 1.056675314903259277e-01 -2.815778255462646484e-01 2.145851105451583862e-01
3.538000000000000000e+03 6.973912048339843750e+01 -1.176524829864501953e+01 -3.399757742881774902e-01 1.818931251764297485e-01 -4.742480069398880005e-02 3.151909410953521729e-01
3.539000000000000000e+03 6.981376647949218750e+01 -1.139760112762451172e+01 1.398058235645294189e-01 9.847786277532577515e-02 7.148510962724685669e-02 1.125732511281967163e-01
3.540000000000000000e+03 6.900961303710937500e+01 -1.095692348480224609e+01 2.233280688524246216e-01 1.162061691284179688e-01 1.018602699041366577e-01 1.583247482776641846e-01
3.541000000000000000e+03 6.979932403564453125e+01 -1.121792602539062500e+01 6.072758436203002930e-01 1.313952952623367310e-01 2.216013520956039429e-01 -8.652435988187789917e-02
3.542000000000000000e+03 6.850845336914062500e+01 -1.071467304229736328e+01 1.786002367734909058e-01 -1.176221817731857300e-01 1.829341799020767212e-02 6.378760188817977905e-02
3.543000000000000000e+03 6.960059356689453125e+01 -1.136909008026123047e+01 5.729027092456817627e-02 3.380445763468742371e-02 2.732841856777667999e-02 1.069418191909790039e-01
3.544000000000000000e+03 6.979692077636718750e+01 -1.158612728118896484e+01 -9.521827101707458496e-02 1.272203922271728516e-01 9.600635617971420288e-03 2.830042541027069092e-01
3.545000000000000000e+03 6.932631683349609375e+01 -1.125182533264160156e+01 2.859220802783966064e-01 1.653316169977188110e-01 1.353761106729507446e-01 1.428142935037612915e-01
3.546000000000000000e+03 6.955830383300781250e+01 -1.159972476959228516e+01 -2.960283458232879639e-01 5.869194492697715759e-02 -7.120091468095779419e-02 1.642526537179946899e-01
3.547000000000000000e+03 6.801382446289062500e+01 -1.064324951171875000e+01 -8.813127875328063965e-01 -1.055416107177734375e+00 -5.810186862945556641e-01 3.096184730529785156e-01
3.548000000000000000e+03 6.917753601074218750e+01 -1.167109203338623047e+01 -4.400435984134674072e-01 1.014337092638015747e-01 -1.015829667448997498e-01 2.446368634700775146e-01
3.549000000000000000e+03 6.956996917724609375e+01 -1.076478481292724609e+01 9.060555100440979004e-01 4.461908638477325439e-01 4.056739211082458496e-01 -3.415721058845520020e-01
3.550000000000000000e+03 6.816678619384765625e+01 -1.086244297027587891e+01 5.396963357925415039e-01 -8.231276273727416992e-02 1.372150778770446777e-01 2.703646123409271240e-01
3.551000000000000000e+03 6.809191131591796875e+01 -1.094164657592773438e+01 4.690177366137504578e-02 -6.702023744583129883e-01 -1.869901865720748901e-01 2.690075337886810303e-01
3.552000000000000000e+03 6.858914947509765625e+01 -1.112576961517333984e+01 1.353430794551968575e-03 -1.671455800533294678e-01 -4.973764345049858093e-02 2.502492666244506836e-01
3.553000000000000000e+03 6.809300994873046875e+01 -1.065965175628662109e+01 -7.062543034553527832e-01 -4.929486513137817383e-01 -3.597608804702758789e-01 3.529373705387115479e-01
3.554000000000000000e+03 6.800016021728515625e+01 -1.077871131896972656e+01 -2.132139205932617188e-01 -6.735718250274658203e-01 -2.660357356071472168e-01 1.612390279769897461e-01
3.555000000000000000e+03 6.853106689453125000e+01 -1.169056224822998047e+01 -1.864883452653884888e-01 -1.441037803888320923e-01 -9.917763620615005493e-02 2.113647162914276123e-01
3.556000000000000000e+03 6.812181091308593750e+01 -1.145514011383056641e+01 -1.585237830877304077e-01 -4.290508925914764404e-01 -1.762723922729492188e-01 1.446384042501449585e-01
3.557000000000000000e+03 6.795246124267578125e+01 -1.116026401519775391e+01 -4.412112012505531311e-02 -5.670403838157653809e-01 -1.833484619855880737e-01 1.644666194915771484e-01
3.558000000000000000e+03 6.802759552001953125e+01 -1.102862453460693359e+01 1.326101273298263550e-01 -4.907188415527343750e-01 -1.074326112866401672e-01 2.212654948234558105e-01
3.559000000000000000e+03 1.707021331787109375e+01 -4.268254280090332031e+00 1.530267400084994733e-05 8.067632734309881926e-06 7.011091838649008423e-06 -6.061081876396201551e-07
3.560000000000000000e+03 1.621372604370117188e+01 -3.519178628921508789e+00 -1.840368781813594978e-06 1.338184688393084798e-06 -1.506552393948368262e-07 1.575820306243258528e-06
3.561000000000000000e+03 1.551975250244140625e+01 -3.071315765380859375e+00 2.234292878711130470e-06 8.948973686528916005e-07 9.387571253682835959e-07 -2.231491407655994408e-06
3.562000000000000000e+03 1.743298530578613281e+01 -3.927525758743286133e+00 -4.719197931990493089e-06 1.187081238640530501e-06 -1.059635110323142726e-06 9.048478204931598157e-06
3.563000000000000000e+03 1.686964225769042969e+01 -3.746908664703369141e+00 -9.340260476164985448e-06 -6.403556653822306544e-06 -4.723145138996187598e-06 -4.453287601791089401e-06
3.564000000000000000e+03 1.770870399475097656e+01 -3.523030519485473633e+00 1.020671675178164151e-06 5.978169156151125208e-06 2.099652192555367947e-06 8.888417823982308619e-07
3.565000000000000000e+03 1.647576141357421875e+01 -2.802853107452392578e+00 1.339110326625814196e-06 4.866404879066976719e-07 5.477252216223860160e-07 1.731553084027837031e-06
3.566000000000000000e+03 1.583880043029785156e+01 -2.393620014190673828e+00 -1.596901597622490954e-06 9.656394013290992007e-07 -1.893786389928209246e-07 1.477903197155683301e-06
3.567000000000000000e+03 1.709996223449707031e+01 -3.162671089172363281e+00 5.100080713305032987e-08 -4.637422534869983792e-06 -1.375926558466744609e-06 -2.211674200225388631e-06
3.568000000000000000e+03 1.831673240661621094e+01 -5.410979747772216797e+00 1.912337438625399955e-06 8.950807568908203393e-06 3.258943706896388903e-06 1.434731643712439109e-06
3.569000000000000000e+03 1.916439056396484375e+01 -5.026451110839843750e+00 -9.975243301596492529e-06 -5.411703114077681676e-06 -4.616083970176987350e-06 -6.276698968576965854e-06
3.570000000000000000e+03 1.766269302368164062e+01 -4.787173271179199219e+00 -5.562900696531869471e-06 -1.048101694323122501e-05 -4.813175564777338877e-06 1.849260797825991176e-06
3.571000000000000000e+03 1.960504913330078125e+01 -5.639448642730712891e+00 4.917219939670758322e-06 3.198952526872744784e-06 2.434851694488315843e-06 3.981591817137086764e-06
3.572000000000000000e+03 1.899693298339843750e+01 -6.071344852447509766e+00 -2.190761961173848249e-06 -9.189669981424231082e-06 -3.414129423617850989e-06 -2.942401124528259970e-06
3.573000000000000000e+03 1.877602386474609375e+01 -4.501259326934814453e+00 9.672627129475586116e-06 2.689640041353413835e-06 3.708680196723435074e-06 4.962569164490560070e-06
3.574000000000000000e+03 1.796581268310546875e+01 -4.379739761352539062e+00 5.538962795981206000e-06 2.504271151337889023e-06 2.412970161458360963e-06 -5.198572580411564559e-06
3.575000000000000000e+03 1.826732254028320312e+01 -3.990119457244873047e+00 -6.168800155137432739e-06 -5.341230007616104558e-06 -3.453008957876591012e-06 -1.371655145021577482e-07
3.576000000000000000e+03 1.856897354125976562e+01 -4.905802249908447266e+00 -2.238002480225986801e-06 -1.472983655048665241e-07 -7.155902608246833552e-07 3.653098929135012440e-06
3.577000000000000000e+03 2.053260231018066406e+01 -6.879840850830078125e+00 3.094660314673092216e-06 4.573387741402257234e-06 2.300414280398399569e-06 4.020467713417019695e-06
3.578000000000000000e+03 1.993260192871093750e+01 -7.313529014587402344e+00 1.039148003201262327e-07 -9.250515176972839981e-06 -2.743980076047591865e-06 -4.501003331824904308e-06
3.579000000000000000e+03 1.952820014953613281e+01 -6.721570968627929688e+00 2.524149067539838143e-06 9.475578735873568803e-06 3.599918272811919451e-06 5.237614459474571049e-06
3.580000000000000000e+03 2.073616981506347656e+01 -8.501105308532714844e+00 4.701995294453809038e-06 -9.782953384274151176e-06 -1.524287426946102642e-06 -2.565435806900495663e-06
3.581000000000000000e+03 2.033558845520019531e+01 -7.906519412994384766e+00 -2.576679207777488045e-06 9.352844244858715683e-06 2.032849351962795481e-06 3.959890818805433810e-06
3.582000000000000000e+03 2.136049652099609375e+01 -8.103272438049316406e+00 -1.631303234717051964e-06 3.184121169397258200e-06 4.658453747197199846e-07 1.112910126721544657e-06
3.583000000000000000e+03 2.011603736877441406e+01 -6.269954204559326172e+00 -4.808381163456942886e-06 -5.207178674027090892e-06 -3.004667860295739956e-06 -4.107622316951164976e-06
3.584000000000000000e+03 2.094775009155273438e+01 -7.490758895874023438e+00 -9.872896953311283141e-07 -4.639520284399623051e-06 -1.688042971181857865e-06 -2.499181164239416830e-06
3.585000000000000000e+03 2.211177825927734375e+01 -9.384786605834960938e+00 -5.396031156124081463e-06 9.629129635868594050e-07 -1.329935457761166617e-06 -1.755668222358508501e-06
3.586000000000000000e+03 2.111507797241210938e+01 -9.119487762451171875e+00 -5.207190497458213940e-06 8.791705113253556192e-06 1.075354475688072853e-06 9.591003617970272899e-07
3.587000000000000000e+03 2.147401618957519531e+01 -9.760485649108886719e+00 4.522854396782349795e-06 -6.769160791009198874e-06 -6.738919751114735845e-07 3.848582252885535127e-07
3.588000000000000000e+03 2.247536849975585938e+01 -1.003463172912597656e+01 6.079859758756356314e-06 -6.082199774937180337e-07 1.641491962800500914e-06 3.034343535546213388e-06
3.589000000000000000e+03 2.219019126892089844e+01 -1.104334068298339844e+01 2.784023763524601236e-06 -4.822863957087974995e-06 -6.116520694376959000e-07 2.108029548253398389e-06
3.590000000000000000e+03 2.283775901794433594e+01 -1.068520069122314453e+01 -5.757332019129535183e-06 -5.042664952270570211e-07 -1.878479565675661433e-06 -3.337446969453594647e-06
3.591000000000000000e+03 2.174793815612792969e+01 -8.735008239746093750e+00 3.568142346921376884e-06 -2.485568757037981413e-06 3.247720883337024134e-07 6.662222062914224807e-07
3.592000000000000000e+03 2.183270454406738281e+01 -1.040155124664306641e+01 -3.785208036788390018e-06 5.295939445204567164e-06 4.532193713657761691e-07 -7.664716576982755214e-07
3.593000000000000000e+03 2.319392776489257812e+01 -1.134591865539550781e+01 4.989144144929014146e-06 5.741884478993597440e-07 1.668999743742460851e-06 3.015856918864301406e-06
3.594000000000000000e+03 2.326423454284667969e+01 -1.306139087677001953e+01 -4.460669060790678486e-06 2.761434643616667017e-06 -5.097703592582547572e-07 -5.247066496849583928e-07
3.595000000000000000e+03 2.254657173156738281e+01 -1.170469474792480469e+01 -3.748655785784649197e-07 2.113133859893423505e-06 5.214805014475132339e-07 -2.218238932982785627e-06
3.596000000000000000e+03 2.362532424926757812e+01 -1.373823738098144531e+01 5.221155333856586367e-06 -2.505606744307442568e-06 8.146646450768457726e-07 -7.352219881795463152e-07
3.597000000000000000e+03 2.390093421936035156e+01 -1.268251132965087891e+01 4.003690719400765374e-06 8.959186175161448773e-07 1.469882818128098734e-06 1.380411049467511475e-06
3.598000000000000000e+03 2.354633140563964844e+01 -1.201502132415771484e+01 -3.554418753992649727e-06 -4.412744374349131249e-07 -1.198707991534320172e-06 -2.876513008231995627e-06
3.599000000000000000e+03 2.425669479370117188e+01 -1.334930610656738281e+01 -5.677091394318267703e-06 8.451748385596147273e-07 -1.449574938305886462e-06 -1.892504315037513152e-06
3.600000000000000000e+03 2.290430450439453125e+01 -1.238384914398193359e+01 2.398259539404534735e-06 -1.794639615582127590e-06 1.810859799888930866e-07 1.577970643040771392e-08
3.601000000000000000e+03 2.466052436828613281e+01 -1.399974441528320312e+01 8.128755325742531568e-06 9.939267897607351188e-08 2.468444336045649834e-06 3.120115252386312932e-06
3.602000000000000000e+03 2.453465080261230469e+01 -1.509176063537597656e+01 1.293674267799360678e-05 -1.180331946670776233e-05 3.400270145448303083e-07 7.237486897793132812e-06
3.603000000000000000e+03 2.502702331542968750e+01 -1.576423931121826172e+01 -5.721367870137328282e-06 -1.807277840271126479e-06 -2.258593667647801340e-06 -1.621113733563106507e-05
3.604000000000000000e+03 2.404776763916015625e+01 -1.441548252105712891e+01 -9.617064279154874384e-06 5.558486463996814564e-06 -1.217573412759520579e-06 2.133464477083180100e-06
3.605000000000000000e+03 2.511550712585449219e+01 -1.463246059417724609e+01 -4.681656719185411930e-06 -8.288317872029438149e-07 -1.653146568969532382e-06 -6.520625902339816093e-06
3.606000000000000000e+03 2.552395820617675781e+01 -1.643102645874023438e+01 -4.179105985713249538e-07 1.851944216468837112e-05 5.430459168564993888e-06 5.934650744165992364e-06
3.607000000000000000e+03 2.604132461547851562e+01 -1.588424587249755859e+01 -2.513840399842592888e-06 -1.977035253730718978e-06 -1.347262696071993560e-06 -2.267472382300184108e-06
3.608000000000000000e+03 2.557597732543945312e+01 -1.526137638092041016e+01 2.854435479093808681e-06 5.273143415251979604e-06 2.438273668303736486e-06 3.395340854694950394e-06
3.609000000000000000e+03 2.685541343688964844e+01 -1.736337089538574219e+01 5.145338491274742410e-06 -5.624816822091815993e-06 -1.438434225065066130e-07 5.754514859290793538e-06
3.610000000000000000e+03 2.962472152709960938e+01 -1.787146186828613281e+01 7.976877895998768508e-06 -1.493499866001002374e-07 2.348258249185164459e-06 4.639485268853604794e-06
3.611000000000000000e+03 2.734983825683593750e+01 -1.678857994079589844e+01 -9.937530194292776287e-07 -2.098233153446926735e-06 -9.275958063881262206e-07 -4.331513082433957607e-06
3.612000000000000000e+03 3.080405235290527344e+01 -1.850280952453613281e+01 -2.531903419367154129e-06 1.616871713849832304e-06 -2.745094889178290032e-07 5.797333528789749835e-07
3.613000000000000000e+03 3.130167770385742188e+01 -1.882423973083496094e+01 2.212553908975678496e-06 9.591601610736688599e-07 9.515142096461204346e-07 1.023618096951395273e-06
3.614000000000000000e+03 3.019455528259277344e+01 -1.864775276184082031e+01 -3.520751079122419469e-06 -2.610459887364413589e-06 -1.839363335420785006e-06 -2.326382400497095659e-06
3.615000000000000000e+03 2.885134124755859375e+01 -1.756889533996582031e+01 -4.177001301286509261e-06 -6.114593702477577608e-07 -1.436538127563835587e-06 1.324443843486733385e-07
3.616000000000000000e+03 2.758355712890625000e+01 -1.776513671875000000e+01 -4.767357950186124071e-06 -2.926070692410576157e-06 -2.308028570041642524e-06 -9.131034858000930399e-06
3.617000000000000000e+03 2.663327598571777344e+01 -1.639202117919921875e+01 5.247406988928560168e-06 1.504924625805870164e-06 2.025699586738483049e-06 2.620923851281986572e-06
3.618000000000000000e+03 2.613398170471191406e+01 -1.696289443969726562e+01 -7.881789315433707088e-06 -2.747949793047155254e-06 -3.188921937180566601e-06 2.949182089651003480e-06
3.619000000000000000e+03 2.855906486511230469e+01 -1.814636802673339844e+01 5.319566298567224294e-06 7.862979146011639386e-06 3.954763542424188927e-06 2.862756900867680088e-06
3.620000000000000000e+03 3.022897911071777344e+01 -1.815928840637207031e+01 -8.623281928521464579e-07 -4.038469683109724429e-07 -3.798525369802518981e-07 -6.787984148104442284e-06
3.621000000000000000e+03 2.958772468566894531e+01 -1.828534126281738281e+01 -1.551826926515786909e-06 -7.566871317976620048e-06 -2.735609541559824720e-06 1.429706117050955072e-06
3.622000000000000000e+03 2.807311248779296875e+01 -1.718642997741699219e+01 -6.245275585570198018e-07 3.165476755384588614e-06 7.622847988386638463e-07 1.009778770821867511e-06
3.623000000000000000e+03 2.805256843566894531e+01 -1.599539375305175781e+01 -1.798979490995407104e-01 -8.105700463056564331e-02 -7.828648388385772705e-02 1.301392018795013428e-01
3.624000000000000000e+03 2.771710586547851562e+01 -1.629158973693847656e+01 -1.794986873865127563e-01 -6.507980823516845703e-02 -7.337354868650436401e-02 1.106350496411323547e-01
3.625000000000000000e+03 3.209578704833984375e+01 -1.767966651916503906e+01 -2.523393034934997559e-01 -6.664958316832780838e-03 -7.770127803087234497e-02 9.814535081386566162e-02
3.626000000000000000e+03 2.906910705566406250e+01 -1.685614395141601562e+01 -2.168353945016860962e-01 -6.800904870033264160e-02 -8.545333147048950195e-02 1.251778751611709595e-01
3.627000000000000000e+03 3.341270828247070312e+01 -1.870440673828125000e+01 -2.105091214179992676e-01 3.173649543896317482e-03 -6.220064312219619751e-02 3.277012333273887634e-02
3.628000000000000000e+03 2.706196594238281250e+01 -1.589187431335449219e+01 -1.226457059383392334e-01 -6.042962148785591125e-02 -5.492259934544563293e-02 9.476558119058609009e-02
3.629000000000000000e+03 2.923283767700195312e+01 -1.609536933898925781e+01 -2.221442759037017822e-01 -7.167549431324005127e-02 -8.814592659473419189e-02 1.402367502450942993e-01
3.630000000000000000e+03 2.999985885620117188e+01 -1.651846694946289062e+01 -2.371370345354080200e-01 -5.258516967296600342e-02 -8.691666275262832642e-02 1.295245289802551270e-01
3.631000000000000000e+03 3.072626876831054688e+01 -1.692644691467285156e+01 -2.399557679891586304e-01 -4.234585538506507874e-02 -8.469048887491226196e-02 1.173288300633430481e-01
3.632000000000000000e+03 3.143663406372070312e+01 -1.732215881347656250e+01 -2.402536422014236450e-01 -1.411493774503469467e-02 -7.631057500839233398e-02 9.969758987426757812e-02
3.633000000000000000e+03 2.774296760559082031e+01 -1.514274120330810547e+01 -1.788658946752548218e-01 -9.816122800111770630e-02 -8.310813456773757935e-02 1.669912338256835938e-01
3.634000000000000000e+03 2.846567535400390625e+01 -1.561615467071533203e+01 -2.011632174253463745e-01 -8.450818806886672974e-02 -8.570142090320587158e-02 1.550277024507522583e-01
3.635000000000000000e+03 3.260166549682617188e+01 -1.817698669433593750e+01 -2.003131210803985596e-01 5.258420947939157486e-03 -5.851641297340393066e-02 7.571762055158615112e-02
3.636000000000000000e+03 2.739274024963378906e+01 -1.552256393432617188e+01 -1.522165834903717041e-01 -8.859577775001525879e-02 -7.224370539188385010e-02 1.435600221157073975e-01
3.637000000000000000e+03 2.835108566284179688e+01 -1.656591796875000000e+01 -2.078729569911956787e-01 -7.365108281373977661e-02 -8.445721119642257690e-02 1.232076361775398254e-01
3.638000000000000000e+03 3.125172996520996094e+01 -1.807483100891113281e+01 -1.940272897481918335e-01 -4.422402381896972656e-02 -7.147539407014846802e-02 9.425028413534164429e-02
3.639000000000000000e+03 3.190382575988769531e+01 -1.842963600158691406e+01 -1.632669866085052490e-01 -6.681925151497125626e-03 -5.098467320203781128e-02 6.588837504386901855e-02
3.640000000000000000e+03 2.982906913757324219e+01 -1.727654266357421875e+01 -2.190726399421691895e-01 -6.349161267280578613e-02 -8.476927876472473145e-02 1.206211224198341370e-01
3.641000000000000000e+03 3.054842185974121094e+01 -1.768181991577148438e+01 -2.118681967258453369e-01 -5.130996182560920715e-02 -7.895344495773315430e-02 1.100538447499275208e-01
3.642000000000000000e+03 2.535528373718261719e+01 -1.361763191223144531e+01 -1.250331103801727295e-01 -2.132295370101928711e-01 -1.014787927269935608e-01 1.696423441171646118e-01
3.643000000000000000e+03 2.599957847595214844e+01 -1.324495983123779297e+01 -1.752021312713623047e-01 -2.042381912469863892e-01 -1.138320937752723694e-01 2.169848680496215820e-01
3.644000000000000000e+03 2.628301239013671875e+01 -1.444043636322021484e+01 -1.449858844280242920e-01 -1.472032666206359863e-01 -8.765674382448196411e-02 1.581405252218246460e-01
3.645000000000000000e+03 2.572153282165527344e+01 -1.427359294891357422e+01 -1.286797225475311279e-01 -1.928474754095077515e-01 -9.645815938711166382e-02 1.572199910879135132e-01
3.646000000000000000e+03 2.649452018737792969e+01 -1.539540863037109375e+01 -8.708551526069641113e-02 -9.554927051067352295e-02 -5.479043722152709961e-02 1.026109606027603149e-01
3.647000000000000000e+03 2.713354682922363281e+01 -1.460084247589111328e+01 -1.780147850513458252e-01 -1.102703064680099487e-01 -8.648552745580673218e-02 1.791458576917648315e-01
3.648000000000000000e+03 2.657628631591796875e+01 -1.394268703460693359e+01 -1.797980070114135742e-01 -1.519689857959747314e-01 -9.953010082244873047e-02 1.908761709928512573e-01
3.649000000000000000e+03 2.681144523620605469e+01 -1.500777053833007812e+01 -1.442864388227462769e-01 -1.081001609563827515e-01 -7.571598142385482788e-02 1.533264219760894775e-01
3.650000000000000000e+03 2.604991912841796875e+01 -1.483973693847656250e+01 -1.029244363307952881e-01 -1.556973904371261597e-01 -7.758654654026031494e-02 1.268931180238723755e-01
3.651000000000000000e+03 2.387622833251953125e+01 -1.096773529052734375e+01 -1.973824948072433472e-01 -4.861966967582702637e-01 -2.050737589597702026e-01 3.052767217159271240e-01
3.652000000000000000e+03 2.422143554687500000e+01 -1.162815856933593750e+01 -1.626214683055877686e-01 -4.122572243213653564e-01 -1.724636107683181763e-01 2.634908556938171387e-01
3.653000000000000000e+03 2.456985282897949219e+01 -1.228557014465332031e+01 -1.433265209197998047e-01 -3.454068601131439209e-01 -1.466200053691864014e-01 2.226725071668624878e-01
3.654000000000000000e+03 2.520655250549316406e+01 -1.190669059753417969e+01 -2.137340605258941650e-01 -2.914137244224548340e-01 -1.515443325042724609e-01 2.786829769611358643e-01
3.655000000000000000e+03 2.492157745361328125e+01 -1.293985366821289062e+01 -1.188798174262046814e-01 -2.665171623229980469e-01 -1.156191006302833557e-01 1.926569938659667969e-01
3.656000000000000000e+03 2.555294799804687500e+01 -1.255092239379882812e+01 -1.936070919036865234e-01 -2.517994642257690430e-01 -1.336219757795333862e-01 2.500649094581604004e-01
3.657000000000000000e+03 2.452358436584472656e+01 -1.060895919799804688e+01 -2.743085026741027832e-01 -3.993771374225616455e-01 -2.021056860685348511e-01 3.485312759876251221e-01
3.658000000000000000e+03 2.486346435546875000e+01 -1.125933074951171875e+01 -2.454290688037872314e-01 -3.498229980468750000e-01 -1.785756200551986694e-01 3.091602921485900879e-01
3.659000000000000000e+03 2.278476524353027344e+01 -8.988129615783691406e+00 -3.003557920455932617e-01 -7.139093279838562012e-01 -3.042795360088348389e-01 4.646063148975372314e-01
3.660000000000000000e+03 2.241554069519042969e+01 -8.329325675964355469e+00 -3.878710865974426270e-01 -8.224830627441406250e-01 -3.631062507629394531e-01 5.424544215202331543e-01
3.661000000000000000e+03 2.379572296142578125e+01 -9.280672073364257812e+00 -3.518550992012023926e-01 -5.183766484260559082e-01 -2.610695064067840576e-01 4.402352571487426758e-01
3.662000000000000000e+03 2.315305709838867188e+01 -9.647591590881347656e+00 -2.640732526779174805e-01 -6.281008720397949219e-01 -2.676522433757781982e-01 4.027638733386993408e-01
3.663000000000000000e+03 2.352040100097656250e+01 -1.030764293670654297e+01 -2.264334857463836670e-01 -5.546330213546752930e-01 -2.343199551105499268e-01 3.551716506481170654e-01
3.664000000000000000e+03 2.416796875000000000e+01 -9.949502944946289062e+00 -3.147112429141998291e-01 -4.589428007602691650e-01 -2.320962101221084595e-01 3.877552449703216553e-01
3.665000000000000000e+03 2.304839897155761719e+01 -7.944846630096435547e+00 -4.878373146057128906e-01 -6.215181946754455566e-01 -3.328066766262054443e-01 5.410507321357727051e-01
3.666000000000000000e+03 2.342252731323242188e+01 -8.612430572509765625e+00 -4.226518571376800537e-01 -5.775164365768432617e-01 -3.000504672527313232e-01 4.947105050086975098e-01
3.667000000000000000e+03 2.176358604431152344e+01 -5.991405963897705078e+00 -7.403312325477600098e-01 -7.876920700073242188e-01 -4.584069848060607910e-01 7.360973954200744629e-01
3.668000000000000000e+03 2.073557853698730469e+01 -5.794119834899902344e+00 -7.769160866737365723e-01 -1.138298153877258301e+00 -5.745642781257629395e-01 8.863843679428100586e-01
3.669000000000000000e+03 2.159106254577636719e+01 -7.055338859558105469e+00 -5.246450304985046387e-01 -9.290518760681152344e-01 -4.361090660095214844e-01 6.874848008155822754e-01
3.670000000000000000e+03 2.201800537109375000e+01 -7.684557914733886719e+00 -4.655451476573944092e-01 -8.847765326499938965e-01 -4.050965011119842529e-01 6.254088878631591797e-01
3.671000000000000000e+03 2.264233016967773438e+01 -7.286725521087646484e+00 -5.515628457069396973e-01 -6.908419132232666016e-01 -3.727214038372039795e-01 5.886551737785339355e-01
3.672000000000000000e+03 2.132341575622558594e+01 -5.342503070831298828e+00 -8.420122861862182617e-01 -8.003118634223937988e-01 -4.926972687244415283e-01 7.590579986572265625e-01
3.673000000000000000e+03 2.116358566284179688e+01 -6.425094127655029297e+00 -5.902914404869079590e-01 -1.016014575958251953e+00 -4.818918108940124512e-01 7.719479203224182129e-01
3.674000000000000000e+03 2.220322418212890625e+01 -6.639578342437744141e+00 -6.116015315055847168e-01 -7.530186772346496582e-01 -4.093860685825347900e-01 6.670211553573608398e-01
3.675000000000000000e+03 1.974656295776367188e+01 -3.537436008453369141e+00 -1.123159527778625488e+00 -8.726738691329956055e-01 -5.987500548362731934e-01 9.274665117263793945e-01
3.676000000000000000e+03 1.870244216918945312e+01 -3.497282505035400391e+00 -1.340106844902038574e+00 -1.180575132369995117e+00 -7.562045454978942871e-01 1.162308812141418457e+00
3.677000000000000000e+03 1.974456596374511719e+01 -4.629005432128906250e+00 -9.938623905181884766e-01 -1.075886368751525879e+00 -6.209246516227722168e-01 1.017646551132202148e+00
3.678000000000000000e+03 2.026276969909667969e+01 -5.195233345031738281e+00 -9.325307011604309082e-01 -1.131982803344726562e+00 -6.193540096282958984e-01 9.820680022239685059e-01
3.679000000000000000e+03 2.083261680603027344e+01 -4.721695899963378906e+00 -9.043471813201904297e-01 -8.675044178962707520e-01 -5.315554738044738770e-01 7.960570454597473145e-01
3.680000000000000000e+03 1.920084571838378906e+01 -2.946005821228027344e+00 -1.159689188003540039e+00 -8.572978377342224121e-01 -6.050961017608642578e-01 8.609338402748107910e-01
3.681000000000000000e+03 1.922434425354003906e+01 -4.062799930572509766e+00 -1.066195964813232422e+00 -1.110023260116577148e+00 -6.528658270835876465e-01 1.083680868148803711e+00
3.682000000000000000e+03 2.029059791564941406e+01 -4.129554748535156250e+00 -9.707951545715332031e-01 -9.006687998771667480e-01 -5.614391565322875977e-01 8.916369676589965820e-01
3.683000000000000000e+03 1.724629974365234375e+01 -1.505973219871520996e+00 -1.057544827461242676e+00 -7.428454160690307617e-01 -5.401170849800109863e-01 8.730686902999877930e-01
3.684000000000000000e+03 1.620514488220214844e+01 -1.697480440139770508e+00 -1.287834763526916504e+00 -6.404100060462951660e-01 -5.784733891487121582e-01 8.550937771797180176e-01
3.685000000000000000e+03 1.748624420166015625e+01 -2.562495470046997070e+00 -1.379171967506408691e+00 -7.553041577339172363e-01 -6.403428316116333008e-01 1.018299221992492676e+00
3.686000000000000000e+03 1.812313652038574219e+01 -2.997157573699951172e+00 -1.499154686927795410e+00 -1.002866625785827637e+00 -7.506064176559448242e-01 1.135888099670410156e+00
3.687000000000000000e+03 1.859226417541503906e+01 -2.421155929565429688e+00 -1.085135221481323242e+00 -9.206491708755493164e-01 -6.017352938652038574e-01 8.732979893684387207e-01
3.688000000000000000e+03 1.657006454467773438e+01 -1.050868153572082520e+00 -9.319758415222167969e-01 -7.164413928985595703e-01 -4.945251643657684326e-01 7.595634460449218750e-01
3.689000000000000000e+03 1.792063713073730469e+01 -1.962957024574279785e+00 -1.086637496948242188e+00 -8.623288273811340332e-01 -5.846899151802062988e-01 9.394178390502929688e-01
3.690000000000000000e+03 1.684664344787597656e+01 -2.129048585891723633e+00 -1.285008430480957031e+00 -6.929831504821777344e-01 -5.933974981307983398e-01 9.369895458221435547e-01
3.691000000000000000e+03 1.437439537048339844e+01 -8.830149471759796143e-02 -6.194816827774047852e-01 -3.726135492324829102e-01 -2.976285815238952637e-01 5.283973813056945801e-01
3.692000000000000000e+03 1.338726615905761719e+01 -4.958960413932800293e-01 -5.506211519241333008e-01 -1.490083336830139160e-01 -2.098888456821441650e-01 2.961855828762054443e-01
3.693000000000000000e+03 1.481616306304931641e+01 -1.058209896087646484e+00 -8.973367810249328613e-01 -2.589841783046722412e-01 -3.468962907791137695e-01 5.022615790367126465e-01
3.694000000000000000e+03 1.552819252014160156e+01 -1.340840697288513184e+00 -1.181041717529296875e+00 -4.682283103466033936e-01 -4.947810173034667969e-01 6.730243563652038574e-01
3.695000000000000000e+03 1.586064529418945312e+01 -6.765008568763732910e-01 -7.785739302635192871e-01 -6.674068570137023926e-01 -4.337942302227020264e-01 7.244068980216979980e-01
3.696000000000000000e+03 1.362912273406982422e+01 2.041978091001510620e-01 -5.006031394004821777e-01 -3.316566646099090576e-01 -2.496779412031173706e-01 4.138008356094360352e-01
3.697000000000000000e+03 1.511841678619384766e+01 -3.819521367549896240e-01 -7.322210669517517090e-01 -5.241007804870605469e-01 -3.768965303897857666e-01 6.409945487976074219e-01
3.698000000000000000e+03 1.410233974456787109e+01 -7.764772772789001465e-01 -6.984665393829345703e-01 -2.253394871950149536e-01 -2.771418094635009766e-01 3.757316172122955322e-01
3.699000000000000000e+03 1.131013679504394531e+01 8.408998847007751465e-01 -2.717959582805633545e-01 -9.861919283866882324e-02 -1.111245453357696533e-01 1.802269816398620605e-01
3.700000000000000000e+03 1.042135906219482422e+01 2.992311716079711914e-01 -1.114729121327400208e-01 -1.569036766886711121e-02 -3.814898431301116943e-02 5.782827362418174744e-02
3.701000000000000000e+03 1.191366195678710938e+01 -7.340838760137557983e-02 -2.666608691215515137e-01 -4.651458933949470520e-02 -9.395263344049453735e-02 1.298175454139709473e-01
3.702000000000000000e+03 1.265766906738281250e+01 -2.614961266517639160e-01 -4.066066741943359375e-01 -1.227489560842514038e-01 -1.588066965341567993e-01 1.966163069009780884e-01
3.703000000000000000e+03 1.286749935150146484e+01 4.488001465797424316e-01 -4.120142757892608643e-01 -2.303622066974639893e-01 -1.927129477262496948e-01 3.362489044666290283e-01
3.704000000000000000e+03 1.052962684631347656e+01 1.034987807273864746e+00 -2.149982899427413940e-01 -8.639636635780334473e-02 -9.041839092969894409e-02 1.357210725545883179e-01
3.705000000000000000e+03 1.116801452636718750e+01 1.136300638318061829e-01 -1.746479421854019165e-01 -5.201369524002075195e-02 -6.799849122762680054e-02 8.305970579385757446e-02
3.706000000000000000e+03 1.208963775634765625e+01 6.453746557235717773e-01 -3.376304805278778076e-01 -1.805963963270187378e-01 -1.554680615663528442e-01 2.496951818466186523e-01
3.707000000000000000e+03 9.769897460937500000e+00 1.127334833145141602e+00 -1.678553223609924316e-01 -3.788127005100250244e-02 -6.172097846865653992e-02 9.373950213193893433e-02
3.708000000000000000e+03 8.908253669738769531e+00 3.834945559501647949e-01 2.281917491927742958e-03 2.532236510887742043e-03 1.444246270693838596e-03 1.797154918313026428e-02
3.709000000000000000e+03 8.148585319519042969e+00 3.813134729862213135e-01 3.053886257112026215e-02 -8.260405622422695160e-03 6.683537270873785019e-03 9.766656905412673950e-03
3.710000000000000000e+03 7.389538288116455078e+00 3.804203569889068604e-01 4.754861444234848022e-02 3.193523967638611794e-03 1.522264163941144943e-02 6.906009279191493988e-03
3.711000000000000000e+03 5.871651172637939453e+00 3.774017989635467529e-01 6.190219894051551819e-02 3.138181054964661598e-03 1.951211318373680115e-02 2.495597815141081810e-03
3.712000000000000000e+03 5.112813949584960938e+00 3.713777065277099609e-01 6.166948750615119934e-02 -4.809299018234014511e-03 1.705805584788322449e-02 -1.808222150430083275e-03
3.713000000000000000e+03 4.353719234466552734e+00 3.684233725070953369e-01 5.816340073943138123e-02 2.819904824718832970e-03 1.829499192535877228e-02 -1.333048916421830654e-03
3.714000000000000000e+03 2.836394548416137695e+00 3.605927824974060059e-01 3.788930177688598633e-02 1.943797105923295021e-03 1.194992940872907639e-02 -5.185087677091360092e-03
3.715000000000000000e+03 2.079856634140014648e+00 3.581516146659851074e-01 2.347087115049362183e-02 -1.958718057721853256e-03 6.453645881265401840e-03 -7.014218717813491821e-03
3.716000000000000000e+03 2.391224622726440430e+00 1.098151683807373047e+00 1.258050370961427689e-02 5.885933060199022293e-04 3.950729034841060638e-03 -1.466625928878784180e-02
3.717000000000000000e+03 1.335687994956970215e+00 3.668014705181121826e-01 9.846122935414314270e-03 1.732146367430686951e-03 3.473480930551886559e-03 -5.443997681140899658e-03
3.718000000000000000e+03 1.668010950088500977e+00 1.106801509857177734e+00 9.850560687482357025e-03 -3.552834677975624800e-04 2.848583040758967400e-03 -1.482944656163454056e-02
3.719000000000000000e+03 6.565449833869934082e-01 3.952373564243316650e-01 1.416682731360197067e-03 6.381727871485054493e-04 6.164566148072481155e-04 -3.549882676452398300e-03
3.720000000000000000e+03 3.126807689666748047e+00 1.100592732429504395e+00 1.563833281397819519e-02 -6.956402212381362915e-03 2.604579087346792221e-03 -1.189275551587343216e-02
3.721000000000000000e+03 3.594516992568969727e+00 3.669931590557098389e-01 4.976589977741241455e-02 -4.058977123349905014e-03 1.371207647025585175e-02 -5.289013497531414032e-03
3.722000000000000000e+03 5.340361595153808594e+00 1.111377716064453125e+00 2.721390919759869576e-03 -1.312685315497219563e-03 4.226116870995610952e-04 4.996357485651969910e-03
3.723000000000000000e+03 6.078244209289550781e+00 1.117401838302612305e+00 -9.835901670157909393e-03 -9.105850942432880402e-03 -5.682525690644979477e-03 9.450546465814113617e-03
3.724000000000000000e+03 6.630734443664550781e+00 3.795940577983856201e-01 5.675951763987541199e-02 -5.331716965883970261e-03 1.542834006249904633e-02 2.446339232847094536e-03
3.725000000000000000e+03 8.292313575744628906e+00 1.121313452720642090e+00 -7.782618701457977295e-02 -7.817252539098262787e-03 -2.569303102791309357e-02 3.926062211394309998e-02
3.726000000000000000e+03 9.031026840209960938e+00 1.123494505882263184e+00 -1.188149005174636841e-01 -3.098312765359878540e-02 -4.493940621614456177e-02 6.187872961163520813e-02
3.727000000000000000e+03 9.668079376220703125e+00 3.873348236083984375e-01 -4.965485259890556335e-02 -2.113054320216178894e-02 -2.123561874032020569e-02 3.378380089998245239e-02
3.728000000000000000e+03 7.554221630096435547e+00 1.120420336723327637e+00 -4.858103767037391663e-02 -1.404750812798738480e-02 -1.878856308758258820e-02 2.592023462057113647e-02
3.729000000000000000e+03 6.816372394561767578e+00 1.119594097137451172e+00 -2.620094083249568939e-02 -1.630471320822834969e-03 -8.349423296749591827e-03 1.809942536056041718e-02
3.730000000000000000e+03 4.602222442626953125e+00 1.108423352241516113e+00 1.040970720350742340e-02 -7.929524406790733337e-03 7.440547342412173748e-04 -2.483667805790901184e-03
3.731000000000000000e+03 3.863975048065185547e+00 1.106993198394775391e+00 1.312605477869510651e-02 -1.102848094888031483e-03 3.606961807236075401e-03 -6.170649081468582153e-03
3.732000000000000000e+03 1.009822845458984375e+00 1.135237336158752441e+00 5.702734924852848053e-03 8.404928259551525116e-03 4.232298582792282104e-03 -1.210992876440286636e-02
3.733000000000000000e+03 3.536950945854187012e-01 9.578678607940673828e-01 1.740134786814451218e-03 6.721043959259986877e-03 2.538353670388460159e-03 -2.741911215707659721e-03
3.734000000000000000e+03 1.445141410827636719e+01 -1.738320231437683105e+00 -1.569376451016069041e-07 7.291511337825795636e-06 2.140372089343145490e-06 3.826805368589702994e-06
3.735000000000000000e+03 1.399005413055419922e+01 -2.351786375045776367e+00 2.683562343008816242e-06 5.039399866291205399e-07 9.562506875226972625e-07 -2.070703430945286527e-06
3.736000000000000000e+03 1.315893840789794922e+01 -1.124567389488220215e+00 4.357523266662610695e-06 8.078000973910093307e-06 3.730657454070751555e-06 5.398963367042597383e-06
3.737000000000000000e+03 1.286564445495605469e+01 -2.057386875152587891e+00 -3.907057077867648331e-07 1.044447526510339230e-05 3.016130904143210500e-06 2.755352568328817142e-07
3.738000000000000000e+03 1.515422248840332031e+01 -2.034060716629028320e+00 -1.283757910641725175e-06 -3.701265313793555833e-06 -1.495507035542686936e-06 -1.438753429283678997e-06
3.739000000000000000e+03 1.476873493194580078e+01 -2.677469968795776367e+00 -6.762146398386903456e-08 1.453350932933972217e-06 4.157188584485993488e-07 5.119204047332459595e-07
3.740000000000000000e+03 1.380067443847656250e+01 -1.425752282142639160e+00 -1.938148216140689328e-06 -7.889612788858357817e-06 -2.948328528873389587e-06 -7.071790605550631881e-06
3.741000000000000000e+03 1.296116638183593750e+01 -1.574859380722045898e+00 -2.737713884926051833e-06 1.487832946622802410e-06 -3.749643155970261432e-07 2.351541525058564730e-06
3.742000000000000000e+03 1.342884063720703125e+01 -1.939940571784973145e+00 -1.933979547175113112e-06 -1.183736003440571949e-05 -4.131401965423719957e-06 1.490717295382637531e-06
3.743000000000000000e+03 1.109471797943115234e+01 -1.421144604682922363e+00 -1.566936248309502844e-06 9.989998943638056517e-06 2.526918706280412152e-06 7.655597983102779835e-06
3.744000000000000000e+03 1.178201866149902344e+01 -7.772919535636901855e-01 1.739629738040093798e-06 8.084555702225770801e-06 2.947255779872648418e-06 3.469582452453323640e-06
3.745000000000000000e+03 1.027668380737304688e+01 -1.233754158020019531e+00 2.833367261700914241e-06 -3.289162350483820774e-06 -1.367385777939489344e-07 -1.108422384277218953e-05
3.746000000000000000e+03 1.217507266998291016e+01 -1.835481405258178711e+00 2.913068101406679489e-06 2.585436504887184128e-06 1.649551336413423996e-06 -5.497090114658931270e-06
3.747000000000000000e+03 1.247813129425048828e+01 -9.059029817581176758e-01 -1.076030684998841025e-06 -8.463545782433357090e-06 -2.861872872017556801e-06 -4.844744125875877216e-06
3.748000000000000000e+03 1.107212448120117188e+01 -6.525825858116149902e-01 9.898468533720006235e-07 -4.910591542284237221e-06 -1.176223349830252118e-06 -3.438438398006837815e-06
3.749000000000000000e+03 1.033004570007324219e+01 -4.842335283756256104e-01 1.099696646633674391e-06 1.999169171540415846e-06 9.296597340835432988e-07 2.750554585873032920e-06
3.750000000000000000e+03 1.178715801239013672e+01 -1.412433624267578125e+00 3.343659273014054634e-06 -2.127780135197099298e-05 -5.380242782848654315e-06 -4.987606189388316125e-06
3.751000000000000000e+03 1.237739849090576172e+01 -1.387354135513305664e+00 -1.014861254589050077e-06 1.165480807685526088e-05 3.191983978467760608e-06 1.305208883195518865e-07
3.752000000000000000e+03 8.700727462768554688e+00 -1.117709517478942871e+00 3.332442588543926831e-07 1.897898073366377503e-06 6.693426826132053975e-07 -9.267786481359507889e-06
3.753000000000000000e+03 8.733464241027832031e+00 -3.777095377445220947e-01 2.511559614504221827e-06 -4.054804776387754828e-06 -4.629735883554531028e-07 3.107174734395812266e-06
3.754000000000000000e+03 9.545720100402832031e+00 -3.852295279502868652e-01 1.776289536792319268e-06 5.247457011137157679e-07 6.903105713718105108e-07 -3.647443008958362043e-06
3.755000000000000000e+03 7.920477867126464844e+00 -3.782893717288970947e-01 1.927779067045776173e-06 6.180659056553849950e-06 2.432531346130417660e-06 -2.319082796020666137e-06
3.756000000000000000e+03 6.325181007385253906e+00 -4.120943248271942139e-01 -1.368525545331067406e-06 -1.126696361097856425e-06 -7.485666060347284656e-07 4.323561370256356895e-06
3.757000000000000000e+03 5.626715183258056641e+00 -6.589151620864868164e-01 1.782256731530651450e-05 1.021708430926082656e-05 8.411895578319672495e-06 -3.844925686280475929e-06
3.758000000000000000e+03 5.109978199005126953e+00 -1.194857835769653320e+00 -1.542603968118783087e-05 -1.908943522721529007e-05 -1.035464174492517486e-05 3.368676289028371684e-06
3.759000000000000000e+03 4.560545921325683594e+00 -3.007295429706573486e-01 -2.316711515959468670e-06 1.988730764423962682e-05 5.271178906696150079e-06 2.612606238017178839e-07
3.760000000000000000e+03 3.814361572265625000e+00 -3.559346497058868408e-01 -2.553086005718796514e-06 -1.425443497282685712e-05 -5.042256361775798723e-06 -5.788969588138570543e-07
3.761000000000000000e+03 3.024296522140502930e+00 -3.709946572780609131e-01 6.391197530319914222e-06 1.011804852169007063e-05 4.952773906552465633e-06 -5.079549737274646759e-06
3.762000000000000000e+03 2.217694997787475586e+00 -3.767684400081634521e-01 3.235194753870018758e-06 -9.763281013874802738e-06 -1.958425855264067650e-06 4.115800948056858033e-06
3.763000000000000000e+03 1.421629071235656738e+00 -3.827523589134216309e-01 -5.563345894188387319e-06 2.691898771445266902e-06 -8.614341027168848086e-07 4.515153705142438412e-06
3.764000000000000000e+03 3.660075068473815918e-01 -9.624075293540954590e-01 -3.271654350101016462e-05 -2.255149775010067970e-05 -1.658041219343431294e-05 1.286724545934703201e-05
3.765000000000000000e+03 1.049754977226257324e+00 -1.145848751068115234e+00 -3.184864908689633012e-05 2.752043656073510647e-05 -1.298464098908880260e-06 9.523063454253133386e-06
3.766000000000000000e+03 9.473914146423339844e+00 -1.125229477882385254e+00 2.784418938972521573e-06 1.006741058517945930e-06 1.137348021984507795e-06 1.014388999465154484e-05
3.767000000000000000e+03 7.926810741424560547e+00 -1.118289351463317871e+00 4.762298431160161272e-06 -3.717924755619606003e-06 3.133120856091409223e-07 5.898712970520136878e-06
3.768000000000000000e+03 7.156938076019287109e+00 -1.128846406936645508e+00 -2.080738568110973574e-06 4.802531748282490298e-06 8.165379767888225615e-07 -2.299952029716223478e-06
3.769000000000000000e+03 6.409653186798095703e+00 -1.152094364166259766e+00 1.192754098156001419e-05 -1.041832365444861352e-05 4.527651924490783131e-07 -2.586345090094255283e-06
3.770000000000000000e+03 5.709451675415039062e+00 -1.214052677154541016e+00 -1.081892787624383345e-05 1.847543353505898267e-05 2.296951834068750031e-06 7.081566195665800478e-07
3.771000000000000000e+03 4.692424297332763672e+00 -8.555920124053955078e-01 1.042855456034885719e-05 1.905308090499602258e-05 8.844491276249755174e-06 -2.886950596803217195e-06
3.772000000000000000e+03 4.016042709350585938e+00 -1.095934629440307617e+00 1.244294253410771489e-05 -1.078107652574544773e-05 4.985599275642016437e-07 3.248526354582281783e-06
3.773000000000000000e+03 3.265047311782836914e+00 -1.110994696617126465e+00 -7.076936981320613995e-06 5.867149866389809176e-06 -3.629360776358225849e-07 3.046375013582292013e-06
3.774000000000000000e+03 2.497515201568603516e+00 -1.116768479347229004e+00 -1.577512989570095669e-06 -2.428883135507931001e-06 -1.201918848892091773e-06 -4.802647254109615460e-06
3.775000000000000000e+03 1.740518808364868164e+00 -1.122752308845520020e+00 1.576463910168968141e-05 -7.710646059422288090e-06 2.416197958154953085e-06 3.057164832398484577e-08
3.776000000000000000e+03 5.208349704742431641e+00 -3.231946229934692383e-01 -2.986718527608900331e-06 -1.594622517586685717e-05 -5.679883088305359706e-06 8.759803193925108644e-08
3.777000000000000000e+03 6.917955279350280762e-01 -4.058488011360168457e-01 3.289438245701603591e-05 1.864346086222212762e-05 1.546135172247886658e-05 -2.570865581219550222e-05
3.778000000000000000e+03 7.111535072326660156e+00 -3.888463973999023438e-01 3.699887656694045290e-06 -5.462674380396492779e-06 -5.288360966915206518e-07 2.906803047153516673e-07
3.779000000000000000e+03 7.278240203857421875e+01 -1.227055454254150391e+01 3.256636047363281250e+01 5.727956771850585938e+00 1.148829555511474609e+01 1.155177974700927734e+01
3.780000000000000000e+03 7.278558349609375000e+01 -1.228976058959960938e+01 3.063420486450195312e+01 1.760662651062011719e+01 1.447224998474121094e+01 2.347207832336425781e+01
3.781000000000000000e+03 7.279244232177734375e+01 -1.230797958374023438e+01 2.870691108703613281e+01 2.991703796386718750e+01 1.758718490600585938e+01 2.784197807312011719e+01
3.782000000000000000e+03 7.280271911621093750e+01 -1.232451534271240234e+01 2.500037193298339844e+01 4.264146041870117188e+01 2.029254913330078125e+01 2.947851562500000000e+01
3.783000000000000000e+03 7.281601715087890625e+01 -1.233873367309570312e+01 2.166782760620117188e+01 5.463576889038085938e+01 2.289107894897460938e+01 2.794650459289550781e+01
3.784000000000000000e+03 7.283183288574218750e+01 -1.235009098052978516e+01 1.827140808105468750e+01 6.510916900634765625e+01 2.501417350769042969e+01 2.381901741027832031e+01
3.785000000000000000e+03 7.284955596923828125e+01 -1.235815238952636719e+01 1.640678596496582031e+01 7.302334594726562500e+01 2.682904052734375000e+01 1.764240074157714844e+01
3.786000000000000000e+03 7.286850738525390625e+01 -1.236260986328125000e+01 1.611349868774414062e+01 7.776564025878906250e+01 2.816374206542968750e+01 1.015967941284179688e+01
3.787000000000000000e+03 7.288796234130859375e+01 -1.236329269409179688e+01 1.807319068908691406e+01 7.915486145019531250e+01 2.916841697692871094e+01 2.622009038925170898e+00
3.788000000000000000e+03 7.290717315673828125e+01 -1.236017417907714844e+01 2.187681007385253906e+01 7.738990783691406250e+01 2.978001403808593750e+01 -4.120969772338867188e+00
3.789000000000000000e+03 7.292542266845703125e+01 -1.235337448120117188e+01 2.712726974487304688e+01 7.332798767089843750e+01 3.013657760620117188e+01 -9.036480903625488281e+00
3.790000000000000000e+03 7.294198608398437500e+01 -1.234315395355224609e+01 3.302570343017578125e+01 6.777717590332031250e+01 3.024086380004882812e+01 -1.179028701782226562e+01
3.791000000000000000e+03 7.295625305175781250e+01 -1.232990264892578125e+01 3.875717926025390625e+01 6.198833847045898438e+01 3.022365570068359375e+01 -1.220656776428222656e+01
3.792000000000000000e+03 7.296765899658203125e+01 -1.231412792205810547e+01 4.369877624511718750e+01 5.670443725585937500e+01 3.012096405029296875e+01 -1.058504104614257812e+01
3.793000000000000000e+03 7.297578430175781250e+01 -1.229643440246582031e+01 4.733687973022460938e+01 5.275966644287109375e+01 3.002896308898925781e+01 -7.402164459228515625e+00
3.794000000000000000e+03 7.298030090332031250e+01 -1.227749824523925781e+01 4.937781906127929688e+01 5.044536590576171875e+01 2.994695663452148438e+01 -3.221255540847778320e+00
3.795000000000000000e+03 7.298104858398437500e+01 -1.225804424285888672e+01 4.973454666137695312e+01 5.011069488525390625e+01 2.995357131958007812e+01 1.329788923263549805e+00
3.796000000000000000e+03 7.297799682617187500e+01 -1.223881721496582031e+01 4.838308334350585938e+01 5.173604202270507812e+01 3.003573799133300781e+01 5.719529151916503906e+00
3.797000000000000000e+03 7.297126007080078125e+01 -1.222055244445800781e+01 4.539184570312500000e+01 5.515272521972656250e+01 3.016337203979492188e+01 9.340875625610351562e+00
3.798000000000000000e+03 7.296109008789062500e+01 -1.220394992828369141e+01 4.100805282592773438e+01 6.003289031982421875e+01 3.031228256225585938e+01 1.159942436218261719e+01
3.799000000000000000e+03 7.294788360595703125e+01 -1.218964290618896484e+01 3.560374069213867188e+01 6.581981658935546875e+01 3.042706871032714844e+01 1.198539161682128906e+01
3.800000000000000000e+03 7.293215179443359375e+01 -1.217818069458007812e+01 2.983102607727050781e+01 7.167653656005859375e+01 3.045227050781250000e+01 1.012393951416015625e+01
3.801000000000000000e+03 7.291448211669921875e+01 -1.217000102996826172e+01 2.434243774414062500e+01 7.653957366943359375e+01 3.026460456848144531e+01 5.965292453765869141e+00
3.802000000000000000e+03 7.289556121826171875e+01 -1.216541767120361328e+01 2.010339164733886719e+01 7.944857788085937500e+01 2.986559295654296875e+01 -2.112246900796890259e-01
3.803000000000000000e+03 7.287611389160156250e+01 -1.216460514068603516e+01 1.756113052368164062e+01 7.942835998535156250e+01 2.909684753417968750e+01 -7.629989147186279297e+00
3.804000000000000000e+03 7.285687255859375000e+01 -1.216759586334228516e+01 1.736883163452148438e+01 7.610774993896484375e+01 2.804297637939453125e+01 -1.542970848083496094e+01
3.805000000000000000e+03 7.283858489990234375e+01 -1.217427349090576172e+01 1.890693473815917969e+01 6.932862854003906250e+01 2.647066879272460938e+01 -2.233271980285644531e+01
3.806000000000000000e+03 7.282195281982421875e+01 -1.218438339233398438e+01 2.242447853088378906e+01 5.963962936401367188e+01 2.461923217773437500e+01 -2.745828056335449219e+01
3.807000000000000000e+03 7.280760192871093750e+01 -1.219753932952880859e+01 2.638116264343261719e+01 4.791561508178710938e+01 2.228903388977050781e+01 -3.001184844970703125e+01
3.808000000000000000e+03 7.279608154296875000e+01 -1.221323776245117188e+01 3.096329498291015625e+01 3.469204330444335938e+01 1.969660186767578125e+01 -2.941678047180175781e+01
3.809000000000000000e+03 7.278784942626953125e+01 -1.223087692260742188e+01 3.421072387695312500e+01 2.176819610595703125e+01 1.679367637634277344e+01 -2.570893859863281250e+01
3.810000000000000000e+03 7.278320312500000000e+01 -1.224978256225585938e+01 3.815808486938476562e+01 7.734784126281738281e+00 1.376786041259765625e+01 -1.444699668884277344e+01
