# el_label, x, y, sXX, sYY, sZZ, sXY
1.000000000000000000e+00 5.281809997558593750e+01 -6.426285266876220703e+00 -4.323410987854003906e+00 -2.625414848327636719e+00 -2.084647893905639648e+00 -2.700019121170043945e+00
2.000000000000000000e+00 5.262024688720703125e+01 -6.447989463806152344e+00 -2.878852486610412598e-01 1.006453156471252441e+00 2.155703753232955933e-01 7.849251031875610352e-01
3.000000000000000000e+00 5.242239379882812500e+01 -6.469693183898925781e+00 -1.568705916404724121e+00 -4.058537781238555908e-01 -5.923678874969482422e-01 -2.288356609642505646e-02
4.000000000000000000e+00 5.222453689575195312e+01 -6.491397380828857422e+00 -1.895007371902465820e+00 1.975987106561660767e-01 -5.092225670814514160e-01 1.707068979740142822e-01
5.000000000000000000e+00 5.283011627197265625e+01 -6.483440399169921875e+00 1.078951072692871094e+01 -2.410280704498291016e+00 2.513769149780273438e+00 2.113868713378906250e+00
6.000000000000000000e+00 5.264027404785156250e+01 -6.543247699737548828e+00 3.646259784698486328e+00 4.007811844348907471e-01 1.214112281799316406e+00 1.440829277038574219e+00
7.000000000000000000e+00 5.245043182373046875e+01 -6.603055000305175781e+00 3.342020511627197266e+00 9.094017148017883301e-01 1.275426626205444336e+00 2.177444219589233398e+00
8.000000000000000000e+00 5.226058578491210938e+01 -6.662862300872802734e+00 2.061271190643310547e+00 2.204317003488540649e-01 6.845108866691589355e-01 1.382217884063720703e+00
9.000000000000000000e+00 5.285303115844726562e+01 -6.537162303924560547e+00 1.572705745697021484e+01 2.808386087417602539e+00 5.560633182525634766e+00 9.127199172973632812e+00
1.000000000000000000e+01 5.267846298217773438e+01 -6.632784366607666016e+00 9.389351844787597656e+00 1.643467426300048828e+00 3.309845924377441406e+00 5.356408119201660156e+00
1.100000000000000000e+01 5.250389480590820312e+01 -6.728405952453613281e+00 6.162259578704833984e+00 2.219915628433227539e+00 2.514652490615844727e+00 4.260920047760009766e+00
1.200000000000000000e+01 5.232933044433593750e+01 -6.824028015136718750e+00 5.184185981750488281e+00 2.068781375885009766e+00 2.175890207290649414e+00 4.007954597473144531e+00
1.300000000000000000e+01 5.288596343994140625e+01 -6.585395336151123047e+00 1.710919570922851562e+01 9.854549407958984375e+00 8.089123725891113281e+00 1.447176361083984375e+01
1.400000000000000000e+01 5.273335266113281250e+01 -6.713172912597656250e+00 1.096244716644287109e+01 6.104071140289306641e+00 5.119955539703369141e+00 9.408381462097167969e+00
1.500000000000000000e+01 5.258074188232421875e+01 -6.840950489044189453e+00 8.500305175781250000e+00 4.951888561248779297e+00 4.035658359527587891e+00 7.549026012420654297e+00
1.600000000000000000e+01 5.242813110351562500e+01 -6.968727588653564453e+00 6.595876216888427734e+00 4.633690834045410156e+00 3.368870019912719727e+00 6.380981445312500000e+00
1.700000000000000000e+01 5.292765808105468750e+01 -6.626294136047363281e+00 1.516544342041015625e+01 1.849471473693847656e+01 1.009804725646972656e+01 1.761627578735351562e+01
1.800000000000000000e+01 5.280284118652343750e+01 -6.781337261199951172e+00 1.084863090515136719e+01 1.209773540496826172e+01 6.883909702301025391e+00 1.237604331970214844e+01
1.900000000000000000e+01 5.267802810668945312e+01 -6.936380386352539062e+00 8.435097694396972656e+00 9.417606353759765625e+00 5.355811119079589844e+00 9.892416000366210938e+00
2.000000000000000000e+01 5.255321121215820312e+01 -7.091423988342285156e+00 6.948539257049560547e+00 8.200219154357910156e+00 4.544627666473388672e+00 8.805009841918945312e+00
2.100000000000000000e+01 5.297651672363281250e+01 -6.658293247222900391e+00 1.232733345031738281e+01 2.749241447448730469e+01 1.194592475891113281e+01 1.805827331542968750e+01
2.200000000000000000e+01 5.288427352905273438e+01 -6.834669589996337891e+00 9.021402359008789062e+00 1.867677688598632812e+01 8.309453964233398438e+00 1.348012638092041016e+01
2.300000000000000000e+01 5.279203033447265625e+01 -7.011045455932617188e+00 7.395910739898681641e+00 1.505305099487304688e+01 6.734688282012939453e+00 1.109855651855468750e+01
2.400000000000000000e+01 5.269978713989257812e+01 -7.187421321868896484e+00 5.991281032562255859e+00 1.245593929290771484e+01 5.534166336059570312e+00 9.718797683715820312e+00
2.500000000000000000e+01 5.303067016601562500e+01 -6.680168628692626953e+00 9.121956825256347656e+00 3.544365692138671875e+01 1.336968421936035156e+01 1.597339820861816406e+01
2.600000000000000000e+01 5.297452926635742188e+01 -6.871128082275390625e+00 7.252933979034423828e+00 2.521212387084960938e+01 9.739517211914062500e+00 1.263928127288818359e+01
2.700000000000000000e+01 5.291838836669921875e+01 -7.062087535858154297e+00 5.520304679870605469e+00 2.047106170654296875e+01 7.797410011291503906e+00 1.077841377258300781e+01
2.800000000000000000e+01 5.286224746704101562e+01 -7.253046512603759766e+00 4.776171684265136719e+00 1.781608581542968750e+01 6.777677059173583984e+00 9.388640403747558594e+00
2.900000000000000000e+01 5.308804702758789062e+01 -6.691082477569580078e+00 7.465648174285888672e+00 4.169194030761718750e+01 1.474727630615234375e+01 1.189571285247802734e+01
3.000000000000000000e+01 5.307015609741210938e+01 -6.889317989349365234e+00 5.571602821350097656e+00 3.058063507080078125e+01 1.084567070007324219e+01 1.019645404815673828e+01
3.100000000000000000e+01 5.305226516723632812e+01 -7.087553024291992188e+00 4.329087734222412109e+00 2.536955070495605469e+01 8.909591674804687500e+00 8.976348876953125000e+00
3.200000000000000000e+01 5.303437423706054688e+01 -7.285788536071777344e+00 3.413973569869995117e+00 2.223504066467285156e+01 7.694704055786132812e+00 8.066785812377929688e+00
3.300000000000000000e+01 5.314645004272460938e+01 -6.690617561340332031e+00 7.344172954559326172e+00 4.541190338134765625e+01 1.582682323455810547e+01 6.772582530975341797e+00
3.400000000000000000e+01 5.316749191284179688e+01 -6.888543128967285156e+00 5.196721553802490234e+00 3.447858047485351562e+01 1.190259075164794922e+01 6.685651302337646484e+00
3.500000000000000000e+01 5.318853759765625000e+01 -7.086468219757080078e+00 3.812293052673339844e+00 2.890104103088378906e+01 9.814000129699707031e+00 6.131152629852294922e+00
3.600000000000000000e+01 5.320957946777343750e+01 -7.284393787384033203e+00 2.953960418701171875e+00 2.534757804870605469e+01 8.490461349487304688e+00 5.652030467987060547e+00
3.700000000000000000e+01 5.320364379882812500e+01 -6.678791522979736328e+00 9.276953697204589844e+00 4.672534179687500000e+01 1.680068778991699219e+01 1.691965937614440918e+00
3.800000000000000000e+01 5.326281738281250000e+01 -6.868833065032958984e+00 6.057076454162597656e+00 3.645618057250976562e+01 1.275397682189941406e+01 2.788137435913085938e+00
3.900000000000000000e+01 5.332199096679687500e+01 -7.058874607086181641e+00 4.538526535034179688e+00 3.089813995361328125e+01 1.063100051879882812e+01 2.794501304626464844e+00
4.000000000000000000e+01 5.338116455078125000e+01 -7.248916149139404297e+00 3.448994636535644531e+00 2.727004814147949219e+01 9.215713500976562500e+00 2.694552659988403320e+00
4.100000000000000000e+01 5.325744247436523438e+01 -6.656057357788085938e+00 1.262750244140625000e+01 4.589269256591796875e+01 1.755605888366699219e+01 -2.474906206130981445e+00
4.200000000000000000e+01 5.335248184204101562e+01 -6.830942630767822266e+00 8.376482963562011719e+00 3.669630432128906250e+01 1.352183532714843750e+01 -7.759399414062500000e-01
4.300000000000000000e+01 5.344752120971679688e+01 -7.005827426910400391e+00 6.265785694122314453e+00 3.132299995422363281e+01 1.127663612365722656e+01 -3.674588501453399658e-01
4.400000000000000000e+01 5.354256057739257812e+01 -7.180712699890136719e+00 5.123615741729736328e+00 2.789580154418945312e+01 9.905825614929199219e+00 -1.133898198604583740e-01
4.500000000000000000e+01 5.330578231811523438e+01 -6.623284339904785156e+00 1.700006484985351562e+01 4.373994064331054688e+01 1.822200202941894531e+01 -5.108912467956542969e+00
4.600000000000000000e+01 5.343305206298828125e+01 -6.776320934295654297e+00 1.155417537689208984e+01 3.544414520263671875e+01 1.409949684143066406e+01 -3.454471588134765625e+00
4.700000000000000000e+01 5.356032180786132812e+01 -6.929357528686523438e+00 9.037472724914550781e+00 3.051439476013183594e+01 1.186556053161621094e+01 -2.724155902862548828e+00
4.800000000000000000e+01 5.368758773803710938e+01 -7.082394123077392578e+00 7.446577072143554688e+00 2.718090820312500000e+01 1.038824558258056641e+01 -2.306083917617797852e+00
4.900000000000000000e+01 5.334682083129882812e+01 -6.581727027893066406e+00 2.139219665527343750e+01 4.091645431518554688e+01 1.869259643554687500e+01 -6.094295978546142578e+00
5.000000000000000000e+01 5.350144577026367188e+01 -6.707058906555175781e+00 1.528174591064453125e+01 3.338658523559570312e+01 1.460050010681152344e+01 -4.782828807830810547e+00
5.100000000000000000e+01 5.365607452392578125e+01 -6.832390308380126953e+00 1.218884277343750000e+01 2.879007720947265625e+01 1.229367542266845703e+01 -3.987955570220947266e+00
5.200000000000000000e+01 5.381069946289062500e+01 -6.957722187042236328e+00 1.027831077575683594e+01 2.567796897888183594e+01 1.078688335418701172e+01 -3.488003730773925781e+00
5.300000000000000000e+01 5.337898254394531250e+01 -6.532975673675537109e+00 2.529457283020019531e+01 3.827582168579101562e+01 1.907111930847167969e+01 -5.513616085052490234e+00
5.400000000000000000e+01 5.355504989624023438e+01 -6.625806331634521484e+00 1.875480842590332031e+01 3.104421424865722656e+01 1.493970775604248047e+01 -4.716611862182617188e+00
5.500000000000000000e+01 5.373111724853515625e+01 -6.718636989593505859e+00 1.531934642791748047e+01 2.681440162658691406e+01 1.264012432098388672e+01 -3.984351396560668945e+00
5.600000000000000000e+01 5.390718460083007812e+01 -6.811468124389648438e+00 1.301146411895751953e+01 2.394184112548828125e+01 1.108599185943603516e+01 -3.574266195297241211e+00
5.700000000000000000e+01 5.340103912353515625e+01 -6.478895664215087891e+00 2.808919715881347656e+01 3.622142791748046875e+01 1.929318809509277344e+01 -3.782649755477905273e+00
5.800000000000000000e+01 5.359180831909179688e+01 -6.535673141479492188e+00 2.149184417724609375e+01 2.912889862060546875e+01 1.518622303009033203e+01 -3.369196653366088867e+00
5.900000000000000000e+01 5.378258132934570312e+01 -6.592450618743896484e+00 1.773003959655761719e+01 2.509859466552734375e+01 1.284858989715576172e+01 -2.914381504058837891e+00
6.000000000000000000e+01 5.397335052490234375e+01 -6.649228096008300781e+00 1.527035522460937500e+01 2.249913787841796875e+01 1.133084774017333984e+01 -2.583203792572021484e+00
6.100000000000000000e+01 5.341214370727539062e+01 -6.421556472778320312e+00 2.954133796691894531e+01 3.516709518432617188e+01 1.941252899169921875e+01 -1.326546311378479004e+00
6.200000000000000000e+01 5.361031723022460938e+01 -6.440108299255371094e+00 2.297027587890625000e+01 2.802234268188476562e+01 1.529778575897216797e+01 -1.203823924064636230e+00
6.300000000000000000e+01 5.380849456787109375e+01 -6.458659648895263672e+00 1.904386329650878906e+01 2.416445922851562500e+01 1.296249675750732422e+01 -1.032804369926452637e+00
6.400000000000000000e+01 5.400666809082031250e+01 -6.477210998535156250e+00 1.647218322753906250e+01 2.165463638305664062e+01 1.143804550170898438e+01 -9.431830048561096191e-01
6.500000000000000000e+01 5.341187286376953125e+01 -6.363152503967285156e+00 2.952154922485351562e+01 3.521339416503906250e+01 1.942048263549804688e+01 1.376011013984680176e+00
6.600000000000000000e+01 5.360986709594726562e+01 -6.342768192291259766e+00 2.291825675964355469e+01 2.802746582031250000e+01 1.528371620178222656e+01 1.243556976318359375e+00
6.700000000000000000e+01 5.380786132812500000e+01 -6.322383880615234375e+00 1.905125808715820312e+01 2.418231773376464844e+01 1.297007274627685547e+01 1.098930239677429199e+00
6.800000000000000000e+01 5.400585937500000000e+01 -6.301999092102050781e+00 1.639465332031250000e+01 2.166495132446289062e+01 1.141788101196289062e+01 1.018125057220458984e+00
6.900000000000000000e+01 5.340023803710937500e+01 -6.305919170379638672e+00 2.798852729797363281e+01 3.626557159423828125e+01 1.927622985839843750e+01 3.799307584762573242e+00
7.000000000000000000e+01 5.359047698974609375e+01 -6.247378349304199219e+00 2.140919113159179688e+01 2.921411132812500000e+01 1.518699073791503906e+01 3.399597644805908203e+00
7.100000000000000000e+01 5.378071212768554688e+01 -6.188838005065917969e+00 1.764078521728515625e+01 2.511173820495605469e+01 1.282575702667236328e+01 2.914186239242553711e+00
7.200000000000000000e+01 5.397095108032226562e+01 -6.130297660827636719e+00 1.525207614898681641e+01 2.249276351928710938e+01 1.132345199584960938e+01 2.686158657073974609e+00
7.300000000000000000e+01 5.337768173217773438e+01 -6.252045631408691406e+00 2.514469337463378906e+01 3.840228652954101562e+01 1.906409263610839844e+01 5.497427940368652344e+00
7.400000000000000000e+01 5.355288314819335938e+01 -6.157589435577392578e+00 1.862944412231445312e+01 3.110244369506835938e+01 1.491956615447998047e+01 4.676850795745849609e+00
7.500000000000000000e+01 5.372808456420898438e+01 -6.063133239746093750e+00 1.519487571716308594e+01 2.690056419372558594e+01 1.262863254547119141e+01 3.976861000061035156e+00
7.600000000000000000e+01 5.390328598022460938e+01 -5.968677520751953125e+00 1.295229053497314453e+01 2.387794685363769531e+01 1.104907131195068359e+01 3.503749132156372070e+00
7.700000000000000000e+01 5.334506988525390625e+01 -6.203593730926513672e+00 2.123017120361328125e+01 4.101896286010742188e+01 1.867473983764648438e+01 6.008618831634521484e+00
7.800000000000000000e+01 5.349853134155273438e+01 -6.076836585998535156e+00 1.511315536499023438e+01 3.349271392822265625e+01 1.458176136016845703e+01 4.693152904510498047e+00
7.900000000000000000e+01 5.365199279785156250e+01 -5.950079441070556641e+00 1.209109783172607422e+01 2.881189346313476562e+01 1.227089786529541016e+01 3.898158073425292969e+00
8.000000000000000000e+01 5.380545043945312500e+01 -5.823322296142578125e+00 1.011233711242675781e+01 2.575389099121093750e+01 1.075986862182617188e+01 3.403469324111938477e+00
8.100000000000000000e+01 5.330364990234375000e+01 -6.162417888641357422e+00 1.679195594787597656e+01 4.383736038208007812e+01 1.818879508972167969e+01 4.956621170043945312e+00
8.200000000000000000e+01 5.342949676513671875e+01 -6.008210182189941406e+00 1.144887447357177734e+01 3.550456619262695312e+01 1.408603191375732422e+01 3.299122810363769531e+00
8.300000000000000000e+01 5.355534362792968750e+01 -5.854002475738525391e+00 8.889161109924316406e+00 3.056032180786132812e+01 1.183484458923339844e+01 2.581046819686889648e+00
8.400000000000000000e+01 5.368119049072265625e+01 -5.699794769287109375e+00 7.380791664123535156e+00 2.717547416687011719e+01 1.036687946319580078e+01 2.199575901031494141e+00
8.500000000000000000e+01 5.325500869750976562e+01 -6.130093574523925781e+00 1.252918052673339844e+01 4.594174575805664062e+01 1.754127883911132812e+01 2.243424892425537109e+00
8.600000000000000000e+01 5.334842300415039062e+01 -5.954336643218994141e+00 8.235769271850585938e+00 3.670584869384765625e+01 1.348248481750488281e+01 5.859781503677368164e-01
8.700000000000000000e+01 5.344184112548828125e+01 -5.778579235076904297e+00 6.232536792755126953e+00 3.133518218994140625e+01 1.127031612396240234e+01 1.880948394536972046e-01
8.800000000000000000e+01 5.353525924682617188e+01 -5.602822303771972656e+00 5.017869949340820312e+00 2.786651420593261719e+01 9.865315437316894531e+00 -5.108805745840072632e-02
8.900000000000000000e+01 5.320100021362304688e+01 -6.107858180999755859e+00 9.157324790954589844e+00 4.670022583007812500e+01 1.675726509094238281e+01 -1.991665959358215332e+00
9.000000000000000000e+01 5.325841522216796875e+01 -5.917277336120605469e+00 6.074719429016113281e+00 3.637379074096679688e+01 1.273455238342285156e+01 -2.990515232086181641e+00
9.100000000000000000e+01 5.331582641601562500e+01 -5.726696014404296875e+00 4.458250999450683594e+00 3.085750389099121094e+01 1.059472656250000000e+01 -2.979808092117309570e+00
9.200000000000000000e+01 5.337324142456054688e+01 -5.536115169525146484e+00 3.518594264984130859e+00 2.726054191589355469e+01 9.233740806579589844e+00 -2.845676898956298828e+00
9.300000000000000000e+01 5.314369964599609375e+01 -6.096561908721923828e+00 7.362961292266845703e+00 4.528987503051757812e+01 1.579585075378417969e+01 -7.051517963409423828e+00
9.400000000000000000e+01 5.316291046142578125e+01 -5.898450374603271484e+00 5.234358310699462891e+00 3.431884002685546875e+01 1.186595916748046875e+01 -6.935270309448242188e+00
9.500000000000000000e+01 5.318212127685546875e+01 -5.700338363647460938e+00 3.870639562606811523e+00 2.873628997802734375e+01 9.782078742980957031e+00 -6.244474887847900391e+00
9.600000000000000000e+01 5.320133590698242188e+01 -5.502226829528808594e+00 3.016708612442016602e+00 2.526782798767089844e+01 8.485361099243164062e+00 -5.787236690521240234e+00
9.700000000000000000e+01 5.308529663085937500e+01 -6.096637248992919922e+00 7.514709949493408203e+00 4.143403244018554688e+01 1.468462276458740234e+01 -1.217411518096923828e+01
9.800000000000000000e+01 5.306557083129882812e+01 -5.898576259613037109e+00 5.712584495544433594e+00 3.038783264160156250e+01 1.083012485504150391e+01 -1.037941455841064453e+01
9.900000000000000000e+01 5.304584503173828125e+01 -5.700514793395996094e+00 4.450214862823486328e+00 2.512482261657714844e+01 8.872511863708496094e+00 -9.128943443298339844e+00
1.000000000000000000e+02 5.302612304687500000e+01 -5.502453327178955078e+00 3.499602317810058594e+00 2.185149574279785156e+01 7.605329036712646484e+00 -8.163712501525878906e+00
1.010000000000000000e+02 5.302802276611328125e+01 -6.108081817626953125e+00 9.355283737182617188e+00 3.515968322753906250e+01 1.335448932647705078e+01 -1.613431358337402344e+01
1.020000000000000000e+02 5.297011566162109375e+01 -5.917650222778320312e+00 7.305572986602783203e+00 2.493618583679199219e+01 9.672528266906738281e+00 -1.280793857574462891e+01
1.030000000000000000e+02 5.291221237182617188e+01 -5.727218627929687500e+00 5.794355869293212891e+00 2.024860954284667969e+01 7.812890052795410156e+00 -1.087207031250000000e+01
1.040000000000000000e+02 5.285430526733398438e+01 -5.536786556243896484e+00 4.756233215332031250e+00 1.750765037536621094e+01 6.679164886474609375e+00 -9.641579627990722656e+00
1.050000000000000000e+02 5.297407531738281250e+01 -6.130456924438476562e+00 1.247235298156738281e+01 2.706585311889648438e+01 1.186146163940429688e+01 -1.818541908264160156e+01
1.060000000000000000e+02 5.288020324707031250e+01 -5.954942226409912109e+00 9.190388679504394531e+00 1.848367118835449219e+01 8.302218437194824219e+00 -1.347944927215576172e+01
1.070000000000000000e+02 5.278633117675781250e+01 -5.779427528381347656e+00 7.482896804809570312e+00 1.477032470703125000e+01 6.675966262817382812e+00 -1.126116561889648438e+01
1.080000000000000000e+02 5.269245910644531250e+01 -5.603912353515625000e+00 6.144555568695068359e+00 1.270788764953613281e+01 5.655733108520507812e+00 -9.716153144836425781e+00
1.090000000000000000e+02 5.292551422119140625e+01 -6.162907123565673828e+00 1.530108356475830078e+01 1.819422721862792969e+01 1.004859352111816406e+01 -1.757341766357421875e+01
1.100000000000000000e+02 5.279927062988281250e+01 -6.009025573730468750e+00 1.096403884887695312e+01 1.181653022766113281e+01 6.834170818328857422e+00 -1.234858131408691406e+01
1.110000000000000000e+02 5.267302322387695312e+01 -5.855144023895263672e+00 8.421660423278808594e+00 9.372885704040527344e+00 5.338363647460937500e+00 -9.917549133300781250e+00
1.120000000000000000e+02 5.254677963256835938e+01 -5.701262474060058594e+00 7.139589786529541016e+00 8.189430236816406250e+00 4.598706245422363281e+00 -8.579090118408203125e+00
1.130000000000000000e+02 5.288420104980468750e+01 -6.204189777374267578e+00 1.722309875488281250e+01 9.576865196228027344e+00 8.039989471435546875e+00 -1.431608772277832031e+01
1.140000000000000000e+02 5.273041534423828125e+01 -6.077830314636230469e+00 1.094742107391357422e+01 5.926251411437988281e+00 5.062101364135742188e+00 -9.353068351745605469e+00
1.150000000000000000e+02 5.257662582397460938e+01 -5.951470375061035156e+00 8.470428466796875000e+00 4.935921192169189453e+00 4.021904945373535156e+00 -7.397925376892089844e+00
1.160000000000000000e+02 5.242284011840820312e+01 -5.825110912322998047e+00 6.668263435363769531e+00 4.283592224121093750e+00 3.285556793212890625e+00 -6.268564701080322266e+00
1.170000000000000000e+02 5.285171508789062500e+01 -6.252725601196289062e+00 1.564216041564941406e+01 2.590828895568847656e+00 5.469896793365478516e+00 -8.970518112182617188e+00
1.180000000000000000e+02 5.267626953125000000e+01 -6.158723354339599609e+00 9.333943367004394531e+00 1.605601549148559570e+00 3.281863689422607422e+00 -5.216295719146728516e+00
1.190000000000000000e+02 5.250082397460937500e+01 -6.064721107482910156e+00 6.070321559906005859e+00 2.109732389450073242e+00 2.454016208648681641e+00 -4.122372150421142578e+00
1.200000000000000000e+02 5.232537841796875000e+01 -5.970718860626220703e+00 5.128924846649169922e+00 1.859333872795104980e+00 2.096477508544921875e+00 -4.001397609710693359e+00
1.210000000000000000e+02 5.282929992675781250e+01 -6.306657314300537109e+00 1.060407543182373047e+01 -2.398974895477294922e+00 2.461530208587646484e+00 -1.941482663154602051e+00
1.220000000000000000e+02 5.263891220092773438e+01 -6.248609542846679688e+00 3.463670015335083008e+00 3.404414653778076172e-01 1.141233444213867188e+00 -1.373811960220336914e+00
1.230000000000000000e+02 5.244852447509765625e+01 -6.190561294555664062e+00 3.286049127578735352e+00 8.710309863090515137e-01 1.247124075889587402e+00 -2.061670780181884766e+00
1.240000000000000000e+02 5.225813293457031250e+01 -6.132513523101806641e+00 1.877002835273742676e+00 1.681353151798248291e-01 6.135414242744445801e-01 -1.393085598945617676e+00
1.250000000000000000e+02 5.281781387329101562e+01 -6.363921165466308594e+00 -4.666299343109130859e+00 -2.619362831115722656e+00 -2.185698747634887695e+00 2.695054531097412109e+00
1.260000000000000000e+02 5.261976623535156250e+01 -6.344048976898193359e+00 -4.530852735042572021e-01 1.041327834129333496e+00 1.764727681875228882e-01 -7.508344054222106934e-01
1.270000000000000000e+02 5.242171859741210938e+01 -6.324176788330078125e+00 -1.691938519477844238e+00 -4.755020439624786377e-01 -6.502321958541870117e-01 9.187199175357818604e-03
1.280000000000000000e+02 5.222367477416992188e+01 -6.304304599761962891e+00 -1.946936964988708496e+00 2.941310703754425049e-01 -4.958417713642120361e-01 -1.343131363391876221e-01
1.290000000000000000e+02 2.196186065673828125e+01 -6.700578212738037109e+00 -4.174736440181732178e-01 7.716833148151636124e-03 -1.229270473122596741e-01 -2.233592793345451355e-03
1.300000000000000000e+02 2.033289909362792969e+01 -7.179516792297363281e+00 -2.755641341209411621e-01 1.615134999155998230e-02 -7.782383263111114502e-02 -9.788692742586135864e-02
1.310000000000000000e+02 2.261169624328613281e+01 -7.556783676147460938e+00 -6.072738766670227051e-01 1.943928934633731842e-02 -1.763503700494766235e-01 -1.286264061927795410e-01
1.320000000000000000e+02 2.185197448730468750e+01 -7.432458400726318359e+00 -4.960105121135711670e-01 2.595255151391029358e-02 -1.410173922777175903e-01 -1.184431239962577820e-01
1.330000000000000000e+02 2.270871162414550781e+01 -6.822772979736328125e+00 -5.799021720886230469e-01 -6.628432311117649078e-04 -1.741694957017898560e-01 3.954943735152482986e-03
1.340000000000000000e+02 2.121509361267089844e+01 -6.576943874359130859e+00 -2.869944870471954346e-01 5.129556637257337570e-03 -8.455947786569595337e-02 -1.301112491637468338e-02
1.350000000000000000e+02 2.046852302551269531e+01 -6.451897144317626953e+00 -1.767043769359588623e-01 9.475730359554290771e-03 -5.016859620809555054e-02 -2.127003297209739685e-02
1.360000000000000000e+02 2.109233665466308594e+01 -7.306693553924560547e+00 -3.784643709659576416e-01 2.364047244191169739e-02 -1.064471751451492310e-01 -1.099532470107078552e-01
1.370000000000000000e+02 2.421343040466308594e+01 -6.977969646453857422e+00 -8.575379252433776855e-01 3.145090537145733833e-03 -2.563178539276123047e-01 2.495171269401907921e-03
1.380000000000000000e+02 2.414235687255859375e+01 -7.714632511138916016e+00 -8.474600315093994141e-01 1.377013139426708221e-02 -2.501069605350494385e-01 -1.181290671229362488e-01
1.390000000000000000e+02 2.337517356872558594e+01 -7.650850772857666016e+00 -7.229083180427551270e-01 1.277550123631954193e-02 -2.130398452281951904e-01 -1.229688897728919983e-01
1.400000000000000000e+02 2.490980529785156250e+01 -7.777047634124755859e+00 -9.677616357803344727e-01 1.050322130322456360e-02 -2.871775329113006592e-01 -1.259187757968902588e-01
1.410000000000000000e+02 2.496787261962890625e+01 -7.039327144622802734e+00 -9.969795346260070801e-01 1.938321394845843315e-03 -2.985123693943023682e-01 8.377952501177787781e-03
1.420000000000000000e+02 2.567740631103515625e+01 -7.838097095489501953e+00 -1.072961568832397461e+00 -4.236450418829917908e-03 -3.231593966484069824e-01 -1.319564133882522583e-01
1.430000000000000000e+02 2.572246742248535156e+01 -7.099318504333496094e+00 -1.160935521125793457e+00 -7.312213070690631866e-03 -3.504743278026580811e-01 3.289502579718828201e-03
1.440000000000000000e+02 2.345925331115722656e+01 -6.915245532989501953e+00 -7.317120432853698730e-01 -2.650338690727949142e-03 -2.203087210655212402e-01 1.081584137864410877e-03
1.450000000000000000e+02 2.796761512756347656e+01 -7.914083957672119141e+00 -1.398711323738098145e+00 -4.870313219726085663e-03 -4.210745096206665039e-01 -1.390648484230041504e-01
1.460000000000000000e+02 2.720497512817382812e+01 -7.896495819091796875e+00 -1.297272443771362305e+00 -5.337124224752187729e-03 -3.907828629016876221e-01 -1.267445087432861328e-01
1.470000000000000000e+02 2.644245719909667969e+01 -7.877746582031250000e+00 -1.181444644927978516e+00 -9.638166986405849457e-03 -3.573248684406280518e-01 -1.257277727127075195e-01
1.480000000000000000e+02 2.873032188415527344e+01 -7.930514812469482422e+00 -1.488349676132202148e+00 -1.579979620873928070e-02 -4.512448310852050781e-01 -1.459384858608245850e-01
1.490000000000000000e+02 2.798519706726074219e+01 -7.174292564392089844e+00 -1.511912941932678223e+00 -1.107276184484362602e-03 -4.539060592651367188e-01 -2.583099342882633209e-02
1.500000000000000000e+02 2.723094940185546875e+01 -7.156898498535156250e+00 -1.396255135536193848e+00 1.204486761707812548e-04 -4.188404083251953125e-01 -2.367616817355155945e-02
1.510000000000000000e+02 2.873951339721679688e+01 -7.190530300140380859e+00 -1.645766735076904297e+00 -7.513141725212335587e-03 -4.959839582443237305e-01 -3.602688387036323547e-02
1.520000000000000000e+02 2.647681999206542969e+01 -7.138342857360839844e+00 -1.296948313713073730e+00 -9.431550279259681702e-03 -3.919139504432678223e-01 -1.382810436189174652e-02
1.530000000000000000e+02 2.949276733398437500e+01 -7.195246696472167969e+00 -1.756153225898742676e+00 -1.004581525921821594e-02 -5.298597216606140137e-01 -5.407547205686569214e-02
1.540000000000000000e+02 2.948995018005371094e+01 -7.935307502746582031e+00 -1.581039309501647949e+00 -1.653503254055976868e-02 -4.792723059654235840e-01 -1.443124264478683472e-01
1.550000000000000000e+02 3.024649810791015625e+01 -7.928795814514160156e+00 -1.677864551544189453e+00 -1.212961971759796143e-02 -5.069982409477233887e-01 -1.485656350851058960e-01
1.560000000000000000e+02 3.099722290039062500e+01 -7.181584835052490234e+00 -1.935193896293640137e+00 -3.380383364856243134e-03 -5.815722942352294922e-01 -6.925693154335021973e-02
1.570000000000000000e+02 3.175983238220214844e+01 -7.913609027862548828e+00 -1.839022278785705566e+00 -1.537522859871387482e-02 -5.563192367553710938e-01 -1.636904180049896240e-01
1.580000000000000000e+02 3.174956512451171875e+01 -7.173673152923583984e+00 -2.041622877120971680e+00 -6.485566962510347366e-03 -6.144325137138366699e-01 -7.764605432748794556e-02
1.590000000000000000e+02 3.024495315551757812e+01 -7.188776493072509766e+00 -1.839100837707519531e+00 -2.121623838320374489e-03 -5.523667335510253906e-01 -6.512191891670227051e-02
1.600000000000000000e+02 3.100312805175781250e+01 -7.921562194824218750e+00 -1.761690139770507812e+00 -9.528854861855506897e-03 -5.313656926155090332e-01 -1.590879410505294800e-01
1.610000000000000000e+02 3.325168609619140625e+01 -7.142140388488769531e+00 -2.212856531143188477e+00 -3.738409141078591347e-03 -6.649784445762634277e-01 -9.682206809520721436e-02
1.620000000000000000e+02 3.401905441284179688e+01 -7.863194465637207031e+00 -2.067750692367553711e+00 -8.487636223435401917e-03 -6.228715181350708008e-01 -1.715626716613769531e-01
1.630000000000000000e+02 3.251437759399414062e+01 -7.900443077087402344e+00 -1.917172670364379883e+00 -1.411032117903232574e-02 -5.793848633766174316e-01 -1.640069335699081421e-01
1.640000000000000000e+02 3.477159881591796875e+01 -7.845397949218750000e+00 -2.134402036666870117e+00 -1.121977530419826508e-02 -6.436865925788879395e-01 -1.735766232013702393e-01
1.650000000000000000e+02 3.475299453735351562e+01 -7.105631351470947266e+00 -2.385247230529785156e+00 -5.316400900483131409e-03 -7.171691060066223145e-01 -1.045752838253974915e-01
1.660000000000000000e+02 3.400221252441406250e+01 -7.123385429382324219e+00 -2.297438621520996094e+00 -4.359813407063484192e-03 -6.905394792556762695e-01 -9.999262541532516479e-02
1.670000000000000000e+02 3.250104904174804688e+01 -7.160549640655517578e+00 -2.134851217269897461e+00 -8.186555467545986176e-03 -6.429113149642944336e-01 -8.937599509954452515e-02
1.680000000000000000e+02 3.326676940917968750e+01 -7.881991863250732422e+00 -1.996936321258544922e+00 -1.134673040360212326e-02 -6.024849414825439453e-01 -1.666208654642105103e-01
1.690000000000000000e+02 3.550323104858398438e+01 -7.085636138916015625e+00 -2.467551231384277344e+00 -6.685766391456127167e-03 -7.422710657119750977e-01 -1.106600910425186157e-01
1.700000000000000000e+02 3.627172470092773438e+01 -7.801253795623779297e+00 -2.264970302581787109e+00 -8.557631634175777435e-03 -6.820583939552307129e-01 -1.724563241004943848e-01
1.710000000000000000e+02 3.552280426025390625e+01 -7.825378894805908203e+00 -2.199224233627319336e+00 -8.977488614618778229e-03 -6.624605655670166016e-01 -1.721884906291961670e-01
1.720000000000000000e+02 3.700176620483398438e+01 -7.040159225463867188e+00 -2.620083808898925781e+00 -5.261505488306283951e-03 -7.876036167144775391e-01 -1.152696534991264343e-01
1.730000000000000000e+02 3.775260925292968750e+01 -7.021411418914794922e+00 -2.692925930023193359e+00 -2.319677732884883881e-03 -8.085736632347106934e-01 -1.160184144973754883e-01
1.740000000000000000e+02 3.777272796630859375e+01 -7.761138439178466797e+00 -2.378331899642944336e+00 -4.990899935364723206e-03 -7.149968743324279785e-01 -1.709375530481338501e-01
1.750000000000000000e+02 3.702170562744140625e+01 -7.779891967773437500e+00 -2.323054552078247070e+00 -4.420168232172727585e-03 -6.982424259185791016e-01 -1.723946332931518555e-01
1.760000000000000000e+02 3.625196838378906250e+01 -7.061516284942626953e+00 -2.543612480163574219e+00 -3.047684440389275551e-03 -7.639980316162109375e-01 -1.138560846447944641e-01
1.770000000000000000e+02 3.925203704833984375e+01 -6.983466625213623047e+00 -2.844408512115478516e+00 -2.454120432958006859e-03 -8.540588021278381348e-01 -1.158297136425971985e-01
1.780000000000000000e+02 3.850259399414062500e+01 -7.002532482147216797e+00 -2.767924785614013672e+00 -4.072872921824455261e-03 -8.315992951393127441e-01 -1.156398057937622070e-01
1.790000000000000000e+02 3.852244567871093750e+01 -7.742266178131103516e+00 -2.429392099380493164e+00 -1.779962796717882156e-03 -7.293516397476196289e-01 -1.690980941057205200e-01
1.800000000000000000e+02 4.076818847656250000e+01 -7.683057308197021484e+00 -2.559634685516357422e+00 2.777558984234929085e-03 -7.670571208000183105e-01 -1.517207175493240356e-01
1.810000000000000000e+02 4.001962661743164062e+01 -7.703031063079833984e+00 -2.518762350082397461e+00 5.504331202246248722e-04 -7.554636001586914062e-01 -1.582761853933334351e-01
1.820000000000000000e+02 4.075049972534179688e+01 -6.943266868591308594e+00 -2.981760978698730469e+00 6.661367369815707207e-04 -8.943284749984741211e-01 -1.132945120334625244e-01
1.830000000000000000e+02 3.927116775512695312e+01 -7.723219394683837891e+00 -2.475618839263916016e+00 -3.507931018248200417e-03 -7.437380552291870117e-01 -1.648432463407516479e-01
1.840000000000000000e+02 4.000121688842773438e+01 -6.963259696960449219e+00 -2.916586637496948242e+00 -4.242708906531333923e-03 -8.762488365173339844e-01 -1.159926205873489380e-01
1.850000000000000000e+02 4.226616287231445312e+01 -7.653321743011474609e+00 -2.606307744979858398e+00 4.327144008129835129e-03 -7.805941700935363770e-01 -1.357622742652893066e-01
1.860000000000000000e+02 4.225036239624023438e+01 -6.913490295410156250e+00 -3.121128797531127930e+00 -9.529614471830427647e-04 -9.366245865821838379e-01 -1.044009774923324585e-01
1.870000000000000000e+02 4.151683807373046875e+01 -7.666196823120117188e+00 -2.590426206588745117e+00 6.351771764457225800e-03 -7.752223610877990723e-01 -1.464286148548126221e-01
1.880000000000000000e+02 4.299967193603515625e+01 -6.897992610931396484e+00 -3.182917118072509766e+00 -2.789619611576199532e-03 -9.557120203971862793e-01 -1.032435372471809387e-01
1.890000000000000000e+02 4.301445007324218750e+01 -7.637845039367675781e+00 -2.616461515426635742e+00 9.527056477963924408e-03 -7.820802927017211914e-01 -1.181597709655761719e-01
1.900000000000000000e+02 4.376168441772460938e+01 -7.619610786437988281e+00 -2.620726346969604492e+00 1.444947626441717148e-02 -7.818830609321594238e-01 -1.011836007237434387e-01
1.910000000000000000e+02 4.374792480468750000e+01 -6.879736900329589844e+00 -3.234246015548706055e+00 4.382276907563209534e-03 -9.689591526985168457e-01 -9.715607017278671265e-02
1.920000000000000000e+02 4.150001907348632812e+01 -6.926386356353759766e+00 -3.050268411636352539e+00 -7.269735215231776237e-04 -9.152985811233520508e-01 -1.075741276144981384e-01
1.930000000000000000e+02 4.524763870239257812e+01 -6.857576370239257812e+00 -3.329785108566284180e+00 3.595266491174697876e-03 -9.978569746017456055e-01 -7.743170112371444702e-02
1.940000000000000000e+02 4.600764846801757812e+01 -7.586318016052246094e+00 -2.462921380996704102e+00 3.114399872720241547e-02 -7.295332551002502441e-01 -1.044567301869392395e-02
1.950000000000000000e+02 4.450997543334960938e+01 -7.606111049652099609e+00 -2.599266767501831055e+00 2.059240639209747314e-02 -7.736023068428039551e-01 -8.353976905345916748e-02
1.960000000000000000e+02 4.675494384765625000e+01 -7.572458744049072266e+00 -2.351812362670898438e+00 5.533906817436218262e-02 -6.889420151710510254e-01 3.909251093864440918e-02
1.970000000000000000e+02 4.525932312011718750e+01 -7.597484111785888672e+00 -2.545158624649047852e+00 2.188884653151035309e-02 -7.569809556007385254e-01 -5.551889166235923767e-02
1.980000000000000000e+02 4.674534988403320312e+01 -6.832519531250000000e+00 -3.361294507980346680e+00 1.712855324149131775e-02 -1.003249764442443848e+00 -5.489491671323776245e-02
1.990000000000000000e+02 4.449724578857421875e+01 -6.866219043731689453e+00 -3.284333705902099609e+00 2.390823327004909515e-03 -9.845829010009765625e-01 -8.633812516927719116e-02
2.000000000000000000e+02 4.599700927734375000e+01 -6.846394062042236328e+00 -3.358018636703491211e+00 -1.579360105097293854e-03 -1.007879376411437988e+00 -7.249651104211807251e-02
2.010000000000000000e+02 4.807236862182617188e+01 -6.830343723297119141e+00 -3.328324794769287109e+00 -1.567164622247219086e-02 -1.003198862075805664e+00 -3.930870071053504944e-02
2.020000000000000000e+02 4.748509979248046875e+01 -7.569529056549072266e+00 -2.151558876037597656e+00 4.579833894968032837e-02 -6.317281723022460938e-01 9.547624737024307251e-02
2.030000000000000000e+02 4.923382186889648438e+01 -6.777672290802001953e+00 -3.336518049240112305e+00 5.385341495275497437e-02 -9.847993850708007812e-01 -3.775481507182121277e-02
2.040000000000000000e+02 4.989682006835937500e+01 -6.566103935241699219e+00 -3.657138347625732422e+00 2.454006299376487732e-02 -1.089779496192932129e+00 -6.236060336232185364e-02
2.050000000000000000e+02 4.982836914062500000e+01 -7.761539459228515625e+00 -1.419900208711624146e-01 4.021377265453338623e-01 7.804431021213531494e-02 1.027633786201477051e+00
2.060000000000000000e+02 4.994699859619140625e+01 -7.521943092346191406e+00 -5.734947323799133301e-01 1.142616122961044312e-01 -1.377699375152587891e-01 8.038691878318786621e-01
2.070000000000000000e+02 5.004269409179687500e+01 -6.949747562408447266e+00 -2.006845712661743164e+00 -9.330462664365768433e-03 -6.048528552055358887e-01 3.955000638961791992e-02
2.080000000000000000e+02 5.000611114501953125e+01 -7.111002922058105469e+00 -1.688737511634826660e+00 2.068936126306653023e-03 -5.060005784034729004e-01 2.384182661771774292e-01
2.090000000000000000e+02 4.743901062011718750e+01 -6.829933166503906250e+00 -3.344026565551757812e+00 3.615047549828886986e-03 -1.002123475074768066e+00 -3.289041295647621155e-02
2.100000000000000000e+02 4.819248962402343750e+01 -7.569236278533935547e+00 -1.810487389564514160e+00 7.499860972166061401e-02 -5.206466317176818848e-01 2.245204448699951172e-01
2.110000000000000000e+02 4.970890808105468750e+01 -7.270482540130615234e+00 -1.437822699546813965e+00 -1.500285812653601170e-03 -4.317968785762786865e-01 4.576404690742492676e-01
2.120000000000000000e+02 4.998055648803710938e+01 -7.308321952819824219e+00 -1.203703522682189941e+00 2.576754800975322723e-02 -3.533807992935180664e-01 5.251415371894836426e-01
2.130000000000000000e+02 5.001203918457031250e+01 -6.781974792480468750e+00 -2.451460838317871094e+00 1.470380723476409912e-01 -6.913268566131591797e-01 1.208936274051666260e-01
2.140000000000000000e+02 4.966246032714843750e+01 -6.843203067779541016e+00 -2.856615304946899414e+00 -4.269469901919364929e-02 -8.697929978370666504e-01 5.776088684797286987e-02
2.150000000000000000e+02 4.989936447143554688e+01 -6.936809062957763672e+00 -2.131745100021362305e+00 1.485305428504943848e-01 -5.949643850326538086e-01 1.635179221630096436e-01
2.160000000000000000e+02 4.868069839477539062e+01 -6.813056945800781250e+00 -3.330141305923461914e+00 -1.313054747879505157e-02 -1.002981543540954590e+00 -6.119319424033164978e-02
2.170000000000000000e+02 4.887485122680664062e+01 -7.551247119903564453e+00 -1.398442506790161133e+00 1.292262673377990723e-01 -3.807648718357086182e-01 3.952665030956268311e-01
2.180000000000000000e+02 4.939225006103515625e+01 -7.420202732086181641e+00 -1.165669441223144531e+00 1.797036826610565186e-01 -2.957897484302520752e-01 4.365667998790740967e-01
2.190000000000000000e+02 5.021849822998046875e+01 -6.534432411193847656e+00 -3.645555734634399414e+00 -4.162215813994407654e-02 -1.106153368949890137e+00 -3.001154959201812744e-02
2.200000000000000000e+02 5.121338272094726562e+01 -6.544641971588134766e+00 -3.159361362457275391e+00 -6.885451730340719223e-03 -9.498740434646606445e-01 5.926720798015594482e-02
2.210000000000000000e+02 5.302939605712890625e+01 -7.514892101287841797e+00 2.775770187377929688e+00 1.980231857299804688e+01 6.773427009582519531e+00 7.397387981414794922e+00
2.220000000000000000e+02 5.425163269042968750e+01 -6.109498977661132812e+00 1.337506675720214844e+01 1.981485748291015625e+01 9.956976890563964844e+00 1.960741996765136719e+00
2.230000000000000000e+02 5.401055145263671875e+01 -5.369494438171386719e+00 5.717070579528808594e+00 2.235593795776367188e+01 8.421902656555175781e+00 1.925389051437377930e+00
2.240000000000000000e+02 5.322034454345703125e+01 -7.503258705139160156e+00 2.379163503646850586e+00 2.269106292724609375e+01 7.521068096160888672e+00 5.264964103698730469e+00
2.250000000000000000e+02 5.022346878051757812e+01 -7.801424503326416016e+00 4.859527349472045898e-01 8.897195458412170410e-01 4.127016961574554443e-01 1.580811738967895508e+00
2.260000000000000000e+02 5.062146377563476562e+01 -7.777827739715576172e+00 1.150580406188964844e+00 1.097320437431335449e+00 6.743702888488769531e-01 2.043048381805419922e+00
2.270000000000000000e+02 5.165659713745117188e+01 -7.509400844573974609e+00 3.250840187072753906e+00 2.446062564849853516e+00 1.709070801734924316e+00 3.804189443588256836e+00
2.280000000000000000e+02 5.281260681152343750e+01 -7.590051174163818359e+00 3.428194761276245117e+00 1.583994102478027344e+01 5.780440807342529297e+00 7.867009162902832031e+00
2.290000000000000000e+02 5.204249191284179688e+01 -7.783713817596435547e+00 3.851429224014282227e+00 6.071932792663574219e+00 2.977008581161499023e+00 5.995799064636230469e+00
2.300000000000000000e+02 5.214155960083007812e+01 -6.922585964202880859e+00 4.023955345153808594e+00 1.397613406181335449e+00 1.626470565795898438e+00 3.266908407211303711e+00
2.310000000000000000e+02 5.104228210449218750e+01 -7.761875152587890625e+00 2.068131685256958008e+00 1.579129099845886230e+00 1.094178199768066406e+00 2.675779819488525391e+00
2.320000000000000000e+02 5.357395935058593750e+01 -5.273828029632568359e+00 3.175375461578369141e+00 2.397337532043457031e+01 8.144625663757324219e+00 -1.436278581619262695e+00
2.330000000000000000e+02 5.404151535034179688e+01 -5.884271621704101562e+00 1.165954303741455078e+01 2.243517875671386719e+01 1.022841644287109375e+01 3.350025653839111328e+00
2.340000000000000000e+02 5.422969055175781250e+01 -5.954502582550048828e+00 1.180329895019531250e+01 2.012177848815917969e+01 9.577523231506347656e+00 2.639770746231079102e+00
2.350000000000000000e+02 5.395497894287109375e+01 -5.709559917449951172e+00 8.905223846435546875e+00 2.362544822692871094e+01 9.759201049804687500e+00 3.093922138214111328e+00
2.360000000000000000e+02 5.429550170898437500e+01 -6.668509006500244141e+00 1.313188266754150391e+01 1.952758026123046875e+01 9.797839164733886719e+00 -1.744516134262084961e+00
2.370000000000000000e+02 5.444566345214843750e+01 -6.817544937133789062e+00 1.142596054077148438e+01 1.863090705871582031e+01 9.017060279846191406e+00 -2.363734483718872070e+00
2.380000000000000000e+02 5.358541870117187500e+01 -7.410102367401123047e+00 3.703090667724609375e+00 2.513090324401855469e+01 8.650197982788085938e+00 6.124398708343505859e-01
2.390000000000000000e+02 5.020633316040039062e+01 -5.016673564910888672e+00 5.136753916740417480e-01 7.507932186126708984e-01 3.793405890464782715e-01 -1.478822708129882812e+00
2.400000000000000000e+02 5.020608901977539062e+01 -5.234508514404296875e+00 3.454357758164405823e-02 4.809275567531585693e-01 1.546413451433181763e-01 -1.008475899696350098e+00
2.410000000000000000e+02 5.035414886474609375e+01 -5.497917175292968750e+00 -4.328205883502960205e-01 2.294926196336746216e-01 -6.099838763475418091e-02 -7.915881276130676270e-01
2.420000000000000000e+02 5.100847625732421875e+01 -5.022572994232177734e+00 2.121015548706054688e+00 1.623677968978881836e+00 1.123408079147338867e+00 -2.708245277404785156e+00
2.430000000000000000e+02 5.254515838623046875e+01 -5.432404994964599609e+00 5.396746635437011719e+00 1.053172779083251953e+01 4.778542518615722656e+00 -8.539318084716796875e+00
2.440000000000000000e+02 5.281326293945312500e+01 -5.023849487304687500e+00 2.750399112701416016e+00 1.528900241851806641e+01 5.411820411682128906e+00 -7.353801727294921875e+00
2.450000000000000000e+02 5.021667480468750000e+01 -6.279712200164794922e+00 -3.842766284942626953e+00 -1.491217166185379028e-01 -1.197566390037536621e+00 -9.416246414184570312e-02
2.460000000000000000e+02 5.042973327636718750e+01 -6.057667732238769531e+00 -2.780369043350219727e+00 -5.670850165188312531e-03 -8.358119726181030273e-01 -1.493014842271804810e-01
2.470000000000000000e+02 5.019215011596679688e+01 -5.439249992370605469e+00 -4.511725902557373047e-01 3.000982105731964111e-01 -4.532231390476226807e-02 -7.470343112945556641e-01
2.480000000000000000e+02 5.126770401000976562e+01 -6.054057598114013672e+00 -1.490550994873046875e+00 1.448856890201568604e-01 -4.036996066570281982e-01 -4.178996682167053223e-01
2.490000000000000000e+02 5.201103210449218750e+01 -6.278591156005859375e+00 -2.277305841445922852e+00 -2.264079749584197998e-01 -7.511141896247863770e-01 -1.294086724519729614e-01
2.500000000000000000e+02 5.423362731933593750e+01 -6.292971134185791016e+00 1.441033649444580078e+01 1.968599128723144531e+01 1.022889900207519531e+01 7.705752849578857422e-01
2.510000000000000000e+02 5.383432769775390625e+01 -5.548924922943115234e+00 6.481618881225585938e+00 2.467318534851074219e+01 9.346441268920898438e+00 2.066124200820922852e+00
2.520000000000000000e+02 5.320712280273437500e+01 -5.281599998474121094e+00 2.435095310211181641e+00 2.248526191711425781e+01 7.476107597351074219e+00 -5.465771198272705078e+00
2.530000000000000000e+02 5.243811035156250000e+01 -5.237107753753662109e+00 4.669773101806640625e+00 8.974646568298339844e+00 4.093326091766357422e+00 -7.637873172760009766e+00
2.540000000000000000e+02 5.213946151733398438e+01 -5.874171733856201172e+00 4.128986835479736328e+00 1.462743997573852539e+00 1.677519202232360840e+00 -3.278663396835327148e+00
2.550000000000000000e+02 5.202611160278320312e+01 -6.513935089111328125e+00 -2.241527557373046875e+00 -7.165420055389404297e-02 -6.939545273780822754e-01 8.257289230823516846e-02
2.560000000000000000e+02 5.272257232666015625e+01 -7.443332672119140625e+00 4.089870452880859375e+00 1.450627899169921875e+01 5.578844547271728516e+00 8.841267585754394531e+00
2.570000000000000000e+02 5.340989685058593750e+01 -7.466947078704833984e+00 2.655578374862670898e+00 2.446318435668945312e+01 8.135628700256347656e+00 2.987023830413818359e+00
2.580000000000000000e+02 5.408176803588867188e+01 -6.944780349731445312e+00 1.109752082824707031e+01 2.205632400512695312e+01 9.946153640747070312e+00 -3.211371421813964844e+00
2.590000000000000000e+02 5.122923660278320312e+01 -7.781819343566894531e+00 2.739096879959106445e+00 2.076776504516601562e+00 1.444761991500854492e+00 3.251705169677734375e+00
2.600000000000000000e+02 5.044084167480468750e+01 -6.980041980743408203e+00 -1.709500074386596680e+00 8.615721017122268677e-02 -4.870028495788574219e-01 3.182381987571716309e-01
2.610000000000000000e+02 5.062026214599609375e+01 -6.534412860870361328e+00 -3.556673765182495117e+00 -1.324664242565631866e-02 -1.070976138114929199e+00 -3.571065142750740051e-02
2.620000000000000000e+02 5.397349166870117188e+01 -7.103388786315917969e+00 8.766702651977539062e+00 2.349340820312500000e+01 9.678032875061035156e+00 -3.055710077285766602e+00
2.630000000000000000e+02 5.162018585205078125e+01 -6.551258563995361328e+00 -2.734463691711425781e+00 -2.669625356793403625e-02 -8.283479809761047363e-01 1.133682578802108765e-01
2.640000000000000000e+02 5.416604614257812500e+01 -6.780880451202392578e+00 1.295516967773437500e+01 2.072328376770019531e+01 1.010353565216064453e+01 -2.622284412384033203e+00
2.650000000000000000e+02 5.389753341674804688e+01 -7.549665451049804688e+00 4.481877803802490234e+00 2.264952850341796875e+01 8.139421463012695312e+00 -1.097390294075012207e+00
2.660000000000000000e+02 5.224874114990234375e+01 -7.107952594757080078e+00 5.496736049652099609e+00 3.979802608489990234e+00 2.842961549758911133e+00 5.628627300262451172e+00
2.670000000000000000e+02 5.384770965576171875e+01 -7.243596553802490234e+00 6.365273475646972656e+00 2.462819862365722656e+01 9.298042297363281250e+00 -2.067363500595092773e+00
2.680000000000000000e+02 5.339195632934570312e+01 -5.048416137695312500e+00 1.878252625465393066e+00 2.122774314880371094e+01 6.931798934936523438e+00 -3.652848005294799805e+00
2.690000000000000000e+02 5.161344528198242188e+01 -5.025356292724609375e+00 3.407665491104125977e+00 3.238261699676513672e+00 1.993778109550476074e+00 -4.371927261352539062e+00
2.700000000000000000e+02 5.241925811767578125e+01 -5.011274814605712891e+00 3.849174737930297852e+00 9.790576934814453125e+00 4.091925621032714844e+00 -7.310842514038085938e+00
2.710000000000000000e+02 5.282215118408203125e+01 -5.297067165374755859e+00 3.859052419662475586e+00 1.602444267272949219e+01 5.965048789978027344e+00 -8.463016510009765625e+00
2.720000000000000000e+02 5.411579513549804688e+01 -6.041529178619384766e+00 1.357808685302734375e+01 2.114870834350585938e+01 1.041803836822509766e+01 2.593193054199218750e+00
2.730000000000000000e+02 5.261766052246093750e+01 -5.017560482025146484e+00 3.385835647583007812e+00 1.267989158630371094e+01 4.819718360900878906e+00 -7.673412799835205078e+00
2.740000000000000000e+02 5.423723983764648438e+01 -6.478479385375976562e+00 1.449354457855224609e+01 1.958894538879394531e+01 1.022474670410156250e+01 -7.764822840690612793e-01
2.750000000000000000e+02 5.322013473510742188e+01 -7.755002498626708984e+00 1.816954255104064941e+00 2.014984130859375000e+01 6.590038776397705078e+00 5.115737438201904297e+00
2.760000000000000000e+02 5.341136550903320312e+01 -7.725173950195312500e+00 1.935992836952209473e+00 2.172283935546875000e+01 7.097649574279785156e+00 3.401904344558715820e+00
2.770000000000000000e+02 5.359165954589843750e+01 -7.680445671081542969e+00 2.306752681732177734e+00 2.227886390686035156e+01 7.375685214996337891e+00 1.883450388908386230e+00
2.780000000000000000e+02 5.402558898925781250e+01 -7.421388626098632812e+00 5.614660263061523438e+00 2.202900505065917969e+01 8.293099403381347656e+00 -1.872579455375671387e+00
2.790000000000000000e+02 5.426578521728515625e+01 -7.125605106353759766e+00 8.991740226745605469e+00 2.045246887207031250e+01 8.833262443542480469e+00 -2.939778089523315430e+00
2.800000000000000000e+02 5.375542449951171875e+01 -7.421373367309570312e+00 4.588001728057861328e+00 2.409578704833984375e+01 8.605136871337890625e+00 -5.991954207420349121e-01
2.810000000000000000e+02 5.368076324462890625e+01 -5.428559780120849609e+00 4.375090599060058594e+00 2.514141082763671875e+01 8.854949951171875000e+00 1.949124634265899658e-01
2.820000000000000000e+02 5.436185836791992188e+01 -6.966834068298339844e+00 1.026885509490966797e+01 1.934007644653320312e+01 8.882678985595703125e+00 -2.725280761718750000e+00
2.830000000000000000e+02 5.410000991821289062e+01 -5.671309947967529297e+00 8.764313697814941406e+00 2.211977577209472656e+01 9.265226364135742188e+00 2.976409673690795898e+00
2.840000000000000000e+02 5.448881530761718750e+01 -6.477592468261718750e+00 1.261288833618164062e+01 1.777998733520507812e+01 9.117862701416015625e+00 -5.064130425453186035e-01
2.850000000000000000e+02 5.446895980834960938e+01 -6.098882198333740234e+00 1.206986904144287109e+01 1.817392730712890625e+01 9.073139190673828125e+00 1.666414380073547363e+00
2.860000000000000000e+02 5.416690826416015625e+01 -5.493877410888671875e+00 7.216946601867675781e+00 2.140628814697265625e+01 8.586970329284667969e+00 2.609693288803100586e+00
2.870000000000000000e+02 5.448677062988281250e+01 -6.658143997192382812e+00 1.237246322631835938e+01 1.802997207641601562e+01 9.120730400085449219e+00 -1.360288262367248535e+00
2.880000000000000000e+02 5.448519515991210938e+01 -6.291530132293701172e+00 1.263725757598876953e+01 1.778614044189453125e+01 9.127018928527832031e+00 5.238407254219055176e-01
2.890000000000000000e+02 5.320458221435546875e+01 -5.029869079589843750e+00 1.917130708694458008e+00 2.008235740661621094e+01 6.599846363067626953e+00 -5.197114944458007812e+00
2.900000000000000000e+02 5.386012268066406250e+01 -5.243768692016601562e+00 4.089091777801513672e+00 2.254195022583007812e+01 7.989312648773193359e+00 6.654037237167358398e-01
2.910000000000000000e+02 5.415187835693359375e+01 -7.280901432037353516e+00 7.270273208618164062e+00 2.141430664062500000e+01 8.605373382568359375e+00 -2.652492523193359375e+00
2.920000000000000000e+02 5.245276260375976562e+01 -7.758632659912109375e+00 3.731581687927246094e+00 9.990592956542968750e+00 4.116652488708496094e+00 7.347931385040283203e+00
2.930000000000000000e+02 5.265630340576171875e+01 -7.780675888061523438e+00 3.299332380294799805e+00 1.287536907196044922e+01 4.852410316467285156e+00 8.008292198181152344e+00
2.940000000000000000e+02 5.283555221557617188e+01 -7.789297103881835938e+00 2.595073938369750977e+00 1.605294990539550781e+01 5.594407081604003906e+00 7.030888557434082031e+00
2.950000000000000000e+02 5.163352203369140625e+01 -6.840766429901123047e+00 3.949720859527587891e-01 2.994567453861236572e-01 2.083286494016647339e-01 1.024005651473999023e+00
2.960000000000000000e+02 5.184339523315429688e+01 -7.765303134918212891e+00 3.723992347717285156e+00 4.584063053131103516e+00 2.492416620254516602e+00 5.321467399597167969e+00
2.970000000000000000e+02 5.163281250000000000e+01 -7.767165660858154297e+00 3.183552503585815430e+00 3.232926368713378906e+00 1.924943685531616211e+00 4.346772193908691406e+00
2.980000000000000000e+02 5.118163299560546875e+01 -7.561069965362548828e+00 1.911980986595153809e+00 1.454600334167480469e+00 1.009974360466003418e+00 2.522895812988281250e+00
2.990000000000000000e+02 5.079063415527343750e+01 -7.434083938598632812e+00 7.733820080757141113e-01 8.036190271377563477e-01 4.731003344058990479e-01 1.525457024574279785e+00
3.000000000000000000e+02 5.057874679565429688e+01 -7.539490222930908203e+00 4.075164198875427246e-01 5.888968110084533691e-01 2.989239692687988281e-01 1.430422067642211914e+00
3.010000000000000000e+02 5.042194747924804688e+01 -7.796851634979248047e+00 6.213891506195068359e-01 8.434556126594543457e-01 4.394534230232238770e-01 1.705195307731628418e+00
3.020000000000000000e+02 5.302765274047851562e+01 -7.769526958465576172e+00 2.162180423736572266e+00 1.773919296264648438e+01 5.970412254333496094e+00 6.358270645141601562e+00
3.030000000000000000e+02 5.141610717773437500e+01 -6.552009105682373047e+00 -2.957076787948608398e+00 5.605741962790489197e-02 -8.703057765960693359e-01 9.223987162113189697e-02
3.040000000000000000e+02 5.068200683593750000e+01 -7.182549476623535156e+00 -4.189052283763885498e-01 2.502478361129760742e-01 -5.059721693396568298e-02 7.636105418205261230e-01
3.050000000000000000e+02 5.042128753662109375e+01 -6.535128116607666016e+00 -3.595384120941162109e+00 2.378154918551445007e-02 -1.071480751037597656e+00 -4.735785722732543945e-02
3.060000000000000000e+02 5.022425079345703125e+01 -6.749950885772705078e+00 -2.779059648513793945e+00 -7.826787233352661133e-02 -8.571982383728027344e-01 1.119738444685935974e-01
3.070000000000000000e+02 5.022845077514648438e+01 -6.965540885925292969e+00 -1.763255953788757324e+00 4.970302432775497437e-02 -5.140658617019653320e-01 7.999312877655029297e-02
3.080000000000000000e+02 5.022792053222656250e+01 -5.836377143859863281e+00 -1.885787367820739746e+00 -3.768657147884368896e-02 -5.770421624183654785e-01 -2.994811236858367920e-01
3.090000000000000000e+02 5.143447113037109375e+01 -6.283780097961425781e+00 -3.362030982971191406e+00 1.222857609391212463e-01 -9.719235897064208984e-01 8.474230766296386719e-03
3.100000000000000000e+02 5.180613327026367188e+01 -6.288275718688964844e+00 -2.612704515457153320e+00 1.223304346203804016e-01 -7.471122145652770996e-01 -2.562306225299835205e-01
3.110000000000000000e+02 5.101122665405273438e+01 -5.255942821502685547e+00 1.619009256362915039e+00 1.018267154693603516e+00 7.911829352378845215e-01 -2.134883165359497070e+00
3.120000000000000000e+02 5.102987670898437500e+01 -6.269457817077636719e+00 -3.507187604904174805e+00 1.531947776675224304e-02 -1.047560453414916992e+00 -3.529199585318565369e-02
3.130000000000000000e+02 5.169843292236328125e+01 -6.132040977478027344e+00 -1.139228105545043945e+00 1.233003363013267517e-01 -3.047783076763153076e-01 -3.553587198257446289e-01
3.140000000000000000e+02 5.300839996337890625e+01 -5.023886680603027344e+00 2.268202781677246094e+00 1.780971717834472656e+01 6.023375988006591797e+00 -6.573511600494384766e+00
3.150000000000000000e+02 5.221966934204101562e+01 -5.009849071502685547e+00 4.071242332458496094e+00 7.489609718322753906e+00 3.468255519866943359e+00 -6.708866119384765625e+00
3.160000000000000000e+02 5.080726623535156250e+01 -5.021491527557373047e+00 1.654234290122985840e+00 1.200415134429931641e+00 8.563948273658752441e-01 -2.206231832504272461e+00
3.170000000000000000e+02 5.181790161132812500e+01 -5.021727085113525391e+00 3.773626804351806641e+00 4.430642604827880859e+00 2.461280822753906250e+00 -5.146132469177246094e+00
3.180000000000000000e+02 5.141018295288085938e+01 -5.027136802673339844e+00 2.891959190368652344e+00 2.437219381332397461e+00 1.598753571510314941e+00 -3.721282720565795898e+00
3.190000000000000000e+02 5.121176910400390625e+01 -5.271601200103759766e+00 2.185128211975097656e+00 1.355295419692993164e+00 1.062127113342285156e+00 -2.650338172912597656e+00
3.200000000000000000e+02 5.120000457763671875e+01 -5.521923065185546875e+00 1.330934643745422363e+00 7.202075719833374023e-01 6.153426766395568848e-01 -1.799885988235473633e+00
3.210000000000000000e+02 5.301261901855468750e+01 -5.278493881225585938e+00 2.929118394851684570e+00 1.975562667846679688e+01 6.805423259735107422e+00 -7.397380352020263672e+00
3.220000000000000000e+02 5.045898818969726562e+01 -7.207890510559082031e+00 -5.289540886878967285e-01 2.854485213756561279e-01 -7.305168360471725464e-02 6.101889014244079590e-01
3.230000000000000000e+02 5.022053527832031250e+01 -6.063026905059814453e+00 -2.812982082366943359e+00 -1.244182586669921875e-01 -8.812201023101806641e-01 -7.086639106273651123e-02
3.240000000000000000e+02 5.225142669677734375e+01 -5.700925827026367188e+00 5.649566650390625000e+00 3.795619964599609375e+00 2.833555936813354492e+00 -5.636603355407714844e+00
3.250000000000000000e+02 5.206649780273437500e+01 -6.724944591522216797e+00 1.513715386390686035e+00 4.533717036247253418e-01 5.901260972023010254e-01 1.481441020965576172e+00
3.260000000000000000e+02 5.182456207275390625e+01 -6.536086082458496094e+00 -2.493001699447631836e+00 3.060972131788730621e-02 -7.387176156044006348e-01 1.077327355742454529e-01
3.270000000000000000e+02 5.223220062255859375e+01 -7.784189701080322266e+00 3.933610439300537109e+00 7.844734191894531250e+00 3.533503293991088867e+00 6.775414466857910156e+00
3.280000000000000000e+02 5.240359115600585938e+01 -7.256961822509765625e+00 5.752607822418212891e+00 7.295720577239990234e+00 3.914498567581176758e+00 7.432277202606201172e+00
3.290000000000000000e+02 5.101379013061523438e+01 -6.539140224456787109e+00 -3.344715833663940430e+00 2.440235950052738190e-02 -9.960940480232238770e-01 4.608101770281791687e-02
3.300000000000000000e+02 5.043122482299804688e+01 -6.756494998931884766e+00 -2.568788290023803711e+00 6.278005894273519516e-03 -7.687530517578125000e-01 7.091556489467620850e-02
3.310000000000000000e+02 5.082842636108398438e+01 -6.270531177520751953e+00 -3.593201637268066406e+00 2.436298877000808716e-02 -1.070651650428771973e+00 -2.642411971464753151e-03
3.320000000000000000e+02 5.063523483276367188e+01 -6.057147502899169922e+00 -2.474916934967041016e+00 5.583146959543228149e-02 -7.257256507873535156e-01 -1.717785149812698364e-01
3.330000000000000000e+02 5.084690856933593750e+01 -6.031498432159423828e+00 -1.989091515541076660e+00 3.739137575030326843e-02 -5.855100154876708984e-01 -2.710334658622741699e-01
3.340000000000000000e+02 5.060631179809570312e+01 -5.024209499359130859e+00 1.317141771316528320e+00 9.455576539039611816e-01 6.788098216056823730e-01 -1.930424094200134277e+00
3.350000000000000000e+02 5.205247879028320312e+01 -5.575547218322753906e+00 4.714516639709472656e+00 3.073395967483520508e+00 2.336373805999755859e+00 -4.754197120666503906e+00
3.360000000000000000e+02 5.238622283935546875e+01 -5.544232845306396484e+00 5.868261814117431641e+00 6.708978176116943359e+00 3.773171901702880859e+00 -7.415619373321533203e+00
3.370000000000000000e+02 5.040670013427734375e+01 -5.264831066131591797e+00 3.334469795227050781e-01 5.000591874122619629e-01 2.500518560409545898e-01 -1.227654933929443359e+00
3.380000000000000000e+02 5.020684051513671875e+01 -5.626980781555175781e+00 -9.426346421241760254e-01 5.314394831657409668e-02 -2.668472230434417725e-01 -4.473831951618194580e-01
3.390000000000000000e+02 5.194371032714843750e+01 -5.766692161560058594e+00 3.350938558578491211e+00 1.455270648002624512e+00 1.441862702369689941e+00 -3.033537864685058594e+00
3.400000000000000000e+02 5.099354171752929688e+01 -7.042846679687500000e+00 -2.923153936862945557e-01 2.585270404815673828e-01 -1.013650093227624893e-02 8.007291555404663086e-01
3.410000000000000000e+02 5.178347778320312500e+01 -7.329687118530273438e+00 3.495082378387451172e+00 2.342806100845336914e+00 1.751366496086120605e+00 3.739388704299926758e+00
3.420000000000000000e+02 5.105817031860351562e+01 -7.319787979125976562e+00 9.842749238014221191e-01 6.778074502944946289e-01 4.986247122287750244e-01 1.689212203025817871e+00
3.430000000000000000e+02 5.140845870971679688e+01 -6.833591938018798828e+00 -3.773815631866455078e-01 1.622763276100158691e-01 -6.453157216310501099e-02 7.836248874664306641e-01
3.440000000000000000e+02 5.224494934082031250e+01 -5.229806900024414062e+00 4.700341224670410156e+00 7.190586566925048828e+00 3.567278385162353516e+00 -6.892206668853759766e+00
3.450000000000000000e+02 5.162960815429687500e+01 -5.266643524169921875e+00 3.254097938537597656e+00 2.349765300750732422e+00 1.681159019470214844e+00 -3.768287420272827148e+00
3.460000000000000000e+02 5.165222930908203125e+01 -5.487657070159912109e+00 2.956979751586914062e+00 1.648366808891296387e+00 1.381603956222534180e+00 -3.057818174362182617e+00
3.470000000000000000e+02 5.132279968261718750e+01 -5.848857402801513672e+00 1.921628564596176147e-01 2.780372500419616699e-01 1.410600244998931885e-01 -9.181593656539916992e-01
3.480000000000000000e+02 5.042014694213867188e+01 -6.277213096618652344e+00 -3.705699443817138672e+00 3.575854748487472534e-02 -1.100982308387756348e+00 1.671638526022434235e-02
3.490000000000000000e+02 5.068127441406250000e+01 -5.717282295227050781e+00 -5.413092970848083496e-01 1.330857425928115845e-01 -1.224670559167861938e-01 -7.039061784744262695e-01
3.500000000000000000e+02 5.182365417480468750e+01 -5.955685615539550781e+00 1.252340912818908691e+00 3.982065618038177490e-01 4.951642453670501709e-01 -1.393435239791870117e+00
3.510000000000000000e+02 5.184660720825195312e+01 -5.484237670898437500e+00 3.934502363204956055e+00 2.647372722625732422e+00 1.974562525749206543e+00 -4.133990287780761719e+00
3.520000000000000000e+02 5.081988143920898438e+01 -5.440831184387207031e+00 5.965903997421264648e-01 5.405148267745971680e-01 3.411315679550170898e-01 -1.392901897430419922e+00
3.530000000000000000e+02 5.063489532470703125e+01 -5.867225646972656250e+00 -1.534636497497558594e+00 7.426391541957855225e-02 -4.381117522716522217e-01 -3.827192485332489014e-01
3.540000000000000000e+02 5.149640274047851562e+01 -5.893227100372314453e+00 3.673327565193176270e-01 2.008552849292755127e-01 1.704564094543457031e-01 -1.010076284408569336e+00
3.550000000000000000e+02 5.113240051269531250e+01 -5.772818088531494141e+00 2.187426574528217316e-02 2.831305861473083496e-01 9.150145202875137329e-02 -1.003557801246643066e+00
3.560000000000000000e+02 5.040695953369140625e+01 -5.023208141326904297e+00 9.634425640106201172e-01 7.782007455825805664e-01 5.224930047988891602e-01 -1.687134385108947754e+00
3.570000000000000000e+02 5.061079025268554688e+01 -5.265802383422851562e+00 6.943266987800598145e-01 6.269852519035339355e-01 3.963935971260070801e-01 -1.429430961608886719e+00
3.580000000000000000e+02 5.044579315185546875e+01 -5.834798812866210938e+00 -1.562117815017700195e+00 5.141275003552436829e-02 -4.532115161418914795e-01 -3.459499478340148926e-01
3.590000000000000000e+02 5.062403106689453125e+01 -6.275334358215332031e+00 -3.657703638076782227e+00 -1.838311553001403809e-02 -1.102825999259948730e+00 -1.490678172558546066e-03
3.600000000000000000e+02 5.123144149780273438e+01 -6.275598526000976562e+00 -3.415697813034057617e+00 -8.283401280641555786e-02 -1.049559593200683594e+00 7.743931375443935394e-03
3.610000000000000000e+02 5.106049346923828125e+01 -6.022805213928222656e+00 -1.708046913146972656e+00 -3.742466913536190987e-03 -5.135368108749389648e-01 -2.472170591354370117e-01
3.620000000000000000e+02 5.162544631958007812e+01 -6.300860881805419922e+00 -3.201918601989746094e+00 -1.416030060499906540e-02 -9.648236632347106934e-01 -1.265658587217330933e-01
3.630000000000000000e+02 5.204790878295898438e+01 -6.065367698669433594e+00 1.300297617912292480e+00 3.983635306358337402e-01 5.095983743667602539e-01 -1.393036723136901855e+00
3.640000000000000000e+02 5.023042297363281250e+01 -7.178845882415771484e+00 -1.273378729820251465e+00 1.999624967575073242e-01 -3.220248818397521973e-01 4.464107751846313477e-01
3.650000000000000000e+02 5.062805938720703125e+01 -6.759346008300781250e+00 -2.376426458358764648e+00 6.130925565958023071e-02 -6.945351362228393555e-01 1.111188083887100220e-01
3.660000000000000000e+02 5.022452545166015625e+01 -7.385869503021240234e+00 -5.040211081504821777e-01 2.747230231761932373e-01 -6.878942251205444336e-02 6.809600591659545898e-01
3.670000000000000000e+02 5.022005462646484375e+01 -7.591673374176025391e+00 -1.012330353260040283e-01 6.421812772750854492e-01 1.622844636440277100e-01 1.235232710838317871e+00
3.680000000000000000e+02 5.043336868286132812e+01 -7.410656929016113281e+00 -1.073648706078529358e-01 5.322879552841186523e-01 1.274769157171249390e-01 1.116928100585937500e+00
3.690000000000000000e+02 5.040714263916015625e+01 -7.593087196350097656e+00 3.505545556545257568e-01 7.548867464065551758e-01 3.316324055194854736e-01 1.398854613304138184e+00
3.700000000000000000e+02 5.081780242919921875e+01 -6.770403385162353516e+00 -2.126432180404663086e+00 8.630734682083129883e-02 -6.120374798774719238e-01 1.854859888553619385e-01
3.710000000000000000e+02 5.081715774536132812e+01 -6.535581588745117188e+00 -3.482018232345581055e+00 4.346431419253349304e-02 -1.031566143035888672e+00 -9.455514140427112579e-03
3.720000000000000000e+02 5.185854339599609375e+01 -6.787095069885253906e+00 9.650622606277465820e-01 3.184879422187805176e-01 3.850650489330291748e-01 1.262147188186645508e+00
3.730000000000000000e+02 5.249755859375000000e+01 -7.524892807006835938e+00 4.698035717010498047e+00 1.034212112426757812e+01 4.512046813964843750e+00 7.842908859252929688e+00
3.740000000000000000e+02 5.083605575561523438e+01 -7.745825767517089844e+00 1.517847895622253418e+00 1.187218666076660156e+00 8.115199804306030273e-01 2.259459733963012695e+00
3.750000000000000000e+02 5.142808914184570312e+01 -7.765924930572509766e+00 2.919499158859252930e+00 2.615749597549438477e+00 1.660574555397033691e+00 3.714263200759887695e+00
3.760000000000000000e+02 5.143279647827148438e+01 -7.488501548767089844e+00 2.506802797317504883e+00 1.670084714889526367e+00 1.253066301345825195e+00 3.027945280075073242e+00
3.770000000000000000e+02 5.185617065429687500e+01 -7.519810199737548828e+00 3.973025560379028320e+00 3.554161787033081055e+00 2.258156299591064453e+00 4.746603012084960938e+00
3.780000000000000000e+02 5.216154479980468750e+01 -7.616700172424316406e+00 4.224000453948974609e+00 6.537773132324218750e+00 3.228532075881958008e+00 6.402299404144287109e+00
3.790000000000000000e+02 5.207757186889648438e+01 -7.447057723999023438e+00 4.683444023132324219e+00 4.706081867218017578e+00 2.816857814788818359e+00 5.790603637695312500e+00
3.800000000000000000e+02 5.258297348022460938e+01 -7.352538585662841797e+00 5.200890064239501953e+00 1.119798469543457031e+01 4.919662475585937500e+00 8.922857284545898438e+00
3.810000000000000000e+02 5.375617980957031250e+01 -7.633969306945800781e+00 2.948916912078857422e+00 2.269182968139648438e+01 7.692224025726318359e+00 4.914346933364868164e-01
3.820000000000000000e+02 5.445248413085937500e+01 -5.915938377380371094e+00 1.128089332580566406e+01 1.863412475585937500e+01 8.974505424499511719e+00 2.453322649002075195e+00
3.830000000000000000e+02 5.440392684936523438e+01 -5.760241985321044922e+00 9.610444068908691406e+00 1.910819816589355469e+01 8.615592956542968750e+00 2.632091522216796875e+00
3.840000000000000000e+02 5.430379867553710938e+01 -5.618677616119384766e+00 8.652791976928710938e+00 1.995834350585937500e+01 8.583340644836425781e+00 2.805026531219482422e+00
3.850000000000000000e+02 5.371828842163085938e+01 -5.135876655578613281e+00 3.058471441268920898e+00 2.269012832641601562e+01 7.724579811096191406e+00 -4.848745763301849365e-01
3.860000000000000000e+02 5.356642532348632812e+01 -5.072540283203125000e+00 2.103443622589111328e+00 2.221341896057128906e+01 7.295058727264404297e+00 -2.283213138580322266e+00
3.870000000000000000e+02 5.339287948608398438e+01 -5.306645870208740234e+00 2.656257867813110352e+00 2.434533309936523438e+01 8.100477218627929688e+00 -3.139472484588623047e+00
3.880000000000000000e+02 5.262920761108398438e+01 -5.266974449157714844e+00 4.349389553070068359e+00 1.271347808837890625e+01 5.118860244750976562e+00 -8.391610145568847656e+00
3.890000000000000000e+02 5.081314849853515625e+01 -5.246861457824707031e+00 1.220155715942382812e+00 8.385761380195617676e-01 6.176195740699768066e-01 -1.796141982078552246e+00
3.900000000000000000e+02 5.120896148681640625e+01 -5.025699615478515625e+00 2.432796239852905273e+00 1.956478834152221680e+00 1.316782474517822266e+00 -3.161588907241821289e+00
3.910000000000000000e+02 5.201940917968750000e+01 -5.014024734497070312e+00 4.118509292602539062e+00 5.829923152923583984e+00 2.984529733657836914e+00 -5.997457981109619141e+00
3.920000000000000000e+02 5.143408203125000000e+01 -5.530159473419189453e+00 2.040308713912963867e+00 1.145182013511657715e+00 9.556472301483154297e-01 -2.337169170379638672e+00
3.930000000000000000e+02 5.184857177734375000e+01 -5.265144348144531250e+00 3.935773849487304688e+00 3.593703031539916992e+00 2.258843183517456055e+00 -4.728417873382568359e+00
3.940000000000000000e+02 5.205241775512695312e+01 -5.239472866058349609e+00 4.392699718475341797e+00 4.825821876525878906e+00 2.765556573867797852e+00 -5.789843559265136719e+00
3.950000000000000000e+02 5.192538452148437500e+01 -7.018376350402832031e+00 3.276427984237670898e+00 1.359692692756652832e+00 1.390836238861083984e+00 2.924628019332885742e+00
3.960000000000000000e+02 5.202068710327148438e+01 -7.228773593902587891e+00 4.264241695404052734e+00 2.909338712692260742e+00 2.152074098587036133e+00 4.541426181793212891e+00
3.970000000000000000e+02 5.228882980346679688e+01 -7.454874038696289062e+00 4.883367538452148438e+00 6.792593955993652344e+00 3.502788543701171875e+00 6.908006191253662109e+00
3.980000000000000000e+02 5.414242935180664062e+01 -5.822855472564697266e+00 1.080406093597412109e+01 2.154782867431640625e+01 9.705566406250000000e+00 3.111824274063110352e+00
3.990000000000000000e+02 5.432374191284179688e+01 -5.860972404479980469e+00 1.090126419067382812e+01 1.959990882873535156e+01 9.150352478027343750e+00 2.686062574386596680e+00
4.000000000000000000e+02 5.063041305541992188e+01 -6.978034973144531250e+00 -1.429827570915222168e+00 1.160653829574584961e-01 -3.941286504268646240e-01 3.954327106475830078e-01
4.010000000000000000e+02 5.065835189819335938e+01 -5.469061374664306641e+00 1.601908355951309204e-01 4.671014249324798584e-01 1.881876736879348755e-01 -1.170540571212768555e+00
4.020000000000000000e+02 5.080145263671875000e+01 -7.014381885528564453e+00 -8.429110050201416016e-01 2.420224845409393311e-01 -1.802665591239929199e-01 5.849006772041320801e-01
4.030000000000000000e+02 5.100613403320312500e+01 -6.783973693847656250e+00 -1.876028776168823242e+00 7.940500229597091675e-02 -5.389871001243591309e-01 2.223901301622390747e-01
4.040000000000000000e+02 5.120058822631835938e+01 -6.795357704162597656e+00 -1.408228874206542969e+00 2.147175967693328857e-01 -3.580533862113952637e-01 4.742653369903564453e-01
4.050000000000000000e+02 5.124522399902343750e+01 -7.188634872436523438e+00 1.323802351951599121e+00 8.766980171203613281e-01 6.601501107215881348e-01 1.741613030433654785e+00
4.060000000000000000e+02 5.167981719970703125e+01 -7.120162487030029297e+00 2.431093692779541016e+00 1.108716130256652832e+00 1.061942934989929199e+00 2.470512390136718750e+00
4.070000000000000000e+02 5.148407745361328125e+01 -6.074785709381103516e+00 -9.713748097419738770e-01 8.691916614770889282e-02 -2.653366923332214355e-01 -5.082839131355285645e-01
4.080000000000000000e+02 5.141897964477539062e+01 -5.276333808898925781e+00 2.659219026565551758e+00 1.797853946685791016e+00 1.337121963500976562e+00 -3.073947429656982422e+00
4.090000000000000000e+02 5.218071365356445312e+01 -5.406940937042236328e+00 5.059130191802978516e+00 5.480177402496337891e+00 3.161792278289794922e+00 -6.217078685760498047e+00
4.100000000000000000e+02 5.134751129150390625e+01 -7.048120975494384766e+00 9.242597818374633789e-01 4.567558765411376953e-01 4.143047034740447998e-01 1.367060065269470215e+00
4.110000000000000000e+02 5.422237777709960938e+01 -5.739781379699707031e+00 9.641271591186523438e+00 2.054669952392578125e+01 9.056390762329101562e+00 2.850069284439086914e+00
4.120000000000000000e+02 5.163980865478515625e+01 -5.803834438323974609e+00 1.356200456619262695e+00 7.712402939796447754e-01 6.382322311401367188e-01 -1.739288449287414551e+00
4.130000000000000000e+02 5.118356323242187500e+01 -7.015377521514892578e+00 8.906223624944686890e-02 3.542982935905456543e-01 1.330081671476364136e-01 8.270300030708312988e-01
4.140000000000000000e+02 5.175607681274414062e+01 -5.650401592254638672e+00 2.998476266860961914e+00 1.310560226440429688e+00 1.292710900306701660e+00 -2.822483301162719727e+00
4.150000000000000000e+02 5.099718475341796875e+01 -5.477641582489013672e+00 9.346663355827331543e-01 6.228262782096862793e-01 4.672477841377258301e-01 -1.610813140869140625e+00
4.160000000000000000e+02 5.051890182495117188e+01 -5.615335464477539062e+00 -5.098573565483093262e-01 2.082200795412063599e-01 -9.049119055271148682e-02 -7.435895204544067383e-01
4.170000000000000000e+02 5.080428314208984375e+01 -5.834201812744140625e+00 -1.040390491485595703e+00 1.010057777166366577e-01 -2.818154096603393555e-01 -4.974493682384490967e-01
4.180000000000000000e+02 5.093450927734375000e+01 -5.687458515167236328e+00 -1.372113227844238281e-01 2.706000804901123047e-01 4.001662880182266235e-02 -9.338238239288330078e-01
4.190000000000000000e+02 5.143133163452148438e+01 -7.220019340515136719e+00 1.766432285308837891e+00 9.535022974014282227e-01 8.159803748130798340e-01 2.059920072555541992e+00
4.200000000000000000e+02 5.077639770507812500e+01 -5.589446067810058594e+00 -1.368124783039093018e-01 3.643380403518676758e-01 6.825766712427139282e-02 -1.022657752037048340e+00
4.210000000000000000e+02 5.146171188354492188e+01 -5.737242698669433594e+00 1.307159662246704102e+00 7.060027122497558594e-01 6.039487123489379883e-01 -1.696710467338562012e+00
4.220000000000000000e+02 4.979161453247070312e+01 -6.267595767974853516e+00 -3.808593988418579102e+00 7.626336067914962769e-02 -1.119699239730834961e+00 3.204139322042465210e-02
4.230000000000000000e+02 4.876400756835937500e+01 -5.830253124237060547e+00 -2.822451353073120117e+00 2.027003653347492218e-02 -8.406543731689453125e-01 -4.783605411648750305e-02
4.240000000000000000e+02 4.923005294799804688e+01 -5.580334186553955078e+00 -1.824221849441528320e+00 3.440585359930992126e-02 -5.369448065757751465e-01 -2.272537499666213989e-01
4.250000000000000000e+02 4.803504562377929688e+01 -5.280423164367675781e+00 -1.753266453742980957e+00 5.977055802941322327e-02 -5.080487728118896484e-01 -1.838109642267227173e-01
4.260000000000000000e+02 4.996569442749023438e+01 -5.260822772979736328e+00 -3.457712531089782715e-01 2.243447005748748779e-01 -3.642796725034713745e-02 -8.318139314651489258e-01
4.270000000000000000e+02 5.000827789306640625e+01 -5.629485130310058594e+00 -1.288062095642089844e+00 1.287229061126708984e-01 -3.478017449378967285e-01 -3.755041658878326416e-01
4.280000000000000000e+02 4.956493377685546875e+01 -5.200782775878906250e+00 -5.802066326141357422e-01 3.103499412536621094e-01 -8.095701038837432861e-02 -7.256868481636047363e-01
4.290000000000000000e+02 4.741697311401367188e+01 -5.302351474761962891e+00 -2.107055902481079102e+00 2.615131437778472900e-02 -6.242713928222656250e-01 -9.102724492549896240e-02
4.300000000000000000e+02 4.815546035766601562e+01 -6.019312858581542969e+00 -3.350010156631469727e+00 -2.179394289851188660e-02 -1.011541247367858887e+00 -1.439146045595407486e-02
4.310000000000000000e+02 4.917223739624023438e+01 -6.199260234832763672e+00 -3.617648839950561523e+00 -4.694819077849388123e-02 -1.099379181861877441e+00 1.728521659970283508e-02
4.320000000000000000e+02 4.746315765380859375e+01 -6.041945934295654297e+00 -3.354012012481689453e+00 1.984288543462753296e-02 -1.000250697135925293e+00 -2.140607312321662903e-02
4.330000000000000000e+02 4.988458633422851562e+01 -6.031636714935302734e+00 -2.904543399810791016e+00 1.209111735224723816e-01 -8.350896239280700684e-01 -9.919633716344833374e-02
4.340000000000000000e+02 4.917763137817382812e+01 -5.150500297546386719e+00 -9.517332315444946289e-01 1.868344694375991821e-01 -2.294696271419525146e-01 -5.982682704925537109e-01
4.350000000000000000e+02 4.995630264282226562e+01 -5.818630695343017578e+00 -1.947248101234436035e+00 1.109345629811286926e-01 -5.508940815925598145e-01 -2.416584342718124390e-01
4.360000000000000000e+02 4.862661743164062500e+01 -5.218600273132324219e+00 -1.427727460861206055e+00 7.859540730714797974e-02 -4.047396183013916016e-01 -3.800331950187683105e-01
4.370000000000000000e+02 4.948175430297851562e+01 -5.884338378906250000e+00 -2.463002920150756836e+00 5.323448777198791504e-02 -7.229305505752563477e-01 -1.628655046224594116e-01
4.380000000000000000e+02 4.987072372436523438e+01 -5.033870220184326172e+00 1.235412782989442348e-03 4.125076532363891602e-01 1.241229176521301270e-01 -1.052455663681030273e+00
4.390000000000000000e+02 5.001158523559570312e+01 -5.452682495117187500e+00 -5.183662176132202148e-01 1.379123032093048096e-01 -1.141361743211746216e-01 -6.333950757980346680e-01
4.400000000000000000e+02 4.954062652587890625e+01 -5.470864772796630859e+00 -1.379061102867126465e+00 2.295777648687362671e-01 -3.448449969291687012e-01 -4.256097078323364258e-01
4.410000000000000000e+02 4.973955917358398438e+01 -5.368791103363037109e+00 -7.293401360511779785e-01 2.355125099420547485e-01 -1.481482982635498047e-01 -6.473348736763000488e-01
4.420000000000000000e+02 4.969466400146484375e+01 -5.686380386352539062e+00 -1.744728565216064453e+00 1.510860472917556763e-01 -4.780927598476409912e-01 -2.809799313545227051e-01
4.430000000000000000e+02 4.984780883789062500e+01 -5.536737918853759766e+00 -1.109055280685424805e+00 1.822352558374404907e-01 -2.780460119247436523e-01 -4.956230223178863525e-01
4.440000000000000000e+02 4.448383331298828125e+01 -6.086326122283935547e+00 -3.157170057296752930e+00 1.003963756375014782e-03 -9.468498826026916504e-01 -4.581041168421506882e-03
4.450000000000000000e+02 4.522269439697265625e+01 -5.335564136505126953e+00 -2.438883304595947266e+00 1.812035962939262390e-02 -7.262288928031921387e-01 1.341694872826337814e-02
4.460000000000000000e+02 4.523437500000000000e+01 -6.075472354888916016e+00 -3.222447156906127930e+00 -1.265486353076994419e-03 -9.671137928962707520e-01 -4.454811569303274155e-03
4.470000000000000000e+02 4.598466110229492188e+01 -6.063519477844238281e+00 -3.280882358551025391e+00 7.681185379624366760e-03 -9.819603562355041504e-01 -1.116993557661771774e-02
4.480000000000000000e+02 4.673505020141601562e+01 -6.051823139190673828e+00 -3.332568168640136719e+00 -8.950474672019481659e-03 -1.002455592155456543e+00 -1.005538180470466614e-02
4.490000000000000000e+02 4.672545623779296875e+01 -5.311883449554443359e+00 -2.261198759078979492e+00 2.970734611153602600e-02 -6.694474220275878906e-01 -5.598392337560653687e-02
4.500000000000000000e+02 4.447110748291015625e+01 -5.346434116363525391e+00 -2.458862066268920898e+00 5.988212302327156067e-03 -7.358621954917907715e-01 3.759359195828437805e-02
4.510000000000000000e+02 4.597402191162109375e+01 -5.323595523834228516e+00 -2.379662036895751953e+00 1.558045297861099243e-02 -7.092244625091552734e-01 -7.424576207995414734e-03
4.520000000000000000e+02 4.223370742797851562e+01 -6.133643150329589844e+00 -2.885005474090576172e+00 1.132396631874144077e-03 -8.651618957519531250e-01 -3.359094262123107910e-03
4.530000000000000000e+02 4.148229217529296875e+01 -6.146579742431640625e+00 -2.787145376205444336e+00 -4.853526770602911711e-04 -8.362891674041748047e-01 -2.520750742405653000e-03
4.540000000000000000e+02 4.221790695190429688e+01 -5.393811225891113281e+00 -2.395042181015014648e+00 9.009276516735553741e-03 -7.158098816871643066e-01 7.480151206254959106e-02
4.550000000000000000e+02 4.298408889770507812e+01 -6.118122577667236328e+00 -2.981774330139160156e+00 2.492851344868540764e-03 -8.937844038009643555e-01 -7.252894807606935501e-03
4.560000000000000000e+02 4.373342132568359375e+01 -6.099862575531005859e+00 -3.076491355895996094e+00 -3.261849749833345413e-03 -9.239259958267211914e-01 -6.678817793726921082e-03
4.570000000000000000e+02 4.371966552734375000e+01 -5.359988689422607422e+00 -2.453385114669799805e+00 9.177335537970066071e-03 -7.332623600959777832e-01 5.574522539973258972e-02
4.580000000000000000e+02 4.146547317504882812e+01 -5.406769752502441406e+00 -2.335478305816650391e+00 3.608453087508678436e-03 -6.995609402656555176e-01 8.429406583309173584e-02
4.590000000000000000e+02 4.296931076049804688e+01 -5.378270149230957031e+00 -2.436485052108764648e+00 6.562980823218822479e-03 -7.289766073226928711e-01 6.928586959838867188e-02
4.600000000000000000e+02 3.846181488037109375e+01 -5.483074665069580078e+00 -2.034970760345458984e+00 6.295657251030206680e-03 -6.086025834083557129e-01 1.092917174100875854e-01
4.610000000000000000e+02 3.848166656494140625e+01 -6.222808361053466797e+00 -2.332838058471679688e+00 1.627307734452188015e-03 -6.993632316589355469e-01 1.135530183091759682e-03
4.620000000000000000e+02 3.923187255859375000e+01 -6.203719139099121094e+00 -2.448127985000610352e+00 8.100873674266040325e-04 -7.341953516006469727e-01 -1.363286282867193222e-03
4.630000000000000000e+02 3.998181152343750000e+01 -6.183495998382568359e+00 -2.562982320785522461e+00 1.788368099369108677e-03 -7.683581709861755371e-01 -4.118284676223993301e-03
4.640000000000000000e+02 4.073185729980468750e+01 -6.163486957550048828e+00 -2.679337501525878906e+00 -1.592182088643312454e-03 -8.042789101600646973e-01 -4.487098660320043564e-03
4.650000000000000000e+02 4.071416854858398438e+01 -5.423696517944335938e+00 -2.271830558776855469e+00 5.637743975967168808e-03 -6.798578500747680664e-01 9.416625648736953735e-02
4.660000000000000000e+02 3.921274185180664062e+01 -5.463966846466064453e+00 -2.121991872787475586e+00 8.488543331623077393e-03 -6.340510249137878418e-01 1.042035296559333801e-01
4.670000000000000000e+02 3.996340179443359375e+01 -5.443724155426025391e+00 -2.201833963394165039e+00 6.089617963880300522e-03 -6.587233543395996094e-01 1.002074331045150757e-01
4.680000000000000000e+02 3.698171997070312500e+01 -6.262598514556884766e+00 -2.089547872543334961e+00 2.171316416934132576e-03 -6.262129545211791992e-01 5.477967672049999237e-03
4.690000000000000000e+02 3.621255493164062500e+01 -5.544963359832763672e+00 -1.753073453903198242e+00 1.039256434887647629e-02 -5.228042602539062500e-01 1.250566542148590088e-01
4.700000000000000000e+02 3.548279571533203125e+01 -6.306656837463378906e+00 -1.841109275817871094e+00 3.629612270742654800e-03 -5.512439012527465820e-01 1.356731913983821869e-02
4.710000000000000000e+02 3.771127700805664062e+01 -5.501970291137695312e+00 -1.943734169006347656e+00 8.061621338129043579e-03 -5.807017683982849121e-01 1.151807308197021484e-01
4.720000000000000000e+02 3.773139953613281250e+01 -6.241697311401367188e+00 -2.212993144989013672e+00 4.268912016414105892e-04 -6.637698411941528320e-01 3.104774979874491692e-03
4.730000000000000000e+02 3.546322250366210938e+01 -5.566914081573486328e+00 -1.654790878295898438e+00 1.058074180036783218e-02 -4.932630360126495361e-01 1.296046227216720581e-01
4.740000000000000000e+02 3.696178054809570312e+01 -5.522866249084472656e+00 -1.850368857383728027e+00 7.872862741351127625e-03 -5.527487993240356445e-01 1.204459294676780701e-01
4.750000000000000000e+02 3.623231124877929688e+01 -6.284700870513916016e+00 -1.966297745704650879e+00 1.609801431186497211e-03 -5.894063711166381836e-01 8.896113373339176178e-03
4.760000000000000000e+02 3.323463058471679688e+01 -6.359344959259033203e+00 -1.476755857467651367e+00 1.655030064284801483e-03 -4.425302743911743164e-01 2.863213978707790375e-02
4.770000000000000000e+02 3.321954727172851562e+01 -5.619493961334228516e+00 -1.346736192703247070e+00 1.027541793882846832e-02 -4.009382426738739014e-01 1.448364108800888062e-01
4.780000000000000000e+02 3.248681640625000000e+01 -6.379900932312011719e+00 -1.350201010704040527e+00 4.923181608319282532e-03 -4.035833477973937988e-01 3.381761163473129272e-02
4.790000000000000000e+02 3.398349380493164062e+01 -6.341384410858154297e+00 -1.599068641662597656e+00 2.899360843002796173e-03 -4.788507819175720215e-01 2.527427487075328827e-02
4.800000000000000000e+02 3.471478271484375000e+01 -5.586100101470947266e+00 -1.553585410118103027e+00 1.135060284286737442e-02 -4.626704454421997070e-01 1.330352574586868286e-01
4.810000000000000000e+02 3.473338699340820312e+01 -6.325866699218750000e+00 -1.718969345092773438e+00 3.421502653509378433e-03 -5.146643519401550293e-01 1.987352408468723297e-02
4.820000000000000000e+02 3.247348785400390625e+01 -5.640007495880126953e+00 -1.248514175415039062e+00 1.118464209139347076e-02 -3.711988627910614014e-01 1.477434039115905762e-01
4.830000000000000000e+02 3.396664810180664062e+01 -5.601575374603271484e+00 -1.449525356292724609e+00 9.038214571774005890e-03 -4.321461319923400879e-01 1.383455693721771240e-01
4.840000000000000000e+02 3.099083137512207031e+01 -6.399948596954345703e+00 -1.124204874038696289e+00 1.626344164833426476e-03 -3.367735743522644043e-01 4.728535562753677368e-02
4.850000000000000000e+02 3.024179267883300781e+01 -5.667771339416503906e+00 -9.450104832649230957e-01 5.621192976832389832e-03 -2.818167805671691895e-01 1.574751585721969604e-01
4.860000000000000000e+02 2.949573898315429688e+01 -6.414954185485839844e+00 -8.893859386444091797e-01 4.200718365609645844e-03 -2.655555605888366699e-01 5.391487479209899902e-02
4.870000000000000000e+02 3.172830200195312500e+01 -5.652883052825927734e+00 -1.146509170532226562e+00 1.052775513380765915e-02 -3.407944142818450928e-01 1.486198604106903076e-01
4.880000000000000000e+02 3.173856925964355469e+01 -6.392818927764892578e+00 -1.233129978179931641e+00 4.257645923644304276e-03 -3.686616718769073486e-01 4.200572893023490906e-02
4.890000000000000000e+02 2.949855422973632812e+01 -5.674893379211425781e+00 -8.522161245346069336e-01 6.346952635794878006e-03 -2.537607550621032715e-01 1.577981710433959961e-01
4.900000000000000000e+02 3.098492622375488281e+01 -5.659971237182617188e+00 -1.043456315994262695e+00 6.115591153502464294e-03 -3.112021982669830322e-01 1.525277644395828247e-01
4.910000000000000000e+02 3.024333572387695312e+01 -6.407790660858154297e+00 -1.009320139884948730e+00 1.142801949754357338e-03 -3.024531900882720947e-01 4.930042475461959839e-02
4.920000000000000000e+02 2.800358009338378906e+01 -6.392907142639160156e+00 -6.930481195449829102e-01 -2.118308562785387039e-03 -2.085499167442321777e-01 6.517627090215682983e-02
4.930000000000000000e+02 2.728431129455566406e+01 -5.636834621429443359e+00 -5.786437988281250000e-01 -6.396966055035591125e-03 -1.755122244358062744e-01 1.565120220184326172e-01
4.940000000000000000e+02 2.651304817199707031e+01 -6.358762741088867188e+00 -4.926759600639343262e-01 -8.395548793487250805e-04 -1.480546593666076660e-01 6.341780722141265869e-02
4.950000000000000000e+02 2.875823974609375000e+01 -5.669638156890869141e+00 -7.585071325302124023e-01 3.581500146538019180e-03 -2.264776974916458130e-01 1.549135893583297729e-01
4.960000000000000000e+02 2.874904632568359375e+01 -6.409622669219970703e+00 -7.846840023994445801e-01 2.455616602674126625e-03 -2.346685081720352173e-01 6.173309683799743652e-02
4.970000000000000000e+02 2.654741096496582031e+01 -5.619358539581298828e+00 -4.992100596427917480e-01 -6.973426323384046555e-03 -1.518550515174865723e-01 1.514514237642288208e-01
4.980000000000000000e+02 2.802116203308105469e+01 -5.653115749359130859e+00 -6.648264527320861816e-01 -3.092894796282052994e-03 -2.003757953643798828e-01 1.556690037250518799e-01
4.990000000000000000e+02 2.725833702087402344e+01 -6.376431941986083984e+00 -5.945708155632019043e-01 -2.571922494098544121e-03 -1.791428178548812866e-01 6.360995769500732422e-02
5.000000000000000000e+02 2.428754043579101562e+01 -6.197861671447753906e+00 -2.636293172836303711e-01 -8.462936617434024811e-03 -8.162767440080642700e-02 5.854422226548194885e-02
5.010000000000000000e+02 2.435861396789550781e+01 -5.461198806762695312e+00 -2.802231013774871826e-01 -2.371353097259998322e-02 -9.118098765611648560e-02 1.299359351396560669e-01
5.020000000000000000e+02 2.354777717590332031e+01 -6.138960838317871094e+00 -1.917607337236404419e-01 -8.313139900565147400e-03 -6.002216041088104248e-02 5.074231699109077454e-02
5.030000000000000000e+02 2.502826499938964844e+01 -6.258197307586669922e+00 -3.373426198959350586e-01 -8.343391120433807373e-03 -1.037058010697364807e-01 6.515341252088546753e-02
5.040000000000000000e+02 2.581491851806640625e+01 -5.581003189086914062e+00 -4.213994741439819336e-01 -1.140676066279411316e-02 -1.298418641090393066e-01 1.427130699157714844e-01
5.050000000000000000e+02 2.576985549926757812e+01 -6.319781780242919922e+00 -4.078336954116821289e-01 -3.287143539637327194e-03 -1.233362555503845215e-01 6.623437255620956421e-02
5.060000000000000000e+02 2.363185691833496094e+01 -5.403356075286865234e+00 -2.209205925464630127e-01 -2.458913438022136688e-02 -7.365292310714721680e-02 1.171388402581214905e-01
5.070000000000000000e+02 2.508633232116699219e+01 -5.520476818084716797e+00 -3.461586833000183105e-01 -1.863628625869750977e-02 -1.094384938478469849e-01 1.373074650764465332e-01
5.080000000000000000e+02 2.146717453002929688e+01 -5.077126979827880859e+00 -8.119844645261764526e-02 -3.281506896018981934e-02 -3.420405462384223938e-02 6.984662264585494995e-02
5.090000000000000000e+02 2.134441947937011719e+01 -5.806876659393310547e+00 -4.943649470806121826e-02 -8.223554119467735291e-03 -1.729801483452320099e-02 2.759515680372714996e-02
5.100000000000000000e+02 2.061148262023925781e+01 -5.684748649597167969e+00 -1.690761931240558624e-02 -9.310016408562660217e-03 -7.865291088819503784e-03 1.718105003237724304e-02
5.110000000000000000e+02 2.207760429382324219e+01 -5.928263664245605469e+00 -8.987627178430557251e-02 -1.250919606536626816e-02 -3.071564063429832458e-02 3.701804950833320618e-02
5.120000000000000000e+02 2.290797805786132812e+01 -5.314875125885009766e+00 -1.672060787677764893e-01 -2.825660444796085358e-02 -5.863880366086959839e-02 1.012962535023689270e-01
5.130000000000000000e+02 2.281096076965332031e+01 -6.048885822296142578e+00 -1.341544687747955322e-01 -8.826870471239089966e-03 -4.289440438151359558e-02 4.521698877215385437e-02
5.140000000000000000e+02 2.074710655212402344e+01 -4.957129478454589844e+00 -5.430544912815093994e-02 -2.732801437377929688e-02 -2.449003979563713074e-02 5.146946385502815247e-02
5.150000000000000000e+02 2.218749046325683594e+01 -5.196383476257324219e+00 -1.188117861747741699e-01 -3.157052025198936462e-02 -4.511469230055809021e-02 8.778141438961029053e-02
5.160000000000000000e+02 1.905580329895019531e+01 -4.613489627838134766e+00 -4.741117823868989944e-03 -1.364709064364433289e-02 -5.516462493687868118e-03 3.944028634577989578e-03
5.170000000000000000e+02 1.978026580810546875e+01 -5.523462295532226562e+00 2.141081349691376090e-04 -6.394139491021633148e-03 -1.854009460657835007e-03 3.829804714769124985e-03
5.180000000000000000e+02 1.992511749267578125e+01 -4.797539234161376953e+00 -2.600178681313991547e-02 -3.069501556456089020e-02 -1.700904034078121185e-02 2.919263578951358795e-02
5.190000000000000000e+02 1.847771644592285156e+01 -4.667171001434326172e+00 5.073246429674327374e-04 1.232181489467620850e-02 3.848741762340068817e-03 -3.775357035920023918e-03
5.200000000000000000e+02 1.890536689758300781e+01 -5.338151454925537109e+00 2.181392163038253784e-03 4.087466804776340723e-04 7.770416559651494026e-04 -1.749413902871310711e-03
5.210000000000000000e+02 1.882146453857421875e+01 -6.111851215362548828e+00 -9.639567695558071136e-03 -3.511100308969616890e-03 -3.945200238376855850e-03 -8.819759823381900787e-03
5.220000000000000000e+02 1.800308799743652344e+01 -6.754832744598388672e+00 1.026419643312692642e-02 -5.646740272641181946e-02 -1.386096235364675522e-02 -1.607108302414417267e-02
5.230000000000000000e+02 1.831862449645996094e+01 -6.817986488342285156e+00 -4.668611288070678711e-02 -3.195606172084808350e-02 -2.359265275299549103e-02 -4.695532098412513733e-02
5.240000000000000000e+02 1.959215354919433594e+01 -7.028707504272460938e+00 -1.866456717252731323e-01 3.641509101726114750e-04 -5.588445812463760376e-02 -7.966792583465576172e-02
5.250000000000000000e+02 1.890554809570312500e+01 -6.889476776123046875e+00 -1.105667501688003540e-01 -1.908428408205509186e-02 -3.889530897140502930e-02 -6.219290196895599365e-02
5.260000000000000000e+02 1.965883255004882812e+01 -6.285129547119140625e+00 -7.356207072734832764e-02 1.002610079012811184e-04 -2.203854173421859741e-02 -2.255558222532272339e-02
5.270000000000000000e+02 1.828899765014648438e+01 -6.266255378723144531e+00 -4.133722977712750435e-04 6.443540565669536591e-03 1.809050445444881916e-03 1.484062871895730495e-03
5.280000000000000000e+02 1.796524238586425781e+01 -6.500696659088134766e+00 1.135889999568462372e-02 -8.094037766568362713e-04 3.164849011227488518e-03 1.228426583111286163e-02
5.290000000000000000e+02 1.788566398620605469e+01 -7.394911766052246094e+00 -7.208465784788131714e-02 -8.014464378356933594e-02 -4.566879197955131531e-02 -8.186554908752441406e-02
5.300000000000000000e+02 1.885700607299804688e+01 -7.604185581207275391e+00 -1.873188167810440063e-01 -2.861422672867774963e-02 -6.477991491556167603e-02 -1.219064369797706604e-01
5.310000000000000000e+02 1.717001533508300781e+01 -9.286396980285644531e+00 -1.920341104269027710e-01 -2.388721257448196411e-01 -1.292718648910522461e-01 -2.256970107555389404e-01
5.320000000000000000e+02 2.167247390747070312e+01 -8.988037109375000000e+00 -5.754877924919128418e-01 3.104633651673793793e-02 -1.633324325084686279e-01 -2.972460091114044189e-01
5.330000000000000000e+02 2.719364929199218750e+01 -8.628148078918457031e+00 -1.191770553588867188e+00 -7.102693896740674973e-03 -3.596619665622711182e-01 -2.249494940042495728e-01
5.340000000000000000e+02 2.409067153930664062e+01 -8.453238487243652344e+00 -8.266037702560424805e-01 2.149006538093090057e-02 -2.415341138839721680e-01 -2.262171953916549683e-01
5.350000000000000000e+02 1.507365322113037109e+01 -1.281384658813476562e+01 -4.604383111000061035e-01 -6.653410792350769043e-01 -3.377338051795959473e-01 -5.396758913993835449e-01
5.360000000000000000e+02 1.239421176910400391e+01 -1.607797813415527344e+01 -6.822232604026794434e-01 -7.126234769821166992e-01 -4.184540212154388428e-01 -6.868020296096801758e-01
5.370000000000000000e+02 1.426642513275146484e+01 -1.592659664154052734e+01 -5.908862352371215820e-01 -5.659501552581787109e-01 -3.470509052276611328e-01 -5.588166713714599609e-01
5.380000000000000000e+02 1.520887947082519531e+01 -2.440834617614746094e+01 2.972372993826866150e-02 -3.797659277915954590e-01 -1.050126552581787109e-01 -3.560124337673187256e-01
5.390000000000000000e+02 2.003756713867187500e+01 -3.062252044677734375e+01 3.270522654056549072e-01 -7.083825021982192993e-02 7.686419785022735596e-02 -2.365410774946212769e-01
5.400000000000000000e+02 1.762025070190429688e+01 -4.060152816772460938e+01 3.967406749725341797e-01 -1.458707749843597412e-01 7.526097446680068970e-02 -5.058729276061058044e-02
5.410000000000000000e+02 2.249340438842773438e+01 -4.081655502319335938e+01 5.006182193756103516e-01 2.021609246730804443e-01 2.108337432146072388e-01 -1.979418471455574036e-02
5.420000000000000000e+02 1.844434738159179688e+01 -3.689082717895507812e+01 3.991549015045166016e-01 -1.156524494290351868e-01 8.505073934793472290e-02 -1.282290667295455933e-01
5.430000000000000000e+02 2.292147254943847656e+01 -3.384739685058593750e+01 4.476793706417083740e-01 1.584950834512710571e-01 1.818523406982421875e-01 -1.452958136796951294e-01
5.440000000000000000e+02 2.068738174438476562e+01 -2.175088500976562500e+01 -8.174610137939453125e-02 -1.007024049758911133e-01 -5.473455414175987244e-02 -3.783851861953735352e-01
5.450000000000000000e+02 2.441522026062011719e+01 -1.359717082977294922e+01 -6.030948162078857422e-01 3.317120298743247986e-02 -1.709770858287811279e-01 -5.155575871467590332e-01
5.460000000000000000e+02 1.332016754150390625e+01 -1.500349712371826172e+01 -6.367036700248718262e-01 -7.182556986808776855e-01 -4.064877927303314209e-01 -6.614173054695129395e-01
5.470000000000000000e+02 1.143236351013183594e+01 -1.721719169616699219e+01 -8.276329040527343750e-01 -6.884745955467224121e-01 -4.548322558403015137e-01 -6.671311259269714355e-01
5.480000000000000000e+02 1.024574756622314453e+01 -1.810576438903808594e+01 -1.002604603767395020e+00 -5.496564507484436035e-01 -4.656783044338226318e-01 -5.555300712585449219e-01
5.490000000000000000e+02 8.960132598876953125e+00 -1.838983917236328125e+01 -7.217791676521301270e-01 -1.881814450025558472e-01 -2.729881703853607178e-01 -2.966945171356201172e-01
5.500000000000000000e+02 7.182078838348388672e+00 -1.738212776184082031e+01 -1.301959306001663208e-01 5.082265660166740417e-02 -2.381198108196258545e-02 -2.507845684885978699e-02
5.510000000000000000e+02 6.365460872650146484e+00 -1.641006469726562500e+01 1.589265768416225910e-03 1.146563515067100525e-02 3.916470333933830261e-03 -1.178469136357307434e-02
5.520000000000000000e+02 7.084881782531738281e+00 -1.513559627532958984e+01 9.324974380433559418e-03 4.302717745304107666e-02 1.570564508438110352e-02 -1.284484285861253738e-02
5.530000000000000000e+02 8.834122657775878906e+00 -1.149481201171875000e+01 -1.157152932137250900e-03 -9.292006725445389748e-04 -6.259061046876013279e-04 1.002673408947885036e-03
5.540000000000000000e+02 9.625963211059570312e+00 -1.033034324645996094e+01 4.450966080185025930e-04 4.502518568187952042e-04 2.686045481823384762e-04 -7.099686190485954285e-04
5.550000000000000000e+02 1.214665317535400391e+01 -7.057595252990722656e+00 -8.417246863245964050e-05 -1.829867833293974400e-04 -8.014777267817407846e-05 6.751705950591713190e-05
5.560000000000000000e+02 1.173147678375244141e+01 -2.756866455078125000e+00 -1.633650208532344550e-05 1.576947688590735197e-04 4.240747875883243978e-05 9.523479093331843615e-05
5.570000000000000000e+02 1.226022148132324219e+01 -4.647889614105224609e+00 -2.808615136018488556e-06 -3.947658842662349343e-05 -1.268556025024736300e-05 -1.228217879543080926e-04
5.580000000000000000e+02 1.105147361755371094e+01 -1.914788007736206055e+00 -1.830972723837476224e-05 1.326769124716520309e-04 3.431015647947788239e-05 1.192615018226206303e-04
5.590000000000000000e+02 4.284720420837402344e+00 -1.934974789619445801e+00 -5.838273864355869591e-05 2.392902388237416744e-06 -1.679695196799002588e-05 -1.701526925899088383e-04
5.600000000000000000e+02 1.633636236190795898e+00 -1.468478202819824219e+01 3.775558900088071823e-03 5.951339844614267349e-03 2.918069483712315559e-03 1.091948896646499634e-02
5.610000000000000000e+02 4.418542385101318359e+00 -1.865491294860839844e+01 -1.313346475362777710e-01 -4.285374283790588379e-02 -5.225651711225509644e-02 -6.452930718660354614e-02
5.620000000000000000e+02 6.542917490005493164e-01 -2.478217887878417969e+01 -4.860593006014823914e-03 -2.353863865137100220e-01 -7.207409292459487915e-02 -4.865359142422676086e-02
5.630000000000000000e+02 7.644043564796447754e-01 -3.187150001525878906e+01 4.560695961117744446e-03 -7.389534711837768555e-01 -2.203178405761718750e-01 -4.343972727656364441e-02
5.640000000000000000e+02 2.812662363052368164e+00 -3.788137435913085938e+01 2.902725338935852051e-02 -8.384304642677307129e-01 -2.428209632635116577e-01 -4.052047058939933777e-02
5.650000000000000000e+02 8.026496767997741699e-01 -3.727500915527343750e+01 3.285044338554143906e-03 -9.382283091545104980e-01 -2.804829776287078857e-01 -3.831328358501195908e-03
5.660000000000000000e+02 8.715340614318847656e+00 -3.806923675537109375e+01 1.585931479930877686e-01 -5.444966554641723633e-01 -1.157710626721382141e-01 -1.232049688696861267e-01
5.670000000000000000e+02 7.683156967163085938e+00 -3.292393112182617188e+01 1.112836301326751709e-01 -5.344298481941223145e-01 -1.269438713788986206e-01 -2.491147220134735107e-01
5.680000000000000000e+02 1.229855251312255859e+01 -2.151688766479492188e+01 -1.443109512329101562e-01 -5.247604250907897949e-01 -2.007214128971099854e-01 -4.007003307342529297e-01
5.690000000000000000e+02 1.093221759796142578e+01 -2.288466644287109375e+01 -5.944260209798812866e-02 -5.017377734184265137e-01 -1.683541089296340942e-01 -4.083065986633300781e-01
5.700000000000000000e+02 6.318586468696594238e-01 -2.335681915283203125e+01 -2.215122804045677185e-03 -1.373097598552703857e-01 -4.185746237635612488e-02 -4.063020274043083191e-02
5.710000000000000000e+02 1.254585647583007812e+01 -2.001980781555175781e+00 8.240635361289605498e-05 5.272227281238883734e-05 4.053858719998970628e-05 5.550519927055574954e-05
5.720000000000000000e+02 2.716987800598144531e+01 -4.081651306152343750e+01 5.539213418960571289e-01 6.146992444992065430e-01 3.505861759185791016e-01 -1.540825236588716507e-02
5.730000000000000000e+02 3.003940010070800781e+01 -3.713700485229492188e+01 5.467575192451477051e-01 9.012289643287658691e-01 4.343959391117095947e-01 1.666966825723648071e-02
5.740000000000000000e+02 2.798470687866210938e+01 -2.160167312622070312e+01 9.791057556867599487e-02 2.211033999919891357e-01 9.570419043302536011e-02 -2.993524968624114990e-01
5.750000000000000000e+02 3.025826644897460938e+01 -8.654168128967285156e+00 -1.515571475028991699e+00 -1.666274107992649078e-02 -4.596702754497528076e-01 -2.276137471199035645e-01
5.760000000000000000e+02 2.874523162841796875e+01 -9.372759819030761719e+00 -1.239962697029113770e+00 -1.350130606442689896e-02 -3.760392069816589355e-01 -2.967230677604675293e-01
5.770000000000000000e+02 3.837637710571289062e+01 -4.041125488281250000e+01 4.223423302173614502e-01 2.215336799621582031e+00 7.913037538528442383e-01 6.554449349641799927e-02
5.780000000000000000e+02 3.739388275146484375e+01 -2.866124725341796875e+01 4.815000891685485840e-01 1.672107219696044922e+00 6.460821628570556641e-01 3.399638533592224121e-01
5.790000000000000000e+02 3.829926681518554688e+01 -2.266391563415527344e+01 4.459776580333709717e-01 1.363752841949462891e+00 5.429191589355468750e-01 4.540761709213256836e-01
5.800000000000000000e+02 3.868553924560546875e+01 -1.355978202819824219e+01 -3.654347956180572510e-01 2.916720509529113770e-01 -2.212882786989212036e-02 4.220694303512573242e-02
5.810000000000000000e+02 3.854804611206054688e+01 -8.465214729309082031e+00 -2.104959487915039062e+00 8.828244754113256931e-04 -6.312230229377746582e-01 -1.964185088872909546e-01
5.820000000000000000e+02 3.707341384887695312e+01 -9.222811698913574219e+00 -1.767629027366638184e+00 5.375397391617298126e-03 -5.286760926246643066e-01 -2.318809330463409424e-01
5.830000000000000000e+02 3.554705047607421875e+01 -8.551993370056152344e+00 -1.949622869491577148e+00 -9.841910563409328461e-03 -5.878394246101379395e-01 -2.209733426570892334e-01
5.840000000000000000e+02 4.283391952514648438e+01 -4.074938201904296875e+01 2.398278713226318359e-01 3.153420448303222656e+00 1.017974495887756348e+00 7.096498459577560425e-02
5.850000000000000000e+02 3.989228057861328125e+01 -3.660103607177734375e+01 3.716064989566802979e-01 2.500870466232299805e+00 8.617430925369262695e-01 2.295958846807479858e-01
5.860000000000000000e+02 3.925054550170898438e+01 -2.991167068481445312e+01 4.205200076103210449e-01 2.161070585250854492e+00 7.744771838188171387e-01 4.179143309593200684e-01
5.870000000000000000e+02 4.506073379516601562e+01 -2.300864791870117188e+01 2.817591130733489990e-01 3.144857406616210938e+00 1.027984976768493652e+00 1.182727217674255371e+00
5.880000000000000000e+02 4.400996780395507812e+01 -1.352321529388427734e+01 2.573390305042266846e-01 1.038320899009704590e+00 3.886979520320892334e-01 9.460145235061645508e-01
5.890000000000000000e+02 4.601705932617187500e+01 -8.266827583312988281e+00 -1.723443984985351562e+00 9.665780514478683472e-02 -4.880358278751373291e-01 1.215644553303718567e-01
5.900000000000000000e+02 4.303474807739257812e+01 -8.348615646362304688e+00 -2.105986356735229492e+00 3.224121406674385071e-02 -6.221235394477844238e-01 -9.171086549758911133e-02
5.910000000000000000e+02 4.306198883056640625e+01 -9.040021896362304688e+00 -1.641506075859069824e+00 7.516223192214965820e-02 -4.699031710624694824e-01 -2.249732427299022675e-02
5.920000000000000000e+02 4.154071426391601562e+01 -8.384744644165039062e+00 -2.151606321334838867e+00 1.761783286929130554e-02 -6.401965618133544922e-01 -1.424154192209243774e-01
5.930000000000000000e+02 4.752082824707031250e+01 -4.082191467285156250e+01 8.171889930963516235e-03 4.157099246978759766e+00 1.249581456184387207e+00 8.278550207614898682e-02
5.940000000000000000e+02 4.744997787475585938e+01 -3.747756958007812500e+01 9.187608957290649414e-03 4.161981105804443359e+00 1.251350641250610352e+00 2.429979592561721802e-01
5.950000000000000000e+02 5.130616378784179688e+01 -2.957041549682617188e+01 -2.839021086692810059e-01 5.213478088378906250e+00 1.478872776031494141e+00 6.873161792755126953e-01
5.960000000000000000e+02 4.749506378173828125e+01 -2.133110618591308594e+01 1.237550303339958191e-01 3.988793611526489258e+00 1.233764648437500000e+00 1.475707530975341797e+00
5.970000000000000000e+02 4.790938568115234375e+01 -1.436243534088134766e+01 5.639273524284362793e-01 3.164212226867675781e+00 1.118441820144653320e+00 2.212605237960815430e+00
5.980000000000000000e+02 5.068037033081054688e+01 -8.484348297119140625e+00 1.835452795028686523e+00 2.196654558181762695e+00 1.209632158279418945e+00 3.060125589370727539e+00
5.990000000000000000e+02 5.061647033691406250e+01 -8.058645248413085938e+00 1.658457994461059570e+00 1.348301410675048828e+00 9.020277857780456543e-01 2.507989883422851562e+00
6.000000000000000000e+02 5.743579864501953125e+01 -4.048653030395507812e+01 -3.863568007946014404e-01 6.180436611175537109e+00 1.738223910331726074e+00 4.652473703026771545e-02
6.010000000000000000e+02 5.387152099609375000e+01 -3.068655967712402344e+01 -4.222648739814758301e-01 5.862297058105468750e+00 1.632009744644165039e+00 4.428678452968597412e-01
6.020000000000000000e+02 5.710609817504882812e+01 -2.171647262573242188e+01 -7.952248454093933105e-01 7.708821773529052734e+00 2.074079036712646484e+00 4.718399643898010254e-01
6.030000000000000000e+02 6.002066040039062500e+01 -1.763186454772949219e+01 -5.483216047286987305e-01 8.899507522583007812e+00 2.505355596542358398e+00 -3.616924881935119629e-01
6.040000000000000000e+02 5.440976333618164062e+01 -7.481619358062744141e+00 6.227417469024658203e+00 1.937976837158203125e+01 7.682156085968017578e+00 -2.382919311523437500e+00
6.050000000000000000e+02 5.477164459228515625e+01 -6.694531440734863281e+00 1.085661125183105469e+01 1.654221916198730469e+01 8.219649314880371094e+00 -1.252488255500793457e+00
6.060000000000000000e+02 6.253260040283203125e+01 -4.056426239013671875e+01 -4.062892794609069824e-01 7.008793830871582031e+00 1.980751395225524902e+00 -3.124100342392921448e-02
6.070000000000000000e+02 5.784078598022460938e+01 -3.669771194458007812e+01 -4.294287562370300293e-01 6.347246170043945312e+00 1.775345206260681152e+00 9.930191189050674438e-02
6.080000000000000000e+02 6.579456329345703125e+01 -3.063821983337402344e+01 -4.655182361602783203e-01 7.594378471374511719e+00 2.138658046722412109e+00 -3.349182903766632080e-01
6.090000000000000000e+02 6.463174438476562500e+01 -2.083138275146484375e+01 -4.437861442565917969e-01 8.218264579772949219e+00 2.332343578338623047e+00 -7.276915907859802246e-01
6.100000000000000000e+02 6.736421966552734375e+01 -1.078635120391845703e+01 9.918214082717895508e-01 7.857232093811035156e+00 2.654716014862060547e+00 -7.611147165298461914e-01
6.110000000000000000e+02 6.639043426513671875e+01 -2.213876485824584961e+00 1.183006167411804199e+00 8.002375602722167969e+00 2.755614519119262695e+00 8.033306002616882324e-01
6.120000000000000000e+02 6.660807037353515625e+01 5.737813949584960938e+00 -1.361989825963973999e-01 8.161592483520507812e+00 2.407617807388305664e+00 9.823964238166809082e-01
6.130000000000000000e+02 6.437817382812500000e+01 1.186233139038085938e+01 -5.551215410232543945e-01 7.925887107849121094e+00 2.211229562759399414e+00 5.287406444549560547e-01
6.140000000000000000e+02 6.437302398681640625e+01 1.905012893676757812e+01 -4.501500129699707031e-01 7.445721149444580078e+00 2.098671436309814453e+00 2.587719559669494629e-01
6.150000000000000000e+02 5.952165222167968750e+01 2.278050422668457031e+01 -4.080026447772979736e-01 6.612466335296630859e+00 1.861339092254638672e+00 -5.306698754429817200e-02
6.160000000000000000e+02 6.186318588256835938e+01 3.119858169555664062e+01 -2.020812034606933594e-01 6.705948829650878906e+00 1.951160311698913574e+00 3.043715609237551689e-03
6.170000000000000000e+02 6.215280151367187500e+01 4.041126251220703125e+01 -1.009487658739089966e-01 6.580689907073974609e+00 1.943922400474548340e+00 2.685339655727148056e-03
6.180000000000000000e+02 5.714266586303710938e+01 4.048968505859375000e+01 -8.423197269439697266e-02 5.829581260681152344e+00 1.723604798316955566e+00 -2.161233685910701752e-02
6.190000000000000000e+02 6.209624099731445312e+01 3.660313034057617188e+01 -1.157038286328315735e-01 6.616173267364501953e+00 1.950140833854675293e+00 5.487202201038599014e-03
6.200000000000000000e+02 5.841876220703125000e+01 3.039174270629882812e+01 -2.093818038702011108e-01 6.152724266052246094e+00 1.783002734184265137e+00 -3.644402697682380676e-02
6.210000000000000000e+02 5.677350616455078125e+01 2.802115631103515625e+01 -2.403008937835693359e-01 5.923840999603271484e+00 1.705062031745910645e+00 -1.234859749674797058e-01
6.220000000000000000e+02 5.776825714111328125e+01 1.425033950805664062e+01 -6.596503853797912598e-01 7.066569805145263672e+00 1.922075748443603516e+00 -2.415372729301452637e-01
6.230000000000000000e+02 6.079928588867187500e+01 9.575642585754394531e+00 -6.996052265167236328e-01 8.063717842102050781e+00 2.209233760833740234e+00 2.185473144054412842e-01
6.240000000000000000e+02 5.952755355834960938e+01 5.001895904541015625e+00 -5.715571641921997070e-01 8.893533706665039062e+00 2.496592998504638672e+00 2.953721582889556885e-01
6.250000000000000000e+02 6.751853942871093750e+01 -4.079593658447265625e+01 -3.077113628387451172e-01 7.535924911499023438e+00 2.168464183807373047e+00 -4.877394065260887146e-02
6.260000000000000000e+02 6.837670135498046875e+01 -3.776975631713867188e+01 -2.892942726612091064e-01 7.626838207244873047e+00 2.201263189315795898e+00 -1.422890424728393555e-01
6.270000000000000000e+02 7.265271759033203125e+01 -3.038205337524414062e+01 -1.841196417808532715e-01 7.950170516967773438e+00 2.329815149307250977e+00 -4.142484366893768311e-01
6.280000000000000000e+02 7.297883605957031250e+01 -2.336955833435058594e+01 -1.430896073579788208e-01 7.731162548065185547e+00 2.276422023773193359e+00 -6.989083290100097656e-01
6.290000000000000000e+02 7.213119506835937500e+01 -1.505985164642333984e+01 1.813471168279647827e-01 7.367869377136230469e+00 2.264765024185180664e+00 -8.180712461471557617e-01
6.300000000000000000e+02 7.341944885253906250e+01 -1.102882766723632812e+01 3.372009098529815674e-01 6.945348739624023438e+00 2.184764862060546875e+00 -4.953042268753051758e-01
6.310000000000000000e+02 7.336527252197265625e+01 -3.978337287902832031e+00 4.199874401092529297e-01 6.862296104431152344e+00 2.184684991836547852e+00 2.840982079505920410e-01
6.320000000000000000e+02 7.327027130126953125e+01 3.934938430786132812e+00 7.076852768659591675e-02 7.333098411560058594e+00 2.221159934997558594e+00 8.029414415359497070e-01
6.330000000000000000e+02 7.285093688964843750e+01 1.076357746124267578e+01 -1.421331465244293213e-01 7.766075134277343750e+00 2.287182569503784180e+00 7.267037034034729004e-01
6.340000000000000000e+02 7.197415161132812500e+01 1.801080131530761719e+01 -1.939632445573806763e-01 7.965965270996093750e+00 2.331600666046142578e+00 4.649427235126495361e-01
6.350000000000000000e+02 6.909862518310546875e+01 3.111979484558105469e+01 -1.334360390901565552e-01 7.690109729766845703e+00 2.267002105712890625e+00 1.351022124290466309e-01
6.360000000000000000e+02 7.190894317626953125e+01 3.705334854125976562e+01 -5.266535654664039612e-02 8.086635589599609375e+00 2.410191059112548828e+00 3.556456044316291809e-02
6.370000000000000000e+02 7.809384918212890625e+01 -4.167450714111328125e+01 4.354725778102874756e-02 8.732491493225097656e+00 2.632811546325683594e+00 1.224137935787439346e-02
6.380000000000000000e+02 7.766532135009765625e+01 -3.043692207336425781e+01 -2.159604243934154510e-02 8.268662452697753906e+00 2.474119901657104492e+00 -1.973444670438766479e-01
6.390000000000000000e+02 7.820128631591796875e+01 -2.352338600158691406e+01 -1.261723879724740982e-02 7.608262538909912109e+00 2.278693675994873047e+00 -2.603113949298858643e-01
6.400000000000000000e+02 7.820781707763671875e+01 -1.662685012817382812e+01 6.683757063001394272e-03 6.643592834472656250e+00 1.995082974433898926e+00 -2.929980158805847168e-01
6.410000000000000000e+02 7.820694732666015625e+01 -9.661889076232910156e+00 3.928352519869804382e-02 5.865601539611816406e+00 1.771465539932250977e+00 -1.322023123502731323e-01
6.420000000000000000e+02 7.819131469726562500e+01 -2.725647926330566406e+00 3.962304443120956421e-02 5.897986888885498047e+00 1.781282901763916016e+00 1.534517407417297363e-01
6.430000000000000000e+02 7.813370513916015625e+01 4.217154979705810547e+00 6.629226263612508774e-03 6.715239048004150391e+00 2.016560554504394531e+00 3.136526644229888916e-01
6.440000000000000000e+02 7.804045867919921875e+01 1.119571113586425781e+01 -1.408872473984956741e-02 7.688675880432128906e+00 2.302376270294189453e+00 2.858816385269165039e-01
6.450000000000000000e+02 7.802011108398437500e+01 1.963300514221191406e+01 -1.520367432385683060e-02 8.498147010803222656e+00 2.544883012771606445e+00 1.570143997669219971e-01
6.460000000000000000e+02 7.674994659423828125e+01 2.237544059753417969e+01 -3.572912886738777161e-02 8.507963180541992188e+00 2.541670322418212891e+00 1.767052263021469116e-01
6.470000000000000000e+02 7.929906463623046875e+01 3.208585357666015625e+01 -8.292175829410552979e-03 9.191038131713867188e+00 2.754823923110961914e+00 1.457161176949739456e-02
6.480000000000000000e+02 7.635814666748046875e+01 3.844485092163085938e+01 -5.771980062127113342e-02 8.771285057067871094e+00 2.614069461822509766e+00 9.057838469743728638e-03
6.490000000000000000e+02 7.906529235839843750e+01 3.754484939575195312e+01 8.221898227930068970e-03 9.195189476013183594e+00 2.761023283004760742e+00 -1.574246096424758434e-03
6.500000000000000000e+02 5.230253601074218750e+01 4.074266052246093750e+01 -2.536326646804809570e-02 4.963477134704589844e+00 1.481434226036071777e+00 -2.014854550361633301e-02
6.510000000000000000e+02 5.230789947509765625e+01 3.137769317626953125e+01 -1.081032082438468933e-01 5.018997669219970703e+00 1.473268389701843262e+00 -2.070981860160827637e-01
6.520000000000000000e+02 5.285476303100585938e+01 2.730265045166015625e+01 -1.860796809196472168e-01 5.253498554229736328e+00 1.520225644111633301e+00 -2.765968739986419678e-01
6.530000000000000000e+02 4.712331008911132812e+01 1.521606636047363281e+01 -8.592220395803451538e-02 4.136074066162109375e+00 1.215045571327209473e+00 -8.846013545989990234e-01
6.540000000000000000e+02 4.797578811645507812e+01 6.862663745880126953e+00 1.260634958744049072e-01 4.206770896911621094e+00 1.299850225448608398e+00 -1.617673158645629883e+00
6.550000000000000000e+02 4.763035964965820312e+01 -3.252151310443878174e-01 8.346216082572937012e-01 2.204198360443115234e+00 9.116460084915161133e-01 -1.996814966201782227e+00
6.560000000000000000e+02 4.740589141845703125e+01 -4.677101135253906250e+00 -1.140387654304504395e+00 1.315686553716659546e-01 -3.026457130908966064e-01 -3.576920330524444580e-01
6.570000000000000000e+02 5.038738250732421875e+01 -4.818842411041259766e+00 1.233645200729370117e+00 8.280031085014343262e-01 6.184945106506347656e-01 -1.928998708724975586e+00
6.580000000000000000e+02 4.241349029541015625e+01 4.050196838378906250e+01 1.792713701725006104e-01 3.235446929931640625e+00 1.024415493011474609e+00 -5.338600650429725647e-02
6.590000000000000000e+02 4.398423004150390625e+01 3.191205596923828125e+01 1.024912446737289429e-01 3.456343650817871094e+00 1.067650437355041504e+00 -2.333328723907470703e-01
6.600000000000000000e+02 4.511807632446289062e+01 2.499580955505371094e+01 2.277819672599434853e-03 3.713876247406005859e+00 1.114846229553222656e+00 -4.475244879722595215e-01
6.610000000000000000e+02 4.551092147827148438e+01 1.569107818603515625e+01 -3.663354320451617241e-03 3.680472850799560547e+00 1.103042840957641602e+00 -8.213994503021240234e-01
6.620000000000000000e+02 4.394430923461914062e+01 6.694800376892089844e+00 4.104828536510467529e-01 2.421674966812133789e+00 8.496473431587219238e-01 -1.117590785026550293e+00
6.630000000000000000e+02 4.218201065063476562e+01 -7.884998321533203125e-01 -1.594858467578887939e-01 4.146264791488647461e-01 7.654219120740890503e-02 -2.281871140003204346e-01
6.640000000000000000e+02 4.001670837402343750e+01 -4.738942146301269531e+00 -1.868461251258850098e+00 1.743182726204395294e-02 -5.553088188171386719e-01 1.636272370815277100e-01
6.650000000000000000e+02 4.376148986816406250e+01 -4.689848423004150391e+00 -1.925946474075317383e+00 2.715361490845680237e-02 -5.696378946304321289e-01 5.539834871888160706e-02
6.660000000000000000e+02 4.525257873535156250e+01 -4.689087867736816406e+00 -1.792928934097290039e+00 4.294412210583686829e-02 -5.249954462051391602e-01 -3.369072079658508301e-02
6.670000000000000000e+02 3.743798446655273438e+01 4.073841857910156250e+01 2.970468103885650635e-01 2.332032680511474609e+00 7.887238860130310059e-01 -3.204695135354995728e-02
6.680000000000000000e+02 4.165605545043945312e+01 3.661252212524414062e+01 1.798378229141235352e-01 3.090358495712280273e+00 9.810588955879211426e-01 -1.460466384887695312e-01
6.690000000000000000e+02 3.641954421997070312e+01 3.031981277465820312e+01 2.435804754495620728e-01 2.101317405700683594e+00 7.034693956375122070e-01 -2.491148561239242554e-01
6.700000000000000000e+02 3.932228851318359375e+01 2.658371925354003906e+01 1.687254607677459717e-01 2.569372653961181641e+00 8.214294314384460449e-01 -3.452416658401489258e-01
6.710000000000000000e+02 3.631720352172851562e+01 1.484750556945800781e+01 1.597176045179367065e-01 1.525355696678161621e+00 5.055220127105712891e-01 -2.917975783348083496e-01
6.720000000000000000e+02 3.619467163085937500e+01 -6.283526420593261719e-01 -5.351138710975646973e-01 1.497363746166229248e-01 -1.156132519245147705e-01 3.671984076499938965e-01
6.730000000000000000e+02 3.402466201782226562e+01 -4.893657684326171875e+00 -1.317704558372497559e+00 1.756763830780982971e-02 -3.900410532951354980e-01 2.305302917957305908e-01
6.740000000000000000e+02 3.477052307128906250e+01 -4.875184059143066406e+00 -1.400377154350280762e+00 1.718583703041076660e-02 -4.149573743343353271e-01 2.248622030019760132e-01
6.750000000000000000e+02 3.701489257812500000e+01 -4.813939094543457031e+00 -1.631466507911682129e+00 1.732184551656246185e-02 -4.842433929443359375e-01 2.048916667699813843e-01
6.760000000000000000e+02 3.255336761474609375e+01 4.083172607421875000e+01 3.881116509437561035e-01 1.547984957695007324e+00 5.808289647102355957e-01 -2.957282774150371552e-02
6.770000000000000000e+02 2.806211853027343750e+01 3.742242431640625000e+01 4.313775002956390381e-01 8.805372714996337891e-01 3.935744464397430420e-01 -4.478309676051139832e-02
6.780000000000000000e+02 3.289831924438476562e+01 3.066573333740234375e+01 3.030767738819122314e-01 1.525169253349304199e+00 5.484737753868103027e-01 -1.733580827713012695e-01
6.790000000000000000e+02 3.369905090332031250e+01 2.138479804992675781e+01 1.564477831125259399e-01 1.436122298240661621e+00 4.777710139751434326e-01 -2.497964799404144287e-01
6.800000000000000000e+02 2.948979568481445312e+01 1.024143123626708984e+01 -1.105884835124015808e-01 3.283573389053344727e-01 6.533065438270568848e-02 3.261305391788482666e-01
6.810000000000000000e+02 2.509082412719726562e+01 2.798560142517089844e+00 -2.382416278123855591e-01 -2.494412213563919067e-01 -1.463048458099365234e-01 6.104459762573242188e-01
6.820000000000000000e+02 2.738237380981445312e+01 -4.924007415771484375e+00 -5.699357390403747559e-01 -1.060347724705934525e-02 -1.741617619991302490e-01 2.333979457616806030e-01
6.830000000000000000e+02 3.031249237060546875e+01 -4.955516338348388672e+00 -8.921666741371154785e-01 8.246596902608871460e-03 -2.651760280132293701e-01 2.438058704137802124e-01
6.840000000000000000e+02 2.899745941162109375e+01 -4.268486976623535156e+00 -6.990289092063903809e-01 -1.933311927132308483e-03 -2.102886736392974854e-01 3.127045929431915283e-01
6.850000000000000000e+02 3.327911376953125000e+01 -4.911669731140136719e+00 -1.233981966972351074e+00 1.616057753562927246e-02 -3.653464019298553467e-01 2.345659285783767700e-01
6.860000000000000000e+02 1.779968643188476562e+01 4.059584808349609375e+01 4.089876711368560791e-01 -1.615799665451049805e-01 7.422230392694473267e-02 3.153807669878005981e-02
6.870000000000000000e+02 2.278854560852050781e+01 4.078155899047851562e+01 4.630584120750427246e-01 2.875844240188598633e-01 2.251928597688674927e-01 2.604747191071510315e-03
6.880000000000000000e+02 2.437303733825683594e+01 3.028030204772949219e+01 3.624384999275207520e-01 3.051726222038269043e-01 2.002833336591720581e-01 -2.198950573801994324e-02
6.890000000000000000e+02 2.338722419738769531e+01 2.192048263549804688e+01 2.849306724965572357e-02 -5.256822705268859863e-02 -7.222548592835664749e-03 4.026329517364501953e-02
6.900000000000000000e+02 2.070250892639160156e+01 1.678115081787109375e+01 -4.307693541049957275e-01 -6.091245412826538086e-01 -3.119681775569915771e-01 3.163416385650634766e-01
6.910000000000000000e+02 2.173308181762695312e+01 1.091390037536621094e+01 -4.625180959701538086e-01 -7.399601340293884277e-01 -3.607434630393981934e-01 5.608868598937988281e-01
6.920000000000000000e+02 1.985026550292968750e+01 4.863752841949462891e+00 -1.294301599264144897e-01 -9.714016318321228027e-01 -3.302495479583740234e-01 3.755186498165130615e-01
6.930000000000000000e+02 2.164446449279785156e+01 -4.324808120727539062e+00 -1.042915731668472290e-01 -6.351936608552932739e-02 -5.034328252077102661e-02 1.175189539790153503e-01
6.940000000000000000e+02 2.469929122924804688e+01 -4.040571689605712891e+00 -3.104412257671356201e-01 -5.807940289378166199e-02 -1.105561926960945129e-01 2.566543817520141602e-01
6.950000000000000000e+02 2.377890586853027344e+01 -4.671338558197021484e+00 -2.404414564371109009e-01 -4.658380895853042603e-02 -8.610758185386657715e-02 1.780973672866821289e-01
6.960000000000000000e+02 1.843694305419921875e+01 3.001438522338867188e+01 3.430776894092559814e-01 -3.073484003543853760e-01 1.071879174560308456e-02 1.538151353597640991e-01
6.970000000000000000e+02 1.608107185363769531e+01 2.217258071899414062e+01 -9.262830764055252075e-02 -8.334684967994689941e-01 -2.778290510177612305e-01 3.680119216442108154e-01
6.980000000000000000e+02 1.293983554840087891e+01 1.737976646423339844e+01 -1.416991591453552246e+00 -1.075108766555786133e+00 -7.476301193237304688e-01 1.114317536354064941e+00
6.990000000000000000e+02 1.495039749145507812e+01 1.539965820312500000e+01 -1.178648829460144043e+00 -1.741145253181457520e+00 -8.759382367134094238e-01 1.304748535156250000e+00
7.000000000000000000e+02 1.770416831970214844e+01 1.590023326873779297e+01 -6.908624768257141113e-01 -1.198966741561889648e+00 -5.669487714767456055e-01 6.306726336479187012e-01
7.010000000000000000e+02 1.579004478454589844e+01 1.427230167388916016e+01 -9.120464324951171875e-01 -2.020522117614746094e+00 -8.797705769538879395e-01 1.228828191757202148e+00
7.020000000000000000e+02 1.819506645202636719e+01 9.068366050720214844e+00 -2.716352939605712891e-01 -1.900178670883178711e+00 -6.515441536903381348e-01 6.018612384796142578e-01
7.030000000000000000e+02 1.861848640441894531e+01 6.246872901916503906e+00 -9.649933129549026489e-02 -1.412564277648925781e+00 -4.527190923690795898e-01 3.233975172042846680e-01
7.040000000000000000e+02 1.884044075012207031e+01 2.140095949172973633e+00 -1.393498945981264114e-02 -6.637922525405883789e-01 -2.033181637525558472e-01 8.866695314645767212e-02
7.050000000000000000e+02 1.882064437866210938e+01 -5.080090165138244629e-01 -5.342350341379642487e-03 -2.612526118755340576e-01 -7.997848838567733765e-02 4.950045794248580933e-02
7.060000000000000000e+02 1.967204284667968750e+01 -3.001407623291015625e+00 -3.080551326274871826e-02 -9.208258241415023804e-02 -3.686642646789550781e-02 7.235207408666610718e-02
7.070000000000000000e+02 1.275556945800781250e+01 4.073630905151367188e+01 3.075954616069793701e-01 -4.470778703689575195e-01 -4.184472188353538513e-02 4.958718270063400269e-02
7.080000000000000000e+02 8.078468322753906250e+00 4.105299377441406250e+01 1.463592201471328735e-01 -6.657601594924926758e-01 -1.558202803134918213e-01 4.619908705353736877e-02
7.090000000000000000e+02 7.650543212890625000e+00 3.221711349487304688e+01 1.274411529302597046e-01 -6.145523786544799805e-01 -1.461333632469177246e-01 3.040840923786163330e-01
7.100000000000000000e+02 7.091402530670166016e+00 2.445429229736328125e+01 -8.696059882640838623e-02 -4.295857548713684082e-01 -1.549639105796813965e-01 4.340719282627105713e-01
7.110000000000000000e+02 1.043765830993652344e+01 1.886924552917480469e+01 -1.159089684486389160e+00 -3.982189893722534180e-01 -4.671925902366638184e-01 5.438240766525268555e-01
7.120000000000000000e+02 1.176755332946777344e+01 1.820842361450195312e+01 -1.402567267417907715e+00 -7.022810578346252441e-01 -6.314545273780822754e-01 8.948563933372497559e-01
7.130000000000000000e+02 1.995102405548095703e+00 4.164926147460937500e+01 -1.041561458259820938e-02 -1.013865470886230469e+00 -3.072843253612518311e-01 -2.971203299239277840e-03
7.140000000000000000e+02 4.317940711975097656e+00 3.785086059570312500e+01 6.337973475456237793e-02 -8.360601663589477539e-01 -2.318041324615478516e-01 1.185061112046241760e-01
7.150000000000000000e+02 2.102215051651000977e+00 3.595571899414062500e+01 3.098486922681331635e-02 -8.891454339027404785e-01 -2.574481666088104248e-01 6.454061716794967651e-02
7.160000000000000000e+02 1.961898088455200195e+00 2.896004486083984375e+01 5.487206391990184784e-03 -5.261759161949157715e-01 -1.562066078186035156e-01 1.537715345621109009e-01
7.170000000000000000e+02 1.917302012443542480e+00 2.322695732116699219e+01 -2.489330060780048370e-02 -1.414696276187896729e-01 -4.990888014435768127e-02 1.095311120152473450e-01
7.180000000000000000e+02 4.256011009216308594e+00 1.575811004638671875e+01 -5.684643401764333248e-04 -2.893079258501529694e-02 -8.849777281284332275e-03 -5.441826302558183670e-03
7.190000000000000000e+02 4.805918037891387939e-01 6.420838832855224609e+00 1.961823872989043593e-04 -2.366957196500152349e-04 -1.215399970533326268e-05 7.991494931047782302e-05
7.200000000000000000e+02 6.065083026885986328e+00 1.860224485397338867e+00 -1.921825023600831628e-04 -5.587375489994883537e-04 -2.252760168630629778e-04 -1.792807452147826552e-04
7.210000000000000000e+02 8.116305351257324219e+00 2.577890396118164062e+00 -2.148233033949509263e-04 -7.614414789713919163e-04 -2.928794419858604670e-04 -6.078161532059311867e-04
7.220000000000000000e+02 9.636866569519042969e+00 1.859629869461059570e+00 2.043098793365061283e-04 4.055653407704085112e-04 1.829625689424574375e-04 4.823243943974375725e-04
7.230000000000000000e+02 1.392529296875000000e+01 1.748110890388488770e+00 5.297368043102324009e-04 -1.531406887806952000e-04 1.129788288380950689e-04 6.787689926568418741e-05
7.240000000000000000e+02 1.444847869873046875e+01 6.252857208251953125e+00 -2.026202157139778137e-03 -4.034112207591533661e-04 -7.288840133696794510e-04 -4.608219605870544910e-04
7.250000000000000000e+02 1.181868743896484375e+01 9.549919128417968750e+00 -1.967228483408689499e-03 -2.507501747459173203e-03 -1.342419069260358810e-03 -1.965822651982307434e-03
7.260000000000000000e+02 1.132645225524902344e+01 1.233480644226074219e+01 4.458847921341657639e-03 3.035729983821511269e-03 2.248373348265886307e-03 3.754594828933477402e-03
7.270000000000000000e+02 1.217095375061035156e+01 1.123006629943847656e+01 -4.225278273224830627e-03 -2.432740991935133934e-03 -1.997405663132667542e-03 -2.538755536079406738e-03
7.280000000000000000e+02 9.415781021118164062e+00 1.446026992797851562e+01 6.350910756736993790e-03 5.919510032981634140e-03 3.681126283481717110e-03 4.257503896951675415e-03
7.290000000000000000e+02 7.869572162628173828e+00 1.688862037658691406e+01 1.811238937079906464e-02 9.751223772764205933e-02 3.468738868832588196e-02 1.031133998185396194e-02
7.300000000000000000e+02 1.776972770690917969e+00 2.177986335754394531e+01 -2.956916019320487976e-02 -7.034062594175338745e-02 -2.997293509542942047e-02 7.292335480451583862e-02
7.310000000000000000e+02 1.141497731208801270e+00 3.853156566619873047e+00 -5.988303382764570415e-05 -1.465503009967505932e-04 -6.192999717313796282e-05 1.683604205027222633e-04
7.320000000000000000e+02 1.385483837127685547e+01 2.567430496215820312e+00 -8.252735133282840252e-04 -7.041892386041581631e-04 -4.588388255797326565e-04 -8.906365837901830673e-04
7.330000000000000000e+02 5.366273117065429688e+01 -7.968127250671386719e+00 1.685441970825195312e+00 2.035487365722656250e+01 6.612094402313232422e+00 1.952160000801086426e+00
7.340000000000000000e+02 2.175282859802246094e+01 -8.191285133361816406e+00 -5.379286408424377441e-01 2.961357869207859039e-02 -1.524945199489593506e-01 -2.157037854194641113e-01
7.350000000000000000e+02 6.746610260009765625e+01 -1.237079048156738281e+01 7.478866577148437500e-01 7.922178268432617188e+00 2.601019382476806641e+00 -9.165650606155395508e-01
7.360000000000000000e+02 7.341262817382812500e+01 -1.237325382232666016e+01 2.706038057804107666e-01 7.016013145446777344e+00 2.185985088348388672e+00 -5.987868905067443848e-01
7.370000000000000000e+02 7.940312194824218750e+01 -1.250948524475097656e+01 6.223823875188827515e-03 5.813853263854980469e+00 1.746023178100585938e+00 -8.109395951032638550e-02
7.380000000000000000e+02 7.940111541748046875e+01 -5.547256469726562500e+00 9.314961731433868408e-03 5.386110782623291016e+00 1.618627786636352539e+00 1.544535066932439804e-02
7.390000000000000000e+02 7.319518280029296875e+01 -5.346549510955810547e+00 4.661892652511596680e-01 6.861836910247802734e+00 2.198407888412475586e+00 1.250080019235610962e-01
7.400000000000000000e+02 2.390011024475097656e+01 -2.404508209228515625e+01 1.345674693584442139e-01 8.504324406385421753e-02 6.588321179151535034e-02 -3.059947788715362549e-01
7.410000000000000000e+02 1.619708633422851562e+01 -2.333727264404296875e+01 -4.349757358431816101e-02 -3.279629647731781006e-01 -1.114381626248359680e-01 -3.534664511680603027e-01
7.420000000000000000e+02 2.937993240356445312e+01 -1.345510768890380859e+01 -6.578148603439331055e-01 3.614174202084541321e-02 -1.865019351243972778e-01 -4.612498581409454346e-01
7.430000000000000000e+02 3.849005889892578125e+01 -1.425627613067626953e+01 -2.401467710733413696e-01 3.568794429302215576e-01 3.501980751752853394e-02 7.748296856880187988e-02
7.440000000000000000e+02 4.419210052490234375e+01 -1.436124420166015625e+01 3.659340739250183105e-01 1.314910173416137695e+00 5.042532682418823242e-01 1.091175198554992676e+00
7.450000000000000000e+02 6.142407989501953125e+01 -1.743239974975585938e+01 -3.853137493133544922e-01 8.836748123168945312e+00 2.535430192947387695e+00 -6.393594145774841309e-01
7.460000000000000000e+02 6.677267456054687500e+01 -1.717372512817382812e+01 2.809911500662565231e-03 8.161838531494140625e+00 2.449394702911376953e+00 -1.010310769081115723e+00
7.470000000000000000e+02 7.373506164550781250e+01 -1.949802207946777344e+01 -4.021599888801574707e-02 7.461833953857421875e+00 2.226485252380371094e+00 -7.550090551376342773e-01
7.480000000000000000e+02 7.940419769287109375e+01 -2.224666023254394531e+01 -1.529270783066749573e-03 7.415114402770996094e+00 2.224075555801391602e+00 -1.002212613821029663e-01
7.490000000000000000e+02 5.381614685058593750e+00 -1.562709236145019531e+01 1.230704365298151970e-03 -2.844583243131637573e-02 -8.164539001882076263e-03 -9.326799772679805756e-03
7.500000000000000000e+02 1.778053402900695801e+00 -1.743717575073242188e+01 -7.972853258252143860e-03 -8.582465234212577343e-04 -2.649329835548996925e-03 6.960571277886629105e-03
7.510000000000000000e+02 5.676751732826232910e-01 -1.065704154968261719e+01 1.320646726526319981e-03 1.430556178092956543e-03 8.253608830273151398e-04 8.213691180571913719e-04
7.520000000000000000e+02 2.654423332214355469e+01 -3.375516128540039062e+01 4.935782551765441895e-01 4.756142497062683105e-01 2.907577455043792725e-01 -6.927220523357391357e-02
7.530000000000000000e+02 1.763258743286132812e+01 -3.003622627258300781e+01 2.721729278564453125e-01 -2.083643674850463867e-01 1.914256811141967773e-02 -2.674844861030578613e-01
7.540000000000000000e+02 3.352347946166992188e+01 -2.228920745849609375e+01 3.128710091114044189e-01 6.565759778022766113e-01 2.908340990543365479e-01 -7.990928366780281067e-03
7.550000000000000000e+02 4.000085830688476562e+01 -2.321572875976562500e+01 4.366908669471740723e-01 1.774356007575988770e+00 6.633140444755554199e-01 6.296856403350830078e-01
7.560000000000000000e+02 5.160805892944335938e+01 -2.293437385559082031e+01 -3.893314898014068604e-01 5.798257350921630859e+00 1.622677683830261230e+00 1.241270303726196289e+00
7.570000000000000000e+02 6.628966522216796875e+01 -2.514319038391113281e+01 -4.728594124317169189e-01 7.893920421600341797e+00 2.226318359375000000e+00 -5.951547622680664062e-01
7.580000000000000000e+02 7.362522888183593750e+01 -2.415325164794921875e+01 -1.276601105928421021e-01 7.749474525451660156e+00 2.286544322967529297e+00 -6.377687454223632812e-01
7.590000000000000000e+02 7.936347961425781250e+01 -2.641260910034179688e+01 -2.371184993535280228e-03 8.009814262390136719e+00 2.402232885360717773e+00 -8.423063158988952637e-02
7.600000000000000000e+02 7.293242812156677246e-01 -3.044307518005371094e+01 -1.585215213708579540e-03 -6.536117196083068848e-01 -1.965590715408325195e-01 -4.652840644121170044e-02
7.610000000000000000e+02 8.350545883178710938e+00 -3.539772415161132812e+01 1.539496332406997681e-01 -5.290211439132690430e-01 -1.125214621424674988e-01 -1.941928118467330933e-01
7.620000000000000000e+02 3.238775634765625000e+01 -3.583210754394531250e+01 5.425554513931274414e-01 1.156646609306335449e+00 5.097606182098388672e-01 7.339974492788314819e-02
7.630000000000000000e+02 3.360482025146484375e+01 -2.916202545166015625e+01 4.969679415225982666e-01 1.098532676696777344e+00 4.786501824855804443e-01 1.019215583801269531e-01
7.640000000000000000e+02 4.411309051513671875e+01 -3.392515945434570312e+01 1.980669796466827393e-01 3.376242876052856445e+00 1.072293043136596680e+00 4.300529360771179199e-01
7.650000000000000000e+02 4.768952941894531250e+01 -3.112381553649902344e+01 -2.271868847310543060e-02 4.228726387023925781e+00 1.261802315711975098e+00 6.737434267997741699e-01
7.660000000000000000e+02 5.847987365722656250e+01 -3.353429794311523438e+01 -4.825674891471862793e-01 6.637208461761474609e+00 1.846392273902893066e+00 1.045148745179176331e-01
7.670000000000000000e+02 6.261618423461914062e+01 -3.016652870178222656e+01 -5.484612584114074707e-01 7.346148967742919922e+00 2.039306402206420898e+00 -1.760348528623580933e-01
7.680000000000000000e+02 7.359789276123046875e+01 -3.263518524169921875e+01 -1.371174603700637817e-01 8.045498847961425781e+00 2.372514486312866211e+00 -3.146409094333648682e-01
7.690000000000000000e+02 7.907199859619140625e+01 -3.343459320068359375e+01 -1.314592733979225159e-02 8.636813163757324219e+00 2.587100028991699219e+00 -5.651578307151794434e-02
7.700000000000000000e+02 7.938158416748046875e+01 2.804181098937988281e+00 2.745084464550018311e-03 6.290227413177490234e+00 1.887891650199890137e+00 1.113624796271324158e-01
7.710000000000000000e+02 7.334243774414062500e+01 2.601434230804443359e+00 1.317783445119857788e-01 7.230988025665283203e+00 2.208829879760742188e+00 7.668054103851318359e-01
7.720000000000000000e+02 6.685491943359375000e+01 4.415680408477783203e+00 1.952210627496242523e-02 8.153989791870117188e+00 2.452053546905517578e+00 1.033620953559875488e+00
7.730000000000000000e+02 7.935903167724609375e+01 8.377706527709960938e+00 -1.741574960760772228e-03 7.254879474639892578e+00 2.175941467285156250e+00 1.172476783394813538e-01
7.740000000000000000e+02 7.295787811279296875e+01 9.364900588989257812e+00 -1.144128441810607910e-01 7.694239139556884766e+00 2.273947715759277344e+00 7.668803334236145020e-01
7.750000000000000000e+02 6.549678039550781250e+01 1.008997535705566406e+01 -4.635495543479919434e-01 8.046667098999023438e+00 2.274935245513916016e+00 7.020429372787475586e-01
7.760000000000000000e+02 4.144767379760742188e+01 -7.509830594062805176e-01 -2.441931515932083130e-01 3.630821704864501953e-01 3.566670417785644531e-02 -1.196857020258903503e-01
7.770000000000000000e+02 3.547342681884765625e+01 6.689447909593582153e-02 -4.277474284172058105e-01 1.684715151786804199e-01 -7.778277993202209473e-02 3.910310864448547363e-01
7.780000000000000000e+02 2.962099647521972656e+01 -3.733221888542175293e-01 -4.454622268676757812e-01 -1.591376145370304585e-03 -1.341160833835601807e-01 5.550146102905273438e-01
7.790000000000000000e+02 1.986039733886718750e+01 3.498011827468872070e+00 -8.383873105049133301e-02 -8.043605685234069824e-01 -2.664597928524017334e-01 3.128370940685272217e-01
7.800000000000000000e+02 1.883080482482910156e+01 3.497637987136840820e+00 -3.090813755989074707e-02 -9.350479841232299805e-01 -2.897868454456329346e-01 1.432726085186004639e-01
7.810000000000000000e+02 7.932739257812500000e+01 1.676562309265136719e+01 -5.665805190801620483e-03 8.397103309631347656e+00 2.517431259155273438e+00 7.778759300708770752e-02
7.820000000000000000e+02 7.255625915527343750e+01 1.656448745727539062e+01 -1.703589856624603271e-01 7.966895580291748047e+00 2.338960886001586914e+00 5.082027316093444824e-01
7.830000000000000000e+02 5.560245513916015625e+01 1.783985137939453125e+01 -5.002609491348266602e-01 6.246723175048828125e+00 1.723938584327697754e+00 -3.862527906894683838e-01
7.840000000000000000e+02 6.850624847412109375e+01 1.884001922607421875e+01 -3.145800530910491943e-01 7.750222206115722656e+00 2.230692625045776367e+00 4.224371910095214844e-01
7.850000000000000000e+02 4.887217330932617188e+01 8.545136451721191406e+00 -5.935220420360565186e-02 4.664796829223632812e+00 1.381633281707763672e+00 -1.483303546905517578e+00
7.860000000000000000e+02 3.562971496582031250e+01 1.108544063568115234e+01 1.755055785179138184e-01 1.151769757270812988e+00 3.981826007366180420e-01 -1.395770609378814697e-01
7.870000000000000000e+02 2.846027565002441406e+01 1.107810783386230469e+01 -1.607573181390762329e-01 2.534557580947875977e-01 2.780952863395214081e-02 3.323061466217041016e-01
7.880000000000000000e+02 2.048073768615722656e+01 1.199327564239501953e+01 -5.224146246910095215e-01 -9.606635570526123047e-01 -4.449234306812286377e-01 5.840623974800109863e-01
7.890000000000000000e+02 7.931353759765625000e+01 2.372693443298339844e+01 -1.470006303861737251e-03 8.913750648498535156e+00 2.673684358596801758e+00 4.159609973430633545e-02
7.900000000000000000e+02 7.247498321533203125e+01 2.477458953857421875e+01 -1.190318912267684937e-01 8.094933509826660156e+00 2.392770528793334961e+00 2.427296936511993408e-01
7.910000000000000000e+02 5.744236373901367188e+01 2.415561676025390625e+01 -3.427612483501434326e-01 6.220396995544433594e+00 1.763290762901306152e+00 -1.408221572637557983e-01
7.920000000000000000e+02 6.295238494873046875e+01 2.332722663879394531e+01 -3.659792542457580566e-01 7.067923545837402344e+00 2.010583400726318359e+00 1.027794256806373596e-01
7.930000000000000000e+02 4.761656188964843750e+01 1.690272521972656250e+01 -1.295364350080490112e-01 4.292329311370849609e+00 1.248837828636169434e+00 -7.866755127906799316e-01
7.940000000000000000e+02 4.174081802368164062e+01 1.789224243164062500e+01 1.093075573444366455e-01 2.804911375045776367e+00 8.742656707763671875e-01 -5.889035463333129883e-01
7.950000000000000000e+02 3.520956039428710938e+01 1.541955089569091797e+01 1.352759450674057007e-01 1.412727713584899902e+00 4.644010961055755615e-01 -2.319766432046890259e-01
7.960000000000000000e+02 1.977170562744140625e+01 1.802147293090820312e+01 -3.707253336906433105e-01 -6.978619098663330078e-01 -3.205761611461639404e-01 3.038786947727203369e-01
7.970000000000000000e+02 2.705974817276000977e+00 2.103304672241210938e+01 -5.084908381104469299e-02 -8.422723412513732910e-02 -4.052289575338363647e-02 7.899694889783859253e-02
7.980000000000000000e+02 7.930090332031250000e+01 2.931023597717285156e+01 -4.350773058831691742e-03 9.122647285461425781e+00 2.735488891601562500e+00 2.819821052253246307e-02
7.990000000000000000e+02 7.193944549560546875e+01 3.162164688110351562e+01 -7.436195015907287598e-02 8.077277183532714844e+00 2.400874614715576172e+00 8.642393350601196289e-02
8.000000000000000000e+02 5.415008544921875000e+01 3.356371688842773438e+01 -1.123657971620559692e-01 5.373225212097167969e+00 1.578257799148559570e+00 -1.116795837879180908e-01
8.010000000000000000e+02 4.887391281127929688e+01 2.648283195495605469e+01 -1.062458381056785583e-01 4.480909347534179688e+00 1.312399148941040039e+00 -3.718819320201873779e-01
8.020000000000000000e+02 4.229713439941406250e+01 2.587279891967773438e+01 9.014222770929336548e-02 3.137462377548217773e+00 9.682813882827758789e-01 -3.970355093479156494e-01
8.030000000000000000e+02 3.613394546508789062e+01 2.406921386718750000e+01 1.959076821804046631e-01 1.930937528610229492e+00 6.380535364151000977e-01 -3.179400861263275146e-01
8.040000000000000000e+02 2.764591026306152344e+01 2.358469772338867188e+01 1.740741729736328125e-01 5.891882181167602539e-01 2.289787232875823975e-01 -8.714890480041503906e-02
8.050000000000000000e+02 2.116453170776367188e+01 2.500010490417480469e+01 1.646428555250167847e-01 -2.349072098731994629e-01 -2.107930555939674377e-02 7.497524470090866089e-02
8.060000000000000000e+02 1.654667282104492188e+01 2.421689987182617188e+01 1.006884649395942688e-01 -6.729831099510192871e-01 -1.716883927583694458e-01 2.952608168125152588e-01
8.070000000000000000e+02 6.784361362457275391e+00 2.237555694580078125e+01 -2.017941921949386597e-01 -2.881533801555633545e-01 -1.469842791557312012e-01 3.811416625976562500e-01
8.080000000000000000e+02 5.186512374877929688e+01 3.726098632812500000e+01 -3.776610642671585083e-02 4.880574703216552734e+00 1.452842593193054199e+00 -7.504422217607498169e-02
8.090000000000000000e+02 3.676033782958984375e+01 3.370168304443359375e+01 2.768415212631225586e-01 2.213572740554809570e+00 7.471243143081665039e-01 -1.767196655273437500e-01
8.100000000000000000e+02 2.855231666564941406e+01 3.385662078857421875e+01 3.978267908096313477e-01 9.133332371711730957e-01 3.933480083942413330e-01 -8.290963619947433472e-02
8.110000000000000000e+02 2.113551139831542969e+01 3.040500640869140625e+01 3.677027821540832520e-01 -5.449941381812095642e-02 9.396101534366607666e-02 7.290510833263397217e-02
8.120000000000000000e+02 1.170889091491699219e+01 3.126240539550781250e+01 2.319733500480651855e-01 -5.886220335960388184e-01 -1.069946065545082092e-01 3.189470469951629639e-01
8.130000000000000000e+02 2.148706436157226562e+00 3.178840827941894531e+01 1.458480115979909897e-02 -6.947870850563049316e-01 -2.040606886148452759e-01 1.427428871393203735e-01
8.140000000000000000e+02 1.562281608581542969e+00 9.065402030944824219e+00 -2.110930508933961391e-04 7.231192430481314659e-04 1.536078634671866894e-04 -9.684918913990259171e-04
8.150000000000000000e+02 1.761375236511230469e+01 -7.532413482666015625e+00 -4.720819741487503052e-02 -1.000693142414093018e-01 -4.418325424194335938e-02 -6.940683722496032715e-02
8.160000000000000000e+02 1.951131439208984375e+01 -7.780947685241699219e+00 -2.595796287059783936e-01 -1.514567807316780090e-02 -8.241759240627288818e-02 -1.505199819803237915e-01
8.170000000000000000e+02 1.422558593750000000e+01 -1.393075561523437500e+01 -5.765067934989929199e-01 -7.310315966606140137e-01 -3.922615349292755127e-01 -6.270517110824584961e-01
8.180000000000000000e+02 7.554021358489990234e+00 -1.388822746276855469e+01 -3.449345240369439125e-03 6.855391431599855423e-03 1.021813717670738697e-03 3.971955273300409317e-03
8.190000000000000000e+02 1.132994747161865234e+01 -8.131896018981933594e+00 1.305176119785755873e-04 2.930882874352391809e-05 4.794793130713514984e-05 -2.757341426331549883e-04
8.200000000000000000e+02 1.016178512573242188e+01 -3.151901483535766602e+00 -2.527300966903567314e-05 2.142143785022199154e-05 -1.155471295533061493e-06 -2.579918946139514446e-04
8.210000000000000000e+02 1.320944118499755859e+01 -1.963101744651794434e+00 -6.168935942696407437e-05 -8.646523201605305076e-05 -4.444637670530937612e-05 -7.968371210154145956e-05
8.220000000000000000e+02 1.491114902496337891e+01 -2.294245958328247070e+00 4.682081635110080242e-05 -1.263492890757333953e-06 1.366719698125962168e-05 2.391386988165322691e-05
8.230000000000000000e+02 1.430467033386230469e+01 -2.142401933670043945e+00 -8.539990631106775254e-06 9.827557732933200896e-06 3.862700168610899709e-07 -5.044796853326261044e-05
8.240000000000000000e+02 1.375107097625732422e+01 -1.998033165931701660e+00 3.936316716135479510e-06 -4.890906893706414849e-06 -2.863769736904941965e-07 5.223969856160692871e-05
8.250000000000000000e+02 1.179739284515380859e+01 -1.973102807998657227e+00 -3.969763929490000010e-05 -1.335572596872225404e-04 -5.197646896704100072e-05 -6.656181085418211296e-06
8.260000000000000000e+02 1.031477737426757812e+01 -1.858622193336486816e+00 -2.683193997654598206e-05 -1.351778919342905283e-04 -4.860294575337320566e-05 -9.689503349363803864e-05
8.270000000000000000e+02 9.573709487915039062e+00 -1.834704041481018066e+00 -1.455984329368220642e-05 1.118088111979886889e-04 2.917469100793823600e-05 2.035630459431558847e-04
8.280000000000000000e+02 8.825881004333496094e+00 -1.842534303665161133e+00 -7.892910798545926809e-05 -7.963774987729266286e-05 -4.757005808642134070e-05 -1.369033270748332143e-04
8.290000000000000000e+02 7.321360588073730469e+00 -1.863045454025268555e+00 -8.301012712763622403e-05 -3.496091085253283381e-05 -3.539131284924224019e-05 -1.449124538339674473e-04
8.300000000000000000e+02 5.800861835479736328e+00 -1.880248308181762695e+00 -3.559118704288266599e-05 -3.398667467990890145e-05 -2.087335997202899307e-05 -1.817591983126476407e-04
8.310000000000000000e+02 3.521990060806274414e+00 -1.979620337486267090e+00 4.963232640875503421e-06 1.926759614434558898e-05 7.269248726515797898e-06 8.951514610089361668e-05
8.320000000000000000e+02 5.042101860046386719e+00 -1.901972532272338867e+00 -9.542745829094201326e-05 6.990199472056701779e-05 -7.657640708202961832e-06 1.338770816801115870e-04
8.330000000000000000e+02 4.452545642852783203e+00 -2.794043302536010742e+00 -9.746212526806630194e-06 8.616137347416952252e-05 2.292454882990568876e-05 1.583397242939099669e-04
8.340000000000000000e+02 2.752369403839111328e+00 -2.031390905380249023e+00 -1.159460152848623693e-04 -1.278130093851359561e-05 -3.861819641315378249e-05 -1.542430836707353592e-04
8.350000000000000000e+02 1.974856972694396973e+00 -2.073742389678955078e+00 6.484529876615852118e-05 2.361932274652644992e-05 2.653938645380549133e-05 1.186105237138690427e-05
8.360000000000000000e+02 4.925997555255889893e-01 -3.598975181579589844e+00 -2.694337454158812761e-04 -1.148444935097359121e-04 -1.152834738604724407e-04 -1.115246705012395978e-04
8.370000000000000000e+02 2.032838582992553711e+00 -4.162770080566406250e+01 -1.042258646339178085e-02 -9.376623034477233887e-01 -2.844254672527313232e-01 2.956525189802050591e-03
8.380000000000000000e+02 6.136890888214111328e+00 -3.805881881713867188e+01 9.933019429445266724e-02 -6.364957094192504883e-01 -1.611496657133102417e-01 -1.102415621280670166e-01
8.390000000000000000e+02 1.015287637710571289e+00 -3.864227676391601562e+01 -2.418485004454851151e-03 -9.456292390823364258e-01 -2.844143211841583252e-01 -5.123685114085674286e-03
8.400000000000000000e+02 6.543568372726440430e-01 -3.475103759765625000e+01 1.035538502037525177e-02 -8.710287213325500488e-01 -2.582019865512847900e-01 -2.840321883559226990e-02
8.410000000000000000e+02 8.016179203987121582e-01 -3.334746932983398438e+01 1.708680996671319008e-03 -8.126232624053955078e-01 -2.432743757963180542e-01 -3.783423081040382385e-02
8.420000000000000000e+02 6.970251202583312988e-01 -2.902671432495117188e+01 5.589917302131652832e-03 -5.575863718986511230e-01 -1.655989438295364380e-01 -5.002306774258613586e-02
8.430000000000000000e+02 6.749376058578491211e-01 -2.761584091186523438e+01 -3.860284108668565750e-03 -4.513643682003021240e-01 -1.365673989057540894e-01 -5.237921699881553650e-02
8.440000000000000000e+02 6.637362241744995117e-01 -2.620195007324218750e+01 2.594265621155500412e-03 -3.419450521469116211e-01 -1.018052324652671814e-01 -5.058925226330757141e-02
8.450000000000000000e+02 6.011906862258911133e-01 -2.193082809448242188e+01 -4.854765720665454865e-03 -5.204989388585090637e-02 -1.707139797508716583e-02 -3.283633291721343994e-02
8.460000000000000000e+02 1.716222286224365234e+00 -2.036611747741699219e+01 -2.363973855972290039e-02 -4.818961024284362793e-02 -2.154880575835704803e-02 -5.798543617129325867e-02
8.470000000000000000e+02 5.556157231330871582e-01 -1.624823951721191406e+01 2.450598170980811119e-03 3.545607626438140869e-02 1.137200184166431427e-02 6.922528147697448730e-03
8.480000000000000000e+02 5.446445941925048828e-01 -1.484837913513183594e+01 -8.368642884306609631e-04 2.046098560094833374e-02 5.887235980480909348e-03 4.332144744694232941e-03
8.490000000000000000e+02 5.552057027816772461e-01 -1.345173358917236328e+01 1.920470385812222958e-03 1.042687613517045975e-02 3.704203991219401360e-03 3.252447582781314850e-03
8.500000000000000000e+02 4.465367794036865234e+00 -1.481606483459472656e+01 8.717340417206287384e-03 -1.900313235819339752e-02 -3.085737349465489388e-03 -3.096831729635596275e-03
8.510000000000000000e+02 5.505074262619018555e-01 -9.262341499328613281e+00 -8.375499746762216091e-04 2.089528861688449979e-04 -1.885791280074045062e-04 1.525535626569762826e-04
8.520000000000000000e+02 5.290356874465942383e-01 -7.870858669281005859e+00 8.326017414219677448e-04 -2.086984022753313184e-04 1.871709973784163594e-04 1.399076572852209210e-04
8.530000000000000000e+02 5.175298452377319336e-01 -6.478496074676513672e+00 -5.961856804788112640e-04 -2.219531015725806355e-04 -2.454416244290769100e-04 -9.718448563944548368e-05
8.540000000000000000e+02 5.239144134521484375e+01 -4.056370162963867188e+01 -2.370498925447463989e-01 5.272465705871582031e+00 1.510624766349792480e+00 8.491083979606628418e-02
8.550000000000000000e+02 3.155504035949707031e+01 -4.057141494750976562e+01 5.544814467430114746e-01 1.187556862831115723e+00 5.226114988327026367e-01 9.652512148022651672e-03
8.560000000000000000e+02 1.269741439819335938e+01 -4.069208145141601562e+01 2.745014131069183350e-01 -3.741522431373596191e-01 -2.989525534212589264e-02 -5.058701336383819580e-02
8.570000000000000000e+02 7.593530273437500000e+01 4.043651199340820312e+01 4.161368589848279953e-03 8.841372489929199219e+00 2.653660058975219727e+00 6.694883853197097778e-02
8.580000000000000000e+02 7.807881164550781250e+01 4.175338745117187500e+01 8.790815621614456177e-02 9.051863670349121094e+00 2.741931438446044922e+00 -2.458483912050724030e-02
8.590000000000000000e+02 7.880686950683593750e+01 3.891203689575195312e+01 -5.453456193208694458e-02 9.162935256958007812e+00 2.732520341873168945e+00 -3.839950263500213623e-02
8.600000000000000000e+02 7.737291717529296875e+01 3.719213867187500000e+01 -1.876836642622947693e-02 8.898138046264648438e+00 2.663810968399047852e+00 -2.418731572106480598e-03
8.610000000000000000e+02 7.925438690185546875e+01 3.483568191528320312e+01 -7.290806621313095093e-03 9.212031364440917969e+00 2.761422157287597656e+00 5.567844957113265991e-03
8.620000000000000000e+02 7.781161499023437500e+01 3.349745941162109375e+01 -2.171545103192329407e-02 8.980237960815429688e+00 2.687556743621826172e+00 2.868356928229331970e-02
8.630000000000000000e+02 7.927560424804687500e+01 3.346750259399414062e+01 3.287813393399119377e-03 9.205334663391113281e+00 2.762586832046508789e+00 9.113367646932601929e-03
8.640000000000000000e+02 7.931316375732421875e+01 3.069662094116210938e+01 -4.635911318473517895e-04 9.162940025329589844e+00 2.748742818832397461e+00 2.303652092814445496e-02
8.650000000000000000e+02 7.620888519287109375e+01 2.830636596679687500e+01 -1.659221388399600983e-02 8.625723838806152344e+00 2.582739353179931641e+00 1.067013069987297058e-01
8.660000000000000000e+02 7.926629638671875000e+01 2.653527069091796875e+01 -1.487594679929316044e-03 9.028833389282226562e+00 2.708203792572021484e+00 3.291617706418037415e-02
8.670000000000000000e+02 7.640130615234375000e+01 2.517557334899902344e+01 -3.346378356218338013e-02 8.569287300109863281e+00 2.560747146606445312e+00 1.508839726448059082e-01
8.680000000000000000e+02 7.928404235839843750e+01 2.513062095642089844e+01 -2.880022162571549416e-03 8.975970268249511719e+00 2.691926956176757812e+00 3.731733560562133789e-02
8.690000000000000000e+02 7.934889984130859375e+01 2.093733978271484375e+01 -2.444288227707147598e-03 8.750137329101562500e+00 2.624307870864868164e+00 5.397453531622886658e-02
8.700000000000000000e+02 7.934364318847656250e+01 1.954821586608886719e+01 -4.587378818541765213e-03 8.646297454833984375e+00 2.592513084411621094e+00 6.183551251888275146e-02
8.710000000000000000e+02 7.805004119873046875e+01 2.100267982482910156e+01 -1.680951938033103943e-02 8.587716102600097656e+00 2.571271896362304688e+00 1.366541236639022827e-01
8.720000000000000000e+02 7.933368682861328125e+01 1.815949630737304688e+01 -2.267436357215046883e-03 8.528944969177246094e+00 2.558003425598144531e+00 6.905474513769149780e-02
8.730000000000000000e+02 7.933318328857421875e+01 1.396715354919433594e+01 -5.117778200656175613e-03 8.082908630371093750e+00 2.423337221145629883e+00 9.409896284341812134e-02
8.740000000000000000e+02 7.933930969238281250e+01 1.256787300109863281e+01 -2.223107963800430298e-03 7.898951053619384766e+00 2.369018316268920898e+00 1.019605770707130432e-01
8.750000000000000000e+02 7.934593963623046875e+01 1.116992187500000000e+01 -3.154277568683028221e-03 7.698247909545898438e+00 2.308528184890747070e+00 1.080447956919670105e-01
8.760000000000000000e+02 7.936499786376953125e+01 6.984385490417480469e+00 -2.756328103714622557e-05 7.016950607299804688e+00 2.105077028274536133e+00 1.194831654429435730e-01
8.770000000000000000e+02 7.937039184570312500e+01 5.591266155242919922e+00 2.603259345050901175e-04 6.773149490356445312e+00 2.032022953033447266e+00 1.195842102169990540e-01
8.780000000000000000e+02 7.811619567871093750e+01 5.609955787658691406e+00 1.512978109531104565e-03 6.917771339416503906e+00 2.075785398483276367e+00 3.199854493141174316e-01
8.790000000000000000e+02 7.937580871582031250e+01 4.197751522064208984e+00 2.422711811959743500e-03 6.528981685638427734e+00 1.959421277046203613e+00 1.168616712093353271e-01
8.800000000000000000e+02 7.938915252685546875e+01 2.120953798294067383e-02 5.446024704724550247e-03 5.858726978302001953e+00 1.759251952171325684e+00 9.043543785810470581e-02
8.810000000000000000e+02 7.939299774169921875e+01 -1.371477603912353516e+00 7.735290098935365677e-03 5.681247711181640625e+00 1.706694841384887695e+00 7.539722323417663574e-02
8.820000000000000000e+02 7.939890289306640625e+01 -4.155611991882324219e+00 9.042403660714626312e-03 5.439864635467529297e+00 1.634672045707702637e+00 3.680664300918579102e-02
8.830000000000000000e+02 7.940336608886718750e+01 -8.328785896301269531e+00 8.649040013551712036e-03 5.423521995544433594e+00 1.629651308059692383e+00 -2.741198427975177765e-02
8.840000000000000000e+02 7.940336608886718750e+01 -1.111538982391357422e+01 6.955740507692098618e-03 5.644745349884033203e+00 1.695510268211364746e+00 -6.574773788452148438e-02
8.850000000000000000e+02 7.940206146240234375e+01 -1.529529190063476562e+01 2.776878885924816132e-03 6.234292030334472656e+00 1.871120572090148926e+00 -1.014978960156440735e-01
8.860000000000000000e+02 7.940509796142578125e+01 -1.807848167419433594e+01 1.600631076144054532e-04 6.709162712097167969e+00 2.012796878814697266e+00 -1.077238917350769043e-01
8.870000000000000000e+02 7.939698028564453125e+01 -2.363510513305664062e+01 -2.682673279196023941e-03 7.629413604736328125e+00 2.288019180297851562e+00 -9.503532201051712036e-02
8.880000000000000000e+02 7.938512420654296875e+01 -2.502351188659667969e+01 -2.104434417560696602e-03 7.828082084655761719e+00 2.347793340682983398e+00 -8.941985666751861572e-02
8.890000000000000000e+02 7.927767944335937500e+01 -2.920188713073730469e+01 -7.686963654123246670e-04 8.315710067749023438e+00 2.494482517242431641e+00 -7.486423850059509277e-02
8.900000000000000000e+02 7.914270782470703125e+01 -3.201266479492187500e+01 1.255796873010694981e-03 8.547458648681640625e+00 2.564614295959472656e+00 -6.623486429452896118e-02
8.910000000000000000e+02 7.900106811523437500e+01 -3.629633712768554688e+01 -3.443032130599021912e-02 8.761217117309570312e+00 2.618036270141601562e+00 -3.004533797502517700e-02
8.920000000000000000e+02 7.903800201416015625e+01 -3.769803619384765625e+01 -1.292547397315502167e-02 8.778448104858398438e+00 2.629656791687011719e+00 5.124460905790328979e-03
8.930000000000000000e+02 7.895340728759765625e+01 -4.023962783813476562e+01 -5.540673807263374329e-02 8.752434730529785156e+00 2.609108448028564453e+00 2.522553689777851105e-02
8.940000000000000000e+02 1.227044582366943359e+01 3.751227951049804688e+01 2.837553918361663818e-01 -4.821151494979858398e-01 -5.950792133808135986e-02 1.394698321819305420e-01
8.950000000000000000e+02 2.767375755310058594e+01 4.083884811401367188e+01 4.506095051765441895e-01 8.575142621994018555e-01 3.924371302127838135e-01 -1.236600056290626526e-02
8.960000000000000000e+02 6.715796661376953125e+01 4.045232009887695312e+01 -7.014048099517822266e-02 7.401793479919433594e+00 2.199496030807495117e+00 1.927528344094753265e-02
8.970000000000000000e+02 6.898897886276245117e-01 3.047894716262817383e+00 -1.658889086684212089e-04 -1.502974773757159710e-04 -9.485591726843267679e-05 -2.607688074931502342e-04
8.980000000000000000e+02 3.189280748367309570e+00 2.743779659271240234e+00 2.502549614291638136e-04 3.276470815762877464e-04 1.733706158120185137e-04 4.122601239942014217e-05
8.990000000000000000e+02 5.312945842742919922e+00 2.607963562011718750e+00 -1.365920325042679906e-04 -5.319132469594478607e-04 -2.005515852943062782e-04 -1.053408996085636318e-04
9.000000000000000000e+02 1.474302530288696289e+00 6.342865943908691406e+00 -3.209538699593394995e-04 -1.268240594072267413e-04 -1.343333715340122581e-04 -1.512041635578498244e-04
9.010000000000000000e+02 5.199708938598632812e-01 9.210262298583984375e+00 9.358843271911609918e-06 3.430248762015253305e-04 1.057151093846186996e-04 -8.963057916844263673e-05
9.020000000000000000e+02 5.846393108367919922e-01 1.201576900482177734e+01 3.117036612820811570e-05 5.620646290481090546e-03 1.695545041002333164e-03 -1.736834878101944923e-03
9.030000000000000000e+02 1.767420053482055664e+00 1.181270027160644531e+01 1.735958387143909931e-03 1.953074010089039803e-03 1.106709707528352737e-03 -4.616116639226675034e-03
9.040000000000000000e+02 6.311280131340026855e-01 1.765942192077636719e+01 -2.745520090684294701e-03 5.238040536642074585e-02 1.489046495407819748e-02 -4.636233206838369370e-03
9.050000000000000000e+02 7.746663570404052734e+00 1.848258399963378906e+01 -2.271368503570556641e-01 6.257589906454086304e-02 -4.936828836798667908e-02 5.087482929229736328e-02
9.060000000000000000e+02 5.963768959045410156e-01 2.193416404724121094e+01 -6.445847917348146439e-03 -2.990422770380973816e-03 -2.830881159752607346e-03 2.581694722175598145e-02
9.070000000000000000e+02 6.308423280715942383e-01 2.335810852050781250e+01 -4.778326954692602158e-03 -7.676415890455245972e-02 -2.446274645626544952e-02 3.832719102501869202e-02
9.080000000000000000e+02 6.281287074089050293e-01 2.479729080200195312e+01 -4.312864970415830612e-03 -1.740848720073699951e-01 -5.351932346820831299e-02 4.843655601143836975e-02
9.090000000000000000e+02 6.555764675140380859e-01 2.903697395324707031e+01 -1.897012698464095592e-03 -5.376532673835754395e-01 -1.618650853633880615e-01 5.457762256264686584e-02
9.100000000000000000e+02 6.852316856384277344e-01 3.044743156433105469e+01 2.294649370014667511e-03 -6.524674296379089355e-01 -1.950518339872360229e-01 5.396762117743492126e-02
9.110000000000000000e+02 2.051429271697998047e+00 3.036165428161621094e+01 8.288912475109100342e-03 -6.127076148986816406e-01 -1.813256144523620605e-01 1.485302299261093140e-01
9.120000000000000000e+02 7.142478227615356445e-01 3.186367034912109375e+01 2.678811550140380859e-03 -7.565078139305114746e-01 -2.261486947536468506e-01 4.896303638815879822e-02
9.130000000000000000e+02 7.015212178230285645e-01 3.605936813354492188e+01 -1.995889469981193542e-03 -9.714881181716918945e-01 -2.920452058315277100e-01 2.469719387590885162e-02
9.140000000000000000e+02 2.327312469482421875e+00 3.822440338134765625e+01 3.095803782343864441e-02 -9.359278082847595215e-01 -2.714909315109252930e-01 3.332662209868431091e-02
9.150000000000000000e+02 8.684779405593872070e-01 3.876515960693359375e+01 -6.550742778927087784e-03 -1.019767642021179199e+00 -3.078955411911010742e-01 6.293655373156070709e-03
9.160000000000000000e+02 1.244179010391235352e+00 4.011029434204101562e+01 1.548808254301548004e-02 -1.017817497253417969e+00 -3.006988465785980225e-01 -5.462442524731159210e-03
9.170000000000000000e+02 1.037594795227050781e+01 1.848381876945495605e+00 -4.391842521727085114e-04 -2.303801884409040213e-04 -2.008693263633176684e-04 -5.274290451779961586e-04
9.180000000000000000e+02 8.916379928588867188e+00 1.858486294746398926e+00 -3.161362546961754560e-04 -4.729059874080121517e-04 -2.367126726312562823e-04 -5.685835494659841061e-04
9.190000000000000000e+02 8.201187133789062500e+00 1.856549620628356934e+00 6.990489782765507698e-05 5.844922270625829697e-04 1.963191316463053226e-04 4.642003041226416826e-04
9.200000000000000000e+02 7.488380432128906250e+00 1.855509281158447266e+00 -2.314009325345978141e-04 -5.764678935520350933e-04 -2.423606492811813951e-04 -4.181471886113286018e-04
9.210000000000000000e+02 5.351609230041503906e+00 1.868168830871582031e+00 7.472351171600166708e-06 5.720818298868834972e-04 1.738662540446966887e-04 1.475725875934585929e-04
9.220000000000000000e+02 4.637306690216064453e+00 1.880839467048645020e+00 -1.953619939740747213e-04 -4.738827410619705915e-04 -2.007734146900475025e-04 2.695902730920352042e-05
9.230000000000000000e+02 3.923806667327880859e+00 1.894779801368713379e+00 7.636108784936368465e-05 4.526684351731091738e-04 1.587088481755927205e-04 4.761811214848421514e-05
9.240000000000000000e+02 3.214001178741455078e+00 1.903184771537780762e+00 -2.783117815852165222e-04 -3.449341456871479750e-04 -1.869737752713263035e-04 9.784309804672375321e-05
9.250000000000000000e+02 2.514134168624877930e+00 1.900716423988342285e+00 1.880493218777701259e-04 2.828887081705033779e-04 1.412814162904396653e-04 1.357409200863912702e-04
9.260000000000000000e+02 1.819952845573425293e+00 1.898111820220947266e+00 -1.511128357378765941e-04 -2.860401000361889601e-04 -1.311458909185603261e-04 -2.600095103844068944e-05
9.270000000000000000e+02 1.263426494598388672e+01 1.761708617210388184e+00 2.128846681443974376e-04 1.476972975069656968e-04 1.081745940609835088e-04 -3.044953518838156015e-05
9.280000000000000000e+02 1.331533432006835938e+01 1.738501310348510742e+00 -3.757486701942980289e-04 -2.292381250299513340e-04 -1.814960414776578546e-04 -3.055423439946025610e-04
9.290000000000000000e+02 1.513075542449951172e+01 1.858778715133666992e+00 2.184442710131406784e-04 5.033323541283607483e-04 2.165329933632165194e-04 4.027503891848027706e-04
9.300000000000000000e+02 1.325497341156005859e+01 2.471555948257446289e+00 3.944224590668454766e-05 3.470298834145069122e-04 1.159416351583786309e-04 -6.237898924155160785e-05
9.310000000000000000e+02 1.475728607177734375e+01 3.607561826705932617e+00 -8.122874423861503601e-04 4.314476973377168179e-05 -2.307427930645644665e-04 -1.657722605159506202e-04
9.320000000000000000e+02 1.405583477020263672e+01 7.555190086364746094e+00 2.597453538328409195e-03 2.554824750404804945e-04 8.558808476664125919e-04 9.510797681286931038e-04
9.330000000000000000e+02 1.351861667633056641e+01 8.817371368408203125e+00 -3.153696656227111816e-03 -1.120914937928318977e-03 -1.282383454963564873e-03 -1.311106374487280846e-03
9.340000000000000000e+02 1.288643646240234375e+01 1.004588031768798828e+01 3.588636172935366631e-03 1.086442498490214348e-03 1.402523601427674294e-03 2.162940567359328270e-03
9.350000000000000000e+02 1.029224300384521484e+01 1.166075229644775391e+01 -1.842487487010657787e-03 -2.770134946331381798e-03 -1.383786788210272789e-03 -2.402358921244740486e-03
9.360000000000000000e+02 9.395024299621582031e+00 1.271239566802978516e+01 1.238586497493088245e-03 5.575197283178567886e-03 2.044135006144642830e-03 3.118903376162052155e-03
9.370000000000000000e+02 8.451752662658691406e+00 1.557431602478027344e+01 -6.546067073941230774e-03 2.995694801211357117e-02 7.023264188319444656e-03 -1.006224472075700760e-02
9.380000000000000000e+02 1.582741737365722656e+01 1.618597602844238281e+01 -8.905563950538635254e-01 -1.454294681549072266e+00 -7.034553289413452148e-01 8.838159441947937012e-01
9.390000000000000000e+02 1.651041603088378906e+01 1.305873680114746094e+01 -6.297566294670104980e-01 -1.994993090629577637e+00 -7.874249219894409180e-01 1.053474664688110352e+00
9.400000000000000000e+02 1.777614974975585938e+01 1.046852493286132812e+01 -4.123007953166961670e-01 -2.008927345275878906e+00 -7.263684272766113281e-01 7.859873175621032715e-01
9.410000000000000000e+02 1.843589019775390625e+01 7.643959522247314453e+00 -1.395614445209503174e-01 -1.634507179260253906e+00 -5.322206020355224609e-01 4.308430850505828857e-01
9.420000000000000000e+02 1.875724411010742188e+01 4.867912769317626953e+00 -6.307987123727798462e-02 -1.199307322502136230e+00 -3.787161707878112793e-01 2.273114323616027832e-01
9.430000000000000000e+02 1.924211311340332031e+01 -3.778454065322875977e+00 -1.587540842592716217e-02 -5.054232850670814514e-02 -1.992532238364219666e-02 3.212558478116989136e-02
9.440000000000000000e+02 1.910129356384277344e+01 -2.620183944702148438e+00 -1.044184248894453049e-02 -9.272883087396621704e-02 -3.095120191574096680e-02 4.671195894479751587e-02
9.450000000000000000e+02 2.011722183227539062e+01 -4.018085002899169922e+00 -4.412255436182022095e-02 -5.626366659998893738e-02 -3.011586517095565796e-02 6.143142282962799072e-02
9.460000000000000000e+02 2.092269706726074219e+01 -4.191662788391113281e+00 -7.064191251993179321e-02 -6.326297670602798462e-02 -4.017146676778793335e-02 8.786153048276901245e-02
9.470000000000000000e+02 2.306803321838378906e+01 -4.575628757476806641e+00 -1.890827715396881104e-01 -5.276749283075332642e-02 -7.255508005619049072e-02 1.610811650753021240e-01
9.480000000000000000e+02 2.449469375610351562e+01 -4.741479873657226562e+00 -2.969588637351989746e-01 -3.918524831533432007e-02 -1.008432283997535706e-01 1.944130361080169678e-01
9.490000000000000000e+02 2.521378898620605469e+01 -4.805178642272949219e+00 -3.597621619701385498e-01 -3.158471733331680298e-02 -1.174040585756301880e-01 2.072297930717468262e-01
9.500000000000000000e+02 2.593325996398925781e+01 -4.862958908081054688e+00 -4.256791472434997559e-01 -2.381461299955844879e-02 -1.348481327295303345e-01 2.180215120315551758e-01
9.510000000000000000e+02 2.811114883422851562e+01 -4.941116333007812500e+00 -6.469438076019287109e-01 -4.842737689614295959e-03 -1.955359578132629395e-01 2.380502969026565552e-01
9.520000000000000000e+02 2.884148979187011719e+01 -4.955256462097167969e+00 -7.267245650291442871e-01 2.991030924022197723e-04 -2.179276347160339355e-01 2.411096841096878052e-01
9.530000000000000000e+02 3.192941665649414062e+01 -4.257102966308593750e+00 -9.864962100982666016e-01 1.727995090186595917e-02 -2.907648682594299316e-01 3.143298327922821045e-01
9.540000000000000000e+02 3.105192184448242188e+01 -4.949124813079833984e+00 -9.765405058860778809e-01 1.113690622150897980e-02 -2.896210849285125732e-01 2.430306375026702881e-01
9.550000000000000000e+02 3.179236984252929688e+01 -4.941174507141113281e+00 -1.062597632408142090e+00 1.304295286536216736e-02 -3.148664236068725586e-01 2.409456670284271240e-01
9.560000000000000000e+02 3.341072082519531250e+01 -4.227639675140380859e+00 -1.127441763877868652e+00 2.263499610126018524e-02 -3.314420580863952637e-01 3.069106042385101318e-01
9.570000000000000000e+02 3.564585113525390625e+01 -4.170564174652099609e+00 -1.321796417236328125e+00 2.633411437273025513e-02 -3.886387050151824951e-01 2.851660251617431641e-01
9.580000000000000000e+02 3.626605606079101562e+01 -4.834607124328613281e+00 -1.558573722839355469e+00 1.716124080121517181e-02 -4.624237418174743652e-01 2.125332057476043701e-01
9.590000000000000000e+02 3.851468276977539062e+01 -4.774032115936279297e+00 -1.763579845428466797e+00 1.720478758215904236e-02 -5.239124894142150879e-01 1.867847442626953125e-01
9.600000000000000000e+02 3.776425552368164062e+01 -4.793513298034667969e+00 -1.700450658798217773e+00 1.577353477478027344e-02 -5.054031610488891602e-01 1.961546689271926880e-01
9.610000000000000000e+02 3.926580047607421875e+01 -4.755920886993408203e+00 -1.820230960845947266e+00 1.564094610512256622e-02 -5.413770079612731934e-01 1.758146733045578003e-01
9.620000000000000000e+02 4.226663589477539062e+01 -4.701637268066406250e+00 -1.949670791625976562e+00 2.004391141235828400e-02 -5.788880586624145508e-01 1.111905574798583984e-01
9.630000000000000000e+02 4.301467895507812500e+01 -4.694459438323974609e+00 -1.946349501609802246e+00 2.566231600940227509e-02 -5.762061476707458496e-01 8.411823958158493042e-02
9.640000000000000000e+02 4.450774002075195312e+01 -4.688419818878173828e+00 -1.873901128768920898e+00 3.982907906174659729e-02 -5.502216219902038574e-01 1.372303068637847900e-02
9.650000000000000000e+02 4.599412918090820312e+01 -4.688960075378417969e+00 -1.655135035514831543e+00 6.531306356191635132e-02 -4.769465923309326172e-01 -1.084788143634796143e-01
9.660000000000000000e+02 4.673004531860351562e+01 -4.683903217315673828e+00 -1.455039739608764648e+00 8.722126483917236328e-02 -4.103455245494842529e-01 -1.970762908458709717e-01
9.670000000000000000e+02 4.801885604858398438e+01 -4.674695014953613281e+00 -9.211354255676269531e-01 2.115228325128555298e-01 -2.128837704658508301e-01 -5.284290909767150879e-01
9.680000000000000000e+02 4.921823501586914062e+01 -4.686123847961425781e+00 -6.278759986162185669e-02 4.230303764343261719e-01 1.080728322267532349e-01 -1.051159024238586426e+00
9.690000000000000000e+02 4.981223678588867188e+01 -4.706806659698486328e+00 5.290774703025817871e-01 7.194195389747619629e-01 3.745490908622741699e-01 -1.468310952186584473e+00
9.700000000000000000e+02 5.054838562011718750e+01 -4.781542301177978516e+00 1.408102035522460938e+00 1.289207577705383301e+00 8.091928958892822266e-01 -2.192735195159912109e+00
9.710000000000000000e+02 5.220159530639648438e+01 -4.676330566406250000e+00 3.254306554794311523e+00 8.300592422485351562e+00 3.466469764709472656e+00 -6.429631233215332031e+00
9.720000000000000000e+02 5.283277893066406250e+01 -4.747848510742187500e+00 2.239243030548095703e+00 1.476097297668457031e+01 5.100064754486083984e+00 -6.576481342315673828e+00
9.730000000000000000e+02 5.303621292114257812e+01 -4.755811214447021484e+00 1.750356435775756836e+00 1.676198387145996094e+01 5.553702354431152344e+00 -5.817044258117675781e+00
9.740000000000000000e+02 5.351392745971679688e+01 -4.539130210876464844e+00 1.160082578659057617e+00 1.831811332702636719e+01 5.843458652496337891e+00 -3.143170833587646484e+00
9.750000000000000000e+02 5.363778686523437500e+01 -4.847006320953369141e+00 1.772875905036926270e+00 2.059004592895507812e+01 6.708876609802246094e+00 -2.041906833648681641e+00
9.760000000000000000e+02 5.402462005615234375e+01 -5.004018306732177734e+00 3.453597307205200195e+00 2.068745803833007812e+01 7.242316722869873047e+00 6.377226710319519043e-01
9.770000000000000000e+02 5.475387954711914062e+01 -6.044656753540039062e+00 1.071080875396728516e+01 1.664810180664062500e+01 8.207673072814941406e+00 1.455318212509155273e+00
9.780000000000000000e+02 5.463312149047851562e+01 -7.106497287750244141e+00 8.986038208007812500e+00 1.790315055847167969e+01 8.066756248474121094e+00 -2.525918245315551758e+00
9.790000000000000000e+02 5.386222457885742188e+01 -7.881555080413818359e+00 2.359496116638183594e+00 2.081775283813476562e+01 6.953175067901611328e+00 5.113238096237182617e-01
9.800000000000000000e+02 5.081158065795898438e+01 -8.052384376525878906e+00 1.952180981636047363e+00 1.747864007949829102e+00 1.110013484954833984e+00 2.814401626586914062e+00
9.810000000000000000e+02 5.016125488281250000e+01 -8.163145065307617188e+00 1.011215090751647949e+00 1.078385114669799805e+00 6.268800497055053711e-01 1.928209662437438965e+00
9.820000000000000000e+02 4.675829696655273438e+01 -8.242278099060058594e+00 -1.521229267120361328e+00 1.211539879441261292e-01 -4.200225770473480225e-01 2.139073163270950317e-01
9.830000000000000000e+02 4.749543762207031250e+01 -8.218215942382812500e+00 -1.237779974937438965e+00 1.639499217271804810e-01 -3.221490085124969482e-01 3.689533174037933350e-01
9.840000000000000000e+02 4.822675704956054688e+01 -8.197875976562500000e+00 -8.839218020439147949e-01 2.367925792932510376e-01 -1.941387653350830078e-01 5.687459111213684082e-01
9.850000000000000000e+02 4.527314758300781250e+01 -8.289209365844726562e+00 -1.869420886039733887e+00 6.990450620651245117e-02 -5.398548841476440430e-01 4.619535058736801147e-02
9.860000000000000000e+02 4.452798461914062500e+01 -8.309456825256347656e+00 -1.977445602416992188e+00 5.445416271686553955e-02 -5.768974423408508301e-01 -1.096719969063997269e-02
9.870000000000000000e+02 4.228787994384765625e+01 -8.366891860961914062e+00 -2.136682033538818359e+00 2.579102665185928345e-02 -6.332672834396362305e-01 -1.195078641176223755e-01
9.880000000000000000e+02 4.231582260131835938e+01 -9.063287734985351562e+00 -1.705769300460815430e+00 5.765712261199951172e-02 -4.944336414337158203e-01 -6.991058588027954102e-02
9.890000000000000000e+02 4.079309463500976562e+01 -8.403793334960937500e+00 -2.154623985290527344e+00 1.417315285652875900e-02 -6.421352624893188477e-01 -1.609794348478317261e-01
9.900000000000000000e+02 3.929626083374023438e+01 -8.444540977478027344e+00 -2.129113674163818359e+00 5.984440445899963379e-03 -6.369388103485107422e-01 -1.867981106042861938e-01
9.910000000000000000e+02 3.779834365844726562e+01 -8.486846923828125000e+00 -2.074174642562866211e+00 2.922506537288427353e-04 -6.221647262573242188e-01 -2.046870887279510498e-01
9.920000000000000000e+02 3.479506301879882812e+01 -8.571477890014648438e+00 -1.898437023162841797e+00 -9.252685122191905975e-03 -5.723069310188293457e-01 -2.235594391822814941e-01
9.930000000000000000e+02 3.629762649536132812e+01 -8.530800819396972656e+00 -1.994572639465332031e+00 -5.676367320120334625e-03 -6.000747084617614746e-01 -2.159038484096527100e-01
9.940000000000000000e+02 3.328792572021484375e+01 -8.607235908508300781e+00 -1.785210967063903809e+00 -1.333616673946380615e-02 -5.395641326904296875e-01 -2.276485711336135864e-01
9.950000000000000000e+02 3.253322219848632812e+01 -8.624327659606933594e+00 -1.723709225654602051e+00 -1.620072312653064728e-02 -5.219730138778686523e-01 -2.292141169309616089e-01
9.960000000000000000e+02 2.949739456176757812e+01 -8.660781860351562500e+00 -1.439328789710998535e+00 -1.731479167938232422e-02 -4.369930922985076904e-01 -2.281215190887451172e-01
9.970000000000000000e+02 2.796312332153320312e+01 -8.644418716430664062e+00 -1.278946042060852051e+00 -1.155082415789365768e-02 -3.871490657329559326e-01 -2.257364243268966675e-01
9.980000000000000000e+02 2.642197036743164062e+01 -8.607516288757324219e+00 -1.103390812873840332e+00 -2.887691371142864227e-03 -3.318835496902465820e-01 -2.266930341720581055e-01
9.990000000000000000e+02 2.252922630310058594e+01 -8.303615570068359375e+00 -6.351614594459533691e-01 3.121830895543098450e-02 -1.811829507350921631e-01 -2.227094173431396484e-01
1.000000000000000000e+03 2.331010627746582031e+01 -8.390164375305175781e+00 -7.308198809623718262e-01 2.743486873805522919e-02 -2.110155075788497925e-01 -2.267484217882156372e-01
1.001000000000000000e+03 2.098266220092773438e+01 -8.069286346435546875e+00 -4.453729987144470215e-01 2.486500889062881470e-02 -1.261523962020874023e-01 -1.994632333517074585e-01
1.002000000000000000e+03 2.022285079956054688e+01 -7.935641288757324219e+00 -3.489152193069458008e-01 6.211156025528907776e-03 -1.028112173080444336e-01 -1.786490827798843384e-01
1.003000000000000000e+03 1.825534820556640625e+01 -7.427491188049316406e+00 -1.162533313035964966e-01 -5.080931261181831360e-02 -5.011879280209541321e-02 -8.857417106628417969e-02
1.004000000000000000e+03 1.816111183166503906e+01 -7.969154834747314453e+00 -1.644881367683410645e-01 -6.537310034036636353e-02 -6.895837187767028809e-02 -1.416333466768264771e-01
1.005000000000000000e+03 5.383219528198242188e+01 -4.915331840515136719e+00 2.434789896011352539e+00 2.097068595886230469e+01 7.021642684936523438e+00 -5.669498443603515625e-01
1.006000000000000000e+03 5.407113647460937500e+01 -7.792255878448486328e+00 3.475114822387695312e+00 2.048707199096679688e+01 7.188655853271484375e+00 -8.290187716484069824e-01
1.007000000000000000e+03 5.345185852050781250e+01 -8.015590667724609375e+00 1.334799170494079590e+00 1.949012374877929688e+01 6.247477054595947266e+00 3.318110466003417969e+00
1.008000000000000000e+03 5.426177597045898438e+01 -7.658462524414062500e+00 4.832571506500244141e+00 2.000420761108398438e+01 7.451033592224121094e+00 -1.762894392013549805e+00
1.009000000000000000e+03 5.459276962280273438e+01 -5.648150444030761719e+00 8.834312438964843750e+00 1.814354515075683594e+01 8.093357086181640625e+00 2.564437866210937500e+00
1.010000000000000000e+03 5.483827972412109375e+01 -5.475457668304443359e+00 7.804183006286621094e+00 1.710644149780273438e+01 7.473187446594238281e+00 2.462516307830810547e+00
1.011000000000000000e+03 5.472045135498046875e+01 -5.325963020324707031e+00 6.998695850372314453e+00 1.782653045654296875e+01 7.447567939758300781e+00 2.515807867050170898e+00
1.012000000000000000e+03 5.504445266723632812e+01 -6.071395874023437500e+00 9.919534683227539062e+00 1.552218151092529297e+01 7.632514953613281250e+00 1.071554183959960938e+00
1.013000000000000000e+03 5.498711013793945312e+01 -7.220118999481201172e+00 8.047044754028320312e+00 1.631129646301269531e+01 7.307502269744873047e+00 -2.239989757537841797e+00
1.014000000000000000e+03 5.437872695922851562e+01 -5.274408817291259766e+00 5.982610225677490234e+00 1.952787017822265625e+01 7.653143882751464844e+00 2.300217628479003906e+00
1.015000000000000000e+03 5.422320175170898438e+01 -5.112561702728271484e+00 4.641595840454101562e+00 1.998940658569335938e+01 7.389300823211669922e+00 1.573933005332946777e+00
1.016000000000000000e+03 5.247678756713867188e+01 -4.391267776489257812e+00 2.238147497177124023e+00 1.098724555969238281e+01 3.967617988586425781e+00 -6.304429054260253906e+00
1.017000000000000000e+03 5.243999862670898438e+01 -8.044268608093261719e+00 3.005909204483032227e+00 1.048006248474121094e+01 4.045791625976562500e+00 6.822203636169433594e+00
1.018000000000000000e+03 5.141339492797851562e+01 -8.127312660217285156e+00 2.834197998046875000e+00 3.592729091644287109e+00 1.928078174591064453e+00 4.259937286376953125e+00
1.019000000000000000e+03 5.204065322875976562e+01 -8.052482604980468750e+00 3.383579492568969727e+00 6.851802825927734375e+00 3.070614576339721680e+00 6.118765354156494141e+00
1.020000000000000000e+03 5.183886718750000000e+01 -8.065561294555664062e+00 3.256278753280639648e+00 5.558575630187988281e+00 2.644456386566162109e+00 5.485017776489257812e+00
1.021000000000000000e+03 5.050017547607421875e+01 -8.321524620056152344e+00 1.793893814086914062e+00 1.666335821151733398e+00 1.038068890571594238e+00 2.659877777099609375e+00
1.022000000000000000e+03 5.041746902465820312e+01 -8.072880744934082031e+00 1.377458691596984863e+00 1.368105888366699219e+00 8.236693739891052246e-01 2.228593349456787109e+00
1.023000000000000000e+03 5.087869262695312500e+01 -8.280840873718261719e+00 2.083398342132568359e+00 2.239925622940063477e+00 1.296997189521789551e+00 3.154246091842651367e+00
1.024000000000000000e+03 5.105151367187500000e+01 -8.460098266601562500e+00 2.311393499374389648e+00 3.206863880157470703e+00 1.655477166175842285e+00 3.854626417160034180e+00
1.025000000000000000e+03 4.965823745727539062e+01 -8.202460289001464844e+00 4.102008938789367676e-01 7.968739867210388184e-01 3.621224761009216309e-01 1.489470958709716797e+00
1.026000000000000000e+03 5.023903274536132812e+01 -8.597486495971679688e+00 1.472309350967407227e+00 1.724904298782348633e+00 9.591640830039978027e-01 2.640497922897338867e+00
1.027000000000000000e+03 4.894956588745117188e+01 -8.187477111816406250e+00 -2.905747890472412109e-01 3.801518678665161133e-01 2.687312848865985870e-02 9.037094712257385254e-01
1.028000000000000000e+03 4.943932723999023438e+01 -8.778294563293457031e+00 8.202684521675109863e-01 1.159236431121826172e+00 5.938514471054077148e-01 1.841957330703735352e+00
1.029000000000000000e+03 4.983705139160156250e+01 -4.257203578948974609e+00 1.116435647010803223e+00 1.197705149650573730e+00 6.942422389984130859e-01 -2.042681694030761719e+00
1.030000000000000000e+03 5.159446716308593750e+01 -4.764098167419433594e+00 3.165681362152099609e+00 3.920805931091308594e+00 2.125946283340454102e+00 -4.697031497955322266e+00
1.031000000000000000e+03 5.163048934936523438e+01 -4.028690338134765625e+00 2.430034399032592773e+00 6.040843009948730469e+00 2.541263341903686523e+00 -5.100821971893310547e+00
1.032000000000000000e+03 5.323769378662109375e+01 -4.769196510314941406e+00 1.482380270957946777e+00 1.831345176696777344e+01 5.938749313354492188e+00 -4.756291866302490234e+00
1.033000000000000000e+03 1.452271842956542969e+01 1.738662362098693848e+00 8.078546670731157064e-05 -1.921283983392640948e-04 -3.340288094477728009e-05 -1.007548271445557475e-04
1.034000000000000000e+03 1.463262939453125000e+01 2.562290430068969727e+00 1.208995163324289024e-04 -5.625076009891927242e-04 -1.324824261246249080e-04 -1.213423311128281057e-04
1.035000000000000000e+03 1.188721466064453125e+01 1.794336676597595215e+00 -4.928966518491506577e-04 -3.504316919133998454e-05 -1.583819393999874592e-04 -2.483868447598069906e-04
1.036000000000000000e+03 4.862135314941406250e+01 -4.677390575408935547e+00 -5.292069911956787109e-01 3.000057041645050049e-01 -6.876038014888763428e-02 -7.100331783294677734e-01
1.037000000000000000e+03 4.805773162841796875e+01 -4.167693138122558594e+00 -2.432883381843566895e-01 4.050251245498657227e-01 4.852103069424629211e-02 -8.174404501914978027e-01
1.038000000000000000e+03 4.866458892822265625e+01 -4.178126811981201172e+00 1.383632421493530273e-01 5.647218823432922363e-01 2.109255343675613403e-01 -1.138206601142883301e+00
1.039000000000000000e+03 4.925759506225585938e+01 -4.203052520751953125e+00 6.119008064270019531e-01 8.398238420486450195e-01 4.355174005031585693e-01 -1.524081468582153320e+00
1.040000000000000000e+03 4.742801284790039062e+01 -4.165764331817626953e+00 -6.181033253669738770e-01 2.819483876228332520e-01 -1.008464768528938293e-01 -5.871881246566772461e-01
1.041000000000000000e+03 5.094577789306640625e+01 -4.736145973205566406e+00 2.212300539016723633e+00 2.234555244445800781e+00 1.334056735038757324e+00 -3.150790452957153320e+00
1.042000000000000000e+03 1.446696472167968750e+01 -3.374678850173950195e+00 -2.404894439678173512e-05 1.834280119510367513e-04 4.781372263096272945e-05 -3.619134076870977879e-05
1.043000000000000000e+03 1.384837245941162109e+01 -2.965795993804931641e+00 9.685223631095141172e-05 -1.263590529561042786e-04 -8.852046448737382889e-06 -2.703314930840861052e-05
1.044000000000000000e+03 1.842567443847656250e+01 -9.078115463256835938e+00 -2.913108170032501221e-01 -1.131409555673599243e-01 -1.213355362415313721e-01 -2.567972540855407715e-01
1.045000000000000000e+03 3.916064023971557617e+00 3.539803981781005859e+00 2.508537436369806528e-04 4.383990599308162928e-04 2.067758468911051750e-04 1.312951208092272282e-04
1.046000000000000000e+03 9.548766136169433594e+00 2.591707229614257812e+00 -3.820702258963137865e-04 -6.085655186325311661e-04 -2.971907379105687141e-04 -7.359231822192668915e-04
1.047000000000000000e+03 7.413165092468261719e+00 2.574838638305664062e+00 6.544461939483880997e-05 8.321901550516486168e-04 2.692904381547123194e-04 4.664458101615309715e-04
1.048000000000000000e+03 6.776789188385009766e+00 1.856537103652954102e+00 4.663311756303301081e-06 6.322684930637478828e-04 1.910795399453490973e-04 3.171066637150943279e-04
1.049000000000000000e+03 6.713604927062988281e+00 2.577177286148071289e+00 -1.276886760024353862e-04 -6.949194939807057381e-04 -2.467824378982186317e-04 -3.425023751333355904e-04
1.050000000000000000e+03 8.025713920593261719e+00 3.323560953140258789e+00 1.446185342501848936e-04 1.103874761611223221e-03 3.745479625649750233e-04 6.038849824108183384e-04
1.051000000000000000e+03 5.906702041625976562e+00 4.052215576171875000e+00 3.361766866873949766e-04 7.130448939278721809e-04 3.147664538118988276e-04 1.644237199798226357e-04
1.052000000000000000e+03 1.513371467590332031e+00 7.706408977508544922e+00 6.848631310276687145e-04 1.215493030031211674e-04 2.419237280264496803e-04 -1.151841279352083802e-04
1.053000000000000000e+03 3.877270817756652832e-01 3.796466588973999023e+00 3.906124329660087824e-04 -6.172260214043490123e-07 1.169985625892877579e-04 2.387368149356916547e-04
1.054000000000000000e+03 2.388915300369262695e+00 3.692130804061889648e+00 5.007752333767712116e-04 2.035372890532016754e-04 2.112937509082257748e-04 6.746516737621277571e-05
1.055000000000000000e+03 3.872629702091217041e-01 2.099347114562988281e+00 -1.665178133407607675e-04 -1.568500883877277374e-04 -9.701037197373807430e-05 4.541378439171239734e-05
1.056000000000000000e+03 1.123451352119445801e+00 1.945781230926513672e+00 -1.221550337504595518e-05 1.761600578902289271e-04 4.918336708215065300e-05 1.151315154857002199e-04
1.057000000000000000e+03 1.113142299652099609e+01 1.823756098747253418e+00 3.538611927069723606e-04 1.397152518620714545e-04 1.480729406466707587e-04 3.020438889507204294e-04
1.058000000000000000e+03 8.724441528320312500e+00 3.336048126220703125e+00 -2.503264404367655516e-04 -9.677544003352522850e-04 -3.654242609627544880e-04 -7.616580696776509285e-04
1.059000000000000000e+03 2.665565299987792969e+01 -4.902355194091796875e+00 -4.960062205791473389e-01 -1.708199270069599152e-02 -1.539264619350433350e-01 2.259168922901153564e-01
1.060000000000000000e+03 2.582153129577636719e+01 -2.776383161544799805e+00 -3.697401285171508789e-01 -7.595115900039672852e-02 -1.337073892354965210e-01 3.849254846572875977e-01
1.061000000000000000e+03 2.329701232910156250e+01 -3.842059612274169922e+00 -2.077473402023315430e-01 -8.064949512481689453e-02 -8.651904761791229248e-02 2.196354269981384277e-01
1.062000000000000000e+03 2.612525749206542969e+01 -4.173706531524658203e+00 -4.306654930114746094e-01 -3.585669398307800293e-02 -1.399566531181335449e-01 2.836666107177734375e-01
1.063000000000000000e+03 2.399498367309570312e+01 -3.951451063156127930e+00 -2.559157311916351318e-01 -6.952586024999618530e-02 -9.763247519731521606e-02 2.398619353771209717e-01
1.064000000000000000e+03 2.422329521179199219e+01 -3.243338823318481445e+00 -2.669588923454284668e-01 -9.301670640707015991e-02 -1.079926863312721252e-01 2.985497713088989258e-01
1.065000000000000000e+03 2.235808753967285156e+01 -4.453661918640136719e+00 -1.447558701038360596e-01 -5.877909064292907715e-02 -6.106048822402954102e-02 1.405572742223739624e-01
1.066000000000000000e+03 2.259694671630859375e+01 -3.709731817245483398e+00 -1.620797812938690186e-01 -9.107150137424468994e-02 -7.594538480043411255e-02 1.968263685703277588e-01
1.067000000000000000e+03 2.957504081726074219e+01 -4.960014343261718750e+00 -8.085827827453613281e-01 4.916693549603223801e-03 -2.410998344421386719e-01 2.426156848669052124e-01
1.068000000000000000e+03 2.683840751647949219e+01 -4.215311527252197266e+00 -4.939597249031066895e-01 -2.616147510707378387e-02 -1.560363620519638062e-01 2.940837442874908447e-01
1.069000000000000000e+03 2.858535766601562500e+01 -2.901886940002441406e+00 -5.722338557243347168e-01 -1.812495104968547821e-02 -1.771076470613479614e-01 4.245158135890960693e-01
1.070000000000000000e+03 2.755372810363769531e+01 -4.241632461547851562e+00 -5.604829192161560059e-01 -1.720622181892395020e-02 -1.733067482709884644e-01 3.017189204692840576e-01
1.071000000000000000e+03 3.253460311889648438e+01 -4.928650856018066406e+00 -1.147916555404663086e+00 1.546481810510158539e-02 -3.397355377674102783e-01 2.380365431308746338e-01
1.072000000000000000e+03 3.059689521789550781e+01 -3.587682247161865234e+00 -7.856989502906799316e-01 1.010879408568143845e-02 -2.326770424842834473e-01 3.790770471096038818e-01
1.073000000000000000e+03 3.229581451416015625e+01 -2.190819025039672852e+00 -7.305512428283691406e-01 3.511855378746986389e-02 -2.086298018693923950e-01 4.623447656631469727e-01
1.074000000000000000e+03 2.972452545166015625e+01 -4.272731304168701172e+00 -7.698394060134887695e-01 3.929434809833765030e-03 -2.297729849815368652e-01 3.157113790512084961e-01
1.075000000000000000e+03 1.346664905548095703e+01 -4.839440345764160156e+00 7.733241363894194365e-05 -2.303659312019590288e-05 1.628874451853334904e-05 3.247770291636697948e-05
1.076000000000000000e+03 1.287959766387939453e+01 -5.961452960968017578e+00 9.554432836011983454e-07 -2.013106677622999996e-05 -5.752687229687580839e-06 -6.743753328919410706e-05
1.077000000000000000e+03 1.333051681518554688e+01 -2.564412832260131836e+00 7.481452485080808401e-05 1.125107955886051059e-04 5.619759758701547980e-05 3.250852751079946756e-05
1.078000000000000000e+03 8.142659187316894531e+00 -2.588506698608398438e+00 -8.447810978395864367e-05 -2.502858842490240932e-05 -3.285201091784983873e-05 -1.739212166285142303e-04
1.079000000000000000e+03 3.266887283325195312e+01 -4.243934154510498047e+00 -1.058104157447814941e+00 1.980945467948913574e-02 -3.114884197711944580e-01 3.113098740577697754e-01
1.080000000000000000e+03 3.551760864257812500e+01 -4.855426788330078125e+00 -1.481009960174560547e+00 1.842600293457508087e-02 -4.387751817703247070e-01 2.187730818986892700e-01
1.081000000000000000e+03 3.440504074096679688e+01 -2.828256368637084961e+00 -9.400816559791564941e-01 4.533504694700241089e-02 -2.684239745140075684e-01 3.973317146301269531e-01
1.082000000000000000e+03 3.489995574951171875e+01 -4.190325260162353516e+00 -1.260332465171813965e+00 2.629086375236511230e-02 -3.702124953269958496e-01 2.937883436679840088e-01
1.083000000000000000e+03 4.378167724609375000e+01 -8.329236984252929688e+00 -2.053583383560180664e+00 4.256145283579826355e-02 -6.033065319061279297e-01 -5.700657889246940613e-02
1.084000000000000000e+03 4.455379104614257812e+01 -8.981046676635742188e+00 -1.443643808364868164e+00 1.199798434972763062e-01 -3.970991969108581543e-01 1.094076707959175110e-01
1.085000000000000000e+03 4.458278656005859375e+01 -9.662080764770507812e+00 -9.727962017059326172e-01 2.201813459396362305e-01 -2.257844656705856323e-01 2.701648771762847900e-01
1.086000000000000000e+03 4.676156616210937500e+01 -8.852545738220214844e+00 -8.851394057273864746e-01 2.576588392257690430e-01 -1.882441788911819458e-01 4.658697843551635742e-01
1.087000000000000000e+03 4.308665084838867188e+01 -9.739799499511718750e+00 -1.219825506210327148e+00 1.397986561059951782e-01 -3.240080475807189941e-01 7.883895933628082275e-02
1.088000000000000000e+03 4.004454040527343750e+01 -8.424144744873046875e+00 -2.146532297134399414e+00 8.114716969430446625e-03 -6.415253281593322754e-01 -1.745906770229339600e-01
1.089000000000000000e+03 4.156961059570312500e+01 -9.084609031677246094e+00 -1.751484990119934082e+00 4.646744206547737122e-02 -5.115052461624145508e-01 -1.084716096520423889e-01
1.090000000000000000e+03 4.747385406494140625e+01 -9.410088539123535156e+00 -7.172749191522598267e-02 5.919857025146484375e-01 1.560774594545364380e-01 9.901100397109985352e-01
1.091000000000000000e+03 4.817229080200195312e+01 -8.758235931396484375e+00 -2.105616033077239990e-01 4.659708738327026367e-01 7.662278413772583008e-02 9.303297996520996094e-01
1.092000000000000000e+03 4.747754669189453125e+01 -8.802458763122558594e+00 -6.040869355201721191e-01 3.420166075229644775e-01 -7.862108945846557617e-02 6.542406678199768066e-01
1.093000000000000000e+03 4.007352447509765625e+01 -9.128085136413574219e+00 -1.798110365867614746e+00 2.712492085993289948e-02 -5.312956571578979492e-01 -1.651204377412796021e-01
1.094000000000000000e+03 4.084585571289062500e+01 -9.811132431030273438e+00 -1.433112502098083496e+00 7.023599743843078613e-02 -4.088629484176635742e-01 -9.537210315465927124e-02
1.095000000000000000e+03 3.932481765747070312e+01 -9.150721549987792969e+00 -1.804019093513488770e+00 1.850922964513301849e-02 -5.356529355049133301e-01 -1.855170130729675293e-01
1.096000000000000000e+03 3.704774475097656250e+01 -8.509038925170898438e+00 -2.037101030349731445e+00 -4.540629219263792038e-03 -6.124925017356872559e-01 -2.106464505195617676e-01
1.097000000000000000e+03 3.857632446289062500e+01 -9.173864364624023438e+00 -1.799903035163879395e+00 1.496688555926084518e-02 -5.354808568954467773e-01 -2.038980722427368164e-01
1.098000000000000000e+03 3.651974487304687500e+01 -3.463325977325439453e+00 -1.198300957679748535e+00 4.072350636124610901e-02 -3.472732603549957275e-01 3.181878328323364258e-01
1.099000000000000000e+03 3.639310073852539062e+01 -4.150773525238037109e+00 -1.378600955009460449e+00 2.785248868167400360e-02 -4.052245318889617920e-01 2.747564911842346191e-01
1.100000000000000000e+03 3.784577560424804688e+01 -9.914394378662109375e+00 -1.513588070869445801e+00 2.771619521081447601e-02 -4.457615613937377930e-01 -2.170277833938598633e-01
1.101000000000000000e+03 3.632243347167968750e+01 -9.245848655700683594e+00 -1.741750955581665039e+00 -9.884674800559878349e-04 -5.228218436241149902e-01 -2.432010024785995483e-01
1.102000000000000000e+03 3.404198074340820312e+01 -8.589458465576171875e+00 -1.845223665237426758e+00 -1.265666820108890533e-02 -5.573641061782836914e-01 -2.260226756334304810e-01
1.103000000000000000e+03 3.481745147705078125e+01 -9.286061286926269531e+00 -1.675549387931823730e+00 -7.051192224025726318e-03 -5.047801733016967773e-01 -2.610563039779663086e-01
1.104000000000000000e+03 3.714142990112304688e+01 -4.131839752197265625e+00 -1.430761575698852539e+00 2.726585604250431061e-02 -4.210487306118011475e-01 2.628907263278961182e-01
1.105000000000000000e+03 4.076726913452148438e+01 -4.723316669464111328e+00 -1.907161593437194824e+00 1.648936793208122253e-02 -5.672016739845275879e-01 1.481623202562332153e-01
1.106000000000000000e+03 3.864136505126953125e+01 -4.097315311431884766e+00 -1.515578389167785645e+00 2.901557087898254395e-02 -4.459688365459442139e-01 2.325337678194046021e-01
1.107000000000000000e+03 4.151752090454101562e+01 -4.710684776306152344e+00 -1.935776233673095703e+00 2.028481103479862213e-02 -5.746474266052246094e-01 1.310730874538421631e-01
1.108000000000000000e+03 4.014300537109375000e+01 -4.071025371551513672e+00 -1.566900849342346191e+00 3.295808285474777222e-02 -4.601828455924987793e-01 1.910315603017807007e-01
1.109000000000000000e+03 3.939255905151367188e+01 -4.082739353179931641e+00 -1.546229600906372070e+00 3.270167484879493713e-02 -4.540583789348602295e-01 2.137721776962280273e-01
1.110000000000000000e+03 4.386561584472656250e+01 -4.088319301605224609e+00 -1.471334695816040039e+00 7.175575941801071167e-02 -4.198736548423767090e-01 -7.795114652253687382e-04
1.111000000000000000e+03 4.312841033935546875e+01 -4.071208477020263672e+00 -1.525773644447326660e+00 5.497587844729423523e-02 -4.412393271923065186e-01 5.451220646500587463e-02
1.112000000000000000e+03 4.238697052001953125e+01 -4.061873435974121094e+00 -1.557438015937805176e+00 5.083873122930526733e-02 -4.519797861576080322e-01 9.617614001035690308e-02
1.113000000000000000e+03 4.459974288940429688e+01 -4.111232757568359375e+00 -1.396475911140441895e+00 8.180845528841018677e-02 -3.944002389907836914e-01 -6.131265312433242798e-02
1.114000000000000000e+03 4.675615692138671875e+01 -4.165827274322509766e+00 -8.723399639129638672e-01 2.015298306941986084e-01 -2.012430429458618164e-01 -4.039087593555450439e-01
1.115000000000000000e+03 4.604940032958984375e+01 -4.156125545501708984e+00 -1.120536923408508301e+00 1.353258639574050903e-01 -2.955633103847503662e-01 -2.502153515815734863e-01
1.116000000000000000e+03 4.532966613769531250e+01 -4.135032653808593750e+00 -1.278767108917236328e+00 1.129396781325340271e-01 -3.497482538223266602e-01 -1.485227942466735840e-01
1.117000000000000000e+03 3.177607727050781250e+01 -8.637148857116699219e+00 -1.657774448394775391e+00 -1.530405879020690918e-02 -5.019235610961914062e-01 -2.299004793167114258e-01
1.118000000000000000e+03 3.255227279663085938e+01 -9.334450721740722656e+00 -1.538945317268371582e+00 -1.314820908010005951e-02 -4.656280577182769775e-01 -2.796911001205444336e-01
1.119000000000000000e+03 3.406496047973632812e+01 -9.302502632141113281e+00 -1.633818149566650391e+00 -8.183497004210948944e-03 -4.926005005836486816e-01 -2.675284147262573242e-01
1.120000000000000000e+03 8.825751304626464844e+00 2.584656476974487305e+00 2.119241253240033984e-04 7.800968596711754799e-04 2.976062824018299580e-04 6.157587049528956413e-04
1.121000000000000000e+03 1.360116577148437500e+01 3.917413949966430664e+00 1.297760521993041039e-03 -3.531988186296075583e-04 2.833685139194130898e-04 5.723495269194245338e-04
1.122000000000000000e+03 1.257318782806396484e+01 2.531756401062011719e+00 -7.010878180153667927e-04 1.142106630140915513e-04 -1.760631421348080039e-04 -1.183592175948433578e-04
1.123000000000000000e+03 1.105426311492919922e+01 2.584358692169189453e+00 -6.279681692831218243e-04 -2.501417475286871195e-04 -2.634329721331596375e-04 -6.748642772436141968e-04
1.124000000000000000e+03 2.951373291015625000e+01 -9.372659683227539062e+00 -1.306100130081176758e+00 -1.467791479080915451e-02 -3.962334096431732178e-01 -2.933934926986694336e-01
1.125000000000000000e+03 3.027684783935546875e+01 -9.367130279541015625e+00 -1.369454383850097656e+00 -1.712701842188835144e-02 -4.159744083881378174e-01 -2.903622388839721680e-01
1.126000000000000000e+03 3.101722717285156250e+01 -8.645998001098632812e+00 -1.589984536170959473e+00 -1.719230040907859802e-02 -4.821530580520629883e-01 -2.280783355236053467e-01
1.127000000000000000e+03 3.103552627563476562e+01 -9.358175277709960938e+00 -1.429183006286621094e+00 -1.592241972684860229e-02 -4.335316121578216553e-01 -2.874127328395843506e-01
1.128000000000000000e+03 3.330975723266601562e+01 -9.318843841552734375e+00 -1.589865922927856445e+00 -1.185982767492532730e-02 -4.805177152156829834e-01 -2.742875218391418457e-01
1.129000000000000000e+03 8.076132774353027344e+00 -1.855268239974975586e+00 -1.067757966666249558e-05 7.382064359262585640e-05 1.894291926873847842e-05 2.018613158725202084e-04
1.130000000000000000e+03 1.254281711578369141e+01 -3.697845220565795898e+00 4.333151446189731359e-05 1.228876208188012242e-04 4.986573912901803851e-05 8.517246169503778219e-05
1.131000000000000000e+03 7.403751373291015625e+00 -2.601807355880737305e+00 3.541927299011149444e-06 6.669836875516921282e-05 2.107209002133458853e-05 2.312903670826926827e-04
1.132000000000000000e+03 1.176856994628906250e+01 -5.623197555541992188e+00 1.700725260889157653e-05 -2.319077757420018315e-04 -6.447015766752883792e-05 1.666875032242387533e-04
1.133000000000000000e+03 7.248064994812011719e+00 -4.916528224945068359e+00 -2.683419443201273680e-04 5.642799078486859798e-04 8.878139487933367491e-05 -5.728093583456939086e-06
1.134000000000000000e+03 6.561919689178466797e+00 -1.868771672248840332e+00 -6.040034713805653155e-05 7.102139352355152369e-05 3.186313279002206400e-06 1.819771714508533478e-04
1.135000000000000000e+03 6.657878875732421875e+00 -2.606388092041015625e+00 -4.211528357700444758e-05 -1.911729123094119132e-05 -1.836977207858581096e-05 -1.960541849257424474e-04
1.136000000000000000e+03 5.182200431823730469e+00 -2.701619148254394531e+00 -2.461315307300537825e-05 -2.958915865747258067e-05 -1.626069388294126838e-05 -2.367375418543815613e-04
1.137000000000000000e+03 1.594964981079101562e+00 -7.876997947692871094e+00 -3.199536004103720188e-04 6.084033520892262459e-05 -7.773398101562634110e-05 -1.050363716785795987e-04
1.138000000000000000e+03 3.953898906707763672e+00 -3.783433675765991211e+00 7.565355190308764577e-05 9.711086750030517578e-05 5.182932727620936930e-05 1.862943172454833984e-04
1.139000000000000000e+03 1.551538825035095215e+00 -6.557546138763427734e+00 4.929218557663261890e-04 -6.338902312563732266e-05 1.288598432438448071e-04 1.884945086203515530e-04
1.140000000000000000e+03 1.191935539245605469e+00 -2.131908893585205078e+00 -1.416751038050279021e-04 -8.004775736480951309e-05 -6.651686271652579308e-05 -1.312862877966836095e-04
1.141000000000000000e+03 5.420198440551757812e-01 -5.048916816711425781e+00 4.093513998668640852e-04 -2.115484094247221947e-04 5.934089131187647581e-05 5.464909918373450637e-05
1.142000000000000000e+03 2.486844635009765625e+01 -8.512725830078125000e+00 -9.205332994461059570e-01 1.242755074054002762e-02 -2.724317312240600586e-01 -2.267404198646545410e-01
1.143000000000000000e+03 2.641787910461425781e+01 -9.331580162048339844e+00 -1.028510928153991699e+00 2.760387025773525238e-03 -3.077251613140106201e-01 -3.043116331100463867e-01
1.144000000000000000e+03 2.797300910949707031e+01 -9.367334365844726562e+00 -1.170497655868530273e+00 -8.927820250391960144e-03 -3.538276255130767822e-01 -2.994322180747985840e-01
1.145000000000000000e+03 2.873192787170410156e+01 -8.657500267028808594e+00 -1.360151529312133789e+00 -1.330050546675920486e-02 -4.120355844497680664e-01 -2.273306697607040405e-01
1.146000000000000000e+03 2.563344001770019531e+01 -9.296960830688476562e+00 -9.545819759368896484e-01 9.699798189103603363e-03 -2.834646701812744141e-01 -3.071482181549072266e-01
1.147000000000000000e+03 2.327128028869628906e+01 -9.138074874877929688e+00 -7.302369475364685059e-01 3.412948176264762878e-02 -2.088322341442108154e-01 -3.074366748332977295e-01
1.148000000000000000e+03 1.997856140136718750e+01 -9.633618354797363281e+00 -4.647932946681976318e-01 -2.933062985539436340e-02 -1.482371687889099121e-01 -3.371239900588989258e-01
1.149000000000000000e+03 2.011520957946777344e+01 -8.752614974975585938e+00 -4.137266576290130615e-01 -7.064511068165302277e-03 -1.262373477220535278e-01 -2.596032023429870605e-01
1.150000000000000000e+03 2.247157859802246094e+01 -9.069862365722656250e+00 -6.512789130210876465e-01 3.484847024083137512e-02 -1.849291324615478516e-01 -3.051211833953857422e-01
1.151000000000000000e+03 2.484829711914062500e+01 -9.250901222229003906e+00 -8.806073069572448730e-01 1.970085687935352325e-02 -2.582719326019287109e-01 -3.082926869392395020e-01
1.152000000000000000e+03 2.564625740051269531e+01 -8.568892478942871094e+00 -1.012643098831176758e+00 5.221160594373941422e-03 -3.022265732288360596e-01 -2.265783697366714478e-01
1.153000000000000000e+03 2.406301116943359375e+01 -9.197401046752929688e+00 -8.056015372276306152e-01 2.700947970151901245e-02 -2.335776090621948242e-01 -3.094257712364196777e-01
1.154000000000000000e+03 2.719786834716796875e+01 -9.354372024536132812e+00 -1.100785493850708008e+00 -4.836128093302249908e-03 -3.316864967346191406e-01 -3.025087416172027588e-01
1.155000000000000000e+03 1.858821105957031250e+01 -3.509992837905883789e+00 -2.642747480422258377e-03 -2.487600781023502350e-02 -8.255627006292343140e-03 9.735696949064731598e-03
1.156000000000000000e+03 2.188825416564941406e+01 -3.560777425765991211e+00 -1.219693124294281006e-01 -1.002439558506011963e-01 -6.666398048400878906e-02 1.701233386993408203e-01
1.157000000000000000e+03 2.116300773620605469e+01 -3.397723436355590820e+00 -8.227334916591644287e-02 -1.087751239538192749e-01 -5.731454119086265564e-02 1.395710259675979614e-01
1.158000000000000000e+03 1.223750019073486328e+01 -1.981134223937988281e+01 -3.748322725296020508e-01 -5.479104518890380859e-01 -2.768228054046630859e-01 -3.836629688739776611e-01
1.159000000000000000e+03 3.614730119705200195e+00 -1.966548347473144531e+01 -8.032265305519104004e-02 -8.157047629356384277e-02 -4.856793582439422607e-02 -9.513903409242630005e-02
1.160000000000000000e+03 1.263714790344238281e+01 1.928169441223144531e+01 -8.173235654830932617e-01 -9.234969019889831543e-01 -5.222461223602294922e-01 7.012956142425537109e-01
1.161000000000000000e+03 8.943320274353027344e+00 2.050391578674316406e+01 -5.375062823295593262e-01 -2.983666360378265381e-01 -2.507618963718414307e-01 5.229687094688415527e-01
1.162000000000000000e+03 1.972976493835449219e+01 7.738450527191162109e+00 -2.598543465137481689e-01 -1.252598643302917480e+00 -4.537358880043029785e-01 5.508792400360107422e-01
1.163000000000000000e+03 1.964212989807128906e+01 9.377269744873046875e+00 -4.123074412345886230e-01 -1.272855043411254883e+00 -5.055487751960754395e-01 6.245599985122680664e-01
1.164000000000000000e+03 1.378379631042480469e+01 1.830402565002441406e+01 -9.249467253684997559e-01 -1.079240679740905762e+00 -6.012561917304992676e-01 8.089624047279357910e-01
1.165000000000000000e+03 1.399074077606201172e+01 1.643206977844238281e+01 -1.284371256828308105e+00 -1.356019616127014160e+00 -7.921172380447387695e-01 1.252139568328857422e+00
1.166000000000000000e+03 1.717726516723632812e+01 1.179491138458251953e+01 -5.038003325462341309e-01 -1.980144739151000977e+00 -7.451835274696350098e-01 9.300885796546936035e-01
1.167000000000000000e+03 1.672905540466308594e+01 1.502631282806396484e+01 -8.518373370170593262e-01 -1.494436860084533691e+00 -7.038822770118713379e-01 8.621109724044799805e-01
1.168000000000000000e+03 1.982084465026855469e+01 2.174566030502319336e+00 -4.553368315100669861e-02 -6.288703083992004395e-01 -2.023212015628814697e-01 2.494745403528213501e-01
1.169000000000000000e+03 6.297919154167175293e-01 1.622973442077636719e+01 9.744848357513546944e-04 3.941707313060760498e-02 1.211746782064437866e-02 -7.311480119824409485e-03
1.170000000000000000e+03 1.979884910583496094e+01 6.266505718231201172e+00 -1.785825341939926147e-01 -1.131959676742553711e+00 -3.931626677513122559e-01 4.459782838821411133e-01
1.171000000000000000e+03 1.836051940917968750e+01 1.248548507690429688e+01 -5.643931031227111816e-01 -1.514944195747375488e+00 -6.238011717796325684e-01 7.567137479782104492e-01
1.172000000000000000e+03 1.484514427185058594e+01 1.727392387390136719e+01 -9.552181959152221680e-01 -1.290133714675903320e+00 -6.736055612564086914e-01 8.910960555076599121e-01
1.173000000000000000e+03 1.882181930541992188e+01 8.017116189002990723e-01 -3.119895467534661293e-03 -4.327997565269470215e-01 -1.307758986949920654e-01 6.314186006784439087e-02
1.174000000000000000e+03 1.976244926452636719e+01 9.048860073089599609e-01 -2.541585452854633331e-02 -4.666020274162292480e-01 -1.476053595542907715e-01 1.932677030563354492e-01
1.175000000000000000e+03 1.755929946899414062e+01 1.379608917236328125e+01 -7.143179178237915039e-01 -1.540041446685791016e+00 -6.763078570365905762e-01 8.623843193054199219e-01
1.176000000000000000e+03 2.272683334350585938e+01 -1.283707857131958008e+00 -1.541968286037445068e-01 -2.225034832954406738e-01 -1.130100935697555542e-01 3.458971977233886719e-01
1.177000000000000000e+03 1.885505676269531250e+01 -1.750138998031616211e+00 -2.864608773961663246e-03 -1.339561790227890015e-01 -4.104623943567276001e-02 3.790003806352615356e-02
1.178000000000000000e+03 2.906284332275390625e+00 -1.695540046691894531e+01 -1.267366670072078705e-02 -2.190220914781093597e-02 -1.037276256829500198e-02 4.857987631112337112e-03
1.179000000000000000e+03 5.868306756019592285e-01 -1.765922927856445312e+01 -4.211322404444217682e-03 4.798917099833488464e-02 1.313335448503494263e-02 3.585039637982845306e-03
1.180000000000000000e+03 1.259215831756591797e+01 -1.827548599243164062e+01 -6.195843219757080078e-01 -5.342147946357727051e-01 -3.461397588253021240e-01 -4.561643898487091064e-01
1.181000000000000000e+03 1.025866413116455078e+01 -2.528119325637817383e+00 -1.592469925526529551e-05 9.823603613767772913e-05 2.469339960953220725e-05 2.765282115433365107e-04
1.182000000000000000e+03 1.653552627563476562e+01 -1.046220779418945312e+01 -2.575190961360931396e-01 -3.863118290901184082e-01 -1.931492835283279419e-01 -3.265555799007415771e-01
1.183000000000000000e+03 1.759082412719726562e+01 -1.130218029022216797e+01 -4.331347346305847168e-01 -2.368415445089340210e-01 -2.009928822517395020e-01 -4.127005934715270996e-01
1.184000000000000000e+03 1.584751892089843750e+01 -1.165830993652343750e+01 -3.455413281917572021e-01 -5.371576547622680664e-01 -2.648096680641174316e-01 -4.286890625953674316e-01
1.185000000000000000e+03 1.339787769317626953e+01 -1.703551292419433594e+01 -6.577501296997070312e-01 -5.603893995285034180e-01 -3.654418587684631348e-01 -5.597369670867919922e-01
1.186000000000000000e+03 1.693036842346191406e+01 -1.259200382232666016e+01 -5.023134946823120117e-01 -3.175145387649536133e-01 -2.459484189748764038e-01 -4.674372971057891846e-01
1.187000000000000000e+03 1.364106845855712891e+01 -3.803778409957885742e+00 -1.524943363619968295e-04 -2.154512476408854127e-04 -1.103836766560561955e-04 1.144910947914468125e-05
1.188000000000000000e+03 1.604755210876464844e+01 -1.373228168487548828e+01 -5.502560734748840332e-01 -4.264532625675201416e-01 -2.930127978324890137e-01 -4.999562799930572510e-01
1.189000000000000000e+03 1.516053390502929688e+01 -1.484055423736572266e+01 -5.750381946563720703e-01 -5.096611976623535156e-01 -3.254097998142242432e-01 -5.234493017196655273e-01
1.190000000000000000e+03 1.047536563873291016e+01 -9.214218139648437500e+00 -3.732575278263539076e-04 -4.801301693078130484e-04 -2.560163266025483608e-04 2.056103840004652739e-04
1.191000000000000000e+03 9.507684707641601562e+00 -8.711052894592285156e+00 1.136246501118876040e-04 7.698379922658205032e-04 2.650388050824403763e-04 -5.198856233619153500e-04
1.192000000000000000e+03 1.111435794830322266e+01 -6.625888824462890625e+00 6.993175338720902801e-05 2.146415645256638527e-04 8.537199755664914846e-05 -2.527838223613798618e-04
1.193000000000000000e+03 1.035343074798583984e+01 -7.650513648986816406e+00 -1.470647839596495032e-05 -6.094829295761883259e-04 -1.872568245744332671e-04 3.486344357952475548e-04
1.194000000000000000e+03 1.731375217437744141e+00 -1.057897281646728516e+01 4.149400047026574612e-04 7.539651705883443356e-04 3.506715584080666304e-04 1.512726768851280212e-03
1.195000000000000000e+03 8.152819633483886719e+00 -1.268053245544433594e+01 2.045381581410765648e-03 3.942638635635375977e-03 1.796405995264649391e-03 -2.214476233348250389e-03
1.196000000000000000e+03 1.043104267120361328e+01 -4.067464828491210938e+00 -5.411319580161944032e-05 2.780062786769121885e-04 6.716792267980054021e-05 -1.648119214223697782e-04
1.197000000000000000e+03 7.921282958984375000e+01 3.619297790527343750e+01 -4.683972802013158798e-03 9.205630302429199219e+00 2.760283946990966797e+00 -5.489172413945198059e-03
1.198000000000000000e+03 7.785391998291015625e+01 -2.903324317932128906e+01 -2.058513090014457703e-02 8.175217628479003906e+00 2.446389913558959961e+00 -2.049593776464462280e-01
1.199000000000000000e+03 7.932803344726562500e+01 -2.780529022216796875e+01 -2.863175468519330025e-03 8.172169685363769531e+00 2.450791835784912109e+00 -7.843636721372604370e-02
1.200000000000000000e+03 7.707559204101562500e+01 -3.798589706420898438e+01 -5.818078666925430298e-02 8.607652664184570312e+00 2.564841508865356445e+00 -8.375279605388641357e-02
1.201000000000000000e+03 7.901875305175781250e+01 -3.486654281616210938e+01 3.760453080758452415e-03 8.708733558654785156e+00 2.613748073577880859e+00 -4.941717535257339478e-02
1.202000000000000000e+03 7.940824890136718750e+01 -2.085825729370117188e+01 -1.491430331952869892e-03 7.187530994415283203e+00 2.155812025070190430e+00 -1.039630547165870667e-01
1.203000000000000000e+03 7.816709899902343750e+01 -2.489513397216796875e+01 -1.499119028449058533e-02 7.775833606719970703e+00 2.328252792358398438e+00 -2.453473061323165894e-01
1.204000000000000000e+03 7.810634613037109375e+01 -2.626525688171386719e+01 -1.640377752482891083e-02 7.926856040954589844e+00 2.373135805130004883e+00 -2.301042824983596802e-01
1.205000000000000000e+03 7.744850158691406250e+01 -3.187139320373535156e+01 -2.785214968025684357e-02 8.338891029357910156e+00 2.493311643600463867e+00 -1.802690625190734863e-01
1.206000000000000000e+03 7.921434020996093750e+01 -3.060292243957519531e+01 -4.973293282091617584e-03 8.440045356750488281e+00 2.530521392822265625e+00 -6.912307441234588623e-02
1.207000000000000000e+03 7.722865295410156250e+01 -3.335320663452148438e+01 -3.191867843270301819e-02 8.397171974182128906e+00 2.509575843811035156e+00 -1.676968932151794434e-01
1.208000000000000000e+03 7.914601135253906250e+01 -3.900893402099609375e+01 3.128109127283096313e-02 8.774415016174316406e+00 2.641708850860595703e+00 -5.586646497249603271e-03
1.209000000000000000e+03 7.754867553710937500e+01 -3.940681457519531250e+01 -3.593826293945312500e-02 8.716316223144531250e+00 2.604113340377807617e+00 1.160386577248573303e-02
1.210000000000000000e+03 7.797957611083984375e+01 1.543359565734863281e+01 -2.112198062241077423e-02 8.154790878295898438e+00 2.440100908279418945e+00 2.250168919563293457e-01
1.211000000000000000e+03 7.932820129394531250e+01 1.536737155914306641e+01 -2.247420372441411018e-03 8.248836517333984375e+00 2.473976612091064453e+00 8.596854656934738159e-02
1.212000000000000000e+03 7.933904266357421875e+01 2.233012390136718750e+01 -3.757459577172994614e-03 8.839154243469238281e+00 2.650619029998779297e+00 4.730957373976707458e-02
1.213000000000000000e+03 7.790435028076171875e+01 3.213096618652343750e+01 -1.069713477045297623e-02 8.957552909851074219e+00 2.684056758880615234e+00 4.819532856345176697e-02
1.214000000000000000e+03 7.779391479492187500e+01 2.806788444519042969e+01 -5.550597794353961945e-03 8.855036735534667969e+00 2.654845714569091797e+00 7.182627916336059570e-02
1.215000000000000000e+03 7.927429199218750000e+01 2.792823219299316406e+01 4.353170807007700205e-04 9.076463699340820312e+00 2.723069667816162109e+00 3.174360096454620361e-02
1.216000000000000000e+03 7.784606933593750000e+01 2.519621086120605469e+01 -1.211254298686981201e-02 8.766252517700195312e+00 2.626241922378540039e+00 9.512177854776382446e-02
1.217000000000000000e+03 7.794734191894531250e+01 2.376963806152343750e+01 -1.361861359328031540e-02 8.719377517700195312e+00 2.611727714538574219e+00 1.074082180857658386e-01
1.218000000000000000e+03 7.798417663574218750e+01 1.825298881530761719e+01 -1.720727048814296722e-02 8.395169258117675781e+00 2.513388633728027344e+00 1.794955134391784668e-01
1.219000000000000000e+03 7.797046661376953125e+01 1.685010528564453125e+01 -1.778927631676197052e-02 8.281352996826171875e+00 2.479069232940673828e+00 2.010675519704818726e-01
1.220000000000000000e+03 7.799749755859375000e+01 1.401434040069580078e+01 -1.817562989890575409e-02 8.011717796325683594e+00 2.398062705993652344e+00 2.486693263053894043e-01
1.221000000000000000e+03 7.673860168457031250e+01 1.117485618591308594e+01 -3.686588257551193237e-02 7.692479133605957031e+00 2.296684026718139648e+00 4.325307011604309082e-01
1.222000000000000000e+03 7.806099700927734375e+01 9.791449546813964844e+00 -1.237407512962818146e-02 7.507932186126708984e+00 2.248667478561401367e+00 3.010017573833465576e-01
1.223000000000000000e+03 7.935256958007812500e+01 9.772594451904296875e+00 -1.523522543720901012e-03 7.482983112335205078e+00 2.244437932968139648e+00 1.133348122239112854e-01
1.224000000000000000e+03 7.820520019531250000e+01 -1.523682498931884766e+01 1.334989257156848907e-02 6.451670646667480469e+00 1.939506173133850098e+00 -2.801861166954040527e-01
1.225000000000000000e+03 7.940261077880859375e+01 -1.390250492095947266e+01 4.379410762339830399e-03 6.013216972351074219e+00 1.805279016494750977e+00 -9.333179891109466553e-02
1.226000000000000000e+03 7.820498657226562500e+01 -8.271098136901855469e+00 4.272536188364028931e-02 5.794630527496337891e+00 1.751206755638122559e+00 -7.727868854999542236e-02
1.227000000000000000e+03 7.940259552001953125e+01 -6.937686443328857422e+00 9.358860552310943604e-03 5.380708694458007812e+00 1.617020249366760254e+00 -6.366773042827844620e-03
1.228000000000000000e+03 7.940796661376953125e+01 -1.946887969970703125e+01 -7.284909952431917191e-04 6.950576305389404297e+00 2.084954261779785156e+00 -1.068261116743087769e-01
1.229000000000000000e+03 7.822167968750000000e+01 -2.214944648742675781e+01 -1.063400413841009140e-02 7.428319454193115234e+00 2.225305557250976562e+00 -2.739401459693908691e-01
1.230000000000000000e+03 7.817460632324218750e+01 5.205889046192169189e-02 2.776371128857135773e-02 6.161917686462402344e+00 1.856904387474060059e+00 2.437404394149780273e-01
1.231000000000000000e+03 7.938574981689453125e+01 1.412754178047180176e+00 5.286756902933120728e-03 6.063917636871337891e+00 1.820761322975158691e+00 1.024412065744400024e-01
1.232000000000000000e+03 7.684275054931640625e+01 6.976160049438476562e+00 -1.067620515823364258e-02 7.221796989440917969e+00 2.163336277008056641e+00 4.832918345928192139e-01
1.233000000000000000e+03 7.790674591064453125e+01 2.942371177673339844e+01 -9.377205744385719299e-03 8.897792816162109375e+00 2.666524648666381836e+00 6.314495205879211426e-02
1.234000000000000000e+03 7.866063690185546875e+01 4.030605697631835938e+01 -1.373579446226358414e-02 9.101629257202148438e+00 2.726367950439453125e+00 -7.102319598197937012e-02
1.235000000000000000e+03 7.641480255126953125e+01 3.627061462402343750e+01 -2.445293776690959930e-02 8.791063308715820312e+00 2.629983186721801758e+00 -7.392354891635477543e-04
1.236000000000000000e+03 7.622052001953125000e+01 3.490447235107421875e+01 -3.607035800814628601e-02 8.753906250000000000e+00 2.615350723266601562e+00 5.465118959546089172e-02
1.237000000000000000e+03 7.697509002685546875e+01 5.937841534614562988e-02 6.496720016002655029e-02 6.422897815704345703e+00 1.946359515190124512e+00 3.677618503570556641e-01
1.238000000000000000e+03 7.816363525390625000e+01 1.439262747764587402e+00 1.997153274714946747e-02 6.331495761871337891e+00 1.905440211296081543e+00 2.757138311862945557e-01
1.239000000000000000e+03 7.819678497314453125e+01 -4.114522933959960938e+00 4.218624904751777649e-02 5.814193248748779297e+00 1.756913900375366211e+00 9.820127487182617188e-02
1.240000000000000000e+03 7.939615631103515625e+01 -2.763516664505004883e+00 8.348454721271991730e-03 5.539492607116699219e+00 1.664352297782897949e+00 5.693241208791732788e-02
1.241000000000000000e+03 7.820286560058593750e+01 -6.884727478027343750e+00 4.384101554751396179e-02 5.761997222900390625e+00 1.741751432418823242e+00 -1.904284209012985229e-02
1.242000000000000000e+03 7.820783996582031250e+01 -1.105688095092773438e+01 3.465763106942176819e-02 5.971740245819091797e+00 1.801919341087341309e+00 -1.819695085287094116e-01
1.243000000000000000e+03 7.940351867675781250e+01 -9.721529960632324219e+00 8.609008044004440308e-03 5.512710094451904297e+00 1.656395792961120605e+00 -4.762524366378784180e-02
1.244000000000000000e+03 7.820669555664062500e+01 -1.384457969665527344e+01 2.074791118502616882e-02 6.271475315093994141e+00 1.887666940689086914e+00 -2.572453320026397705e-01
1.245000000000000000e+03 7.821710968017578125e+01 -1.801286888122558594e+01 1.385182957164943218e-03 6.840817928314208984e+00 2.052660942077636719e+00 -2.969333529472351074e-01
1.246000000000000000e+03 7.940271759033203125e+01 -1.668752861022949219e+01 1.384408678859472275e-03 6.468521118164062500e+00 1.940971732139587402e+00 -1.061486676335334778e-01
1.247000000000000000e+03 7.822783660888671875e+01 -1.939584350585937500e+01 -3.215700620785355568e-03 7.040307521820068359e+00 2.111127614974975586e+00 -2.938993275165557861e-01
1.248000000000000000e+03 7.627918720245361328e+00 2.005606079101562500e+01 -4.759791791439056396e-01 -6.880916655063629150e-02 -1.634365022182464600e-01 2.731792926788330078e-01
1.249000000000000000e+03 9.003432273864746094e+00 1.886112785339355469e+01 -6.178750991821289062e-01 -1.113224923610687256e-01 -2.187592834234237671e-01 2.387900650501251221e-01
1.250000000000000000e+03 1.342787861824035645e+00 -4.004845428466796875e+01 1.353518385440111160e-02 -9.415658116340637207e-01 -2.784091830253601074e-01 6.564950570464134216e-03
1.251000000000000000e+03 7.145515680313110352e-01 3.742955017089843750e+01 1.451049465686082840e-02 -1.005244493484497070e+00 -2.972202003002166748e-01 9.677534922957420349e-03
1.252000000000000000e+03 7.238440513610839844e-01 3.467219161987304688e+01 9.127704426646232605e-03 -9.168506264686584473e-01 -2.723168730735778809e-01 3.078417666256427765e-02
1.253000000000000000e+03 7.312882542610168457e-01 3.327465057373046875e+01 3.358606714755296707e-03 -8.459451794624328613e-01 -2.527759671211242676e-01 4.309460520744323730e-02
1.254000000000000000e+03 6.317455172538757324e-01 2.763050651550292969e+01 2.060878323391079903e-03 -4.170652925968170166e-01 -1.245013251900672913e-01 5.453040450811386108e-02
1.255000000000000000e+03 6.217887401580810547e-01 2.622087669372558594e+01 -1.612782827578485012e-03 -2.922823429107666016e-01 -8.816853910684585571e-02 5.514503270387649536e-02
1.256000000000000000e+03 5.906748771667480469e-01 -3.600167846679687500e+01 2.655076794326305389e-03 -9.258122444152832031e-01 -2.769471406936645508e-01 -1.005133148282766342e-02
1.257000000000000000e+03 2.392794370651245117e+00 -3.323574066162109375e+01 2.315782569348812103e-02 -7.230333089828491211e-01 -2.099626511335372925e-01 -1.045155227184295654e-01
1.258000000000000000e+03 3.045631170272827148e+00 2.618264579772949219e+01 -1.329068932682275772e-02 -3.634496629238128662e-01 -1.130221039056777954e-01 2.234725654125213623e-01
1.259000000000000000e+03 3.058233737945556641e+00 2.483144950866699219e+01 -2.252275124192237854e-02 -2.906181514263153076e-01 -9.394226968288421631e-02 2.142346650362014771e-01
1.260000000000000000e+03 2.233030080795288086e+00 3.321276855468750000e+01 2.313661389052867889e-02 -7.671556472778320312e-01 -2.232057154178619385e-01 1.223853528499603271e-01
1.261000000000000000e+03 3.231687307357788086e+00 3.921195602416992188e+01 2.737135998904705048e-02 -9.459694027900695801e-01 -2.755794227123260498e-01 5.300941318273544312e-02
1.262000000000000000e+03 2.182341814041137695e+00 -3.033458709716796875e+01 1.729005202651023865e-02 -6.003058552742004395e-01 -1.749047487974166870e-01 -1.328752338886260986e-01
1.263000000000000000e+03 2.018525123596191406e+00 -2.753393554687500000e+01 7.495912257581949234e-03 -4.432530999183654785e-01 -1.307271569967269897e-01 -1.441829502582550049e-01
1.264000000000000000e+03 2.321909904479980469e+00 -3.657164764404296875e+01 2.045722305774688721e-02 -8.376163244247436523e-01 -2.451477348804473877e-01 -5.924486368894577026e-02
1.265000000000000000e+03 5.341262817382812500e+00 -1.760433959960937500e+01 -9.055802226066589355e-02 -3.880664333701133728e-02 -3.880940005183219910e-02 -5.473888479173183441e-03
1.266000000000000000e+03 5.963172912597656250e-01 2.052733421325683594e+01 -6.143525242805480957e-03 4.351720586419105530e-02 1.121210493147373199e-02 1.006207335740327835e-02
1.267000000000000000e+03 6.299323439598083496e-01 1.909995841979980469e+01 -1.973074860870838165e-03 5.629474297165870667e-02 1.629650034010410309e-02 5.011204630136489868e-04
1.268000000000000000e+03 6.288675069808959961e-01 1.481684970855712891e+01 1.216876917169429362e-04 2.438539452850818634e-02 7.352124433964490891e-03 -5.874333437532186508e-03
1.269000000000000000e+03 6.152093410491943359e-01 1.341659164428710938e+01 1.726663787849247456e-03 1.279146969318389893e-02 4.355439916253089905e-03 -4.112985916435718536e-03
1.270000000000000000e+03 4.999153017997741699e-01 7.813394069671630859e+00 -4.045863897772505879e-05 -1.157349979621358216e-04 -4.685809108195826411e-05 -1.983135880436748266e-04
1.271000000000000000e+03 5.958988666534423828e-01 -1.908313179016113281e+01 -3.840578021481633186e-03 4.395436868071556091e-02 1.203413680195808411e-02 -5.792047362774610519e-03
1.272000000000000000e+03 1.667792797088623047e+00 -9.217905044555664062e+00 1.072459854185581207e-03 1.808566739782691002e-04 3.759949759114533663e-04 8.405501139350235462e-04
1.273000000000000000e+03 4.965766429901123047e+00 -4.030279159545898438e+01 4.597433656454086304e-02 -7.491561770439147949e-01 -2.109545469284057617e-01 -5.947136133909225464e-02
1.274000000000000000e+03 3.457366228103637695e+00 -3.909830093383789062e+01 2.913301065564155579e-02 -8.585715889930725098e-01 -2.488315701484680176e-01 -5.406930297613143921e-02
1.275000000000000000e+03 4.717647075653076172e+00 -3.613790512084960938e+01 6.300646811723709106e-02 -7.032504081726074219e-01 -1.920731812715530396e-01 -1.252305060625076294e-01
1.276000000000000000e+03 1.629420995712280273e+00 -3.537097930908203125e+01 1.627024635672569275e-02 -8.268492817878723145e-01 -2.431737184524536133e-01 -5.016432702541351318e-02
1.277000000000000000e+03 2.294153690338134766e+00 -3.176976966857910156e+01 1.006842684000730515e-02 -6.654678583145141602e-01 -1.966198235750198364e-01 -1.206512972712516785e-01
1.278000000000000000e+03 3.358691930770874023e+00 -2.745302391052246094e+01 5.477684084326028824e-03 -4.408611953258514404e-01 -1.306150555610656738e-01 -2.163994014263153076e-01
1.279000000000000000e+03 1.966508030891418457e+00 -2.468915748596191406e+01 -6.363550666719675064e-03 -2.675371766090393066e-01 -8.217022567987442017e-02 -1.324334442615509033e-01
1.280000000000000000e+03 1.988082647323608398e+00 -2.612835311889648438e+01 -7.160222623497247696e-03 -3.543430268764495850e-01 -1.084509789943695068e-01 -1.448457390069961548e-01
1.281000000000000000e+03 5.853447914123535156e-01 -2.050810623168945312e+01 -6.761975120753049850e-03 1.210607029497623444e-02 1.603228505700826645e-03 -1.897374354302883148e-02
1.282000000000000000e+03 2.922924280166625977e+00 -2.155733299255371094e+01 -4.838826134800910950e-02 -1.321413516998291016e-01 -5.415888130664825439e-02 -1.332140117883682251e-01
1.283000000000000000e+03 1.657548189163208008e+00 -1.603337287902832031e+01 1.289655687287449837e-03 6.928991060703992844e-03 2.465593861415982246e-03 1.309199165552854538e-02
1.284000000000000000e+03 1.743691802024841309e+00 -1.195975112915039062e+01 2.787500387057662010e-03 1.580159994773566723e-03 1.310298102907836437e-03 3.789126640185713768e-03
1.285000000000000000e+03 5.699316263198852539e-01 -1.205453586578369141e+01 -6.876991828903555870e-04 4.360138438642024994e-03 1.101731788367033005e-03 1.491321134380996227e-03
1.286000000000000000e+03 8.604091644287109375e+00 -9.835838317871093750e+00 1.160735973826376721e-05 -1.104292692616581917e-03 -3.278056101407855749e-04 5.262436461634933949e-04
1.287000000000000000e+03 5.367302894592285156e+00 -3.490982770919799805e+00 -1.138946299761300907e-05 1.597708323970437050e-04 4.451441054698079824e-05 2.527345495764166117e-04
1.288000000000000000e+03 3.705487012863159180e+00 -2.914028406143188477e+00 -8.563487790524959564e-05 -9.073509318113792688e-06 -2.841251625795848668e-05 -2.224183554062619805e-04
1.289000000000000000e+03 2.919385671615600586e+00 -3.093708276748657227e+00 1.130252203438431025e-04 2.494834916433319449e-05 4.139207158004865050e-05 9.651836444390937686e-05
1.290000000000000000e+03 1.353538632392883301e+00 -3.366030454635620117e+00 5.528855035663582385e-05 8.067058661254122853e-05 4.078774145455099642e-05 8.185226033674553037e-05
1.291000000000000000e+03 4.426316618919372559e-01 5.051468849182128906e+00 -2.803051611408591270e-04 -3.409125783946365118e-04 -1.863653160398826003e-04 -1.055554967024363577e-04
1.292000000000000000e+03 3.177314043045043945e+00 3.654357433319091797e+00 -2.257962332805618644e-04 -3.287707804702222347e-04 -1.663700968492776155e-04 1.033824883052147925e-04
1.293000000000000000e+03 1.648378252983093262e+00 1.043288421630859375e+01 1.753687276504933834e-03 1.209742506034672260e-03 8.890288881957530975e-04 -1.545581500977277756e-03
1.294000000000000000e+03 5.490642786026000977e-01 1.061166667938232422e+01 6.168243708088994026e-04 1.956803258508443832e-03 7.720882422290742397e-04 -1.073097344487905502e-03
1.295000000000000000e+03 1.879359126091003418e+00 1.319225978851318359e+01 4.322437103837728500e-03 3.115868894383311272e-03 2.231491729617118835e-03 -8.048948831856250763e-03
1.296000000000000000e+03 1.910842776298522949e+00 1.458496093750000000e+01 3.734808648005127907e-03 4.077296704053878784e-03 2.343631582334637642e-03 -1.272211410105228424e-02
1.297000000000000000e+03 1.882115721702575684e+00 1.601100921630859375e+01 8.942368440330028534e-04 5.696541164070367813e-03 1.977233448997139931e-03 -1.475600432604551315e-02
1.298000000000000000e+03 1.860387444496154785e+00 2.476489067077636719e+01 -1.983406394720077515e-02 -2.371231764554977417e-01 -7.708717137575149536e-02 1.408642679452896118e-01
1.299000000000000000e+03 9.332999229431152344e+00 1.098988151550292969e+01 -1.313843240495771170e-04 4.339229781180620193e-03 1.262353616766631603e-03 1.437503262422978878e-03
1.300000000000000000e+03 1.244469833374023438e+01 8.446554183959960938e+00 2.017884049564599991e-03 1.661137794144451618e-03 1.103706541471183300e-03 1.720028929412364960e-03
1.301000000000000000e+03 1.467769145965576172e+01 4.923094272613525391e+00 1.464142114855349064e-03 -5.595339825958944857e-05 4.224566218908876181e-04 1.972217141883447766e-04
1.302000000000000000e+03 1.182109642028808594e+01 2.565961837768554688e+00 6.963364430703222752e-04 3.426743205636739731e-05 2.191811654483899474e-04 3.654963802546262741e-04
1.303000000000000000e+03 1.038661956787109375e+01 1.339405727386474609e+01 -5.454505328088998795e-03 -2.858734689652919769e-03 -2.493971958756446838e-03 -4.420946352183818817e-03
1.304000000000000000e+03 8.451004028320312500e+00 1.029783153533935547e+01 1.004427438601851463e-03 -5.960604175925254822e-04 1.225101004820317030e-04 1.078517641872167587e-03
1.305000000000000000e+03 8.439053535461425781e+00 1.382149505615234375e+01 -2.941041719168424606e-03 7.241428364068269730e-03 1.290115993469953537e-03 -3.543975064530968666e-03
1.306000000000000000e+03 1.177045631408691406e+01 3.348879814147949219e+00 -9.712163009680807590e-04 -1.770363451214507222e-04 -3.444757894612848759e-04 -9.340891847386956215e-04
1.307000000000000000e+03 7.197091102600097656e+00 -1.236348056793212891e+01 -7.262897561304271221e-04 9.326701983809471130e-04 6.191414286149665713e-05 1.660000998526811600e-03
1.308000000000000000e+03 7.705947875976562500e+00 -1.109953403472900391e+01 -3.186013491358608007e-04 3.702299669384956360e-03 1.015109475702047348e-03 -1.520059653557837009e-03
1.309000000000000000e+03 5.163262557983398438e+01 -8.089382171630859375e+00 3.214846372604370117e+00 4.513208866119384766e+00 2.318416595458984375e+00 4.930438041687011719e+00
1.310000000000000000e+03 5.119320678710937500e+01 -8.112223625183105469e+00 2.463189840316772461e+00 2.845015525817871094e+00 1.592461705207824707e+00 3.739678382873535156e+00
1.311000000000000000e+03 5.146928787231445312e+01 -8.544760704040527344e+00 2.512428045272827148e+00 4.831794738769531250e+00 2.203266859054565430e+00 4.778066158294677734e+00
1.312000000000000000e+03 5.227569198608398438e+01 -8.338626861572265625e+00 2.555428981781005859e+00 9.322971343994140625e+00 3.563519954681396484e+00 6.267045021057128906e+00
1.313000000000000000e+03 5.267602920532226562e+01 -8.331768035888671875e+00 1.911165237426757812e+00 1.270925140380859375e+01 4.386125087738037109e+00 6.211616516113281250e+00
1.314000000000000000e+03 5.303791046142578125e+01 -8.031202316284179688e+00 1.721021533012390137e+00 1.685316085815429688e+01 5.572254657745361328e+00 5.697793483734130859e+00
1.315000000000000000e+03 5.138927459716796875e+01 -4.736183166503906250e+00 3.013996839523315430e+00 3.238386154174804688e+00 1.875714898109436035e+00 -4.216485500335693359e+00
1.316000000000000000e+03 5.020396423339843750e+01 -4.770409584045410156e+00 1.101121783256530762e+00 1.012048602104187012e+00 6.339511275291442871e-01 -1.854909181594848633e+00
1.317000000000000000e+03 5.177787780761718750e+01 -4.752868652343750000e+00 3.297060251235961914e+00 5.105006694793701172e+00 2.520620107650756836e+00 -5.271685600280761719e+00
1.318000000000000000e+03 5.226270294189453125e+01 -4.289602279663085938e+00 2.313439130783081055e+00 9.335397720336914062e+00 3.494650840759277344e+00 -6.075549602508544922e+00
1.319000000000000000e+03 5.182242202758789062e+01 -4.315942287445068359e+00 2.786416769027709961e+00 6.432481765747070312e+00 2.765669584274291992e+00 -5.512264251708984375e+00
1.320000000000000000e+03 5.307099151611328125e+01 -8.302616119384765625e+00 1.217042207717895508e+00 1.586237239837646484e+01 5.123824119567871094e+00 5.249588012695312500e+00
1.321000000000000000e+03 5.514288330078125000e+01 -6.744359970092773438e+00 9.567004203796386719e+00 1.522824382781982422e+01 7.438574314117431641e+00 -1.132881402969360352e+00
1.322000000000000000e+03 5.521473693847656250e+01 -6.481060981750488281e+00 9.727808952331542969e+00 1.483844661712646484e+01 7.369876384735107422e+00 -2.592138648033142090e-01
1.323000000000000000e+03 5.501125717163085938e+01 -5.626602649688720703e+00 8.363584518432617188e+00 1.610422706604003906e+01 7.340343475341796875e+00 2.084578037261962891e+00
1.324000000000000000e+03 5.372301864624023438e+01 -4.042842388153076172e+00 7.949299216270446777e-01 1.666822624206542969e+01 5.238946437835693359e+00 -2.392938852310180664e+00
1.325000000000000000e+03 5.330417251586914062e+01 -4.500301837921142578e+00 1.131191849708557129e+00 1.732884025573730469e+01 5.538009643554687500e+00 -4.227498531341552734e+00
1.326000000000000000e+03 5.380276870727539062e+01 -8.256662368774414062e+00 1.376950740814208984e+00 1.887006759643554688e+01 6.074105739593505859e+00 1.676101803779602051e+00
1.327000000000000000e+03 5.448426437377929688e+01 -5.469043731689453125e+00 7.594399452209472656e+00 1.887787818908691406e+01 7.941683292388916016e+00 2.664987564086914062e+00
1.328000000000000000e+03 5.393806076049804688e+01 -8.507608413696289062e+00 1.183226704597473145e+00 1.760351753234863281e+01 5.636023521423339844e+00 1.403404831886291504e+00
1.329000000000000000e+03 5.344313049316406250e+01 -8.532684326171875000e+00 7.977327108383178711e-01 1.666457366943359375e+01 5.238691806793212891e+00 3.406813621520996094e+00
1.330000000000000000e+03 4.883435821533203125e+01 -8.737083435058593750e+00 2.357691973447799683e-01 6.986553072929382324e-01 2.803273499011993408e-01 1.314748644828796387e+00
1.331000000000000000e+03 5.034766387939453125e+01 -4.645699024200439453e+00 1.365936756134033203e+00 1.126500964164733887e+00 7.477313280105590820e-01 -2.114589929580688477e+00
1.332000000000000000e+03 4.808753204345703125e+01 -3.655864477157592773e+00 2.118599265813827515e-01 6.697448492050170898e-01 2.644814252853393555e-01 -1.151044368743896484e+00
1.333000000000000000e+03 4.929843521118164062e+01 -3.673647880554199219e+00 1.033045053482055664e+00 1.331652998924255371e+00 7.094094157218933105e-01 -2.014976024627685547e+00
1.334000000000000000e+03 4.745278167724609375e+01 -3.656412124633789062e+00 -1.100999414920806885e-01 4.676865041255950928e-01 1.072759702801704407e-01 -8.443416357040405273e-01
1.335000000000000000e+03 5.034421539306640625e+01 -4.352947711944580078e+00 1.594105839729309082e+00 1.618664503097534180e+00 9.638311266899108887e-01 -2.539364814758300781e+00
1.336000000000000000e+03 4.808853530883789062e+01 -3.136493206024169922e+00 5.618039369583129883e-01 9.642046689987182617e-01 4.578025639057159424e-01 -1.441415548324584961e+00
1.337000000000000000e+03 2.105667495727539062e+01 -1.637478232383728027e+00 -7.087178528308868408e-02 -2.192800045013427734e-01 -8.704553544521331787e-02 2.121059745550155640e-01
1.338000000000000000e+03 2.068881225585937500e+01 -2.376381635665893555e+00 -5.825576931238174438e-02 -1.697318702936172485e-01 -6.839629262685775757e-02 1.585808247327804565e-01
1.339000000000000000e+03 2.491422843933105469e+01 -3.349584341049194336e+00 -3.171228170394897461e-01 -7.722242921590805054e-02 -1.183035746216773987e-01 3.164067566394805908e-01
1.340000000000000000e+03 1.775653076171875000e+01 -8.453297615051269531e+00 -1.669123321771621704e-01 -1.292936205863952637e-01 -8.886178582906723022e-02 -1.595544219017028809e-01
1.341000000000000000e+03 3.045561408996582031e+01 -4.271533489227294922e+00 -8.418476581573486328e-01 9.297574870288372040e-03 -2.497650235891342163e-01 3.165173232555389404e-01
1.342000000000000000e+03 2.772364997863769531e+01 -3.564112663269042969e+00 -5.439562201499938965e-01 -2.408412471413612366e-02 -1.704121083021163940e-01 3.636026680469512939e-01
1.343000000000000000e+03 3.898868560791015625e+00 2.703030109405517578e+00 -2.008783485507592559e-04 -3.924564807675778866e-04 -1.780004386091604829e-04 6.996130105108022690e-05
1.344000000000000000e+03 4.607434749603271484e+00 2.650089025497436523e+00 1.048188933054916561e-04 5.402207025326788425e-04 1.935118780238553882e-04 1.348649238934740424e-04
1.345000000000000000e+03 6.015394687652587891e+00 2.585811853408813477e+00 4.847496893489733338e-05 7.062128279358148575e-04 2.264063514303416014e-04 2.765117678791284561e-04
1.346000000000000000e+03 5.292747974395751953e+00 3.343420743942260742e+00 1.524164108559489250e-04 6.465877522714436054e-04 2.397012576693668962e-04 2.356963814236223698e-04
1.347000000000000000e+03 5.970577716827392578e+00 3.317694664001464844e+00 -9.120996401179581881e-05 -6.451050867326557636e-04 -2.208945079473778605e-04 -2.122704754583537579e-04
1.348000000000000000e+03 1.029273128509521484e+01 2.592833042144775391e+00 4.094385076314210892e-04 4.928802372887730598e-04 2.706956292968243361e-04 6.000350113026797771e-04
1.349000000000000000e+03 7.334849834442138672e+00 3.314645528793334961e+00 -3.972761987824924290e-05 -9.176333551295101643e-04 -2.872082986868917942e-04 -4.617855593096464872e-04
1.350000000000000000e+03 6.648708343505859375e+00 3.313225507736206055e+00 8.664716006023809314e-05 9.055453119799494743e-04 2.976577379740774632e-04 3.326738951727747917e-04
1.351000000000000000e+03 4.613619804382324219e+00 3.425495624542236328e+00 -1.365283242193982005e-04 -4.347447829786688089e-04 -1.713819365249946713e-04 -4.447095125215128064e-05
1.352000000000000000e+03 1.867999315261840820e+00 2.669012069702148438e+00 1.923074596561491489e-04 2.175887493649497628e-04 1.229688641615211964e-04 2.892542979680001736e-04
1.353000000000000000e+03 1.019097995758056641e+01 3.360396862030029297e+00 -4.521231167018413544e-04 -7.458148756995797157e-04 -3.593814035411924124e-04 -9.152889833785593510e-04
1.354000000000000000e+03 2.353940773010253906e+01 -3.119222640991210938e+00 -2.188642323017120361e-01 -1.094191446900367737e-01 -9.848501533269882202e-02 2.783114016056060791e-01
1.355000000000000000e+03 2.541153526306152344e+01 -4.114932537078857422e+00 -3.683991730213165283e-01 -4.666650295257568359e-02 -1.245196983218193054e-01 2.717382311820983887e-01
1.356000000000000000e+03 2.631829071044921875e+01 -3.499391794204711914e+00 -4.278232157230377197e-01 -4.795523360371589661e-02 -1.427335441112518311e-01 3.438717722892761230e-01
1.357000000000000000e+03 2.285230255126953125e+01 -2.972809076309204102e+00 -1.751197725534439087e-01 -1.255195140838623047e-01 -9.019178152084350586e-02 2.539738714694976807e-01
1.358000000000000000e+03 2.215463447570800781e+01 -2.808220386505126953e+00 -1.331890821456909180e-01 -1.403106600046157837e-01 -8.204992115497589111e-02 2.258029431104660034e-01
1.359000000000000000e+03 9.565174102783203125e+00 -2.499172449111938477e+00 -4.105612970306538045e-05 -1.017889080685563385e-04 -4.285351315047591925e-05 -2.037971571553498507e-04
1.360000000000000000e+03 2.143852806091308594e+01 -2.620541334152221680e+00 -9.626954793930053711e-02 -1.532384902238845825e-01 -7.485240697860717773e-02 1.944548487663269043e-01
1.361000000000000000e+03 2.827338027954101562e+01 -4.258152961730957031e+00 -6.287843585014343262e-01 -9.248569607734680176e-03 -1.914098709821701050e-01 3.083404302597045898e-01
1.362000000000000000e+03 2.915052223205566406e+01 -3.585561037063598633e+00 -6.638772487640380859e-01 -4.788410849869251251e-03 -2.005997002124786377e-01 3.755049109458923340e-01
1.363000000000000000e+03 2.929649543762207031e+01 -2.907257795333862305e+00 -6.239725947380065918e-01 -6.223108153790235519e-03 -1.890587210655212402e-01 4.288523793220520020e-01
1.364000000000000000e+03 3.119122314453125000e+01 -4.266223907470703125e+00 -9.145445227622985840e-01 1.323792152106761932e-02 -2.703919708728790283e-01 3.162145018577575684e-01
1.365000000000000000e+03 3.206252670288085938e+01 -3.572275876998901367e+00 -9.053082466125488281e-01 2.117013558745384216e-02 -2.652414441108703613e-01 3.754536509513854980e-01
1.366000000000000000e+03 1.157752704620361328e+01 -3.562940835952758789e+00 3.655927866930142045e-05 -1.303090830333530903e-04 -2.812494130921550095e-05 -1.367941731587052345e-04
1.367000000000000000e+03 1.096734523773193359e+01 -2.637914180755615234e+00 3.203644882887601852e-05 -1.635927910683676600e-04 -3.946690412703901529e-05 -1.285817706957459450e-04
1.368000000000000000e+03 1.125298118591308594e+01 -4.393467903137207031e+00 3.220219514332711697e-05 -1.628622994758188725e-04 -3.919803202734328806e-05 2.312264114152640104e-04
1.369000000000000000e+03 4.605670928955078125e+01 -9.549189567565917969e+00 -6.076614856719970703e-01 3.512629866600036621e-01 -7.691955566406250000e-02 5.533917546272277832e-01
1.370000000000000000e+03 4.380867767333984375e+01 -9.012913703918457031e+00 -1.555394291877746582e+00 9.416168928146362305e-02 -4.383697807788848877e-01 3.791081160306930542e-02
1.371000000000000000e+03 4.603213882446289062e+01 -8.901047706604003906e+00 -1.119147896766662598e+00 1.948687136173248291e-01 -2.772837281227111816e-01 3.133894801139831543e-01
1.372000000000000000e+03 4.677656173706054688e+01 -9.480893135070800781e+00 -3.699914515018463135e-01 4.519473016262054443e-01 2.458675950765609741e-02 7.411587834358215332e-01
1.373000000000000000e+03 1.257787513732910156e+01 -2.804504632949829102e+00 -9.314998897025361657e-05 -1.739990839269012213e-04 -8.014472405193373561e-05 2.476049303368199617e-05
1.374000000000000000e+03 4.233890151977539062e+01 -9.767050743103027344e+00 -1.309690475463867188e+00 1.125685721635818481e-01 -3.591365516185760498e-01 8.082379586994647980e-03
1.375000000000000000e+03 4.082256317138671875e+01 -9.105902671813964844e+00 -1.781522512435913086e+00 3.385367989540100098e-02 -5.243006348609924316e-01 -1.390486806631088257e-01
1.376000000000000000e+03 3.353944778442382812e+01 -3.539865493774414062e+00 -1.017008781433105469e+00 2.952596545219421387e-02 -2.962448596954345703e-01 3.649214208126068115e-01
1.377000000000000000e+03 3.415495681762695312e+01 -4.209516525268554688e+00 -1.195515155792236328e+00 2.392662130296230316e-02 -3.514765799045562744e-01 3.009255528450012207e-01
1.378000000000000000e+03 3.502750396728515625e+01 -3.501591682434082031e+00 -1.116907238960266113e+00 3.601181134581565857e-02 -3.242686390876770020e-01 3.460536599159240723e-01
1.379000000000000000e+03 4.009692001342773438e+01 -9.835203170776367188e+00 -1.471381783485412598e+00 5.397467315196990967e-02 -4.252221584320068359e-01 -1.328588873147964478e-01
1.380000000000000000e+03 3.782535552978515625e+01 -9.198298454284667969e+00 -1.787131428718566895e+00 7.699964102357625961e-03 -5.338294506072998047e-01 -2.186866104602813721e-01
1.381000000000000000e+03 4.529507446289062500e+01 -8.944168090820312500e+00 -1.300621509552001953e+00 1.532394587993621826e-01 -3.442146182060241699e-01 2.031593024730682373e-01
1.382000000000000000e+03 4.386420822143554688e+01 -1.041161632537841797e+01 -7.190490365028381348e-01 2.895877361297607422e-01 -1.288384050130844116e-01 3.158773779869079590e-01
1.383000000000000000e+03 4.383609771728515625e+01 -9.704765319824218750e+00 -1.109875440597534180e+00 1.769879907369613647e-01 -2.798662483692169189e-01 1.632175594568252563e-01
1.384000000000000000e+03 4.159278106689453125e+01 -9.789202690124511719e+00 -1.380253434181213379e+00 8.735488355159759521e-02 -3.878695666790008545e-01 -4.856962338089942932e-02
1.385000000000000000e+03 4.749131011962890625e+01 -1.003468608856201172e+01 2.853471040725708008e-01 9.110459685325622559e-01 3.589179217815399170e-01 1.313230395317077637e+00
1.386000000000000000e+03 4.813607788085937500e+01 -9.342617034912109375e+00 2.492223680019378662e-01 7.930695414543151855e-01 3.126875758171081543e-01 1.300847768783569336e+00
1.387000000000000000e+03 3.863576889038085938e+01 -1.133492279052734375e+01 -9.826583266258239746e-01 1.050254330039024353e-01 -2.632898688316345215e-01 -1.264737844467163086e-01
1.388000000000000000e+03 3.859866333007812500e+01 -9.885725021362304688e+00 -1.509727001190185547e+00 3.326451405882835388e-02 -4.429387450218200684e-01 -1.923511475324630737e-01
1.389000000000000000e+03 3.789068222045898438e+01 -4.113925933837890625e+00 -1.476757287979125977e+00 2.942543104290962219e-02 -4.341995716094970703e-01 2.487845867872238159e-01
1.390000000000000000e+03 3.514963150024414062e+01 -2.806983947753906250e+00 -9.718227982521057129e-01 5.166190117597579956e-02 -2.760482728481292725e-01 3.825071752071380615e-01
1.391000000000000000e+03 3.556988906860351562e+01 -9.267477989196777344e+00 -1.709826350212097168e+00 -2.727049402892589569e-03 -5.137659907341003418e-01 -2.520858645439147949e-01
1.392000000000000000e+03 3.710277938842773438e+01 -1.067972087860107422e+01 -1.260350465774536133e+00 4.387379437685012817e-02 -3.649429976940155029e-01 -2.294646799564361572e-01
1.393000000000000000e+03 3.709076690673828125e+01 -9.944604873657226562e+00 -1.507424592971801758e+00 1.808991469442844391e-02 -4.468004107475280762e-01 -2.378554791212081909e-01
1.394000000000000000e+03 3.786227035522460938e+01 -1.064004802703857422e+01 -1.253193020820617676e+00 5.259915068745613098e-02 -3.601781725883483887e-01 -1.994661390781402588e-01
1.395000000000000000e+03 3.951868820190429688e+01 -3.410764694213867188e+00 -1.279740095138549805e+00 5.456344038248062134e-02 -3.675529956817626953e-01 2.249567210674285889e-01
1.396000000000000000e+03 4.089261245727539062e+01 -4.062929630279541016e+00 -1.577123522758483887e+00 3.918716683983802795e-02 -4.613808989524841309e-01 1.652081459760665894e-01
1.397000000000000000e+03 4.164157485961914062e+01 -4.059086799621582031e+00 -1.574404120445251465e+00 4.119037836790084839e-02 -4.599640965461730957e-01 1.337295174598693848e-01
1.398000000000000000e+03 4.101858520507812500e+01 -3.402868032455444336e+00 -1.260058164596557617e+00 6.863010674715042114e-02 -3.574284315109252930e-01 1.508841812610626221e-01
1.399000000000000000e+03 4.398128128051757812e+01 -3.480949878692626953e+00 -1.051228165626525879e+00 1.305833905935287476e-01 -2.761934399604797363e-01 -8.878599107265472412e-02
1.400000000000000000e+03 4.251409149169921875e+01 -3.418065071105957031e+00 -1.186488151550292969e+00 9.391388297080993652e-02 -3.277722895145416260e-01 4.775850474834442139e-02
1.401000000000000000e+03 4.325234222412109375e+01 -3.442141771316528320e+00 -1.123175263404846191e+00 1.139158234000205994e-01 -3.027778267860412598e-01 -1.934817992150783539e-02
1.402000000000000000e+03 4.541400527954101562e+01 -3.577078819274902344e+00 -8.232655525207519531e-01 2.025005519390106201e-01 -1.862294971942901611e-01 -2.939272522926330566e-01
1.403000000000000000e+03 4.470265579223632812e+01 -3.528944969177246094e+00 -9.530180096626281738e-01 1.698192954063415527e-01 -2.349596172571182251e-01 -1.843661069869995117e-01
1.404000000000000000e+03 3.876716995239257812e+01 -3.420683383941650391e+00 -1.273044943809509277e+00 5.165967717766761780e-02 -3.664155900478363037e-01 2.541008293628692627e-01
1.405000000000000000e+03 4.610953903198242188e+01 -3.618848562240600586e+00 -6.399822831153869629e-01 2.622704207897186279e-01 -1.133135557174682617e-01 -4.401829838752746582e-01
1.406000000000000000e+03 3.407333755493164062e+01 -1.002515506744384766e+01 -1.431531667709350586e+00 -1.071610837243497372e-03 -4.297809898853302002e-01 -2.983336746692657471e-01
1.407000000000000000e+03 3.179346084594726562e+01 -9.347537040710449219e+00 -1.486861944198608398e+00 -1.607388630509376526e-02 -4.508807659149169922e-01 -2.833686470985412598e-01
1.408000000000000000e+03 3.331806182861328125e+01 -1.003704738616943359e+01 -1.397819995880126953e+00 -3.768059890717267990e-03 -4.204764068126678467e-01 -3.088704049587249756e-01
1.409000000000000000e+03 3.255897140502929688e+01 -1.005096054077148438e+01 -1.362552165985107422e+00 -8.389984257519245148e-03 -4.112826287746429443e-01 -3.186103701591491699e-01
1.410000000000000000e+03 3.482643890380859375e+01 -1.001214408874511719e+01 -1.456073760986328125e+00 3.970907535403966904e-03 -4.356308579444885254e-01 -2.849567830562591553e-01
1.411000000000000000e+03 4.176817703247070312e+01 -3.406423568725585938e+00 -1.229606509208679199e+00 8.402151614427566528e-02 -3.436755239963531494e-01 1.036136671900749207e-01
1.412000000000000000e+03 1.356238079071044922e+01 5.002902507781982422e+00 -1.371780643239617348e-03 -4.119757795706391335e-04 -5.351268919184803963e-04 -8.983481675386428833e-04
1.413000000000000000e+03 9.442748069763183594e+00 3.349197387695312500e+00 3.416791150812059641e-04 9.807840688154101372e-04 3.967389639001339674e-04 7.398712914437055588e-04
1.414000000000000000e+03 1.261539459228515625e+01 4.104504585266113281e+00 -1.337800524197518826e-03 -1.618252426851540804e-04 -4.498877096921205521e-04 -1.199721591547131538e-03
1.415000000000000000e+03 1.258615303039550781e+01 3.295694589614868164e+00 1.288401079364120960e-03 -4.114910261705517769e-04 2.630730159580707550e-04 4.548221768345683813e-04
1.416000000000000000e+03 3.028594779968261719e+01 -1.008142757415771484e+01 -1.229142785072326660e+00 -1.209283061325550079e-02 -3.723706901073455811e-01 -3.405511975288391113e-01
1.417000000000000000e+03 3.104155349731445312e+01 -1.007454872131347656e+01 -1.276035189628601074e+00 -1.326160877943038940e-02 -3.867890536785125732e-01 -3.341104090213775635e-01
1.418000000000000000e+03 2.952631950378417969e+01 -1.008453369140625000e+01 -1.179092168807983398e+00 -1.159950066357851028e-02 -3.572075068950653076e-01 -3.470517694950103760e-01
1.419000000000000000e+03 9.322641372680664062e+00 4.142610549926757812e+00 -2.548652410041540861e-04 -1.174599980004131794e-03 -4.288395575713366270e-04 -8.322011562995612621e-04
1.420000000000000000e+03 1.938876342773437500e+01 -8.569531440734863281e+00 -3.269827961921691895e-01 -3.772809728980064392e-02 -1.094132736325263977e-01 -2.304040640592575073e-01
1.421000000000000000e+03 6.746682643890380859e+00 -3.330721378326416016e+00 2.235129250038880855e-05 7.872062269598245621e-05 3.032157474081031978e-05 2.815703919623047113e-04
1.422000000000000000e+03 2.570887327194213867e+00 -6.623768329620361328e+00 -1.438014296581968665e-04 3.407570693525485694e-05 -3.291771645308472216e-05 -2.285304944962263107e-04
1.423000000000000000e+03 7.471838951110839844e+00 -4.148859024047851562e+00 1.799510937416926026e-04 -1.272561930818483233e-04 1.580846947035752237e-05 3.188888076692819595e-04
1.424000000000000000e+03 8.863128662109375000e+00 -2.544423818588256836e+00 2.883790330088231713e-05 8.537197572877630591e-05 3.426296461839228868e-05 2.845025155693292618e-04
1.425000000000000000e+03 5.628794193267822266e+00 -4.271570205688476562e+00 5.701955888071097434e-05 -7.742964953649789095e-05 -6.123027560533955693e-06 -3.121434419881552458e-04
1.426000000000000000e+03 5.914911270141601562e+00 -2.636322259902954102e+00 -5.149654316483065486e-05 1.107700445572845638e-04 1.778205114533193409e-05 2.134129172191023827e-04
1.427000000000000000e+03 6.048460006713867188e+00 -3.370063543319702148e+00 -9.814754093895317055e-07 -2.692799353098962456e-05 -8.372840966330841184e-06 -2.653496921993792057e-04
1.428000000000000000e+03 3.448938131332397461e+00 -4.722588539123535156e+00 2.039123937720432878e-04 8.096425153780728579e-05 8.546299068257212639e-05 2.877908700611442327e-04
1.429000000000000000e+03 2.117570161819458008e+00 -3.180226802825927734e+00 -1.694276579655706882e-04 -1.435260674043092877e-05 -5.513407813850790262e-05 -9.786694135982543230e-05
1.430000000000000000e+03 1.600213050842285156e+00 -5.236587524414062500e+00 -3.836953837890177965e-04 6.697040134895360097e-06 -1.130995078710839152e-04 -1.669593912083655596e-04
1.431000000000000000e+03 2.720673370361328125e+01 -1.007801342010498047e+01 -1.013387680053710938e+00 5.643800832331180573e-04 -3.038469851016998291e-01 -3.632274568080902100e-01
1.432000000000000000e+03 2.798579216003417969e+01 -1.008519363403320312e+01 -1.070600986480712891e+00 -5.832490045577287674e-03 -3.229300379753112793e-01 -3.587238192558288574e-01
1.433000000000000000e+03 2.642088699340820312e+01 -1.005972194671630859e+01 -9.562482237815856934e-01 6.649660877883434296e-03 -2.848795652389526367e-01 -3.678495585918426514e-01
1.434000000000000000e+03 2.088341522216796875e+01 -8.886186599731445312e+00 -4.940173923969268799e-01 1.428649947047233582e-02 -1.439192742109298706e-01 -2.833364605903625488e-01
1.435000000000000000e+03 2.325075340270996094e+01 -9.885558128356933594e+00 -7.210875153541564941e-01 3.563071787357330322e-02 -2.056370377540588379e-01 -3.726679384708404541e-01
1.436000000000000000e+03 2.079529380798339844e+01 -9.737041473388671875e+00 -5.371787548065185547e-01 6.822932511568069458e-03 -1.591067463159561157e-01 -3.546877503395080566e-01
1.437000000000000000e+03 2.404758453369140625e+01 -9.938974380493164062e+00 -7.815430760383605957e-01 3.236245363950729370e-02 -2.247541993856430054e-01 -3.731801211833953857e-01
1.438000000000000000e+03 2.483790588378906250e+01 -9.989702224731445312e+00 -8.396158814430236816e-01 2.357232943177223206e-02 -2.448130697011947632e-01 -3.735838234424591064e-01
1.439000000000000000e+03 1.986518669128417969e+01 -1.440828990936279297e+01 -5.545426011085510254e-01 -7.743623852729797363e-02 -1.895936429500579834e-01 -4.929200708866119385e-01
1.440000000000000000e+03 2.040968513488769531e+01 -3.210583925247192383e+00 -4.783597588539123535e-02 -1.045629084110260010e-01 -4.571966454386711121e-02 9.851516783237457275e-02
1.441000000000000000e+03 2.161866378784179688e+01 -9.794949531555175781e+00 -5.989394187927246094e-01 2.660290338099002838e-02 -1.717009544372558594e-01 -3.639197349548339844e-01
1.442000000000000000e+03 2.243978309631347656e+01 -9.838360786437988281e+00 -6.614812612533569336e-01 3.689461201429367065e-02 -1.873759925365447998e-01 -3.688000440597534180e-01
1.443000000000000000e+03 2.087251472473144531e+01 2.161494493484497070e+00 -8.946558833122253418e-02 -5.614237189292907715e-01 -1.952667832374572754e-01 3.708445131778717041e-01
1.444000000000000000e+03 2.101725959777832031e+01 4.805955410003662109e+00 -1.761931180953979492e-01 -7.757108807563781738e-01 -2.855711877346038818e-01 4.865393340587615967e-01
1.445000000000000000e+03 1.802577781677246094e+01 -1.003659057617187500e+01 -3.500256538391113281e-01 -1.662846058607101440e-01 -1.548930853605270386e-01 -3.265798389911651611e-01
1.446000000000000000e+03 1.083671283721923828e+01 9.029894828796386719e+00 6.804910372011363506e-04 3.220531856641173363e-03 1.170306932181119919e-03 1.399542088620364666e-03
1.447000000000000000e+03 1.110181713104248047e+01 1.061782741546630859e+01 2.085297135636210442e-03 3.482864703983068466e-03 1.670448575168848038e-03 2.326199784874916077e-03
1.448000000000000000e+03 1.333984184265136719e+01 6.160407543182373047e+00 1.704494236037135124e-03 6.280767265707254410e-04 6.997712771408259869e-04 1.096555613912642002e-03
1.449000000000000000e+03 6.133430480957031250e+00 -1.450751781463623047e+01 8.029553107917308807e-03 -1.945282914675772190e-03 1.825281186029314995e-03 -1.913567632436752319e-02
1.450000000000000000e+03 6.795794486999511719e+00 -1.345626163482666016e+01 -1.547709805890917778e-03 1.570430770516395569e-02 4.246979486197233200e-03 -7.064728531986474991e-03
1.451000000000000000e+03 1.917525672912597656e+01 1.103024005889892578e+01 -4.992941617965698242e-01 -1.364164829254150391e+00 -5.590376853942871094e-01 6.567058563232421875e-01
1.452000000000000000e+03 2.105470466613769531e+01 7.664004325866699219e+00 -3.241934180259704590e-01 -9.208167791366577148e-01 -3.735030591487884521e-01 5.892745852470397949e-01
1.453000000000000000e+03 1.079080867767333984e+01 -3.358308553695678711e+00 -5.054906068835407495e-06 -2.448151462886016816e-05 -8.860925845510791987e-06 2.863866684492677450e-04
1.454000000000000000e+03 8.478712081909179688e+00 -2.034653282165527344e+01 -3.894603848457336426e-01 -3.150842785835266113e-01 -2.113634049892425537e-01 -4.754934012889862061e-01
1.455000000000000000e+03 7.833631515502929688e+00 -1.883627700805664062e+01 -4.040935039520263672e-01 -6.368984282016754150e-02 -1.403350085020065308e-01 -2.231590002775192261e-01
1.456000000000000000e+03 1.007648563385009766e+01 4.149822235107421875e+00 3.677076019812375307e-04 1.226186170242726803e-03 4.781681054737418890e-04 8.883585105650126934e-04
1.457000000000000000e+03 1.012356948852539062e+01 -6.172592163085937500e+00 1.816605508793145418e-04 -6.158941541798412800e-04 -1.302700839005410671e-04 2.999442804139107466e-04
1.458000000000000000e+03 1.554568767547607422e+01 -1.892058753967285156e+01 -3.703046143054962158e-01 -3.759443759918212891e-01 -2.238747030496597290e-01 -3.936722278594970703e-01
1.459000000000000000e+03 1.615247535705566406e+01 -1.585337924957275391e+01 -5.527896285057067871e-01 -3.631703257560729980e-01 -2.747879922389984131e-01 -4.767614006996154785e-01
1.460000000000000000e+03 9.519789695739746094e+00 -1.996137809753417969e+01 -3.425028026103973389e-01 -5.132035613059997559e-01 -2.567119002342224121e-01 -5.248726606369018555e-01
1.461000000000000000e+03 1.974141311645507812e+01 -2.861897051334381104e-01 -1.981798186898231506e-02 -3.246310353279113770e-01 -1.033347025513648987e-01 1.559260636568069458e-01
1.462000000000000000e+03 1.987029838562011719e+01 -1.060420131683349609e+01 -5.195452570915222168e-01 -4.193280264735221863e-02 -1.684434115886688232e-01 -4.026348888874053955e-01
1.463000000000000000e+03 1.340209102630615234e+01 3.111731290817260742e+00 -6.855974788777530193e-04 9.237556369043886662e-04 7.144745177356526256e-05 3.413179947528988123e-04
1.464000000000000000e+03 3.666158676147460938e+00 2.192112922668457031e+01 -9.250921010971069336e-02 -1.326485723257064819e-01 -6.754733622074127197e-02 1.489190161228179932e-01
1.465000000000000000e+03 7.696529388427734375e+01 -3.644448471069335938e+01 -5.675450339913368225e-02 8.497460365295410156e+00 2.532211542129516602e+00 -1.030698791146278381e-01
1.466000000000000000e+03 7.419098663330078125e+01 -3.108838081359863281e+01 -1.095470562577247620e-01 8.043046951293945312e+00 2.380049943923950195e+00 -3.510528504848480225e-01
1.467000000000000000e+03 7.704650115966796875e+01 -3.488455581665039062e+01 -4.662039503455162048e-02 8.444637298583984375e+00 2.519405126571655273e+00 -1.315086930990219116e-01
1.468000000000000000e+03 7.589301300048828125e+01 -2.329533958435058594e+01 -5.663673579692840576e-02 7.624204158782958984e+00 2.270270347595214844e+00 -5.105128288269042969e-01
1.469000000000000000e+03 7.800338745117187500e+01 -2.764372825622558594e+01 -1.858657784759998322e-02 8.062465667724609375e+00 2.413163661956787109e+00 -2.185653895139694214e-01
1.470000000000000000e+03 7.526262664794921875e+01 1.543226242065429688e+01 -8.504901081323623657e-02 8.012646675109863281e+00 2.378279447555541992e+00 4.404536485671997070e-01
1.471000000000000000e+03 7.662051391601562500e+01 1.546225547790527344e+01 -4.968526214361190796e-02 8.076913833618164062e+00 2.408168554306030273e+00 3.450395464897155762e-01
1.472000000000000000e+03 7.775350952148437500e+01 3.483456802368164062e+01 -1.059619337320327759e-02 8.980587959289550781e+00 2.690997600555419922e+00 7.526450790464878082e-03
1.473000000000000000e+03 7.632614135742187500e+01 3.347227096557617188e+01 -3.429743275046348572e-02 8.709226608276367188e+00 2.602478742599487305e+00 6.310335546731948853e-02
1.474000000000000000e+03 7.703196716308593750e+01 -2.340747070312500000e+01 -3.184444829821586609e-02 7.609108448028564453e+00 2.273179292678833008e+00 -3.969091773033142090e-01
1.475000000000000000e+03 7.616432952880859375e+01 -3.013931274414062500e+01 -5.473536625504493713e-02 8.128483772277832031e+00 2.422124385833740234e+00 -2.952950596809387207e-01
1.476000000000000000e+03 7.648418426513671875e+01 -2.876504135131835938e+01 -5.262202024459838867e-02 8.067285537719726562e+00 2.404399156570434570e+00 -3.163446784019470215e-01
1.477000000000000000e+03 7.478059387207031250e+01 -3.653839111328125000e+01 -1.032383441925048828e-01 8.254019737243652344e+00 2.445234298706054688e+00 -1.677862405776977539e-01
1.478000000000000000e+03 7.689093017578125000e+01 -2.607981681823730469e+01 -4.155934974551200867e-02 7.870815277099609375e+00 2.348776817321777344e+00 -3.543627560138702393e-01
1.479000000000000000e+03 7.697903442382812500e+01 -2.475024414062500000e+01 -3.509400412440299988e-02 7.745074272155761719e+00 2.312994003295898438e+00 -3.753589391708374023e-01
1.480000000000000000e+03 7.579524230957031250e+01 -3.157596397399902344e+01 -6.699430197477340698e-02 8.174758911132812500e+00 2.432329416275024414e+00 -2.777922451496124268e-01
1.481000000000000000e+03 7.540117645263671875e+01 -3.310972976684570312e+01 -7.506798952817916870e-02 8.199513435363769531e+00 2.437333583831787109e+00 -2.460115104913711548e-01
1.482000000000000000e+03 7.557281494140625000e+01 -4.047495269775390625e+01 -4.019950330257415771e-02 8.456926345825195312e+00 2.525017976760864258e+00 -7.993401587009429932e-02
1.483000000000000000e+03 7.802819824218750000e+01 2.237812614440917969e+01 -1.312271691858768463e-02 8.662284851074218750e+00 2.594748735427856445e+00 1.194166764616966248e-01
1.484000000000000000e+03 7.676427459716796875e+01 2.106864547729492188e+01 -3.970782458782196045e-02 8.447699546813964844e+00 2.522397518157958984e+00 2.078898400068283081e-01
1.485000000000000000e+03 7.552869415283203125e+01 2.229095268249511719e+01 -6.015744805335998535e-02 8.374670028686523438e+00 2.494353771209716797e+00 2.247107028961181641e-01
1.486000000000000000e+03 7.665999603271484375e+01 1.401856327056884766e+01 -4.467420279979705811e-02 7.958436489105224609e+00 2.374128580093383789e+00 3.756847977638244629e-01
1.487000000000000000e+03 7.801876831054687500e+01 1.260258960723876953e+01 -1.682429760694503784e-02 7.856094837188720703e+00 2.351781129837036133e+00 2.675440013408660889e-01
1.488000000000000000e+03 7.554814910888671875e+01 8.293270111083984375e+00 -3.871515393257141113e-02 7.458116531372070312e+00 2.225820541381835938e+00 6.051366329193115234e-01
1.489000000000000000e+03 7.659748077392578125e+01 2.372446632385253906e+01 -2.530050650238990784e-02 8.540859222412109375e+00 2.554667472839355469e+00 1.623784154653549194e-01
1.490000000000000000e+03 7.777422332763671875e+01 2.664662170410156250e+01 -9.833577089011669159e-03 8.810246467590332031e+00 2.640123844146728516e+00 8.514484763145446777e-02
1.491000000000000000e+03 7.669950866699218750e+01 1.259253501892089844e+01 -4.127725213766098022e-02 7.831700325012207031e+00 2.337126970291137695e+00 4.058009982109069824e-01
1.492000000000000000e+03 7.823065948486328125e+01 -2.077446174621582031e+01 -7.364330813288688660e-03 7.237966060638427734e+00 2.169180631637573242e+00 -2.860490381717681885e-01
1.493000000000000000e+03 7.706038665771484375e+01 -2.205655860900878906e+01 -2.654826641082763672e-02 7.460104942321777344e+00 2.230067014694213867e+00 -4.193485081195831299e-01
1.494000000000000000e+03 7.796567535400390625e+01 3.076613998413085938e+01 -1.064872648566961288e-02 8.932124137878417969e+00 2.676442623138427734e+00 5.070753768086433411e-02
1.495000000000000000e+03 7.622369384765625000e+01 2.672221565246582031e+01 -3.131676092743873596e-02 8.591833114624023438e+00 2.568155050277709961e+00 1.253779381513595581e-01
1.496000000000000000e+03 7.681081390380859375e+01 8.367800712585449219e+00 -2.187553048133850098e-02 7.385441780090332031e+00 2.209069967269897461e+00 4.734682142734527588e-01
1.497000000000000000e+03 7.453789520263671875e+01 -1.660689163208007812e+01 4.661345854401588440e-02 7.153944015502929688e+00 2.160167217254638672e+00 -6.892901659011840820e-01
1.498000000000000000e+03 7.706904602050781250e+01 -2.070291328430175781e+01 -1.774768531322479248e-02 7.302091121673583984e+00 2.185302972793579102e+00 -4.369623959064483643e-01
1.499000000000000000e+03 7.576370239257812500e+01 -8.197539329528808594e+00 1.961117088794708252e-01 6.394196033477783203e+00 1.977092266082763672e+00 -1.490209102630615234e-01
1.500000000000000000e+03 7.700834655761718750e+01 -1.240878582000732422e+01 6.944236159324645996e-02 6.372728824615478516e+00 1.932651400566101074e+00 -3.413389027118682861e-01
1.501000000000000000e+03 7.580815887451171875e+01 -1.327751278877258301e+00 1.447885483503341675e-01 6.545601367950439453e+00 2.007117033004760742e+00 3.930298388004302979e-01
1.502000000000000000e+03 7.699403381347656250e+01 -8.226438522338867188e+00 1.056179031729698181e-01 6.114985942840576172e+00 1.866181135177612305e+00 -1.162425279617309570e-01
1.503000000000000000e+03 7.564279937744140625e+01 5.523454189300537109e+00 4.245905671268701553e-03 7.182716369628906250e+00 2.156088829040527344e+00 6.177732348442077637e-01
1.504000000000000000e+03 7.774138641357421875e+01 3.607633972167968750e+01 2.424853388220071793e-03 8.991614341735839844e+00 2.698211908340454102e+00 2.488609217107295990e-02
1.505000000000000000e+03 7.666252899169921875e+01 1.974376869201660156e+01 -3.766496479511260986e-02 8.363614082336425781e+00 2.497784614562988281e+00 2.399742901325225830e-01
1.506000000000000000e+03 7.809942626953125000e+01 7.000098228454589844e+00 -4.445944912731647491e-03 7.119539260864257812e+00 2.134527921676635742e+00 3.194262981414794922e-01
1.507000000000000000e+03 7.687335968017578125e+01 5.589899539947509766e+00 1.698793261311948299e-03 7.054262638092041016e+00 2.116788387298583984e+00 4.844341576099395752e-01
1.508000000000000000e+03 7.818460845947265625e+01 -1.337647795677185059e+00 3.323003649711608887e-02 6.014990806579589844e+00 1.814466238021850586e+00 2.018416970968246460e-01
1.509000000000000000e+03 7.699532318115234375e+01 -2.706091165542602539e+00 9.482060372829437256e-02 6.200768470764160156e+00 1.888676643371582031e+00 2.328187972307205200e-01
1.510000000000000000e+03 7.700051879882812500e+01 -9.616345405578613281e+00 9.810692071914672852e-02 6.171204090118408203e+00 1.880793333053588867e+00 -2.006516605615615845e-01
1.511000000000000000e+03 7.700717163085937500e+01 -1.658570861816406250e+01 1.706413179636001587e-02 6.814872741699218750e+00 2.049581050872802734e+00 -4.477372169494628906e-01
1.512000000000000000e+03 7.482688903808593750e+01 3.329893112182617188e+01 -3.070672973990440369e-02 8.467350006103515625e+00 2.530993223190307617e+00 7.488863170146942139e-02
1.513000000000000000e+03 7.653796386718750000e+01 3.208203125000000000e+01 -2.121025323867797852e-02 8.733559608459472656e+00 2.613704681396484375e+00 6.198481842875480652e-02
1.514000000000000000e+03 7.808094787597656250e+01 8.393177032470703125e+00 -8.242867887020111084e-03 7.317486286163330078e+00 2.192773103713989258e+00 3.127587437629699707e-01
1.515000000000000000e+03 7.677603149414062500e+01 9.766466140747070312e+00 -3.039786592125892639e-02 7.543787479400634766e+00 2.254016876220703125e+00 4.562102556228637695e-01
1.516000000000000000e+03 7.700166320800781250e+01 -1.519419097900390625e+01 3.296558186411857605e-02 6.657358646392822266e+00 2.007097244262695312e+00 -4.277782440185546875e-01
1.517000000000000000e+03 7.699099731445312500e+01 -6.843873500823974609e+00 1.096459850668907166e-01 6.089162349700927734e+00 1.859642505645751953e+00 -2.772658132016658783e-02
1.518000000000000000e+03 7.815103149414062500e+01 2.825117349624633789e+00 1.402591727674007416e-02 6.516841411590576172e+00 1.959260225296020508e+00 2.984899282455444336e-01
1.519000000000000000e+03 7.690482330322265625e+01 4.201184749603271484e+00 1.689554937183856964e-02 6.884659767150878906e+00 2.070466518402099609e+00 4.735011458396911621e-01
1.520000000000000000e+03 7.698876953125000000e+01 -1.323483943939208984e+00 8.230166137218475342e-02 6.299591541290283203e+00 1.914567947387695312e+00 3.070103228092193604e-01
1.521000000000000000e+03 7.820057678222656250e+01 -5.501224517822265625e+00 4.458844289183616638e-02 5.768599033355712891e+00 1.743956208229064941e+00 3.985731676220893860e-02
1.522000000000000000e+03 7.699272918701171875e+01 -5.468074321746826172e+00 1.090842410922050476e-01 6.093911647796630859e+00 1.860898733139038086e+00 6.201921030879020691e-02
1.523000000000000000e+03 7.699567413330078125e+01 -4.089334964752197266e+00 1.048701852560043335e-01 6.132042884826660156e+00 1.871073842048645020e+00 1.503798365592956543e-01
1.524000000000000000e+03 7.820784759521484375e+01 -1.245221424102783203e+01 2.845570258796215057e-02 6.109279632568359375e+00 1.841320633888244629e+00 -2.247098237276077271e-01
1.525000000000000000e+03 7.580535125732421875e+01 -1.238230609893798828e+01 1.274819374084472656e-01 6.609487056732177734e+00 2.021090745925903320e+00 -4.409068822860717773e-01
1.526000000000000000e+03 7.700606536865234375e+01 -1.101299571990966797e+01 8.571548014879226685e-02 6.259408473968505859e+00 1.903537273406982422e+00 -2.776257097721099854e-01
1.527000000000000000e+03 7.705722045898437500e+01 -1.934043121337890625e+01 -7.903088815510272980e-03 7.139741420745849609e+00 2.139551401138305664e+00 -4.492955803871154785e-01
1.528000000000000000e+03 7.578964996337890625e+01 -1.657489013671875000e+01 3.155843168497085571e-02 6.983979701995849609e+00 2.104661464691162109e+00 -5.793028473854064941e-01
1.529000000000000000e+03 7.474246501922607422e+00 1.312026691436767578e+01 -3.533082315698266029e-03 8.930108509957790375e-03 1.619108021259307861e-03 8.188131265342235565e-03
1.530000000000000000e+03 1.145510482788085938e+01 8.047923088073730469e+00 -7.105807890184223652e-04 -2.478462411090731621e-03 -9.567129891365766525e-04 -1.520416815765202045e-03
1.531000000000000000e+03 1.295889186859130859e+01 7.314794540405273438e+00 -1.819365075789391994e-03 -1.405874849297106266e-03 -9.675719775259494781e-04 -1.419894630089402199e-03
1.532000000000000000e+03 1.859850502014160156e+01 1.466109561920166016e+01 -6.606658101081848145e-01 -1.161020278930664062e+00 -5.465058088302612305e-01 6.235387921333312988e-01
1.533000000000000000e+03 2.215276002883911133e+00 3.460501480102539062e+01 2.229522913694381714e-02 -8.338284492492675781e-01 -2.434599548578262329e-01 1.035669445991516113e-01
1.534000000000000000e+03 4.788694381713867188e+00 3.644184875488281250e+01 7.172744721174240112e-02 -7.597559094429016113e-01 -2.064085453748703003e-01 1.426547765731811523e-01
1.535000000000000000e+03 1.884306073188781738e+00 2.757510948181152344e+01 3.183092048857361078e-04 -4.308026432991027832e-01 -1.291453093290328979e-01 1.527265906333923340e-01
1.536000000000000000e+03 3.401494026184082031e+00 3.024345779418945312e+01 1.966038532555103302e-02 -5.899864435195922852e-01 -1.710978150367736816e-01 2.222063839435577393e-01
1.537000000000000000e+03 1.846343278884887695e+00 2.618912124633789062e+01 9.856315045908559114e-06 -3.357785642147064209e-01 -1.007306128740310669e-01 1.487671434879302979e-01
1.538000000000000000e+03 3.113285779953002930e+00 2.750118064880371094e+01 6.191531661897897720e-03 -4.508860409259796143e-01 -1.334083527326583862e-01 2.349247038364410400e-01
1.539000000000000000e+03 5.338912010192871094e+00 3.272743225097656250e+01 7.062575221061706543e-02 -6.529376506805419922e-01 -1.746935695409774780e-01 2.495397925376892090e-01
1.540000000000000000e+03 3.261422395706176758e+00 2.885355186462402344e+01 1.644835621118545532e-02 -5.251676440238952637e-01 -1.526157855987548828e-01 2.276307195425033569e-01
1.541000000000000000e+03 6.014090061187744141e+00 3.833231353759765625e+01 1.083961725234985352e-01 -7.251448035240173340e-01 -1.850245893001556396e-01 1.188774108886718750e-01
1.542000000000000000e+03 2.020833253860473633e+00 3.719477844238281250e+01 1.046986598521471024e-02 -9.289138317108154297e-01 -2.755331993103027344e-01 5.085339024662971497e-02
1.543000000000000000e+03 3.859980821609497070e+00 3.315580368041992188e+01 4.882517829537391663e-02 -7.076380848884582520e-01 -1.976438760757446289e-01 2.012138813734054565e-01
1.544000000000000000e+03 4.852857112884521484e+00 3.148214340209960938e+01 4.986866191029548645e-02 -6.336770057678222656e-01 -1.751425117254257202e-01 2.625473737716674805e-01
1.545000000000000000e+03 3.565100431442260742e+00 3.167133712768554688e+01 3.118198178708553314e-02 -6.476044058799743652e-01 -1.849267333745956421e-01 2.110454589128494263e-01
1.546000000000000000e+03 3.451732635498046875e+00 -3.558269500732421875e+01 5.298696085810661316e-02 -7.546643018722534180e-01 -2.105032056570053101e-01 -1.048672050237655640e-01
1.547000000000000000e+03 3.945268154144287109e+00 -3.441344070434570312e+01 5.332858487963676453e-02 -6.768837571144104004e-01 -1.870665550231933594e-01 -1.497521996498107910e-01
1.548000000000000000e+03 3.621794939041137695e+00 -3.016742706298828125e+01 2.654631435871124268e-02 -5.565252304077148438e-01 -1.589936763048171997e-01 -2.027601450681686401e-01
1.549000000000000000e+03 2.083786010742187500e+00 -2.892475700378417969e+01 5.262410268187522888e-03 -5.236259102821350098e-01 -1.555090397596359253e-01 -1.407692730426788330e-01
1.550000000000000000e+03 4.757692337036132812e+00 -2.737493133544921875e+01 2.667647786438465118e-02 -4.478550255298614502e-01 -1.263535618782043457e-01 -2.771624326705932617e-01
1.551000000000000000e+03 3.189794540405273438e+00 2.334774971008300781e+01 -6.697218120098114014e-02 -1.964051127433776855e-01 -7.901319116353988647e-02 1.865320205688476562e-01
1.552000000000000000e+03 1.678428053855895996e+00 -1.333543014526367188e+01 2.007798990234732628e-03 2.784981857985258102e-03 1.437834231182932854e-03 6.354765500873327255e-03
1.553000000000000000e+03 1.766744613647460938e+00 2.046392250061035156e+01 -2.144347876310348511e-02 -2.071613818407058716e-02 -1.264788489788770676e-02 3.017390891909599304e-02
1.554000000000000000e+03 1.907815814018249512e+00 1.899597740173339844e+01 -1.605907641351222992e-02 -7.942513562738895416e-03 -7.200476713478565216e-03 9.708910249173641205e-03
1.555000000000000000e+03 5.568143367767333984e+00 1.828819847106933594e+01 -9.166288375854492188e-02 -4.785203561186790466e-02 -4.185447469353675842e-02 2.964834123849868774e-02
1.556000000000000000e+03 1.791453242301940918e+00 -1.891650772094726562e+01 -2.792526409029960632e-02 -1.220854744315147400e-02 -1.204014383256435394e-02 -1.707161031663417816e-02
1.557000000000000000e+03 3.589533090591430664e+00 -1.786673164367675781e+01 -5.275552347302436829e-02 -3.910095617175102234e-02 -2.755694463849067688e-02 -3.637945745140314102e-03
1.558000000000000000e+03 5.429687976837158203e+00 1.340695381164550781e+01 6.554545834660530090e-03 -1.295480411499738693e-02 -1.920077600516378880e-03 5.106027238070964813e-03
1.559000000000000000e+03 1.780962109565734863e+00 -2.177703857421875000e+01 -1.865852810442447662e-02 -1.057603508234024048e-01 -3.732566535472869873e-02 -8.438479900360107422e-02
1.560000000000000000e+03 6.798438072204589844e+00 -1.984731674194335938e+01 -2.632158398628234863e-01 -1.105952486395835876e-01 -1.121433228254318237e-01 -2.514468729496002197e-01
1.561000000000000000e+03 3.905059576034545898e+00 5.244759082794189453e+00 8.478830568492412567e-04 2.427978615742176771e-04 3.272042667958885431e-04 6.031557131791487336e-05
1.562000000000000000e+03 2.544521570205688477e+00 7.601291179656982422e+00 -4.138844087719917297e-04 1.399895118083804846e-04 -8.216846617870032787e-05 -3.490713424980640411e-04
1.563000000000000000e+03 4.513861179351806641e+00 1.456830024719238281e+01 1.356643065810203552e-02 -1.943344622850418091e-02 -1.760104903951287270e-03 -1.447898335754871368e-03
1.564000000000000000e+03 1.874128580093383789e+00 1.746914100646972656e+01 -8.004527539014816284e-03 4.809452220797538757e-03 -9.585226653143763542e-04 -9.143755771219730377e-03
1.565000000000000000e+03 3.511759519577026367e+00 2.002498817443847656e+01 -6.919349730014801025e-02 -6.853058934211730957e-02 -4.131722822785377502e-02 6.316875666379928589e-02
1.566000000000000000e+03 2.599729061126708984e+00 8.901507377624511719e+00 1.999527914449572563e-03 1.146502909250557423e-04 6.342534907162189484e-04 -9.667085250839591026e-04
1.567000000000000000e+03 4.939139366149902344e+00 -4.487913131713867188e+00 8.433760376647114754e-05 1.623112329980358481e-04 7.399464811896905303e-05 2.604878973215818405e-04
1.568000000000000000e+03 2.740229129791259766e+00 -4.531542778015136719e+00 -3.339490795042365789e-04 1.713031961116939783e-04 -4.879376865574158728e-05 -1.331937965005636215e-04
1.569000000000000000e+03 1.930550336837768555e+00 -4.141493797302246094e+00 3.506805805955082178e-04 -2.412706671748310328e-04 3.282296893303282559e-05 -1.357566361548379064e-04
1.570000000000000000e+03 2.764112710952758789e+00 -1.576545333862304688e+01 3.536426462233066559e-03 -1.277914270758628845e-02 -2.772814827039837837e-03 1.112743094563484192e-02
1.571000000000000000e+03 7.654251575469970703e+00 -9.275597572326660156e+00 -4.685462627094238997e-04 1.978757092729210854e-03 4.530632286332547665e-04 -7.440616900566965342e-05
1.572000000000000000e+03 3.461607217788696289e+00 -2.878799819946289062e+01 2.370236814022064209e-02 -5.004914402961730957e-01 -1.430367231369018555e-01 -2.108808159828186035e-01
1.573000000000000000e+03 4.367968559265136719e+00 -3.767482757568359375e+01 5.405805632472038269e-02 -7.651325464248657227e-01 -2.133223414421081543e-01 -1.089550927281379700e-01
1.574000000000000000e+03 2.670570135116577148e+00 -7.838679313659667969e+00 6.001932197250425816e-04 1.104446055251173675e-04 2.131913497578352690e-04 4.864358052145689726e-04
1.575000000000000000e+03 2.690551042556762695e+00 -3.458663940429687500e+01 2.753263525664806366e-02 -7.719777226448059082e-01 -2.233335226774215698e-01 -9.908743202686309814e-02
1.576000000000000000e+03 5.373775005340576172e+00 -3.477732849121093750e+01 8.699309825897216797e-02 -6.354468464851379395e-01 -1.645361185073852539e-01 -1.705303043127059937e-01
1.577000000000000000e+03 3.993987798690795898e+00 -3.307558822631835938e+01 4.069789871573448181e-02 -6.506884098052978516e-01 -1.829971522092819214e-01 -1.684663742780685425e-01
1.578000000000000000e+03 2.756206989288330078e+00 -2.023878669738769531e+01 -5.500209331512451172e-02 -7.831051200628280640e-02 -3.999378159642219543e-02 -8.126154541969299316e-02
1.579000000000000000e+03 1.889560699462890625e+00 -2.322738838195800781e+01 -1.731894165277481079e-02 -1.832607090473175049e-01 -6.017389521002769470e-02 -1.175566241145133972e-01
1.580000000000000000e+03 3.302932500839233398e+00 -2.608487701416015625e+01 6.819598493166267872e-04 -3.739298880100250244e-01 -1.119743809103965759e-01 -2.186738997697830200e-01
1.581000000000000000e+03 6.204154491424560547e+00 -2.510224151611328125e+01 -2.064741961658000946e-02 -3.896082639694213867e-01 -1.230767071247100830e-01 -3.430525362491607666e-01
1.582000000000000000e+03 2.732403993606567383e+00 -1.452718067169189453e+01 5.721691530197858810e-03 -8.729208260774612427e-03 -9.022549493238329887e-04 9.715038351714611053e-03
1.583000000000000000e+03 2.810184717178344727e+00 -1.329030799865722656e+01 6.200559437274932861e-03 -3.872760804370045662e-03 6.983395433053374290e-04 5.732601508498191833e-03
1.584000000000000000e+03 5.688016891479492188e+00 -9.568912506103515625e+00 1.353604136966168880e-03 -4.850186523981392384e-04 2.605756453704088926e-04 -3.014021785929799080e-04
1.585000000000000000e+03 2.735462903976440430e+00 1.020532894134521484e+01 5.947090685367584229e-04 1.410319819115102291e-04 2.207223151344805956e-04 -1.965262694284319878e-03
1.586000000000000000e+03 3.247234106063842773e+00 1.292213726043701172e+01 5.565444473177194595e-03 -6.796121131628751755e-03 -3.692030441015958786e-04 -5.662810523062944412e-03
1.587000000000000000e+03 6.850282192230224609e+00 1.667709922790527344e+01 -6.599858403205871582e-03 -1.384216174483299255e-02 -6.132605951279401779e-03 1.554533466696739197e-02
1.588000000000000000e+03 5.614407062530517578e+00 1.673757934570312500e+01 -1.941623724997043610e-02 -3.711796924471855164e-02 -1.696026138961315155e-02 1.050527580082416534e-02
1.589000000000000000e+03 4.328179359436035156e+00 1.703741264343261719e+01 -1.971601322293281555e-02 -4.562512040138244629e-02 -1.960233971476554871e-02 2.801769878715276718e-03
1.590000000000000000e+03 5.343088150024414062e+00 1.538019275665283203e+01 5.130054894834756851e-03 -3.294318541884422302e-02 -8.343938738107681274e-03 5.942694377154111862e-03
1.591000000000000000e+03 7.457366466522216797e+00 1.510937404632568359e+01 3.706770075950771570e-04 1.927545107901096344e-02 5.893838126212358475e-03 2.342374064028263092e-02
1.592000000000000000e+03 3.996875286102294922e+00 -8.906529426574707031e+00 1.113646896556019783e-03 -2.656211727298796177e-04 2.544077287893742323e-04 5.183430621400475502e-04
1.593000000000000000e+03 9.414615631103515625e+00 -7.152950763702392578e+00 -1.239578559761866927e-04 7.967099663801491261e-04 2.018256345763802528e-04 -2.609797811601310968e-04
1.594000000000000000e+03 8.599818229675292969e+00 -8.181017875671386719e+00 4.445207596290856600e-04 -1.091447891667485237e-03 -1.940781512530520558e-04 1.799388992367312312e-04
1.595000000000000000e+03 1.195832824707031250e+01 7.048318386077880859e+00 1.039908733218908310e-03 1.957766944542527199e-03 8.993027149699628353e-04 1.483762171119451523e-03
1.596000000000000000e+03 1.577834033966064453e+01 1.816683006286621094e+01 -6.534231901168823242e-01 -1.141553640365600586e+00 -5.384930372238159180e-01 6.141318082809448242e-01
1.597000000000000000e+03 2.073335838317871094e+01 9.557992815971374512e-01 -6.405930221080780029e-02 -4.443436264991760254e-01 -1.525208801031112671e-01 3.061199486255645752e-01
1.598000000000000000e+03 2.352167510986328125e+01 4.595670700073242188e+00 -2.334405183792114258e-01 -4.367831349372863770e-01 -2.010671049356460571e-01 6.030691266059875488e-01
1.599000000000000000e+03 1.949330520629882812e+01 1.336137676239013672e+01 -5.956845879554748535e-01 -1.109132528305053711e+00 -5.114451646804809570e-01 6.140617728233337402e-01
1.600000000000000000e+03 1.705641365051269531e+01 -1.480010890960693359e+01 -5.550962090492248535e-01 -2.869238853454589844e-01 -2.526060342788696289e-01 -4.761590957641601562e-01
1.601000000000000000e+03 1.799688911437988281e+01 -1.378353786468505859e+01 -5.557684898376464844e-01 -1.952492892742156982e-01 -2.253053337335586548e-01 -4.767743051052093506e-01
1.602000000000000000e+03 1.526584911346435547e+01 -1.688304901123046875e+01 -5.527840852737426758e-01 -4.086788594722747803e-01 -2.884388864040374756e-01 -4.774979054927825928e-01
1.603000000000000000e+03 2.117368888854980469e+01 9.299117088317871094e+00 -4.161430001258850098e-01 -8.925228714942932129e-01 -3.925997614860534668e-01 6.007441878318786621e-01
1.604000000000000000e+03 2.159133529663085938e+01 1.329275417327880859e+01 -4.871669113636016846e-01 -6.376739740371704102e-01 -3.374522626399993896e-01 4.705482125282287598e-01
1.605000000000000000e+03 1.078748798370361328e+01 -1.971319770812988281e+01 -3.303116261959075928e-01 -5.914114117622375488e-01 -2.765169143676757812e-01 -4.169661402702331543e-01
1.606000000000000000e+03 1.361639118194580078e+01 -2.013775062561035156e+01 -3.078407049179077148e-01 -4.782870113849639893e-01 -2.358383089303970337e-01 -3.931809663772583008e-01
1.607000000000000000e+03 1.989474105834960938e+01 -2.268387317657470703e+00 -2.496384456753730774e-02 -1.613073050975799561e-01 -5.588134378194808960e-02 1.081064268946647644e-01
1.608000000000000000e+03 1.871840476989746094e+01 1.690926742553710938e+01 -5.450259447097778320e-01 -9.193753600120544434e-01 -4.393203854560852051e-01 4.397043585777282715e-01
1.609000000000000000e+03 1.272910594940185547e+01 2.139028739929199219e+01 -2.805009186267852783e-01 -8.735991716384887695e-01 -3.462300300598144531e-01 5.775707364082336426e-01
1.610000000000000000e+03 1.140870285034179688e+01 2.022144699096679688e+01 -5.666592121124267578e-01 -7.416453957557678223e-01 -3.924913704395294189e-01 6.375846862792968750e-01
1.611000000000000000e+03 5.536475181579589844e+00 -1.184816455841064453e+01 2.340854378417134285e-03 -6.583033245988190174e-04 5.047652521170675755e-04 -2.774359891191124916e-03
1.612000000000000000e+03 4.856050968170166016e+00 4.041543197631835938e+01 5.354648455977439880e-02 -8.320018053054809570e-01 -2.335366010665893555e-01 6.565558910369873047e-02
1.613000000000000000e+03 5.250229644775390625e+01 -8.625472068786621094e+00 1.734349608421325684e+00 1.101583957672119141e+01 3.825056791305541992e+00 5.848103046417236328e+00
1.614000000000000000e+03 5.115691375732421875e+01 -4.713094711303710938e+00 2.684757471084594727e+00 2.656559467315673828e+00 1.602395057678222656e+00 -3.674630880355834961e+00
1.615000000000000000e+03 5.067264175415039062e+01 -3.571970462799072266e+00 1.942401289939880371e+00 3.483489990234375000e+00 1.627767324447631836e+00 -3.694288730621337891e+00
1.616000000000000000e+03 5.072584152221679688e+01 -4.490378379821777344e+00 2.084836244583129883e+00 2.117621898651123047e+00 1.260737419128417969e+00 -3.025322675704956055e+00
1.617000000000000000e+03 5.268080520629882812e+01 -4.439284324645996094e+00 1.980246543884277344e+00 1.266808223724365234e+01 4.394498825073242188e+00 -6.237660408020019531e+00
1.618000000000000000e+03 4.990351867675781250e+01 -9.012683868408203125e+00 1.339032649993896484e+00 1.874440193176269531e+00 9.640418887138366699e-01 2.537273645401000977e+00
1.619000000000000000e+03 5.309589385986328125e+01 -4.478106021881103516e+00 1.337402582168579102e+00 1.599174594879150391e+01 5.198744773864746094e+00 -5.037329673767089844e+00
1.620000000000000000e+03 5.326625061035156250e+01 -8.287942886352539062e+00 1.141713261604309082e+00 1.714259338378906250e+01 5.485291957855224609e+00 4.349300384521484375e+00
1.621000000000000000e+03 5.255658721923828125e+01 -4.141485691070556641e+00 1.672562599182128906e+00 1.138984012603759766e+01 3.918720722198486328e+00 -5.874270439147949219e+00
1.622000000000000000e+03 5.315021514892578125e+01 -4.190364360809326172e+00 9.687187671661376953e-01 1.521225738525390625e+01 4.854292869567871094e+00 -4.506147861480712891e+00
1.623000000000000000e+03 5.349979782104492188e+01 -3.904238224029541016e+00 6.082535386085510254e-01 1.563643264770507812e+01 4.873405933380126953e+00 -3.293728828430175781e+00
1.624000000000000000e+03 5.523852539062500000e+01 -5.784331798553466797e+00 8.534151077270507812e+00 1.507901477813720703e+01 7.083949565887451172e+00 1.573263645172119141e+00
1.625000000000000000e+03 5.551192092895507812e+01 -6.814291477203369141e+00 8.487509727478027344e+00 1.413583278656005859e+01 6.787002563476562500e+00 -1.025294899940490723e+00
1.626000000000000000e+03 5.583489227294921875e+01 -7.665640354156494141e+00 5.907475948333740234e+00 1.395700836181640625e+01 5.959345340728759766e+00 -1.905202388763427734e+00
1.627000000000000000e+03 5.408945465087890625e+01 -8.415615081787109375e+00 1.622041225433349609e+00 1.813365745544433594e+01 5.926709175109863281e+00 5.192344188690185547e-01
1.628000000000000000e+03 5.511563491821289062e+01 -5.190002918243408203e+00 6.303652763366699219e+00 1.600075149536132812e+01 6.691321372985839844e+00 2.242079257965087891e+00
1.629000000000000000e+03 5.508382797241210938e+01 -7.829588890075683594e+00 5.177332878112792969e+00 1.619759559631347656e+01 6.412478446960449219e+00 -2.144863843917846680e+00
1.630000000000000000e+03 5.458575439453125000e+01 -7.900351524353027344e+00 4.266615867614746094e+00 1.801906967163085938e+01 6.685705661773681641e+00 -1.754649639129638672e+00
1.631000000000000000e+03 4.873947906494140625e+01 -9.292197227478027344e+00 6.402300000190734863e-01 1.070820808410644531e+00 5.133152008056640625e-01 1.686509728431701660e+00
1.632000000000000000e+03 5.053603744506835938e+01 -8.786507606506347656e+00 1.765510201454162598e+00 2.572828769683837891e+00 1.301501631736755371e+00 3.216535568237304688e+00
1.633000000000000000e+03 4.869854354858398438e+01 -3.655487298965454102e+00 6.198050379753112793e-01 9.363867044448852539e-01 4.668575227260589600e-01 -1.533594846725463867e+00
1.634000000000000000e+03 4.746255493164062500e+01 -3.150801658630371094e+00 2.089198231697082520e-01 6.951914429664611816e-01 2.712333798408508301e-01 -1.094942450523376465e+00
1.635000000000000000e+03 4.682244873046875000e+01 -3.127554416656494141e+00 -3.073783032596111298e-02 5.209113955497741699e-01 1.470520645380020142e-01 -8.319476246833801270e-01
1.636000000000000000e+03 4.679075241088867188e+01 -3.645944118499755859e+00 -4.302967488765716553e-01 3.463170230388641357e-01 -2.519391849637031555e-02 -6.139534115791320801e-01
1.637000000000000000e+03 2.097873878479003906e+01 3.451177597045898438e+00 -1.284987628459930420e-01 -6.668220162391662598e-01 -2.385962307453155518e-01 4.310425817966461182e-01
1.638000000000000000e+03 2.561513328552246094e+01 -3.436445474624633789e+00 -3.720477819442749023e-01 -6.169170513749122620e-02 -1.301218420267105103e-01 3.309283256530761719e-01
1.639000000000000000e+03 2.446418762207031250e+01 -2.545514583587646484e+00 -2.725523412227630615e-01 -1.157366037368774414e-01 -1.164866834878921509e-01 3.555294275283813477e-01
1.640000000000000000e+03 1.982491874694824219e+01 -1.369131207466125488e+00 -2.757580578327178955e-02 -2.297345548868179321e-01 -7.719310373067855835e-02 1.341724395751953125e-01
1.641000000000000000e+03 2.701994895935058594e+01 -3.540366649627685547e+00 -4.857991635799407959e-01 -3.518541902303695679e-02 -1.562953740358352661e-01 3.542542159557342529e-01
1.642000000000000000e+03 2.513702201843261719e+01 -2.674525737762451172e+00 -3.207617700099945068e-01 -9.448865801095962524e-02 -1.245751306414604187e-01 3.710609376430511475e-01
1.643000000000000000e+03 2.843366241455078125e+01 -3.577411651611328125e+00 -6.036891341209411621e-01 -1.372055150568485260e-02 -1.852229088544845581e-01 3.703439533710479736e-01
1.644000000000000000e+03 2.719338226318359375e+01 -2.877700567245483398e+00 -4.711958169937133789e-01 -4.389993101358413696e-02 -1.545287221670150757e-01 4.081096947193145752e-01
1.645000000000000000e+03 8.608857154846191406e+00 4.128118038177490234e+00 3.149828116875141859e-04 1.349635655060410500e-03 4.993855254724621773e-04 7.163762347772717476e-04
1.646000000000000000e+03 2.788339424133300781e+01 -2.894108533859252930e+00 -5.217728018760681152e-01 -3.027458488941192627e-02 -1.656142026185989380e-01 4.169457554817199707e-01
1.647000000000000000e+03 2.987132644653320312e+01 -3.588995456695556641e+00 -7.249478697776794434e-01 3.634962486103177071e-03 -2.163938730955123901e-01 3.781090080738067627e-01
1.648000000000000000e+03 9.597929954528808594e+00 -3.133999347686767578e+00 -9.624519407225307077e-06 1.777173456503078341e-04 5.042784687248058617e-05 3.855607064906507730e-04
1.649000000000000000e+03 8.963776588439941406e+00 -3.290939807891845703e+00 -5.719943874282762408e-05 -9.921481978381052613e-05 -4.692427683039568365e-05 -2.350065187783911824e-04
1.650000000000000000e+03 7.921979427337646484e+00 4.103613376617431641e+00 2.286049311805982143e-05 -1.239998848177492619e-03 -3.651414881460368633e-04 -6.206850521266460419e-04
1.651000000000000000e+03 7.124916076660156250e+00 4.836512088775634766e+00 4.193825589027255774e-04 -1.357600907795131207e-03 -2.814655017573386431e-04 -9.991016850108280778e-05
1.652000000000000000e+03 3.632011175155639648e+00 6.308868885040283203e+00 -2.897146332543343306e-04 -2.559752319939434528e-04 -1.637069508433341980e-04 -9.042154852068051696e-05
1.653000000000000000e+03 2.415599107742309570e+00 4.880424022674560547e+00 -3.884186153300106525e-04 -1.561686076456680894e-04 -1.633761567063629627e-04 3.094323255936615169e-05
1.654000000000000000e+03 1.385583281517028809e+00 4.984420299530029297e+00 3.000880533363670111e-04 3.542885679053142667e-05 1.006550737656652927e-04 1.368851226288825274e-04
1.655000000000000000e+03 1.697762846946716309e+00 3.387935161590576172e+00 -2.195303677581250668e-04 -2.783305244520306587e-04 -1.493582676630467176e-04 -5.149083881406113505e-05
1.656000000000000000e+03 3.132809829711914062e+01 -3.582312583923339844e+00 -8.459193706512451172e-01 1.637042872607707977e-02 -2.488646805286407471e-01 3.779594600200653076e-01
1.657000000000000000e+03 3.073006248474121094e+01 -2.903943538665771484e+00 -7.243990302085876465e-01 1.255879923701286316e-02 -2.135520577430725098e-01 4.308421611785888672e-01
1.658000000000000000e+03 2.536763000488281250e+01 -2.023903369903564453e+00 -3.195960819721221924e-01 -1.103006973862648010e-01 -1.289690285921096802e-01 4.201183021068572998e-01
1.659000000000000000e+03 2.312382698059082031e+01 -2.234475135803222656e+00 -1.846209019422531128e-01 -1.598207503557205200e-01 -1.033324971795082092e-01 3.131075203418731689e-01
1.660000000000000000e+03 2.814149093627929688e+01 -1.560277938842773438e+00 -4.620573520660400391e-01 -4.143523052334785461e-02 -1.510477662086486816e-01 5.013419389724731445e-01
1.661000000000000000e+03 3.279897689819335938e+01 -3.557226181030273438e+00 -9.620438814163208008e-01 2.621538750827312469e-02 -2.807485461235046387e-01 3.711202740669250488e-01
1.662000000000000000e+03 3.013459396362304688e+01 -2.230632543563842773e+00 -6.208743453025817871e-01 5.724083166569471359e-03 -1.845450848340988159e-01 4.741806685924530029e-01
1.663000000000000000e+03 7.476658821105957031e+00 -3.365697622299194336e+00 -5.012745532440021634e-05 2.252980812045279890e-05 -8.279293979285284877e-06 -2.051844203379005194e-04
1.664000000000000000e+03 1.074876117706298828e+01 -5.255056381225585938e+00 -1.889510349428746849e-05 3.071535320486873388e-04 8.647752838442102075e-05 -1.707053306745365262e-04
1.665000000000000000e+03 3.428314590454101562e+01 -3.521456718444824219e+00 -1.068760991096496582e+00 3.389675915241241455e-02 -3.104592561721801758e-01 3.565982580184936523e-01
1.666000000000000000e+03 3.292024993896484375e+01 -2.866587877273559570e+00 -8.626587986946105957e-01 3.347121924161911011e-02 -2.487562745809555054e-01 4.182652831077575684e-01
1.667000000000000000e+03 3.577269744873046875e+01 -3.481696605682373047e+00 -1.159977674484252930e+00 3.956849128007888794e-02 -3.361227512359619141e-01 3.332692384719848633e-01
1.668000000000000000e+03 3.218665695190429688e+01 -2.884149551391601562e+00 -8.191632032394409180e-01 2.753902785480022430e-02 -2.374872416257858276e-01 4.244614243507385254e-01
1.669000000000000000e+03 4.609235000610351562e+01 -1.021402549743652344e+01 -1.997213065624237061e-01 5.603168606758117676e-01 1.081786602735519409e-01 8.008531928062438965e-01
1.670000000000000000e+03 4.235731124877929688e+01 -1.048408508300781250e+01 -9.524445533752441406e-01 1.863260418176651001e-01 -2.298355549573898315e-01 1.075901091098785400e-01
1.671000000000000000e+03 4.680556106567382812e+01 -1.012611770629882812e+01 3.260106965899467468e-02 7.069571018218994141e-01 2.218674570322036743e-01 1.037672877311706543e+00
1.672000000000000000e+03 4.160940933227539062e+01 -1.050537204742431641e+01 -1.041370868682861328e+00 1.493361443281173706e-01 -2.676104307174682617e-01 3.065935894846916199e-02
1.673000000000000000e+03 4.011552810668945312e+01 -1.055101490020751953e+01 -1.166954874992370605e+00 9.717900305986404419e-02 -3.209327757358551025e-01 -8.459208905696868896e-02
1.674000000000000000e+03 3.377038192749023438e+01 -2.151029586791992188e+00 -7.883685827255249023e-01 5.286931619048118591e-02 -2.206497788429260254e-01 4.403850734233856201e-01
1.675000000000000000e+03 3.726803970336914062e+01 -3.447015285491943359e+00 -1.230479001998901367e+00 4.445493966341018677e-02 -3.558072447776794434e-01 2.999002933502197266e-01
1.676000000000000000e+03 3.589542388916015625e+01 -2.786908149719238281e+00 -9.985457658767700195e-01 5.553052201867103577e-02 -2.829045653343200684e-01 3.645125031471252441e-01
1.677000000000000000e+03 3.936794281005859375e+01 -1.057639217376708984e+01 -1.208334207534790039e+00 7.789780199527740479e-02 -3.391309082508087158e-01 -1.274371296167373657e-01
1.678000000000000000e+03 4.532331466674804688e+01 -9.610604286193847656e+00 -8.085780739784240723e-01 2.773300409317016602e-01 -1.593744009733200073e-01 3.930621147155761719e-01
1.679000000000000000e+03 4.461590957641601562e+01 -1.035889625549316406e+01 -5.719066858291625977e-01 3.600400686264038086e-01 -6.355997920036315918e-02 4.480574131011962891e-01
1.680000000000000000e+03 4.313209915161132812e+01 -1.118675231933593750e+01 -5.210965275764465332e-01 3.541210889816284180e-01 -5.009263753890991211e-02 3.389982879161834717e-01
1.681000000000000000e+03 4.086281585693359375e+01 -1.052631187438964844e+01 -1.113555073738098145e+00 1.184814721345901489e-01 -2.985220551490783691e-01 -3.158695995807647705e-02
1.682000000000000000e+03 3.934807205200195312e+01 -9.860084533691406250e+00 -1.495817303657531738e+00 4.446855559945106506e-02 -4.354046285152435303e-01 -1.658028215169906616e-01
1.683000000000000000e+03 3.633653640747070312e+01 -9.971263885498046875e+00 -1.496352314949035645e+00 1.371466182172298431e-02 -4.447912871837615967e-01 -2.552826404571533203e-01
1.684000000000000000e+03 3.861754608154296875e+01 -1.060466003417968750e+01 -1.237396478652954102e+00 6.579194217920303345e-02 -3.514813482761383057e-01 -1.667159497737884521e-01
1.685000000000000000e+03 3.801665115356445312e+01 -3.432751655578613281e+00 -1.255645751953125000e+00 4.598031938076019287e-02 -3.628996312618255615e-01 2.791038751602172852e-01
1.686000000000000000e+03 3.601032257080078125e+01 -2.083631753921508789e+00 -8.389978408813476562e-01 7.986964285373687744e-02 -2.277384549379348755e-01 3.792702853679656982e-01
1.687000000000000000e+03 3.558106613159179688e+01 -9.993947029113769531e+00 -1.479263663291931152e+00 6.496621761471033096e-03 -4.418301284313201904e-01 -2.719968855381011963e-01
1.688000000000000000e+03 3.711617279052734375e+01 -1.143230342864990234e+01 -1.024650812149047852e+00 7.654732465744018555e-02 -2.844310402870178223e-01 -2.077352106571197510e-01
1.689000000000000000e+03 1.096955204010009766e+01 3.361388206481933594e+00 6.479860167019069195e-04 5.601304001174867153e-04 3.624349192250519991e-04 8.278345339931547642e-04
1.690000000000000000e+03 1.162400722503662109e+01 4.998950481414794922e+00 -6.529701058752834797e-04 -1.322233933024108410e-03 -5.925612058490514755e-04 -1.653547049500048161e-03
1.691000000000000000e+03 4.026906967163085938e+01 -3.404290914535522461e+00 -1.276393771171569824e+00 6.362605839967727661e-02 -3.638303279876708984e-01 1.908855736255645752e-01
1.692000000000000000e+03 3.963936233520507812e+01 -2.738279819488525391e+00 -1.026924014091491699e+00 9.212021529674530029e-02 -2.804411351680755615e-01 2.127820253372192383e-01
1.693000000000000000e+03 3.888887405395507812e+01 -2.742146253585815430e+00 -1.038508653640747070e+00 7.974914461374282837e-02 -2.876278460025787354e-01 2.538897395133972168e-01
1.694000000000000000e+03 4.753578567504882812e+01 -1.066607761383056641e+01 5.230994820594787598e-01 1.263139367103576660e+00 5.358716845512390137e-01 1.604462623596191406e+00
1.695000000000000000e+03 4.410941696166992188e+01 -2.863635063171386719e+00 -6.613521575927734375e-01 2.300672978162765503e-01 -1.293854564428329468e-01 -2.234583497047424316e-01
1.696000000000000000e+03 4.264191818237304688e+01 -2.769969463348388672e+00 -8.374357223510742188e-01 1.677639037370681763e-01 -2.009015530347824097e-01 -3.256065770983695984e-02
1.697000000000000000e+03 3.664304733276367188e+01 -2.770292043685913086e+00 -1.019201397895812988e+00 6.150634214282035828e-02 -2.873085141181945801e-01 3.427233397960662842e-01
1.698000000000000000e+03 3.330725860595703125e+01 -1.076948261260986328e+01 -1.215489983558654785e+00 7.037424948066473007e-03 -3.625357747077941895e-01 -3.339989483356475830e-01
1.699000000000000000e+03 3.406371307373046875e+01 -1.076466369628906250e+01 -1.231085658073425293e+00 1.450835447758436203e-02 -3.649731874465942383e-01 -3.167694211006164551e-01
1.700000000000000000e+03 4.114016342163085938e+01 -2.742638826370239258e+00 -9.634169340133666992e-01 1.203055754303932190e-01 -2.529334127902984619e-01 1.095799803733825684e-01
1.701000000000000000e+03 4.189238357543945312e+01 -2.752118110656738281e+00 -9.094219207763671875e-01 1.369310021400451660e-01 -2.317472696304321289e-01 4.487413540482521057e-02
1.702000000000000000e+03 4.351690673828125000e+01 -2.153993368148803711e+00 -4.212836325168609619e-01 3.148051500320434570e-01 -3.194354102015495300e-02 -2.543734908103942871e-01
1.703000000000000000e+03 4.550379943847656250e+01 -3.016064882278442383e+00 -4.246454536914825439e-01 3.463116586208343506e-01 -2.350013330578804016e-02 -4.748528599739074707e-01
1.704000000000000000e+03 3.634060668945312500e+01 -1.071545410156250000e+01 -1.258658766746520996e+00 3.172441944479942322e-02 -3.680802881717681885e-01 -2.560537755489349365e-01
1.705000000000000000e+03 2.952980041503906250e+01 -1.079595851898193359e+01 -1.057712554931640625e+00 -4.194972105324268341e-03 -3.185722529888153076e-01 -3.880889117717742920e-01
1.706000000000000000e+03 3.027792167663574219e+01 -1.080281066894531250e+01 -1.093322753906250000e+00 -6.005528382956981659e-03 -3.297984898090362549e-01 -3.802253007888793945e-01
1.707000000000000000e+03 3.179860877990722656e+01 -1.006443595886230469e+01 -1.319631814956665039e+00 -1.020796503871679306e-02 -3.989519178867340088e-01 -3.277154266834259033e-01
1.708000000000000000e+03 3.178713989257812500e+01 -1.079291057586669922e+01 -1.159851074218750000e+00 -2.804270945489406586e-03 -3.487966060638427734e-01 -3.597908318042755127e-01
1.709000000000000000e+03 1.077141952514648438e+01 4.955957412719726562e+00 2.294110745424404740e-04 1.688806805759668350e-03 5.754653830081224442e-04 1.232309034094214439e-03
1.710000000000000000e+03 2.722457313537597656e+01 -1.080146884918212891e+01 -9.304457902908325195e-01 4.090120084583759308e-03 -2.779066860675811768e-01 -4.107525348663330078e-01
1.711000000000000000e+03 9.823153495788574219e+00 -4.786873340606689453e+00 1.879478513728827238e-04 -5.446866853162646294e-04 -1.070216530933976173e-04 1.215282463817857206e-04
1.712000000000000000e+03 4.674737453460693359e+00 -3.635327339172363281e+00 -4.359370359452441335e-05 -1.484919539507245645e-05 -1.753286960592959076e-05 -2.824448456522077322e-04
1.713000000000000000e+03 4.186258316040039062e+00 -4.637222290039062500e+00 -7.567592547275125980e-05 2.407820102234836668e-05 -1.547931788081768900e-05 -3.209006390534341335e-04
1.714000000000000000e+03 6.576966285705566406e+00 -4.549339771270751953e+00 3.022231394425034523e-04 -3.342531272210180759e-04 -9.609002518118359149e-06 -1.127051946241408587e-04
1.715000000000000000e+03 8.233813285827636719e+00 -3.381544113159179688e+00 6.771097105229273438e-05 5.913517452427186072e-05 3.805384403676725924e-05 2.746038080658763647e-04
1.716000000000000000e+03 3.732738494873046875e+00 -7.708717346191406250e+00 3.687095013447105885e-04 -2.629255322972312570e-05 1.027250837069004774e-04 -1.175324650830589235e-04
1.717000000000000000e+03 3.229859590530395508e+00 -3.975874185562133789e+00 -6.832206418039277196e-05 -4.850585537496954203e-05 -3.504837513901293278e-05 -3.407894691918045282e-04
1.718000000000000000e+03 3.475322723388671875e+00 -5.593112468719482422e+00 -9.516974387224763632e-05 3.657163324533030391e-05 -1.757943209668155760e-05 -3.112475387752056122e-04
1.719000000000000000e+03 2.573598623275756836e+00 -5.502604484558105469e+00 3.510655078571289778e-04 2.506112878108979203e-06 1.060714857885614038e-04 1.935292093548923731e-04
1.720000000000000000e+03 3.102930068969726562e+01 -1.080113792419433594e+01 -1.127778649330139160e+00 -4.729837644845247269e-03 -3.397525250911712646e-01 -3.709194064140319824e-01
1.721000000000000000e+03 2.875925827026367188e+01 -1.008545684814453125e+01 -1.125596761703491211e+00 -8.518046699464321136e-03 -3.402344584465026855e-01 -3.528497517108917236e-01
1.722000000000000000e+03 2.325061798095703125e+01 -1.062326145172119141e+01 -7.082961797714233398e-01 3.831523656845092773e-02 -2.009942829608917236e-01 -4.209526181221008301e-01
1.723000000000000000e+03 2.404244613647460938e+01 -1.068144989013671875e+01 -7.517635226249694824e-01 3.286859393119812012e-02 -2.156684696674346924e-01 -4.238888323307037354e-01
1.724000000000000000e+03 2.562968063354492188e+01 -1.003048515319824219e+01 -8.982049226760864258e-01 1.645139418542385101e-02 -2.645260691642761230e-01 -3.709492981433868408e-01
1.725000000000000000e+03 4.617179870605468750e+01 -3.078791379928588867e+00 -2.574828267097473145e-01 4.155202507972717285e-01 4.741122946143150330e-02 -6.408300399780273438e-01
1.726000000000000000e+03 2.877259254455566406e+01 -1.079272651672363281e+01 -1.018572688102722168e+00 -2.616954036056995392e-03 -3.063568770885467529e-01 -3.969067633152008057e-01
1.727000000000000000e+03 1.172045135498046875e+01 4.151889324188232422e+00 9.656929760240018368e-04 6.713779876008629799e-04 4.911213181912899017e-04 1.214737538248300552e-03
1.728000000000000000e+03 2.800311851501464844e+01 -1.079919147491455078e+01 -9.743745326995849609e-01 4.550667363218963146e-04 -2.921758294105529785e-01 -4.047589004039764404e-01
1.729000000000000000e+03 1.907997131347656250e+01 -1.312304115295410156e+01 -5.572089552879333496e-01 -1.145702078938484192e-01 -2.015337496995925903e-01 -4.756982624530792236e-01
1.730000000000000000e+03 1.877803230285644531e+01 -1.171707916259765625e+01 -5.174179673194885254e-01 -1.248463988304138184e-01 -1.926793009042739868e-01 -4.423949718475341797e-01
1.731000000000000000e+03 2.483447837829589844e+01 -1.073582172393798828e+01 -7.961718440055847168e-01 2.895615436136722565e-02 -2.301647067070007324e-01 -4.241224527359008789e-01
1.732000000000000000e+03 1.871955871582031250e+01 -8.315359115600585938e+00 -2.354362905025482178e-01 -6.210084632039070129e-02 -8.926114439964294434e-02 -1.834156364202499390e-01
1.733000000000000000e+03 2.161566734313964844e+01 -1.060686397552490234e+01 -6.146382093429565430e-01 2.375826798379421234e-02 -1.772639900445938110e-01 -4.145165383815765381e-01
1.734000000000000000e+03 2.244344329833984375e+01 -1.059571647644042969e+01 -6.601370573043823242e-01 3.349379450082778931e-02 -1.879929751157760620e-01 -4.191319346427917480e-01
1.735000000000000000e+03 1.895071411132812500e+01 -1.045680618286132812e+01 -4.478955268859863281e-01 -1.056449413299560547e-01 -1.660621315240859985e-01 -3.788037002086639404e-01
1.736000000000000000e+03 1.918530845642089844e+01 -9.439463615417480469e+00 -3.877433538436889648e-01 -6.555058807134628296e-02 -1.359881907701492310e-01 -3.041412830352783203e-01
1.737000000000000000e+03 1.012588119506835938e+01 9.999834060668945312e+00 -2.077197132166475058e-04 -2.716763876378536224e-03 -8.773450972512364388e-04 -9.780129184946417809e-04
1.738000000000000000e+03 9.956844329833984375e+00 8.474893569946289062e+00 5.831155576743185520e-04 -2.329142298549413681e-03 -5.238080048002302647e-04 -3.138764586765319109e-04
1.739000000000000000e+03 2.962171316146850586e+00 1.153559589385986328e+01 5.691423546522855759e-03 -1.325852004811167717e-03 1.309671555645763874e-03 -3.310305299237370491e-03
1.740000000000000000e+03 6.675889968872070312e+00 1.832961654663085938e+01 -1.416125595569610596e-01 -2.987808734178543091e-02 -5.144719406962394714e-02 3.953453153371810913e-02
1.741000000000000000e+03 3.090283393859863281e+00 1.726763534545898438e+01 -1.419423334300518036e-02 -2.424099296331405640e-02 -1.153056789189577103e-02 -7.228182163089513779e-03
1.742000000000000000e+03 9.965060234069824219e+00 4.964139938354492188e+00 -4.287788760848343372e-05 -1.491855946369469166e-03 -4.604201531037688255e-04 -9.181995992548763752e-04
1.743000000000000000e+03 4.128799915313720703e+00 1.110848426818847656e+01 2.778519177809357643e-03 -3.443502588197588921e-03 -1.994949998334050179e-04 -1.095124753192067146e-03
1.744000000000000000e+03 7.604029178619384766e+00 -2.487420272827148438e+01 -1.313536427915096283e-02 -4.209500849246978760e-01 -1.302256435155868530e-01 -3.840402960777282715e-01
1.745000000000000000e+03 7.729655742645263672e+00 -2.285880470275878906e+01 -1.262472122907638550e-01 -3.571930229663848877e-01 -1.450320780277252197e-01 -4.043970406055450439e-01
1.746000000000000000e+03 2.857100009918212891e+00 -1.902887725830078125e+01 -5.239196494221687317e-02 -3.664292022585868835e-02 -2.671046555042266846e-02 -4.561303555965423584e-02
1.747000000000000000e+03 6.089470863342285156e+00 -1.857529067993164062e+01 -2.407112121582031250e-01 -3.493100404739379883e-02 -8.269266039133071899e-02 -9.386314451694488525e-02
1.748000000000000000e+03 9.210412979125976562e+00 -4.097198963165283203e+00 -6.629050039919093251e-05 4.087704292032867670e-04 1.027439793688245118e-04 3.453003882896155119e-04
1.749000000000000000e+03 7.566459655761718750e+00 -2.108148765563964844e+01 -2.621212899684906006e-01 -2.384189069271087646e-01 -1.501620560884475708e-01 -3.749820888042449951e-01
1.750000000000000000e+03 2.242862129211425781e+01 7.443375110626220703e+00 -3.306162953376770020e-01 -6.427519321441650391e-01 -2.920104563236236572e-01 6.086845397949218750e-01
1.751000000000000000e+03 2.102658653259277344e+01 6.200041294097900391e+00 -2.345360517501831055e-01 -8.721975684165954590e-01 -3.320201039314270020e-01 5.408032536506652832e-01
1.752000000000000000e+03 2.064111328125000000e+01 -1.298631578683853149e-01 -5.283626541495323181e-02 -3.474586009979248047e-01 -1.200884655117988586e-01 2.471161484718322754e-01
1.753000000000000000e+03 9.234984397888183594e+00 9.349168777465820312e+00 -3.121684421785175800e-04 3.045663004741072655e-03 8.200483862310647964e-04 3.335296642035245895e-04
1.754000000000000000e+03 1.254398059844970703e+01 5.029232978820800781e+00 1.228728564456105232e-03 7.002599304541945457e-04 5.786965484730899334e-04 1.290659070946276188e-03
1.755000000000000000e+03 7.636764526367187500e+00 -6.147518157958984375e+00 -2.284384827362373471e-04 7.468984113074839115e-04 1.555379858473315835e-04 1.481914951000362635e-04
1.756000000000000000e+03 8.448782920837402344e+00 1.202005577087402344e+01 4.956508637405931950e-04 8.467279258184134960e-04 4.027136601507663727e-04 -1.141670436481945217e-04
1.757000000000000000e+03 5.812906265258789062e+00 1.143862724304199219e+01 3.334938315674662590e-03 -5.151272285729646683e-03 -5.449001328088343143e-04 3.033098299056291580e-03
1.758000000000000000e+03 1.372035503387451172e+01 2.031705856323242188e+01 -4.236708283424377441e-01 -9.655228853225708008e-01 -4.167581200599670410e-01 5.693470239639282227e-01
1.759000000000000000e+03 7.531938171386718750e+01 1.396606159210205078e+01 -8.071577548980712891e-02 7.921041011810302734e+00 2.352097749710083008e+00 4.799718856811523438e-01
1.760000000000000000e+03 7.695726013183593750e+01 1.437842965126037598e+00 4.949570819735527039e-02 6.563952445983886719e+00 1.984034419059753418e+00 4.159892201423645020e-01
1.761000000000000000e+03 7.579182434082031250e+01 4.293581843376159668e-02 1.187052950263023376e-01 6.649552822113037109e+00 2.030477285385131836e+00 4.703400433063507080e-01
1.762000000000000000e+03 7.578400421142578125e+01 -1.517122268676757812e+01 6.233257427811622620e-02 6.851078510284423828e+00 2.074023246765136719e+00 -5.513136386871337891e-01
1.763000000000000000e+03 7.700589752197265625e+01 -1.380028438568115234e+01 5.207783728837966919e-02 6.506725311279296875e+00 1.967640995979309082e+00 -3.922631740570068359e-01
1.764000000000000000e+03 7.460426330566406250e+01 -1.237262058258056641e+01 1.933059841394424438e-01 6.824775695800781250e+00 2.105424642562866211e+00 -5.262782573699951172e-01
1.765000000000000000e+03 7.579737854003906250e+01 -1.377138233184814453e+01 9.377706050872802734e-02 6.725121974945068359e+00 2.045669555664062500e+00 -5.049479007720947266e-01
1.766000000000000000e+03 7.579885864257812500e+01 -1.098893928527832031e+01 1.555269211530685425e-01 6.513468265533447266e+00 2.000698566436767578e+00 -3.570989966392517090e-01
1.767000000000000000e+03 7.331392669677734375e+01 3.275832748413085938e+01 -4.346863925457000732e-02 8.261303901672363281e+00 2.465350627899169922e+00 7.623106241226196289e-02
1.768000000000000000e+03 7.449198913574218750e+01 3.009633445739746094e+01 -4.162122309207916260e-02 8.411349296569824219e+00 2.510918378829956055e+00 1.103971526026725769e-01
1.769000000000000000e+03 7.575896453857421875e+01 -6.812562942504882812e+00 2.017860114574432373e-01 6.373169422149658203e+00 1.972486615180969238e+00 -3.316992521286010742e-02
1.770000000000000000e+03 7.579157257080078125e+01 -4.072579860687255859e+00 1.899362653493881226e-01 6.404435157775878906e+00 1.978311419486999512e+00 1.944289505481719971e-01
1.771000000000000000e+03 7.583650970458984375e+01 -1.795879173278808594e+01 6.090393289923667908e-03 7.115186691284179688e+00 2.136383056640625000e+00 -5.853753685951232910e-01
1.772000000000000000e+03 7.592647552490234375e+01 -2.197652435302734375e+01 -4.678779095411300659e-02 7.503247261047363281e+00 2.236937761306762695e+00 -5.367553234100341797e-01
1.773000000000000000e+03 7.693448638916015625e+01 2.815412998199462891e+00 3.208488598465919495e-02 6.719657897949218750e+00 2.025522947311401367e+00 4.512335956096649170e-01
1.774000000000000000e+03 7.576544189453125000e+01 1.408059716224670410e+00 8.790010958909988403e-02 6.770599842071533203e+00 2.057549953460693359e+00 5.316186547279357910e-01
1.775000000000000000e+03 7.559643554687500000e+01 6.903396129608154297e+00 -1.924697868525981903e-02 7.322344303131103516e+00 2.190929174423217773e+00 6.177781820297241211e-01
1.776000000000000000e+03 7.658640289306640625e+01 1.835767555236816406e+01 -4.068052396178245544e-02 8.279877662658691406e+00 2.471759080886840820e+00 2.698226273059844971e-01
1.777000000000000000e+03 7.658442687988281250e+01 1.691675758361816406e+01 -5.037855356931686401e-02 8.187630653381347656e+00 2.441175699234008789e+00 3.074513077735900879e-01
1.778000000000000000e+03 7.576984405517578125e+01 -5.441935539245605469e+00 2.010684609413146973e-01 6.377309322357177734e+00 1.973513364791870117e+00 8.245862275362014771e-02
1.779000000000000000e+03 7.580818176269531250e+01 -2.699458837509155273e+00 1.732571423053741455e-01 6.461581707000732422e+00 1.990451574325561523e+00 3.013349473476409912e-01
1.780000000000000000e+03 7.549673461914062500e+01 9.689712524414062500e+00 -5.489822104573249817e-02 7.586573600769042969e+00 2.259502649307250977e+00 5.834432244300842285e-01
1.781000000000000000e+03 7.702980041503906250e+01 -1.796763420104980469e+01 3.682700684294104576e-03 6.976155757904052734e+00 2.093951463699340820e+00 -4.540912210941314697e-01
1.782000000000000000e+03 7.590175628662109375e+01 -1.931954002380371094e+01 -1.384656038135290146e-02 7.245537757873535156e+00 2.169507265090942383e+00 -5.770252943038940430e-01
1.783000000000000000e+03 7.453501892089843750e+01 2.699623823165893555e+00 9.221382439136505127e-02 7.071125984191894531e+00 2.149002075195312500e+00 6.801432967185974121e-01
1.784000000000000000e+03 7.573099517822265625e+01 2.772591114044189453e+00 5.923703312873840332e-02 6.901988983154296875e+00 2.088367938995361328e+00 5.756880640983581543e-01
1.785000000000000000e+03 7.518192291259765625e+01 -2.837947845458984375e+01 -8.951674401760101318e-02 7.982570171356201172e+00 2.367916107177734375e+00 -4.058444797992706299e-01
1.786000000000000000e+03 7.673251342773437500e+01 -2.741542434692382812e+01 -4.513640701770782471e-02 7.977813243865966797e+00 2.379802942276000977e+00 -3.327658176422119141e-01
1.787000000000000000e+03 7.480214691162109375e+01 -2.319012260437011719e+01 -8.148211240768432617e-02 7.647037982940673828e+00 2.269666671752929688e+00 -6.039705276489257812e-01
1.788000000000000000e+03 7.510811614990234375e+01 1.847391510009765625e+01 -8.445336669683456421e-02 8.181100845336914062e+00 2.428994178771972656e+00 3.480004370212554932e-01
1.789000000000000000e+03 7.551218414306640625e+01 2.119692230224609375e+01 -7.672392576932907104e-02 8.318841934204101562e+00 2.472635269165039062e+00 2.639865279197692871e-01
1.790000000000000000e+03 7.521906280517578125e+01 1.994892120361328125e+01 -6.405180692672729492e-02 8.252169609069824219e+00 2.456435203552246094e+00 3.011308312416076660e-01
1.791000000000000000e+03 7.380685424804687500e+01 1.685613441467285156e+01 -1.361265331506729126e-01 8.021162986755371094e+00 2.365510940551757812e+00 4.645339846611022949e-01
1.792000000000000000e+03 7.543886566162109375e+01 1.109884643554687500e+01 -6.788639724254608154e-02 7.708893299102783203e+00 2.292302131652832031e+00 5.534386634826660156e-01
1.793000000000000000e+03 7.422322845458984375e+01 9.555684089660644531e+00 -8.315145969390869141e-02 7.637090682983398438e+00 2.266181707382202148e+00 6.855589747428894043e-01
1.794000000000000000e+03 7.582077026367187500e+01 -2.460266304016113281e+01 -6.282345205545425415e-02 7.737812519073486328e+00 2.302496671676635742e+00 -4.813430309295654297e-01
1.795000000000000000e+03 7.572962188720703125e+01 -2.587231063842773438e+01 -6.977059692144393921e-02 7.831026077270507812e+00 2.328376770019531250e+00 -4.549488127231597900e-01
1.796000000000000000e+03 7.182380676269531250e+01 2.713711929321289062e+01 -1.097933277487754822e-01 8.062452316284179688e+00 2.385797739028930664e+00 1.869584918022155762e-01
1.797000000000000000e+03 7.369015502929687500e+01 2.470015907287597656e+01 -8.464444428682327271e-02 8.251941680908203125e+00 2.450189113616943359e+00 2.262303680181503296e-01
1.798000000000000000e+03 7.458124542236328125e+01 2.666397857666015625e+01 -5.821636319160461426e-02 8.370815277099609375e+00 2.493779659271240234e+00 1.663600355386734009e-01
1.799000000000000000e+03 7.653627014160156250e+01 2.964951515197753906e+01 -2.364355325698852539e-02 8.689695358276367188e+00 2.599815607070922852e+00 9.024127572774887085e-02
1.800000000000000000e+03 7.672652435302734375e+01 3.080161285400390625e+01 -1.657372526824474335e-02 8.752406120300292969e+00 2.620749711990356445e+00 7.500248402357101440e-02
1.801000000000000000e+03 7.334554290771484375e+01 -2.903580284118652344e+01 -1.566485911607742310e-01 7.943431377410888672e+00 2.336034774780273438e+00 -4.605320692062377930e-01
1.802000000000000000e+03 7.234938812255859375e+01 -3.631682968139648438e+01 -1.957101523876190186e-01 7.987263202667236328e+00 2.337465763092041016e+00 -2.003958076238632202e-01
1.803000000000000000e+03 7.566512298583984375e+01 3.048089027404785156e+01 -3.033883124589920044e-02 8.566784858703613281e+00 2.560933828353881836e+00 8.642813563346862793e-02
1.804000000000000000e+03 7.472119903564453125e+01 -2.968379211425781250e+01 -1.069904044270515442e-01 8.025569915771484375e+00 2.375573873519897461e+00 -3.807035684585571289e-01
1.805000000000000000e+03 7.503060913085937500e+01 -3.476335525512695312e+01 -1.059758290648460388e-01 8.221309661865234375e+00 2.434600114822387695e+00 -2.122040987014770508e-01
1.806000000000000000e+03 3.107389450073242188e+00 1.584334754943847656e+01 1.083441544324159622e-03 -1.925435848534107208e-02 -5.451275035738945007e-03 -1.263304892927408218e-02
1.807000000000000000e+03 3.721750736236572266e+00 -1.599183464050292969e+01 -3.614010522142052650e-03 -3.324913233518600464e-02 -1.105894241482019424e-02 5.168243777006864548e-03
1.808000000000000000e+03 3.692567348480224609e+00 -1.384918022155761719e+01 8.199578151106834412e-03 -1.526106894016265869e-02 -2.118447329849004745e-03 3.830656409263610840e-03
1.809000000000000000e+03 5.482667446136474609e+00 1.971938133239746094e+01 -1.777689754962921143e-01 -6.544145941734313965e-02 -7.296312600374221802e-02 9.554665535688400269e-02
1.810000000000000000e+03 3.168121576309204102e+00 1.874465751647949219e+01 -3.994661569595336914e-02 -4.461758211255073547e-02 -2.536926046013832092e-02 2.240153774619102478e-02
1.811000000000000000e+03 5.307082176208496094e+00 2.114787101745605469e+01 -1.832945942878723145e-01 -1.265109926462173462e-01 -9.294167906045913696e-02 1.951407194137573242e-01
1.812000000000000000e+03 4.532147884368896484e+00 -1.676789474487304688e+01 -1.254848856478929520e-02 -3.449320420622825623e-02 -1.411250792443752289e-02 -2.945855259895324707e-03
1.813000000000000000e+03 3.268726110458374023e+00 1.438676166534423828e+01 9.561211802065372467e-03 -1.250195410102605820e-02 -8.822225499898195267e-04 -8.358616381883621216e-03
1.814000000000000000e+03 4.389081478118896484e+00 1.841706848144531250e+01 -6.864123046398162842e-02 -5.339233204722404480e-02 -3.661006689071655273e-02 2.629582583904266357e-02
1.815000000000000000e+03 4.264300346374511719e+00 2.498347091674804688e+01 -4.482350870966911316e-02 -3.338018953800201416e-01 -1.135876178741455078e-01 2.834632694721221924e-01
1.816000000000000000e+03 4.748289585113525391e+00 3.012100982666015625e+01 4.031350091099739075e-02 -5.814614892005920410e-01 -1.623443961143493652e-01 2.797869443893432617e-01
1.817000000000000000e+03 7.035882949829101562e+00 -2.343625450134277344e+01 -9.557259827852249146e-02 -3.420247435569763184e-01 -1.312792003154754639e-01 -3.706140220165252686e-01
1.818000000000000000e+03 4.618336677551269531e+00 -1.286855602264404297e+01 7.641974370926618576e-03 -7.102554198354482651e-03 1.618261303519830108e-04 -3.753706812858581543e-03
1.819000000000000000e+03 2.819396018981933594e+00 -9.119456291198730469e+00 6.568045355379581451e-04 2.746264954112120904e-06 1.978652435354888439e-04 2.206673379987478256e-04
1.820000000000000000e+03 2.960836887359619141e+00 -1.045434474945068359e+01 2.517023123800754547e-03 -1.143332920037209988e-03 4.121070960536599159e-04 1.561099430546164513e-03
1.821000000000000000e+03 5.139204502105712891e+00 -1.954746627807617188e+01 -1.541152745485305786e-01 -8.339434862136840820e-02 -7.125288993120193481e-02 -1.463275253772735596e-01
1.822000000000000000e+03 3.141800403594970703e+00 -2.305708122253417969e+01 -3.689493983983993530e-02 -2.133015692234039307e-01 -7.505895197391510010e-02 -1.755011975765228271e-01
1.823000000000000000e+03 4.816183567047119141e+00 -2.119720649719238281e+01 -1.222504898905754089e-01 -1.662372946739196777e-01 -8.654633164405822754e-02 -2.122717350721359253e-01
1.824000000000000000e+03 5.993813514709472656e+00 2.339249420166015625e+01 -1.401221454143524170e-01 -3.087460994720458984e-01 -1.346604675054550171e-01 3.643039464950561523e-01
1.825000000000000000e+03 4.298192501068115234e+00 2.738683128356933594e+01 1.438108552247285843e-02 -4.699532091617584229e-01 -1.366716325283050537e-01 2.905414700508117676e-01
1.826000000000000000e+03 5.250350952148437500e+00 2.454648780822753906e+01 -6.683357805013656616e-02 -3.498101234436035156e-01 -1.249931082129478455e-01 3.278477787971496582e-01
1.827000000000000000e+03 3.310476064682006836e+00 -2.460048866271972656e+01 -2.791589498519897461e-02 -2.900373637676239014e-01 -9.538597613573074341e-02 -2.126247286796569824e-01
1.828000000000000000e+03 4.960728645324707031e+00 -2.341858673095703125e+01 -7.377039641141891479e-02 -2.719166576862335205e-01 -1.037061139941215515e-01 -2.810938656330108643e-01
1.829000000000000000e+03 5.066870689392089844e+00 -2.228797149658203125e+01 -1.085061952471733093e-01 -2.130594253540039062e-01 -9.646968543529510498e-02 -2.570971846580505371e-01
1.830000000000000000e+03 4.732480525970458984e+00 -2.474761390686035156e+01 -2.500209398567676544e-02 -3.353299498558044434e-01 -1.080996096134185791e-01 -2.753494679927825928e-01
1.831000000000000000e+03 3.850633382797241211e+00 -3.161003684997558594e+01 4.293262958526611328e-02 -6.080750823020935059e-01 -1.695427447557449341e-01 -1.873242259025573730e-01
1.832000000000000000e+03 4.875875473022460938e+00 -2.863915252685546875e+01 3.131954744458198547e-02 -4.853872060775756836e-01 -1.362202912569046021e-01 -2.669534981250762939e-01
1.833000000000000000e+03 4.730889320373535156e+00 9.577201843261718750e+00 1.398676657117903233e-03 -1.704274676740169525e-03 -9.167940152110531926e-05 1.021801435854285955e-04
1.834000000000000000e+03 6.113621234893798828e+00 3.010856246948242188e+01 7.376013696193695068e-02 -5.901086926460266113e-01 -1.549045741558074951e-01 3.300303518772125244e-01
1.835000000000000000e+03 6.189590454101562500e+00 3.650270080566406250e+01 1.105951517820358276e-01 -7.111676931381225586e-01 -1.801717579364776611e-01 1.705813407897949219e-01
1.836000000000000000e+03 3.014224052429199219e+00 -1.188908672332763672e+01 3.706899005919694901e-03 -2.295837970450520515e-03 4.233183281030505896e-04 3.006793558597564697e-03
1.837000000000000000e+03 6.103577613830566406e+00 9.750898361206054688e+00 1.955859595909714699e-03 -1.889381674118340015e-03 1.994335070776287466e-05 1.267160638235509396e-03
1.838000000000000000e+03 3.557213783264160156e+00 -6.599347114562988281e+00 3.538275195751339197e-04 1.385851937811821699e-04 1.477238110965117812e-04 3.302739642094820738e-04
1.839000000000000000e+03 6.995015144348144531e+00 -3.082670402526855469e+01 8.541444689035415649e-02 -5.129377841949462891e-01 -1.282569915056228638e-01 -2.812267839908599854e-01
1.840000000000000000e+03 4.991126537322998047e+00 -2.992638969421386719e+01 5.166201665997505188e-02 -5.291560292243957520e-01 -1.432482153177261353e-01 -2.497248351573944092e-01
1.841000000000000000e+03 5.444980621337890625e+00 -3.137211418151855469e+01 5.987734720110893250e-02 -5.535461902618408203e-01 -1.481006443500518799e-01 -2.401820421218872070e-01
1.842000000000000000e+03 4.582986831665039062e+00 2.869553565979003906e+01 2.672898024320602417e-02 -5.237439870834350586e-01 -1.491045057773590088e-01 2.927615642547607422e-01
1.843000000000000000e+03 3.845773935317993164e+00 3.465457153320312500e+01 6.865306943655014038e-02 -7.570420503616333008e-01 -2.065166980028152466e-01 1.657671183347702026e-01
1.844000000000000000e+03 6.732862949371337891e+00 3.395822143554687500e+01 1.242242082953453064e-01 -6.538416147232055664e-01 -1.588852256536483765e-01 2.499688118696212769e-01
1.845000000000000000e+03 5.390790462493896484e+00 3.519278717041015625e+01 1.019733846187591553e-01 -7.118902802467346191e-01 -1.829750686883926392e-01 1.901646703481674194e-01
1.846000000000000000e+03 3.621933698654174805e+00 8.738860130310058594e+00 9.906936611514538527e-05 -2.784395765047520399e-04 -5.381106166169047356e-05 -4.097694472875446081e-04
1.847000000000000000e+03 5.659840106964111328e+00 5.555809974670410156e+00 8.394863107241690159e-04 5.829371511936187744e-04 4.267270560376346111e-04 -2.507515309844166040e-04
1.848000000000000000e+03 6.284274578094482422e+00 -3.599943161010742188e+01 9.392848610877990723e-02 -6.248843073844909668e-01 -1.592867374420166016e-01 -1.621724516153335571e-01
1.849000000000000000e+03 7.767749309539794922e+00 -7.611608505249023438e+00 -2.810047008097171783e-04 1.098214183002710342e-03 2.451628679409623146e-04 2.437816583551466465e-04
1.850000000000000000e+03 1.446660232543945312e+01 -1.792226219177246094e+01 -5.172265172004699707e-01 -4.504305720329284668e-01 -2.902971208095550537e-01 -4.288149774074554443e-01
1.851000000000000000e+03 1.808097839355468750e+01 -1.595698833465576172e+01 -5.179714560508728027e-01 -1.911625713109970093e-01 -2.127402126789093018e-01 -4.639982283115386963e-01
1.852000000000000000e+03 5.148274898529052734e+00 -8.477093696594238281e+00 8.672618423588573933e-04 -2.886649745050817728e-04 1.735790574457496405e-04 -3.428083728067576885e-04
1.853000000000000000e+03 2.084697532653808594e+01 -1.155133056640625000e+01 -5.886160135269165039e-01 -3.035761415958404541e-03 -1.774955391883850098e-01 -4.507378041744232178e-01
1.854000000000000000e+03 6.528223514556884766e+00 1.983415985107421875e+01 -2.457008361816406250e-01 -4.537786915898323059e-02 -8.732361346483230591e-02 1.156605258584022522e-01
1.855000000000000000e+03 4.467559814453125000e+00 1.966949462890625000e+01 -1.083491891622543335e-01 -7.191977649927139282e-02 -5.408069118857383728e-02 7.336147129535675049e-02
1.856000000000000000e+03 1.096903038024902344e+01 -2.136128616333007812e+01 -1.945751756429672241e-01 -5.150634646415710449e-01 -2.128915935754776001e-01 -4.351450502872467041e-01
1.857000000000000000e+03 2.269234275817871094e+01 1.233073043823242188e+01 -4.460269510746002197e-01 -5.002092719078063965e-01 -2.838708460330963135e-01 4.736713171005249023e-01
1.858000000000000000e+03 6.540222644805908203e+00 -1.052636051177978516e+01 1.330473809503018856e-03 -6.484510959126055241e-04 2.046068111667409539e-04 -2.184778219088912010e-03
1.859000000000000000e+03 8.474804878234863281e+00 2.195442771911621094e+01 -2.742516696453094482e-01 -3.900455236434936523e-01 -1.992891579866409302e-01 4.930189251899719238e-01
1.860000000000000000e+03 2.232622146606445312e+01 6.062903404235839844e+00 -2.654882073402404785e-01 -6.358338594436645508e-01 -2.703966200351715088e-01 5.950820446014404297e-01
1.861000000000000000e+03 1.896322631835937500e+01 -1.509108448028564453e+01 -5.387312173843383789e-01 -1.306978464126586914e-01 -2.008287161588668823e-01 -4.787634015083312988e-01
1.862000000000000000e+03 4.316692352294921875e+00 -1.021475410461425781e+01 2.146285260096192360e-03 -9.294086485169827938e-04 3.650629660114645958e-04 -3.537709126248955727e-04
1.863000000000000000e+03 1.720155906677246094e+01 -1.700571823120117188e+01 -4.868053197860717773e-01 -2.623409330844879150e-01 -2.247438728809356689e-01 -4.404174983501434326e-01
1.864000000000000000e+03 2.076133537292480469e+01 -1.062682723999023438e+01 -5.686172842979431152e-01 -6.473315879702568054e-04 -1.707793772220611572e-01 -4.100503623485565186e-01
1.865000000000000000e+03 1.989028167724609375e+01 -1.167467498779296875e+01 -5.574546456336975098e-01 -4.591199383139610291e-02 -1.810099929571151733e-01 -4.484541416168212891e-01
1.866000000000000000e+03 1.676518249511718750e+01 1.912167739868164062e+01 -4.427363574504852295e-01 -9.744015932083129883e-01 -4.251413643360137939e-01 4.407542645931243896e-01
1.867000000000000000e+03 1.676530456542968750e+01 1.706670188903808594e+01 -7.090111374855041504e-01 -1.177934169769287109e+00 -5.660836100578308105e-01 6.201936006546020508e-01
1.868000000000000000e+03 2.225187873840332031e+01 4.707871437072753906e+00 -2.114007622003555298e-01 -5.943822860717773438e-01 -2.417349070310592651e-01 5.621274113655090332e-01
1.869000000000000000e+03 1.475457000732421875e+01 1.924222183227539062e+01 -5.841391086578369141e-01 -1.063681006431579590e+00 -4.943460226058959961e-01 5.996067523956298828e-01
1.870000000000000000e+03 1.380974769592285156e+01 -1.895299530029296875e+01 -4.225484132766723633e-01 -4.831311404705047607e-01 -2.717038691043853760e-01 -3.962400257587432861e-01
1.871000000000000000e+03 1.477373218536376953e+01 -1.989210510253906250e+01 -3.257645070552825928e-01 -4.165188670158386230e-01 -2.226850092411041260e-01 -3.825461864471435547e-01
1.872000000000000000e+03 2.264494895935058594e+01 8.866496086120605469e+00 -3.765209019184112549e-01 -5.764790177345275879e-01 -2.858999669551849365e-01 5.843271017074584961e-01
1.873000000000000000e+03 2.532356262207031250e+01 8.209528923034667969e+00 -2.887342870235443115e-01 -1.999119073152542114e-01 -1.465938538312911987e-01 5.578775405883789062e-01
1.874000000000000000e+03 5.224060821533203125e+01 -8.046958923339843750e+00 3.286691904067993164e+00 8.638522148132324219e+00 3.577564239501953125e+00 6.580639839172363281e+00
1.875000000000000000e+03 5.208001708984375000e+01 -8.345461845397949219e+00 2.792064666748046875e+00 7.823583602905273438e+00 3.184694528579711914e+00 6.011538505554199219e+00
1.876000000000000000e+03 5.240468978881835938e+01 -4.028690814971923828e+00 1.766399025917053223e+00 1.035103797912597656e+01 3.635231018066406250e+00 -5.746603488922119141e+00
1.877000000000000000e+03 5.203407287597656250e+01 -4.044121742248535156e+00 2.233735799789428711e+00 8.081857681274414062e+00 3.094677925109863281e+00 -5.640076637268066406e+00
1.878000000000000000e+03 5.287597656250000000e+01 -8.320029258728027344e+00 1.541773319244384766e+00 1.433609580993652344e+01 4.763360500335693359e+00 5.851510047912597656e+00
1.879000000000000000e+03 5.380024719238281250e+01 -4.285619258880615234e+00 1.131000399589538574e+00 1.767460441589355469e+01 5.641681194305419922e+00 -1.860694289207458496e+00
1.880000000000000000e+03 5.292357254028320312e+01 -8.603212356567382812e+00 1.113085269927978516e+00 1.403213024139404297e+01 4.543564796447753906e+00 5.240027427673339844e+00
1.881000000000000000e+03 5.553277969360351562e+01 -5.895609378814697266e+00 8.280258178710937500e+00 1.412526607513427734e+01 6.721657276153564453e+00 1.148341059684753418e+00
1.882000000000000000e+03 5.451304626464843750e+01 -8.157323837280273438e+00 3.093958377838134766e+00 1.791642761230468750e+01 6.303115844726562500e+00 -1.106917738914489746e+00
1.883000000000000000e+03 5.416404342651367188e+01 -4.710096359252929688e+00 2.649573564529418945e+00 1.917144966125488281e+01 6.546307086944580078e+00 3.125082254409790039e-01
1.884000000000000000e+03 5.537060165405273438e+01 -7.338350296020507812e+00 7.186490058898925781e+00 1.497131729125976562e+01 6.647342205047607422e+00 -1.964419960975646973e+00
1.885000000000000000e+03 5.534433364868164062e+01 -6.193624496459960938e+00 9.201345443725585938e+00 1.450198364257812500e+01 7.110998630523681641e+00 5.326566100120544434e-01
1.886000000000000000e+03 5.569859695434570312e+01 -6.275353431701660156e+00 8.390913009643554688e+00 1.358081626892089844e+01 6.591518878936767578e+00 2.439696639776229858e-01
1.887000000000000000e+03 5.467192459106445312e+01 -5.106202125549316406e+00 5.493419170379638672e+00 1.792243003845214844e+01 7.024755001068115234e+00 2.180067777633666992e+00
1.888000000000000000e+03 4.923766708374023438e+01 -9.288888931274414062e+00 9.480859637260437012e-01 1.477369189262390137e+00 7.276365160942077637e-01 2.107210159301757812e+00
1.889000000000000000e+03 5.094609069824218750e+01 -9.026827812194824219e+00 2.063169240951538086e+00 3.884879589080810547e+00 1.784414529800415039e+00 4.038173198699951172e+00
1.890000000000000000e+03 5.164661026000976562e+01 -8.892593383789062500e+00 2.194857358932495117e+00 6.313453197479248047e+00 2.552493095397949219e+00 5.099877357482910156e+00
1.891000000000000000e+03 5.083556747436523438e+01 -4.218107700347900391e+00 2.239675998687744141e+00 2.929881095886230469e+00 1.550867080688476562e+00 -3.589324951171875000e+00
1.892000000000000000e+03 4.989893722534179688e+01 -3.729312896728515625e+00 1.472464442253112793e+00 1.946586608886718750e+00 1.025715351104736328e+00 -2.604068994522094727e+00
1.893000000000000000e+03 4.869745254516601562e+01 -3.099942207336425781e+00 8.991472125053405762e-01 1.353360295295715332e+00 6.757522225379943848e-01 -1.884004712104797363e+00
1.894000000000000000e+03 4.814142608642578125e+01 -9.941860198974609375e+00 5.727513432502746582e-01 1.192138791084289551e+00 5.294670462608337402e-01 1.654909372329711914e+00
1.895000000000000000e+03 5.020904159545898438e+01 -9.446449279785156250e+00 1.599841833114624023e+00 2.889227628707885742e+00 1.346720814704895020e+00 3.238027811050415039e+00
1.896000000000000000e+03 4.744460678100585938e+01 -2.656875133514404297e+00 4.794237911701202393e-01 9.398798346519470215e-01 4.257910847663879395e-01 -1.319615840911865234e+00
1.897000000000000000e+03 2.379749107360839844e+01 -2.399174928665161133e+00 -2.284224182367324829e-01 -1.370544284582138062e-01 -1.096430495381355286e-01 3.360345959663391113e-01
1.898000000000000000e+03 2.341335868835449219e+01 -1.484634041786193848e+00 -1.951218694448471069e-01 -1.914504319429397583e-01 -1.159716919064521790e-01 3.727746307849884033e-01
1.899000000000000000e+03 4.930497360229492188e+01 -3.090162754058837891e+00 1.215568542480468750e+00 1.843971729278564453e+00 9.178620576858520508e-01 -2.364544868469238281e+00
1.900000000000000000e+03 4.789743423461914062e+01 -2.130273342132568359e+00 7.907881140708923340e-01 1.433736801147460938e+00 6.673575043678283691e-01 -1.740697503089904785e+00
1.901000000000000000e+03 2.203063964843750000e+01 -1.097972631454467773e+00 -1.170896440744400024e-01 -2.519966065883636475e-01 -1.107258722186088562e-01 3.118348717689514160e-01
1.902000000000000000e+03 2.174381065368652344e+01 -1.871285915374755859e+00 -1.042149215936660767e-01 -2.005413025617599487e-01 -9.142687171697616577e-02 2.492551058530807495e-01
1.903000000000000000e+03 2.472391128540039062e+01 -1.863637685775756836e+00 -2.785456180572509766e-01 -1.333832442760467529e-01 -1.235786527395248413e-01 4.077829122543334961e-01
1.904000000000000000e+03 2.650849914550781250e+01 -2.842270851135253906e+00 -4.210385978221893311e-01 -5.861098319292068481e-02 -1.438948810100555420e-01 3.971147239208221436e-01
1.905000000000000000e+03 2.639518928527832031e+01 -1.038002967834472656e+00 -3.501649498939514160e-01 -1.027294769883155823e-01 -1.358683258295059204e-01 5.024521350860595703e-01
1.906000000000000000e+03 2.408867454528808594e+01 -1.129914075136184692e-02 -2.199624776840209961e-01 -2.272422760725021362e-01 -1.341614276170730591e-01 4.829606413841247559e-01
1.907000000000000000e+03 2.602336311340332031e+01 -2.144605636596679688e+00 -3.648289740085601807e-01 -8.746438473463058472e-02 -1.356880068778991699e-01 4.323412179946899414e-01
1.908000000000000000e+03 3.306171178817749023e+00 4.634836673736572266e+00 2.350287395529448986e-04 2.682135673239827156e-04 1.509727007942274213e-04 1.212557617691345513e-04
1.909000000000000000e+03 4.700506210327148438e+00 4.194856643676757812e+00 2.907708694692701101e-04 3.701969981193542480e-04 1.982903631869703531e-04 1.414477155776694417e-04
1.910000000000000000e+03 6.949145317077636719e+00 5.557536125183105469e+00 -2.542168658692389727e-04 1.724927104078233242e-03 4.412130510900169611e-04 -2.414976625004783273e-04
1.911000000000000000e+03 6.567942619323730469e+00 4.060431957244873047e+00 4.830049147130921483e-05 -8.439965313300490379e-04 -2.387088170507922769e-04 -1.165601497632451355e-04
1.912000000000000000e+03 5.107013702392578125e+00 4.671688556671142578e+00 7.355411071330308914e-04 2.497699751984328032e-04 2.955933159682899714e-04 1.665538729866966605e-04
1.913000000000000000e+03 3.001058578491210938e+01 -2.908334255218505859e+00 -6.746182441711425781e-01 3.532942617312073708e-03 -2.013255804777145386e-01 4.310154616832733154e-01
1.914000000000000000e+03 5.286830425262451172e+00 4.036039829254150391e+00 -1.427737297490239143e-04 -4.603303968906402588e-04 -1.809312379918992519e-04 -2.108463377226144075e-04
1.915000000000000000e+03 2.802493858337402344e+01 -2.229666471481323242e+00 -4.939935505390167236e-01 -3.614525496959686279e-02 -1.590416431427001953e-01 4.634097814559936523e-01
1.916000000000000000e+03 4.481669235229492188e+01 -2.940184831619262695e+00 -5.553396344184875488e-01 2.805401086807250977e-01 -8.243986219167709351e-02 -3.280123472213745117e-01
1.917000000000000000e+03 2.872103118896484375e+01 -2.233536481857299805e+00 -5.369364023208618164e-01 -2.089473605155944824e-02 -1.673493385314941406e-01 4.697046577930450439e-01
1.918000000000000000e+03 8.470448493957519531e+00 4.981921672821044922e+00 -1.280750730074942112e-04 -1.404365175403654575e-03 -4.597320803441107273e-04 -7.209678879007697105e-04
1.919000000000000000e+03 7.243917465209960938e+00 4.075609683990478516e+00 2.072477946057915688e-05 1.275844522751867771e-03 3.889708023052662611e-04 3.702894318848848343e-04
1.920000000000000000e+03 9.198713302612304688e+00 7.844675064086914062e+00 -8.755685994401574135e-04 1.645636279135942459e-03 2.310202980879694223e-04 -3.304496640339493752e-04
1.921000000000000000e+03 3.145660972595214844e+01 -2.896340608596801758e+00 -7.729808092117309570e-01 1.992274262011051178e-02 -2.259174287319183350e-01 4.288210272789001465e-01
1.922000000000000000e+03 2.883646965026855469e+01 -1.574628472328186035e+00 -4.968905746936798096e-01 -2.306590415537357330e-02 -1.559869498014450073e-01 5.081041455268859863e-01
1.923000000000000000e+03 3.366066360473632812e+01 -2.847811698913574219e+00 -9.030475616455078125e-01 4.034132882952690125e-02 -2.588118612766265869e-01 4.091878831386566162e-01
1.924000000000000000e+03 3.156955146789550781e+01 -2.206501483917236328e+00 -6.963413953781127930e-01 2.625945582985877991e-02 -2.010245919227600098e-01 4.686380922794342041e-01
1.925000000000000000e+03 4.465682983398437500e+01 -1.107676219940185547e+01 -2.373796999454498291e-01 5.362908840179443359e-01 8.967334777116775513e-02 6.439964175224304199e-01
1.926000000000000000e+03 4.310932159423828125e+01 -1.045379161834716797e+01 -8.472546935081481934e-01 2.347393780946731567e-01 -1.837545931339263916e-01 2.008547931909561157e-01
1.927000000000000000e+03 4.087466430664062500e+01 -1.126018619537353516e+01 -8.196028470993041992e-01 1.849767863750457764e-01 -1.903878152370452881e-01 4.506869614124298096e-02
1.928000000000000000e+03 3.319054794311523438e+01 -7.769281864166259766e-01 -5.639131665229797363e-01 7.571289688348770142e-02 -1.464600712060928345e-01 4.890989363193511963e-01
1.929000000000000000e+03 3.451626205444335938e+01 -2.129197359085083008e+00 -8.111595511436462402e-01 6.288639456033706665e-02 -2.244819551706314087e-01 4.241669476032257080e-01
1.930000000000000000e+03 4.540959930419921875e+01 -1.099573421478271484e+01 -7.084593176841735840e-02 6.625064015388488770e-01 1.774981468915939331e-01 8.310029506683349609e-01
1.931000000000000000e+03 4.535959243774414062e+01 -1.029338455200195312e+01 -3.976536691188812256e-01 4.466884434223175049e-01 1.471042912453413010e-02 6.127126216888427734e-01
1.932000000000000000e+03 4.614503097534179688e+01 -1.089623069763183594e+01 1.138653755187988281e-01 8.159286975860595703e-01 2.789382338523864746e-01 1.055939674377441406e+00
1.933000000000000000e+03 4.393113327026367188e+01 -1.189133071899414062e+01 -1.160668134689331055e-01 6.139514446258544922e-01 1.493653953075408936e-01 6.466389894485473633e-01
1.934000000000000000e+03 3.865457916259765625e+01 -1.207734584808349609e+01 -7.546159029006958008e-01 1.630969494581222534e-01 -1.774556785821914673e-01 -7.647655159235000610e-02
1.935000000000000000e+03 3.787973403930664062e+01 -1.137848949432373047e+01 -1.010045289993286133e+00 9.087121486663818359e-02 -2.757522463798522949e-01 -1.691448539495468140e-01
1.936000000000000000e+03 8.338141441345214844e+00 -4.275138854980468750e+00 -7.285854371730238199e-05 6.184607627801597118e-05 -3.303740186311188154e-06 -2.817850909195840359e-04
1.937000000000000000e+03 3.739123916625976562e+01 -2.757378816604614258e+00 -1.033693671226501465e+00 6.554324924945831299e-02 -2.904451191425323486e-01 3.178890645503997803e-01
1.938000000000000000e+03 4.237303924560546875e+01 -1.121975612640380859e+01 -6.393836736679077148e-01 2.870341837406158447e-01 -1.057048365473747253e-01 2.213535457849502563e-01
1.939000000000000000e+03 4.389499282836914062e+01 -1.113934040069580078e+01 -3.916012942790985107e-01 4.381915926933288574e-01 1.397708524018526077e-02 4.764561951160430908e-01
1.940000000000000000e+03 3.557823944091796875e+01 -1.074196338653564453e+01 -1.254227876663208008e+00 2.615040168166160583e-02 -3.684232532978057861e-01 -2.775431573390960693e-01
1.941000000000000000e+03 3.813908004760742188e+01 -2.748110055923461914e+00 -1.040792584419250488e+00 7.358366250991821289e-02 -2.901626527309417725e-01 2.879863679409027100e-01
1.942000000000000000e+03 3.386471557617187500e+01 -1.450879693031311035e+00 -6.756306886672973633e-01 7.145053148269653320e-02 -1.812540441751480103e-01 4.594270288944244385e-01
1.943000000000000000e+03 3.481916046142578125e+01 -1.075869178771972656e+01 -1.246067881584167480e+00 1.830327883362770081e-02 -3.683293759822845459e-01 -2.993468046188354492e-01
1.944000000000000000e+03 3.526222610473632812e+01 -2.105226039886474609e+00 -8.282302618026733398e-01 7.050500065088272095e-02 -2.273175865411758423e-01 4.039198756217956543e-01
1.945000000000000000e+03 6.177075386047363281e+00 -7.816138744354248047e+00 4.832958511542528868e-04 1.917301997309550643e-04 2.025078138103708625e-04 3.438372368691489100e-05
1.946000000000000000e+03 4.038912200927734375e+01 -2.737892866134643555e+00 -1.001394152641296387e+00 1.012916117906570435e-01 -2.700307667255401611e-01 1.656854152679443359e-01
1.947000000000000000e+03 4.200648498535156250e+01 -2.096755743026733398e+00 -6.202927827835083008e-01 2.169432342052459717e-01 -1.210048571228981018e-01 -3.759477660059928894e-02
1.948000000000000000e+03 4.338276290893554688e+01 -2.805058717727661133e+00 -7.613098621368408203e-01 1.920607835054397583e-01 -1.707747131586074829e-01 -1.207265332341194153e-01
1.949000000000000000e+03 6.752003192901611328e+00 -5.656173706054687500e+00 3.615210589487105608e-04 -3.346777521073818207e-04 8.052989869611337781e-06 -1.839812321122735739e-04
1.950000000000000000e+03 3.254776763916015625e+01 -1.078086757659912109e+01 -1.187711596488952637e+00 2.788257552310824394e-03 -3.554770052433013916e-01 -3.481813967227935791e-01
1.951000000000000000e+03 3.900423812866210938e+01 -2.056747674942016602e+00 -8.170558214187622070e-01 1.231995597481727600e-01 -2.081568837165832520e-01 2.331870049238204956e-01
1.952000000000000000e+03 3.825660705566406250e+01 -2.054949522018432617e+00 -8.335794210433959961e-01 1.072797253727912903e-01 -2.178899049758911133e-01 2.790287137031555176e-01
1.953000000000000000e+03 3.634020614624023438e+01 -1.148514461517333984e+01 -1.033390522003173828e+00 6.350709497928619385e-02 -2.909650504589080811e-01 -2.437015920877456665e-01
1.954000000000000000e+03 3.403369522094726562e+01 -1.152629184722900391e+01 -1.043485879898071289e+00 3.427533805370330811e-02 -3.027631640434265137e-01 -3.262937068939208984e-01
1.955000000000000000e+03 3.556116485595703125e+01 -1.152339649200439453e+01 -1.035294175148010254e+00 4.865658655762672424e-02 -2.959912717342376709e-01 -2.750949263572692871e-01
1.956000000000000000e+03 4.125301742553710938e+01 -2.081809759140014648e+00 -6.932711005210876465e-01 1.819607615470886230e-01 -1.533931046724319458e-01 4.805236309766769409e-02
1.957000000000000000e+03 2.951483345031738281e+01 -1.151033401489257812e+01 -9.419579505920410156e-01 5.592637695372104645e-03 -2.809095978736877441e-01 -4.194930791854858398e-01
1.958000000000000000e+03 4.286081695556640625e+01 -1.465735912322998047e+00 -2.705880999565124512e-01 3.693505823612213135e-01 2.962874248623847961e-02 -2.506141364574432373e-01
1.959000000000000000e+03 3.327425003051757812e+01 -1.152151966094970703e+01 -1.034463167190551758e+00 2.700461074709892273e-02 -3.022375702857971191e-01 -3.497387170791625977e-01
1.960000000000000000e+03 6.782738685607910156e+00 -4.000101566314697266e+00 -1.228269975399598479e-04 1.998016523430123925e-04 2.309239425812847912e-05 -2.331124560441821814e-04
1.961000000000000000e+03 6.213644504547119141e+00 -4.039151668548583984e+00 -3.667044074973091483e-05 2.461508556734770536e-04 6.284411938395351171e-05 3.140177868772298098e-04
1.962000000000000000e+03 2.643503952026367188e+01 -1.079212188720703125e+01 -8.862269520759582520e-01 1.388017553836107254e-02 -2.617040276527404785e-01 -4.163305461406707764e-01
1.963000000000000000e+03 3.099412918090820312e+01 -1.154363155364990234e+01 -9.838196635246276855e-01 7.999329827725887299e-03 -2.927460968494415283e-01 -3.974111676216125488e-01
1.964000000000000000e+03 3.175826454162597656e+01 -1.153637409210205078e+01 -1.003462553024291992e+00 1.000129431486129761e-02 -2.980383932590484619e-01 -3.818158209323883057e-01
1.965000000000000000e+03 3.015501785278320312e+01 -1.233259105682373047e+01 -8.267870545387268066e-01 1.866737194359302521e-02 -2.424359023571014404e-01 -4.309152364730834961e-01
1.966000000000000000e+03 4.685505676269531250e+01 -1.078454399108886719e+01 3.099977672100067139e-01 1.016473054885864258e+00 3.979412317276000977e-01 1.308149576187133789e+00
1.967000000000000000e+03 2.325766944885253906e+01 -1.133924865722656250e+01 -6.857166290283203125e-01 3.509473428130149841e-02 -1.951865553855895996e-01 -4.587331712245941162e-01
1.968000000000000000e+03 2.563524627685546875e+01 -1.077130317687988281e+01 -8.410813212394714355e-01 2.041478827595710754e-02 -2.461999654769897461e-01 -4.220224618911743164e-01
1.969000000000000000e+03 4.425672531127929688e+01 -2.224727869033813477e+00 -3.220469355583190918e-01 3.542937636375427246e-01 9.674048982560634613e-03 -3.788215219974517822e-01
1.970000000000000000e+03 4.760900115966796875e+01 -1.130356502532958984e+01 6.509774327278137207e-01 1.657178401947021484e+00 6.924467682838439941e-01 1.840252161026000977e+00
1.971000000000000000e+03 2.803095626831054688e+01 -1.151232147216796875e+01 -8.844583034515380859e-01 5.151540040969848633e-03 -2.637920379638671875e-01 -4.366586506366729736e-01
1.972000000000000000e+03 2.878564071655273438e+01 -1.148949909210205078e+01 -9.140564203262329102e-01 5.467824637889862061e-03 -2.725765705108642578e-01 -4.294879138469696045e-01
1.973000000000000000e+03 2.725683212280273438e+01 -1.153167152404785156e+01 -8.526765704154968262e-01 1.306805200874805450e-02 -2.518825531005859375e-01 -4.466730356216430664e-01
1.974000000000000000e+03 1.087741088867187500e+01 4.153573989868164062e+00 -4.951985902152955532e-04 -9.764575515873730183e-04 -4.414968425408005714e-04 -1.219421974383294582e-03
1.975000000000000000e+03 3.024155426025390625e+01 -1.154329204559326172e+01 -9.627457261085510254e-01 2.829756820574402809e-03 -2.879748046398162842e-01 -4.101365506649017334e-01
1.976000000000000000e+03 1.142387676239013672e+01 5.883018493652343750e+00 5.297673051245510578e-04 1.877270988188683987e-03 7.221114938147366047e-04 1.449833391234278679e-03
1.977000000000000000e+03 4.685024261474609375e+01 -2.607875585556030273e+00 2.250306755304336548e-01 7.373400926589965820e-01 2.887112200260162354e-01 -1.030191183090209961e+00
1.978000000000000000e+03 4.560079574584960938e+01 -2.449465274810791016e+00 -7.296900451183319092e-02 5.317426323890686035e-01 1.376321017742156982e-01 -6.765682101249694824e-01
1.979000000000000000e+03 2.483280372619628906e+01 -1.150259017944335938e+01 -7.481119632720947266e-01 3.041103109717369080e-02 -2.153102755546569824e-01 -4.629480838775634766e-01
1.980000000000000000e+03 2.396884536743164062e+01 -1.223533725738525391e+01 -6.716915369033813477e-01 3.263694792985916138e-02 -1.917163729667663574e-01 -4.910458922386169434e-01
1.981000000000000000e+03 2.565241813659667969e+01 -1.152200508117675781e+01 -7.805877923965454102e-01 2.669446170330047607e-02 -2.261679917573928833e-01 -4.598883986473083496e-01
1.982000000000000000e+03 4.873278427124023438e+01 -9.845421791076660156e+00 8.090991377830505371e-01 1.537720084190368652e+00 7.040457725524902344e-01 2.028243303298950195e+00
1.983000000000000000e+03 2.018636703491210938e+01 -1.279852771759033203e+01 -5.720683336257934570e-01 -4.032956436276435852e-02 -1.837193667888641357e-01 -4.796255528926849365e-01
1.984000000000000000e+03 2.169995307922363281e+01 -1.141373348236083984e+01 -6.199600100517272949e-01 1.782000623643398285e-02 -1.806419938802719116e-01 -4.530725479125976562e-01
1.985000000000000000e+03 2.403153419494628906e+01 -1.143558406829833984e+01 -7.189698815345764160e-01 3.629450127482414246e-02 -2.048026174306869507e-01 -4.622360467910766602e-01
1.986000000000000000e+03 2.066428375244140625e+01 -1.067310929298400879e+00 -5.422070622444152832e-02 -2.622568905353546143e-01 -9.494327753782272339e-02 2.088035047054290771e-01
1.987000000000000000e+03 2.311521720886230469e+01 1.025364017486572266e+01 -3.991938233375549316e-01 -4.877932667732238770e-01 -2.660961151123046875e-01 5.428197979927062988e-01
1.988000000000000000e+03 7.577389240264892578e+00 1.128983402252197266e+01 -1.396494451910257339e-03 3.421038854867219925e-03 6.073632976040244102e-04 2.375324955210089684e-03
1.989000000000000000e+03 6.578070163726806641e+00 1.231956481933593750e+01 5.247158929705619812e-03 -9.807988535612821579e-04 1.279907999560236931e-03 7.285742554813623428e-03
1.990000000000000000e+03 8.414338111877441406e+00 8.618738174438476562e+00 8.882441325113177299e-04 -8.014527847990393639e-04 2.603740904305595905e-05 1.175834331661462784e-03
1.991000000000000000e+03 4.371425151824951172e+00 -1.165849208831787109e+01 4.767090547829866409e-03 -4.929029848426580429e-03 -4.858182001044042408e-05 -4.147545841988176107e-04
1.992000000000000000e+03 9.199890136718750000e+00 4.995651721954345703e+00 4.241064598318189383e-04 1.511758193373680115e-03 5.807593697682023048e-04 6.814312655478715897e-04
1.993000000000000000e+03 1.057677936553955078e+01 7.618554115295410156e+00 -1.681147259660065174e-04 2.991566201671957970e-03 8.470354368910193443e-04 8.264798671007156372e-04
1.994000000000000000e+03 6.214775562286376953e+00 -1.273273468017578125e+01 2.180512994527816772e-03 3.304401878267526627e-03 1.645474461838603020e-03 -1.060758810490369797e-02
1.995000000000000000e+03 1.232717704772949219e+01 6.035348892211914062e+00 -1.011704793199896812e-03 -1.436788472346961498e-03 -7.345479680225253105e-04 -1.520451856777071953e-03
1.996000000000000000e+03 2.165628051757812500e+01 1.561754512786865234e+01 -4.391587674617767334e-01 -5.134398937225341797e-01 -2.857795953750610352e-01 3.351651728153228760e-01
1.997000000000000000e+03 2.058917999267578125e+01 1.444464492797851562e+01 -5.364297628402709961e-01 -7.728082537651062012e-01 -3.927713930606842041e-01 4.554966092109680176e-01
1.998000000000000000e+03 2.535031795501708984e+00 6.248928070068359375e+00 7.739742286503314972e-04 2.270129334647208452e-04 3.002961457241326571e-04 -1.234558149008080363e-04
1.999000000000000000e+03 9.155898094177246094e+00 -5.658288002014160156e+00 -2.036827645497396588e-04 6.617275066673755646e-04 1.374134153593331575e-04 -1.148104129242710769e-04
2.000000000000000000e+03 6.424494266510009766e+00 1.435829925537109375e+01 1.167457085102796555e-02 -6.824610754847526550e-03 1.454987912438809872e-03 1.555717736482620239e-02
2.001000000000000000e+03 2.135330772399902344e+01 -9.535699486732482910e-01 -8.535483479499816895e-02 -2.777647972106933594e-01 -1.089358851313591003e-01 2.747678160667419434e-01
2.002000000000000000e+03 2.168319129943847656e+01 8.906562328338623047e-01 -1.055259108543395996e-01 -4.005583524703979492e-01 -1.518252789974212646e-01 3.821640312671661377e-01
2.003000000000000000e+03 5.200424194335937500e+00 1.049910545349121094e+01 4.732559435069561005e-03 -2.112608635798096657e-03 7.859852048568427563e-04 1.284469908569008112e-04
2.004000000000000000e+03 7.525357818603515625e+01 3.183976936340332031e+01 -3.330406919121742249e-02 8.510083198547363281e+00 2.543033599853515625e+00 7.871874421834945679e-02
2.005000000000000000e+03 7.443660736083984375e+01 2.846065711975097656e+01 -4.917860776185989380e-02 8.389648437500000000e+00 2.502140760421752930e+00 1.329496055841445923e-01
2.006000000000000000e+03 7.553881072998046875e+01 -2.712181282043457031e+01 -8.239942789077758789e-02 7.920764446258544922e+00 2.351509571075439453e+00 -4.287275075912475586e-01
2.007000000000000000e+03 7.395982360839843750e+01 -2.782604980468750000e+01 -1.352021396160125732e-01 7.917360305786132812e+00 2.334647417068481445e+00 -4.827672243118286133e-01
2.008000000000000000e+03 7.441675567626953125e+01 2.177907562255859375e+01 -9.862332791090011597e-02 8.235349655151367188e+00 2.441017866134643555e+00 2.847871780395507812e-01
2.009000000000000000e+03 7.524829864501953125e+01 2.353452491760253906e+01 -4.724374786019325256e-02 8.392135620117187500e+00 2.503467559814453125e+00 2.102745473384857178e-01
2.010000000000000000e+03 7.593352508544921875e+01 -2.065751075744628906e+01 -3.211446851491928101e-02 7.378090381622314453e+00 2.203792810440063477e+00 -5.601609945297241211e-01
2.011000000000000000e+03 7.481682586669921875e+01 -2.191658973693847656e+01 -6.739608198404312134e-02 7.551128387451171875e+00 2.245119810104370117e+00 -6.274971961975097656e-01
2.012000000000000000e+03 7.537670135498046875e+01 1.252537155151367188e+01 -7.460542768239974976e-02 7.819653034210205078e+00 2.323514223098754883e+00 5.175724625587463379e-01
2.013000000000000000e+03 7.392995452880859375e+01 1.533607292175292969e+01 -1.283499151468276978e-01 7.963329315185546875e+00 2.350493669509887695e+00 5.130286812782287598e-01
2.014000000000000000e+03 7.517683410644531250e+01 1.693806266784667969e+01 -9.428609162569046021e-02 8.097452163696289062e+00 2.400949954986572266e+00 3.989864289760589600e-01
2.015000000000000000e+03 7.429354858398437500e+01 8.164854049682617188e+00 -5.842423811554908752e-02 7.533511161804199219e+00 2.242526054382324219e+00 7.118923068046569824e-01
2.016000000000000000e+03 7.462220764160156250e+01 7.688075304031372070e-03 1.815014183521270752e-01 6.851435661315917969e+00 2.109881162643432617e+00 5.565209984779357910e-01
2.017000000000000000e+03 7.568837738037109375e+01 4.145889282226562500e+00 3.014750406146049500e-02 7.041800498962402344e+00 2.121584415435791016e+00 6.049971580505371094e-01
2.018000000000000000e+03 7.458405303955078125e+01 1.353009700775146484e+00 1.374259442090988159e-01 6.956841945648193359e+00 2.128280401229858398e+00 6.274145245552062988e-01
2.019000000000000000e+03 7.454859161376953125e+01 -1.516411209106445312e+01 9.859801083803176880e-02 7.040349960327148438e+00 2.141684293746948242e+00 -6.592911481857299805e-01
2.020000000000000000e+03 7.331663513183593750e+01 -1.514171504974365234e+01 1.430300027132034302e-01 7.213550090789794922e+00 2.206974029541015625e+00 -7.515389919281005859e-01
2.021000000000000000e+03 7.449228668212890625e+01 -6.787093639373779297e+00 3.234162926673889160e-01 6.625835418701171875e+00 2.084775447845458984e+00 -3.564945608377456665e-02
2.022000000000000000e+03 7.317380523681640625e+01 2.606452941894531250e+01 -8.503769338130950928e-02 8.199052810668945312e+00 2.434204578399658203e+00 1.990597397089004517e-01
2.023000000000000000e+03 7.498464965820312500e+01 2.501081466674804688e+01 -5.739339441061019897e-02 8.383598327636718750e+00 2.497861385345458984e+00 1.847051978111267090e-01
2.024000000000000000e+03 7.414065551757812500e+01 1.096304607391357422e+01 -1.033652722835540771e-01 7.732633590698242188e+00 2.288780450820922852e+00 6.520318984985351562e-01
2.025000000000000000e+03 7.458259582519531250e+01 -1.375213623046875000e+01 1.473450064659118652e-01 6.923895359039306641e+00 2.121372222900390625e+00 -6.005391478538513184e-01
2.026000000000000000e+03 7.459486389160156250e+01 -1.099129962921142578e+01 2.452029287815093994e-01 6.740582466125488281e+00 2.095735549926757812e+00 -4.294182360172271729e-01
2.027000000000000000e+03 7.578049468994140625e+01 -9.591328620910644531e+00 1.806624382734298706e-01 6.442227840423583984e+00 1.986867070198059082e+00 -2.597182393074035645e-01
2.028000000000000000e+03 7.451113128662109375e+01 -8.188282012939453125e+00 3.117271661758422852e-01 6.645332813262939453e+00 2.087118148803710938e+00 -1.816843748092651367e-01
2.029000000000000000e+03 7.451486206054687500e+01 -5.409869670867919922e+00 3.145808577537536621e-01 6.625675201416015625e+00 2.082076787948608398e+00 1.010698750615119934e-01
2.030000000000000000e+03 7.457853698730468750e+01 -4.047013759613037109e+00 3.019987940788269043e-01 6.646884918212890625e+00 2.084665060043334961e+00 2.378427535295486450e-01
2.031000000000000000e+03 7.462691497802734375e+01 -1.801794242858886719e+01 1.029791124165058136e-02 7.253452301025390625e+00 2.179125070571899414e+00 -6.967498064041137695e-01
2.032000000000000000e+03 7.447885894775390625e+01 4.054709911346435547e+00 4.870556294918060303e-02 7.189435958862304688e+00 2.171442508697509766e+00 7.126427888870239258e-01
2.033000000000000000e+03 7.477629089355468750e+01 -1.935840225219726562e+01 -2.376920543611049652e-02 7.359717369079589844e+00 2.200784444808959961e+00 -6.845314502716064453e-01
2.034000000000000000e+03 7.351565551757812500e+01 1.853944969177246094e+01 -1.427835971117019653e-01 8.062706947326660156e+00 2.375976800918579102e+00 4.133724570274353027e-01
2.035000000000000000e+03 7.465695190429687500e+01 -2.447703170776367188e+01 -9.905628859996795654e-02 7.745995521545410156e+00 2.294081687927246094e+00 -5.713101029396057129e-01
2.036000000000000000e+03 7.260610198974609375e+01 2.892112350463867188e+01 -7.862940430641174316e-02 8.152419090270996094e+00 2.422137022018432617e+00 1.495926827192306519e-01
2.037000000000000000e+03 7.366246032714843750e+01 -2.606881332397460938e+01 -1.393801867961883545e-01 7.834733009338378906e+00 2.308605909347534180e+00 -5.707257986068725586e-01
2.038000000000000000e+03 7.253239440917968750e+01 3.456566619873046875e+01 -6.245734170079231262e-02 8.154704093933105469e+00 2.427674055099487305e+00 4.179008677601814270e-02
2.039000000000000000e+03 7.462709808349609375e+01 -2.690654277801513672e+00 2.622773647308349609e-01 6.692258358001708984e+00 2.086360692977905273e+00 3.609039187431335449e-01
2.040000000000000000e+03 7.482815551757812500e+01 -2.064658164978027344e+01 -5.442744493484497070e-02 7.463704109191894531e+00 2.222782850265502930e+00 -6.539285778999328613e-01
2.041000000000000000e+03 7.435740661621093750e+01 6.785665035247802734e+00 -2.768993563950061798e-02 7.423267364501953125e+00 2.218673229217529297e+00 7.263990640640258789e-01
2.042000000000000000e+03 7.362102508544921875e+01 2.038990974426269531e+01 -1.197938621044158936e-01 8.125177383422851562e+00 2.401614904403686523e+00 3.491345942020416260e-01
2.043000000000000000e+03 7.396543121337890625e+01 1.386386775970458984e+01 -1.225694864988327026e-01 7.897505760192871094e+00 2.332480907440185547e+00 5.604032278060913086e-01
2.044000000000000000e+03 7.188183593750000000e+01 -3.189227867126464844e+01 -1.882427632808685303e-01 7.935402393341064453e+00 2.324147939682006836e+00 -3.701038658618927002e-01
2.045000000000000000e+03 7.446857452392578125e+01 -2.675954437255859375e+01 -1.152226850390434265e-01 7.881252288818359375e+00 2.329808950424194336e+00 -5.006025433540344238e-01
2.046000000000000000e+03 7.319553375244140625e+01 3.048712730407714844e+01 -5.761648714542388916e-02 8.251546859741210938e+00 2.458179235458374023e+00 1.105636954307556152e-01
2.047000000000000000e+03 6.104085922241210938e+00 -2.923849868774414062e+01 5.312237516045570374e-02 -4.940237700939178467e-01 -1.322704255580902100e-01 -2.917969524860382080e-01
2.048000000000000000e+03 1.029493713378906250e+01 6.408231735229492188e+00 -3.975696745328605175e-04 2.233088482171297073e-03 5.506556481122970581e-04 4.200518742436543107e-05
2.049000000000000000e+03 4.609952926635742188e+00 -2.613891410827636719e+01 -1.111503411084413528e-02 -3.830215334892272949e-01 -1.182409748435020447e-01 -2.772546708583831787e-01
2.050000000000000000e+03 6.848189830780029297e+00 -8.590317726135253906e+00 4.869997210334986448e-04 -1.599218667251989245e-04 9.812336065806448460e-05 -1.019347459077835083e-03
2.051000000000000000e+03 4.338607788085937500e+00 2.375376701354980469e+01 -8.467821031808853149e-02 -2.612451612949371338e-01 -1.037770137190818787e-01 2.701052129268646240e-01
2.052000000000000000e+03 1.184619808197021484e+01 2.252404785156250000e+01 -1.774314641952514648e-01 -7.841097116470336914e-01 -2.884623706340789795e-01 5.749249458312988281e-01
2.053000000000000000e+03 1.234918308258056641e+01 2.479722404479980469e+01 4.299700632691383362e-02 -7.376093268394470215e-01 -2.083836942911148071e-01 4.855729341506958008e-01
2.054000000000000000e+03 7.296743774414062500e+01 -3.436730194091796875e+01 -1.542998254299163818e-01 8.033754348754882812e+00 2.363836288452148438e+00 -2.719106078147888184e-01
2.055000000000000000e+03 5.769479274749755859e+00 -2.068129920959472656e+01 -1.800455898046493530e-01 -1.553853601217269897e-01 -1.006292849779129028e-01 -2.324948310852050781e-01
2.056000000000000000e+03 3.933615922927856445e+00 -2.142531204223632812e+01 -7.353132218122482300e-02 -1.568912863731384277e-01 -6.912678480148315430e-02 -1.654872447252273560e-01
2.057000000000000000e+03 6.074900627136230469e+00 -2.354700279235839844e+01 -6.440972536802291870e-02 -3.293182551860809326e-01 -1.181183978915214539e-01 -3.376871049404144287e-01
2.058000000000000000e+03 6.046504497528076172e+00 -2.209548568725585938e+01 -1.565072536468505859e-01 -2.293993234634399414e-01 -1.157719790935516357e-01 -3.072619438171386719e-01
2.059000000000000000e+03 4.621085166931152344e+00 1.233301258087158203e+01 9.176744148135185242e-03 -6.159125361591577530e-03 9.052858222275972366e-04 -5.988272023387253284e-04
2.060000000000000000e+03 4.281512260437011719e+00 -2.039563751220703125e+01 -1.172579228878021240e-01 -1.114459931850433350e-01 -6.861117482185363770e-02 -1.426932513713836670e-01
2.061000000000000000e+03 6.262675762176513672e+00 2.578423690795898438e+01 -3.334729000926017761e-02 -4.425235688686370850e-01 -1.427612602710723877e-01 3.920759260654449463e-01
2.062000000000000000e+03 4.262623310089111328e+00 2.621508789062500000e+01 -1.846608892083168030e-02 -3.993442058563232422e-01 -1.253430843353271484e-01 3.020689785480499268e-01
2.063000000000000000e+03 8.517017364501953125e+00 -6.642455577850341797e+00 4.418067983351647854e-04 -7.935916655696928501e-04 -1.055354514392092824e-04 7.289455243153497577e-05
2.064000000000000000e+03 6.064183712005615234e+00 3.161832618713378906e+01 8.217993378639221191e-02 -6.207076907157897949e-01 -1.615583151578903198e-01 2.881813645362854004e-01
2.065000000000000000e+03 4.266116142272949219e+00 2.075603103637695312e+01 -1.205862089991569519e-01 -1.050068736076354980e-01 -6.767792254686355591e-02 1.233846098184585571e-01
2.066000000000000000e+03 4.868960380554199219e+00 2.253333282470703125e+01 -1.519592404365539551e-01 -2.022651135921478271e-01 -1.062673032283782959e-01 2.544853687286376953e-01
2.067000000000000000e+03 5.740741729736328125e+00 -3.316436767578125000e+01 8.226258307695388794e-02 -5.844427347183227539e-01 -1.506540477275848389e-01 -2.135306000709533691e-01
2.068000000000000000e+03 1.134025955200195312e+01 -3.084612846374511719e+01 1.764169931411743164e-01 -4.480373859405517578e-01 -8.148611336946487427e-02 -3.000197112560272217e-01
2.069000000000000000e+03 7.363308906555175781e+00 2.138155746459960938e+01 -3.402191996574401855e-01 -2.260688692331314087e-01 -1.698864251375198364e-01 4.223143160343170166e-01
2.070000000000000000e+03 5.937252998352050781e+00 2.843187522888183594e+01 3.854477033019065857e-02 -5.290760397911071777e-01 -1.471593827009201050e-01 3.539337217807769775e-01
2.071000000000000000e+03 7.234395503997802734e+00 -2.798306274414062500e+01 5.558393523097038269e-02 -4.685835242271423340e-01 -1.238998770713806152e-01 -3.342975378036499023e-01
2.072000000000000000e+03 5.890836715698242188e+00 -2.664762687683105469e+01 1.729468442499637604e-02 -4.301907122135162354e-01 -1.238688081502914429e-01 -3.234400451183319092e-01
2.073000000000000000e+03 3.782790899276733398e+00 9.919167518615722656e+00 3.985590301454067230e-03 -1.011789427138864994e-03 8.921403205022215843e-04 -1.698215608485043049e-03
2.074000000000000000e+03 4.622581481933593750e+00 8.629501342773437500e+00 2.832199446856975555e-03 -5.563041195273399353e-04 6.827685865573585033e-04 -9.277064818888902664e-04
2.075000000000000000e+03 3.592986345291137695e+00 7.546117782592773438e+00 1.581701333634555340e-03 1.852086716098710895e-04 5.300730117596685886e-04 -5.681784241460263729e-04
2.076000000000000000e+03 4.501811504364013672e+00 -6.460525989532470703e+00 1.258083211723715067e-04 3.511044997139833868e-05 4.827562952414155006e-05 -2.602281747385859489e-04
2.077000000000000000e+03 4.353749275207519531e+00 -5.528702259063720703e+00 2.178405848098918796e-04 1.525641855550929904e-04 1.111214369302615523e-04 3.155732119921594858e-04
2.078000000000000000e+03 1.399627399444580078e+01 2.240125465393066406e+01 -1.232598647475242615e-01 -8.619501590728759766e-01 -2.955630123615264893e-01 4.838738143444061279e-01
2.079000000000000000e+03 1.964920425415039062e+01 1.567726993560791016e+01 -5.502793788909912109e-01 -8.685398697853088379e-01 -4.256457686424255371e-01 4.554983973503112793e-01
2.080000000000000000e+03 1.912502670288085938e+01 -1.707477188110351562e+01 -4.539527297019958496e-01 -1.389745175838470459e-01 -1.778781712055206299e-01 -4.530644118785858154e-01
2.081000000000000000e+03 1.675903511047363281e+01 -1.931616592407226562e+01 -3.315940499305725098e-01 -2.947369813919067383e-01 -1.878993213176727295e-01 -3.909857571125030518e-01
2.082000000000000000e+03 1.776067733764648438e+01 1.807333374023437500e+01 -4.974605143070220947e-01 -9.734926223754882812e-01 -4.412859380245208740e-01 4.323152601718902588e-01
2.083000000000000000e+03 1.578991508483886719e+01 2.016541862487792969e+01 -3.267770409584045410e-01 -9.674730300903320312e-01 -3.882750272750854492e-01 4.440741539001464844e-01
2.084000000000000000e+03 1.828847694396972656e+01 -1.796187591552734375e+01 -4.073764085769653320e-01 -1.915013790130615234e-01 -1.796633303165435791e-01 -4.244463741779327393e-01
2.085000000000000000e+03 2.369318962097167969e+01 5.874372959136962891e+00 -2.725425958633422852e-01 -4.316588640213012695e-01 -2.112604379653930664e-01 6.162698864936828613e-01
2.086000000000000000e+03 2.219600105285644531e+01 3.339691877365112305e+00 -1.688296347856521606e-01 -5.293955802917480469e-01 -2.094675600528717041e-01 5.181819796562194824e-01
2.087000000000000000e+03 2.198534965515136719e+01 2.041376352310180664e+00 -1.354830712080001831e-01 -4.624546170234680176e-01 -1.793813109397888184e-01 4.591711759567260742e-01
2.088000000000000000e+03 2.344334602355957031e+01 3.330951213836669922e+00 -2.050042152404785156e-01 -4.031155705451965332e-01 -1.824359446763992310e-01 5.741285085678100586e-01
2.089000000000000000e+03 1.996952629089355469e+01 -1.626708602905273438e+01 -4.778402149677276611e-01 -8.932866156101226807e-02 -1.701506674289703369e-01 -4.771620929241180420e-01
2.090000000000000000e+03 1.544968318939208984e+01 -2.153938293457031250e+01 -1.646252572536468506e-01 -3.771720528602600098e-01 -1.625391989946365356e-01 -3.666379153728485107e-01
2.091000000000000000e+03 1.805057525634765625e+01 -1.919641494750976562e+01 -3.177056014537811279e-01 -2.204610258340835571e-01 -1.614499986171722412e-01 -3.983774483203887939e-01
2.092000000000000000e+03 1.880739212036132812e+01 1.928584671020507812e+01 -3.067594468593597412e-01 -7.578933835029602051e-01 -3.193958401679992676e-01 2.869223952293395996e-01
2.093000000000000000e+03 7.208098602294921875e+01 4.050521469116210938e+01 -2.342507801949977875e-02 8.109203338623046875e+00 2.425733327865600586e+00 2.095443196594715118e-02
2.094000000000000000e+03 7.453282928466796875e+01 3.497905349731445312e+01 -5.265032872557640076e-02 8.408368110656738281e+00 2.506715297698974609e+00 6.920393556356430054e-02
2.095000000000000000e+03 2.402424812316894531e+01 8.503190040588378906e+00 -3.330364823341369629e-01 -3.756455481052398682e-01 -2.126046121120452881e-01 5.752029418945312500e-01
2.096000000000000000e+03 2.441691398620605469e+01 9.730750083923339844e+00 -3.476023375988006592e-01 -3.010290861129760742e-01 -1.945894360542297363e-01 5.340994596481323242e-01
2.097000000000000000e+03 5.257701110839843750e+01 -3.921386241912841797e+00 1.413990378379821777e+00 1.135377979278564453e+01 3.830331087112426758e+00 -5.499162673950195312e+00
2.098000000000000000e+03 5.059660339355468750e+01 -9.215261459350585938e+00 1.818576931953430176e+00 3.278507232666015625e+00 1.529125213623046875e+00 3.615506172180175781e+00
2.099000000000000000e+03 5.225411605834960938e+01 -3.767067670822143555e+00 1.686662197113037109e+00 9.410696983337402344e+00 3.329207658767700195e+00 -5.432628154754638672e+00
2.100000000000000000e+03 5.276731872558593750e+01 -3.929037570953369141e+00 1.198167324066162109e+00 1.229001331329345703e+01 4.046454429626464844e+00 -5.254957199096679688e+00
2.101000000000000000e+03 5.179483413696289062e+01 -3.808279991149902344e+00 2.066678047180175781e+00 7.120295524597167969e+00 2.756092071533203125e+00 -5.234424114227294922e+00
2.102000000000000000e+03 5.320767593383789062e+01 -8.839659690856933594e+00 6.833612918853759766e-01 1.465458488464355469e+01 4.601383686065673828e+00 4.210063934326171875e+00
2.103000000000000000e+03 5.363894271850585938e+01 -3.573962211608886719e+00 3.807706236839294434e-01 1.475683498382568359e+01 4.541281700134277344e+00 -2.801099061965942383e+00
2.104000000000000000e+03 5.392137527465820312e+01 -3.760258197784423828e+00 6.150762438774108887e-01 1.585770130157470703e+01 4.941833496093750000e+00 -1.870968222618103027e+00
2.105000000000000000e+03 5.584722137451171875e+01 -5.983767032623291016e+00 7.867770195007324219e+00 1.337807941436767578e+01 6.373754978179931641e+00 8.173821568489074707e-01
2.106000000000000000e+03 5.554003906250000000e+01 -7.789278030395507812e+00 5.508845329284667969e+00 1.469690132141113281e+01 6.061724185943603516e+00 -2.025615692138671875e+00
2.107000000000000000e+03 5.603997802734375000e+01 -6.342433452606201172e+00 7.697842121124267578e+00 1.291984176635742188e+01 6.185305118560791016e+00 7.629618048667907715e-02
2.108000000000000000e+03 5.587985992431640625e+01 -6.874955654144287109e+00 7.634145736694335938e+00 1.331357574462890625e+01 6.284316539764404297e+00 -9.430896639823913574e-01
2.109000000000000000e+03 5.450726318359375000e+01 -8.896891593933105469e+00 1.306768178939819336e+00 1.623908805847167969e+01 5.263757228851318359e+00 2.035666555166244507e-01
2.110000000000000000e+03 5.494427108764648438e+01 -5.072134017944335938e+00 5.607431888580322266e+00 1.662328910827636719e+01 6.669216156005859375e+00 2.189862966537475586e+00
2.111000000000000000e+03 5.442165756225585938e+01 -3.560442924499511719e+00 8.220558762550354004e-01 1.542793273925781250e+01 4.874996662139892578e+00 -6.805571317672729492e-01
2.112000000000000000e+03 5.378887557983398438e+01 -8.896261215209960938e+00 6.062222123146057129e-01 1.616455650329589844e+01 5.031233310699462891e+00 2.245040178298950195e+00
2.113000000000000000e+03 5.433543395996093750e+01 -8.631404876708984375e+00 1.480915784835815430e+00 1.692458534240722656e+01 5.521650314331054688e+00 2.790345549583435059e-01
2.114000000000000000e+03 5.448883819580078125e+01 -8.447782516479492188e+00 2.196252822875976562e+00 1.725715065002441406e+01 5.836020946502685547e+00 -5.036711692810058594e-01
2.115000000000000000e+03 5.044325256347656250e+01 -3.919700145721435547e+00 1.837649822235107422e+00 2.469750404357910156e+00 1.292220115661621094e+00 -3.169643402099609375e+00
2.116000000000000000e+03 4.863077163696289062e+01 -2.498681306838989258e+00 1.005356311798095703e+00 1.759893059730529785e+00 8.295748233795166016e-01 -2.109466314315795898e+00
2.117000000000000000e+03 5.236019515991210938e+01 -9.263868331909179688e+00 1.276185154914855957e+00 9.819999694824218750e+00 3.328855514526367188e+00 5.226845741271972656e+00
2.118000000000000000e+03 4.804292678833007812e+01 -1.543840169906616211e+00 9.264522194862365723e-01 2.001868009567260742e+00 8.784960508346557617e-01 -2.075042963027954102e+00
2.119000000000000000e+03 4.769743347167968750e+01 -1.688889861106872559e+00 8.138611912727355957e-01 1.627250432968139648e+00 7.323334813117980957e-01 -1.801663517951965332e+00
2.120000000000000000e+03 4.803384017944335938e+01 -2.620198726654052734e+00 7.197179198265075684e-01 1.208533167839050293e+00 5.784752964973449707e-01 -1.642519235610961914e+00
2.121000000000000000e+03 2.407752609252929688e+01 -1.681113004684448242e+00 -2.359640896320343018e-01 -1.615716516971588135e-01 -1.192607209086418152e-01 3.933911621570587158e-01
2.122000000000000000e+03 2.486248397827148438e+01 1.286784172058105469e+00 -2.357940375804901123e-01 -2.335705757141113281e-01 -1.408093869686126709e-01 5.616179108619689941e-01
2.123000000000000000e+03 4.818923568725585938e+01 -1.054337120056152344e+01 7.205730080604553223e-01 1.616614222526550293e+00 7.011561989784240723e-01 1.932353496551513672e+00
2.124000000000000000e+03 2.373136138916015625e+01 -7.341170907020568848e-01 -2.062563598155975342e-01 -2.162969410419464111e-01 -1.267659962177276611e-01 4.321590960025787354e-01
2.125000000000000000e+03 2.668498229980468750e+01 -2.207646608352661133e+00 -4.093621671199798584e-01 -6.818669289350509644e-02 -1.432646661996841431e-01 4.437729120254516602e-01
2.126000000000000000e+03 2.501593589782714844e+01 -1.203187346458435059e+00 -2.817647159099578857e-01 -1.475765705108642578e-01 -1.288023889064788818e-01 4.553271532058715820e-01
2.127000000000000000e+03 4.722882843017578125e+01 -1.766080737113952637e+00 6.681003570556640625e-01 1.260178565979003906e+00 5.784836411476135254e-01 -1.517147064208984375e+00
2.128000000000000000e+03 2.734858512878417969e+01 -2.226363658905029297e+00 -4.523212313652038574e-01 -5.122442170977592468e-02 -1.510636955499649048e-01 4.540484547615051270e-01
2.129000000000000000e+03 2.682550430297851562e+01 -1.605668067932128906e+00 -3.939092457294464111e-01 -7.546631991863250732e-02 -1.408126652240753174e-01 4.837426543235778809e-01
2.130000000000000000e+03 5.782963752746582031e+00 4.779819011688232422e+00 -2.743706281762570143e-04 -4.671639762818813324e-04 -2.224603813374415040e-04 2.542036818340420723e-04
2.131000000000000000e+03 4.821560859680175781e+00 5.453466415405273438e+00 -3.619265626184642315e-04 -3.077725705225020647e-04 -2.009097370319068432e-04 5.250745743978768587e-05
2.132000000000000000e+03 2.439293479919433594e+01 -9.771199226379394531e-01 -2.459699809551239014e-01 -1.772928237915039062e-01 -1.269788444042205811e-01 4.458937942981719971e-01
2.133000000000000000e+03 8.287711143493652344e+00 5.916893005371093750e+00 4.129094013478606939e-04 1.889491337351500988e-03 6.907202186994254589e-04 5.808863788843154907e-04
2.134000000000000000e+03 2.561432075500488281e+01 -1.405836939811706543e+00 -3.197263181209564209e-01 -1.203932985663414001e-01 -1.320358812808990479e-01 4.631101489067077637e-01
2.135000000000000000e+03 9.923727989196777344e+00 5.797256946563720703e+00 6.638612831011414528e-05 1.691287034191191196e-03 5.273019778542220592e-04 1.187784713692963123e-03
2.136000000000000000e+03 2.621214103698730469e+01 -1.555627703666687012e+00 -3.554023206233978271e-01 -9.849118441343307495e-02 -1.361680477857589722e-01 4.712024629116058350e-01
2.137000000000000000e+03 2.942798233032226562e+01 -2.236303091049194336e+00 -5.793843269348144531e-01 -6.958645768463611603e-03 -1.759028881788253784e-01 4.735908210277557373e-01
2.138000000000000000e+03 7.784166812896728516e+00 4.919718265533447266e+00 2.268945718242321163e-05 1.740424428135156631e-03 5.289341788738965988e-04 5.486612208187580109e-04
2.139000000000000000e+03 3.084757614135742188e+01 -2.219176054000854492e+00 -6.596269607543945312e-01 1.577448472380638123e-02 -1.931557506322860718e-01 4.726543724536895752e-01
2.140000000000000000e+03 2.953706741333007812e+01 -1.577597022056579590e+00 -5.339875817298889160e-01 -4.639289341866970062e-03 -1.615880578756332397e-01 5.094283819198608398e-01
2.141000000000000000e+03 6.368546962738037109e+00 5.499571323394775391e+00 3.027272468898445368e-04 -9.428563644178211689e-04 -1.920387439895421267e-04 4.806880897376686335e-04
2.142000000000000000e+03 6.461993694305419922e+00 4.794729709625244141e+00 1.908087870106101036e-04 1.120953471399843693e-03 3.935286949854344130e-04 -1.014649387798272073e-04
2.143000000000000000e+03 2.893817520141601562e+01 -9.408856630325317383e-01 -4.602716863155364990e-01 -2.199426852166652679e-02 -1.446797847747802734e-01 5.372992157936096191e-01
2.144000000000000000e+03 3.023348236083984375e+01 -1.555888652801513672e+00 -5.646621584892272949e-01 8.778960444033145905e-03 -1.667649596929550171e-01 5.081395506858825684e-01
2.145000000000000000e+03 3.302848052978515625e+01 -2.171188354492187500e+00 -7.610659599304199219e-01 4.490298777818679810e-02 -2.148488909006118774e-01 4.528179466724395752e-01
2.146000000000000000e+03 3.238573074340820312e+01 -1.493204832077026367e+00 -6.410811543464660645e-01 4.710827767848968506e-02 -1.781918555498123169e-01 4.885128736495971680e-01
2.147000000000000000e+03 3.172759819030761719e+01 -8.132449984550476074e-01 -5.406343936920166016e-01 4.685312137007713318e-02 -1.481343805789947510e-01 5.176399946212768555e-01
2.148000000000000000e+03 4.470971298217773438e+01 -1.181766033172607422e+01 2.466787770390510559e-02 7.494187951087951660e-01 2.322259992361068726e-01 8.300800919532775879e-01
2.149000000000000000e+03 4.162090301513671875e+01 -1.124120616912841797e+01 -7.391044497489929199e-01 2.282567620277404785e-01 -1.532543152570724487e-01 1.240679025650024414e-01
2.150000000000000000e+03 4.238997268676757812e+01 -1.197708606719970703e+01 -3.680009245872497559e-01 4.076511561870574951e-01 1.189507078379392624e-02 3.412727713584899902e-01
2.151000000000000000e+03 3.166077613830566406e+01 -1.511313438415527344e+00 -6.186693906784057617e-01 3.413986042141914368e-02 -1.753588616847991943e-01 4.986881017684936523e-01
2.152000000000000000e+03 4.088180923461914062e+01 -1.202070617675781250e+01 -5.627652406692504883e-01 2.665032148361206055e-01 -8.887860924005508423e-02 1.349385827779769897e-01
2.153000000000000000e+03 4.013026809692382812e+01 -1.128252029418945312e+01 -8.888729810714721680e-01 1.514122188091278076e-01 -2.212382256984710693e-01 -1.849489286541938782e-02
2.154000000000000000e+03 4.547993850708007812e+01 -1.171821212768554688e+01 1.772798746824264526e-01 9.183231592178344727e-01 3.286809027194976807e-01 1.049963951110839844e+00
2.155000000000000000e+03 4.013893890380859375e+01 -1.203555011749267578e+01 -6.357768774032592773e-01 2.238077968358993530e-01 -1.235907226800918579e-01 5.310157686471939087e-02
2.156000000000000000e+03 4.622388076782226562e+01 -1.159608840942382812e+01 3.370748758316040039e-01 1.120289921760559082e+00 4.372094273567199707e-01 1.291494965553283691e+00
2.157000000000000000e+03 3.675998306274414062e+01 -2.067368507385253906e+00 -8.442214727401733398e-01 8.697567135095596313e-02 -2.271737307310104370e-01 3.507537543773651123e-01
2.158000000000000000e+03 3.536031341552734375e+01 -1.394420742988586426e+00 -6.877143383026123047e-01 9.770032763481140137e-02 -1.770042032003402710e-01 4.112496972084045410e-01
2.159000000000000000e+03 3.939944076538085938e+01 -1.205065631866455078e+01 -6.994529366493225098e-01 1.878237277269363403e-01 -1.534887552261352539e-01 -1.271162834018468857e-02
2.160000000000000000e+03 3.938545227050781250e+01 -1.130567264556884766e+01 -9.435876607894897461e-01 1.288295239210128784e-01 -2.444274425506591797e-01 -7.777279615402221680e-02
2.161000000000000000e+03 4.318613815307617188e+01 -1.271687793731689453e+01 -2.516041696071624756e-02 6.845245361328125000e-01 1.978092342615127563e-01 6.280730962753295898e-01
2.162000000000000000e+03 3.714103698730468750e+01 -1.220464515686035156e+01 -8.016886711120605469e-01 1.186431944370269775e-01 -2.049136459827423096e-01 -1.727253198623657227e-01
2.163000000000000000e+03 3.750881958007812500e+01 -2.057673215866088867e+00 -8.424212932586669922e-01 9.779384732246398926e-02 -2.233882248401641846e-01 3.169002234935760498e-01
2.164000000000000000e+03 3.461215972900390625e+01 -1.424545168876647949e+00 -6.852619647979736328e-01 8.358457684516906738e-02 -1.805032193660736084e-01 4.378156065940856934e-01
2.165000000000000000e+03 3.790328598022460938e+01 -1.213151264190673828e+01 -7.837360501289367676e-01 1.357371509075164795e-01 -1.943996697664260864e-01 -1.313035637140274048e-01
2.166000000000000000e+03 3.393805694580078125e+01 -7.519091367721557617e-01 -5.679752230644226074e-01 9.269258379936218262e-02 -1.425848007202148438e-01 4.672360122203826904e-01
2.167000000000000000e+03 3.479363632202148438e+01 -1.153612041473388672e+01 -1.037903189659118652e+00 4.325800389051437378e-02 -2.983935475349426270e-01 -2.995706796646118164e-01
2.168000000000000000e+03 3.719279479980468750e+01 -1.300226306915283203e+01 -6.040349006652832031e-01 1.659467220306396484e-01 -1.314264535903930664e-01 -1.338354349136352539e-01
2.169000000000000000e+03 5.253529071807861328e+00 -5.372726440429687500e+00 4.186026853858493268e-05 2.430972381262108684e-05 1.985099697776604444e-05 -3.128695534542202950e-04
2.170000000000000000e+03 3.975099945068359375e+01 -2.060819864273071289e+00 -7.878404259681701660e-01 1.374221146106719971e-01 -1.951255053281784058e-01 1.812978982925415039e-01
2.171000000000000000e+03 3.762184524536132812e+01 -1.338949322700500488e+00 -6.585136651992797852e-01 1.374174058437347412e-01 -1.563288867473602295e-01 3.001909554004669189e-01
2.172000000000000000e+03 4.050019454956054688e+01 -2.069258451461791992e+00 -7.484209537506103516e-01 1.594947576522827148e-01 -1.766778528690338135e-01 1.191379204392433167e-01
2.173000000000000000e+03 4.276128768920898438e+01 -2.117663145065307617e+00 -5.315222144126892090e-01 2.554705142974853516e-01 -8.281551301479339600e-02 -1.345062404870986938e-01
2.174000000000000000e+03 3.611250686645507812e+01 -1.366425991058349609e+00 -6.841787695884704590e-01 1.091594770550727844e-01 -1.725057810544967651e-01 3.797858655452728271e-01
2.175000000000000000e+03 3.397755050659179688e+01 -1.230873966217041016e+01 -8.504488468170166016e-01 6.553939729928970337e-02 -2.354728430509567261e-01 -3.239953815937042236e-01
2.176000000000000000e+03 3.837010574340820312e+01 -1.343261599540710449e+00 -6.365668773651123047e-01 1.558438241481781006e-01 -1.442169100046157837e-01 2.510384619235992432e-01
2.177000000000000000e+03 3.251749038696289062e+01 -1.152947044372558594e+01 -1.022440910339355469e+00 1.383391115814447403e-02 -3.025820851325988770e-01 -3.682136833667755127e-01
2.178000000000000000e+03 3.247060775756835938e+01 -1.230383777618408203e+01 -8.678203225135803223e-01 3.567207604646682739e-02 -2.496444731950759888e-01 -3.760999441146850586e-01
2.179000000000000000e+03 3.634777450561523438e+01 -1.228360176086425781e+01 -8.163058757781982422e-01 1.069199219346046448e-01 -2.128157913684844971e-01 -2.163700312376022339e-01
2.180000000000000000e+03 4.135459518432617188e+01 -1.418959259986877441e+00 -4.525445997714996338e-01 2.651366591453552246e-01 -5.622238293290138245e-02 -3.072817064821720123e-02
2.181000000000000000e+03 4.060433959960937500e+01 -1.394486665725708008e+00 -5.172700285911560059e-01 2.291724979877471924e-01 -8.642926067113876343e-02 5.701921880245208740e-02
2.182000000000000000e+03 3.911310195922851562e+01 -1.355399727821350098e+00 -6.062605381011962891e-01 1.753428876399993896e-01 -1.292752921581268311e-01 1.971062868833541870e-01
2.183000000000000000e+03 4.494588470458984375e+01 -2.341800212860107422e+00 -2.169793993234634399e-01 4.413617551326751709e-01 6.731470674276351929e-02 -5.053912401199340820e-01
2.184000000000000000e+03 6.245210647583007812e+00 -6.428681373596191406e+00 -1.002552380668930709e-06 4.551342863123863935e-04 1.362395269097760320e-04 3.423591624596156180e-05
2.185000000000000000e+03 2.944456672668457031e+01 -1.223752117156982422e+01 -8.264033198356628418e-01 1.458510477095842361e-02 -2.435454726219177246e-01 -4.411166906356811523e-01
2.186000000000000000e+03 3.322089385986328125e+01 -1.229469585418701172e+01 -8.674134016036987305e-01 4.647672921419143677e-02 -2.462809979915618896e-01 -3.534861803054809570e-01
2.187000000000000000e+03 1.064472579956054688e+01 5.730314254760742188e+00 2.449243620503693819e-04 -2.132458845153450966e-03 -5.662603653036057949e-04 -1.550736720673739910e-03
2.188000000000000000e+03 3.094402122497558594e+01 -1.228854370117187500e+01 -8.422552347183227539e-01 2.051953598856925964e-02 -2.465207129716873169e-01 -4.145362079143524170e-01
2.189000000000000000e+03 4.363868713378906250e+01 -1.491235971450805664e+00 -1.506273448467254639e-01 4.582140147686004639e-01 9.227599948644638062e-02 -3.952965736389160156e-01
2.190000000000000000e+03 2.646427536010742188e+01 -1.153210830688476562e+01 -8.164271712303161621e-01 1.799524016678333282e-02 -2.395295798778533936e-01 -4.552876055240631104e-01
2.191000000000000000e+03 2.651000976562500000e+01 -1.228539085388183594e+01 -7.461788654327392578e-01 2.403578534722328186e-02 -2.166429162025451660e-01 -4.818235337734222412e-01
2.192000000000000000e+03 4.633208465576171875e+01 -1.926017284393310547e+00 3.475002944469451904e-01 8.624228239059448242e-01 3.629769384860992432e-01 -1.074290633201599121e+00
2.193000000000000000e+03 4.624059295654296875e+01 -2.524201869964599609e+00 8.712732046842575073e-02 5.847693681716918945e-01 2.015690058469772339e-01 -8.479530215263366699e-01
2.194000000000000000e+03 2.880468368530273438e+01 -1.215295124053955078e+01 -8.282328844070434570e-01 1.218790095299482346e-02 -2.448135018348693848e-01 -4.459719061851501465e-01
2.195000000000000000e+03 2.809239387512207031e+01 -1.223453426361083984e+01 -8.028460741043090820e-01 1.730865053832530975e-02 -2.356612235307693481e-01 -4.617467820644378662e-01
2.196000000000000000e+03 4.693377685546875000e+01 -1.145616912841796875e+01 4.998967051506042480e-01 1.349432945251464844e+00 5.547989010810852051e-01 1.554444313049316406e+00
2.197000000000000000e+03 2.249139976501464844e+01 -1.132313823699951172e+01 -6.535896658897399902e-01 3.294005244970321655e-02 -1.861948966979980469e-01 -4.538000226020812988e-01
2.198000000000000000e+03 2.077704429626464844e+01 -1.551205635070800781e+01 -5.048235654830932617e-01 -4.422199726104736328e-02 -1.647136658430099487e-01 -4.924732744693756104e-01
2.199000000000000000e+03 2.112837600708007812e+01 -1.249086475372314453e+01 -5.953578352928161621e-01 -4.889113362878561020e-03 -1.800740808248519897e-01 -4.819773137569427490e-01
2.200000000000000000e+03 4.444442749023437500e+01 -1.540602087974548340e+00 2.896660240367054939e-03 5.596421957015991211e-01 1.687616556882858276e-01 -5.870694518089294434e-01
2.201000000000000000e+03 2.731191062927246094e+01 -1.228211879730224609e+01 -7.700124979019165039e-01 2.070842497050762177e-02 -2.247912138700485229e-01 -4.751591980457305908e-01
2.202000000000000000e+03 4.772077941894531250e+01 -1.195665073394775391e+01 7.234404683113098145e-01 2.049373626708984375e+00 8.318442106246948242e-01 2.038337230682373047e+00
2.203000000000000000e+03 2.483063888549804688e+01 -1.231810474395751953e+01 -6.904066205024719238e-01 3.526306897401809692e-02 -1.965430676937103271e-01 -4.937285780906677246e-01
2.204000000000000000e+03 2.078104400634765625e+01 -1.386981582641601562e+01 -5.675892233848571777e-01 -3.114869818091392517e-02 -1.796213686466217041e-01 -4.994442462921142578e-01
2.205000000000000000e+03 4.882647705078125000e+01 -1.041356468200683594e+01 9.362541437149047852e-01 2.044437646865844727e+00 8.942075371742248535e-01 2.317178010940551758e+00
2.206000000000000000e+03 2.295663070678710938e+01 -1.252030658721923828e+01 -6.355825066566467285e-01 2.968020923435688019e-02 -1.817706972360610962e-01 -4.958398640155792236e-01
2.207000000000000000e+03 2.260359382629394531e+01 -1.198740196228027344e+01 -6.417508125305175781e-01 2.656162530183792114e-02 -1.845567524433135986e-01 -4.780636727809906006e-01
2.208000000000000000e+03 1.107014656066894531e+01 6.753883838653564453e+00 7.162448582676006481e-06 -2.455469919368624687e-03 -7.344922632910311222e-04 -1.170254894532263279e-03
2.209000000000000000e+03 7.641142368316650391e+00 9.592682838439941406e+00 -1.803102204576134682e-04 1.550110871903598309e-03 4.109402070753276348e-04 4.296501865610480309e-04
2.210000000000000000e+03 8.034086227416992188e+00 6.942457675933837891e+00 2.373987372266128659e-04 -1.854740199632942677e-03 -4.852024430874735117e-04 2.103167353197932243e-04
2.211000000000000000e+03 6.798461437225341797e+00 1.052757740020751953e+01 2.427827566862106323e-03 2.437369257677346468e-04 8.014693157747387886e-04 3.368081292137503624e-03
2.212000000000000000e+03 2.148511123657226562e+01 -1.120394766330718994e-01 -9.216596931219100952e-02 -3.311012089252471924e-01 -1.269801557064056396e-01 3.218046724796295166e-01
2.213000000000000000e+03 2.384791183471679688e+01 7.192501544952392578e+00 -3.063169121742248535e-01 -4.009555876255035400e-01 -2.121817469596862793e-01 6.046431064605712891e-01
2.214000000000000000e+03 2.173095130920410156e+01 1.786663246154785156e+01 -3.026179373264312744e-01 -4.060620963573455811e-01 -2.126040160655975342e-01 2.164268493652343750e-01
2.215000000000000000e+03 2.319850921630859375e+01 -1.498115062713623047e+01 -5.140876173973083496e-01 2.233716659247875214e-02 -1.475251317024230957e-01 -5.155564546585083008e-01
2.216000000000000000e+03 6.369558811187744141e+00 2.123626899719238281e+01 -3.039852380752563477e-01 -1.384341418743133545e-01 -1.327258199453353882e-01 2.909009754657745361e-01
2.217000000000000000e+03 9.809233665466308594e+00 7.141726493835449219e+00 1.064065378159284592e-03 -2.606797963380813599e-03 -4.628198221325874329e-04 1.355637214146554470e-04
2.218000000000000000e+03 7.287749481201171875e+01 -2.704032707214355469e+01 -1.804177314043045044e-01 7.871632575988769531e+00 2.307364463806152344e+00 -5.637515783309936523e-01
2.219000000000000000e+03 7.026998138427734375e+01 -3.091713905334472656e+01 -2.791573107242584229e-01 7.847937107086181641e+00 2.270633935928344727e+00 -4.128613173961639404e-01
2.220000000000000000e+03 7.099245452880859375e+01 -3.359514236450195312e+01 -2.226272970438003540e-01 7.883514404296875000e+00 2.298266172409057617e+00 -3.137121498584747314e-01
2.221000000000000000e+03 7.381900787353515625e+01 -2.310490608215332031e+01 -1.099216863512992859e-01 7.685345172882080078e+00 2.272627115249633789e+00 -6.613706350326538086e-01
2.222000000000000000e+03 9.718937873840332031e+00 3.222845458984375000e+01 1.798179298639297485e-01 -5.965753793716430664e-01 -1.250272244215011597e-01 3.067139983177185059e-01
2.223000000000000000e+03 7.072824096679687500e+01 1.691711807250976562e+01 -2.574848532676696777e-01 7.886753559112548828e+00 2.288780689239501953e+00 5.270728468894958496e-01
2.224000000000000000e+03 7.261618041992187500e+01 1.523262500762939453e+01 -1.795636117458343506e-01 7.930237770080566406e+00 2.325202226638793945e+00 5.626968741416931152e-01
2.225000000000000000e+03 7.156963348388671875e+01 1.049856376647949219e+01 -1.842368990182876587e-01 7.808913707733154297e+00 2.287403106689453125e+00 7.831643223762512207e-01
2.226000000000000000e+03 7.304502105712890625e+01 7.989594936370849609e+00 -7.893495261669158936e-02 7.613909721374511719e+00 2.260492563247680664e+00 7.965646982192993164e-01
2.227000000000000000e+03 7.322032165527343750e+01 -1.669180297851562500e+01 6.022931635379791260e-02 7.338279724121093750e+00 2.219552755355834961e+00 -7.924745082855224609e-01
2.228000000000000000e+03 7.455056762695312500e+01 -9.594043731689453125e+00 2.799455523490905762e-01 6.681559562683105469e+00 2.088451385498046875e+00 -3.105409741401672363e-01
2.229000000000000000e+03 7.205814361572265625e+01 3.795685291290283203e+00 9.499545395374298096e-02 7.476411819458007812e+00 2.271422147750854492e+00 8.773401379585266113e-01
2.230000000000000000e+03 7.340856933593750000e+01 1.277801871299743652e+00 1.947790384292602539e-01 7.129804134368896484e+00 2.197375059127807617e+00 7.099245786666870117e-01
2.231000000000000000e+03 7.336894226074218750e+01 -1.822043228149414062e+01 2.741543285083025694e-04 7.416022777557373047e+00 2.224889039993286133e+00 -7.884298563003540039e-01
2.232000000000000000e+03 7.229148101806640625e+01 -2.592913866043090820e+00 4.843343496322631836e-01 7.079826354980468750e+00 2.269248247146606445e+00 4.718356728553771973e-01
2.233000000000000000e+03 7.317454528808593750e+01 -6.768578529357910156e+00 4.752123951911926270e-01 6.859282493591308594e+00 2.200348377227783203e+00 -3.756507858633995056e-02
2.234000000000000000e+03 7.336956024169921875e+01 -1.372191619873046875e+01 2.087339311838150024e-01 7.105743885040283203e+00 2.194343328475952148e+00 -6.838443875312805176e-01
2.235000000000000000e+03 7.331594848632812500e+01 -9.642007827758789062e+00 4.000354707241058350e-01 6.898961067199707031e+00 2.189698934555053711e+00 -3.624964058399200439e-01
2.236000000000000000e+03 7.324655914306640625e+01 -8.211277961730957031e+00 4.435524642467498779e-01 6.868072986602783203e+00 2.193487644195556641e+00 -2.159485816955566406e-01
2.237000000000000000e+03 7.345635223388671875e+01 -2.660502195358276367e+00 3.666290342807769775e-01 6.893528938293457031e+00 2.178047418594360352e+00 4.136551320552825928e-01
2.238000000000000000e+03 7.374346160888671875e+01 -2.063731765747070312e+01 -7.468783110380172729e-02 7.540966510772705078e+00 2.239883661270141602e+00 -7.332634329795837402e-01
2.239000000000000000e+03 7.441836547851562500e+01 5.418318271636962891e+00 7.698523811995983124e-03 7.308439254760742188e+00 2.194841384887695312e+00 7.281446456909179688e-01
2.240000000000000000e+03 7.464025878906250000e+01 -1.340728163719177246e+00 2.245066314935684204e-01 6.760056018829345703e+00 2.095368862152099609e+00 4.657221436500549316e-01
2.241000000000000000e+03 7.348171997070312500e+01 -1.352056741714477539e+00 3.143092691898345947e-01 6.954446315765380859e+00 2.180626630783081055e+00 5.322937369346618652e-01
2.242000000000000000e+03 7.229524230957031250e+01 -9.245568513870239258e-02 3.400803208351135254e-01 7.209417819976806641e+00 2.264849424362182617e+00 6.977437734603881836e-01
2.243000000000000000e+03 7.404633331298828125e+01 1.240349197387695312e+01 -1.192612424492835999e-01 7.821939945220947266e+00 2.310803651809692383e+00 6.084896326065063477e-01
2.244000000000000000e+03 7.107131195068359375e+01 2.536370849609375000e+01 -1.480353772640228271e-01 7.949440479278564453e+00 2.340421676635742188e+00 2.395836412906646729e-01
2.245000000000000000e+03 5.348689079284667969e+00 2.689809417724609375e+01 5.278432276099920273e-03 -4.665786027908325195e-01 -1.383900493383407593e-01 3.464545607566833496e-01
2.246000000000000000e+03 1.043314456939697266e+01 2.138467979431152344e+01 -3.664315044879913330e-01 -5.949681997299194336e-01 -2.884199023246765137e-01 6.131148338317871094e-01
2.247000000000000000e+03 8.535815238952636719e+00 -2.378264427185058594e+01 -5.044459924101829529e-02 -4.415024220943450928e-01 -1.475841104984283447e-01 -4.197177588939666748e-01
2.248000000000000000e+03 4.744499683380126953e+00 -7.445131301879882812e+00 5.533592193387448788e-04 4.654983422369696200e-05 1.799727178877219558e-04 2.840455272234976292e-04
2.249000000000000000e+03 7.565775394439697266e+00 7.983921051025390625e+00 5.039355601184070110e-04 1.497127581387758255e-03 6.003189482726156712e-04 1.432578415005991701e-06
2.250000000000000000e+03 5.701159954071044922e+00 6.437815666198730469e+00 1.301015581702813506e-04 -8.889867458492517471e-04 -2.276655723107978702e-04 1.684366288827732205e-04
2.251000000000000000e+03 6.693695545196533203e+00 7.509969711303710938e+00 6.966117653064429760e-04 -1.153018907643854618e-03 -1.369221427012234926e-04 1.010132022202014923e-03
2.252000000000000000e+03 5.417120456695556641e+00 -6.256432056427001953e+00 4.282589652575552464e-04 -3.217610719730146229e-05 1.188248570542782545e-04 2.609943330753594637e-04
2.253000000000000000e+03 2.613275337219238281e+01 7.594928741455078125e+00 -2.555103003978729248e-01 -1.067229881882667542e-01 -1.086699888110160828e-01 5.627034902572631836e-01
2.254000000000000000e+03 8.934917449951171875e+00 -2.151696205139160156e+01 -1.570299863815307617e-01 -4.618573486804962158e-01 -1.856662034988403320e-01 -4.560149013996124268e-01
2.255000000000000000e+03 1.220712184906005859e+01 -2.316352653503417969e+01 -6.288792937994003296e-02 -4.895581007003784180e-01 -1.657337993383407593e-01 -3.974482119083404541e-01
2.256000000000000000e+03 1.383498573303222656e+01 -2.176250076293945312e+01 -1.572538763284683228e-01 -4.642757475376129150e-01 -1.864588856697082520e-01 -3.646082282066345215e-01
2.257000000000000000e+03 6.807864379882812500e+01 2.882102584838867188e+01 -1.758192181587219238e-01 7.547949314117431641e+00 2.211638927459716797e+00 1.534834653139114380e-01
2.258000000000000000e+03 1.628016662597656250e+01 -1.793918418884277344e+01 -4.494728446006774902e-01 -3.169755041599273682e-01 -2.299345135688781738e-01 -4.139786362648010254e-01
2.259000000000000000e+03 1.487553024291992188e+01 2.127701187133789062e+01 -2.254354357719421387e-01 -9.295968413352966309e-01 -3.465096950531005859e-01 4.678390622138977051e-01
2.260000000000000000e+03 9.027177810668945312e+00 2.407437133789062500e+01 -9.469602257013320923e-02 -5.281557440757751465e-01 -1.868555396795272827e-01 5.090224742889404297e-01
2.261000000000000000e+03 1.315520668029785156e+01 2.356609535217285156e+01 -2.290328964591026306e-02 -7.951260805130004883e-01 -2.454088181257247925e-01 4.916159510612487793e-01
2.262000000000000000e+03 2.370148468017578125e+01 1.366093158721923828e+01 -3.666514456272125244e-01 -2.811641693115234375e-01 -1.943446844816207886e-01 3.656713068485260010e-01
2.263000000000000000e+03 2.463318443298339844e+01 1.708858299255371094e+01 -2.226345986127853394e-01 -5.346092209219932556e-02 -8.282865583896636963e-02 1.639387756586074829e-01
2.264000000000000000e+03 2.157801628112792969e+01 -1.483774471282958984e+01 -5.316494703292846680e-01 -9.900417178869247437e-03 -1.624649763107299805e-01 -5.046044588088989258e-01
2.265000000000000000e+03 2.016289710998535156e+01 -1.826515769958496094e+01 -3.400494158267974854e-01 -9.714575111865997314e-02 -1.311585605144500732e-01 -4.381543695926666260e-01
2.266000000000000000e+03 8.502082824707031250e+00 -2.988438606262207031e+01 1.053586304187774658e-01 -4.958882629871368408e-01 -1.171588972210884094e-01 -3.199971318244934082e-01
2.267000000000000000e+03 1.526068973541259766e+01 2.332043647766113281e+01 9.223520755767822266e-03 -8.013247251510620117e-01 -2.376303523778915405e-01 3.897768259048461914e-01
2.268000000000000000e+03 1.704680442810058594e+01 -2.107881546020507812e+01 -1.892409026622772217e-01 -2.848867177963256836e-01 -1.422382891178131104e-01 -3.728850483894348145e-01
2.269000000000000000e+03 2.264854621887207031e+01 1.457390499114990234e+01 -4.170974791049957275e-01 -4.121607244014739990e-01 -2.487774640321731567e-01 3.500205576419830322e-01
2.270000000000000000e+03 5.338152885437011719e+00 -1.373861312866210938e+01 7.991388440132141113e-03 -1.240285020321607590e-02 -1.323438715189695358e-03 -5.617051385343074799e-03
2.271000000000000000e+03 7.091991424560546875e+01 1.932678222656250000e+01 -2.212826609611511230e-01 7.911085605621337891e+00 2.306940793991088867e+00 4.240282773971557617e-01
2.272000000000000000e+03 1.067916011810302734e+01 -2.432120132446289062e+01 -6.620342377573251724e-03 -4.822580516338348389e-01 -1.466635167598724365e-01 -4.113856852054595947e-01
2.273000000000000000e+03 7.000563812255859375e+01 2.799987602233886719e+01 -1.428492814302444458e-01 7.826704502105712891e+00 2.305156469345092773e+00 1.879564970731735229e-01
2.274000000000000000e+03 5.228990936279296875e+01 -8.926612854003906250e+00 1.604345917701721191e+00 9.605043411254882812e+00 3.362816810607910156e+00 5.512315750122070312e+00
2.275000000000000000e+03 5.252419662475585938e+01 -8.907654762268066406e+00 1.355799674987792969e+00 1.098010349273681641e+01 3.700771093368530273e+00 5.428164958953857422e+00
2.276000000000000000e+03 5.257776260375976562e+01 -9.166648864746093750e+00 1.105981349945068359e+00 1.110287380218505859e+01 3.662656545639038086e+00 5.052773475646972656e+00
2.277000000000000000e+03 5.298454666137695312e+01 -8.893284797668457031e+00 8.312574625015258789e-01 1.362328910827636719e+01 4.336363792419433594e+00 4.773036956787109375e+00
2.278000000000000000e+03 5.207987976074218750e+01 -8.845424652099609375e+00 1.908571124076843262e+00 8.414653778076171875e+00 3.096967697143554688e+00 5.516104221343994141e+00
2.279000000000000000e+03 5.130821228027343750e+01 -3.776575565338134766e+00 2.126489162445068359e+00 5.121592998504638672e+00 2.174424648284912109e+00 -4.532991886138916016e+00
2.280000000000000000e+03 5.313071060180664062e+01 -3.940719604492187500e+00 7.745511531829833984e-01 1.448427963256835938e+01 4.577649116516113281e+00 -4.361527442932128906e+00
2.281000000000000000e+03 5.105310058593750000e+01 -4.071844577789306641e+00 2.385912656784057617e+00 3.612202405929565430e+00 1.799434542655944824e+00 -4.064770221710205078e+00
2.282000000000000000e+03 5.421459960937500000e+01 -3.951540470123291016e+00 1.125108480453491211e+00 1.657928848266601562e+01 5.311318874359130859e+00 -8.029025197029113770e-01
2.283000000000000000e+03 5.601964569091796875e+01 -5.675684928894042969e+00 7.098307132720947266e+00 1.317070674896240234e+01 6.080704212188720703e+00 1.253528714179992676e+00
2.284000000000000000e+03 5.577359008789062500e+01 -7.409462928771972656e+00 6.616559982299804688e+00 1.389442539215087891e+01 6.153295516967773438e+00 -1.748242378234863281e+00
2.285000000000000000e+03 5.594409179687500000e+01 -6.611168384552001953e+00 7.820353031158447266e+00 1.310834503173828125e+01 6.278609752655029297e+00 -4.287793040275573730e-01
2.286000000000000000e+03 5.479654693603515625e+01 -4.403605461120605469e+00 2.915809392929077148e+00 1.672563552856445312e+01 5.892433166503906250e+00 1.201006293296813965e+00
2.287000000000000000e+03 5.545649719238281250e+01 -5.509463310241699219e+00 7.289778232574462891e+00 1.461656284332275391e+01 6.571902275085449219e+00 1.821502685546875000e+00
2.288000000000000000e+03 5.471500778198242188e+01 -8.672944068908691406e+00 2.066390752792358398e+00 1.647170257568359375e+01 5.561428070068359375e+00 -6.438039541244506836e-01
2.289000000000000000e+03 5.523437118530273438e+01 -8.414128303527832031e+00 3.420574903488159180e+00 1.557183456420898438e+01 5.697722911834716797e+00 -1.622765898704528809e+00
2.290000000000000000e+03 5.476152420043945312e+01 -4.030427455902099609e+00 1.994318008422851562e+00 1.614032173156738281e+01 5.440392017364501953e+00 5.520027279853820801e-01
2.291000000000000000e+03 5.494073486328125000e+01 -8.949546813964843750e+00 1.796041011810302734e+00 1.547823143005371094e+01 5.182281970977783203e+00 -6.534759998321533203e-01
2.292000000000000000e+03 5.531589508056640625e+01 -5.029698371887207031e+00 5.736560344696044922e+00 1.536186408996582031e+01 6.329527378082275391e+00 2.104840755462646484e+00
2.293000000000000000e+03 4.982970046997070312e+01 -9.798119544982910156e+00 1.325394034385681152e+00 2.621120929718017578e+00 1.183954477310180664e+00 2.927774429321289062e+00
2.294000000000000000e+03 5.145486068725585938e+01 -9.163451194763183594e+00 2.000370979309082031e+00 5.837639331817626953e+00 2.351402997970581055e+00 4.803041934967041016e+00
2.295000000000000000e+03 4.926250076293945312e+01 -2.441047430038452148e+00 1.246219515800476074e+00 2.386387109756469727e+00 1.089781999588012695e+00 -2.625240564346313477e+00
2.296000000000000000e+03 4.873070907592773438e+01 -1.546127557754516602e+00 1.068982481956481934e+00 2.458177328109741211e+00 1.058147907257080078e+00 -2.446363925933837891e+00
2.297000000000000000e+03 2.515170860290527344e+01 3.463185429573059082e-01 -2.598301470279693604e-01 -1.898274123668670654e-01 -1.348972767591476440e-01 5.331725478172302246e-01
2.298000000000000000e+03 4.763496398925781250e+01 -1.254105448722839355e+00 8.409059643745422363e-01 1.840397477149963379e+00 8.043910264968872070e-01 -1.878687858581542969e+00
2.299000000000000000e+03 2.475243949890136719e+01 -3.005639910697937012e-01 -2.529011964797973633e-01 -1.875981092453002930e-01 -1.321497857570648193e-01 4.927404522895812988e-01
2.300000000000000000e+03 4.972314834594726562e+01 -1.056933689117431641e+01 1.200326681137084961e+00 3.087682247161865234e+00 1.286402702331542969e+00 3.025807857513427734e+00
2.301000000000000000e+03 2.535872650146484375e+01 -5.702117681503295898e-01 -2.878412008285522461e-01 -1.531909108161926270e-01 -1.323096305131912231e-01 4.989711046218872070e-01
2.302000000000000000e+03 9.117421150207519531e+00 5.949899673461914062e+00 -1.357501314487308264e-04 -1.556968782097101212e-03 -5.078156827948987484e-04 -6.080657476559281349e-04
2.303000000000000000e+03 4.989064025878906250e+01 -2.482781171798706055e+00 1.397294640541076660e+00 3.254790067672729492e+00 1.395625472068786621e+00 -3.142839670181274414e+00
2.304000000000000000e+03 2.746773147583007812e+01 -1.577819466590881348e+00 -4.300668835639953613e-01 -5.739839747548103333e-02 -1.462395936250686646e-01 4.933218955993652344e-01
2.305000000000000000e+03 2.590904617309570312e+01 -8.265678882598876953e-01 -3.191607594490051270e-01 -1.262043565511703491e-01 -1.336095333099365234e-01 5.006467700004577637e-01
2.306000000000000000e+03 2.847735214233398438e+01 -1.604247093200683594e-01 -3.990953266620635986e-01 -3.947938978672027588e-02 -1.315724253654479980e-01 5.621770620346069336e-01
2.307000000000000000e+03 2.750819969177246094e+01 -9.039100408554077148e-01 -3.979178667068481445e-01 -6.509938091039657593e-02 -1.389051675796508789e-01 5.281090736389160156e-01
2.308000000000000000e+03 3.094091224670410156e+01 -1.530373215675354004e+00 -5.924794077873229980e-01 2.185920253396034241e-02 -1.711860597133636475e-01 5.048636198043823242e-01
2.309000000000000000e+03 2.961183547973632812e+01 -9.456312656402587891e-01 -4.869311749935150146e-01 -1.936187152750790119e-03 -1.466602087020874023e-01 5.366947650909423828e-01
2.310000000000000000e+03 3.101741218566894531e+01 -1.040749698877334595e-01 -4.524242281913757324e-01 4.107863828539848328e-02 -1.234036758542060852e-01 5.453658699989318848e-01
2.311000000000000000e+03 4.477925109863281250e+01 -1.258180332183837891e+01 2.218524366617202759e-01 9.971470236778259277e-01 3.656998276710510254e-01 1.009404659271240234e+00
2.312000000000000000e+03 4.315754318237304688e+01 -1.194101238250732422e+01 -2.542974948883056641e-01 5.058235526084899902e-01 7.545781135559082031e-02 4.812558293342590332e-01
2.313000000000000000e+03 3.312005233764648438e+01 -1.472982764244079590e+00 -6.599857807159423828e-01 5.754791572690010071e-02 -1.807313561439514160e-01 4.760869741439819336e-01
2.314000000000000000e+03 4.557646560668945312e+01 -1.246084880828857422e+01 3.566895127296447754e-01 1.216368675231933594e+00 4.719174504280090332e-01 1.252785325050354004e+00
2.315000000000000000e+03 6.994527816772460938e+00 -7.011934757232666016e+00 3.683548420667648315e-04 -2.913378702942281961e-04 2.310509444214403629e-05 -4.014088772237300873e-04
2.316000000000000000e+03 4.163105392456054688e+01 -1.200384616851806641e+01 -4.694994688034057617e-01 3.297474980354309082e-01 -4.192559421062469482e-02 2.281412333250045776e-01
2.317000000000000000e+03 4.487416458129882812e+01 -1.336088085174560547e+01 3.644125759601593018e-01 1.276642441749572754e+00 4.923164844512939453e-01 1.176766514778137207e+00
2.318000000000000000e+03 3.468637084960937500e+01 -7.162034511566162109e-01 -5.645775198936462402e-01 1.120792701840400696e-01 -1.357494741678237915e-01 4.395798742771148682e-01
2.319000000000000000e+03 4.013449096679687500e+01 -1.281712627410888672e+01 -4.177070260047912598e-01 3.066739439964294434e-01 -3.330992907285690308e-02 1.301700323820114136e-01
2.320000000000000000e+03 4.633615112304687500e+01 -1.231948566436767578e+01 4.881387650966644287e-01 1.446757912635803223e+00 5.804690122604370117e-01 1.505674719810485840e+00
2.321000000000000000e+03 3.867277526855468750e+01 -1.282650661468505859e+01 -5.396965742111206055e-01 2.311699092388153076e-01 -9.255799651145935059e-02 -1.327405031770467758e-02
2.322000000000000000e+03 4.088291549682617188e+01 -1.281393241882324219e+01 -3.341478109359741211e-01 3.784141242504119873e-01 1.327989157289266586e-02 2.297825068235397339e-01
2.323000000000000000e+03 3.940289688110351562e+01 -1.281346893310546875e+01 -4.846256673336029053e-01 2.570197284221649170e-01 -6.828178465366363525e-02 5.299669131636619568e-02
2.324000000000000000e+03 4.397323226928710938e+01 -1.267516517639160156e+01 9.305829554796218872e-02 8.096497654914855957e-01 2.708124220371246338e-01 8.020823001861572266e-01
2.325000000000000000e+03 3.686814498901367188e+01 -1.346767902374267578e+00 -6.739278435707092285e-01 1.240226104855537415e-01 -1.649715751409530640e-01 3.423742949962615967e-01
2.326000000000000000e+03 3.472797012329101562e+01 -8.914023637771606445e-03 -4.544975161552429199e-01 1.439748108386993408e-01 -9.315680712461471558e-02 4.324543178081512451e-01
2.327000000000000000e+03 3.553493499755859375e+01 -1.235452747344970703e+01 -8.288303613662719727e-01 8.762529492378234863e-02 -2.223615199327468872e-01 -2.622773349285125732e-01
2.328000000000000000e+03 3.474340820312500000e+01 -1.236176586151123047e+01 -8.379601836204528809e-01 6.811923533678054810e-02 -2.309522926807403564e-01 -2.966704070568084717e-01
2.329000000000000000e+03 3.703897094726562500e+01 1.849857866764068604e-01 -3.583470880985260010e-01 2.315475046634674072e-01 -3.803987428545951843e-02 2.872803509235382080e-01
2.330000000000000000e+03 3.794121551513671875e+01 -1.290207672119140625e+01 -5.857324004173278809e-01 2.014234513044357300e-01 -1.152926832437515259e-01 -8.123189955949783325e-02
2.331000000000000000e+03 3.773090744018554688e+01 -5.881232023239135742e-01 -4.818320274353027344e-01 1.927352994680404663e-01 -8.672901988029479980e-02 2.663206458091735840e-01
2.332000000000000000e+03 3.317584228515625000e+01 -1.310068798065185547e+01 -6.991912722587585449e-01 7.503620535135269165e-02 -1.872465163469314575e-01 -3.464007079601287842e-01
2.333000000000000000e+03 4.569116210937500000e+01 -1.893308401107788086e+00 1.949166953563690186e-01 6.991265416145324707e-01 2.682129740715026855e-01 -8.534508347511291504e-01
2.334000000000000000e+03 3.985548019409179688e+01 -1.372251152992248535e+00 -5.687988996505737305e-01 2.018255740404129028e-01 -1.100920066237449646e-01 1.321142166852951050e-01
2.335000000000000000e+03 3.848347473144531250e+01 -5.991180539131164551e-01 -4.487702548503875732e-01 2.156386971473693848e-01 -6.993946433067321777e-02 2.082009315490722656e-01
2.336000000000000000e+03 4.210253143310546875e+01 -1.442677855491638184e+00 -3.735035061836242676e-01 3.092412948608398438e-01 -1.927866227924823761e-02 -1.288995742797851562e-01
2.337000000000000000e+03 3.464077377319335938e+01 -1.328037548065185547e+01 -6.373181939125061035e-01 1.127235516905784607e-01 -1.573783904314041138e-01 -2.772809565067291260e-01
2.338000000000000000e+03 3.995952224731445312e+01 -6.681565642356872559e-01 -3.652088046073913574e-01 2.787702083587646484e-01 -2.593157812952995300e-02 7.067929208278656006e-02
2.339000000000000000e+03 4.070575332641601562e+01 -7.112487554550170898e-01 -3.128256797790527344e-01 3.198942244052886963e-01 2.120558870956301689e-03 -1.854517310857772827e-02
2.340000000000000000e+03 3.171464347839355469e+01 -1.228877258300781250e+01 -8.610070347785949707e-01 2.546310797333717346e-02 -2.506631612777709961e-01 -4.003263115882873535e-01
2.341000000000000000e+03 3.387729644775390625e+01 -1.308514499664306641e+01 -6.942939758300781250e-01 8.788912743330001831e-02 -1.819214522838592529e-01 -3.198009133338928223e-01
2.342000000000000000e+03 3.021562385559082031e+01 -1.314251899719238281e+01 -7.073290944099426270e-01 4.060659930109977722e-02 -2.000167369842529297e-01 -4.416936337947845459e-01
2.343000000000000000e+03 3.091687774658203125e+01 -1.298866748809814453e+01 -7.468841671943664551e-01 2.414466254413127899e-02 -2.168218493461608887e-01 -4.202533960342407227e-01
2.344000000000000000e+03 4.080947875976562500e+01 -2.070589363574981689e-02 -1.306940913200378418e-01 4.304086565971374512e-01 8.991436660289764404e-02 -1.037758141756057739e-01
2.345000000000000000e+03 4.225302124023437500e+01 -1.249896064400672913e-01 1.317117642611265182e-02 5.337150692939758301e-01 1.640658676624298096e-01 -3.288500010967254639e-01
2.346000000000000000e+03 4.512185287475585938e+01 -1.733027338981628418e+00 8.835629373788833618e-02 6.396504044532775879e-01 2.184020131826400757e-01 -7.122850418090820312e-01
2.347000000000000000e+03 4.292847824096679688e+01 -8.197053670883178711e-01 -6.697554141283035278e-02 4.981237947940826416e-01 1.293444782495498657e-01 -3.570128083229064941e-01
2.348000000000000000e+03 2.739530372619628906e+01 -1.306374645233154297e+01 -6.841224431991577148e-01 2.881976589560508728e-02 -1.965908110141754150e-01 -4.902446568012237549e-01
2.349000000000000000e+03 2.901791000366210938e+01 -1.274623680114746094e+01 -7.506636977195739746e-01 2.088578231632709503e-02 -2.189333885908126831e-01 -4.603766202926635742e-01
2.350000000000000000e+03 2.569002342224121094e+01 -1.227176856994628906e+01 -7.225174903869628906e-01 2.994305826723575592e-02 -2.077723443508148193e-01 -4.878350198268890381e-01
2.351000000000000000e+03 2.363799858093261719e+01 -1.298636722564697266e+01 -6.281664371490478516e-01 3.236677870154380798e-02 -1.787398904561996460e-01 -5.058349370956420898e-01
2.352000000000000000e+03 4.705110931396484375e+01 -1.215000724792480469e+01 6.084057688713073730e-01 1.733667612075805664e+00 7.026219964027404785e-01 1.767617821693420410e+00
2.353000000000000000e+03 2.302402114868164062e+01 -4.803035855293273926e-01 -1.668803691864013672e-01 -2.594446241855621338e-01 -1.278975009918212891e-01 4.075379669666290283e-01
2.354000000000000000e+03 4.451680374145507812e+01 -8.146273493766784668e-01 2.182116210460662842e-01 7.596838474273681641e-01 2.933686375617980957e-01 -7.457021474838256836e-01
2.355000000000000000e+03 2.504045867919921875e+01 -1.309503078460693359e+01 -6.430800557136535645e-01 3.445976227521896362e-02 -1.825860887765884399e-01 -5.080768465995788574e-01
2.356000000000000000e+03 4.703839874267578125e+01 -1.192034482955932617e+00 7.207064032554626465e-01 1.491577148437500000e+00 6.636850833892822266e-01 -1.606967687606811523e+00
2.357000000000000000e+03 4.631201934814453125e+01 -1.257900595664978027e+00 5.297421813011169434e-01 1.147619843482971191e+00 5.032086372375488281e-01 -1.264304995536804199e+00
2.358000000000000000e+03 2.193113708496093750e+01 -1.220649909973144531e+01 -6.198031902313232422e-01 2.018933370709419250e-02 -1.798841655254364014e-01 -4.800948500633239746e-01
2.359000000000000000e+03 2.163869094848632812e+01 -1.339241409301757812e+01 -5.843659639358520508e-01 3.926552366465330124e-03 -1.741318255662918091e-01 -5.026654601097106934e-01
2.360000000000000000e+03 6.875029087066650391e+00 8.918011665344238281e+00 1.184671418741345406e-03 -1.890156563604250550e-04 2.986967447213828564e-04 1.439251587726175785e-03
2.361000000000000000e+03 8.161148071289062500e+00 -5.232028484344482422e+00 3.661388473119586706e-04 -4.827028315048664808e-04 -3.496919089229777455e-05 1.915910688694566488e-04
2.362000000000000000e+03 4.890552902221679688e+01 -1.159860515594482422e+01 8.915216922760009766e-01 2.931231021881103516e+00 1.146825790405273438e+00 2.634675979614257812e+00
2.363000000000000000e+03 4.887896347045898438e+01 -1.101038551330566406e+01 9.729294180870056152e-01 2.502490997314453125e+00 1.042626142501831055e+00 2.526177883148193359e+00
2.364000000000000000e+03 4.825269317626953125e+01 -1.114772605895996094e+01 8.106713294982910156e-01 1.995599746704101562e+00 8.418813347816467285e-01 2.148910999298095703e+00
2.365000000000000000e+03 2.335715866088867188e+01 3.221217691898345947e-01 -1.818330585956573486e-01 -2.848218679428100586e-01 -1.399964839220046997e-01 4.675727784633636475e-01
2.366000000000000000e+03 2.256024169921875000e+01 6.609738469123840332e-01 -1.430798619985580444e-01 -3.484022617340087891e-01 -1.474446356296539307e-01 4.344124794006347656e-01
2.367000000000000000e+03 7.288544464111328125e+01 -2.008346366882324219e+01 -7.517176121473312378e-02 7.571592807769775391e+00 2.248926401138305664e+00 -7.916139960289001465e-01
2.368000000000000000e+03 7.112020111083984375e+01 -2.492302703857421875e+01 -2.353994250297546387e-01 7.832855224609375000e+00 2.279236555099487305e+00 -6.960443854331970215e-01
2.369000000000000000e+03 7.271302032470703125e+01 1.221532726287841797e+01 -1.658841669559478760e-01 7.830191612243652344e+00 2.299292325973510742e+00 6.808081865310668945e-01
2.370000000000000000e+03 4.691423416137695312e+00 6.450542926788330078e+00 1.149063697084784508e-03 5.255148862488567829e-04 5.023735575377941132e-04 -2.089214831357821822e-04
2.371000000000000000e+03 2.491997718811035156e+01 5.473581314086914062e+00 -2.610841393470764160e-01 -2.853837907314300537e-01 -1.639403849840164185e-01 6.203711628913879395e-01
2.372000000000000000e+03 2.576627731323242188e+01 9.307491302490234375e+00 -2.901735007762908936e-01 -1.289114356040954590e-01 -1.257254779338836670e-01 5.118353962898254395e-01
2.373000000000000000e+03 7.319445037841796875e+01 5.280318737030029297e+00 1.331827603280544281e-02 7.433094024658203125e+00 2.233923673629760742e+00 8.174270987510681152e-01
2.374000000000000000e+03 2.107411384582519531e+01 -1.741568374633789062e+01 -3.808466494083404541e-01 -4.903240874409675598e-02 -1.289637237787246704e-01 -4.654287695884704590e-01
2.375000000000000000e+03 2.180473709106445312e+01 -1.650980758666992188e+01 -4.331196248531341553e-01 -1.583233289420604706e-02 -1.346855908632278442e-01 -4.895933270454406738e-01
2.376000000000000000e+03 2.297517585754394531e+01 1.619761824607849121e+00 -1.683476269245147705e-01 -3.720086514949798584e-01 -1.621068865060806274e-01 4.994897544384002686e-01
2.377000000000000000e+03 2.492108345031738281e+01 3.792048931121826172e+00 -2.391914427280426025e-01 -2.876092195510864258e-01 -1.580401957035064697e-01 6.212790608406066895e-01
2.378000000000000000e+03 7.232395172119140625e+01 -1.355239152908325195e+00 4.122500419616699219e-01 7.134547233581542969e+00 2.264039278030395508e+00 5.923775434494018555e-01
2.379000000000000000e+03 8.276349067687988281e+00 2.535294342041015625e+01 -3.891051560640335083e-02 -5.130524635314941406e-01 -1.655889004468917847e-01 4.664568901062011719e-01
2.380000000000000000e+03 7.383899688720703125e+01 2.311777114868164062e+01 -9.476549923419952393e-02 8.216392517089843750e+00 2.436488151550292969e+00 2.618930339813232422e-01
2.381000000000000000e+03 7.289601135253906250e+01 -2.510207176208496094e+01 -1.638073325157165527e-01 7.804132461547851562e+00 2.292097568511962891e+00 -6.360501646995544434e-01
2.382000000000000000e+03 7.214070892333984375e+01 -1.367041301727294922e+01 2.793391048908233643e-01 7.286189079284667969e+00 2.269658565521240234e+00 -7.567049264907836914e-01
2.383000000000000000e+03 7.192683410644531250e+01 -1.653744316101074219e+01 8.575989305973052979e-02 7.483914852142333984e+00 2.270902395248413086e+00 -8.655620813369750977e-01
2.384000000000000000e+03 7.222835540771484375e+01 -1.889792823791503906e+01 -3.484821692109107971e-02 7.572671413421630859e+00 2.261346817016601562e+00 -8.516436219215393066e-01
2.385000000000000000e+03 7.195452880859375000e+01 -6.997405529022216797e+00 6.140022873878479004e-01 7.045006752014160156e+00 2.297702789306640625e+00 -7.121831923723220825e-02
2.386000000000000000e+03 7.221914672851562500e+01 -1.235420989990234375e+01 3.653437197208404541e-01 7.203075885772705078e+00 2.270525932312011719e+00 -6.707454323768615723e-01
2.387000000000000000e+03 7.129158782958984375e+01 -6.045706748962402344e+00 7.119728922843933105e-01 7.138065814971923828e+00 2.355011701583862305e+00 5.632451549172401428e-02
2.388000000000000000e+03 7.123712921142578125e+01 -8.292654991149902344e+00 7.011756896972656250e-01 7.182898044586181641e+00 2.365222215652465820e+00 -2.572134137153625488e-01
2.389000000000000000e+03 7.257299804687500000e+01 -2.220394706726074219e+01 -1.339967399835586548e-01 7.692916393280029297e+00 2.267675876617431641e+00 -7.568092346191406250e-01
2.390000000000000000e+03 7.187938690185546875e+01 6.445968627929687500e+00 -4.539893940091133118e-02 7.634944915771484375e+00 2.276863813400268555e+00 8.842554092407226562e-01
2.391000000000000000e+03 7.312084197998046875e+01 6.630261421203613281e+00 -3.642577305436134338e-02 7.526939868927001953e+00 2.247154235839843750e+00 8.150174021720886230e-01
2.392000000000000000e+03 7.196522521972656250e+01 5.116352081298828125e+00 2.087713032960891724e-02 7.559910297393798828e+00 2.274236202239990234e+00 8.910703659057617188e-01
2.393000000000000000e+03 2.445690727233886719e+01 3.234225034713745117e+00 -2.274638712406158447e-01 -3.107872903347015381e-01 -1.614753454923629761e-01 6.054310798645019531e-01
2.394000000000000000e+03 7.254355621337890625e+01 1.374781322479248047e+01 -1.805044561624526978e-01 7.886531352996826172e+00 2.311808109283447266e+00 6.222462654113769531e-01
2.395000000000000000e+03 7.138422393798828125e+01 1.190782451629638672e+01 -2.128604650497436523e-01 7.848841190338134766e+00 2.290794134140014648e+00 7.300503849983215332e-01
2.396000000000000000e+03 7.358528137207031250e+00 2.840626525878906250e+01 6.109119206666946411e-02 -5.573152899742126465e-01 -1.488672345876693726e-01 3.945229649543762207e-01
2.397000000000000000e+03 1.183028316497802734e+01 2.844824409484863281e+01 1.801557093858718872e-01 -6.355356574058532715e-01 -1.366139948368072510e-01 3.977591097354888916e-01
2.398000000000000000e+03 7.190782928466796875e+01 2.108860778808593750e+01 -1.725617349147796631e-01 8.002259254455566406e+00 2.348909139633178711e+00 3.573830425739288330e-01
2.399000000000000000e+03 7.206804656982421875e+01 -2.817144584655761719e+01 -2.153722792863845825e-01 7.887799739837646484e+00 2.301728248596191406e+00 -5.277596712112426758e-01
2.400000000000000000e+03 6.869680786132812500e+01 -2.983421516418457031e+01 -3.695374727249145508e-01 7.787035942077636719e+00 2.225249528884887695e+00 -4.567236304283142090e-01
2.401000000000000000e+03 2.462463188171386719e+01 4.528354644775390625e+00 -2.454578727483749390e-01 -3.157280385494232178e-01 -1.683557778596878052e-01 6.217457056045532227e-01
2.402000000000000000e+03 2.563520812988281250e+01 6.226398468017578125e+00 -2.590435445308685303e-01 -2.067214101552963257e-01 -1.397294849157333374e-01 6.065492630004882812e-01
2.403000000000000000e+03 2.470193099975585938e+01 1.495229816436767578e+01 -2.962425053119659424e-01 -9.651081264019012451e-02 -1.178259998559951782e-01 2.592450082302093506e-01
2.404000000000000000e+03 7.193307495117187500e+01 -2.604984092712402344e+01 -2.097887098789215088e-01 7.844954013824462891e+00 2.290549516677856445e+00 -6.306471824645996094e-01
2.405000000000000000e+03 1.105034732818603516e+01 2.375400924682617188e+01 -7.847834378480911255e-02 -6.806927323341369629e-01 -2.277513295412063599e-01 5.548322796821594238e-01
2.406000000000000000e+03 9.752031326293945312e+00 2.815167808532714844e+01 1.145544573664665222e-01 -6.124502420425415039e-01 -1.493687331676483154e-01 4.252485334873199463e-01
2.407000000000000000e+03 7.345954132080078125e+01 -3.898572921752929688e-02 2.555612325668334961e-01 7.035363674163818359e+00 2.187277317047119141e+00 6.301994919776916504e-01
2.408000000000000000e+03 1.681073570251464844e+01 2.103502273559570312e+01 -1.950535476207733154e-01 -8.465742468833923340e-01 -3.124883472919464111e-01 3.552695214748382568e-01
2.409000000000000000e+03 1.670160293579101562e+01 -2.504796791076660156e+01 8.331228047609329224e-02 -2.870429158210754395e-01 -6.111919134855270386e-02 -3.468298912048339844e-01
2.410000000000000000e+03 1.001319694519042969e+01 -2.557351684570312500e+01 4.799544811248779297e-02 -4.778065085411071777e-01 -1.289433240890502930e-01 -3.993364274501800537e-01
2.411000000000000000e+03 7.580824851989746094e+00 2.674508285522460938e+01 2.345627732574939728e-02 -5.313300490379333496e-01 -1.523621231317520142e-01 4.231464266777038574e-01
2.412000000000000000e+03 7.109567260742187500e+01 1.338790893554687500e+01 -2.388003468513488770e-01 7.879424571990966797e+00 2.292187213897705078e+00 6.710013747215270996e-01
2.413000000000000000e+03 1.853040313720703125e+01 -2.076193809509277344e+01 -1.989091336727142334e-01 -2.081261575222015381e-01 -1.221105903387069702e-01 -3.857727646827697754e-01
2.414000000000000000e+03 1.772798538208007812e+01 2.020170783996582031e+01 -2.481130063533782959e-01 -8.109343647956848145e-01 -3.177142143249511719e-01 3.127656280994415283e-01
2.415000000000000000e+03 7.229180145263671875e+01 2.305507469177246094e+01 -1.341240108013153076e-01 8.063849449157714844e+00 2.378917455673217773e+00 2.957462370395660400e-01
2.416000000000000000e+03 6.971417999267578125e+01 1.794117927551269531e+01 -2.925895750522613525e-01 7.838815212249755859e+00 2.263867616653442383e+00 4.771922528743743896e-01
2.417000000000000000e+03 6.932122039794921875e+01 -3.252070617675781250e+01 -2.809913754463195801e-01 7.807691097259521484e+00 2.258009910583496094e+00 -3.483917415142059326e-01
2.418000000000000000e+03 1.913696098327636719e+01 -1.891955757141113281e+01 -3.085445165634155273e-01 -1.553282737731933594e-01 -1.391618251800537109e-01 -4.199661016464233398e-01
2.419000000000000000e+03 2.087742233276367188e+01 -1.959222412109375000e+01 -2.344987690448760986e-01 -7.886850088834762573e-02 -9.401018172502517700e-02 -4.287674427032470703e-01
2.420000000000000000e+03 9.593042373657226562e+00 -2.417260169982910156e+01 -2.101756446063518524e-02 -4.650469422340393066e-01 -1.458193510770797729e-01 -4.033153653144836426e-01
2.421000000000000000e+03 8.155112266540527344e+00 3.581434249877929688e+01 1.717457473278045654e-01 -6.229938864707946777e-01 -1.353744566440582275e-01 2.071077674627304077e-01
2.422000000000000000e+03 7.092373657226562500e+01 -2.710600662231445312e+01 -2.715726792812347412e-01 7.864374160766601562e+00 2.277840375900268555e+00 -5.985602736473083496e-01
2.423000000000000000e+03 1.977533721923828125e+01 -2.024522399902343750e+01 -2.220055311918258667e-01 -1.380316466093063354e-01 -1.080111563205718994e-01 -4.030977785587310791e-01
2.424000000000000000e+03 7.086193847656250000e+01 2.994285964965820312e+01 -1.199906617403030396e-01 7.950107574462890625e+00 2.349035024642944336e+00 1.327714622020721436e-01
2.425000000000000000e+03 6.936343383789062500e+01 2.599694633483886719e+01 -1.719707846641540527e-01 7.744379043579101562e+00 2.271722316741943359e+00 2.238295823335647583e-01
2.426000000000000000e+03 2.474180984497070312e+01 -1.494928169250488281e+01 -5.117501020431518555e-01 3.584569692611694336e-02 -1.427713334560394287e-01 -5.172137618064880371e-01
2.427000000000000000e+03 7.367929840087890625e+01 -2.188352012634277344e+01 -9.675332903861999512e-02 7.617918968200683594e+00 2.256349563598632812e+00 -7.084292769432067871e-01
2.428000000000000000e+03 7.119434356689453125e+01 -2.945356178283691406e+01 -2.532286942005157471e-01 7.884636402130126953e+00 2.289422273635864258e+00 -4.838173985481262207e-01
2.429000000000000000e+03 9.484333992004394531e+00 2.619132232666015625e+01 3.616199269890785217e-02 -5.936309099197387695e-01 -1.672406792640686035e-01 4.710291624069213867e-01
2.430000000000000000e+03 2.366148757934570312e+01 1.584036254882812500e+01 -3.250264227390289307e-01 -2.134912610054016113e-01 -1.615553051233291626e-01 2.463857382535934448e-01
2.431000000000000000e+03 9.617494583129882812e+00 -3.204924774169921875e+01 1.486439853906631470e-01 -4.813986420631408691e-01 -9.982640296220779419e-02 -2.777207493782043457e-01
2.432000000000000000e+03 1.184784793853759766e+01 -2.474993324279785156e+01 3.409489616751670837e-02 -4.795117080211639404e-01 -1.336250454187393188e-01 -3.979762196540832520e-01
2.433000000000000000e+03 5.254292297363281250e+01 -3.632360458374023438e+00 1.164941787719726562e+00 1.089493083953857422e+01 3.617961883544921875e+00 -5.110331058502197266e+00
2.434000000000000000e+03 5.211504745483398438e+01 -3.372064352035522461e+00 1.430916428565979004e+00 8.687415122985839844e+00 3.035499572753906250e+00 -5.107533454895019531e+00
2.435000000000000000e+03 5.316979980468750000e+01 -9.289389610290527344e+00 4.727118909358978271e-01 1.325113296508789062e+01 4.117153167724609375e+00 3.964071035385131836e+00
2.436000000000000000e+03 5.260606384277343750e+01 -9.585790634155273438e+00 7.064505815505981445e-01 1.067291736602783203e+01 3.413810253143310547e+00 4.607700347900390625e+00
2.437000000000000000e+03 5.359535217285156250e+01 -9.377137184143066406e+00 2.389516830444335938e-01 1.437654304504394531e+01 4.384648323059082031e+00 2.876573562622070312e+00
2.438000000000000000e+03 5.583889007568359375e+01 -7.143377780914306641e+00 7.223356723785400391e+00 1.356524276733398438e+01 6.236579895019531250e+00 -1.401112079620361328e+00
2.439000000000000000e+03 5.572134017944335938e+01 -5.597912311553955078e+00 7.316936969757080078e+00 1.384577655792236328e+01 6.348814010620117188e+00 1.513298273086547852e+00
2.440000000000000000e+03 5.598122787475585938e+01 -7.915504932403564453e+00 5.159271240234375000e+00 1.367642402648925781e+01 5.650708675384521484e+00 -1.849860548973083496e+00
2.441000000000000000e+03 5.152535247802734375e+01 -3.479010105133056641e+00 1.820238709449768066e+00 6.301304817199707031e+00 2.436463117599487305e+00 -4.734583377838134766e+00
2.442000000000000000e+03 5.560586166381835938e+01 -5.266662597656250000e+00 6.362934112548828125e+00 1.440890312194824219e+01 6.231551170349121094e+00 1.903852581977844238e+00
2.443000000000000000e+03 5.511263656616210938e+01 -8.786616325378417969e+00 2.330369949340820312e+00 1.550563049316406250e+01 5.350800037384033203e+00 -1.096798539161682129e+00
2.444000000000000000e+03 5.513500976562500000e+01 -4.418466567993164062e+00 3.417289495468139648e+00 1.578451061248779297e+01 5.760540008544921875e+00 1.576777815818786621e+00
2.445000000000000000e+03 5.543817520141601562e+01 -5.185289382934570312e+00 6.258788108825683594e+00 1.492636108398437500e+01 6.355544567108154297e+00 2.062958002090454102e+00
2.446000000000000000e+03 5.409362030029296875e+01 -9.386136054992675781e+00 3.524002730846405029e-01 1.507593154907226562e+01 4.628499507904052734e+00 1.670432686805725098e+00
2.447000000000000000e+03 4.939334106445312500e+01 -1.016573619842529297e+01 1.097076535224914551e+00 2.405146837234497070e+00 1.050667047500610352e+00 2.650117397308349609e+00
2.448000000000000000e+03 5.082005310058593750e+01 -9.732674598693847656e+00 1.589256644248962402e+00 4.465984344482421875e+00 1.816572308540344238e+00 3.991880893707275391e+00
2.449000000000000000e+03 4.992176055908203125e+01 -3.123592376708984375e+00 1.510391116142272949e+00 2.649195432662963867e+00 1.247875928878784180e+00 -2.978936433792114258e+00
2.450000000000000000e+03 4.929074859619140625e+01 -1.767488598823547363e+00 1.164290308952331543e+00 2.943415880203247070e+00 1.232311844825744629e+00 -2.768933773040771484e+00
2.451000000000000000e+03 4.839008712768554688e+01 -1.951637983322143555e+00 1.004025816917419434e+00 1.942016005516052246e+00 8.838125467300415039e-01 -2.165020227432250977e+00
2.452000000000000000e+03 5.147031021118164062e+01 -1.070784854888916016e+01 8.459606170654296875e-01 6.869237422943115234e+00 2.314559459686279297e+00 4.090140819549560547e+00
2.453000000000000000e+03 2.450332641601562500e+01 2.537792921066284180e+00 -2.269309461116790771e-01 -3.005937337875366211e-01 -1.582573950290679932e-01 5.952164530754089355e-01
2.454000000000000000e+03 2.688741111755371094e+01 -1.064983725547790527e+00 -3.740735352039337158e-01 -8.605000376701354980e-02 -1.380370706319808960e-01 5.107699036598205566e-01
2.455000000000000000e+03 2.629949378967285156e+01 -3.049568831920623779e-01 -3.251572251319885254e-01 -1.198832616209983826e-01 -1.335121542215347290e-01 5.366570949554443359e-01
2.456000000000000000e+03 4.834578323364257812e+01 -8.526372909545898438e-01 9.436094760894775391e-01 2.494443893432617188e+00 1.031416058540344238e+00 -2.297979831695556641e+00
2.457000000000000000e+03 4.789232635498046875e+01 -9.142687916755676270e-01 8.744268417358398438e-01 2.120909929275512695e+00 8.986010551452636719e-01 -2.032946825027465820e+00
2.458000000000000000e+03 2.576251411437988281e+01 2.589708380401134491e-02 -2.898583710193634033e-01 -1.533515453338623047e-01 -1.329629719257354736e-01 5.379843711853027344e-01
2.459000000000000000e+03 4.834123992919921875e+01 -1.176157665252685547e+01 8.257994651794433594e-01 2.453451871871948242e+00 9.837753772735595703e-01 2.340404987335205078e+00
2.460000000000000000e+03 4.942853164672851562e+01 -1.103164577484130859e+01 1.065587997436523438e+00 3.098812818527221680e+00 1.249320268630981445e+00 2.901597023010253906e+00
2.461000000000000000e+03 5.128511428833007812e+01 -3.483948469161987305e+00 1.861360907554626465e+00 5.202005863189697266e+00 2.119010210037231445e+00 -4.426039218902587891e+00
2.462000000000000000e+03 2.823000144958496094e+01 -8.573625683784484863e-01 -4.253806173801422119e-01 -4.547904431819915771e-02 -1.412578970193862915e-01 5.361946225166320801e-01
2.463000000000000000e+03 2.671862030029296875e+01 -6.432974934577941895e-01 -3.517759442329406738e-01 -9.873645007610321045e-02 -1.351537108421325684e-01 5.265046358108520508e-01
2.464000000000000000e+03 3.026267623901367188e+01 -1.818893402814865112e-01 -4.467376768589019775e-01 2.014800533652305603e-02 -1.279768943786621094e-01 5.531593561172485352e-01
2.465000000000000000e+03 2.727631568908691406e+01 -2.951465249061584473e-01 -3.635060191154479980e-01 -8.140955865383148193e-02 -1.334746778011322021e-01 5.514053702354431152e-01
2.466000000000000000e+03 3.099986839294433594e+01 -8.311492800712585449e-01 -5.255389213562011719e-01 2.973041683435440063e-02 -1.487425565719604492e-01 5.286408066749572754e-01
2.467000000000000000e+03 3.054549217224121094e+01 9.688159823417663574e-01 -3.638198673725128174e-01 4.634222760796546936e-02 -9.524329006671905518e-02 5.652193427085876465e-01
2.468000000000000000e+03 2.907497024536132812e+01 -3.685655891895294189e-01 -4.305395483970642090e-01 -1.890243962407112122e-02 -1.348325908184051514e-01 5.541746020317077637e-01
2.469000000000000000e+03 3.028994560241699219e+01 -8.803954124450683594e-01 -5.079725384712219238e-01 1.441331207752227783e-02 -1.480677723884582520e-01 5.344357490539550781e-01
2.470000000000000000e+03 3.245490646362304688e+01 -7.963446378707885742e-01 -5.534669160842895508e-01 5.929845944046974182e-02 -1.482505500316619873e-01 5.053298473358154297e-01
2.471000000000000000e+03 3.250540542602539062e+01 -1.041717082262039185e-01 -4.749564528465270996e-01 7.538854330778121948e-02 -1.198703721165657043e-01 5.117364525794982910e-01
2.472000000000000000e+03 3.177595329284667969e+01 -1.255089491605758667e-01 -4.684216380119323730e-01 6.242956593632698059e-02 -1.217976212501525879e-01 5.304695367813110352e-01
2.473000000000000000e+03 4.241503143310546875e+01 -1.275405406951904297e+01 -1.465834826231002808e-01 5.539325475692749023e-01 1.222047284245491028e-01 4.606542885303497314e-01
2.474000000000000000e+03 4.569956970214843750e+01 -1.322450256347656250e+01 4.760135710239410400e-01 1.523439884185791016e+00 5.998360514640808105e-01 1.428537249565124512e+00
2.475000000000000000e+03 3.937305831909179688e+01 -1.360606193542480469e+01 -3.089682757854461670e-01 3.422052562236785889e-01 9.971093386411666870e-03 1.140077561140060425e-01
2.476000000000000000e+03 3.323955535888671875e+01 -8.890962600708007812e-02 -4.734494984149932861e-01 9.545078873634338379e-02 -1.133996173739433289e-01 4.927358627319335938e-01
2.477000000000000000e+03 4.010720062255859375e+01 -1.363359355926513672e+01 -2.300155162811279297e-01 4.126040935516357422e-01 5.477657169103622437e-02 2.157688140869140625e-01
2.478000000000000000e+03 3.398460769653320312e+01 -6.302235275506973267e-02 -4.682770967483520508e-01 1.197444424033164978e-01 -1.045597940683364868e-01 4.662204384803771973e-01
2.479000000000000000e+03 3.543549346923828125e+01 -6.714490056037902832e-01 -5.536094903945922852e-01 1.286511421203613281e-01 -1.274875104427337646e-01 4.068085253238677979e-01
2.480000000000000000e+03 4.319735336303710938e+01 -1.352318096160888672e+01 1.437822431325912476e-01 8.765552043914794922e-01 3.061012327671051025e-01 7.581241130828857422e-01
2.481000000000000000e+03 4.164650344848632812e+01 -1.279880523681640625e+01 -2.431227415800094604e-01 4.417365193367004395e-01 5.958413705229759216e-02 3.414073884487152100e-01
2.482000000000000000e+03 3.639020919799804688e+01 -1.309601116180419922e+01 -6.087242364883422852e-01 1.602251529693603516e-01 -1.345497220754623413e-01 -1.813234686851501465e-01
2.483000000000000000e+03 3.729061508178710938e+01 -1.387518119812011719e+01 -4.012292623519897461e-01 2.501583099365234375e-01 -4.532128944993019104e-02 -6.725487112998962402e-02
2.484000000000000000e+03 3.624481582641601562e+01 1.369674205780029297e-01 -3.945951163768768311e-01 1.941159814596176147e-01 -6.014373525977134705e-02 3.453272283077239990e-01
2.485000000000000000e+03 3.696381378173828125e+01 -5.984620451927185059e-01 -5.114442706108093262e-01 1.692723482847213745e-01 -1.026515737175941467e-01 3.202878534793853760e-01
2.486000000000000000e+03 3.544881820678710938e+01 8.275883793830871582e-01 -3.154741823673248291e-01 2.087651342153549194e-01 -3.201271221041679382e-02 3.716563284397125244e-01
2.487000000000000000e+03 3.551935577392578125e+01 -1.326491069793701172e+01 -6.074553132057189941e-01 1.393317133188247681e-01 -1.404370814561843872e-01 -2.325829714536666870e-01
2.488000000000000000e+03 3.721010971069335938e+01 -1.485018348693847656e+01 -2.179094254970550537e-01 3.385784029960632324e-01 3.620069101452827454e-02 -1.295904163271188736e-02
2.489000000000000000e+03 3.635018920898437500e+01 -1.459954738616943359e+01 -3.087589740753173828e-01 2.675960659980773926e-01 -1.234887260943651199e-02 -1.092648953199386597e-01
2.490000000000000000e+03 3.803792953491210938e+01 -1.370501422882080078e+01 -3.812153637409210205e-01 2.814004123210906982e-01 -2.994448505342006683e-02 -1.455249544233083725e-02
2.491000000000000000e+03 3.241510772705078125e+01 -1.313911342620849609e+01 -7.038923501968383789e-01 6.548825651407241821e-02 -1.915212124586105347e-01 -3.723227977752685547e-01
2.492000000000000000e+03 3.349385452270507812e+01 -1.375616931915283203e+01 -5.794069170951843262e-01 1.016884446144104004e-01 -1.433155387639999390e-01 -3.226270973682403564e-01
2.493000000000000000e+03 3.922145462036132812e+01 -6.279242038726806641e-01 -4.112936258316040039e-01 2.445752024650573730e-01 -5.001552775502204895e-02 1.433930099010467529e-01
2.494000000000000000e+03 3.934335327148437500e+01 1.321130543947219849e-01 -2.281479984521865845e-01 3.270988166332244873e-01 2.968524955213069916e-02 7.693163305521011353e-02
2.495000000000000000e+03 3.425556564331054688e+01 -1.422085094451904297e+01 -4.720975458621978760e-01 1.510608643293380737e-01 -9.631100296974182129e-02 -2.683084309101104736e-01
2.496000000000000000e+03 3.648182296752929688e+01 -1.387288856506347656e+01 -4.539629817008972168e-01 2.145268172025680542e-01 -7.183084636926651001e-02 -1.374062746763229370e-01
2.497000000000000000e+03 4.153961563110351562e+01 -7.225298136472702026e-02 -6.114516034722328186e-02 4.754117429256439209e-01 1.242799684405326843e-01 -2.165723294019699097e-01
2.498000000000000000e+03 4.007388687133789062e+01 4.945794492959976196e-02 -1.877420097589492798e-01 3.734721541404724121e-01 5.571904033422470093e-02 -2.728530438616871834e-03
2.499000000000000000e+03 4.163063812255859375e+01 6.220324039459228516e-01 9.750343859195709229e-02 6.119269132614135742e-01 2.128290981054306030e-01 -3.092639744281768799e-01
2.500000000000000000e+03 3.164155769348144531e+01 -1.303916740417480469e+01 -7.301058769226074219e-01 4.881064221262931824e-02 -2.043885588645935059e-01 -4.029399156570434570e-01
2.501000000000000000e+03 3.148803710937500000e+01 -1.375023078918457031e+01 -6.226955056190490723e-01 6.398525834083557129e-02 -1.676130741834640503e-01 -4.015930294990539551e-01
2.502000000000000000e+03 3.216086578369140625e+01 -1.394244480133056641e+01 -5.677841305732727051e-01 9.101868420839309692e-02 -1.430296301841735840e-01 -3.729547262191772461e-01
2.503000000000000000e+03 2.823272514343261719e+01 -1.295668029785156250e+01 -7.039787769317626953e-01 3.130942955613136292e-02 -2.018008083105087280e-01 -4.780619144439697266e-01
2.504000000000000000e+03 2.955404472351074219e+01 -1.432548904418945312e+01 -5.468804836273193359e-01 5.778892710804939270e-02 -1.467274725437164307e-01 -4.583925306797027588e-01
2.505000000000000000e+03 4.369969177246093750e+01 -8.296391367912292480e-01 5.696675926446914673e-02 6.048718094825744629e-01 1.985515803098678589e-01 -5.234267115592956543e-01
2.506000000000000000e+03 4.367642211914062500e+01 -1.677383482456207275e-01 2.149336487054824829e-01 7.664262056350708008e-01 2.944079637527465820e-01 -6.337271332740783691e-01
2.507000000000000000e+03 4.298932266235351562e+01 4.577325284481048584e-01 2.206525355577468872e-01 7.587432861328125000e-01 2.938187420368194580e-01 -5.408859848976135254e-01
2.508000000000000000e+03 2.655356407165527344e+01 -1.306691455841064453e+01 -6.738931536674499512e-01 3.010570257902145386e-02 -1.931362450122833252e-01 -4.981279075145721436e-01
2.509000000000000000e+03 2.653231811523437500e+01 -1.391623306274414062e+01 -5.847752690315246582e-01 4.033409431576728821e-02 -1.633323431015014648e-01 -5.073472857475280762e-01
2.510000000000000000e+03 3.073126983642578125e+01 -1.364407825469970703e+01 -6.377122998237609863e-01 4.959169775247573853e-02 -1.764361858367919922e-01 -4.264119863510131836e-01
2.511000000000000000e+03 2.227721786499023438e+01 -2.510549128055572510e-01 -1.286169439554214478e-01 -3.013673126697540283e-01 -1.289952695369720459e-01 3.718571364879608154e-01
2.512000000000000000e+03 2.750958442687988281e+01 -1.390706539154052734e+01 -5.897095799446105957e-01 4.370268806815147400e-02 -1.638020724058151245e-01 -4.933257699012756348e-01
2.513000000000000000e+03 2.843930244445800781e+01 -1.368242359161376953e+01 -6.158753633499145508e-01 3.897317126393318176e-02 -1.730706542730331421e-01 -4.776159822940826416e-01
2.514000000000000000e+03 4.722091293334960938e+01 -1.288076496124267578e+01 6.562689542770385742e-01 2.130884647369384766e+00 8.361460566520690918e-01 1.942436218261718750e+00
2.515000000000000000e+03 2.563912200927734375e+01 -1.361904144287109375e+01 -6.035535931587219238e-01 3.707038611173629761e-02 -1.699449717998504639e-01 -5.123412013053894043e-01
2.516000000000000000e+03 2.237945175170898438e+01 -1.294578266143798828e+01 -6.098265647888183594e-01 1.872488483786582947e-02 -1.773305088281631470e-01 -5.006403326988220215e-01
2.517000000000000000e+03 2.303741073608398438e+01 -1.361954116821289062e+01 -5.869774818420410156e-01 2.571010030806064606e-02 -1.683802157640457153e-01 -5.146061182022094727e-01
2.518000000000000000e+03 4.534767532348632812e+01 -6.955674290657043457e-01 4.214470982551574707e-01 1.001479744911193848e+00 4.268780350685119629e-01 -1.020105838775634766e+00
2.519000000000000000e+03 4.440224456787109375e+01 -7.578295469284057617e-02 3.652390539646148682e-01 9.546850323677062988e-01 3.959772288799285889e-01 -8.598065972328186035e-01
2.520000000000000000e+03 4.614207077026367188e+01 -5.297771692276000977e-01 6.112477183341979980e-01 1.368446707725524902e+00 5.939083099365234375e-01 -1.355733156204223633e+00
2.521000000000000000e+03 7.557111263275146484e+00 5.768837451934814453e+00 5.021390970796346664e-04 -1.609512139111757278e-03 -3.322119009681046009e-04 -1.641944400034844875e-04
2.522000000000000000e+03 8.974681854248046875e+00 6.981516361236572266e+00 4.256044048815965652e-04 2.453014953061938286e-03 8.635857957415282726e-04 2.983166195917874575e-04
2.523000000000000000e+03 4.558164215087890625e+01 -1.348392248153686523e+00 3.070341348648071289e-01 8.497256636619567871e-01 3.470279574394226074e-01 -9.517413973808288574e-01
2.524000000000000000e+03 2.234514617919921875e+01 -1.421882438659667969e+01 -5.578107237815856934e-01 9.042748250067234039e-03 -1.646303981542587280e-01 -5.115855336189270020e-01
2.525000000000000000e+03 2.786967468261718750e+01 2.115635275840759277e-01 -3.614454865455627441e-01 -6.148701533675193787e-02 -1.268797516822814941e-01 5.720850825309753418e-01
2.526000000000000000e+03 2.544214248657226562e+01 4.276263236999511719e+00 -2.476144880056381226e-01 -2.258762866258621216e-01 -1.420472413301467896e-01 6.299114823341369629e-01
2.527000000000000000e+03 4.849498748779296875e+01 -1.236857128143310547e+01 7.756969332695007324e-01 2.915317773818969727e+00 1.107304453849792480e+00 2.476894855499267578e+00
2.528000000000000000e+03 2.291104125976562500e+01 -1.736601448059082031e+01 -3.654448986053466797e-01 4.053416196256875992e-03 -1.084174439311027527e-01 -4.766355454921722412e-01
2.529000000000000000e+03 7.111525726318359375e+01 -2.493809700012207031e+00 6.057200431823730469e-01 7.261352062225341797e+00 2.360121488571166992e+00 5.342086553573608398e-01
2.530000000000000000e+03 6.120431423187255859e+00 8.265750885009765625e+00 1.412244513630867004e-03 -8.675984572619199753e-04 1.633937936276197433e-04 5.943769938312470913e-04
2.531000000000000000e+03 7.072083282470703125e+01 4.944087505340576172e+00 2.697093226015567780e-02 7.692646980285644531e+00 2.315885543823242188e+00 9.494317173957824707e-01
2.532000000000000000e+03 2.368733787536621094e+01 2.297837495803833008e+00 -1.980017274618148804e-01 -3.551596701145172119e-01 -1.659484207630157471e-01 5.513907074928283691e-01
2.533000000000000000e+03 2.376271629333496094e+01 1.054402351379394531e+00 -1.990880966186523438e-01 -2.886547446250915527e-01 -1.463228464126586914e-01 5.150654911994934082e-01
2.534000000000000000e+03 2.668463325500488281e+01 1.133263778686523438e+01 -2.466884255409240723e-01 7.442201673984527588e-02 -5.167992040514945984e-02 3.841833472251892090e-01
2.535000000000000000e+03 2.497594833374023438e+01 1.093081760406494141e+01 -3.268519639968872070e-01 -1.906745731830596924e-01 -1.552579551935195923e-01 4.654721319675445557e-01
2.536000000000000000e+03 2.559281539916992188e+01 3.248625516891479492e+00 -2.451590448617935181e-01 -2.138841152191162109e-01 -1.377129554748535156e-01 6.205920577049255371e-01
2.537000000000000000e+03 7.216721343994140625e+01 -3.812292337417602539e+00 5.421290993690490723e-01 7.050265789031982422e+00 2.277718544006347656e+00 3.369323313236236572e-01
2.538000000000000000e+03 7.214962768554687500e+01 2.487692356109619141e+00 1.774693578481674194e-01 7.386403083801269531e+00 2.269161701202392578e+00 8.418864607810974121e-01
2.539000000000000000e+03 6.881228637695312500e+01 -2.178974151611328125e+01 -2.678129076957702637e-01 7.920793533325195312e+00 2.295894145965576172e+00 -8.442952036857604980e-01
2.540000000000000000e+03 6.996179962158203125e+01 -2.586404800415039062e+01 -2.978289127349853516e-01 7.862853527069091797e+00 2.269507408142089844e+00 -6.634114384651184082e-01
2.541000000000000000e+03 7.156069183349609375e+01 1.576225566864013672e+01 -2.142402827739715576e-01 7.915145397186279297e+00 2.310271501541137695e+00 5.682591199874877930e-01
2.542000000000000000e+03 7.007511138916015625e+01 1.150007057189941406e+01 -2.650380730628967285e-01 7.879296779632568359e+00 2.284277677536010742e+00 7.637932300567626953e-01
2.543000000000000000e+03 7.169658660888671875e+01 9.130082130432128906e+00 -1.470383852720260620e-01 7.759010314941406250e+00 2.283591747283935547e+00 8.275895714759826660e-01
2.544000000000000000e+03 7.842738628387451172e+00 2.322984123229980469e+01 -1.736229360103607178e-01 -4.047755300998687744e-01 -1.735195368528366089e-01 4.694730937480926514e-01
2.545000000000000000e+03 1.026336288452148438e+01 2.500241088867187500e+01 -1.550642307847738266e-02 -6.214838624000549316e-01 -1.910970807075500488e-01 5.095109343528747559e-01
2.546000000000000000e+03 2.384533500671386719e+01 1.157119369506835938e+01 -3.919418156147003174e-01 -3.400626778602600098e-01 -2.196013480424880981e-01 4.706969857215881348e-01
2.547000000000000000e+03 2.512492179870605469e+01 7.170908927917480469e+00 -2.866423726081848145e-01 -2.583817541599273682e-01 -1.635072380304336548e-01 5.958412885665893555e-01
2.548000000000000000e+03 7.133380889892578125e+01 -1.790482711791992188e+01 6.135323084890842438e-03 7.612433910369873047e+00 2.285570621490478516e+00 -8.964122533798217773e-01
2.549000000000000000e+03 7.201551818847656250e+01 -2.098178100585937500e+01 -1.189426556229591370e-01 7.680459022521972656e+00 2.268454790115356445e+00 -8.196649551391601562e-01
2.550000000000000000e+03 7.230980682373046875e+01 -1.110925197601318359e+01 4.242478907108306885e-01 7.113376617431640625e+00 2.261287450790405273e+00 -5.513584613800048828e-01
2.551000000000000000e+03 7.190339660644531250e+01 -5.036699771881103516e+00 6.188970208168029785e-01 7.064035415649414062e+00 2.304879665374755859e+00 1.820884197950363159e-01
2.552000000000000000e+03 6.973873901367187500e+01 1.280394744873046875e+01 -2.980980277061462402e-01 7.880425453186035156e+00 2.274698257446289062e+00 7.034431099891662598e-01
2.553000000000000000e+03 7.115103149414062500e+01 -1.345681190490722656e+00 5.234878063201904297e-01 7.312150001525878906e+00 2.350691318511962891e+00 6.532869338989257812e-01
2.554000000000000000e+03 7.062167358398437500e+01 6.253824710845947266e+00 -5.609241873025894165e-02 7.750971317291259766e+00 2.308463573455810547e+00 9.376661181449890137e-01
2.555000000000000000e+03 7.002557373046875000e+01 -2.250894165039062500e+01 -2.373705506324768066e-01 7.847304821014404297e+00 2.282980203628540039e+00 -8.130013942718505859e-01
2.556000000000000000e+03 1.736850738525390625e+01 3.259716796875000000e+01 3.745675086975097656e-01 -3.005873858928680420e-01 2.219403162598609924e-02 1.635041236877441406e-01
2.557000000000000000e+03 1.059344768524169922e+01 2.952283096313476562e+01 1.618795245885848999e-01 -6.146984100341796875e-01 -1.358456611633300781e-01 3.848800957202911377e-01
2.558000000000000000e+03 7.027076721191406250e+01 2.181773948669433594e+01 -2.227919548749923706e-01 7.856136322021484375e+00 2.290003299713134766e+00 3.441170156002044678e-01
2.559000000000000000e+03 6.958066558837890625e+01 2.022625923156738281e+01 -2.553074061870574951e-01 7.812406539916992188e+00 2.267129659652709961e+00 3.872605264186859131e-01
2.560000000000000000e+03 7.102301025390625000e+01 -2.178882408142089844e+01 -1.802853196859359741e-01 7.782567977905273438e+00 2.280684709548950195e+00 -8.223246932029724121e-01
2.561000000000000000e+03 7.212462615966796875e+01 -2.407009315490722656e+01 -1.809938699007034302e-01 7.781234264373779297e+00 2.280072212219238281e+00 -7.108720541000366211e-01
2.562000000000000000e+03 7.066704559326171875e+01 2.356049156188964844e+01 -1.795094758272171021e-01 7.887081623077392578e+00 2.312271595001220703e+00 2.866276800632476807e-01
2.563000000000000000e+03 1.002774810791015625e+01 -2.875285530090332031e+01 1.192484721541404724e-01 -4.737684726715087891e-01 -1.063560023903846741e-01 -3.466794490814208984e-01
2.564000000000000000e+03 2.087724685668945312e+01 1.909009933471679688e+01 -2.404261082410812378e-01 -4.768942296504974365e-01 -2.151961028575897217e-01 2.101613730192184448e-01
2.565000000000000000e+03 1.794402694702148438e+01 2.151729202270507812e+01 -1.093248277902603149e-01 -7.177743315696716309e-01 -2.481297403573989868e-01 2.590729594230651855e-01
2.566000000000000000e+03 7.074487304687500000e+01 -9.497376441955566406e+00 6.811843514442443848e-01 7.290204048156738281e+00 2.391416549682617188e+00 -4.493659138679504395e-01
2.567000000000000000e+03 7.213896942138671875e+01 -8.162073135375976562e+00 5.652540326118469238e-01 7.031646251678466797e+00 2.279070138931274414e+00 -2.317956984043121338e-01
2.568000000000000000e+03 9.850042343139648438e+00 -2.274119567871093750e+01 -9.170093387365341187e-02 -4.814571738243103027e-01 -1.719474345445632935e-01 -4.415264725685119629e-01
2.569000000000000000e+03 8.264554977416992188e+00 -2.200388145446777344e+01 -1.630564182996749878e-01 -4.056966900825500488e-01 -1.706259250640869141e-01 -4.546964466571807861e-01
2.570000000000000000e+03 7.078964233398437500e+01 -1.613884925842285156e+01 1.390087604522705078e-01 7.606339931488037109e+00 2.323604583740234375e+00 -9.205840826034545898e-01
2.571000000000000000e+03 6.857481384277343750e+01 -2.691832733154296875e+01 -3.811711370944976807e-01 7.846551418304443359e+00 2.239614009857177734e+00 -5.899814963340759277e-01
2.572000000000000000e+03 6.874871063232421875e+01 1.663851928710937500e+01 -3.401212096214294434e-01 7.817286014556884766e+00 2.243149518966674805e+00 5.133844614028930664e-01
2.573000000000000000e+03 7.050782775878906250e+01 1.476896286010742188e+01 -2.684225440025329590e-01 7.880833148956298828e+00 2.283723115921020508e+00 6.112943887710571289e-01
2.574000000000000000e+03 6.879740905761718750e+01 1.106956672668457031e+01 -3.207112848758697510e-01 7.916668415069580078e+00 2.278787136077880859e+00 7.747162580490112305e-01
2.575000000000000000e+03 7.111504364013671875e+01 -1.031489467620849609e+01 6.068336367607116699e-01 7.263689994812011719e+00 2.361157178878784180e+00 -5.256335735321044922e-01
2.576000000000000000e+03 7.214637756347656250e+01 -9.908323287963867188e+00 5.120290517807006836e-01 7.083260536193847656e+00 2.278586864471435547e+00 -4.333994984626770020e-01
2.577000000000000000e+03 1.517575359344482422e+01 2.670170402526855469e+01 1.966107189655303955e-01 -6.392482519149780273e-01 -1.327912658452987671e-01 3.348933160305023193e-01
2.578000000000000000e+03 6.974083709716796875e+01 2.245276689529418945e+00 2.741912007331848145e-01 7.704003810882568359e+00 2.393458366394042969e+00 9.613860845565795898e-01
2.579000000000000000e+03 1.772031784057617188e+01 -2.292070198059082031e+01 -5.657721310853958130e-02 -2.598530054092407227e-01 -9.492906928062438965e-02 -3.495685160160064697e-01
2.580000000000000000e+03 2.555740928649902344e+01 1.616766929626464844e+01 -2.222038209438323975e-01 5.509911477565765381e-02 -5.013141036033630371e-02 1.812623292207717896e-01
2.581000000000000000e+03 8.825145721435546875e+00 2.730977630615234375e+01 5.538088828325271606e-02 -5.782727003097534180e-01 -1.568675339221954346e-01 4.421180188655853271e-01
2.582000000000000000e+03 1.152441978454589844e+01 2.604363059997558594e+01 8.579391986131668091e-02 -6.738190054893493652e-01 -1.764075309038162231e-01 4.711939096450805664e-01
2.583000000000000000e+03 2.162474441528320312e+01 -2.073543357849121094e+01 -1.292899698019027710e-01 -4.007107764482498169e-02 -5.080831423401832581e-02 -4.041882455348968506e-01
2.584000000000000000e+03 2.212733840942382812e+01 -1.957792472839355469e+01 -2.132059484720230103e-01 -1.994754001498222351e-02 -6.994604319334030151e-02 -4.284861087799072266e-01
2.585000000000000000e+03 6.993345260620117188e+00 -2.219260787963867188e+01 -1.521912664175033569e-01 -2.793796062469482422e-01 -1.294712722301483154e-01 -3.613986372947692871e-01
2.586000000000000000e+03 6.982823181152343750e+01 -2.832184410095214844e+01 -3.196120262145996094e-01 7.844069480895996094e+00 2.257337093353271484e+00 -5.366804003715515137e-01
2.587000000000000000e+03 5.135057067871093750e+01 -3.210063695907592773e+00 1.733976840972900391e+00 5.844233512878417969e+00 2.273463249206542969e+00 -4.501918315887451172e+00
2.588000000000000000e+03 5.315561294555664062e+01 -3.613204240798950195e+00 5.593038201332092285e-01 1.346620559692382812e+01 4.207653045654296875e+00 -4.186409950256347656e+00
2.589000000000000000e+03 5.200452804565429688e+01 -2.939754486083984375e+00 1.164210557937622070e+00 8.287354469299316406e+00 2.835469484329223633e+00 -4.702478408813476562e+00
2.590000000000000000e+03 5.402768325805664062e+01 -9.660182952880859375e+00 1.572216153144836426e-01 1.434865283966064453e+01 4.351762294769287109e+00 1.964201569557189941e+00
2.591000000000000000e+03 5.326993942260742188e+01 -3.241075038909912109e+00 3.205329477787017822e-01 1.320238113403320312e+01 4.056874275207519531e+00 -3.594387769699096680e+00
2.592000000000000000e+03 5.008815002441406250e+01 -1.016793251037597656e+01 1.324170351028442383e+00 3.337965250015258789e+00 1.398640751838684082e+00 3.274318933486938477e+00
2.593000000000000000e+03 5.637307357788085938e+01 -6.404563903808593750e+00 7.160399436950683594e+00 1.236256217956542969e+01 5.856888771057128906e+00 -2.337923459708690643e-02
2.594000000000000000e+03 5.632844161987304688e+01 -5.761621952056884766e+00 6.786168575286865234e+00 1.259176254272460938e+01 5.813379764556884766e+00 9.904799461364746094e-01
2.595000000000000000e+03 5.478045272827148438e+01 -3.654585361480712891e+00 1.283745884895324707e+00 1.542229747772216797e+01 5.011813163757324219e+00 1.164926961064338684e-01
2.596000000000000000e+03 5.346976852416992188e+01 -2.988186836242675781e+00 1.616074740886688232e-01 1.309951972961425781e+01 3.978338241577148438e+00 -3.125290870666503906e+00
2.597000000000000000e+03 5.587726974487304688e+01 -5.278744220733642578e+00 6.248138427734375000e+00 1.365740394592285156e+01 5.971662998199462891e+00 1.747719287872314453e+00
2.598000000000000000e+03 5.623087692260742188e+01 -6.904814720153808594e+00 7.056374549865722656e+00 1.268370914459228516e+01 5.922025203704833984e+00 -8.624199628829956055e-01
2.599000000000000000e+03 5.557151031494140625e+01 -8.167563438415527344e+00 4.501348018646240234e+00 1.475154685974121094e+01 5.775868415832519531e+00 -1.915296435356140137e+00
2.600000000000000000e+03 5.476247024536132812e+01 -9.185430526733398438e+00 1.199607729911804199e+00 1.534761524200439453e+01 4.964167118072509766e+00 -7.417837530374526978e-02
2.601000000000000000e+03 5.534496307373046875e+01 -4.035042762756347656e+00 2.704314470291137695e+00 1.500738716125488281e+01 5.313510417938232422e+00 1.324188709259033203e+00
2.602000000000000000e+03 5.488824462890625000e+01 -3.272326946258544922e+00 9.541213512420654297e-01 1.466175365447998047e+01 4.684762477874755859e+00 -7.227186113595962524e-02
2.603000000000000000e+03 5.591045379638671875e+01 -4.389281272888183594e+00 4.008658409118652344e+00 1.389655971527099609e+01 5.371565341949462891e+00 1.795423388481140137e+00
2.604000000000000000e+03 5.015485000610351562e+01 -1.090492534637451172e+01 1.111397147178649902e+00 4.213016033172607422e+00 1.597324013710021973e+00 3.409189701080322266e+00
2.605000000000000000e+03 5.175817489624023438e+01 -9.610993385314941406e+00 1.421734333038330078e+00 7.294662475585937500e+00 2.614919185638427734e+00 4.784381866455078125e+00
2.606000000000000000e+03 4.884825897216796875e+01 -9.838696718215942383e-01 1.011430859565734863e+00 2.979822158813476562e+00 1.197375893592834473e+00 -2.605154752731323242e+00
2.607000000000000000e+03 4.827442932128906250e+01 -1.253764033317565918e+00 9.645452499389648438e-01 2.184174537658691406e+00 9.446159601211547852e-01 -2.191593170166015625e+00
2.608000000000000000e+03 5.047273254394531250e+01 -2.502084255218505859e+00 1.457075238227844238e+00 4.208890914916992188e+00 1.699789881706237793e+00 -3.662270784378051758e+00
2.609000000000000000e+03 2.893875885009765625e+01 4.290357530117034912e-01 -3.754319250583648682e-01 -2.012827992439270020e-02 -1.186680570244789124e-01 5.793345570564270020e-01
2.610000000000000000e+03 2.731084442138671875e+01 6.888352036476135254e-01 -3.233062326908111572e-01 -9.072948247194290161e-02 -1.242107078433036804e-01 5.841090083122253418e-01
2.611000000000000000e+03 4.889570617675781250e+01 2.215330153703689575e-01 8.187556862831115723e-01 3.599188804626464844e+00 1.325383424758911133e+00 -2.609895944595336914e+00
2.612000000000000000e+03 4.691218185424804688e+01 -4.287288188934326172e-01 7.374067902565002441e-01 1.776474714279174805e+00 7.541644573211669922e-01 -1.687101960182189941e+00
2.613000000000000000e+03 2.844136047363281250e+01 2.695725679397583008e+00 -2.697359919548034668e-01 -2.377099916338920593e-02 -8.805209398269653320e-02 6.038748025894165039e-01
2.614000000000000000e+03 4.789388275146484375e+01 -1.262548732757568359e+01 7.197338342666625977e-01 2.519543647766113281e+00 9.717832207679748535e-01 2.205424547195434570e+00
2.615000000000000000e+03 4.982119369506835938e+01 -1.131052207946777344e+01 1.006979465484619141e+00 3.884101390838623047e+00 1.467324256896972656e+00 3.203594207763671875e+00
2.616000000000000000e+03 4.284537887573242188e+01 -1.419627380371093750e+01 2.060013860464096069e-01 9.239977598190307617e-01 3.389997482299804688e-01 7.611271142959594727e-01
2.617000000000000000e+03 4.501377105712890625e+01 -1.412397384643554688e+01 4.471034407615661621e-01 1.536172032356262207e+00 5.949826240539550781e-01 1.319198846817016602e+00
2.618000000000000000e+03 4.246636581420898438e+01 -1.354245281219482422e+01 2.697035297751426697e-02 7.028089761734008789e-01 2.189338058233261108e-01 5.817304253578186035e-01
2.619000000000000000e+03 4.454026031494140625e+01 -1.506235218048095703e+01 4.553718864917755127e-01 1.617315292358398438e+00 6.218061447143554688e-01 1.252542972564697266e+00
2.620000000000000000e+03 3.471465682983398438e+01 6.874765753746032715e-01 -3.540696203708648682e-01 1.847751289606094360e-01 -5.078835040330886841e-02 4.190299510955810547e-01
2.621000000000000000e+03 4.168383026123046875e+01 -1.364044666290283203e+01 -4.698004201054573059e-02 6.004208922386169434e-01 1.660322546958923340e-01 4.606285989284515381e-01
2.622000000000000000e+03 3.783346557617187500e+01 2.065599113702774048e-01 -3.172108829021453857e-01 2.629581391811370850e-01 -1.627581752836704254e-02 2.169433385133743286e-01
2.623000000000000000e+03 3.624822616577148438e+01 9.330012798309326172e-01 -2.724379897117614746e-01 2.502991557121276855e-01 -6.641656626015901566e-03 3.152472078800201416e-01
2.624000000000000000e+03 3.860328292846679688e+01 1.913781762123107910e-01 -2.710855603218078613e-01 2.934118211269378662e-01 6.697884295135736465e-03 1.457597315311431885e-01
2.625000000000000000e+03 3.620466995239257812e+01 1.761887311935424805e+00 -1.582803279161453247e-01 3.150817453861236572e-01 4.704042151570320129e-02 2.792163491249084473e-01
2.626000000000000000e+03 3.574074172973632812e+01 -1.409674453735351562e+01 -4.415439069271087646e-01 1.950406432151794434e-01 -7.395097613334655762e-02 -1.848245263099670410e-01
2.627000000000000000e+03 3.708390426635742188e+01 9.983696937561035156e-01 -2.174047529697418213e-01 3.026944994926452637e-01 2.558692544698715210e-02 2.416815161705017090e-01
2.628000000000000000e+03 4.087194824218750000e+01 -1.363518905639648438e+01 -1.466391533613204956e-01 4.907617568969726562e-01 1.032367870211601257e-01 3.201009631156921387e-01
2.629000000000000000e+03 3.399914550781250000e+01 5.992457270622253418e-01 -3.812614679336547852e-01 1.438998579978942871e-01 -7.120847702026367188e-02 4.596216678619384766e-01
2.630000000000000000e+03 3.816320037841796875e+01 -1.513720893859863281e+01 -1.038966849446296692e-01 4.358485639095306396e-01 9.958557039499282837e-02 1.057581380009651184e-01
2.631000000000000000e+03 3.358363342285156250e+01 -1.512137889862060547e+01 -3.453858792781829834e-01 1.829417943954467773e-01 -4.873322322964668274e-02 -2.809094190597534180e-01
2.632000000000000000e+03 3.506846618652343750e+01 -1.479297542572021484e+01 -3.523608148097991943e-01 2.127554863691329956e-01 -4.188159853219985962e-02 -1.991683691740036011e-01
2.633000000000000000e+03 3.874171447753906250e+01 1.045275449752807617e+00 -1.087016686797142029e-01 3.878185153007507324e-01 8.373505622148513794e-02 7.136687636375427246e-02
2.634000000000000000e+03 3.792338562011718750e+01 1.048780918121337891e+00 -1.573085337877273560e-01 3.535874783992767334e-01 5.888368189334869385e-02 1.565114557743072510e-01
2.635000000000000000e+03 3.200470352172851562e+01 -1.525488471984863281e+01 -3.701597154140472412e-01 1.346603333950042725e-01 -7.064981758594512939e-02 -3.598850667476654053e-01
2.636000000000000000e+03 4.296251678466796875e+01 -1.761686652898788452e-01 1.005598604679107666e-01 6.306354403495788574e-01 2.193585783243179321e-01 -4.550780653953552246e-01
2.637000000000000000e+03 4.234030532836914062e+01 5.685405135154724121e-01 1.653866320848464966e-01 6.741944551467895508e-01 2.518743276596069336e-01 -4.383941590785980225e-01
2.638000000000000000e+03 3.150057601928710938e+01 -1.447096443176269531e+01 -4.872571527957916260e-01 9.444541484117507935e-02 -1.178435236215591431e-01 -3.954199552536010742e-01
2.639000000000000000e+03 4.356525039672851562e+01 4.812872409820556641e-01 3.257361650466918945e-01 9.305465817451477051e-01 3.768848180770874023e-01 -7.192488908767700195e-01
2.640000000000000000e+03 4.417648696899414062e+01 6.777408719062805176e-01 4.257732927799224854e-01 1.099208474159240723e+00 4.574945271015167236e-01 -8.996478319168090820e-01
2.641000000000000000e+03 4.248457336425781250e+01 1.318286299705505371e+00 3.022335767745971680e-01 8.884834051132202148e-01 3.572150766849517822e-01 -5.657810568809509277e-01
2.642000000000000000e+03 3.030539131164550781e+01 -1.537364292144775391e+01 -3.890427052974700928e-01 1.057413965463638306e-01 -8.499038964509963989e-02 -4.155868887901306152e-01
2.643000000000000000e+03 4.487534713745117188e+01 8.760302066802978516e-01 5.262364149093627930e-01 1.368186712265014648e+00 5.683269500732421875e-01 -1.126533150672912598e+00
2.644000000000000000e+03 4.666397857666015625e+01 -1.391541099548339844e+01 5.922200679779052734e-01 2.219391584396362305e+00 8.434835076332092285e-01 1.835770487785339355e+00
2.645000000000000000e+03 4.648515701293945312e+01 -1.308226871490478516e+01 5.759018659591674805e-01 1.821984887123107910e+00 7.193660140037536621e-01 1.691627264022827148e+00
2.646000000000000000e+03 2.863838386535644531e+01 -1.508415412902832031e+01 -4.617638885974884033e-01 6.279432773590087891e-02 -1.196908727288246155e-01 -4.693944454193115234e-01
2.647000000000000000e+03 2.383147621154785156e+01 -1.428534603118896484e+01 -5.563630461692810059e-01 3.086691536009311676e-02 -1.576488465070724487e-01 -5.170722007751464844e-01
2.648000000000000000e+03 4.514870834350585938e+01 7.646483182907104492e-02 4.940274059772491455e-01 1.193039417266845703e+00 5.061200261116027832e-01 -1.100400328636169434e+00
2.649000000000000000e+03 4.591890335083007812e+01 2.536987960338592529e-01 6.198304891586303711e-01 1.544132351875305176e+00 6.491888761520385742e-01 -1.384041905403137207e+00
2.650000000000000000e+03 2.564034271240234375e+01 -1.713638305664062500e+01 -3.136805295944213867e-01 5.748115107417106628e-02 -7.685980945825576782e-02 -4.785751104354858398e-01
2.651000000000000000e+03 2.252143096923828125e+01 -1.571926403045654297e+01 -4.759305715560913086e-01 1.786397653631865978e-03 -1.422432512044906616e-01 -5.027416944503784180e-01
2.652000000000000000e+03 2.524654960632324219e+01 -1.424960708618164062e+01 -5.592727065086364746e-01 3.966725990176200867e-02 -1.558816432952880859e-01 -5.166931152343750000e-01
2.653000000000000000e+03 2.891458511352539062e+01 1.339261651039123535e+00 -3.243388533592224121e-01 -1.326435338705778122e-02 -1.012809649109840393e-01 5.935959219932556152e-01
2.654000000000000000e+03 2.626101493835449219e+01 -1.478512382507324219e+01 -5.097524523735046387e-01 4.601937532424926758e-02 -1.391199231147766113e-01 -5.092000365257263184e-01
2.655000000000000000e+03 6.992607116699218750e+01 -2.395121097564697266e+00 7.415589094161987305e-01 7.447296619415283203e+00 2.456656694412231445e+00 5.964800119400024414e-01
2.656000000000000000e+03 6.964481353759765625e+01 -4.292793273925781250e+00 9.273493885993957520e-01 7.411271572113037109e+00 2.501586198806762695e+00 3.481591343879699707e-01
2.657000000000000000e+03 2.678448295593261719e+01 1.786016672849655151e-01 -3.245940208435058594e-01 -1.075864061713218689e-01 -1.296541243791580200e-01 5.637750625610351562e-01
2.658000000000000000e+03 2.839894104003906250e+01 8.047836422920227051e-01 -3.459162414073944092e-01 -3.989238664507865906e-02 -1.157425940036773682e-01 5.898371934890747070e-01
2.659000000000000000e+03 4.746747970581054688e+01 -1.366592121124267578e+01 6.372184157371520996e-01 2.620136737823486328e+00 9.772065281867980957e-01 2.087409257888793945e+00
2.660000000000000000e+03 6.945423126220703125e+01 4.774396896362304688e+00 3.096717596054077148e-02 7.834281921386718750e+00 2.359574794769287109e+00 9.928981065750122070e-01
2.661000000000000000e+03 7.098564147949218750e+01 -3.579390764236450195e+00 6.892032027244567871e-01 7.243317127227783203e+00 2.379755973815917969e+00 4.034822881221771240e-01
2.662000000000000000e+03 7.073416900634765625e+01 -4.585509777069091797e+00 7.811899185180664062e-01 7.254773139953613281e+00 2.410789012908935547e+00 2.724805176258087158e-01
2.663000000000000000e+03 2.940411949157714844e+01 7.262973487377166748e-02 -4.101591110229492188e-01 -9.379371069371700287e-03 -1.258615553379058838e-01 5.661181211471557617e-01
2.664000000000000000e+03 9.746459960937500000e+00 2.276140022277832031e+01 -2.118315696716308594e-01 -5.398335456848144531e-01 -2.254995256662368774e-01 5.499970316886901855e-01
2.665000000000000000e+03 2.557128524780273438e+01 1.003309488296508789e+00 -2.619694471359252930e-01 -1.866467744112014771e-01 -1.345848739147186279e-01 5.692395567893981934e-01
2.666000000000000000e+03 2.485663604736328125e+01 1.905603885650634766e+00 -2.319368124008178711e-01 -2.578553259372711182e-01 -1.469376385211944580e-01 5.828061699867248535e-01
2.667000000000000000e+03 7.135047912597656250e+01 -1.119731235504150391e+01 5.074166655540466309e-01 7.263302326202392578e+00 2.331215620040893555e+00 -6.004365682601928711e-01
2.668000000000000000e+03 2.672637367248535156e+01 1.147415041923522949e+00 -2.939026355743408203e-01 -1.220455393195152283e-01 -1.247844547033309937e-01 5.906827449798583984e-01
2.669000000000000000e+03 3.282429122924804688e+01 -1.447085952758789062e+01 -4.754896163940429688e-01 1.210315823554992676e-01 -1.063374057412147522e-01 -3.410474956035614014e-01
2.670000000000000000e+03 6.804806518554687500e+01 1.346265792846679688e+01 -3.805545568466186523e-01 7.881700992584228516e+00 2.250343799591064453e+00 6.485884189605712891e-01
2.671000000000000000e+03 6.846207427978515625e+01 1.225176525115966797e+01 -3.503015339374542236e-01 7.904390811920166016e+00 2.266226768493652344e+00 7.136910557746887207e-01
2.672000000000000000e+03 7.083490753173828125e+01 3.647327899932861328e+00 1.228233501315116882e-01 7.622122764587402344e+00 2.323483943939208984e+00 9.395454525947570801e-01
2.673000000000000000e+03 7.112033081054687500e+01 -1.426009535789489746e-01 4.297625720500946045e-01 7.379917144775390625e+00 2.342903852462768555e+00 7.592681646347045898e-01
2.674000000000000000e+03 2.237222099304199219e+01 -1.831820869445800781e+01 -2.901953756809234619e-01 -1.150620728731155396e-02 -9.051047265529632568e-02 -4.555839300155639648e-01
2.675000000000000000e+03 2.576528167724609375e+01 -1.562295150756835938e+01 -4.410970807075500488e-01 5.123165994882583618e-02 -1.169596239924430847e-01 -5.025265812873840332e-01
2.676000000000000000e+03 7.052480316162109375e+01 -1.901761054992675781e+01 -6.617905944585800171e-02 7.749875068664550781e+00 2.305108785629272461e+00 -9.222663044929504395e-01
2.677000000000000000e+03 7.044650268554687500e+01 -2.077045822143554688e+01 -1.641578525304794312e-01 7.799464225769042969e+00 2.290591955184936523e+00 -8.712639212608337402e-01
2.678000000000000000e+03 2.587535667419433594e+01 4.894025802612304688e+00 -2.412409335374832153e-01 -1.773352622985839844e-01 -1.255728602409362793e-01 6.222996711730957031e-01
2.679000000000000000e+03 2.652544403076171875e+01 6.736377239227294922e+00 -2.433650493621826172e-01 -8.791345357894897461e-02 -9.938355535268783569e-02 5.799719095230102539e-01
2.680000000000000000e+03 2.731296348571777344e+01 9.189387321472167969e+00 -2.163187712430953979e-01 6.397838145494461060e-02 -4.570211470127105713e-02 4.654539823532104492e-01
2.681000000000000000e+03 2.477806091308593750e+01 1.286252975463867188e+01 -3.330257236957550049e-01 -1.548471152782440186e-01 -1.463618576526641846e-01 3.727773725986480713e-01
2.682000000000000000e+03 6.996109008789062500e+01 -1.328342080116271973e+00 6.395488381385803223e-01 7.487969398498535156e+00 2.438255548477172852e+00 7.137323617935180664e-01
2.683000000000000000e+03 7.049321746826171875e+01 -2.370799636840820312e+01 -2.469699829816818237e-01 7.839735984802246094e+00 2.277829885482788086e+00 -7.575687766075134277e-01
2.684000000000000000e+03 6.929237365722656250e+01 -2.445299530029296875e+01 -3.139602839946746826e-01 7.875019550323486328e+00 2.268317699432373047e+00 -7.220916152000427246e-01
2.685000000000000000e+03 2.267836761474609375e+01 1.680584144592285156e+01 -3.301990628242492676e-01 -3.224816024303436279e-01 -1.958041936159133911e-01 2.313530892133712769e-01
2.686000000000000000e+03 2.363639259338378906e+01 1.803552055358886719e+01 -2.126615494489669800e-01 -1.534879207611083984e-01 -1.098448410630226135e-01 1.446874290704727173e-01
2.687000000000000000e+03 7.179483032226562500e+01 7.782804965972900391e+00 -1.007455959916114807e-01 7.701313018798828125e+00 2.280170202255249023e+00 8.627152442932128906e-01
2.688000000000000000e+03 6.933444213867187500e+01 6.070732116699218750e+00 -7.162176817655563354e-02 7.875247478485107422e+00 2.341087579727172852e+00 9.740967750549316406e-01
2.689000000000000000e+03 7.093687438964843750e+01 -7.482533454895019531e+00 7.763360142707824707e-01 7.220143318176269531e+00 2.398943662643432617e+00 -1.646816879510879517e-01
2.690000000000000000e+03 7.035222625732421875e+01 -8.713268280029296875e+00 7.976775765419006348e-01 7.318098068237304688e+00 2.434732675552368164e+00 -3.315442800521850586e-01
2.691000000000000000e+03 6.903861999511718750e+01 9.870454788208007812e+00 -2.745898067951202393e-01 7.923277378082275391e+00 2.294606447219848633e+00 8.392982482910156250e-01
2.692000000000000000e+03 7.029328918457031250e+01 1.018725967407226562e+01 -2.288921475410461426e-01 7.860980987548828125e+00 2.289626598358154297e+00 8.203638792037963867e-01
2.693000000000000000e+03 7.104423522949218750e+01 -1.495971107482910156e+01 2.128579914569854736e-01 7.513895988464355469e+00 2.318026304244995117e+00 -8.739707469940185547e-01
2.694000000000000000e+03 6.760199737548828125e+01 1.988081741333007812e+01 -3.333376049995422363e-01 7.668767929077148438e+00 2.200629234313964844e+00 3.629097044467926025e-01
2.695000000000000000e+03 6.742237091064453125e+01 1.735960006713867188e+01 -3.790438175201416016e-01 7.735019683837890625e+00 2.206792593002319336e+00 4.492631256580352783e-01
2.696000000000000000e+03 6.864612579345703125e+01 1.533553409576416016e+01 -3.526059389114379883e-01 7.832683086395263672e+00 2.244023084640502930e+00 5.659201145172119141e-01
2.697000000000000000e+03 6.973491668701171875e+01 1.590542030334472656e+01 -2.917749583721160889e-01 7.862912654876708984e+00 2.271341323852539062e+00 5.612798929214477539e-01
2.698000000000000000e+03 7.022422027587890625e+01 -1.727766609191894531e+01 4.421297460794448853e-02 7.722443580627441406e+00 2.329996824264526367e+00 -9.492623805999755859e-01
2.699000000000000000e+03 6.964961242675781250e+01 -1.838057327270507812e+01 -3.674798086285591125e-02 7.814036369323730469e+00 2.333186626434326172e+00 -9.531762003898620605e-01
2.700000000000000000e+03 1.927677345275878906e+01 2.192779159545898438e+01 -5.548169836401939392e-02 -5.795660614967346191e-01 -1.905143260955810547e-01 1.982763111591339111e-01
2.701000000000000000e+03 1.900073051452636719e+01 2.537526130676269531e+01 1.769460439682006836e-01 -4.352178871631622314e-01 -7.748155295848846436e-02 1.785419285297393799e-01
2.702000000000000000e+03 7.021137237548828125e+01 -1.072929573059082031e+01 6.673095226287841797e-01 7.425406455993652344e+00 2.427814722061157227e+00 -6.194360256195068359e-01
2.703000000000000000e+03 7.120072937011718750e+01 -1.209651565551757812e+01 4.540204107761383057e-01 7.335682868957519531e+00 2.336910963058471680e+00 -7.029896378517150879e-01
2.704000000000000000e+03 1.064905929565429688e+01 2.720398712158203125e+01 1.010237857699394226e-01 -6.347373723983764648e-01 -1.601140648126602173e-01 4.485806226730346680e-01
2.705000000000000000e+03 7.104830932617187500e+01 1.102384328842163086e+00 3.302341103553771973e-01 7.459868907928466797e+00 2.337030887603759766e+00 8.460915088653564453e-01
2.706000000000000000e+03 7.223206329345703125e+01 1.190400123596191406e+00 2.583591341972351074e-01 7.295898437500000000e+00 2.266277313232421875e+00 7.806708216667175293e-01
2.707000000000000000e+03 1.318798351287841797e+01 -2.530072784423828125e+01 6.408591568470001221e-02 -4.380581676959991455e-01 -1.121916770935058594e-01 -3.727723956108093262e-01
2.708000000000000000e+03 1.562024307250976562e+01 -2.899145507812500000e+01 2.230523079633712769e-01 -3.119243681430816650e-01 -2.666161768138408661e-02 -3.110198974609375000e-01
2.709000000000000000e+03 1.368981266021728516e+01 2.580847740173339844e+01 1.329923421144485474e-01 -7.033113837242126465e-01 -1.710957139730453491e-01 4.091603159904479980e-01
2.710000000000000000e+03 1.445240020751953125e+01 2.450773048400878906e+01 8.289055526256561279e-02 -7.512019276618957520e-01 -2.004934251308441162e-01 4.046989083290100098e-01
2.711000000000000000e+03 7.045955657958984375e+01 -6.749117374420166016e+00 8.501001000404357910e-01 7.265576362609863281e+00 2.434702873229980469e+00 -6.441768258810043335e-02
2.712000000000000000e+03 6.875469970703125000e+01 2.236274719238281250e+01 -2.631969451904296875e-01 7.715231418609619141e+00 2.235610246658325195e+00 3.064014911651611328e-01
2.713000000000000000e+03 6.714998626708984375e+01 -2.849427604675292969e+01 -4.386055171489715576e-01 7.776029586791992188e+00 2.201227188110351562e+00 -4.813890457153320312e-01
2.714000000000000000e+03 7.048490142822265625e+01 -1.280775833129882812e+01 4.482124149799346924e-01 7.472129344940185547e+00 2.376102447509765625e+00 -7.913632988929748535e-01
2.715000000000000000e+03 6.786950683593750000e+01 -2.510867118835449219e+01 -3.995570242404937744e-01 7.887154102325439453e+00 2.246279001235961914e+00 -6.563360691070556641e-01
2.716000000000000000e+03 7.577907562255859375e+00 3.022879219055175781e+01 1.100109741091728210e-01 -5.886505842208862305e-01 -1.435918807983398438e-01 3.510738611221313477e-01
2.717000000000000000e+03 6.899549865722656250e+01 2.408212661743164062e+01 -2.216367572546005249e-01 7.721129417419433594e+00 2.249847888946533203e+00 2.650756239891052246e-01
2.718000000000000000e+03 6.740194702148437500e+01 2.652314758300781250e+01 -2.066702991724014282e-01 7.510598659515380859e+00 2.191178560256958008e+00 1.890669465065002441e-01
2.719000000000000000e+03 5.282554244995117188e+01 -3.111228466033935547e+00 5.939403176307678223e-01 1.143167495727539062e+01 3.607684612274169922e+00 -4.294984340667724609e+00
2.720000000000000000e+03 5.237235260009765625e+01 -2.884254932403564453e+00 8.144454956054687500e-01 9.631026268005371094e+00 3.133641481399536133e+00 -4.541502952575683594e+00
2.721000000000000000e+03 5.146380615234375000e+01 -9.916346549987792969e+00 1.329544425010681152e+00 6.439520359039306641e+00 2.330719470977783203e+00 4.487757205963134766e+00
2.722000000000000000e+03 5.634849929809570312e+01 -7.930169105529785156e+00 5.093146800994873047e+00 1.298157596588134766e+01 5.422416687011718750e+00 -1.733332872390747070e+00
2.723000000000000000e+03 5.650634384155273438e+01 -5.450280666351318359e+00 6.096453189849853516e+00 1.241774940490722656e+01 5.554260730743408203e+00 1.267112255096435547e+00
2.724000000000000000e+03 5.561703109741210938e+01 -5.057655334472656250e+00 5.724327564239501953e+00 1.448439407348632812e+01 6.062616348266601562e+00 1.999564647674560547e+00
2.725000000000000000e+03 5.315777206420898438e+01 -2.943696498870849609e+00 2.795606255531311035e-01 1.225007438659667969e+01 3.758890628814697266e+00 -3.619752883911132812e+00
2.726000000000000000e+03 5.388387298583984375e+01 -1.020833778381347656e+01 -9.300120919942855835e-02 1.299626159667968750e+01 3.870978116989135742e+00 2.313079833984375000e+00
2.727000000000000000e+03 5.355996322631835938e+01 -1.018709278106689453e+01 -7.597321271896362305e-02 1.258796215057373047e+01 3.753596544265747070e+00 2.892173528671264648e+00
2.728000000000000000e+03 5.097134017944335938e+01 -3.068642139434814453e+00 1.738852858543395996e+00 4.960026264190673828e+00 2.009663820266723633e+00 -4.145344734191894531e+00
2.729000000000000000e+03 5.270944595336914062e+01 -2.763189315795898438e+00 4.825780689716339111e-01 1.066674613952636719e+01 3.344797134399414062e+00 -4.178521156311035156e+00
2.730000000000000000e+03 5.427221679687500000e+01 -2.999480009078979492e+00 2.913542389869689941e-01 1.423132038116455078e+01 4.356802463531494141e+00 -1.396052479743957520e+00
2.731000000000000000e+03 5.564854812622070312e+01 -3.676657199859619141e+00 2.264510869979858398e+00 1.417701530456542969e+01 4.932457923889160156e+00 1.218455076217651367e+00
2.732000000000000000e+03 5.099546813964843750e+01 -2.595869064331054688e+00 1.440371990203857422e+00 5.381804943084716797e+00 2.046653032302856445e+00 -4.083639144897460938e+00
2.733000000000000000e+03 5.116310882568359375e+01 -9.451842308044433594e+00 1.778335094451904297e+00 5.134946346282958984e+00 2.073984384536743164e+00 4.378926277160644531e+00
2.734000000000000000e+03 5.112697219848632812e+01 -1.023880577087402344e+01 1.262636303901672363e+00 5.658844947814941406e+00 2.076444387435913086e+00 4.139253616333007812e+00
2.735000000000000000e+03 4.939864730834960938e+01 -1.149381256103515625e+01 9.276418685913085938e-01 3.370759963989257812e+00 1.289520502090454102e+00 2.875807762145996094e+00
2.736000000000000000e+03 4.827756881713867188e+01 -2.995153367519378662e-01 9.010381698608398438e-01 2.786547422409057617e+00 1.106275677680969238e+00 -2.336035966873168945e+00
2.737000000000000000e+03 4.988974761962890625e+01 -1.850285649299621582e+00 1.234474539756774902e+00 3.683087587356567383e+00 1.475268602371215820e+00 -3.204361915588378906e+00
2.738000000000000000e+03 4.937694931030273438e+01 -1.126701831817626953e+00 1.043873190879821777e+00 3.491298675537109375e+00 1.360551476478576660e+00 -2.875097751617431641e+00
2.739000000000000000e+03 2.997358512878417969e+01 4.528238773345947266e-01 -3.931988179683685303e-01 1.772476918995380402e-02 -1.126422137022018433e-01 5.695357918739318848e-01
2.740000000000000000e+03 3.115246582031250000e+01 5.715416073799133301e-01 -3.993253409862518311e-01 5.528535321354866028e-02 -1.032119989395141602e-01 5.504248142242431641e-01
2.741000000000000000e+03 2.793196678161621094e+01 3.215552806854248047e+00 -2.528816461563110352e-01 -4.495296627283096313e-02 -8.935038745403289795e-02 6.100293993949890137e-01
2.742000000000000000e+03 3.252391433715820312e+01 5.995631217956542969e-01 -3.978816866874694824e-01 9.732809662818908691e-02 -9.016606956720352173e-02 5.142245292663574219e-01
2.743000000000000000e+03 2.795156860351562500e+01 4.297226905822753906e+00 -2.271236181259155273e-01 -2.390724048018455505e-02 -7.530925422906875610e-02 5.996964573860168457e-01
2.744000000000000000e+03 4.505167007446289062e+01 -1.551897621154785156e+01 5.026283264160156250e-01 1.957406878471374512e+00 7.380105853080749512e-01 1.425247192382812500e+00
2.745000000000000000e+03 4.582703781127929688e+01 -1.400575542449951172e+01 5.239711999893188477e-01 1.833143353462219238e+00 7.071343660354614258e-01 1.552718639373779297e+00
2.746000000000000000e+03 4.343284225463867188e+01 -1.484644317626953125e+01 3.326783478260040283e-01 1.219854593276977539e+00 4.657598733901977539e-01 9.660813808441162109e-01
2.747000000000000000e+03 4.005304336547851562e+01 -1.449826622009277344e+01 -5.586880072951316833e-02 5.277687311172485352e-01 1.415699720382690430e-01 2.934992313385009766e-01
2.748000000000000000e+03 3.926248168945312500e+01 -1.444505596160888672e+01 -1.385073065757751465e-01 4.480175077915191650e-01 9.285306185483932495e-02 1.870499849319458008e-01
2.749000000000000000e+03 4.327883148193359375e+01 -1.626882171630859375e+01 4.184000194072723389e-01 1.494537353515625000e+00 5.738812088966369629e-01 1.054749488830566406e+00
2.750000000000000000e+03 3.686105728149414062e+01 -1.588325786590576172e+01 -6.112291291356086731e-02 4.247442483901977539e-01 1.090864017605781555e-01 1.061479561030864716e-02
2.751000000000000000e+03 3.458924484252929688e+01 1.349207639694213867e+00 -2.791750133037567139e-01 2.153463661670684814e-01 -1.914859749376773834e-02 4.091902077198028564e-01
2.752000000000000000e+03 3.709126281738281250e+01 1.809457302093505859e+00 -1.007666885852813721e-01 3.761519789695739746e-01 8.261559158563613892e-02 1.936251074075698853e-01
2.753000000000000000e+03 3.590738296508789062e+01 -1.541163063049316406e+01 -1.955899000167846680e-01 3.049962222576141357e-01 3.282188996672630310e-02 -1.054436787962913513e-01
2.754000000000000000e+03 4.274305343627929688e+01 -1.547048759460449219e+01 3.265699446201324463e-01 1.175834536552429199e+00 4.507213532924652100e-01 8.639701008796691895e-01
2.755000000000000000e+03 4.225411987304687500e+01 -1.476933670043945312e+01 2.077986449003219604e-01 9.255803227424621582e-01 3.400136828422546387e-01 7.010900974273681641e-01
2.756000000000000000e+03 3.530837249755859375e+01 1.639089107513427734e+00 -2.130583673715591431e-01 2.593270540237426758e-01 1.388061046600341797e-02 3.486201167106628418e-01
2.757000000000000000e+03 3.639262008666992188e+01 -1.695542526245117188e+01 3.586555272340774536e-02 4.784412384033203125e-01 1.542920470237731934e-01 2.721702493727207184e-02
2.758000000000000000e+03 3.910310745239257812e+01 -1.539681148529052734e+01 1.783475279808044434e-02 5.568288564682006836e-01 1.723990887403488159e-01 2.438984215259552002e-01
2.759000000000000000e+03 4.395893478393554688e+01 -1.560239124298095703e+01 4.444747567176818848e-01 1.543214559555053711e+00 5.963068008422851562e-01 1.159879565238952637e+00
2.760000000000000000e+03 4.084261322021484375e+01 -1.447563934326171875e+01 1.614053733646869659e-02 6.109330058097839355e-01 1.881220638751983643e-01 4.062565267086029053e-01
2.761000000000000000e+03 4.670935821533203125e+01 4.448463916778564453e-01 7.212765812873840332e-01 2.035257339477539062e+00 8.269602060317993164e-01 -1.712921023368835449e+00
2.762000000000000000e+03 2.955971527099609375e+01 -1.595465564727783203e+01 -3.299034535884857178e-01 1.052535027265548706e-01 -6.739498674869537354e-02 -4.275749027729034424e-01
2.763000000000000000e+03 2.789063262939453125e+01 -1.468040370941162109e+01 -5.140585303306579590e-01 5.879078432917594910e-02 -1.365803331136703491e-01 -4.899396300315856934e-01
2.764000000000000000e+03 3.788950347900390625e+01 -1.627350997924804688e+01 4.949296265840530396e-02 5.551156401634216309e-01 1.813825815916061401e-01 1.541250199079513550e-01
2.765000000000000000e+03 4.091426086425781250e+01 6.613469123840332031e-01 2.950520068407058716e-02 5.380058288574218750e-01 1.702533066272735596e-01 -1.954535543918609619e-01
2.766000000000000000e+03 4.815674972534179688e+01 -1.328884983062744141e+01 6.797072291374206543e-01 3.033134698867797852e+00 1.113852620124816895e+00 2.355588912963867188e+00
2.767000000000000000e+03 3.282904815673828125e+01 -1.602639961242675781e+01 -2.424518615007400513e-01 2.030651867389678955e-01 -1.181600335985422134e-02 -2.927896082401275635e-01
2.768000000000000000e+03 3.271700286865234375e+01 1.976967453956604004e+00 -2.594250142574310303e-01 1.603274494409561157e-01 -2.972926758229732513e-02 4.902410805225372314e-01
2.769000000000000000e+03 4.515402221679687500e+01 -1.483658123016357422e+01 4.787984490394592285e-01 1.809051990509033203e+00 6.863551735877990723e-01 1.423123955726623535e+00
2.770000000000000000e+03 2.465553092956542969e+01 -1.706472015380859375e+01 -3.391493260860443115e-01 4.790170863270759583e-02 -8.737428486347198486e-02 -4.823846518993377686e-01
2.771000000000000000e+03 4.158609008789062500e+01 2.066192150115966797e+00 2.672346532344818115e-01 8.665360212326049805e-01 3.401311933994293213e-01 -4.410299360752105713e-01
2.772000000000000000e+03 4.021232604980468750e+01 7.665956616401672363e-01 -3.193256258964538574e-02 4.944553971290588379e-01 1.387568563222885132e-01 -9.293086081743240356e-02
2.773000000000000000e+03 3.950391769409179688e+01 9.343782663345336914e-01 -7.358876615762710571e-02 4.326207637786865234e-01 1.077096015214920044e-01 -3.699370194226503372e-03
2.774000000000000000e+03 4.319643783569335938e+01 1.041955351829528809e+00 3.470872044563293457e-01 9.734420180320739746e-01 3.961587548255920410e-01 -6.970212459564208984e-01
2.775000000000000000e+03 4.377251052856445312e+01 1.458311796188354492e+00 4.518578946590423584e-01 1.204017162322998047e+00 4.967625141143798828e-01 -8.777185678482055664e-01
2.776000000000000000e+03 2.949019622802734375e+01 -1.514398670196533203e+01 -4.503716528415679932e-01 7.158664613962173462e-02 -1.136355027556419373e-01 -4.497415721416473389e-01
2.777000000000000000e+03 3.112076377868652344e+01 -1.607038497924804688e+01 -2.930986285209655762e-01 1.421253681182861328e-01 -4.529197514057159424e-02 -3.760834038257598877e-01
2.778000000000000000e+03 2.847344779968261719e+01 -1.591532516479492188e+01 -3.609057962894439697e-01 8.730255812406539917e-02 -8.208097517490386963e-02 -4.585087001323699951e-01
2.779000000000000000e+03 2.426109886169433594e+01 -1.965959739685058594e+01 -1.499894112348556519e-01 4.585138708353042603e-02 -3.124140575528144836e-02 -4.256227016448974609e-01
2.780000000000000000e+03 2.732449913024902344e+01 2.703427553176879883e+00 -2.664147317409515381e-01 -9.068937599658966064e-02 -1.071312278509140015e-01 6.156935095787048340e-01
2.781000000000000000e+03 2.784552764892578125e+01 1.227642893791198730e+00 -3.160092234611511230e-01 -6.507522612810134888e-02 -1.143253371119499207e-01 5.971685051918029785e-01
2.782000000000000000e+03 4.561364746093750000e+01 1.068911790847778320e+00 6.247999072074890137e-01 1.688598752021789551e+00 6.940196156501770020e-01 -1.384944558143615723e+00
2.783000000000000000e+03 4.453438186645507812e+01 1.708881735801696777e+00 5.420440435409545898e-01 1.527201414108276367e+00 6.207736134529113770e-01 -1.120712161064147949e+00
2.784000000000000000e+03 4.750723266601562500e+01 4.944111704826354980e-01 7.819285392761230469e-01 2.504755973815917969e+00 9.860053062438964844e-01 -2.018054008483886719e+00
2.785000000000000000e+03 2.734722137451171875e+01 -1.536929321289062500e+01 -4.490639865398406982e-01 6.325238943099975586e-02 -1.157434806227684021e-01 -4.919390678405761719e-01
2.786000000000000000e+03 4.635723876953125000e+01 1.315931439399719238e+00 6.791267991065979004e-01 2.149031400680541992e+00 8.484474420547485352e-01 -1.655766844749450684e+00
2.787000000000000000e+03 4.168443298339843750e+01 1.332962989807128906e+00 2.125824391841888428e-01 7.464616298675537109e-01 2.877132296562194824e-01 -3.924844861030578613e-01
2.788000000000000000e+03 4.099644851684570312e+01 1.295166730880737305e+00 1.364429742097854614e-01 6.422443985939025879e-01 2.336062043905258179e-01 -2.708553373813629150e-01
2.789000000000000000e+03 2.997970199584960938e+01 1.520193696022033691e+00 -3.187513351440429688e-01 3.447469323873519897e-02 -8.528299629688262939e-02 5.794629454612731934e-01
2.790000000000000000e+03 2.672267341613769531e+01 2.176041364669799805e+00 -2.714644670486450195e-01 -1.280879974365234375e-01 -1.198657378554344177e-01 6.115619540214538574e-01
2.791000000000000000e+03 2.621593093872070312e+01 5.940900444984436035e-01 -2.941210865974426270e-01 -1.415266543626785278e-01 -1.306943148374557495e-01 5.702345371246337891e-01
2.792000000000000000e+03 7.058894348144531250e+01 -1.148892307281494141e+01 5.775969028472900391e-01 7.411484241485595703e+00 2.396724224090576172e+00 -6.756449937820434570e-01
2.793000000000000000e+03 7.004651641845703125e+01 -1.407624149322509766e+01 3.519568741321563721e-01 7.620965480804443359e+00 2.391876697540283203e+00 -9.013046622276306152e-01
2.794000000000000000e+03 6.877404785156250000e+01 -1.313770055770874023e+00 7.687432765960693359e-01 7.670220375061035156e+00 2.531689167022705078e+00 7.777777314186096191e-01
2.795000000000000000e+03 6.873948669433593750e+01 -2.335680961608886719e+00 8.849036693572998047e-01 7.620475292205810547e+00 2.551613569259643555e+00 6.562967896461486816e-01
2.796000000000000000e+03 6.983644104003906250e+01 -1.572406578063964844e+01 1.936269253492355347e-01 7.705410480499267578e+00 2.369711160659790039e+00 -9.528383016586303711e-01
2.797000000000000000e+03 2.610254287719726562e+01 1.625503063201904297e+00 -2.682062983512878418e-01 -1.669666767120361328e-01 -1.305519044399261475e-01 5.977080464363098145e-01
2.798000000000000000e+03 2.448136711120605469e+01 6.583026051521301270e-01 -2.289780378341674805e-01 -2.324746102094650269e-01 -1.384357959032058716e-01 5.247603058815002441e-01
2.799000000000000000e+03 6.816040802001953125e+01 4.604832649230957031e+00 2.763915807008743286e-02 7.987021923065185547e+00 2.404398202896118164e+00 1.023203253746032715e+00
2.800000000000000000e+03 6.985865783691406250e+01 1.014998555183410645e+00 4.011969268321990967e-01 7.628533840179443359e+00 2.408919334411621094e+00 9.050311446189880371e-01
2.801000000000000000e+03 4.743160629272460938e+01 -1.499970340728759766e+01 5.389257073402404785e-01 2.968207597732543945e+00 1.052139997482299805e+00 2.052346944808959961e+00
2.802000000000000000e+03 4.668671417236328125e+01 -1.483829116821289062e+01 5.607975721359252930e-01 2.531836271286010742e+00 9.277901053428649902e-01 1.875296831130981445e+00
2.803000000000000000e+03 3.327068710327148438e+01 5.838694572448730469e-01 -3.952749371528625488e-01 1.197685301303863525e-01 -8.265192061662673950e-02 4.861136376857757568e-01
2.804000000000000000e+03 3.331787490844726562e+01 1.244138836860656738e+00 -3.244939148426055908e-01 1.487423181533813477e-01 -5.272547528147697449e-02 4.769164919853210449e-01
2.805000000000000000e+03 3.442984771728515625e+01 -1.575175666809082031e+01 -2.220027595758438110e-01 2.558649480342864990e-01 1.015865709632635117e-02 -2.032821625471115112e-01
2.806000000000000000e+03 2.666396141052246094e+01 4.322247028350830078e+00 -2.414749860763549805e-01 -1.207284182310104370e-01 -1.086610183119773865e-01 6.161406636238098145e-01
2.807000000000000000e+03 6.695503234863281250e+01 1.290991210937500000e+01 -4.334770739078521729e-01 7.890441894531250000e+00 2.237089395523071289e+00 6.313425898551940918e-01
2.808000000000000000e+03 7.043184661865234375e+01 8.873033523559570312e+00 -1.815182268619537354e-01 7.833236217498779297e+00 2.295515298843383789e+00 8.704693317413330078e-01
2.809000000000000000e+03 6.993529510498046875e+01 -1.834418475627899170e-01 5.287264585494995117e-01 7.552592277526855469e+00 2.424395561218261719e+00 8.210045099258422852e-01
2.810000000000000000e+03 7.094891357421875000e+01 2.369150876998901367e+00 2.234057784080505371e-01 7.543968200683593750e+00 2.330212116241455078e+00 9.060770273208618164e-01
2.811000000000000000e+03 6.776459503173828125e+01 -2.325923538208007812e+01 -3.764467537403106689e-01 7.950079441070556641e+00 2.272089719772338867e+00 -7.501537799835205078e-01
2.812000000000000000e+03 7.130140686035156250e+01 -1.989622688293457031e+01 -9.602910280227661133e-02 7.706317424774169922e+00 2.283086538314819336e+00 -8.782255053520202637e-01
2.813000000000000000e+03 2.266901397705078125e+01 1.887879371643066406e+01 -1.964851766824722290e-01 -2.502044737339019775e-01 -1.340068876743316650e-01 1.412821859121322632e-01
2.814000000000000000e+03 2.202074623107910156e+01 1.993959045410156250e+01 -1.438305377960205078e-01 -2.800627946853637695e-01 -1.271679997444152832e-01 1.269152611494064331e-01
2.815000000000000000e+03 6.959802246093750000e+01 3.496430635452270508e+00 1.477531641721725464e-01 7.776080131530761719e+00 2.377150058746337891e+00 9.913501143455505371e-01
2.816000000000000000e+03 6.983873748779296875e+01 -9.947070121765136719e+00 7.803104519844055176e-01 7.441687107086181641e+00 2.466599225997924805e+00 -5.391368269920349121e-01
2.817000000000000000e+03 2.730171012878417969e+01 7.957203388214111328e+00 -2.139652669429779053e-01 1.231515593826770782e-02 -6.049503386020660400e-02 5.166315436363220215e-01
2.818000000000000000e+03 6.590550231933593750e+01 1.820435523986816406e+01 -4.177941381931304932e-01 7.614251136779785156e+00 2.158937215805053711e+00 3.640289902687072754e-01
2.819000000000000000e+03 2.586572837829589844e+01 1.419176959991455078e+01 -2.427086979150772095e-01 6.473660469055175781e-02 -5.339162796735763550e-02 2.699037492275238037e-01
2.820000000000000000e+03 2.579198837280273438e+01 1.210430431365966797e+01 -2.943619787693023682e-01 -3.284066170454025269e-02 -9.816078841686248779e-02 3.827795684337615967e-01
2.821000000000000000e+03 1.149549198150634766e+01 -2.784936141967773438e+01 1.258414983749389648e-01 -4.559850692749023438e-01 -9.904307126998901367e-02 -3.561400771141052246e-01
2.822000000000000000e+03 2.889097404479980469e+01 9.066389083862304688e+00 -1.434054225683212280e-01 2.190342396497726440e-01 2.268864214420318604e-02 4.066773355007171631e-01
2.823000000000000000e+03 1.255220603942871094e+01 -2.681716156005859375e+01 1.158893555402755737e-01 -4.448807835578918457e-01 -9.869743138551712036e-02 -3.675191998481750488e-01
2.824000000000000000e+03 2.606743431091308594e+01 1.041882419586181641e+01 -2.755020558834075928e-01 -6.287095695734024048e-02 -1.015119031071662903e-01 4.611721038818359375e-01
2.825000000000000000e+03 6.720774841308593750e+01 2.258365249633789062e+01 -3.041861355304718018e-01 7.549855232238769531e+00 2.173700809478759766e+00 2.719669342041015625e-01
2.826000000000000000e+03 6.799824523925781250e+01 5.899640083312988281e+00 -9.634649008512496948e-02 8.014567375183105469e+00 2.375466108322143555e+00 9.902796745300292969e-01
2.827000000000000000e+03 7.053266143798828125e+01 7.563449859619140625e+00 -1.249068900942802429e-01 7.796699047088623047e+00 2.301537752151489258e+00 9.095651507377624512e-01
2.828000000000000000e+03 6.419618225097656250e+01 -2.886180877685546875e+01 -5.564508438110351562e-01 7.544745922088623047e+00 2.096488475799560547e+00 -2.918216586112976074e-01
2.829000000000000000e+03 6.762852478027343750e+01 -3.175796127319335938e+01 -3.867374062538146973e-01 7.690100669860839844e+00 2.191008806228637695e+00 -3.591757118701934814e-01
2.830000000000000000e+03 1.574477100372314453e+01 2.529594993591308594e+01 1.469524055719375610e-01 -6.690836548805236816e-01 -1.566393673419952393e-01 3.262027800083160400e-01
2.831000000000000000e+03 1.284180450439453125e+01 2.715666580200195312e+01 1.638692617416381836e-01 -6.697567105293273926e-01 -1.517662405967712402e-01 4.085291028022766113e-01
2.832000000000000000e+03 5.653459167480468750e+01 -6.902477741241455078e+00 6.606842041015625000e+00 1.218570423126220703e+01 5.637763977050781250e+00 -7.650550007820129395e-01
2.833000000000000000e+03 5.631073379516601562e+01 -7.401542186737060547e+00 6.159590244293212891e+00 1.275956630706787109e+01 5.675746917724609375e+00 -1.396200895309448242e+00
2.834000000000000000e+03 5.637179183959960938e+01 -7.648270130157470703e+00 5.610764026641845703e+00 1.278669166564941406e+01 5.519236564636230469e+00 -1.574756383895874023e+00
2.835000000000000000e+03 5.630848312377929688e+01 -8.237832069396972656e+00 4.332172393798828125e+00 1.317253971099853516e+01 5.251413822174072266e+00 -1.769870400428771973e+00
2.836000000000000000e+03 5.642836380004882812e+01 -4.999619960784912109e+00 5.381044387817382812e+00 1.277917289733886719e+01 5.448065280914306641e+00 1.650305986404418945e+00
2.837000000000000000e+03 5.478034973144531250e+01 -9.746059417724609375e+00 5.623313188552856445e-01 1.434899330139160156e+01 4.473397254943847656e+00 4.355644285678863525e-01
2.838000000000000000e+03 5.501477050781250000e+01 -9.495034217834472656e+00 1.073960423469543457e+00 1.460254573822021484e+01 4.702951908111572266e+00 -1.959511488676071167e-01
2.839000000000000000e+03 5.519654464721679688e+01 -9.049982070922851562e+00 1.870528817176818848e+00 1.498170471191406250e+01 5.055670261383056641e+00 -8.606328964233398438e-01
2.840000000000000000e+03 5.304534530639648438e+01 -2.594895362854003906e+00 2.037034034729003906e-01 1.146922206878662109e+01 3.501877784729003906e+00 -3.658734560012817383e+00
2.841000000000000000e+03 5.045528411865234375e+01 -1.881561279296875000e+00 1.203008770942687988e+00 4.676599979400634766e+00 1.763882517814636230e+00 -3.590907812118530273e+00
2.842000000000000000e+03 5.329920959472656250e+01 -9.560619354248046875e+00 1.982620209455490112e-01 1.322774028778076172e+01 4.027800559997558594e+00 3.511958837509155273e+00
2.843000000000000000e+03 5.564459991455078125e+01 -8.662034034729003906e+00 3.130913734436035156e+00 1.450305938720703125e+01 5.290191650390625000e+00 -1.617908716201782227e+00
2.844000000000000000e+03 5.539888763427734375e+01 -3.445475816726684570e+00 1.690374016761779785e+00 1.436619853973388672e+01 4.816971778869628906e+00 8.116919398307800293e-01
2.845000000000000000e+03 5.041901016235351562e+01 -1.040726470947265625e+01 1.278922796249389648e+00 4.338079929351806641e+00 1.685100793838500977e+00 3.678362846374511719e+00
2.846000000000000000e+03 5.378097152709960938e+01 -3.195526599884033203e+00 2.269151508808135986e-01 1.417852115631103516e+01 4.321630954742431641e+00 -2.440255880355834961e+00
2.847000000000000000e+03 5.209101104736328125e+01 -1.004421424865722656e+01 8.334518074989318848e-01 8.619003295898437500e+00 2.835736513137817383e+00 4.565646648406982422e+00
2.848000000000000000e+03 4.887120056152343750e+01 -3.967779874801635742e-01 9.166998267173767090e-01 3.304506540298461914e+00 1.266361951828002930e+00 -2.624622344970703125e+00
2.849000000000000000e+03 5.142410659790039062e+01 -2.603399515151977539e+00 1.318793654441833496e+00 6.558129310607910156e+00 2.363076925277709961e+00 -4.365732192993164062e+00
2.850000000000000000e+03 5.118481445312500000e+01 -2.232342243194580078e+00 1.131275773048400879e+00 5.969168186187744141e+00 2.130133152008056641e+00 -4.016937255859375000e+00
2.851000000000000000e+03 4.990814590454101562e+01 -1.222266435623168945e+00 1.042256951332092285e+00 4.146400451660156250e+00 1.556597232818603516e+00 -3.187228679656982422e+00
2.852000000000000000e+03 5.080667114257812500e+01 -1.063243961334228516e+01 1.161544561386108398e+00 5.137988567352294922e+00 1.889859914779663086e+00 3.873301744461059570e+00
2.853000000000000000e+03 4.902487564086914062e+01 -1.213810920715332031e+01 8.222622275352478027e-01 3.291717767715454102e+00 1.234194040298461914e+00 2.697258472442626953e+00
2.854000000000000000e+03 2.555125617980957031e+01 2.199841022491455078e+00 -2.508274316787719727e-01 -2.076302915811538696e-01 -1.375373154878616333e-01 6.040135622024536133e-01
2.855000000000000000e+03 4.942095565795898438e+01 -5.123930573463439941e-01 9.131559133529663086e-01 3.874759674072265625e+00 1.436374664306640625e+00 -2.885969638824462891e+00
2.856000000000000000e+03 2.945865249633789062e+01 9.406866431236267090e-01 -3.534162640571594238e-01 3.399515058845281601e-03 -1.050050258636474609e-01 5.841919183731079102e-01
2.857000000000000000e+03 3.155797958374023438e+01 1.047126889228820801e+00 -3.535882234573364258e-01 8.287056535482406616e-02 -8.121529966592788696e-02 5.407621264457702637e-01
2.858000000000000000e+03 3.057524108886718750e+01 2.073328733444213867e+00 -2.869497835636138916e-01 7.200412452220916748e-02 -6.448370218276977539e-02 5.622232556343078613e-01
2.859000000000000000e+03 3.155738449096679688e+01 1.877851843833923340e+00 -2.897231280803680420e-01 1.063793301582336426e-01 -5.500313639640808105e-02 5.367751717567443848e-01
2.860000000000000000e+03 2.647440338134765625e+01 5.513064384460449219e+00 -2.382176071405410767e-01 -1.209147274494171143e-01 -1.077397018671035767e-01 6.072756648063659668e-01
2.861000000000000000e+03 4.873964691162109375e+01 -1.295053005218505859e+01 7.143474817276000977e-01 3.372198343276977539e+00 1.225963711738586426e+00 2.584719419479370117e+00
2.862000000000000000e+03 4.087565994262695312e+01 -1.537303924560546875e+01 1.625243276357650757e-01 7.851165533065795898e-01 2.842922508716583252e-01 5.106186270713806152e-01
2.863000000000000000e+03 3.274655532836914062e+01 2.652762174606323242e+00 -2.032535523176193237e-01 1.954621523618698120e-01 -2.337418496608734131e-03 4.718032181262969971e-01
2.864000000000000000e+03 3.796908569335937500e+01 1.927407622337341309e+00 -3.207849711179733276e-02 4.487920701503753662e-01 1.250140666961669922e-01 9.657952934503555298e-02
2.865000000000000000e+03 3.610877990722656250e+01 3.600221395492553711e+00 2.372396364808082581e-02 4.727174043655395508e-01 1.489324122667312622e-01 1.818661689758300781e-01
2.866000000000000000e+03 4.898125076293945312e+01 8.474160432815551758e-01 6.831656098365783691e-01 3.895521640777587891e+00 1.373606204986572266e+00 -2.566091299057006836e+00
2.867000000000000000e+03 3.561146926879882812e+01 2.927676916122436523e+00 -7.031729072332382202e-02 3.608799576759338379e-01 8.716879785060882568e-02 2.680171728134155273e-01
2.868000000000000000e+03 3.536260986328125000e+01 -1.637605094909667969e+01 -8.830665796995162964e-02 3.483313322067260742e-01 7.800740003585815430e-02 -9.496422111988067627e-02
2.869000000000000000e+03 3.630441284179687500e+01 2.549393892288208008e+00 -7.373613119125366211e-02 3.738820850849151611e-01 9.004379063844680786e-02 2.358755022287368774e-01
2.870000000000000000e+03 4.196585083007812500e+01 -1.600314903259277344e+01 3.087610304355621338e-01 1.093574881553649902e+00 4.207007884979248047e-01 7.482971549034118652e-01
2.871000000000000000e+03 3.787605285644531250e+01 2.820746183395385742e+00 5.475831031799316406e-02 5.281878113746643066e-01 1.748838424682617188e-01 5.276543647050857544e-02
2.872000000000000000e+03 3.704783630371093750e+01 2.567459106445312500e+00 -2.402482740581035614e-02 4.468477368354797363e-01 1.268468797206878662e-01 1.546883583068847656e-01
2.873000000000000000e+03 3.260494995117187500e+01 1.301496386528015137e+00 -3.275650441646575928e-01 1.240180134773254395e-01 -6.106410920619964600e-02 5.054394602775573730e-01
2.874000000000000000e+03 3.105408096313476562e+01 1.499128460884094238e+00 -3.178896307945251465e-01 7.921529561281204224e-02 -7.160230726003646851e-02 5.531805753707885742e-01
2.875000000000000000e+03 2.691237449645996094e+01 -1.624616432189941406e+01 -3.722108006477355957e-01 6.551750749349594116e-02 -9.200798720121383667e-02 -4.848395586013793945e-01
2.876000000000000000e+03 3.201280593872070312e+01 -1.695191764831542969e+01 -1.584860682487487793e-01 2.190441340208053589e-01 1.816742122173309326e-02 -3.067476451396942139e-01
2.877000000000000000e+03 4.246293640136718750e+01 2.165638685226440430e+00 3.703525066375732422e-01 1.071133136749267578e+00 4.324457049369812012e-01 -6.512922644615173340e-01
2.878000000000000000e+03 4.336416244506835938e+01 2.336134433746337891e+00 4.607674479484558105e-01 1.317804217338562012e+00 5.335714817047119141e-01 -8.677220344543457031e-01
2.879000000000000000e+03 4.526589202880859375e+01 1.899086117744445801e+00 6.157955527305603027e-01 1.837819337844848633e+00 7.360844612121582031e-01 -1.363185048103332520e+00
2.880000000000000000e+03 4.130014038085937500e+01 2.844918727874755859e+00 3.276762068271636963e-01 9.768009185791015625e-01 3.913431465625762939e-01 -4.662710428237915039e-01
2.881000000000000000e+03 4.104950714111328125e+01 -1.637088203430175781e+01 2.720400393009185791e-01 9.991831779479980469e-01 3.813669681549072266e-01 6.177369952201843262e-01
2.882000000000000000e+03 4.001123809814453125e+01 -1.545499420166015625e+01 9.607172012329101562e-02 6.655807495117187500e-01 2.284957468509674072e-01 3.731443881988525391e-01
2.883000000000000000e+03 2.678592300415039062e+01 -1.824845695495605469e+01 -1.852586418390274048e-01 9.622942656278610229e-02 -2.670876495540142059e-02 -4.351514577865600586e-01
2.884000000000000000e+03 3.180942916870117188e+01 5.335496664047241211e-01 -4.046548008918762207e-01 7.618241757154464722e-02 -9.854171425104141235e-02 5.319510102272033691e-01
2.885000000000000000e+03 4.587973403930664062e+01 -1.483380031585693359e+01 5.354324579238891602e-01 2.076138019561767578e+00 7.834711074829101562e-01 1.630666017532348633e+00
2.886000000000000000e+03 4.838732528686523438e+01 -1.592079067230224609e+01 3.562053143978118896e-01 3.909128904342651367e+00 1.279600262641906738e+00 2.187044620513916016e+00
2.887000000000000000e+03 2.837344741821289062e+01 1.747655749320983887e+00 -2.999286055564880371e-01 -3.726612031459808350e-02 -1.011584252119064331e-01 6.020040512084960938e-01
2.888000000000000000e+03 4.577966308593750000e+01 -1.575006103515625000e+01 5.223516225814819336e-01 2.330099821090698242e+00 8.557354211807250977e-01 1.646234393119812012e+00
2.889000000000000000e+03 4.825175857543945312e+01 3.648849725723266602e-01 8.142589926719665527e-01 3.058418989181518555e+00 1.161803364753723145e+00 -2.343916893005371094e+00
2.890000000000000000e+03 4.694990158081054688e+01 1.819946527481079102e+00 6.636124253273010254e-01 2.634894847869873047e+00 9.895521998405456543e-01 -1.862330079078674316e+00
2.891000000000000000e+03 2.612810134887695312e+01 3.761572122573852539e+00 -2.499868571758270264e-01 -1.678881347179412842e-01 -1.253625005483627319e-01 6.247376799583435059e-01
2.892000000000000000e+03 7.001020050048828125e+01 -7.950773715972900391e+00 8.875421881675720215e-01 7.343303203582763672e+00 2.469253540039062500e+00 -2.347237169742584229e-01
2.893000000000000000e+03 6.944822692871093750e+01 -9.148387908935546875e+00 9.013422727584838867e-01 7.469970226287841797e+00 2.511393785476684570e+00 -4.453641176223754883e-01
2.894000000000000000e+03 6.737961578369140625e+01 -9.516374588012695312e+00 1.184762120246887207e+00 7.779054164886474609e+00 2.689144849777221680e+00 -5.796545743942260742e-01
2.895000000000000000e+03 6.983859252929687500e+01 -1.201276016235351562e+01 6.021319627761840820e-01 7.530166625976562500e+00 2.439689636230468750e+00 -7.553049325942993164e-01
2.896000000000000000e+03 6.867981719970703125e+01 9.276577234268188477e-01 4.746230244636535645e-01 7.799390316009521484e+00 2.482203960418701172e+00 9.577799439430236816e-01
2.897000000000000000e+03 6.980290222167968750e+01 -6.204709053039550781e+00 9.469208717346191406e-01 7.361102581024169922e+00 2.492407083511352539e+00 3.977376967668533325e-02
2.898000000000000000e+03 6.864846801757812500e+01 -1.834992599487304688e+01 -6.359837949275970459e-02 7.927662849426269531e+00 2.359219312667846680e+00 -9.719032049179077148e-01
2.899000000000000000e+03 6.928768920898437500e+01 -1.659675407409667969e+01 1.031489297747612000e-01 7.821813106536865234e+00 2.377488613128662109e+00 -9.843658804893493652e-01
2.900000000000000000e+03 3.891395187377929688e+01 2.004905223846435547e+00 4.938349500298500061e-02 5.314574837684631348e-01 1.742522865533828735e-01 -2.826867997646331787e-02
2.901000000000000000e+03 4.041434478759765625e+01 1.428090691566467285e+00 9.975703805685043335e-02 6.031556129455566406e-01 2.108737975358963013e-01 -1.884996294975280762e-01
2.902000000000000000e+03 6.835440063476562500e+01 3.340078115463256836e+00 1.719285845756530762e-01 7.936919212341308594e+00 2.432654380798339844e+00 1.030184984207153320e+00
2.903000000000000000e+03 6.853865814208984375e+01 2.115929841995239258e+00 3.218631744384765625e-01 7.872638702392578125e+00 2.458350419998168945e+00 1.008648276329040527e+00
2.904000000000000000e+03 3.298864364624023438e+01 -1.779797935485839844e+01 -2.494718693196773529e-02 3.192015588283538818e-01 8.827631175518035889e-02 -2.133200615644454956e-01
2.905000000000000000e+03 2.567712020874023438e+01 1.828379058837890625e+01 -1.102070212364196777e-01 1.513940095901489258e-01 1.235609501600265503e-02 8.006472885608673096e-02
2.906000000000000000e+03 3.412842559814453125e+01 1.755553722381591797e+00 -2.471293807029724121e-01 2.109639346599578857e-01 -1.084963604807853699e-02 4.225190281867980957e-01
2.907000000000000000e+03 6.976538848876953125e+01 -1.995930290222167969e+01 -1.483097225427627563e-01 7.848516464233398438e+00 2.310061931610107422e+00 -9.113253355026245117e-01
2.908000000000000000e+03 6.899625396728515625e+01 -1.930111885070800781e+01 -1.317497938871383667e-01 7.914699554443359375e+00 2.334884881973266602e+00 -9.440856575965881348e-01
2.909000000000000000e+03 6.955888366699218750e+01 -1.334500694274902344e+01 4.597451686859130859e-01 7.648333072662353516e+00 2.432423353195190430e+00 -8.772970438003540039e-01
2.910000000000000000e+03 7.032973480224609375e+01 -5.462615489959716797e+00 8.465105295181274414e-01 7.294649600982666016e+00 2.442348003387451172e+00 1.584649980068206787e-01
2.911000000000000000e+03 6.970307159423828125e+01 -7.279336452484130859e+00 9.618065357208251953e-01 7.378846645355224609e+00 2.502195835113525391e+00 -1.618598252534866333e-01
2.912000000000000000e+03 2.793793869018554688e+01 5.520109176635742188e+00 -2.074389457702636719e-01 1.718963379971683025e-03 -6.171599775552749634e-02 5.741937160491943359e-01
2.913000000000000000e+03 3.374432754516601562e+01 -1.675189018249511719e+01 -1.146932765841484070e-01 2.921114265918731689e-01 5.322544276714324951e-02 -2.087081968784332275e-01
2.914000000000000000e+03 6.715077972412109375e+01 2.440176010131835938e+01 -2.578252553939819336e-01 7.514313220977783203e+00 2.176946401596069336e+00 2.289795130491256714e-01
2.915000000000000000e+03 6.729537963867187500e+01 2.110953712463378906e+01 -3.319674134254455566e-01 7.592425823211669922e+00 2.178137540817260742e+00 3.077677786350250244e-01
2.916000000000000000e+03 6.715147399902343750e+01 1.171240901947021484e+01 -4.088336527347564697e-01 7.937207221984863281e+00 2.258512020111083984e+00 7.034909725189208984e-01
2.917000000000000000e+03 6.915941619873046875e+01 8.624803543090820312e+00 -2.192929685115814209e-01 7.916330337524414062e+00 2.309111118316650391e+00 8.922021389007568359e-01
2.918000000000000000e+03 2.675701522827148438e+01 3.222311258316040039e+00 -2.538714408874511719e-01 -1.231710761785507202e-01 -1.131127551198005676e-01 6.201039552688598633e-01
2.919000000000000000e+03 2.769009971618652344e+01 1.216003227233886719e+01 -1.899872273206710815e-01 2.103605717420578003e-01 6.112006027251482010e-03 3.065245747566223145e-01
2.920000000000000000e+03 6.893536376953125000e+01 -2.302182769775390625e+01 -3.104018867015838623e-01 7.903925895690917969e+00 2.278057098388671875e+00 -7.853088378906250000e-01
2.921000000000000000e+03 3.017889976501464844e+01 -1.688267517089843750e+01 -2.216155081987380981e-01 1.455006897449493408e-01 -2.283444255590438843e-02 -3.917928636074066162e-01
2.922000000000000000e+03 1.279626274108886719e+01 -2.944215202331542969e+01 1.834976822137832642e-01 -4.231936037540435791e-01 -7.190877199172973633e-02 -3.247332274913787842e-01
2.923000000000000000e+03 2.213081359863281250e+01 -2.309375572204589844e+01 3.860118612647056580e-02 -2.294490858912467957e-02 4.696883261203765869e-03 -3.521201908588409424e-01
2.924000000000000000e+03 2.338392829895019531e+01 -2.036411476135253906e+01 -1.315155774354934692e-01 1.874220184981822968e-02 -3.383201360702514648e-02 -4.124720394611358643e-01
2.925000000000000000e+03 6.849931335449218750e+01 -1.723879814147949219e+01 3.819398581981658936e-02 7.931306838989257812e+00 2.390850305557250977e+00 -9.935113191604614258e-01
2.926000000000000000e+03 6.924325561523437500e+01 1.407163906097412109e+01 -3.313797712326049805e-01 7.870829105377197266e+00 2.261834859848022461e+00 6.415303945541381836e-01
2.927000000000000000e+03 6.840764617919921875e+01 2.090716552734375000e+01 -2.962562143802642822e-01 7.710062026977539062e+00 2.224141836166381836e+00 3.513487279415130615e-01
2.928000000000000000e+03 6.753922271728515625e+01 8.417499661445617676e-01 5.423030853271484375e-01 7.974287986755371094e+00 2.554977416992187500e+00 1.006624460220336914e+00
2.929000000000000000e+03 2.355126571655273438e+01 2.444994926452636719e+01 1.672727912664413452e-01 3.571166843175888062e-02 6.089533865451812744e-02 1.306472532451152802e-02
2.930000000000000000e+03 2.049687004089355469e+01 2.300320816040039062e+01 5.609720572829246521e-02 -3.727948367595672607e-01 -9.500928968191146851e-02 1.175932064652442932e-01
2.931000000000000000e+03 6.655240631103515625e+01 -2.319539833068847656e+01 -4.311262667179107666e-01 7.990207672119140625e+00 2.267724514007568359e+00 -7.144413590431213379e-01
2.932000000000000000e+03 6.529638671875000000e+01 -2.284799957275390625e+01 -4.864391982555389404e-01 8.038002014160156250e+00 2.265468835830688477e+00 -6.571095585823059082e-01
2.933000000000000000e+03 1.691056823730468750e+01 2.731922340393066406e+01 2.496475279331207275e-01 -5.159846544265747070e-01 -7.990112900733947754e-02 2.422567307949066162e-01
2.934000000000000000e+03 6.909085083007812500e+01 -2.081413459777832031e+01 -2.155277729034423828e-01 7.901118278503417969e+00 2.305677175521850586e+00 -8.816627264022827148e-01
2.935000000000000000e+03 5.682167434692382812e+01 -6.226996898651123047e+00 6.461397647857666016e+00 1.176078987121582031e+01 5.466656208038330078e+00 1.937702596187591553e-01
2.936000000000000000e+03 5.589363098144531250e+01 -3.881150484085083008e+00 2.865572690963745117e+00 1.388893604278564453e+01 5.026352882385253906e+00 1.509012699127197266e+00
2.937000000000000000e+03 5.096446990966796875e+01 -1.793500542640686035e+00 1.050145626068115234e+00 5.707904815673828125e+00 2.027415037155151367e+00 -3.808617115020751953e+00
2.938000000000000000e+03 5.196899032592773438e+01 -2.276878595352172852e+00 7.529156804084777832e-01 8.193706512451171875e+00 2.683986425399780273e+00 -4.187347412109375000e+00
2.939000000000000000e+03 5.364452362060546875e+01 -2.598363637924194336e+00 1.656811498105525970e-02 1.276029205322265625e+01 3.833058118820190430e+00 -2.704446315765380859e+00
2.940000000000000000e+03 5.198145675659179688e+01 -2.581205844879150391e+00 9.507243037223815918e-01 8.169722557067871094e+00 2.736134052276611328e+00 -4.430739402770996094e+00
2.941000000000000000e+03 5.675257492065429688e+01 -7.595766067504882812e+00 5.465246200561523438e+00 1.217704010009765625e+01 5.292685985565185547e+00 -1.379012942314147949e+00
2.942000000000000000e+03 5.619794464111328125e+01 -5.334683418273925781e+00 6.167888164520263672e+00 1.302820777893066406e+01 5.758828639984130859e+00 1.539596676826477051e+00
2.943000000000000000e+03 5.620044326782226562e+01 -4.790600776672363281e+00 4.942313671112060547e+00 1.325062465667724609e+01 5.457881450653076172e+00 1.750673890113830566e+00
2.944000000000000000e+03 5.396479797363281250e+01 -2.810245752334594727e+00 7.267776131629943848e-02 1.362554740905761719e+01 4.109467506408691406e+00 -2.090770721435546875e+00
2.945000000000000000e+03 5.182131576538085938e+01 -1.037846946716308594e+01 8.329110741615295410e-01 7.766669273376464844e+00 2.579874038696289062e+00 4.356426239013671875e+00
2.946000000000000000e+03 5.612629699707031250e+01 -4.068491935729980469e+00 3.402918815612792969e+00 1.352933883666992188e+01 5.079677104949951172e+00 1.664022684097290039e+00
2.947000000000000000e+03 5.580492782592773438e+01 -8.338021278381347656e+00 4.050575733184814453e+00 1.402204132080078125e+01 5.421784877777099609e+00 -1.782606840133666992e+00
2.948000000000000000e+03 5.597760772705078125e+01 -3.340649843215942383e+00 1.979478955268859863e+00 1.349518966674804688e+01 4.642400741577148438e+00 1.169987201690673828e+00
2.949000000000000000e+03 5.109066009521484375e+01 -1.105430221557617188e+01 8.565061688423156738e-01 6.021362304687500000e+00 2.063360452651977539e+00 3.861480951309204102e+00
2.950000000000000000e+03 4.950993347167968750e+01 -1.194173526763916016e+01 8.626285195350646973e-01 3.698310375213623047e+00 1.368281722068786621e+00 2.941661834716796875e+00
2.951000000000000000e+03 5.087655258178710938e+01 -1.248837113380432129e+00 8.437095284461975098e-01 5.678232192993164062e+00 1.956582546234130859e+00 -3.597089052200317383e+00
2.952000000000000000e+03 5.062855529785156250e+01 -1.115383052825927734e+01 9.527275562286376953e-01 5.106963634490966797e+00 1.817907333374023438e+00 3.627897262573242188e+00
2.953000000000000000e+03 4.946791076660156250e+01 9.620299190282821655e-02 7.686933875083923340e-01 4.164565086364746094e+00 1.479977488517761230e+00 -2.825297594070434570e+00
2.954000000000000000e+03 2.861154937744140625e+01 4.821021080017089844e+00 -1.982818543910980225e-01 3.435199707746505737e-02 -4.917895421385765076e-02 5.709850192070007324e-01
2.955000000000000000e+03 4.797825622558593750e+01 2.062253475189208984e+00 6.008333563804626465e-01 3.393700599670410156e+00 1.198360204696655273e+00 -2.154588937759399414e+00
2.956000000000000000e+03 3.341339111328125000e+01 1.893542408943176270e+00 -2.517023384571075439e-01 1.850342899560928345e-01 -2.000041306018829346e-02 4.576404094696044922e-01
2.957000000000000000e+03 3.501261138916015625e+01 2.403253793716430664e+00 -1.498720496892929077e-01 3.057247102260589600e-01 4.675579816102981567e-02 3.348337411880493164e-01
2.958000000000000000e+03 4.591838073730468750e+01 2.071819782257080078e+00 6.177254915237426758e-01 2.155308723449707031e+00 8.319102525711059570e-01 -1.528032064437866211e+00
2.959000000000000000e+03 3.674137115478515625e+01 3.205601692199707031e+00 2.293867990374565125e-02 4.821725487709045410e-01 1.515333652496337891e-01 1.493530571460723877e-01
2.960000000000000000e+03 4.136774444580078125e+01 -1.751036262512207031e+01 3.773229122161865234e-01 1.240619659423828125e+00 4.853827655315399170e-01 7.403951287269592285e-01
2.961000000000000000e+03 4.463037872314453125e+01 -1.627050781250000000e+01 4.855277538299560547e-01 1.947432160377502441e+00 7.298879623413085938e-01 1.346933126449584961e+00
2.962000000000000000e+03 4.897692108154296875e+01 -1.448453426361083984e+01 4.466286897659301758e-01 4.092334747314453125e+00 1.361689090728759766e+00 2.517408847808837891e+00
2.963000000000000000e+03 4.219445800781250000e+01 3.059625387191772461e+00 4.061030745506286621e-01 1.215926170349121094e+00 4.866087734699249268e-01 -6.655130982398986816e-01
2.964000000000000000e+03 4.304795074462890625e+01 3.275086879730224609e+00 4.649351239204406738e-01 1.470226883888244629e+00 5.805486440658569336e-01 -8.712016344070434570e-01
2.965000000000000000e+03 4.914245986938476562e+01 1.459406256675720215e+00 5.609691143035888672e-01 4.210511207580566406e+00 1.431444168090820312e+00 -2.531982660293579102e+00
2.966000000000000000e+03 4.763625335693359375e+01 1.325443983078002930e+00 7.055510282516479492e-01 2.898939847946166992e+00 1.081347227096557617e+00 -2.076741695404052734e+00
2.967000000000000000e+03 4.419471359252929688e+01 2.601202726364135742e+00 5.406225323677062988e-01 1.642060637474060059e+00 6.548049449920654297e-01 -1.099998474121093750e+00
2.968000000000000000e+03 3.208609008789062500e+01 2.024418354034423828e+00 -2.677348256111145020e-01 1.351312249898910522e-01 -3.978108242154121399e-02 5.131961703300476074e-01
2.969000000000000000e+03 4.794785690307617188e+01 -1.546582889556884766e+01 4.450297057628631592e-01 3.548086404800415039e+00 1.197934865951538086e+00 2.175361871719360352e+00
2.970000000000000000e+03 4.499048614501953125e+01 2.832396030426025391e+00 5.660865902900695801e-01 2.013482093811035156e+00 7.738705873489379883e-01 -1.316034197807312012e+00
2.971000000000000000e+03 2.785269165039062500e+01 2.209819555282592773e+00 -2.821182906627655029e-01 -6.121072173118591309e-02 -1.029987037181854248e-01 6.082011461257934570e-01
2.972000000000000000e+03 2.938060569763183594e+01 1.890711665153503418e+00 -2.985140383243560791e-01 1.615920476615428925e-02 -8.470645546913146973e-02 5.901893973350524902e-01
2.973000000000000000e+03 6.860466766357421875e+01 -9.621081352233886719e+00 9.806556701660156250e-01 7.607704162597656250e+00 2.576507806777954102e+00 -5.409319996833801270e-01
2.974000000000000000e+03 3.977698135375976562e+01 1.801056146621704102e+00 8.899796009063720703e-02 5.858386158943176270e-01 2.024509757757186890e-01 -1.218904331326484680e-01
2.975000000000000000e+03 4.040277862548828125e+01 2.489040136337280273e+00 2.138949036598205566e-01 7.575010061264038086e-01 2.914187908172607422e-01 -2.750146687030792236e-01
2.976000000000000000e+03 4.638417053222656250e+01 2.448838233947753906e+00 6.182252764701843262e-01 2.523935079574584961e+00 9.426481127738952637e-01 -1.687518119812011719e+00
2.977000000000000000e+03 3.494256591796875000e+01 3.498701095581054688e+00 -5.108916386961936951e-02 3.811108171939849854e-01 9.900649636983871460e-02 2.959634065628051758e-01
2.978000000000000000e+03 3.199126625061035156e+01 2.640319585800170898e+00 -2.228026241064071655e-01 1.534931957721710205e-01 -2.079282701015472412e-02 5.052869319915771484e-01
2.979000000000000000e+03 6.869477081298828125e+01 -3.271700382232666016e+00 9.883705377578735352e-01 7.586103439331054688e+00 2.572342157363891602e+00 5.378071069717407227e-01
2.980000000000000000e+03 6.909117126464843750e+01 -5.847881317138671875e+00 1.041958332061767578e+00 7.464065551757812500e+00 2.551807165145874023e+00 1.049871519207954407e-01
2.981000000000000000e+03 2.868804550170898438e+01 7.913577556610107422e+00 -1.667862981557846069e-01 1.481574177742004395e-01 -5.588665604591369629e-03 4.705845117568969727e-01
2.982000000000000000e+03 3.033517456054687500e+01 1.128583526611328125e+01 -6.729784607887268066e-02 4.842464923858642578e-01 1.250845938920974731e-01 2.327266037464141846e-01
2.983000000000000000e+03 2.734057807922363281e+01 3.758810758590698242e+00 -2.446675449609756470e-01 -7.987748831510543823e-02 -9.736350923776626587e-02 6.145905256271362305e-01
2.984000000000000000e+03 6.896839904785156250e+01 -1.258234310150146484e+01 5.852971076965332031e-01 7.693947792053222656e+00 2.483773469924926758e+00 -8.499010205268859863e-01
2.985000000000000000e+03 2.513896560668945312e+01 -1.632075881958007812e+01 -4.001836180686950684e-01 5.060945078730583191e-02 -1.048722490668296814e-01 -4.964587986469268799e-01
2.986000000000000000e+03 2.357892608642578125e+01 -1.652942466735839844e+01 -4.007036685943603516e-01 2.071162126958370209e-02 -1.139976084232330322e-01 -4.959421455860137939e-01
2.987000000000000000e+03 6.762569427490234375e+01 -2.477489262819290161e-01 7.125741243362426758e-01 7.908910274505615234e+00 2.586445331573486328e+00 9.353270530700683594e-01
2.988000000000000000e+03 6.753547668457031250e+01 -2.330844640731811523e+00 1.051090002059936523e+00 7.808979511260986328e+00 2.658020973205566406e+00 7.192303538322448730e-01
2.989000000000000000e+03 6.763713836669921875e+01 -1.736884498596191406e+01 1.023523416370153427e-02 8.053122520446777344e+00 2.419007539749145508e+00 -1.007016897201538086e+00
2.990000000000000000e+03 6.624972534179687500e+01 1.794015407562255859e+00 4.119182825088500977e-01 8.223569869995117188e+00 2.590646266937255859e+00 1.077017426490783691e+00
2.991000000000000000e+03 6.736563110351562500e+01 1.973327755928039551e+00 3.663606047630310059e-01 8.045240402221679688e+00 2.523480176925659180e+00 1.047488212585449219e+00
2.992000000000000000e+03 3.888206863403320312e+01 3.053574800491333008e+00 1.489135622978210449e-01 6.636590957641601562e-01 2.437718063592910767e-01 -9.605472534894943237e-02
2.993000000000000000e+03 4.085859298706054688e+01 1.864990830421447754e+00 1.951877921819686890e-01 7.164545059204101562e-01 2.734926939010620117e-01 -2.982145249843597412e-01
2.994000000000000000e+03 6.757598114013671875e+01 -3.289086341857910156e+00 1.165364861488342285e+00 7.758458614349365234e+00 2.677146911621093750e+00 5.873380303382873535e-01
2.995000000000000000e+03 6.862468719482421875e+01 -4.149102210998535156e+00 1.082136034965515137e+00 7.568940639495849609e+00 2.595323085784912109e+00 4.041949510574340820e-01
2.996000000000000000e+03 2.813657188415527344e+01 -1.684689521789550781e+01 -2.766791582107543945e-01 1.038946285843849182e-01 -5.183535814285278320e-02 -4.434752166271209717e-01
2.997000000000000000e+03 3.114733123779296875e+01 -1.787126350402832031e+01 -9.003105759620666504e-02 2.248168587684631348e-01 4.043573886156082153e-02 -3.179069459438323975e-01
2.998000000000000000e+03 4.658313369750976562e+01 -1.583456516265869141e+01 4.955666959285736084e-01 2.726095914840698242e+00 9.664987921714782715e-01 1.812723636627197266e+00
2.999000000000000000e+03 3.197096061706542969e+01 1.481113553047180176e+00 -3.186866044998168945e-01 1.086328029632568359e-01 -6.301614642143249512e-02 5.263885855674743652e-01
3.000000000000000000e+03 2.284037017822265625e+01 -2.164685440063476562e+01 -5.369978398084640503e-02 1.236079959198832512e-03 -1.573911122977733612e-02 -3.799660205841064453e-01
3.001000000000000000e+03 2.574950408935546875e+01 -1.823628807067871094e+01 -2.100699096918106079e-01 7.741998136043548584e-02 -3.979497775435447693e-02 -4.490610063076019287e-01
3.002000000000000000e+03 3.066259002685546875e+01 3.987539768218994141e+00 -1.810574084520339966e-01 1.431523412466049194e-01 -1.137151848524808884e-02 5.267162322998046875e-01
3.003000000000000000e+03 6.762033081054687500e+01 -1.301272511482238770e+00 8.852313160896301270e-01 7.853186607360839844e+00 2.621525287628173828e+00 8.444285392761230469e-01
3.004000000000000000e+03 6.924257659912109375e+01 7.356434345245361328e+00 -1.552270650863647461e-01 7.902189731597900391e+00 2.324088811874389648e+00 9.386852383613586426e-01
3.005000000000000000e+03 6.712622070312500000e+01 3.158612728118896484e+00 1.931377500295639038e-01 8.111636161804199219e+00 2.491432189941406250e+00 1.056856870651245117e+00
3.006000000000000000e+03 2.652784919738769531e+01 1.703815650939941406e+01 -1.311859637498855591e-01 2.237461060285568237e-01 2.776804007589817047e-02 1.020784378051757812e-01
3.007000000000000000e+03 2.799340248107910156e+01 1.771974372863769531e+01 -4.653778299689292908e-02 4.586567282676696777e-01 1.236356869339942932e-01 3.539580106735229492e-02
3.008000000000000000e+03 3.580456924438476562e+01 -1.806416511535644531e+01 1.289612650871276855e-01 5.325783491134643555e-01 1.984618753194808960e-01 2.988133020699024200e-02
3.009000000000000000e+03 4.397384262084960938e+01 -1.709181404113769531e+01 4.746377170085906982e-01 1.874231219291687012e+00 7.046607136726379395e-01 1.242382526397705078e+00
3.010000000000000000e+03 3.474025344848632812e+01 -1.744023895263671875e+01 8.644999004900455475e-03 4.100731611251831055e-01 1.256154477596282959e-01 -9.729486703872680664e-02
3.011000000000000000e+03 6.788514709472656250e+01 -2.171216964721679688e+01 -3.127596974372863770e-01 7.983862876892089844e+00 2.301331043243408203e+00 -8.339228630065917969e-01
3.012000000000000000e+03 3.896350097656250000e+01 -1.653182983398437500e+01 1.435499191284179688e-01 6.908331513404846191e-01 2.503149211406707764e-01 3.069754838943481445e-01
3.013000000000000000e+03 4.242341232299804688e+01 -1.693946075439453125e+01 3.995208442211151123e-01 1.406806111335754395e+00 5.418980717658996582e-01 9.005027413368225098e-01
3.014000000000000000e+03 4.003562164306640625e+01 -1.655392265319824219e+01 2.213803976774215698e-01 8.489668965339660645e-01 3.211041688919067383e-01 4.640988409519195557e-01
3.015000000000000000e+03 2.926182937622070312e+01 -1.769295310974121094e+01 -1.709101051092147827e-01 1.446734666824340820e-01 -7.870995439589023590e-03 -3.913452625274658203e-01
3.016000000000000000e+03 2.663888740539550781e+01 1.564127731323242188e+01 -1.721491962671279907e-01 1.980288326740264893e-01 7.763890549540519714e-03 1.721260249614715576e-01
3.017000000000000000e+03 6.576381683349609375e+01 1.154852008819580078e+01 -4.791821539402008057e-01 7.955000877380371094e+00 2.242745637893676758e+00 6.417601704597473145e-01
3.018000000000000000e+03 6.743783569335937500e+01 1.473916721343994141e+01 -4.105608165264129639e-01 7.824535846710205078e+00 2.224192380905151367e+00 5.573315620422363281e-01
3.019000000000000000e+03 6.906954193115234375e+01 -1.524800872802734375e+01 2.607559561729431152e-01 7.800629138946533203e+00 2.418415546417236328e+00 -9.667916297912597656e-01
3.020000000000000000e+03 6.855854034423828125e+01 -1.583892345428466797e+01 2.036083489656448364e-01 7.917757511138916016e+00 2.436409711837768555e+00 -1.014402985572814941e+00
3.021000000000000000e+03 6.674993133544921875e+01 9.734468460083007812e+00 -3.887852132320404053e-01 8.026187896728515625e+00 2.291220664978027344e+00 7.837578058242797852e-01
3.022000000000000000e+03 6.753927612304687500e+01 1.060930442810058594e+01 -3.766924440860748291e-01 7.970265388488769531e+00 2.278071880340576172e+00 7.656151056289672852e-01
3.023000000000000000e+03 6.875943756103515625e+01 -2.167255878448486328e-01 6.221261620521545410e-01 7.731163978576660156e+00 2.505987167358398438e+00 8.816706538200378418e-01
3.024000000000000000e+03 2.862001991271972656e+01 6.870211601257324219e+00 -1.795309633016586304e-01 9.219013154506683350e-02 -2.620225027203559875e-02 5.180570483207702637e-01
3.025000000000000000e+03 2.999598121643066406e+01 7.694058895111083984e+00 -1.088773235678672791e-01 2.615577578544616699e-01 4.580412805080413818e-02 4.184955358505249023e-01
3.026000000000000000e+03 3.171072578430175781e+01 4.223734378814697266e+00 -1.424778252840042114e-01 2.158974111080169678e-01 2.202587388455867767e-02 4.728291034698486328e-01
3.027000000000000000e+03 2.717148780822753906e+01 6.130640983581542969e+00 -2.271918058395385742e-01 -4.732462018728256226e-02 -8.235492557287216187e-02 5.758359432220458984e-01
3.028000000000000000e+03 6.898816680908203125e+01 -1.041988563537597656e+01 8.411479592323303223e-01 7.585637092590332031e+00 2.528035402297973633e+00 -6.377162337303161621e-01
3.029000000000000000e+03 6.875839233398437500e+01 -1.401651573181152344e+01 4.178375899791717529e-01 7.815289020538330078e+00 2.469938039779663086e+00 -9.588530063629150391e-01
3.030000000000000000e+03 6.686299896240234375e+01 -2.151989746093750000e+01 -3.554404675960540771e-01 8.047101020812988281e+00 2.307498216629028320e+00 -8.103231787681579590e-01
3.031000000000000000e+03 2.946338081359863281e+01 1.198270511627197266e+01 -9.758350998163223267e-02 4.178127050399780273e-01 9.606876224279403687e-02 2.346366941928863525e-01
3.032000000000000000e+03 6.505483245849609375e+01 1.675236701965332031e+01 -4.728832840919494629e-01 7.624319076538085938e+00 2.145430803298950195e+00 3.717016875743865967e-01
3.033000000000000000e+03 6.642441558837890625e+01 1.586847114562988281e+01 -4.399982690811157227e-01 7.743071079254150391e+00 2.190921783447265625e+00 4.722149670124053955e-01
3.034000000000000000e+03 6.502825927734375000e+01 2.435726547241210938e+01 -3.087638318538665771e-01 7.265855312347412109e+00 2.087127447128295898e+00 1.638704836368560791e-01
3.035000000000000000e+03 1.436940002441406250e+01 2.827232742309570312e+01 2.408865988254547119e-01 -6.067549586296081543e-01 -1.097605079412460327e-01 3.347420096397399902e-01
3.036000000000000000e+03 2.130319595336914062e+01 2.761013603210449219e+01 2.930699586868286133e-01 -1.053856983780860901e-01 5.630527809262275696e-02 6.657133996486663818e-02
3.037000000000000000e+03 1.717113113403320312e+01 2.552473449707031250e+01 1.729484647512435913e-01 -5.827406048774719238e-01 -1.229376420378684998e-01 2.498030364513397217e-01
3.038000000000000000e+03 1.894880104064941406e+01 2.761459922790527344e+01 2.819043397903442383e-01 -3.572546839714050293e-01 -2.260510064661502838e-02 1.626288592815399170e-01
3.039000000000000000e+03 2.530095291137695312e+01 2.098412132263183594e+01 1.410764455795288086e-02 1.766661256551742554e-01 5.723213031888008118e-02 3.778290469199419022e-03
3.040000000000000000e+03 2.449046134948730469e+01 1.939312934875488281e+01 -9.509234875440597534e-02 1.687128213234245777e-03 -2.802156656980514526e-02 7.065121084451675415e-02
3.041000000000000000e+03 5.699909210205078125e+01 -7.245211601257324219e+00 5.721445083618164062e+00 1.167401027679443359e+01 5.218636989593505859e+00 -9.693564772605895996e-01
3.042000000000000000e+03 5.546713256835937500e+01 -8.988969802856445312e+00 2.257953882217407227e+00 1.458708286285400391e+01 5.053511142730712891e+00 -1.173655629158020020e+00
3.043000000000000000e+03 5.689255905151367188e+01 -7.838493347167968750e+00 4.987863063812255859e+00 1.205566310882568359e+01 5.113058090209960938e+00 -1.444668650627136230e+00
3.044000000000000000e+03 5.258501434326171875e+01 -2.442082643508911133e+00 4.284443557262420654e-01 1.001910209655761719e+01 3.134263992309570312e+00 -4.037904739379882812e+00
3.045000000000000000e+03 5.335085678100585938e+01 -2.329419851303100586e+00 1.077439752407371998e-03 1.181039619445800781e+01 3.543442010879516602e+00 -3.124467611312866211e+00
3.046000000000000000e+03 5.417197799682617188e+01 -2.416452884674072266e+00 -2.066648565232753754e-02 1.306126213073730469e+01 3.912178516387939453e+00 -1.776913404464721680e+00
3.047000000000000000e+03 5.307595443725585938e+01 -1.003520298004150391e+01 1.691558063030242920e-01 1.160577774047851562e+01 3.532480239868164062e+00 3.744773626327514648e+00
3.048000000000000000e+03 5.682755279541015625e+01 -5.566042900085449219e+00 5.961781024932861328e+00 1.193094444274902344e+01 5.367817401885986328e+00 1.019226431846618652e+00
3.049000000000000000e+03 5.718311691284179688e+01 -5.690846443176269531e+00 5.721090316772460938e+00 1.143754577636718750e+01 5.147591114044189453e+00 7.611514329910278320e-01
3.050000000000000000e+03 5.471929550170898438e+01 -1.039197731018066406e+01 7.653304934501647949e-02 1.332108783721923828e+01 4.019286155700683594e+00 9.301397204399108887e-01
3.051000000000000000e+03 5.529610061645507812e+01 -9.347318649291992188e+00 1.527601599693298340e+00 1.451903533935546875e+01 4.813991069793701172e+00 -6.535604000091552734e-01
3.052000000000000000e+03 5.437841415405273438e+01 -1.053664207458496094e+01 -1.143935620784759521e-01 1.299248409271240234e+01 3.863427162170410156e+00 1.514505743980407715e+00
3.053000000000000000e+03 5.574082946777343750e+01 -3.111229658126831055e+00 1.487759232521057129e+00 1.357096862792968750e+01 4.517618179321289062e+00 8.362221717834472656e-01
3.054000000000000000e+03 5.474939727783203125e+01 -2.783888816833496094e+00 4.026811718940734863e-01 1.386654186248779297e+01 4.280766963958740234e+00 -6.504632830619812012e-01
3.055000000000000000e+03 5.408854293823242188e+01 -1.070256137847900391e+01 -2.440755516290664673e-01 1.249383068084716797e+01 3.674926519393920898e+00 2.012045383453369141e+00
3.056000000000000000e+03 5.217554473876953125e+01 -1.086311054229736328e+01 3.965643346309661865e-01 8.697795867919921875e+00 2.728307962417602539e+00 3.980464458465576172e+00
3.057000000000000000e+03 4.999884414672851562e+01 -1.177468967437744141e+01 8.749465346336364746e-01 4.370625495910644531e+00 1.573671579360961914e+00 3.271612167358398438e+00
3.058000000000000000e+03 5.280139160156250000e+01 -1.031288051605224609e+01 2.254213541746139526e-01 1.073306465148925781e+01 3.287545680999755859e+00 3.905726194381713867e+00
3.059000000000000000e+03 4.994042587280273438e+01 -6.050261259078979492e-01 8.608638048171997070e-01 4.493501186370849609e+00 1.606309533119201660e+00 -3.098668575286865234e+00
3.060000000000000000e+03 4.954872894287109375e+01 6.960967183113098145e-01 6.375698447227478027e-01 4.433142185211181641e+00 1.521213650703430176e+00 -2.761658906936645508e+00
3.061000000000000000e+03 5.053616333007812500e+01 -1.175927162170410156e+01 7.749186158180236816e-01 5.196979045867919922e+00 1.791569352149963379e+00 3.456737995147705078e+00
3.062000000000000000e+03 5.000681304931640625e+01 -1.225314903259277344e+01 7.446140646934509277e-01 4.623196601867675781e+00 1.610343217849731445e+00 3.200798034667968750e+00
3.063000000000000000e+03 5.040012359619140625e+01 -1.232678890228271484e+01 6.241322159767150879e-01 5.180183887481689453e+00 1.741294860839843750e+00 3.264212608337402344e+00
3.064000000000000000e+03 5.007322692871093750e+01 5.847009420394897461e-01 5.536195635795593262e-01 4.995898246765136719e+00 1.664855360984802246e+00 -2.898920774459838867e+00
3.065000000000000000e+03 4.954804229736328125e+01 -1.305661678314208984e+01 6.183462738990783691e-01 4.295287132263183594e+00 1.474089980125427246e+00 2.891944885253906250e+00
3.066000000000000000e+03 4.922805023193359375e+01 -1.263157272338867188e+01 7.470402121543884277e-01 3.729392528533935547e+00 1.342929840087890625e+00 2.794080495834350586e+00
3.067000000000000000e+03 3.754217147827148438e+01 3.716843843460083008e+00 1.166636124253273010e-01 6.000365614891052246e-01 2.150100469589233398e-01 3.422925993800163269e-02
3.068000000000000000e+03 3.351850128173828125e+01 2.550165891647338867e+00 -1.911842972040176392e-01 2.257751375436782837e-01 1.037725154310464859e-02 4.350085854530334473e-01
3.069000000000000000e+03 3.618180084228515625e+01 4.302965164184570312e+00 7.521054893732070923e-02 5.285758376121520996e-01 1.811359226703643799e-01 1.425534486770629883e-01
3.070000000000000000e+03 4.844347000122070312e+01 -1.492782878875732422e+01 4.570520520210266113e-01 3.800755023956298828e+00 1.277342081069946289e+00 2.321599006652832031e+00
3.071000000000000000e+03 2.944638633728027344e+01 2.505071401596069336e+00 -2.705756127834320068e-01 2.585145458579063416e-02 -7.341725379228591919e-02 5.875847935676574707e-01
3.072000000000000000e+03 4.575609588623046875e+01 2.836879730224609375e+00 5.917178988456726074e-01 2.314469814300537109e+00 8.718562722206115723e-01 -1.512672543525695801e+00
3.073000000000000000e+03 3.446260452270507812e+01 2.956743240356445312e+00 -1.105535477399826050e-01 3.206900656223297119e-01 6.304095685482025146e-02 3.507920801639556885e-01
3.074000000000000000e+03 4.271316146850585938e+01 4.186845302581787109e+00 4.581964910030364990e-01 1.606737613677978516e+00 6.194802522659301758e-01 -8.470010161399841309e-01
3.075000000000000000e+03 4.853121185302734375e+01 -1.390538215637207031e+01 5.773166418075561523e-01 3.535938262939453125e+00 1.233976483345031738e+00 2.446917772293090820e+00
3.076000000000000000e+03 4.835089874267578125e+01 1.054212331771850586e+00 7.190376520156860352e-01 3.369615077972412109e+00 1.226595878601074219e+00 -2.352473258972167969e+00
3.077000000000000000e+03 4.780791091918945312e+01 3.235143423080444336e+00 4.868367910385131836e-01 3.543535947799682617e+00 1.209111809730529785e+00 -2.012052774429321289e+00
3.078000000000000000e+03 4.384661483764648438e+01 3.530641555786132812e+00 5.129821300506591797e-01 1.737506151199340820e+00 6.751464605331420898e-01 -1.070243597030639648e+00
3.079000000000000000e+03 4.675070190429687500e+01 3.069558858871459961e+00 5.766326189041137695e-01 2.868123769760131836e+00 1.033426880836486816e+00 -1.794257879257202148e+00
3.080000000000000000e+03 4.462682342529296875e+01 3.819260835647583008e+00 5.391916036605834961e-01 2.091378211975097656e+00 7.891709208488464355e-01 -1.255920529365539551e+00
3.081000000000000000e+03 3.551142883300781250e+01 4.000276565551757812e+00 1.271129306405782700e-02 4.507386982440948486e-01 1.390350013971328735e-01 2.194884568452835083e-01
3.082000000000000000e+03 3.368441009521484375e+01 3.969654083251953125e+00 -7.671898603439331055e-02 3.284291028976440430e-01 7.551302760839462280e-02 3.625451624393463135e-01
3.083000000000000000e+03 4.551793670654296875e+01 -1.682431602478027344e+01 4.731035828590393066e-01 2.471616268157958984e+00 8.834159374237060547e-01 1.561118721961975098e+00
3.084000000000000000e+03 4.836623764038085938e+01 2.741281270980834961e+00 4.823017716407775879e-01 3.851191759109497070e+00 1.300048112869262695e+00 -2.174350500106811523e+00
3.085000000000000000e+03 6.936171722412109375e+01 -1.122119808197021484e+01 7.186551690101623535e-01 7.562474250793457031e+00 2.484338760375976562e+00 -7.074303030967712402e-01
3.086000000000000000e+03 3.126895523071289062e+01 2.450078725814819336e+00 -2.520855367183685303e-01 1.157407611608505249e-01 -4.090343415737152100e-02 5.356742739677429199e-01
3.087000000000000000e+03 2.938852691650390625e+01 -1.952752685546875000e+01 -1.600384712219238281e-02 2.050856500864028931e-01 5.672454088926315308e-02 -3.289950489997863770e-01
3.088000000000000000e+03 4.388800430297851562e+01 -1.887403106689453125e+01 4.517102837562561035e-01 2.188381195068359375e+00 7.920274734497070312e-01 1.220898270606994629e+00
3.089000000000000000e+03 3.995536422729492188e+01 3.368698835372924805e+00 2.544104158878326416e-01 8.402029871940612793e-01 3.283840119838714600e-01 -2.752588391304016113e-01
3.090000000000000000e+03 6.890799713134765625e+01 -7.493203163146972656e+00 1.084752798080444336e+00 7.497506618499755859e+00 2.574677705764770508e+00 -2.022489905357360840e-01
3.091000000000000000e+03 3.753266906738281250e+01 -1.754654121398925781e+01 1.719847172498703003e-01 6.673269867897033691e-01 2.517935037612915039e-01 1.852577328681945801e-01
3.092000000000000000e+03 4.015437698364257812e+01 -1.784050178527832031e+01 3.297509551048278809e-01 1.092164039611816406e+00 4.265744984149932861e-01 5.701538324356079102e-01
3.093000000000000000e+03 6.793893432617187500e+01 -1.646030044555664062e+01 1.289274096488952637e-01 7.989730358123779297e+00 2.435597181320190430e+00 -1.014060497283935547e+00
3.094000000000000000e+03 6.727423858642578125e+01 -1.997472572326660156e+01 -2.380375564098358154e-01 8.061881065368652344e+00 2.347152948379516602e+00 -9.080739021301269531e-01
3.095000000000000000e+03 6.654313659667968750e+01 -1.250345349311828613e+00 9.780978560447692871e-01 8.034290313720703125e+00 2.703716278076171875e+00 9.070826768875122070e-01
3.096000000000000000e+03 6.765564727783203125e+01 -4.955585479736328125e+00 1.285510659217834473e+00 7.676143646240234375e+00 2.688496351242065430e+00 2.937199473381042480e-01
3.097000000000000000e+03 3.029177474975585938e+01 8.696215629577636719e+00 -7.589497417211532593e-02 3.455054163932800293e-01 8.088313788175582886e-02 3.540860414505004883e-01
3.098000000000000000e+03 3.214797973632812500e+01 -1.885662460327148438e+01 3.995825722813606262e-02 3.373115658760070801e-01 1.131809428334236145e-01 -2.232634425163269043e-01
3.099000000000000000e+03 6.770001220703125000e+01 -4.142700672149658203e+00 1.235365986824035645e+00 7.700500965118408203e+00 2.680760145187377930e+00 4.316272139549255371e-01
3.100000000000000000e+03 6.848504638671875000e+01 -4.985741615295410156e+00 1.161310553550720215e+00 7.565254688262939453e+00 2.617969512939453125e+00 2.628401815891265869e-01
3.101000000000000000e+03 3.065406417846679688e+01 5.532542705535888672e+00 -1.280621439218521118e-01 2.100362479686737061e-01 2.459223195910453796e-02 4.778584837913513184e-01
3.102000000000000000e+03 2.876169967651367188e+01 1.292103290557861328e+01 -1.369971930980682373e-01 3.674309551715850830e-01 6.913013011217117310e-02 2.268214672803878784e-01
3.103000000000000000e+03 6.827780151367187500e+01 -2.033348464965820312e+01 -2.164593189954757690e-01 7.967799663543701172e+00 2.325402021408081055e+00 -9.025344848632812500e-01
3.104000000000000000e+03 6.595311737060546875e+01 2.922471046447753906e+00 2.129688709974288940e-01 8.285459518432617188e+00 2.549528598785400391e+00 1.072076678276062012e+00
3.105000000000000000e+03 2.981400108337402344e+01 6.760110378265380859e+00 -1.336939632892608643e-01 2.025204747915267944e-01 2.064795605838298798e-02 4.672174155712127686e-01
3.106000000000000000e+03 6.789750671386718750e+01 7.183437824249267578e+00 -1.947184056043624878e-01 8.015999794006347656e+00 2.346384286880493164e+00 9.440612792968750000e-01
3.107000000000000000e+03 6.648760986328125000e+01 7.086035728454589844e+00 -2.500461041927337646e-01 8.143813133239746094e+00 2.368129968643188477e+00 9.210140109062194824e-01
3.108000000000000000e+03 2.689301109313964844e+01 1.327344608306884766e+01 -2.169438898563385010e-01 1.651578843593597412e-01 -1.553579978644847870e-02 2.749196887016296387e-01
3.109000000000000000e+03 6.982429504394531250e+01 -3.380577087402343750e+00 8.383148908615112305e-01 7.421375751495361328e+00 2.477907180786132812e+00 4.729655683040618896e-01
3.110000000000000000e+03 6.786717987060546875e+01 -1.012696933746337891e+01 1.043133854866027832e+00 7.737280845642089844e+00 2.634124279022216797e+00 -6.467590332031250000e-01
3.111000000000000000e+03 6.656476593017578125e+01 -2.736797928810119629e-01 7.966089844703674316e-01 8.083720207214355469e+00 2.664098739624023438e+00 9.899827837944030762e-01
3.112000000000000000e+03 6.710827636718750000e+01 -1.604980468750000000e+01 1.718938350677490234e-01 8.099029541015625000e+00 2.481276988983154297e+00 -1.035406351089477539e+00
3.113000000000000000e+03 6.755763244628906250e+01 -1.854836463928222656e+01 -1.122563332319259644e-01 8.061936378479003906e+00 2.384903907775878906e+00 -9.705525040626525879e-01
3.114000000000000000e+03 6.806065368652343750e+01 -1.328640556335449219e+01 5.512958168983459473e-01 7.879844188690185547e+00 2.529341936111450195e+00 -9.540724754333496094e-01
3.115000000000000000e+03 3.017516708374023438e+01 2.783986091613769531e+00 -2.490906417369842529e-01 7.518130540847778320e-02 -5.217280238866806030e-02 5.690687894821166992e-01
3.116000000000000000e+03 6.646191406250000000e+01 7.385680079460144043e-01 6.025651693344116211e-01 8.152213096618652344e+00 2.626433610916137695e+00 1.047994375228881836e+00
3.117000000000000000e+03 3.403956222534179688e+01 -1.860570144653320312e+01 1.003050953149795532e-01 4.504882097244262695e-01 1.652379930019378662e-01 -1.071599572896957397e-01
3.118000000000000000e+03 6.576190948486328125e+01 -2.123183059692382812e+01 -3.991800844669342041e-01 8.125840187072753906e+00 2.317997932434082031e+00 -7.795630693435668945e-01
3.119000000000000000e+03 6.785803985595703125e+01 8.442154884338378906e+00 -2.678268849849700928e-01 8.003714561462402344e+00 2.320766210556030273e+00 8.910232782363891602e-01
3.120000000000000000e+03 2.423596000671386719e+01 -2.234630203247070312e+01 3.857989981770515442e-02 7.234707474708557129e-02 3.327809274196624756e-02 -3.444796204566955566e-01
3.121000000000000000e+03 2.585937881469726562e+01 -2.138480567932128906e+01 2.365362364798784256e-03 1.208608373999595642e-01 3.696785867214202881e-02 -3.572895824909210205e-01
3.122000000000000000e+03 2.821303176879882812e+01 1.411703681945800781e+01 -1.374401003122329712e-01 3.438896238803863525e-01 6.193485856056213379e-02 1.889479011297225952e-01
3.123000000000000000e+03 6.643673706054687500e+01 1.383727741241455078e+01 -4.625441431999206543e-01 7.834661960601806641e+00 2.211635351181030273e+00 5.591170787811279297e-01
3.124000000000000000e+03 6.591649627685546875e+01 1.283632564544677734e+01 -4.839571118354797363e-01 7.876793384552001953e+00 2.217850923538208008e+00 5.813797116279602051e-01
3.125000000000000000e+03 3.689476394653320312e+01 -1.868048286437988281e+01 2.378072142601013184e-01 7.223210334777832031e-01 2.880384624004364014e-01 1.758073419332504272e-01
3.126000000000000000e+03 3.882589721679687500e+01 -1.789489173889160156e+01 2.671799957752227783e-01 8.764385581016540527e-01 3.430855572223663330e-01 3.636175096035003662e-01
3.127000000000000000e+03 2.691163825988769531e+01 1.946981048583984375e+01 -1.277168747037649155e-02 3.713150024414062500e-01 1.075629964470863342e-01 4.041528736706823111e-04
3.128000000000000000e+03 2.456764030456542969e+01 -2.092067718505859375e+01 -5.101570114493370056e-02 6.732355058193206787e-02 4.892355296760797501e-03 -3.852864801883697510e-01
3.129000000000000000e+03 2.754498863220214844e+01 -1.939602088928222656e+01 -8.042848855257034302e-02 1.404685080051422119e-01 1.801200397312641144e-02 -3.910680711269378662e-01
3.130000000000000000e+03 6.634166717529296875e+01 1.961474800109863281e+01 -3.731381595134735107e-01 7.592578411102294922e+00 2.165832042694091797e+00 3.351543843746185303e-01
3.131000000000000000e+03 6.356744384765625000e+01 1.762481117248535156e+01 -5.009128451347351074e-01 7.458160400390625000e+00 2.087174415588378906e+00 2.609849274158477783e-01
3.132000000000000000e+03 2.844778633117675781e+01 -1.857682418823242188e+01 -1.139285787940025330e-01 1.571077257394790649e-01 1.295374613255262375e-02 -3.889645636081695557e-01
3.133000000000000000e+03 3.003569412231445312e+01 -2.066107368469238281e+01 9.613680839538574219e-02 2.954777479171752930e-01 1.174843609333038330e-01 -2.585756182670593262e-01
3.134000000000000000e+03 5.657067108154296875e+01 -6.705585956573486328e+00 6.721124172210693359e+00 1.209612178802490234e+01 5.645174026489257812e+00 -4.734415709972381592e-01
3.135000000000000000e+03 5.700250625610351562e+01 -5.272706985473632812e+00 5.422684669494628906e+00 1.181113052368164062e+01 5.170144557952880859e+00 1.212107419967651367e+00
3.136000000000000000e+03 5.606152725219726562e+01 -8.901807785034179688e+00 2.903482913970947266e+00 1.356218624114990234e+01 4.939700603485107422e+00 -1.537000775337219238e+00
3.137000000000000000e+03 5.523050308227539062e+01 -9.762546539306640625e+00 9.260105490684509277e-01 1.404948234558105469e+01 4.492648124694824219e+00 -2.082068920135498047e-01
3.138000000000000000e+03 5.535892105102539062e+01 -9.995474815368652344e+00 7.614004611968994141e-01 1.355377578735351562e+01 4.294552803039550781e+00 -1.943819224834442139e-01
3.139000000000000000e+03 5.384960937500000000e+01 -1.052092647552490234e+01 -1.588843017816543579e-01 1.237426567077636719e+01 3.664614439010620117e+00 2.373368263244628906e+00
3.140000000000000000e+03 5.387633514404296875e+01 -2.202861547470092773e+00 -1.203498691320419312e-01 1.239196777343750000e+01 3.681485176086425781e+00 -2.264041900634765625e+00
3.141000000000000000e+03 5.178422546386718750e+01 -1.116590309143066406e+01 5.235118865966796875e-01 7.551721572875976562e+00 2.422569990158081055e+00 3.914909362792968750e+00
3.142000000000000000e+03 5.223294067382812500e+01 -1.953770875930786133e+00 4.784061312675476074e-01 8.683122634887695312e+00 2.748458385467529297e+00 -3.903839588165283203e+00
3.143000000000000000e+03 5.139419937133789062e+01 -1.154058074951171875e+01 5.739880204200744629e-01 6.700098991394042969e+00 2.182226181030273438e+00 3.737055540084838867e+00
3.144000000000000000e+03 5.254872894287109375e+01 -1.061679172515869141e+01 2.748742997646331787e-01 9.615395545959472656e+00 2.967081069946289062e+00 3.926702737808227539e+00
3.145000000000000000e+03 5.726553726196289062e+01 -6.465557098388671875e+00 5.913305282592773438e+00 1.124379730224609375e+01 5.147130966186523438e+00 -8.498648554086685181e-02
3.146000000000000000e+03 5.670736312866210938e+01 -6.484146595001220703e+00 6.609146595001220703e+00 1.190013027191162109e+01 5.552783012390136719e+00 -1.251525878906250000e-01
3.147000000000000000e+03 5.574658584594726562e+01 -8.929588317871093750e+00 2.638578891754150391e+00 1.418142890930175781e+01 5.046002388000488281e+00 -1.438271403312683105e+00
3.148000000000000000e+03 5.041440200805664062e+01 -1.264555215835571289e+00 9.573600888252258301e-01 4.928600311279296875e+00 1.765788078308105469e+00 -3.430956840515136719e+00
3.149000000000000000e+03 5.190966796875000000e+01 -1.923351764678955078e+00 6.250417232513427734e-01 8.018390655517578125e+00 2.593029737472534180e+00 -4.001620769500732422e+00
3.150000000000000000e+03 5.229737854003906250e+01 -2.548669099807739258e+00 7.021887302398681641e-01 9.149768829345703125e+00 2.955587387084960938e+00 -4.311793804168701172e+00
3.151000000000000000e+03 5.265481185913085938e+01 -1.979051113128662109e+00 2.328101247549057007e-01 9.846606254577636719e+00 3.023824691772460938e+00 -3.722624301910400391e+00
3.152000000000000000e+03 5.446705627441406250e+01 -2.609250783920288086e+00 1.459308415651321411e-01 1.356467819213867188e+01 4.113182544708251953e+00 -1.216492414474487305e+00
3.153000000000000000e+03 5.552237319946289062e+01 -2.266734123229980469e+00 4.947289228439331055e-01 1.297017765045166016e+01 4.039472103118896484e+00 5.456477403640747070e-02
3.154000000000000000e+03 5.498007583618164062e+01 -2.399487018585205078e+00 2.740338742733001709e-01 1.325581264495849609e+01 4.058954238891601562e+00 -5.661391615867614746e-01
3.155000000000000000e+03 5.507869338989257812e+01 -1.031538772583007812e+01 3.119592666625976562e-01 1.340901851654052734e+01 4.116293430328369141e+00 3.843879699707031250e-01
3.156000000000000000e+03 5.292556381225585938e+01 -1.094584941864013672e+01 -1.790480688214302063e-02 1.024956989288330078e+01 3.069499492645263672e+00 3.480042219161987305e+00
3.157000000000000000e+03 5.080276489257812500e+01 -1.251612377166748047e+01 4.690142869949340820e-01 5.775350093841552734e+00 1.873309373855590820e+00 3.292470455169677734e+00
3.158000000000000000e+03 4.999558258056640625e+01 -2.513125538825988770e-03 7.048382163047790527e-01 4.765304565429687500e+00 1.641042828559875488e+00 -3.010282278060913086e+00
3.159000000000000000e+03 3.708878707885742188e+01 4.660619258880615234e+00 1.459765136241912842e-01 6.668691635131835938e-01 2.438537031412124634e-01 2.511663362383842468e-02
3.160000000000000000e+03 3.653058624267578125e+01 5.426928997039794922e+00 1.492271870374679565e-01 7.097175717353820801e-01 2.576834261417388916e-01 3.321572765707969666e-02
3.161000000000000000e+03 4.985142135620117188e+01 1.834252119064331055e+00 3.699818551540374756e-01 4.988645553588867188e+00 1.607588171958923340e+00 -2.597329139709472656e+00
3.162000000000000000e+03 4.998498535156250000e+01 -1.373203468322753906e+01 3.953874111175537109e-01 4.947876930236816406e+00 1.602979302406311035e+00 2.859455108642578125e+00
3.163000000000000000e+03 4.936903762817382812e+01 2.033012628555297852e+00 4.287135601043701172e-01 4.527070522308349609e+00 1.486735224723815918e+00 -2.475502729415893555e+00
3.164000000000000000e+03 6.617022705078125000e+01 -1.095471286773681641e+01 1.140212059020996094e+00 8.066926956176757812e+00 2.762141704559326172e+00 -8.527279496192932129e-01
3.165000000000000000e+03 3.964992141723632812e+01 4.458981037139892578e+00 2.957414984703063965e-01 9.776641726493835449e-01 3.820216953754425049e-01 -3.081676363945007324e-01
3.166000000000000000e+03 3.364544677734375000e+01 3.246809959411621094e+00 -1.252570152282714844e-01 2.801332771778106689e-01 4.646288231015205383e-02 3.963977694511413574e-01
3.167000000000000000e+03 4.888115692138671875e+01 2.338014841079711914e+00 4.628853499889373779e-01 4.169662952423095703e+00 1.389764428138732910e+00 -2.348015069961547852e+00
3.168000000000000000e+03 4.601495742797851562e+01 3.604897260665893555e+00 5.446872711181640625e-01 2.605514049530029297e+00 9.450603723526000977e-01 -1.567118287086486816e+00
3.169000000000000000e+03 4.346983337402343750e+01 4.459813594818115234e+00 5.006973147392272949e-01 1.851352572441101074e+00 7.056149244308471680e-01 -1.033104658126831055e+00
3.170000000000000000e+03 4.467386245727539062e+01 5.158926963806152344e+00 4.811334908008575439e-01 2.372792482376098633e+00 8.561777472496032715e-01 -1.267152309417724609e+00
3.171000000000000000e+03 4.717776489257812500e+01 3.756867647171020508e+00 4.820437431335449219e-01 3.286700963973999023e+00 1.130623459815979004e+00 -1.861862659454345703e+00
3.172000000000000000e+03 3.185339736938476562e+01 3.363051891326904297e+00 -1.842336952686309814e-01 1.772265285253524780e-01 -2.102148020640015602e-03 4.930313229560852051e-01
3.173000000000000000e+03 4.647503662109375000e+01 4.291787147521972656e+00 4.739985466003417969e-01 3.030387401580810547e+00 1.051315784454345703e+00 -1.658105254173278809e+00
3.174000000000000000e+03 4.528460311889648438e+01 4.303136348724365234e+00 5.145025849342346191e-01 2.467034578323364258e+00 8.944611549377441406e-01 -1.396368026733398438e+00
3.175000000000000000e+03 3.383271408081054688e+01 4.645561218261718750e+00 -3.642498329281806946e-02 3.900279104709625244e-01 1.060808822512626648e-01 3.267576098442077637e-01
3.176000000000000000e+03 3.440007400512695312e+01 4.126363277435302734e+00 -4.194106534123420715e-02 3.985560536384582520e-01 1.069845035672187805e-01 3.053928017616271973e-01
3.177000000000000000e+03 4.415900421142578125e+01 4.703329563140869141e+00 4.900555014610290527e-01 2.102606534957885742e+00 7.777985930442810059e-01 -1.162553429603576660e+00
3.178000000000000000e+03 4.188399505615234375e+01 3.939061641693115234e+00 4.138681292533874512e-01 1.316569685935974121e+00 5.191313624382019043e-01 -6.504299640655517578e-01
3.179000000000000000e+03 4.096232604980468750e+01 3.708985805511474609e+00 3.540019989013671875e-01 1.066367506980895996e+00 4.261108636856079102e-01 -4.767633676528930664e-01
3.180000000000000000e+03 3.517205047607421875e+01 -1.930374336242675781e+01 2.133091837167739868e-01 6.193981766700744629e-01 2.498122155666351318e-01 3.368790820240974426e-02
3.181000000000000000e+03 3.884816360473632812e+01 -1.947884368896484375e+01 3.551824688911437988e-01 1.111556172370910645e+00 4.400216042995452881e-01 4.348256587982177734e-01
3.182000000000000000e+03 6.738761138916015625e+01 -1.492157840728759766e+01 3.323738574981689453e-01 8.030793190002441406e+00 2.508950233459472656e+00 -1.027516961097717285e+00
3.183000000000000000e+03 6.944399261474609375e+01 -1.454864978790283203e+01 3.098919987678527832e-01 7.726523876190185547e+00 2.410924911499023438e+00 -9.393256306648254395e-01
3.184000000000000000e+03 6.860653686523437500e+01 -6.435661792755126953e+00 1.153124094009399414e+00 7.524332046508789062e+00 2.603236913681030273e+00 -3.673274302855134010e-03
3.185000000000000000e+03 6.596348571777343750e+01 -3.093852043151855469e+00 1.393757343292236328e+00 8.021669387817382812e+00 2.824627876281738281e+00 7.062659859657287598e-01
3.186000000000000000e+03 6.693806457519531250e+01 -4.275660991668701172e+00 1.329164743423461914e+00 7.804031848907470703e+00 2.739959001541137695e+00 4.397703409194946289e-01
3.187000000000000000e+03 4.688040924072265625e+01 -1.818824768066406250e+01 3.411793708801269531e-01 3.335141897201538086e+00 1.102896332740783691e+00 1.730687499046325684e+00
3.188000000000000000e+03 4.654528808593750000e+01 -1.696856117248535156e+01 4.319805502891540527e-01 2.948085784912109375e+00 1.014019846916198730e+00 1.744422078132629395e+00
3.189000000000000000e+03 4.944625854492187500e+01 -1.507651901245117188e+01 2.905518412590026855e-01 4.676698684692382812e+00 1.490175127983093262e+00 2.508948326110839844e+00
3.190000000000000000e+03 4.735193634033203125e+01 -1.580231285095214844e+01 4.593917131423950195e-01 3.149253845214843750e+00 1.082593679428100586e+00 1.979087829589843750e+00
3.191000000000000000e+03 6.671875762939453125e+01 -1.022868537902832031e+01 1.172856688499450684e+00 7.939700603485107422e+00 2.733767271041870117e+00 -7.268927693367004395e-01
3.192000000000000000e+03 2.907525634765625000e+01 3.120595932006835938e+00 -2.448721677064895630e-01 1.987351477146148682e-02 -6.749959290027618408e-02 5.886433124542236328e-01
3.193000000000000000e+03 3.077158546447753906e+01 9.732246398925781250e+00 -4.645049571990966797e-02 4.445493817329406738e-01 1.194296702742576599e-01 2.820447385311126709e-01
3.194000000000000000e+03 6.512470245361328125e+01 -1.942346763610839844e+01 -3.124439120292663574e-01 8.280325889587402344e+00 2.390364646911621094e+00 -8.513276576995849609e-01
3.195000000000000000e+03 6.618400573730468750e+01 -1.974164962768554688e+01 -2.763202786445617676e-01 8.172983169555664062e+00 2.368998765945434570e+00 -8.849051594734191895e-01
3.196000000000000000e+03 6.830364990234375000e+01 -1.494922924041748047e+01 3.100067079067230225e-01 7.914740085601806641e+00 2.467424154281616211e+00 -9.990258216857910156e-01
3.197000000000000000e+03 4.488110351562500000e+01 -1.790358924865722656e+01 4.574838578701019287e-01 2.402829885482788086e+00 8.580940961837768555e-01 1.415713548660278320e+00
3.198000000000000000e+03 3.123939704895019531e+01 7.402424812316894531e+00 -6.013219803571701050e-02 3.640723526477813721e-01 9.118204563856124878e-02 3.620370030403137207e-01
3.199000000000000000e+03 6.653147888183593750e+01 8.433142662048339844e+00 -3.417457938194274902e-01 8.097120285034179688e+00 2.326612234115600586e+00 8.505119681358337402e-01
3.200000000000000000e+03 6.560177612304687500e+01 -2.938446700572967529e-01 8.643442988395690918e-01 8.267265319824218750e+00 2.739482879638671875e+00 1.036993145942687988e+00
3.201000000000000000e+03 6.813619995117187500e+01 -8.819120407104492188e+00 1.131474494934082031e+00 7.638848781585693359e+00 2.631096839904785156e+00 -4.317881166934967041e-01
3.202000000000000000e+03 6.623261260986328125e+01 -9.637452125549316406e+00 1.346879243850708008e+00 7.989883899688720703e+00 2.801028966903686523e+00 -6.731919050216674805e-01
3.203000000000000000e+03 6.546745300292968750e+01 6.016212105751037598e-01 6.617223620414733887e-01 8.331061363220214844e+00 2.697834968566894531e+00 1.083459258079528809e+00
3.204000000000000000e+03 6.540266418457031250e+01 -1.985025882720947266e+00 1.267944455146789551e+00 8.205242156982421875e+00 2.841955900192260742e+00 9.017069339752197266e-01
3.205000000000000000e+03 6.558763122558593750e+01 4.157817363739013672e+00 1.483406592160463333e-02 8.338723182678222656e+00 2.506067276000976562e+00 1.033578038215637207e+00
3.206000000000000000e+03 6.520206451416015625e+01 1.552791714668273926e+00 4.604357481002807617e-01 8.398599624633789062e+00 2.657710552215576172e+00 1.094904065132141113e+00
3.207000000000000000e+03 6.814151763916015625e+01 -1.085812664031982422e+01 8.986299037933349609e-01 7.735790252685546875e+00 2.590326070785522461e+00 -7.369937896728515625e-01
3.208000000000000000e+03 2.659652900695800781e+01 -2.029199790954589844e+01 -5.252857506275177002e-02 1.203889474272727966e-01 2.035811170935630798e-02 -3.778924345970153809e-01
3.209000000000000000e+03 3.119146537780761719e+01 -1.985531616210937500e+01 8.309838920831680298e-02 3.353339433670043945e-01 1.255297064781188965e-01 -2.377869635820388794e-01
3.210000000000000000e+03 3.857487106323242188e+01 4.116569519042968750e+00 2.137079834938049316e-01 7.860010266304016113e-01 2.999126911163330078e-01 -1.311866492033004761e-01
3.211000000000000000e+03 6.748838806152343750e+01 -8.131720542907714844e+00 1.306193351745605469e+00 7.701292991638183594e+00 2.702245950698852539e+00 -3.389126062393188477e-01
3.212000000000000000e+03 6.904927062988281250e+01 -8.320496559143066406e+00 1.026656866073608398e+00 7.498762130737304688e+00 2.557625770568847656e+00 -3.165485560894012451e-01
3.213000000000000000e+03 3.032781791687011719e+01 1.276858139038085938e+01 -7.917097955942153931e-02 5.507864952087402344e-01 1.414846628904342651e-01 1.659498363733291626e-01
3.214000000000000000e+03 6.286031723022460938e+01 -2.726203536987304688e+01 -6.312115192413330078e-01 7.613861083984375000e+00 2.094794750213623047e+00 -2.348159551620483398e-01
3.215000000000000000e+03 6.476593017578125000e+01 -2.453747177124023438e+01 -5.510063171386718750e-01 7.904254913330078125e+00 2.205974578857421875e+00 -5.227965712547302246e-01
3.216000000000000000e+03 2.966503715515136719e+01 5.938500881195068359e+00 -1.572310030460357666e-01 1.499592065811157227e-01 -2.181536518037319183e-03 5.073593258857727051e-01
3.217000000000000000e+03 2.926895332336425781e+01 4.191134452819824219e+00 -2.071826905012130737e-01 5.471028760075569153e-02 -4.574172198772430420e-02 5.691742897033691406e-01
3.218000000000000000e+03 6.479741668701171875e+01 1.326891040802001953e+01 -5.379621982574462891e-01 7.833172798156738281e+00 2.188563108444213867e+00 4.956000745296478271e-01
3.219000000000000000e+03 4.386668014526367188e+01 -2.071859169006347656e+01 4.006791710853576660e-01 2.480828523635864258e+00 8.644523024559020996e-01 1.157688498497009277e+00
3.220000000000000000e+03 4.305952835083007812e+01 -1.793312454223632812e+01 4.622024595737457275e-01 1.789041876792907715e+00 6.753733158111572266e-01 1.084906458854675293e+00
3.221000000000000000e+03 2.687174606323242188e+01 -2.247799873352050781e+01 1.178754493594169617e-01 1.863381862640380859e-01 9.126409143209457397e-02 -3.011054098606109619e-01
3.222000000000000000e+03 6.784683227539062500e+01 9.609813690185546875e+00 -3.194141685962677002e-01 7.989881992340087891e+00 2.301140308380126953e+00 8.378539085388183594e-01
3.223000000000000000e+03 6.546384429931640625e+01 1.458387374877929688e+01 -4.978832006454467773e-01 7.767471790313720703e+00 2.180876493453979492e+00 4.767942726612091064e-01
3.224000000000000000e+03 6.561060333251953125e+01 2.236475181579589844e+01 -3.505084812641143799e-01 7.406858921051025391e+00 2.116905212402343750e+00 2.271271646022796631e-01
3.225000000000000000e+03 3.089571380615234375e+01 1.535085296630859375e+01 3.202993795275688171e-02 7.877638936042785645e-01 2.459381520748138428e-01 1.073371968232095242e-03
3.226000000000000000e+03 5.311695098876953125e+01 -1.059519481658935547e+01 -5.320027004927396774e-03 1.110242462158203125e+01 3.329131364822387695e+00 3.417153358459472656e+00
3.227000000000000000e+03 5.220999526977539062e+01 -1.335047841072082520e+00 2.878144383430480957e-01 8.443352699279785156e+00 2.619350194931030273e+00 -3.624752044677734375e+00
3.228000000000000000e+03 5.244575119018554688e+01 -2.157325029373168945e+00 4.034376442432403564e-01 9.415640830993652344e+00 2.945723772048950195e+00 -3.916605949401855469e+00
3.229000000000000000e+03 5.140537261962890625e+01 -1.633686661720275879e+00 7.982953190803527832e-01 6.736094474792480469e+00 2.260317087173461914e+00 -3.870416402816772461e+00
3.230000000000000000e+03 5.129901123046875000e+01 -1.185517191886901855e+00 6.700638532638549805e-01 6.557693958282470703e+00 2.168327331542968750e+00 -3.668678998947143555e+00
3.231000000000000000e+03 5.698818206787109375e+01 -6.648433685302734375e+00 6.162152767181396484e+00 1.155267047882080078e+01 5.314446926116943359e+00 -3.228691518306732178e-01
3.232000000000000000e+03 5.380826187133789062e+01 -1.082077598571777344e+01 -2.330955862998962402e-01 1.182906436920166016e+01 3.478790521621704102e+00 2.387554645538330078e+00
3.233000000000000000e+03 5.355009078979492188e+01 -1.046804523468017578e+01 -1.105803400278091431e-01 1.210661125183105469e+01 3.598809242248535156e+00 2.794208765029907227e+00
3.234000000000000000e+03 5.469375228881835938e+01 -2.204871892929077148e+00 5.359021946787834167e-02 1.298814392089843750e+01 3.912520170211791992e+00 -1.013123512268066406e+00
3.235000000000000000e+03 5.641256332397460938e+01 -3.795873641967773438e+00 2.979073286056518555e+00 1.296745204925537109e+01 4.783957481384277344e+00 1.584262251853942871e+00
3.236000000000000000e+03 5.548432159423828125e+01 -9.638684272766113281e+00 1.258561372756958008e+00 1.390811538696289062e+01 4.550003051757812500e+00 -5.913026332855224609e-01
3.237000000000000000e+03 5.576129913330078125e+01 -9.520986557006835938e+00 1.674471974372863770e+00 1.373633861541748047e+01 4.623243331909179688e+00 -9.735478162765502930e-01
3.238000000000000000e+03 5.671143341064453125e+01 -5.139077186584472656e+00 5.476856231689453125e+00 1.227066230773925781e+01 5.324255466461181641e+00 1.436319231986999512e+00
3.239000000000000000e+03 5.501247024536132812e+01 -2.945040941238403320e+00 6.855833530426025391e-01 1.399624252319335938e+01 4.404547691345214844e+00 -2.034287303686141968e-01
3.240000000000000000e+03 5.670509338378906250e+01 -8.019286155700683594e+00 4.771588802337646484e+00 1.239591979980468750e+01 5.150252819061279297e+00 -1.611179351806640625e+00
3.241000000000000000e+03 5.239990997314453125e+01 -1.177900600433349609e+01 1.367942430078983307e-02 8.695948600769042969e+00 2.612888574600219727e+00 3.377290248870849609e+00
3.242000000000000000e+03 5.619827270507812500e+01 -3.568512916564941406e+00 2.443017959594726562e+00 1.326746654510498047e+01 4.713145256042480469e+00 1.386461734771728516e+00
3.243000000000000000e+03 5.695973587036132812e+01 -4.826941490173339844e+00 4.780266284942626953e+00 1.204364204406738281e+01 5.047172546386718750e+00 1.508022785186767578e+00
3.244000000000000000e+03 5.669420623779296875e+01 -4.677206993103027344e+00 4.550955772399902344e+00 1.244364452362060547e+01 5.098380088806152344e+00 1.621093273162841797e+00
3.245000000000000000e+03 5.154970550537109375e+01 -2.044207096099853516e+00 9.065096378326416016e-01 6.925926685333251953e+00 2.349730968475341797e+00 -4.087251186370849609e+00
3.246000000000000000e+03 5.208049392700195312e+01 -1.156294536590576172e+01 2.312916219234466553e-01 8.185423851013183594e+00 2.525014638900756836e+00 3.694526910781860352e+00
3.247000000000000000e+03 5.402005386352539062e+01 -1.142604827880859375e+01 -3.765548765659332275e-01 1.145101451873779297e+01 3.322337865829467773e+00 2.059064865112304688e+00
3.248000000000000000e+03 5.042848968505859375e+01 -6.671195030212402344e-01 7.814087271690368652e-01 5.166965484619140625e+00 1.784512281417846680e+00 -3.288218736648559570e+00
3.249000000000000000e+03 5.019821166992187500e+01 -1.280708599090576172e+01 5.422382950782775879e-01 4.987519264221191406e+00 1.658927202224731445e+00 3.090321540832519531e+00
3.250000000000000000e+03 5.049505615234375000e+01 -7.739145308732986450e-02 6.035061478614807129e-01 5.409344673156738281e+00 1.803855180740356445e+00 -3.139392375946044922e+00
3.251000000000000000e+03 4.967667007446289062e+01 1.278652310371398926e+00 4.934197962284088135e-01 4.708413124084472656e+00 1.560549974441528320e+00 -2.678415775299072266e+00
3.252000000000000000e+03 4.928070068359375000e+01 2.883607149124145508e+00 3.352180421352386475e-01 4.571506023406982422e+00 1.472017168998718262e+00 -2.323034048080444336e+00
3.253000000000000000e+03 4.985740280151367188e+01 -1.264161205291748047e+01 6.532797813415527344e-01 4.561356067657470703e+00 1.564390778541564941e+00 3.061179876327514648e+00
3.254000000000000000e+03 5.057649612426757812e+01 5.063953995704650879e-01 4.485226273536682129e-01 5.590332508087158203e+00 1.811656594276428223e+00 -3.000442028045654297e+00
3.255000000000000000e+03 5.017515945434570312e+01 1.153833746910095215e+00 4.200746119022369385e-01 5.199335098266601562e+00 1.685822963714599609e+00 -2.798910856246948242e+00
3.256000000000000000e+03 4.950727081298828125e+01 -1.405734729766845703e+01 4.325564801692962646e-01 4.492247104644775391e+00 1.477441072463989258e+00 2.689633131027221680e+00
3.257000000000000000e+03 4.750487136840820312e+01 -1.672213554382324219e+01 3.788359761238098145e-01 3.477299690246582031e+00 1.156840682029724121e+00 1.960557222366333008e+00
3.258000000000000000e+03 4.947624206542968750e+01 -1.659784126281738281e+01 1.352497190237045288e-01 4.906735420227050781e+00 1.512595534324645996e+00 2.258834600448608398e+00
3.259000000000000000e+03 4.737525177001953125e+01 2.527411699295043945e+00 6.015523672103881836e-01 3.132924556732177734e+00 1.120343089103698730e+00 -1.984960198402404785e+00
3.260000000000000000e+03 4.517816162109375000e+01 5.666587352752685547e+00 4.373620152473449707e-01 2.637790679931640625e+00 9.225457906723022461e-01 -1.323385834693908691e+00
3.261000000000000000e+03 4.569944000244140625e+01 6.171017169952392578e+00 3.812958896160125732e-01 3.028173208236694336e+00 1.022840738296508789e+00 -1.405264019966125488e+00
3.262000000000000000e+03 4.397361373901367188e+01 5.563089847564697266e+00 4.734071195125579834e-01 2.249172925949096680e+00 8.167740106582641602e-01 -1.141464591026306152e+00
3.263000000000000000e+03 4.311794281005859375e+01 5.437287807464599609e+00 4.599074125289916992e-01 1.967389941215515137e+00 7.281892299652099609e-01 -9.653320312500000000e-01
3.264000000000000000e+03 4.885210800170898438e+01 3.366997480392456055e+00 3.417834937572479248e-01 4.335726261138916016e+00 1.403252840042114258e+00 -2.195946455001831055e+00
3.265000000000000000e+03 3.573040390014648438e+01 5.029826164245605469e+00 9.831842035055160522e-02 5.565448403358459473e-01 1.964589804410934448e-01 1.439578533172607422e-01
3.266000000000000000e+03 4.784366226196289062e+01 -1.769606208801269531e+01 2.792989611625671387e-01 3.820062160491943359e+00 1.229808330535888672e+00 1.921546220779418945e+00
3.267000000000000000e+03 4.161425399780273438e+01 4.809213161468505859e+00 4.072528481483459473e-01 1.407684803009033203e+00 5.444812774658203125e-01 -6.482707858085632324e-01
3.268000000000000000e+03 6.681401824951171875e+01 -1.157602024078369141e+01 9.448995590209960938e-01 7.982159137725830078e+00 2.678117513656616211e+00 -8.774052262306213379e-01
3.269000000000000000e+03 6.843152618408203125e+01 -1.173338031768798828e+01 7.543570399284362793e-01 7.734523773193359375e+00 2.546664237976074219e+00 -8.019994497299194336e-01
3.270000000000000000e+03 4.194645309448242188e+01 6.585908412933349609e+00 4.029011726379394531e-01 1.789959073066711426e+00 6.578580737113952637e-01 -7.637597322463989258e-01
3.271000000000000000e+03 4.235102844238281250e+01 5.085278034210205078e+00 4.476629793643951416e-01 1.681531786918640137e+00 6.387584209442138672e-01 -8.073769211769104004e-01
3.272000000000000000e+03 3.214677810668945312e+01 6.168526172637939453e+00 -4.221373796463012695e-02 3.709710240364074707e-01 9.862718731164932251e-02 3.668765723705291748e-01
3.273000000000000000e+03 3.098441505432128906e+01 3.157661199569702148e+00 -2.146437019109725952e-01 1.288919597864151001e-01 -2.572552487254142761e-02 5.320687294006347656e-01
3.274000000000000000e+03 3.005648994445800781e+01 4.749527454376220703e+00 -1.701862663030624390e-01 1.314941942691802979e-01 -1.160762179642915726e-02 5.296511650085449219e-01
3.275000000000000000e+03 2.979686737060546875e+01 3.526936531066894531e+00 -2.227071225643157959e-01 6.916769593954086304e-02 -4.606182873249053955e-02 5.688677430152893066e-01
3.276000000000000000e+03 6.712168121337890625e+01 -1.394598579406738281e+01 4.912881553173065186e-01 8.053389549255371094e+00 2.563403367996215820e+00 -1.016015052795410156e+00
3.277000000000000000e+03 6.749847412109375000e+01 -5.817375659942626953e+00 1.352282285690307617e+00 7.681195735931396484e+00 2.710043430328369141e+00 1.187352612614631653e-01
3.278000000000000000e+03 6.662725067138671875e+01 -3.619402170181274414e+00 1.355804324150085449e+00 7.877541542053222656e+00 2.770003795623779297e+00 5.670984387397766113e-01
3.279000000000000000e+03 6.683108520507812500e+01 -8.938223838806152344e+00 1.336710453033447266e+00 7.838999271392822266e+00 2.752712965011596680e+00 -5.160450935363769531e-01
3.280000000000000000e+03 6.557267761230468750e+01 -1.158189892768859863e+00 1.053961992263793945e+00 8.223599433898925781e+00 2.783268451690673828e+00 9.739713072776794434e-01
3.281000000000000000e+03 6.834128570556640625e+01 -5.802544116973876953e+00 1.195100426673889160e+00 7.563605308532714844e+00 2.627611637115478516e+00 1.108804494142532349e-01
3.282000000000000000e+03 6.457283020019531250e+01 -1.779576873779296875e+01 -1.771021634340286255e-01 8.433190345764160156e+00 2.476826429367065430e+00 -9.213821887969970703e-01
3.283000000000000000e+03 6.515556335449218750e+01 5.543539047241210938e+00 -1.903571039438247681e-01 8.340244293212890625e+00 2.444966316223144531e+00 9.412648677825927734e-01
3.284000000000000000e+03 3.631641006469726562e+01 -1.981306457519531250e+01 2.754946351051330566e-01 7.683432102203369141e-01 3.131513595581054688e-01 1.536103636026382446e-01
3.285000000000000000e+03 6.649637603759765625e+01 -1.473784160614013672e+01 3.842282593250274658e-01 8.192558288574218750e+00 2.573035955429077148e+00 -1.058196663856506348e+00
3.286000000000000000e+03 3.155656623840332031e+01 8.355187416076660156e+00 -1.986994780600070953e-02 4.456412494182586670e-01 1.277313828468322754e-01 3.010353147983551025e-01
3.287000000000000000e+03 4.187589645385742188e+01 -1.883683013916015625e+01 4.458097815513610840e-01 1.605867981910705566e+00 6.155033707618713379e-01 8.781731128692626953e-01
3.288000000000000000e+03 4.279121780395507812e+01 -1.996225547790527344e+01 4.410195052623748779e-01 2.018288612365722656e+00 7.377924323081970215e-01 1.020695090293884277e+00
3.289000000000000000e+03 3.097236251831054688e+01 6.472149372100830078e+00 -8.557304739952087402e-02 2.836710810661315918e-01 5.942941084504127502e-02 4.182057678699493408e-01
3.290000000000000000e+03 3.109441757202148438e+01 1.227775669097900391e+01 -1.816810667514801025e-02 6.501360535621643066e-01 1.895903795957565308e-01 1.402951627969741821e-01
3.291000000000000000e+03 3.686215972900390625e+01 6.094396591186523438e+00 1.935380697250366211e-01 8.048709630966186523e-01 2.995227277278900146e-01 -3.933938965201377869e-02
3.292000000000000000e+03 6.404666900634765625e+01 1.039923191070556641e+01 -5.505365133285522461e-01 8.040781974792480469e+00 2.247073650360107422e+00 5.735061168670654297e-01
3.293000000000000000e+03 6.258046722412109375e+01 1.080468177795410156e+01 -6.319963335990905762e-01 7.982233047485351562e+00 2.205070972442626953e+00 4.104432463645935059e-01
3.294000000000000000e+03 6.651136016845703125e+01 -1.839389228820800781e+01 -1.421777456998825073e-01 8.180356025695800781e+00 2.411453485488891602e+00 -9.605965018272399902e-01
3.295000000000000000e+03 3.607009506225585938e+01 6.073277473449707031e+00 1.376395523548126221e-01 7.214585542678833008e-01 2.577294409275054932e-01 5.769924819469451904e-02
3.296000000000000000e+03 4.041392135620117188e+01 -1.938318634033203125e+01 4.223420023918151855e-01 1.377498269081115723e+00 5.399520993232727051e-01 6.802607774734497070e-01
3.297000000000000000e+03 3.449110412597656250e+01 -2.074049949645996094e+01 2.691340148448944092e-01 6.657847166061401367e-01 2.804756164550781250e-01 1.574121229350566864e-02
3.298000000000000000e+03 3.747845458984375000e+01 -1.975855636596679688e+01 3.138617873191833496e-01 8.917367458343505859e-01 3.616795539855957031e-01 2.694947421550750732e-01
3.299000000000000000e+03 2.975852966308593750e+01 1.350529479980468750e+01 -8.576063066720962524e-02 5.230336785316467285e-01 1.311819106340408325e-01 1.613661944866180420e-01
3.300000000000000000e+03 6.413719177246093750e+01 2.154308509826660156e+01 -3.926762342453002930e-01 7.309271812438964844e+00 2.074978590011596680e+00 1.882565170526504517e-01
3.301000000000000000e+03 6.292665863037109375e+01 2.017515373229980469e+01 -4.493168294429779053e-01 7.236217975616455078e+00 2.036070346832275391e+00 1.668237447738647461e-01
3.302000000000000000e+03 6.375261306762695312e+01 8.899573326110839844e+00 -5.208735466003417969e-01 8.175780296325683594e+00 2.296472072601318359e+00 6.344836950302124023e-01
3.303000000000000000e+03 6.516927337646484375e+01 8.599743843078613281e+00 -4.319510161876678467e-01 8.161459922790527344e+00 2.318852663040161133e+00 7.622644901275634766e-01
3.304000000000000000e+03 6.552696228027343750e+01 -1.813067054748535156e+01 -1.625547260046005249e-01 8.303570747375488281e+00 2.442304849624633789e+00 -9.459254741668701172e-01
3.305000000000000000e+03 6.554980468750000000e+01 -2.716247940063476562e+01 -5.130493640899658203e-01 7.772410392761230469e+00 2.177808284759521484e+00 -4.716806411743164062e-01
3.306000000000000000e+03 6.422834014892578125e+01 1.533504962921142578e+01 -5.305583477020263672e-01 7.657168388366699219e+00 2.137983083724975586e+00 3.738958239555358887e-01
3.307000000000000000e+03 2.814929962158203125e+01 1.575516319274902344e+01 -1.005307659506797791e-01 4.206838905811309814e-01 9.604594111442565918e-02 1.148479804396629333e-01
3.308000000000000000e+03 5.743844604492187500e+01 -7.375679969787597656e+00 5.211425781250000000e+00 1.124687290191650391e+01 4.937489509582519531e+00 -9.562687873840332031e-01
3.309000000000000000e+03 5.717835235595703125e+01 -5.003379821777343750e+00 4.942540645599365234e+00 1.166774463653564453e+01 4.983085632324218750e+00 1.328035354614257812e+00
3.310000000000000000e+03 5.643504714965820312e+01 -8.911165237426757812e+00 3.068013429641723633e+00 1.295424079895019531e+01 4.806676387786865234e+00 -1.597285151481628418e+00
3.311000000000000000e+03 5.565302276611328125e+01 -9.910427093505859375e+00 1.051664113998413086e+00 1.347158241271972656e+01 4.356973648071289062e+00 -5.483223795890808105e-01
3.312000000000000000e+03 5.359194564819335938e+01 -1.970919728279113770e+00 -1.559118181467056274e-01 1.172199344635009766e+01 3.469824314117431641e+00 -2.649559736251831055e+00
3.313000000000000000e+03 5.749359893798828125e+01 -6.104227542877197266e+00 5.590572834014892578e+00 1.103376865386962891e+01 4.987302303314208984e+00 2.901490032672882080e-01
3.314000000000000000e+03 5.658348464965820312e+01 -7.109903335571289062e+00 6.310979366302490234e+00 1.221478271484375000e+01 5.557728767395019531e+00 -9.866851568222045898e-01
3.315000000000000000e+03 5.605843734741210938e+01 -2.771559000015258789e+00 1.303272128105163574e+00 1.301057815551757812e+01 4.294155120849609375e+00 8.401601910591125488e-01
3.316000000000000000e+03 5.721941375732421875e+01 -7.744535923004150391e+00 4.989975452423095703e+00 1.159612846374511719e+01 4.975831031799316406e+00 -1.306704044342041016e+00
3.317000000000000000e+03 5.182201385498046875e+01 -1.504742145538330078e+00 5.278464555740356445e-01 7.674872875213623047e+00 2.460815906524658203e+00 -3.800951719284057617e+00
3.318000000000000000e+03 5.714995574951171875e+01 -3.938505411148071289e+00 3.352902412414550781e+00 1.195651340484619141e+01 4.592824935913085938e+00 1.571783661842346191e+00
3.319000000000000000e+03 5.544222640991210938e+01 -1.028041267395019531e+01 6.193855404853820801e-01 1.324865722656250000e+01 4.160412788391113281e+00 -1.101185008883476257e-01
3.320000000000000000e+03 5.157120513916015625e+01 -6.669701337814331055e-01 3.741544187068939209e-01 7.128574848175048828e+00 2.250818729400634766e+00 -3.452625513076782227e+00
3.321000000000000000e+03 5.401000213623046875e+01 -1.182487010955810547e+00 -3.240710198879241943e-01 1.124192333221435547e+01 3.275355815887451172e+00 -2.053604125976562500e+00
3.322000000000000000e+03 5.380307006835937500e+01 -1.592238068580627441e+00 -2.537618875503540039e-01 1.148521423339843750e+01 3.369435548782348633e+00 -2.324954748153686523e+00
3.323000000000000000e+03 5.409435272216796875e+01 -1.801813960075378418e+00 -2.198839038610458374e-01 1.206129550933837891e+01 3.552423477172851562e+00 -1.960232615470886230e+00
3.324000000000000000e+03 5.439298248291015625e+01 -2.009650707244873047e+00 -1.198570728302001953e-01 1.255702400207519531e+01 3.731150150299072266e+00 -1.513386011123657227e+00
3.325000000000000000e+03 5.087017440795898438e+01 -7.071024775505065918e-01 6.704949140548706055e-01 5.849169731140136719e+00 1.955899477005004883e+00 -3.433004856109619141e+00
3.326000000000000000e+03 5.124862670898437500e+01 -7.392696142196655273e-01 5.455734133720397949e-01 6.426756858825683594e+00 2.091699123382568359e+00 -3.465371131896972656e+00
3.327000000000000000e+03 5.105654144287109375e+01 -1.200581932067871094e+01 5.582558512687683105e-01 6.143081665039062500e+00 2.010401248931884766e+00 3.555325508117675781e+00
3.328000000000000000e+03 5.182183074951171875e+01 -1.197498416900634766e+01 2.359485477209091187e-01 7.548349380493164062e+00 2.335289478302001953e+00 3.530529975891113281e+00
3.329000000000000000e+03 5.064907073974609375e+01 1.070859551429748535e+00 3.234187662601470947e-01 5.731781959533691406e+00 1.816560268402099609e+00 -2.855791807174682617e+00
3.330000000000000000e+03 5.032152557373046875e+01 -1.342185401916503906e+01 3.852565288543701172e-01 5.332931518554687500e+00 1.715456366539001465e+00 2.994548082351684570e+00
3.331000000000000000e+03 5.091089630126953125e+01 -1.322473907470703125e+01 2.839666008949279785e-01 6.004047870635986328e+00 1.886404395103454590e+00 3.098155021667480469e+00
3.332000000000000000e+03 4.834342956542968750e+01 3.977368354797363281e+00 3.393684923648834229e-01 4.062670707702636719e+00 1.320611715316772461e+00 -2.029020071029663086e+00
3.333000000000000000e+03 3.276807022094726562e+01 4.135205268859863281e+00 -1.082651242613792419e-01 2.798204123973846436e-01 5.146658420562744141e-02 4.162042737007141113e-01
3.334000000000000000e+03 4.994464492797851562e+01 -1.461875724792480469e+01 2.519243359565734863e-01 5.069795131683349609e+00 1.596515774726867676e+00 2.666558504104614258e+00
3.335000000000000000e+03 6.454291534423828125e+01 -1.788584232330322266e+00 1.313910007476806641e+00 8.396235466003417969e+00 2.913043737411499023e+00 9.764590263366699219e-01
3.336000000000000000e+03 6.599743652343750000e+01 -4.185774803161621094e+00 1.528050065040588379e+00 7.964042186737060547e+00 2.847627639770507812e+00 4.835644364356994629e-01
3.337000000000000000e+03 4.854458236694335938e+01 -1.724838638305664062e+01 2.260047942399978638e-01 4.189837455749511719e+00 1.324752688407897949e+00 2.071696281433105469e+00
3.338000000000000000e+03 6.477780914306640625e+01 -3.225818574428558350e-01 9.055820107460021973e-01 8.426542282104492188e+00 2.799637317657470703e+00 1.070472478866577148e+00
3.339000000000000000e+03 6.379616165161132812e+01 -1.599092125892639160e+00 1.343421697616577148e+00 8.598073959350585938e+00 2.982448577880859375e+00 1.047028422355651855e+00
3.340000000000000000e+03 6.619620513916015625e+01 -1.581068420410156250e+01 1.953028738498687744e-01 8.251711845397949219e+00 2.534104347229003906e+00 -1.048950910568237305e+00
3.341000000000000000e+03 6.653910827636718750e+01 -1.308418083190917969e+01 6.628141403198242188e-01 8.126230239868164062e+00 2.636713504791259766e+00 -1.011047720909118652e+00
3.342000000000000000e+03 5.031937026977539062e+01 1.709201931953430176e+00 2.855794429779052734e-01 5.431965827941894531e+00 1.715263605117797852e+00 -2.695793390274047852e+00
3.343000000000000000e+03 4.626208496093750000e+01 5.511549472808837891e+00 3.807909190654754639e-01 3.160994291305541992e+00 1.062535524368286133e+00 -1.538637042045593262e+00
3.344000000000000000e+03 4.496520614624023438e+01 6.632141590118408203e+00 3.990254104137420654e-01 2.733255863189697266e+00 9.396843910217285156e-01 -1.275247335433959961e+00
3.345000000000000000e+03 3.434378433227539062e+01 5.333099365234375000e+00 3.215615078806877136e-02 4.782786667346954346e-01 1.531304419040679932e-01 2.488093525171279907e-01
3.346000000000000000e+03 4.690345382690429688e+01 4.954727172851562500e+00 3.905057013034820557e-01 3.366673946380615234e+00 1.127153873443603516e+00 -1.701391458511352539e+00
3.347000000000000000e+03 4.579478454589843750e+01 4.921434402465820312e+00 4.622142910957336426e-01 2.814869165420532227e+00 9.831250309944152832e-01 -1.484225034713745117e+00
3.348000000000000000e+03 3.335095214843750000e+01 5.872451782226562500e+00 2.274595433846116066e-03 4.461934268474578857e-01 1.345404088497161865e-01 2.922405302524566650e-01
3.349000000000000000e+03 3.500426483154296875e+01 4.618940830230712891e+00 3.101869486272335052e-02 4.681951701641082764e-01 1.497641503810882568e-01 2.309711128473281860e-01
3.350000000000000000e+03 4.069202804565429688e+01 4.697507381439208984e+00 3.666266202926635742e-01 1.181609869003295898e+00 4.644709527492523193e-01 -4.888018369674682617e-01
3.351000000000000000e+03 4.056737899780273438e+01 5.832936286926269531e+00 3.740488588809967041e-01 1.364923119544982910e+00 5.216916203498840332e-01 -5.235589742660522461e-01
3.352000000000000000e+03 6.508715820312500000e+01 -8.977293968200683594e+00 1.669450163841247559e+00 8.153639793395996094e+00 2.946926832199096680e+00 -6.164580583572387695e-01
3.353000000000000000e+03 6.717248535156250000e+01 -6.741655349731445312e+00 1.419829964637756348e+00 7.727908134460449219e+00 2.744321346282958984e+00 -7.254113256931304932e-02
3.354000000000000000e+03 5.040834808349609375e+01 -1.563815593719482422e+01 5.237473174929618835e-02 5.544504642486572266e+00 1.679063796997070312e+00 2.492681264877319336e+00
3.355000000000000000e+03 4.875730514526367188e+01 -1.632991981506347656e+01 2.747079730033874512e-01 4.308873653411865234e+00 1.375074505805969238e+00 2.202475070953369141e+00
3.356000000000000000e+03 4.580949020385742188e+01 -1.891488265991210938e+01 3.766346275806427002e-01 2.948393821716308594e+00 9.975085854530334473e-01 1.517366051673889160e+00
3.357000000000000000e+03 6.552960968017578125e+01 -1.147947978973388672e+01 1.077485680580139160e+00 8.232586860656738281e+00 2.793021678924560547e+00 -9.572138190269470215e-01
3.358000000000000000e+03 6.668849945068359375e+01 -7.644050121307373047e+00 1.489560246467590332e+00 7.812740802764892578e+00 2.790690183639526367e+00 -2.604762613773345947e-01
3.359000000000000000e+03 6.556637573242187500e+01 -9.927107810974121094e+00 1.393669247627258301e+00 8.124616622924804688e+00 2.855485677719116211e+00 -7.548189759254455566e-01
3.360000000000000000e+03 4.042663955688476562e+01 -2.122366714477539062e+01 4.433355629444122314e-01 1.608841419219970703e+00 6.156530976295471191e-01 6.937417387962341309e-01
3.361000000000000000e+03 6.542586517333984375e+01 -3.867794990539550781e+00 1.665134191513061523e+00 8.083940505981445312e+00 2.924722433090209961e+00 5.836139917373657227e-01
3.362000000000000000e+03 6.693787384033203125e+01 -4.901015758514404297e+00 1.428639411926269531e+00 7.774080276489257812e+00 2.760815858840942383e+00 3.237560391426086426e-01
3.363000000000000000e+03 6.507843780517578125e+01 -2.784390211105346680e+00 1.468472838401794434e+00 8.217738151550292969e+00 2.905863285064697266e+00 8.075825572013854980e-01
3.364000000000000000e+03 6.593688201904296875e+01 -5.215723991394042969e+00 1.682508349418640137e+00 7.944292545318603516e+00 2.888040304183959961e+00 2.752550542354583740e-01
3.365000000000000000e+03 3.817891693115234375e+01 5.178282737731933594e+00 2.321071177721023560e-01 8.624807596206665039e-01 3.283763527870178223e-01 -1.377121955156326294e-01
3.366000000000000000e+03 3.936710739135742188e+01 5.644488334655761719e+00 3.185275197029113770e-01 1.124924302101135254e+00 4.330355226993560791e-01 -3.387567698955535889e-01
3.367000000000000000e+03 3.667529678344726562e+01 6.905315876007080078e+00 2.324368506669998169e-01 8.929690718650817871e-01 3.376217782497406006e-01 -8.506804704666137695e-02
3.368000000000000000e+03 3.201776885986328125e+01 9.330323219299316406e+00 1.484446134418249130e-02 5.628780722618103027e-01 1.733167469501495361e-01 2.192806750535964966e-01
3.369000000000000000e+03 6.336895370483398438e+01 3.219122409820556641e+00 4.284261167049407959e-02 8.707612991333007812e+00 2.625136613845825195e+00 9.962423443794250488e-01
3.370000000000000000e+03 6.457599639892578125e+01 3.728457391262054443e-01 7.408890724182128906e-01 8.510882377624511719e+00 2.775531530380249023e+00 1.111147522926330566e+00
3.371000000000000000e+03 3.511625671386718750e+01 8.103401184082031250e+00 1.574770659208297729e-01 7.992025017738342285e-01 2.870038747787475586e-01 2.958350442349910736e-02
3.372000000000000000e+03 3.253479385375976562e+01 1.032988357543945312e+01 3.315182402729988098e-02 6.905477046966552734e-01 2.171098589897155762e-01 1.384525746107101440e-01
3.373000000000000000e+03 6.410550689697265625e+01 -1.901849746704101562e+01 -3.436130285263061523e-01 8.401237487792968750e+00 2.417287349700927734e+00 -8.077595829963684082e-01
3.374000000000000000e+03 6.496584320068359375e+01 -1.665024375915527344e+01 1.020715292543172836e-02 8.429871559143066406e+00 2.532023668289184570e+00 -1.002099871635437012e+00
3.375000000000000000e+03 6.498886871337890625e+01 7.069923400878906250e+00 -3.397822976112365723e-01 8.275238990783691406e+00 2.380637168884277344e+00 8.474875688552856445e-01
3.376000000000000000e+03 3.323139190673828125e+01 -1.983638191223144531e+01 1.712965965270996094e-01 4.698115587234497070e-01 1.923324465751647949e-01 -1.091761291027069092e-01
3.377000000000000000e+03 3.026331520080566406e+01 -1.874091339111328125e+01 -4.403968527913093567e-02 2.168471813201904297e-01 5.184224992990493774e-02 -3.284482657909393311e-01
3.378000000000000000e+03 2.989671897888183594e+01 1.841620445251464844e+01 4.000582918524742126e-02 7.512528896331787109e-01 2.373776137828826904e-01 -5.016465857625007629e-02
3.379000000000000000e+03 6.354067993164062500e+01 -2.032865333557128906e+01 -4.851470589637756348e-01 8.320326805114746094e+00 2.350553989410400391e+00 -6.645876765251159668e-01
3.380000000000000000e+03 6.404393768310546875e+01 -2.233660125732421875e+01 -5.447388887405395508e-01 8.103290557861328125e+00 2.267565488815307617e+00 -5.819197893142700195e-01
3.381000000000000000e+03 6.261748123168945312e+01 -2.560120582580566406e+01 -6.490398049354553223e-01 7.740340709686279297e+00 2.127390384674072266e+00 -2.723352611064910889e-01
3.382000000000000000e+03 6.335711288452148438e+01 -2.390972137451171875e+01 -6.191623210906982422e-01 7.948779106140136719e+00 2.198884963989257812e+00 -4.224720597267150879e-01
3.383000000000000000e+03 6.406486511230468750e+01 -2.614434242248535156e+01 -5.746613740921020508e-01 7.769736289978027344e+00 2.158522367477416992e+00 -4.091144800186157227e-01
3.384000000000000000e+03 6.587029266357421875e+01 -1.693067550659179688e+01 4.470987245440483093e-03 8.289117813110351562e+00 2.488076448440551758e+00 -1.009618997573852539e+00
3.385000000000000000e+03 6.199168395996093750e+01 1.856953048706054688e+01 -5.107104182243347168e-01 7.219214439392089844e+00 2.012551307678222656e+00 1.295688450336456299e-01
3.386000000000000000e+03 6.298778533935546875e+01 1.234664154052734375e+01 -6.192334890365600586e-01 7.840158462524414062e+00 2.166277408599853516e+00 3.817477822303771973e-01
3.387000000000000000e+03 6.217900085449218750e+01 1.454838848114013672e+01 -6.096614003181457520e-01 7.560403347015380859e+00 2.085222482681274414e+00 2.339718937873840332e-01
3.388000000000000000e+03 6.153731918334960938e+01 1.293891048431396484e+01 -6.600924134254455566e-01 7.669076919555664062e+00 2.102695226669311523e+00 2.076199799776077271e-01
3.389000000000000000e+03 6.169991683959960938e+01 6.636859893798828125e+00 -5.513621568679809570e-01 8.522696495056152344e+00 2.391400098800659180e+00 5.198087096214294434e-01
3.390000000000000000e+03 3.081003952026367188e+01 -2.217644882202148438e+01 2.219730764627456665e-01 4.186074137687683105e-01 1.921741515398025513e-01 -1.782356202602386475e-01
3.391000000000000000e+03 6.077338790893554688e+01 1.524859905242919922e+01 -6.230807900428771973e-01 7.362828254699707031e+00 2.021924257278442383e+00 8.906628191471099854e-02
3.392000000000000000e+03 6.282703018188476562e+01 1.610982704162597656e+01 -5.538138747215270996e-01 7.489659786224365234e+00 2.080753803253173828e+00 2.496703714132308960e-01
3.393000000000000000e+03 5.319139480590820312e+01 -1.174328327178955078e+00 -1.650599390268325806e-01 1.016285991668701172e+01 2.999340057373046875e+00 -2.920705795288085938e+00
3.394000000000000000e+03 5.346406173706054688e+01 -1.077799892425537109e+01 -1.914470940828323364e-01 1.150593090057373047e+01 3.394345045089721680e+00 2.829232931137084961e+00
3.395000000000000000e+03 5.242419052124023438e+01 -1.689962029457092285e+00 2.974036633968353271e-01 8.992211341857910156e+00 2.786884546279907227e+00 -3.679066658020019531e+00
3.396000000000000000e+03 5.204608535766601562e+01 -9.166205525398254395e-01 2.597522735595703125e-01 7.975916862487792969e+00 2.470700740814208984e+00 -3.483229160308837891e+00
3.397000000000000000e+03 5.370535659790039062e+01 -9.949960112571716309e-01 -3.217946588993072510e-01 1.069653224945068359e+01 3.112421512603759766e+00 -2.359538793563842773e+00
3.398000000000000000e+03 5.494071960449218750e+01 -1.139289474487304688e+01 -2.428860366344451904e-01 1.205211162567138672e+01 3.542767524719238281e+00 1.002864837646484375e+00
3.399000000000000000e+03 5.666977310180664062e+01 -8.555770874023437500e+00 3.806143045425415039e+00 1.265939426422119141e+01 4.939661026000976562e+00 -1.695237755775451660e+00
3.400000000000000000e+03 5.754711532592773438e+01 -7.648446083068847656e+00 4.862199306488037109e+00 1.119748020172119141e+01 4.817903518676757812e+00 -1.124362349510192871e+00
3.401000000000000000e+03 5.729594421386718750e+01 -4.586292743682861328e+00 4.293697357177734375e+00 1.167954349517822266e+01 4.791972160339355469e+00 1.480570435523986816e+00
3.402000000000000000e+03 5.525271224975585938e+01 -1.992433071136474609e+00 1.662108749151229858e-01 1.274344253540039062e+01 3.872895956039428711e+00 -4.258754253387451172e-01
3.403000000000000000e+03 5.489586257934570312e+01 -1.082035160064697266e+01 -6.168137118220329285e-02 1.269258117675781250e+01 3.789269924163818359e+00 8.739852309226989746e-01
3.404000000000000000e+03 5.634188842773437500e+01 -3.000520467758178711e+00 1.739363551139831543e+00 1.283556461334228516e+01 4.372478485107421875e+00 1.139232277870178223e+00
3.405000000000000000e+03 5.671702194213867188e+01 -3.520954132080078125e+00 2.687537431716918945e+00 1.256083774566650391e+01 4.574512481689453125e+00 1.519471645355224609e+00
3.406000000000000000e+03 5.683985519409179688e+01 -4.334572792053222656e+00 4.035724639892578125e+00 1.233176422119140625e+01 4.910246372222900391e+00 1.623079180717468262e+00
3.407000000000000000e+03 5.732591629028320312e+01 -7.121103763580322266e+00 5.537080287933349609e+00 1.128236675262451172e+01 5.045834064483642578e+00 -7.610553503036499023e-01
3.408000000000000000e+03 5.771845245361328125e+01 -5.430741786956787109e+00 5.019362926483154297e+00 1.095060634613037109e+01 4.790990829467773438e+00 8.591898083686828613e-01
3.409000000000000000e+03 5.792149353027343750e+01 -3.999037027359008789e+00 3.379355907440185547e+00 1.112186241149902344e+01 4.350365638732910156e+00 1.438495397567749023e+00
3.410000000000000000e+03 5.239874649047851562e+01 -1.134660339355468750e+01 1.289379894733428955e-01 8.944958686828613281e+00 2.722168922424316406e+00 3.612904071807861328e+00
3.411000000000000000e+03 5.599087905883789062e+01 -9.375413894653320312e+00 2.062532424926757812e+00 1.352184963226318359e+01 4.675314426422119141e+00 -1.205870032310485840e+00
3.412000000000000000e+03 5.287673187255859375e+01 -1.783342361450195312e+00 7.696792483329772949e-02 1.012313365936279297e+01 3.060030460357666016e+00 -3.453493356704711914e+00
3.413000000000000000e+03 5.303001785278320312e+01 -1.514168858528137207e+00 -5.676747485995292664e-02 1.014765930175781250e+01 3.027267694473266602e+00 -3.168192386627197266e+00
3.414000000000000000e+03 5.278183746337890625e+01 -1.187166118621826172e+01 -1.481281071901321411e-01 9.202275276184082031e+00 2.716243982315063477e+00 3.123368501663208008e+00
3.415000000000000000e+03 5.118166732788085938e+01 -1.279549789428710938e+01 2.714496254920959473e-01 6.397222995758056641e+00 2.000601768493652344e+00 3.268291234970092773e+00
3.416000000000000000e+03 5.151249694824218750e+01 -1.240359592437744141e+01 2.413451373577117920e-01 7.024303436279296875e+00 2.179694652557373047e+00 3.393424272537231445e+00
3.417000000000000000e+03 5.523056793212890625e+01 -1.069635963439941406e+01 1.426026970148086548e-01 1.285972785949707031e+01 3.900699138641357422e+00 4.088971018791198730e-01
3.418000000000000000e+03 5.578640365600585938e+01 -1.019749355316162109e+01 8.883668780326843262e-01 1.311709976196289062e+01 4.201640129089355469e+00 -4.809661209583282471e-01
3.419000000000000000e+03 5.159689712524414062e+01 1.093967080116271973e+00 3.746714070439338684e-02 6.856180191040039062e+00 2.068094253540039062e+00 -2.802146673202514648e+00
3.420000000000000000e+03 5.108016586303710938e+01 4.542847275733947754e-01 3.099156916141510010e-01 6.275062561035156250e+00 1.975493431091308594e+00 -3.042976617813110352e+00
3.421000000000000000e+03 5.097515106201171875e+01 -1.481092572212219238e-01 4.688420295715332031e-01 6.117647171020507812e+00 1.975946784019470215e+00 -3.232794523239135742e+00
3.422000000000000000e+03 4.964473724365234375e+01 2.516880035400390625e+00 3.121693432331085205e-01 4.842047214508056641e+00 1.546265006065368652e+00 -2.436609268188476562e+00
3.423000000000000000e+03 4.995508193969726562e+01 -1.327150726318359375e+01 4.789136350154876709e-01 4.802801132202148438e+00 1.584514379501342773e+00 2.908851146697998047e+00
3.424000000000000000e+03 3.180736923217773438e+01 5.192600727081298828e+00 -9.400887787342071533e-02 2.761803865432739258e-01 5.465145036578178406e-02 4.324001371860504150e-01
3.425000000000000000e+03 3.244776535034179688e+01 7.121914863586425781e+00 -4.778144415467977524e-03 4.461500942707061768e-01 1.324115842580795288e-01 3.044265806674957275e-01
3.426000000000000000e+03 4.980707168579101562e+01 -1.575243091583251953e+01 1.506072878837585449e-01 5.071436405181884766e+00 1.566613078117370605e+00 2.440739154815673828e+00
3.427000000000000000e+03 6.425797271728515625e+01 -2.515556812286376953e+00 1.546237707138061523e+00 8.411829948425292969e+00 2.987420320510864258e+00 9.031974077224731445e-01
3.428000000000000000e+03 5.060544967651367188e+01 -1.637939643859863281e+01 -5.690133944153785706e-02 5.686394691467285156e+00 1.688847899436950684e+00 2.318091869354248047e+00
3.429000000000000000e+03 3.741154861450195312e+01 7.135262966156005859e+00 2.600033879280090332e-01 9.818652272224426270e-01 3.725605905055999756e-01 -1.503890156745910645e-01
3.430000000000000000e+03 3.378920745849609375e+01 8.058481216430664062e+00 8.689189702272415161e-02 6.757931113243103027e-01 2.288054972887039185e-01 1.508450955152511597e-01
3.431000000000000000e+03 4.766281509399414062e+01 4.517112255096435547e+00 3.601242899894714355e-01 3.726134300231933594e+00 1.225877642631530762e+00 -1.868637561798095703e+00
3.432000000000000000e+03 3.593370437622070312e+01 6.857963562011718750e+00 1.603961735963821411e-01 7.694026231765747070e-01 2.789396345615386963e-01 4.181347042322158813e-02
3.433000000000000000e+03 6.549669647216796875e+01 -1.069694519042968750e+01 1.285248041152954102e+00 8.185337066650390625e+00 2.841175556182861328e+00 -8.674234151840209961e-01
3.434000000000000000e+03 6.566447448730468750e+01 -1.353171539306640625e+01 6.050640940666198730e-01 8.287691116333007812e+00 2.667826652526855469e+00 -1.055847287178039551e+00
3.435000000000000000e+03 4.351514434814453125e+01 8.050661087036132812e+00 3.590381443500518799e-01 2.484614849090576172e+00 8.530958890914916992e-01 -1.019389629364013672e+00
3.436000000000000000e+03 6.666719818115234375e+01 -5.596945285797119141e+00 1.516275286674499512e+00 7.809989452362060547e+00 2.797879457473754883e+00 1.674612015485763550e-01
3.437000000000000000e+03 6.549263763427734375e+01 -8.140328407287597656e+00 1.724570989608764648e+00 8.035120964050292969e+00 2.927907705307006836e+00 -4.123471081256866455e-01
3.438000000000000000e+03 6.485757446289062500e+01 2.602113485336303711e+00 2.480835765600204468e-01 8.472486495971679688e+00 2.616171121597290039e+00 1.084185719490051270e+00
3.439000000000000000e+03 6.619355010986328125e+01 -8.475372314453125000e+00 1.527183294296264648e+00 7.933649063110351562e+00 2.838249683380126953e+00 -4.569818675518035889e-01
3.440000000000000000e+03 4.247507476806640625e+01 7.488861560821533203e+00 3.836880624294281006e-01 2.088812589645385742e+00 7.417502403259277344e-01 -8.652598857879638672e-01
3.441000000000000000e+03 4.721875381469726562e+01 5.582171916961669922e+00 3.213211894035339355e-01 3.600505828857421875e+00 1.176548123359680176e+00 -1.711797952651977539e+00
3.442000000000000000e+03 3.294182205200195312e+01 4.966640472412109375e+00 -5.382801592350006104e-02 3.451291024684906006e-01 8.739032596349716187e-02 3.667532205581665039e-01
3.443000000000000000e+03 4.763608551025390625e+01 -1.932759284973144531e+01 1.912507265806198120e-01 3.904289960861206055e+00 1.228662252426147461e+00 1.699941039085388184e+00
3.444000000000000000e+03 4.850105667114257812e+01 -1.859177589416503906e+01 1.278874278068542480e-01 4.292588710784912109e+00 1.326142787933349609e+00 1.883697628974914551e+00
3.445000000000000000e+03 6.412796783447265625e+01 -9.751868247985839844e+00 1.685792446136474609e+00 8.393491744995117188e+00 3.023785352706909180e+00 -8.311000466346740723e-01
3.446000000000000000e+03 6.540086364746093750e+01 -4.610477447509765625e+00 1.741125345230102539e+00 8.060503959655761719e+00 2.940488815307617188e+00 4.291184246540069580e-01
3.447000000000000000e+03 4.166337585449218750e+01 5.654726982116699219e+00 4.246993362903594971e-01 1.597479104995727539e+00 6.066535711288452148e-01 -7.134374380111694336e-01
3.448000000000000000e+03 6.640446472167968750e+01 -4.644682407379150391e+00 1.490913987159729004e+00 7.887132644653320312e+00 2.813413858413696289e+00 3.981318771839141846e-01
3.449000000000000000e+03 4.291337585449218750e+01 6.488929748535156250e+00 4.203525185585021973e-01 2.068232536315917969e+00 7.465755343437194824e-01 -9.304134845733642578e-01
3.450000000000000000e+03 6.597708129882812500e+01 -1.223700141906738281e+01 8.839510679244995117e-01 8.196992874145507812e+00 2.724282979965209961e+00 -9.957584738731384277e-01
3.451000000000000000e+03 6.313922119140625000e+01 -1.854307174682617188e+01 -3.661211729049682617e-01 8.532320022583007812e+00 2.449859619140625000e+00 -7.570708990097045898e-01
3.452000000000000000e+03 6.251819992065429688e+01 -1.973988342285156250e+01 -5.214170217514038086e-01 8.438241004943847656e+00 2.375047206878662109e+00 -5.909402966499328613e-01
3.453000000000000000e+03 4.664366149902343750e+01 -2.012066459655761719e+01 2.557202279567718506e-01 3.508016824722290039e+00 1.129121184349060059e+00 1.536797404289245605e+00
3.454000000000000000e+03 4.478887176513671875e+01 -1.982708358764648438e+01 3.860009610652923584e-01 2.645792007446289062e+00 9.095378518104553223e-01 1.310368895530700684e+00
3.455000000000000000e+03 4.204623794555664062e+01 -2.151263046264648438e+01 4.320152699947357178e-01 2.031460046768188477e+00 7.390425801277160645e-01 8.977887034416198730e-01
3.456000000000000000e+03 4.560560607910156250e+01 -2.093957901000976562e+01 3.108310997486114502e-01 3.142591476440429688e+00 1.036026835441589355e+00 1.369927048683166504e+00
3.457000000000000000e+03 5.003599929809570312e+01 2.339997529983520508e+00 2.544746696949005127e-01 5.188969612121582031e+00 1.633033275604248047e+00 -2.499090433120727539e+00
3.458000000000000000e+03 6.471057128906250000e+01 -1.052311897277832031e+00 1.099049806594848633e+00 8.402504920959472656e+00 2.850466251373291016e+00 1.036555051803588867e+00
3.459000000000000000e+03 6.442036437988281250e+01 3.752642631530761719e+00 1.658479683101177216e-02 8.510156631469726562e+00 2.558022499084472656e+00 1.018588542938232422e+00
3.460000000000000000e+03 6.286291885375976562e+01 -2.172134399414062500e+01 -5.977707505226135254e-01 8.188551902770996094e+00 2.277234315872192383e+00 -4.950906336307525635e-01
3.461000000000000000e+03 6.384056472778320312e+01 2.197594642639160156e+00 2.922452986240386963e-01 8.665248870849609375e+00 2.687248468399047852e+00 1.081035017967224121e+00
3.462000000000000000e+03 6.585433959960937500e+01 -7.265490055084228516e+00 1.694124341011047363e+00 7.950757026672363281e+00 2.893464326858520508e+00 -1.897517889738082886e-01
3.463000000000000000e+03 3.268967437744140625e+01 8.047265052795410156e+00 2.208488620817661285e-02 5.237405896186828613e-01 1.637476384639739990e-01 2.436976283788681030e-01
3.464000000000000000e+03 3.599760437011718750e+01 -2.144072723388671875e+01 3.567912876605987549e-01 8.894988298416137695e-01 3.738870322704315186e-01 1.746722906827926636e-01
3.465000000000000000e+03 3.751780319213867188e+01 -2.138895988464355469e+01 3.940800726413726807e-01 1.122946500778198242e+00 4.551079571247100830e-01 3.312364220619201660e-01
3.466000000000000000e+03 3.889385604858398438e+01 -2.112176132202148438e+01 4.305347502231597900e-01 1.314108848571777344e+00 5.233930945396423340e-01 5.106866955757141113e-01
3.467000000000000000e+03 6.365337371826171875e+01 -1.740814781188964844e+01 -1.863765418529510498e-01 8.576270103454589844e+00 2.516968011856079102e+00 -8.879470229148864746e-01
3.468000000000000000e+03 6.530821228027343750e+01 -1.556897926330566406e+01 2.079252153635025024e-01 8.392295837402343750e+00 2.580066442489624023e+00 -1.052858233451843262e+00
3.469000000000000000e+03 6.561505889892578125e+01 -1.450367546081542969e+01 4.205856919288635254e-01 8.326984405517578125e+00 2.624270915985107422e+00 -1.073810458183288574e+00
3.470000000000000000e+03 6.108285522460937500e+01 -2.492182922363281250e+01 -7.050900459289550781e-01 7.739069461822509766e+00 2.110193729400634766e+00 -1.408165693283081055e-01
3.471000000000000000e+03 6.121452713012695312e+01 -2.845785140991210938e+01 -6.337196826934814453e-01 7.353778362274169922e+00 2.016017675399780273e+00 -6.736214458942413330e-02
3.472000000000000000e+03 6.347505187988281250e+01 7.365806102752685547e+00 -4.573583602905273438e-01 8.351551055908203125e+00 2.368257999420166016e+00 7.100359201431274414e-01
3.473000000000000000e+03 6.205161285400390625e+01 -2.321222305297851562e+01 -6.717746853828430176e-01 8.007677078247070312e+00 2.200770616531372070e+00 -3.222414255142211914e-01
3.474000000000000000e+03 2.947562789916992188e+01 1.441299438476562500e+01 -6.766247004270553589e-02 5.430315136909484863e-01 1.426107138395309448e-01 1.190176978707313538e-01
3.475000000000000000e+03 6.353494262695312500e+01 1.386716842651367188e+01 -5.835350155830383301e-01 7.722654342651367188e+00 2.141735792160034180e+00 3.712396919727325439e-01
3.476000000000000000e+03 6.105866241455078125e+01 1.125343608856201172e+01 -6.940221190452575684e-01 7.830869197845458984e+00 2.141054153442382812e+00 1.947503387928009033e-01
3.477000000000000000e+03 6.230212783813476562e+01 9.281100273132324219e+00 -6.183496117591857910e-01 8.155480384826660156e+00 2.261139392852783203e+00 4.532802700996398926e-01
3.478000000000000000e+03 3.220684051513671875e+01 -2.106445121765136719e+01 2.084844112396240234e-01 4.736552834510803223e-01 2.046419084072113037e-01 -1.271530836820602417e-01
3.479000000000000000e+03 3.562207412719726562e+01 -2.695566749572753906e+01 4.737787544727325439e-01 1.296891093254089355e+00 5.312009453773498535e-01 2.346713989973068237e-01
3.480000000000000000e+03 6.207305145263671875e+01 7.868558883666992188e+00 -5.882903337478637695e-01 8.332212448120117188e+00 2.323176622390747070e+00 4.973754584789276123e-01
3.481000000000000000e+03 4.181612014770507812e+01 -2.345034599304199219e+01 4.023288488388061523e-01 2.215245008468627930e+00 7.852721214294433594e-01 8.200664520263671875e-01
3.482000000000000000e+03 6.390971374511718750e+01 -3.249790573120117188e+01 -5.043456554412841797e-01 7.351209640502929688e+00 2.054059267044067383e+00 -2.025849074125289917e-01
3.483000000000000000e+03 5.257593154907226562e+01 -1.133873105049133301e+00 6.948615610599517822e-02 9.077842712402343750e+00 2.744198560714721680e+00 -3.328742742538452148e+00
3.484000000000000000e+03 5.740656661987304688e+01 -8.382272720336914062e+00 3.958098888397216797e+00 1.156098747253417969e+01 4.655725955963134766e+00 -1.480255365371704102e+00
3.485000000000000000e+03 5.613150024414062500e+01 -1.008858108520507812e+01 1.233895897865295410e+00 1.289674472808837891e+01 4.239192008972167969e+00 -8.293731212615966797e-01
3.486000000000000000e+03 5.335370635986328125e+01 -1.114439010620117188e+01 -2.329127043485641479e-01 1.086834621429443359e+01 3.190629959106445312e+00 2.854037284851074219e+00
3.487000000000000000e+03 5.689129638671875000e+01 -7.020308971405029297e+00 6.068151473999023438e+00 1.176499652862548828e+01 5.349944591522216797e+00 -7.769718170166015625e-01
3.488000000000000000e+03 5.759343719482421875e+01 -5.793105125427246094e+00 5.395393848419189453e+00 1.099661350250244141e+01 4.917602062225341797e+00 5.709124207496643066e-01
3.489000000000000000e+03 5.609121704101562500e+01 -9.170903205871582031e+00 2.454828739166259766e+00 1.348401451110839844e+01 4.781652927398681641e+00 -1.407912492752075195e+00
3.490000000000000000e+03 5.464588165283203125e+01 -1.134309577941894531e+01 -3.041880130767822266e-01 1.199026107788085938e+01 3.505821943283081055e+00 1.303093791007995605e+00
3.491000000000000000e+03 5.430563735961914062e+01 -1.390087962150573730e+00 -2.930463552474975586e-01 1.169334602355957031e+01 3.420089721679687500e+00 -1.715108871459960938e+00
3.492000000000000000e+03 5.691695785522460938e+01 -3.172220230102539062e+00 2.219873905181884766e+00 1.225088405609130859e+01 4.341227531433105469e+00 1.400926589965820312e+00
3.493000000000000000e+03 5.105563354492187500e+01 -1.392572498321533203e+01 1.149498745799064636e-01 6.182700634002685547e+00 1.889295101165771484e+00 2.910395622253417969e+00
3.494000000000000000e+03 5.123932266235351562e+01 -1.345688819885253906e+01 1.456755250692367554e-01 6.425282001495361328e+00 1.971287250518798828e+00 3.058192253112792969e+00
3.495000000000000000e+03 5.493789291381835938e+01 -1.780059456825256348e+00 -4.918836802244186401e-02 1.246983146667480469e+01 3.726192951202392578e+00 -8.530210256576538086e-01
3.496000000000000000e+03 5.578731155395507812e+01 -2.528113126754760742e+00 8.701049089431762695e-01 1.306065273284912109e+01 4.179227352142333984e+00 4.688436090946197510e-01
3.497000000000000000e+03 5.574690628051757812e+01 -1.092799663543701172e+01 2.714238464832305908e-01 1.247371101379394531e+01 3.823540687561035156e+00 -2.287207543849945068e-02
3.498000000000000000e+03 5.593968200683593750e+01 -1.050320148468017578e+01 7.292112708091735840e-01 1.270711803436279297e+01 4.030899047851562500e+00 -4.338422417640686035e-01
3.499000000000000000e+03 5.281420516967773438e+01 -1.138416481018066406e+01 -4.636329412460327148e-02 9.626704216003417969e+00 2.874102354049682617e+00 3.345585346221923828e+00
3.500000000000000000e+03 6.464934539794921875e+01 -3.588823318481445312e+00 1.726620197296142578e+00 8.246653556823730469e+00 2.991982221603393555e+00 6.798058152198791504e-01
3.501000000000000000e+03 6.498050689697265625e+01 -7.095325946807861328e+00 1.917328119277954102e+00 8.083475112915039062e+00 3.000241041183471680e+00 -1.646456867456436157e-01
3.502000000000000000e+03 5.073369216918945312e+01 1.590976715087890625e+00 2.111711353063583374e-01 5.793776035308837891e+00 1.801484227180480957e+00 -2.719368219375610352e+00
3.503000000000000000e+03 5.113622665405273438e+01 -1.470797252655029297e+01 -9.945189580321311951e-03 6.219648361206054688e+00 1.862910985946655273e+00 2.693530082702636719e+00
3.504000000000000000e+03 5.034007263183593750e+01 -1.412789630889892578e+01 2.550272941589355469e-01 5.379992961883544922e+00 1.690506100654602051e+00 2.835602998733520508e+00
3.505000000000000000e+03 4.911980438232421875e+01 -1.786882019042968750e+01 9.095206856727600098e-02 4.633118629455566406e+00 1.417221188545227051e+00 2.016506433486938477e+00
3.506000000000000000e+03 5.000885009765625000e+01 -1.649497413635253906e+01 3.855099901556968689e-02 5.259566783905029297e+00 1.589435338973999023e+00 2.309647560119628906e+00
3.507000000000000000e+03 6.626033782958984375e+01 -6.390191555023193359e+00 1.628175377845764160e+00 7.873927116394042969e+00 2.850630760192871094e+00 2.798464149236679077e-03
3.508000000000000000e+03 6.479840087890625000e+01 -9.843884468078613281e+00 1.545527815818786621e+00 8.276391029357910156e+00 2.946575641632080078e+00 -7.977598905563354492e-01
3.509000000000000000e+03 6.463799285888671875e+01 -4.932713031768798828e+00 1.965383291244506836e+00 8.176909446716308594e+00 3.042687892913818359e+00 3.913673460483551025e-01
3.510000000000000000e+03 6.574358367919921875e+01 -9.214296340942382812e+00 1.514038085937500000e+00 8.051331520080566406e+00 2.869610786437988281e+00 -6.281141638755798340e-01
3.511000000000000000e+03 4.946890258789062500e+01 3.872958898544311523e+00 1.883164495229721069e-01 4.819468021392822266e+00 1.502335309982299805e+00 -2.174070835113525391e+00
3.512000000000000000e+03 6.469950103759765625e+01 -1.072874164581298828e+01 1.373853802680969238e+00 8.341840744018554688e+00 2.914708375930786133e+00 -9.209920167922973633e-01
3.513000000000000000e+03 6.471619415283203125e+01 -1.438092422485351562e+01 4.419220387935638428e-01 8.509484291076660156e+00 2.685421943664550781e+00 -1.088652372360229492e+00
3.514000000000000000e+03 4.794665145874023438e+01 5.373444557189941406e+00 2.675517499446868896e-01 3.969804286956787109e+00 1.271206855773925781e+00 -1.820170879364013672e+00
3.515000000000000000e+03 6.408078765869140625e+01 -1.711263060569763184e-01 8.821983933448791504e-01 8.593365669250488281e+00 2.842669248580932617e+00 1.104899883270263672e+00
3.516000000000000000e+03 6.420334625244140625e+01 1.199976325035095215e+00 5.378088951110839844e-01 8.599887847900390625e+00 2.741309165954589844e+00 1.111561775207519531e+00
3.517000000000000000e+03 6.157917404174804688e+01 -1.907818222045898438e+01 -5.442893505096435547e-01 8.574450492858886719e+00 2.409048318862915039e+00 -5.152773857116699219e-01
3.518000000000000000e+03 6.177694320678710938e+01 -2.099088096618652344e+01 -6.391887664794921875e-01 8.289558410644531250e+00 2.295110940933227539e+00 -4.069364964962005615e-01
3.519000000000000000e+03 4.732871246337890625e+01 8.033473014831542969e+00 1.268458813428878784e-01 3.933395862579345703e+00 1.218072533607482910e+00 -1.458992362022399902e+00
3.520000000000000000e+03 4.184534454345703125e+01 9.396836280822753906e+00 3.260185122489929199e-01 2.224390506744384766e+00 7.651227116584777832e-01 -7.806566953659057617e-01
3.521000000000000000e+03 6.410200500488281250e+01 -4.279289722442626953e+00 1.965650796890258789e+00 8.308008193969726562e+00 3.082097530364990234e+00 5.657957196235656738e-01
3.522000000000000000e+03 6.326573562622070312e+01 -8.314107656478881836e-01 1.135954141616821289e+00 8.780804634094238281e+00 2.975027561187744141e+00 1.139890193939208984e+00
3.523000000000000000e+03 3.368947601318359375e+01 6.918313503265380859e+00 5.662889778614044189e-02 5.678824782371520996e-01 1.873534023761749268e-01 2.161124944686889648e-01
3.524000000000000000e+03 4.547936248779296875e+01 9.195848464965820312e+00 2.174600064754486084e-01 3.295598268508911133e+00 1.053917407989501953e+00 -1.213936448097229004e+00
3.525000000000000000e+03 4.145407485961914062e+01 8.192218780517578125e+00 3.642150759696960449e-01 1.954849958419799805e+00 6.957195401191711426e-01 -7.279641628265380859e-01
3.526000000000000000e+03 3.517554855346679688e+01 5.844856739044189453e+00 9.904234111309051514e-02 5.917885899543762207e-01 2.072492837905883789e-01 1.472284197807312012e-01
3.527000000000000000e+03 6.288846969604492188e+01 6.028286933898925781e+00 -3.858405351638793945e-01 8.528172492980957031e+00 2.442699670791625977e+00 7.488511204719543457e-01
3.528000000000000000e+03 4.850567626953125000e+01 -2.037550926208496094e+01 4.313177987933158875e-02 4.435911178588867188e+00 1.343712925910949707e+00 1.635586261749267578e+00
3.529000000000000000e+03 4.941271972656250000e+01 -1.940026855468750000e+01 -5.035910382866859436e-02 4.903351783752441406e+00 1.455897808074951172e+00 1.805471777915954590e+00
3.530000000000000000e+03 3.382708740234375000e+01 1.548122215270996094e+01 1.081006154417991638e-01 1.214875459671020508e+00 3.968928158283233643e-01 -1.526158004999160767e-01
3.531000000000000000e+03 3.386694335937500000e+01 9.896883964538574219e+00 9.944901615381240845e-02 8.020382523536682129e-01 2.704461812973022461e-01 6.132933869957923889e-02
3.532000000000000000e+03 6.525271606445312500e+01 -1.283393287658691406e+01 7.906833291053771973e-01 8.343082427978515625e+00 2.740129709243774414e+00 -1.045991778373718262e+00
3.533000000000000000e+03 4.855986022949218750e+01 6.373419284820556641e+00 9.212452918291091919e-02 4.457352161407470703e+00 1.364843010902404785e+00 -1.728273987770080566e+00
3.534000000000000000e+03 6.408087921142578125e+01 -1.633961677551269531e+01 1.338231097906827927e-02 8.576488494873046875e+00 2.576961278915405273e+00 -9.883661866188049316e-01
3.535000000000000000e+03 6.224071121215820312e+01 -1.800953865051269531e+01 -3.806306421756744385e-01 8.677187919616699219e+00 2.488967180252075195e+00 -6.979911327362060547e-01
3.536000000000000000e+03 3.718226242065429688e+01 9.120829582214355469e+00 2.349062561988830566e-01 1.186559915542602539e+00 4.264398515224456787e-01 -2.053250372409820557e-01
3.537000000000000000e+03 6.277027511596679688e+01 4.203764438629150391e+00 -1.891493648290634155e-01 8.727767944335937500e+00 2.561585664749145508e+00 8.633993864059448242e-01
3.538000000000000000e+03 6.443748474121093750e+01 -1.533033466339111328e+01 2.224661260843276978e-01 8.548101425170898438e+00 2.631170272827148438e+00 -1.051688551902770996e+00
3.539000000000000000e+03 6.323456192016601562e+01 -1.599020099639892578e+01 1.867297105491161346e-02 8.737381935119628906e+00 2.626816511154174805e+00 -9.667472243309020996e-01
3.540000000000000000e+03 4.342849349975585938e+01 -2.185646438598632812e+01 3.920693993568420410e-01 2.492349386215209961e+00 8.653256297111511230e-01 1.067988514900207520e+00
3.541000000000000000e+03 5.951297378540039062e+01 1.148637771606445312e+01 -7.374655008316040039e-01 7.672758102416992188e+00 2.080587625503540039e+00 -1.926080510020256042e-02
3.542000000000000000e+03 5.646940231323242188e+01 1.018084049224853516e+01 -7.367735505104064941e-01 7.354411602020263672e+00 1.985291361808776855e+00 -5.182832479476928711e-01
3.543000000000000000e+03 3.884313201904296875e+01 6.765712738037109375e+00 3.054752051830291748e-01 1.191938757896423340e+00 4.492242038249969482e-01 -3.204025030136108398e-01
3.544000000000000000e+03 3.780230331420898438e+01 6.227988243103027344e+00 2.506212890148162842e-01 9.285127520561218262e-01 3.537402153015136719e-01 -1.459751278162002563e-01
3.545000000000000000e+03 6.383801651000976562e+01 4.999736785888671875e+00 -2.067560106515884399e-01 8.517117500305175781e+00 2.493108510971069336e+00 8.990368247032165527e-01
3.546000000000000000e+03 5.980579757690429688e+01 -2.359876441955566406e+01 -7.463068366050720215e-01 7.771264553070068359e+00 2.107487201690673828e+00 -7.334084715694189072e-03
3.547000000000000000e+03 3.212746429443359375e+01 -2.382422256469726562e+01 3.478203415870666504e-01 6.346904039382934570e-01 2.947532236576080322e-01 -4.469572380185127258e-02
3.548000000000000000e+03 6.076708602905273438e+01 8.150431632995605469e+00 -6.832320690155029297e-01 8.276447296142578125e+00 2.277964591979980469e+00 2.767994701862335205e-01
3.549000000000000000e+03 3.371586990356445312e+01 -2.539583015441894531e+01 4.451795518398284912e-01 9.041647315025329590e-01 4.048032760620117188e-01 9.058369696140289307e-02
3.550000000000000000e+03 3.520574188232421875e+01 -2.342304420471191406e+01 4.095821082592010498e-01 9.528437852859497070e-01 4.087277650833129883e-01 1.597457230091094971e-01
3.551000000000000000e+03 5.324731445312500000e+01 -1.154509735107421875e+01 -2.720939218997955322e-01 1.031954002380371094e+01 3.014233827590942383e+00 2.895380020141601562e+00
3.552000000000000000e+03 5.440447616577148438e+01 -1.178986930847167969e+01 -4.271678030490875244e-01 1.132369518280029297e+01 3.268958091735839844e+00 1.641330838203430176e+00
3.553000000000000000e+03 5.423304367065429688e+01 -7.266523838043212891e-01 -4.134320616722106934e-01 1.094101428985595703e+01 3.158274650573730469e+00 -1.777485966682434082e+00
3.554000000000000000e+03 5.559262466430664062e+01 -1.623563408851623535e+00 1.443936824798583984e-01 1.229335308074951172e+01 3.731324195861816406e+00 -2.317293733358383179e-01
3.555000000000000000e+03 5.495366668701171875e+01 -1.167100143432617188e+01 -3.464619815349578857e-01 1.175239753723144531e+01 3.421780824661254883e+00 1.083655714988708496e+00
3.556000000000000000e+03 5.147747802734375000e+01 -1.313073635101318359e+01 1.169145479798316956e-01 6.836730957031250000e+00 2.086093664169311523e+00 3.153794527053833008e+00
3.557000000000000000e+03 5.719914627075195312e+01 -4.282505035400390625e+00 3.901417732238769531e+00 1.185341358184814453e+01 4.726449489593505859e+00 1.542681455612182617e+00
3.558000000000000000e+03 5.744062423706054688e+01 -5.082808494567871094e+00 4.897303581237792969e+00 1.135203838348388672e+01 4.874802589416503906e+00 1.204160094261169434e+00
3.559000000000000000e+03 5.598640823364257812e+01 -9.791341781616210938e+00 1.441638827323913574e+00 1.322828865051269531e+01 4.400978088378906250e+00 -9.209948778152465820e-01
3.560000000000000000e+03 5.817712783813476562e+01 -7.425945281982421875e+00 4.616954803466796875e+00 1.058203220367431641e+01 4.559696197509765625e+00 -8.186491131782531738e-01
3.561000000000000000e+03 6.217041015625000000e+01 -8.572053909301757812e+00 2.433396577835083008e+00 8.796105384826660156e+00 3.368850708007812500e+00 -7.245211005210876465e-01
3.562000000000000000e+03 5.157667160034179688e+01 4.925352334976196289e-01 1.471207141876220703e-01 6.931057929992675781e+00 2.123453617095947266e+00 -3.006059885025024414e+00
3.563000000000000000e+03 5.511661911010742188e+01 -1.116943264007568359e+01 -1.382509022951126099e-01 1.230245399475097656e+01 3.649260997772216797e+00 7.503618597984313965e-01
3.564000000000000000e+03 5.612191009521484375e+01 -1.083404254913330078e+01 5.271223187446594238e-01 1.234154033660888672e+01 3.860598802566528320e+00 -3.705670535564422607e-01
3.565000000000000000e+03 5.238537979125976562e+01 -1.345606708526611328e+01 -2.446798086166381836e-01 7.930415630340576172e+00 2.305720806121826172e+00 2.788931369781494141e+00
3.566000000000000000e+03 5.003839874267578125e+01 2.804703950881958008e+00 1.981222331523895264e-01 5.195895195007324219e+00 1.618205189704895020e+00 -2.405609607696533203e+00
3.567000000000000000e+03 5.111832427978515625e+01 1.051427960395812988e+00 1.800952553749084473e-01 6.311917781829833984e+00 1.947603821754455566e+00 -2.848709583282470703e+00
3.568000000000000000e+03 5.169383239746093750e+01 -4.705525934696197510e-02 1.964244544506072998e-01 7.141043663024902344e+00 2.201240539550781250e+00 -3.190251350402832031e+00
3.569000000000000000e+03 5.149632263183593750e+01 -1.453566551208496094e+01 -1.110019311308860779e-01 6.683063983917236328e+00 1.971618533134460449e+00 2.687445878982543945e+00
3.570000000000000000e+03 6.467748260498046875e+01 -1.160879993438720703e+01 1.107284903526306152e+00 8.401511192321777344e+00 2.852638721466064453e+00 -1.013143777847290039e+00
3.571000000000000000e+03 6.390706253051757812e+01 -1.416650676727294922e+01 4.610783457756042480e-01 8.664544105529785156e+00 2.737686634063720703e+00 -1.092232823371887207e+00
3.572000000000000000e+03 5.045823287963867188e+01 -1.497506046295166016e+01 1.095949485898017883e-01 5.535978317260742188e+00 1.693671941757202148e+00 2.637064456939697266e+00
3.573000000000000000e+03 6.489598846435546875e+01 -6.363026618957519531e+00 1.935302257537841797e+00 8.089040756225585938e+00 3.007302999496459961e+00 1.116214389185188338e-05
3.574000000000000000e+03 6.323656463623046875e+01 8.650699257850646973e-01 6.042766571044921875e-01 8.804721832275390625e+00 2.822699546813964844e+00 1.121897697448730469e+00
3.575000000000000000e+03 6.317349624633789062e+01 -1.421420216560363770e+00 1.336192250251770020e+00 8.765038490295410156e+00 3.030369281768798828e+00 1.102728009223937988e+00
3.576000000000000000e+03 4.994905090332031250e+01 -1.832903861999511719e+01 -8.536796271800994873e-02 5.214982509613037109e+00 1.538884401321411133e+00 1.959059238433837891e+00
3.577000000000000000e+03 5.126588058471679688e+01 -1.533382987976074219e+01 -1.273119896650314331e-01 6.319618701934814453e+00 1.857692003250122070e+00 2.517872333526611328e+00
3.578000000000000000e+03 6.396749114990234375e+01 -9.192241668701171875e+00 1.818981885910034180e+00 8.393384933471679688e+00 3.063709974288940430e+00 -7.259632945060729980e-01
3.579000000000000000e+03 6.387550735473632812e+01 -3.212788820266723633e+00 1.795908451080322266e+00 8.446167945861816406e+00 3.072623014450073242e+00 8.209804296493530273e-01
3.580000000000000000e+03 6.479474639892578125e+01 -5.689150333404541016e+00 1.957575559616088867e+00 8.119331359863281250e+00 3.023072004318237305e+00 1.902189850807189941e-01
3.581000000000000000e+03 6.549470520019531250e+01 -5.911961555480957031e+00 1.809004545211791992e+00 8.001448631286621094e+00 2.943135976791381836e+00 1.163242980837821960e-01
3.582000000000000000e+03 3.321974563598632812e+01 8.886836051940917969e+00 7.164674252271652222e-02 6.676739454269409180e-01 2.217962145805358887e-01 1.487967520952224731e-01
3.583000000000000000e+03 3.621198272705078125e+01 7.638166904449462891e+00 2.018846571445465088e-01 9.057265520095825195e-01 3.322833776473999023e-01 -5.498319864273071289e-02
3.584000000000000000e+03 6.352162170410156250e+01 -2.258789062500000000e+00 1.570537686347961426e+00 8.614392280578613281e+00 3.055479049682617188e+00 9.983057975769042969e-01
3.585000000000000000e+03 6.378858184814453125e+01 -1.026075077056884766e+01 1.564389944076538086e+00 8.502331733703613281e+00 3.020016431808471680e+00 -9.124373793601989746e-01
3.586000000000000000e+03 6.395674896240234375e+01 -9.135674238204956055e-01 1.111313223838806152e+00 8.596599578857421875e+00 2.912373781204223633e+00 1.090822935104370117e+00
3.587000000000000000e+03 6.361956787109375000e+01 -1.230389881134033203e+01 9.811730980873107910e-01 8.698353767395019531e+00 2.903858184814453125e+00 -1.104334235191345215e+00
3.588000000000000000e+03 6.442575836181640625e+01 -8.644581794738769531e+00 1.867893815040588379e+00 8.260232925415039062e+00 3.038437843322753906e+00 -5.898398160934448242e-01
3.589000000000000000e+03 3.492804718017578125e+01 6.879700660705566406e+00 1.109845489263534546e-01 6.431359052658081055e-01 2.262361496686935425e-01 1.177286878228187561e-01
3.590000000000000000e+03 4.881793212890625000e+01 5.497017860412597656e+00 1.310915797948837280e-01 4.516192913055419922e+00 1.394185304641723633e+00 -1.866458535194396973e+00
3.591000000000000000e+03 4.907247543334960938e+01 4.576768875122070312e+00 1.802505105733871460e-01 4.592280387878417969e+00 1.431759238243103027e+00 -2.027760505676269531e+00
3.592000000000000000e+03 4.671187973022460938e+01 6.031485557556152344e+00 3.403730988502502441e-01 3.454411745071411133e+00 1.138435482978820801e+00 -1.604405283927917480e+00
3.593000000000000000e+03 4.301400756835937500e+01 9.485236167907714844e+00 3.034380376338958740e-01 2.505959033966064453e+00 8.428190946578979492e-01 -9.120772480964660645e-01
3.594000000000000000e+03 4.630012512207031250e+01 8.520231246948242188e+00 1.911628246307373047e-01 3.547305345535278320e+00 1.121540427207946777e+00 -1.333677053451538086e+00
3.595000000000000000e+03 6.394164276123046875e+01 -5.251289367675781250e+00 2.181920289993286133e+00 8.296050071716308594e+00 3.143391132354736328e+00 3.390393555164337158e-01
3.596000000000000000e+03 6.406217956542968750e+01 -5.799617290496826172e+00 2.171881914138793945e+00 8.267297744750976562e+00 3.131753921508789062e+00 1.843752861022949219e-01
3.597000000000000000e+03 3.804877471923828125e+01 7.616408824920654297e+00 2.635347247123718262e-01 1.186499238014221191e+00 4.350101947784423828e-01 -2.417953014373779297e-01
3.598000000000000000e+03 6.207673263549804688e+01 5.053639411926269531e+00 -3.321490287780761719e-01 8.724794387817382812e+00 2.517793655395507812e+00 7.365419864654541016e-01
3.599000000000000000e+03 4.834276962280273438e+01 7.624689579010009766e+00 4.671387001872062683e-02 4.396104335784912109e+00 1.332845449447631836e+00 -1.562361598014831543e+00
3.600000000000000000e+03 3.292819595336914062e+01 1.136141872406005859e+01 6.286374479532241821e-02 7.915020585060119629e-01 2.563097476959228516e-01 6.170482560992240906e-02
3.601000000000000000e+03 3.197810173034667969e+01 1.179239368438720703e+01 1.130312122404575348e-02 7.158756852149963379e-01 2.181536555290222168e-01 1.063319221138954163e-01
3.602000000000000000e+03 6.089128875732421875e+01 -2.228748130798339844e+01 -7.133631110191345215e-01 8.069138526916503906e+00 2.206732511520385742e+00 -2.115249782800674438e-01
3.603000000000000000e+03 6.119198989868164062e+01 5.547053337097167969e+00 -4.932769238948822021e-01 8.744915962219238281e+00 2.475491523742675781e+00 5.444061160087585449e-01
3.604000000000000000e+03 6.244380950927734375e+01 -1.560925292968750000e+01 3.287600725889205933e-02 8.905570983886718750e+00 2.681534051895141602e+00 -9.428673982620239258e-01
3.605000000000000000e+03 6.278537368774414062e+01 -1.697439765930175781e+01 -1.898501217365264893e-01 8.728942871093750000e+00 2.561727762222290039e+00 -8.515943884849548340e-01
3.606000000000000000e+03 6.062666702270507812e+01 7.046703338623046875e+00 -6.389849781990051270e-01 8.494353294372558594e+00 2.356610536575317383e+00 3.416612744331359863e-01
3.607000000000000000e+03 3.124496078491210938e+01 1.335998535156250000e+01 -3.963509108871221542e-03 7.261643409729003906e-01 2.166602462530136108e-01 6.849408894777297974e-02
3.608000000000000000e+03 5.802350997924804688e+01 1.160009670257568359e+01 -7.427999377250671387e-01 7.428791522979736328e+00 2.005797386169433594e+00 -2.597023546695709229e-01
3.609000000000000000e+03 5.930968093872070312e+01 9.892305374145507812e+00 -7.468144297599792480e-01 7.910574436187744141e+00 2.149127960205078125e+00 -6.016233935952186584e-03
3.610000000000000000e+03 3.718605041503906250e+01 -2.463540267944335938e+01 4.645817279815673828e-01 1.373150348663330078e+00 5.513195991516113281e-01 3.483674824237823486e-01
3.611000000000000000e+03 3.945759582519531250e+01 -2.541283035278320312e+01 4.577479958534240723e-01 1.870926976203918457e+00 6.986024975776672363e-01 5.411401987075805664e-01
3.612000000000000000e+03 2.921039009094238281e+01 -2.326656913757324219e+01 2.289398908615112305e-01 3.489211201667785645e-01 1.733583062887191772e-01 -2.120744138956069946e-01
3.613000000000000000e+03 5.718254852294921875e+01 -6.881442546844482422e+00 5.804942607879638672e+00 1.136165523529052734e+01 5.149979114532470703e+00 -5.576560497283935547e-01
3.614000000000000000e+03 5.806816482543945312e+01 -6.205029964447021484e+00 5.078645706176757812e+00 1.056579971313476562e+01 4.693333625793457031e+00 1.758650541305541992e-01
3.615000000000000000e+03 5.766591262817382812e+01 -7.948498725891113281e+00 4.478382110595703125e+00 1.118807792663574219e+01 4.699938297271728516e+00 -1.274419069290161133e+00
3.616000000000000000e+03 5.340653991699218750e+01 -8.189871311187744141e-01 -2.858989238739013672e-01 1.013239860534667969e+01 2.953949928283691406e+00 -2.597249746322631836e+00
3.617000000000000000e+03 5.388282775878906250e+01 -5.619651079177856445e-01 -4.036328196525573730e-01 1.042874431610107422e+01 3.007533550262451172e+00 -2.116516113281250000e+00
3.618000000000000000e+03 5.479209899902343750e+01 -1.238349795341491699e+00 -2.562696337699890137e-01 1.186491107940673828e+01 3.482592344284057617e+00 -1.167893886566162109e+00
3.619000000000000000e+03 5.697807693481445312e+01 -3.693055152893066406e+00 2.974608182907104492e+00 1.226139068603515625e+01 4.570799350738525391e+00 1.574685215950012207e+00
3.620000000000000000e+03 5.806523513793945312e+01 -5.837408542633056641e+00 4.994463443756103516e+00 1.057642078399658203e+01 4.671265125274658203e+00 4.518736898899078369e-01
3.621000000000000000e+03 5.654192352294921875e+01 -3.268894672393798828e+00 2.176394939422607422e+00 1.270639801025390625e+01 4.464838027954101562e+00 1.346278190612792969e+00
3.622000000000000000e+03 5.687755584716796875e+01 -9.459335327148437500e+00 2.411271333694458008e+00 1.234268665313720703e+01 4.426187515258789062e+00 -1.451171159744262695e+00
3.623000000000000000e+03 6.342346572875976562e+01 -3.840562582015991211e+00 2.036457061767578125e+00 8.500697135925292969e+00 3.161146163940429688e+00 7.295224070549011230e-01
3.624000000000000000e+03 5.581663894653320312e+01 -1.936795353889465332e+00 4.393092691898345947e-01 1.251918983459472656e+01 3.887549638748168945e+00 1.306853294372558594e-01
3.625000000000000000e+03 5.633299255371093750e+01 -2.421961545944213867e+00 1.090273022651672363e+00 1.258237648010253906e+01 4.101794719696044922e+00 8.010413646697998047e-01
3.626000000000000000e+03 5.666930770874023438e+01 -9.827622413635253906e+00 1.796395301818847656e+00 1.249238872528076172e+01 4.286634922027587891e+00 -1.214228868484497070e+00
3.627000000000000000e+03 5.711188125610351562e+01 -9.103981971740722656e+00 2.957365751266479492e+00 1.208522891998291016e+01 4.512778282165527344e+00 -1.560571193695068359e+00
3.628000000000000000e+03 5.227197265625000000e+01 -1.282475662231445312e+01 -1.084759756922721863e-01 8.027348518371582031e+00 2.375661849975585938e+00 3.063626766204833984e+00
3.629000000000000000e+03 5.136281967163085938e+01 -3.283078670501708984e-01 3.791363835334777832e-01 6.684206485748291016e+00 2.119002819061279297e+00 -3.313697338104248047e+00
3.630000000000000000e+03 5.183437347412109375e+01 -1.291087150573730469e+01 1.853169128298759460e-02 7.402384757995605469e+00 2.226274967193603516e+00 3.161407947540283203e+00
3.631000000000000000e+03 5.270642089843750000e+01 -5.544185042381286621e-01 -9.289651364088058472e-02 8.894788742065429688e+00 2.640567541122436523e+00 -3.026404619216918945e+00
3.632000000000000000e+03 5.222594833374023438e+01 -3.312770724296569824e-01 4.935964941978454590e-02 8.032386779785156250e+00 2.424523830413818359e+00 -3.163265228271484375e+00
3.633000000000000000e+03 5.272681045532226562e+01 -1.286064815521240234e+01 -2.752027511596679688e-01 8.649489402770996094e+00 2.512285947799682617e+00 2.846153020858764648e+00
3.634000000000000000e+03 5.159925460815429688e+01 1.702217459678649902e+00 -4.615060612559318542e-02 6.776252269744873047e+00 2.019030570983886719e+00 -2.647183656692504883e+00
3.635000000000000000e+03 5.202560424804687500e+01 -1.412709999084472656e+01 -2.332942783832550049e-01 7.376841068267822266e+00 2.143064022064208984e+00 2.685595750808715820e+00
3.636000000000000000e+03 5.077289962768554688e+01 -1.442957496643066406e+01 1.082085743546485901e-01 5.858547687530517578e+00 1.790026783943176270e+00 2.780478000640869141e+00
3.637000000000000000e+03 5.096455764770507812e+01 2.043428421020507812e+00 7.285754382610321045e-02 6.062635421752929688e+00 1.840647935867309570e+00 -2.588520288467407227e+00
3.638000000000000000e+03 5.113022994995117188e+01 1.588925600051879883e+00 8.968824148178100586e-02 6.303262710571289062e+00 1.917885303497314453e+00 -2.684290647506713867e+00
3.639000000000000000e+03 5.078498840332031250e+01 -1.723332405090332031e+01 -1.483237594366073608e-01 5.746663093566894531e+00 1.679501771926879883e+00 2.156418323516845703e+00
3.640000000000000000e+03 5.018557739257812500e+01 4.236697673797607422e+00 1.553898770362138748e-02 5.362185001373291016e+00 1.613317251205444336e+00 -2.118333339691162109e+00
3.641000000000000000e+03 6.404495239257812500e+01 -6.447854518890380859e+00 2.170469760894775391e+00 8.263679504394531250e+00 3.130244970321655273e+00 -2.632381394505500793e-02
3.642000000000000000e+03 6.413572692871093750e+01 -7.123530387878417969e+00 2.155553340911865234e+00 8.249354362487792969e+00 3.121472358703613281e+00 -1.948193460702896118e-01
3.643000000000000000e+03 6.291561126708984375e+01 1.774985432624816895e+00 3.394442498683929443e-01 8.864577293395996094e+00 2.761206626892089844e+00 1.071996212005615234e+00
3.644000000000000000e+03 6.329337692260742188e+01 -5.724725872278213501e-02 8.651999831199645996e-01 8.790282249450683594e+00 2.896644592285156250e+00 1.136997103691101074e+00
3.645000000000000000e+03 6.125276947021484375e+01 -1.601672744750976562e+01 -1.764314323663711548e-01 9.068018913269042969e+00 2.667476177215576172e+00 -7.652722597122192383e-01
3.646000000000000000e+03 6.076996612548828125e+01 -1.429348468780517578e+00 1.388866782188415527e+00 9.572606086730957031e+00 3.288441658020019531e+00 1.219787478446960449e+00
3.647000000000000000e+03 6.237133407592773438e+01 6.246795654296875000e-01 6.454893946647644043e-01 9.030525207519531250e+00 2.902804374694824219e+00 1.123774528503417969e+00
3.648000000000000000e+03 6.316928100585937500e+01 -9.395636558532714844e+00 1.926592826843261719e+00 8.598548889160156250e+00 3.157542467117309570e+00 -8.434036970138549805e-01
3.649000000000000000e+03 5.779764175415039062e+01 -8.974282264709472656e+00 3.214408874511718750e+00 1.130290603637695312e+01 4.355194568634033203e+00 -1.478163242340087891e+00
3.650000000000000000e+03 6.381636810302734375e+01 -1.153193759918212891e+01 1.203669548034667969e+00 8.611610412597656250e+00 2.944583892822265625e+00 -1.064517378807067871e+00
3.651000000000000000e+03 6.316672897338867188e+01 -2.893374681472778320e+00 1.823501348495483398e+00 8.646007537841796875e+00 3.140852689743041992e+00 9.384016394615173340e-01
3.652000000000000000e+03 6.363113403320312500e+01 -9.599408149719238281e+00 1.852479338645935059e+00 8.516548156738281250e+00 3.110708236694335938e+00 -8.633298277854919434e-01
3.653000000000000000e+03 6.344874572753906250e+01 -8.946655273437500000e+00 1.997422218322753906e+00 8.497157096862792969e+00 3.148373603820800781e+00 -7.127547860145568848e-01
3.654000000000000000e+03 6.449118804931640625e+01 -1.247477149963378906e+01 8.984167575836181641e-01 8.483754158020019531e+00 2.814651250839233398e+00 -1.067993402481079102e+00
3.655000000000000000e+03 6.351387405395507812e+01 -4.784853935241699219e+00 2.226765871047973633e+00 8.408045768737792969e+00 3.190443277359008789e+00 4.689919054508209229e-01
3.656000000000000000e+03 6.167668151855468750e+01 2.109028577804565430e+00 1.422850787639617920e-01 9.131637573242187500e+00 2.782176733016967773e+00 9.672294259071350098e-01
3.657000000000000000e+03 6.244122314453125000e+01 2.666726350784301758e+00 8.971381932497024536e-02 8.932223320007324219e+00 2.706581354141235352e+00 9.816789627075195312e-01
3.658000000000000000e+03 6.417353057861328125e+01 -1.331371021270751953e+01 6.684198379516601562e-01 8.599612236022949219e+00 2.780409574508666992e+00 -1.103133559226989746e+00
3.659000000000000000e+03 5.977926635742187500e+01 7.698254585266113281e+00 -7.171088457107543945e-01 8.313446998596191406e+00 2.278901338577270508e+00 1.376367211341857910e-01
3.660000000000000000e+03 6.103458786010742188e+01 2.785960912704467773e+00 -9.300284832715988159e-02 9.192120552062988281e+00 2.729735374450683594e+00 8.162275552749633789e-01
3.661000000000000000e+03 5.235968399047851562e+01 -1.662980270385742188e+01 -4.358908534049987793e-01 7.036835670471191406e+00 1.980283379554748535e+00 2.037923097610473633e+00
3.662000000000000000e+03 6.079438400268554688e+01 -2.016374969482421875e+01 -6.685820221900939941e-01 8.401021957397460938e+00 2.319731950759887695e+00 -3.066873550415039062e-01
3.663000000000000000e+03 4.917163085937500000e+01 7.044405460357666016e+00 -1.806414872407913208e-02 4.791722774505615234e+00 1.432097554206848145e+00 -1.672857999801635742e+00
3.664000000000000000e+03 5.091193008422851562e+01 -1.832777404785156250e+01 -2.337798923254013062e-01 5.789387702941894531e+00 1.666682362556457520e+00 1.933931469917297363e+00
3.665000000000000000e+03 5.007501220703125000e+01 -1.730875015258789062e+01 -3.669238090515136719e-02 5.327194213867187500e+00 1.587150573730468750e+00 2.149932622909545898e+00
3.666000000000000000e+03 4.617750930786132812e+01 1.102826118469238281e+01 8.745787292718887329e-02 3.701983690261840820e+00 1.136832475662231445e+00 -1.146985054016113281e+00
3.667000000000000000e+03 6.360649871826171875e+01 -1.505627727508544922e+01 2.439562380313873291e-01 8.710835456848144531e+00 2.686437606811523438e+00 -1.046819925308227539e+00
3.668000000000000000e+03 6.198338317871093750e+01 -1.650629425048828125e+01 -1.882193982601165771e-01 8.893878936767578125e+00 2.611697912216186523e+00 -8.093448877334594727e-01
3.669000000000000000e+03 5.043959045410156250e+01 3.579801082611083984e+00 2.935785055160522461e-02 5.571567058563232422e+00 1.680277466773986816e+00 -2.238879203796386719e+00
3.670000000000000000e+03 4.685014724731445312e+01 9.550322532653808594e+00 9.169773757457733154e-02 3.870641708374023438e+00 1.188701748847961426e+00 -1.290581345558166504e+00
3.671000000000000000e+03 5.992783737182617188e+01 -1.928384971618652344e+01 -6.847369074821472168e-01 8.551525115966796875e+00 2.360036373138427734e+00 -1.992607265710830688e-01
3.672000000000000000e+03 4.027421188354492188e+01 8.783348083496093750e+00 3.394892513751983643e-01 1.733867526054382324e+00 6.220070719718933105e-01 -5.652515292167663574e-01
3.673000000000000000e+03 5.038631439208984375e+01 -2.036419486999511719e+01 -2.129619717597961426e-01 5.421552181243896484e+00 1.562577009201049805e+00 1.652690291404724121e+00
3.674000000000000000e+03 6.211270523071289062e+01 1.379802942276000977e+00 3.977284133434295654e-01 9.083943367004394531e+00 2.844501495361328125e+00 1.073956370353698730e+00
3.675000000000000000e+03 6.248216629028320312e+01 -1.155951321125030518e-01 8.701452612876892090e-01 8.997569084167480469e+00 2.960314512252807617e+00 1.151624917984008789e+00
3.676000000000000000e+03 4.838059997558593750e+01 1.015019512176513672e+01 -6.732048839330673218e-02 4.483753681182861328e+00 1.324929952621459961e+00 -1.297606945037841797e+00
3.677000000000000000e+03 5.885134124755859375e+01 8.468430519104003906e+00 -7.643101811408996582e-01 8.084957122802734375e+00 2.196193933486938477e+00 -6.748229265213012695e-02
3.678000000000000000e+03 3.549410247802734375e+01 9.519160270690917969e+00 1.713626682758331299e-01 9.838573336601257324e-01 3.465659916400909424e-01 -6.029850244522094727e-02
3.679000000000000000e+03 5.764044952392578125e+01 -2.307672119140625000e+01 -7.777954339981079102e-01 7.567026138305664062e+00 2.036769151687622070e+00 3.608961105346679688e-01
3.680000000000000000e+03 5.884700775146484375e+01 -2.224277114868164062e+01 -7.734459638595581055e-01 7.866137981414794922e+00 2.127807617187500000e+00 1.357883512973785400e-01
3.681000000000000000e+03 3.287764739990234375e+01 1.242762851715087891e+01 5.571316927671432495e-02 8.573051691055297852e-01 2.739054858684539795e-01 1.452806126326322556e-02
3.682000000000000000e+03 3.416290283203125000e+01 1.119497966766357422e+01 1.198909282684326172e-01 9.332051277160644531e-01 3.159288167953491211e-01 -1.861838065087795258e-02
3.683000000000000000e+03 4.725038909912109375e+01 -2.369042587280273438e+01 7.992698252201080322e-02 3.991272687911987305e+00 1.221359968185424805e+00 1.229057788848876953e+00
3.684000000000000000e+03 4.944289779663085938e+01 -2.140983581542968750e+01 -1.032550707459449768e-01 4.880653858184814453e+00 1.433219552040100098e+00 1.519255399703979492e+00
3.685000000000000000e+03 3.966632080078125000e+01 7.675800323486328125e+00 3.386167287826538086e-01 1.459298014640808105e+00 5.393744111061096191e-01 -4.596602022647857666e-01
3.686000000000000000e+03 5.695870971679687500e+01 1.243164539337158203e+01 -7.037384510040283203e-01 7.144310951232910156e+00 1.932171702384948730e+00 -3.866059780120849609e-01
3.687000000000000000e+03 5.304189300537109375e+01 1.085169029235839844e+01 -5.291156768798828125e-01 6.236231803894042969e+00 1.712134838104248047e+00 -9.921751022338867188e-01
3.688000000000000000e+03 3.394578933715820312e+01 1.396314716339111328e+01 1.116325184702873230e-01 1.122173070907592773e+00 3.701416850090026855e-01 -1.183646619319915771e-01
3.689000000000000000e+03 3.137161064147949219e+01 1.075745296478271484e+01 -2.763997763395309448e-02 5.741198062896728516e-01 1.639439463615417480e-01 1.987201422452926636e-01
3.690000000000000000e+03 5.988679504394531250e+01 -2.123625564575195312e+01 -7.442545890808105469e-01 8.164807319641113281e+00 2.226165771484375000e+00 -8.908515423536300659e-02
3.691000000000000000e+03 4.451381301879882812e+01 -2.776178741455078125e+01 2.045970857143402100e-01 3.323009967803955078e+00 1.058282136917114258e+00 8.244529366493225098e-01
3.692000000000000000e+03 5.326997375488281250e+01 -3.332682549953460693e-01 -3.101715743541717529e-01 9.624899864196777344e+00 2.794418334960937500e+00 -2.557189941406250000e+00
3.693000000000000000e+03 5.454182052612304688e+01 -9.698545336723327637e-01 -3.577070236206054688e-01 1.140692043304443359e+01 3.314764022827148438e+00 -1.478383302688598633e+00
3.694000000000000000e+03 5.771756362915039062e+01 -6.502638339996337891e+00 5.401494026184082031e+00 1.084829711914062500e+01 4.874937534332275391e+00 -1.399087309837341309e-01
3.695000000000000000e+03 5.766862106323242188e+01 -6.974976539611816406e+00 5.305330753326416016e+00 1.093485927581787109e+01 4.872056961059570312e+00 -5.490936636924743652e-01
3.696000000000000000e+03 5.401482772827148438e+01 -1.039064750075340271e-01 -4.811197221279144287e-01 1.023317623138427734e+01 2.925616979598999023e+00 -1.941575884819030762e+00
3.697000000000000000e+03 5.752452850341796875e+01 -6.340176105499267578e+00 5.733064651489257812e+00 1.104008483886718750e+01 5.031944751739501953e+00 4.831221327185630798e-02
3.698000000000000000e+03 5.542737960815429688e+01 -1.246160507202148438e+00 -8.631065487861633301e-02 1.196385192871093750e+01 3.563262462615966797e+00 -5.519321560859680176e-01
3.699000000000000000e+03 5.501559829711914062e+01 -1.011183738708496094e+00 -2.710957229137420654e-01 1.166390228271484375e+01 3.417841911315917969e+00 -9.660317897796630859e-01
3.700000000000000000e+03 5.706314086914062500e+01 -2.704367160797119141e+00 1.788057565689086914e+00 1.201569557189941406e+01 4.141126155853271484e+00 1.246252179145812988e+00
3.701000000000000000e+03 5.711884689331054688e+01 -1.010028839111328125e+01 1.713605523109436035e+00 1.195077228546142578e+01 4.099313259124755859e+00 -1.239259362220764160e+00
3.702000000000000000e+03 5.742595291137695312e+01 -4.831241130828857422e+00 4.607689857482910156e+00 1.144882869720458984e+01 4.816955566406250000e+00 1.349696874618530273e+00
3.703000000000000000e+03 5.748485183715820312e+01 -3.828582048416137695e+00 3.239572763442993164e+00 1.163033199310302734e+01 4.460971355438232422e+00 1.559864878654479980e+00
3.704000000000000000e+03 5.722038269042968750e+01 -3.355957746505737305e+00 2.557512521743774414e+00 1.189728736877441406e+01 4.336440086364746094e+00 1.452153682708740234e+00
3.705000000000000000e+03 6.287960815429687500e+01 -1.998534321784973145e+00 1.550266385078430176e+00 8.796208381652832031e+00 3.103942394256591797e+00 1.077045321464538574e+00
3.706000000000000000e+03 5.682543945312500000e+01 -2.138338565826416016e+00 1.097793221473693848e+00 1.198718643188476562e+01 3.925493955612182617e+00 9.159817099571228027e-01
3.707000000000000000e+03 5.401247406005859375e+01 -1.221476745605468750e+01 -4.940984845161437988e-01 1.063232135772705078e+01 3.041466951370239258e+00 2.025353670120239258e+00
3.708000000000000000e+03 6.269666290283203125e+01 -1.036370086669921875e+01 1.686844944953918457e+00 8.838376045227050781e+00 3.157566308975219727e+00 -1.032170414924621582e+00
3.709000000000000000e+03 5.238579940795898438e+01 -7.397518754005432129e-01 7.304356247186660767e-02 8.499024391174316406e+00 2.571620464324951172e+00 -3.272224426269531250e+00
3.710000000000000000e+03 5.798307418823242188e+01 -7.812821865081787109e+00 4.433767795562744141e+00 1.084614467620849609e+01 4.583973884582519531e+00 -1.091789960861206055e+00
3.711000000000000000e+03 5.201905441284179688e+01 5.746399760246276855e-01 -2.229574136435985565e-02 7.535041332244873047e+00 2.253823757171630859e+00 -2.917259931564331055e+00
3.712000000000000000e+03 5.197625350952148438e+01 -1.350341892242431641e+01 -1.285475939512252808e-01 7.479407787322998047e+00 2.205258131027221680e+00 2.895902395248413086e+00
3.713000000000000000e+03 5.152430343627929688e+01 -1.405602741241455078e+01 -5.768839269876480103e-02 6.762245655059814453e+00 2.011367321014404297e+00 2.834309101104736328e+00
3.714000000000000000e+03 5.193691253662109375e+01 -1.464181518554687500e+01 -2.409259229898452759e-01 7.165808677673339844e+00 2.077464818954467773e+00 2.590908050537109375e+00
3.715000000000000000e+03 6.295360565185546875e+01 -4.386844635009765625e+00 2.278378248214721680e+00 8.580974578857421875e+00 3.257805585861206055e+00 6.173810958862304688e-01
3.716000000000000000e+03 6.309077835083007812e+01 -5.948487758636474609e+00 2.468782424926757812e+00 8.457409858703613281e+00 3.277857780456542969e+00 1.430297046899795532e-01
3.717000000000000000e+03 5.053364181518554688e+01 2.279078960418701172e+00 1.445361226797103882e-01 5.685181140899658203e+00 1.748915195465087891e+00 -2.544002294540405273e+00
3.718000000000000000e+03 6.345393371582031250e+01 -7.333006858825683594e+00 2.323351144790649414e+00 8.397415161132812500e+00 3.216229915618896484e+00 -2.858665585517883301e-01
3.719000000000000000e+03 6.232737350463867188e+01 -7.887381553649902344e+00 2.584957122802734375e+00 8.713883399963378906e+00 3.389652252197265625e+00 -5.127173662185668945e-01
3.720000000000000000e+03 5.146862792968750000e+01 2.346592426300048828e+00 -8.334165066480636597e-02 6.527227878570556641e+00 1.933165907859802246e+00 -2.474692583084106445e+00
3.721000000000000000e+03 5.225683593750000000e+01 -1.577305507659912109e+01 -3.834061324596405029e-01 7.131122589111328125e+00 2.024314880371093750e+00 2.243928909301757812e+00
3.722000000000000000e+03 5.091661071777343750e+01 -1.512442874908447266e+01 -2.303890138864517212e-02 6.016040802001953125e+00 1.797900557518005371e+00 2.618904829025268555e+00
3.723000000000000000e+03 6.341044235229492188e+01 -1.310926628112792969e+01 7.222681641578674316e-01 8.765854835510253906e+00 2.846436977386474609e+00 -1.112093567848205566e+00
3.724000000000000000e+03 6.271232223510742188e+01 -1.117905855178833008e+00 1.243474483489990234e+00 8.905911445617675781e+00 3.044815778732299805e+00 1.146023988723754883e+00
3.725000000000000000e+03 6.290518951416015625e+01 -9.858685493469238281e+00 1.880265474319458008e+00 8.714850425720214844e+00 3.178534746170043945e+00 -9.411152005195617676e-01
3.726000000000000000e+03 6.312810897827148438e+01 -1.131762313842773438e+01 1.332076430320739746e+00 8.792134284973144531e+00 3.037263154983520508e+00 -1.101724386215209961e+00
3.727000000000000000e+03 6.416693878173828125e+01 -7.740742206573486328e+00 2.054925203323364258e+00 8.264777183532714844e+00 3.095910787582397461e+00 -3.635762333869934082e-01
3.728000000000000000e+03 6.234877777099609375e+01 -4.047654628753662109e+00 2.355842590332031250e+00 8.771719932556152344e+00 3.338268518447875977e+00 7.623819112777709961e-01
3.729000000000000000e+03 6.233075714111328125e+01 -1.704958081245422363e+00 1.482613086700439453e+00 8.987747192382812500e+00 3.141108036041259766e+00 1.137824058532714844e+00
3.730000000000000000e+03 6.276320266723632812e+01 -3.491921186447143555e+00 2.087773799896240234e+00 8.705120086669921875e+00 3.237868070602416992e+00 8.594152927398681641e-01
3.731000000000000000e+03 6.305863189697265625e+01 -5.218876361846923828e+00 2.446074247360229492e+00 8.503296852111816406e+00 3.284811258316040039e+00 3.778441846370697021e-01
3.732000000000000000e+03 6.315456390380859375e+01 -8.065469741821289062e+00 2.295157194137573242e+00 8.500500679016113281e+00 3.238697290420532227e+00 -4.983558654785156250e-01
3.733000000000000000e+03 5.756207275390625000e+01 -9.357494354248046875e+00 2.702167510986328125e+00 1.158106613159179688e+01 4.284970283508300781e+00 -1.490043997764587402e+00
3.734000000000000000e+03 6.329786682128906250e+01 -1.083847713470458984e+01 1.485363841056823730e+00 8.680938720703125000e+00 3.049890756607055664e+00 -1.027265071868896484e+00
3.735000000000000000e+03 6.393978500366210938e+01 -1.080086898803710938e+01 1.429525256156921387e+00 8.511894226074218750e+00 2.982425689697265625e+00 -9.757189750671386719e-01
3.736000000000000000e+03 6.144615936279296875e+01 1.024080753326416016e+00 4.604393243789672852e-01 9.266688346862792969e+00 2.918138265609741211e+00 1.065602660179138184e+00
3.737000000000000000e+03 5.295510482788085938e+01 -1.967655181884765625e+01 -5.666611790657043457e-01 6.802657604217529297e+00 1.870798945426940918e+00 1.459950804710388184e+00
3.738000000000000000e+03 5.155550765991210938e+01 -1.694391441345214844e+01 -2.928153276443481445e-01 6.357746601104736328e+00 1.819479346275329590e+00 2.117360830307006836e+00
3.739000000000000000e+03 6.074066925048828125e+01 -1.836513328552246094e+01 -5.514861941337585449e-01 8.727359771728515625e+00 2.452761888504028320e+00 -4.361601173877716064e-01
3.740000000000000000e+03 6.058775329589843750e+01 -1.552190876007080078e+01 -1.569669693708419800e-01 9.249965667724609375e+00 2.727899551391601562e+00 -7.221199870109558105e-01
3.741000000000000000e+03 5.114843750000000000e+01 3.808923482894897461e+00 -1.435562372207641602e-01 6.138441085815429688e+00 1.798465490341186523e+00 -2.158535480499267578e+00
3.742000000000000000e+03 5.060874938964843750e+01 2.915614128112792969e+00 5.254907533526420593e-02 5.732266426086425781e+00 1.735444664955139160e+00 -2.391913175582885742e+00
3.743000000000000000e+03 6.119084930419921875e+01 4.490319728851318359e+00 -3.638285100460052490e-01 8.895561218261718750e+00 2.559519767761230469e+00 6.443770527839660645e-01
3.744000000000000000e+03 6.180136489868164062e+01 3.531626701354980469e+00 -1.631609797477722168e-01 8.969173431396484375e+00 2.641803741455078125e+00 8.274261355400085449e-01
3.745000000000000000e+03 6.069886398315429688e+01 -1.683224296569824219e+01 -3.782151043415069580e-01 9.008922576904296875e+00 2.589212417602539062e+00 -5.827662944793701172e-01
3.746000000000000000e+03 6.014548110961914062e+01 5.982886314392089844e+00 -6.045131683349609375e-01 8.667141914367675781e+00 2.418788671493530273e+00 3.349632918834686279e-01
3.747000000000000000e+03 6.021268463134765625e+01 4.141115665435791016e+00 -4.213773608207702637e-01 9.038944244384765625e+00 2.585269927978515625e+00 5.213376879692077637e-01
3.748000000000000000e+03 4.968067169189453125e+01 5.724128723144531250e+00 -1.206638757139444351e-02 5.050219058990478516e+00 1.511445760726928711e+00 -1.871196508407592773e+00
3.749000000000000000e+03 4.990752410888671875e+01 4.936630249023437500e+00 1.387831754982471466e-03 5.180405616760253906e+00 1.554538011550903320e+00 -1.988219976425170898e+00
3.750000000000000000e+03 6.282717132568359375e+01 -1.474761390686035156e+01 2.626350224018096924e-01 8.881774902343750000e+00 2.743323087692260742e+00 -1.040086984634399414e+00
3.751000000000000000e+03 6.222516250610351562e+01 -7.684131264686584473e-01 1.121768951416015625e+00 9.064794540405273438e+00 3.055969238281250000e+00 1.171243667602539062e+00
3.752000000000000000e+03 5.135855865478515625e+01 -1.952645111083984375e+01 -3.325088322162628174e-01 5.938020706176757812e+00 1.681653499603271484e+00 1.721978425979614258e+00
3.753000000000000000e+03 4.784976196289062500e+01 9.072585105895996094e+00 2.542978338897228241e-02 4.227664947509765625e+00 1.275928378105163574e+00 -1.378349423408508301e+00
3.754000000000000000e+03 4.390943908691406250e+01 1.115912914276123047e+01 2.078765928745269775e-01 2.949776172637939453e+00 9.472958445549011230e-01 -9.515938758850097656e-01
3.755000000000000000e+03 3.854055404663085938e+01 8.480854034423828125e+00 2.976378202438354492e-01 1.349264144897460938e+00 4.940705895423889160e-01 -3.434849083423614502e-01
3.756000000000000000e+03 5.733631896972656250e+01 5.069716453552246094e+00 -7.362574338912963867e-01 8.718479156494140625e+00 2.394666671752929688e+00 -3.223128616809844971e-01
3.757000000000000000e+03 5.914019775390625000e+01 6.647549629211425781e+00 -7.186358571052551270e-01 8.500911712646484375e+00 2.334682941436767578e+00 5.218630284070968628e-02
3.758000000000000000e+03 4.594538116455078125e+01 9.971325874328613281e+00 1.447069048881530762e-01 3.555066108703613281e+00 1.109931826591491699e+00 -1.206292152404785156e+00
3.759000000000000000e+03 3.788859176635742188e+01 1.030825233459472656e+01 2.436296492815017700e-01 1.413641214370727539e+00 4.971812665462493896e-01 -3.066653609275817871e-01
3.760000000000000000e+03 4.508415603637695312e+01 1.006109333038330078e+01 2.014641165733337402e-01 3.223273992538452148e+00 1.027421474456787109e+00 -1.120491385459899902e+00
3.761000000000000000e+03 4.728247451782226562e+01 1.065099716186523438e+01 1.203407347202301025e-02 4.086166381835937500e+00 1.229460239410400391e+00 -1.215459227561950684e+00
3.762000000000000000e+03 5.806693649291992188e+01 -2.100337791442871094e+01 -7.998963594436645508e-01 8.013772964477539062e+00 2.164163112640380859e+00 2.710354328155517578e-01
3.763000000000000000e+03 3.912678909301757812e+01 9.513541221618652344e+00 2.911985516548156738e-01 1.557485342025756836e+00 5.546051859855651855e-01 -4.355745911598205566e-01
3.764000000000000000e+03 5.729638671875000000e+01 -2.802009201049804688e+01 -6.337949037551879883e-01 6.844441413879394531e+00 1.863193988800048828e+00 3.007803559303283691e-01
3.765000000000000000e+03 3.781900787353515625e+01 1.215339374542236328e+01 2.347111403942108154e-01 1.618429541587829590e+00 5.559422373771667480e-01 -3.691395819187164307e-01
3.766000000000000000e+03 4.178727340698242188e+01 -2.554560470581054688e+01 3.875292837619781494e-01 2.452183723449707031e+00 8.519139289855957031e-01 7.491966485977172852e-01
3.767000000000000000e+03 4.353494262695312500e+01 -2.342954063415527344e+01 3.482916653156280518e-01 2.686370849609375000e+00 9.103987812995910645e-01 1.019368171691894531e+00
3.768000000000000000e+03 4.959516525268554688e+01 -2.368740844726562500e+01 -1.539135575294494629e-01 4.908816814422607422e+00 1.426470994949340820e+00 1.281743407249450684e+00
3.769000000000000000e+03 5.132352828979492188e+01 -2.153466606140136719e+01 -3.588913083076477051e-01 5.814760684967041016e+00 1.636760830879211426e+00 1.409128665924072266e+00
3.770000000000000000e+03 4.844881057739257812e+01 -2.516920661926269531e+01 -6.012577563524246216e-02 4.499927997589111328e+00 1.331940650939941406e+00 1.133439183235168457e+00
3.771000000000000000e+03 4.844266891479492188e+01 -2.253877258300781250e+01 -2.248460426926612854e-02 4.451451301574707031e+00 1.328690052032470703e+00 1.385534763336181641e+00
3.772000000000000000e+03 4.006222534179687500e+01 1.693477439880371094e+01 1.611314564943313599e-01 2.416331052780151367e+00 7.732387781143188477e-01 -5.382112264633178711e-01
3.773000000000000000e+03 3.251119232177734375e+01 1.374322986602783203e+01 6.402200460433959961e-02 9.055041670799255371e-01 2.908578515052795410e-01 -1.772570237517356873e-02
3.774000000000000000e+03 5.627598953247070312e+01 -1.037815475463867188e+01 1.008362889289855957e+00 1.255732917785644531e+01 4.069707393646240234e+00 -7.239875793457031250e-01
3.775000000000000000e+03 5.809175109863281250e+01 -7.182459831237792969e+00 4.843269824981689453e+00 1.061866188049316406e+01 4.638579368591308594e+00 -6.589710116386413574e-01
3.776000000000000000e+03 5.733638381958007812e+01 -9.728289604187011719e+00 2.204742670059204102e+00 1.179864788055419922e+01 4.201016902923583984e+00 -1.403017163276672363e+00
3.777000000000000000e+03 5.814584732055664062e+01 -5.454473495483398438e+00 4.763188838958740234e+00 1.058104419708251953e+01 4.603270053863525391e+00 7.433581948280334473e-01
3.778000000000000000e+03 5.980367279052734375e+01 2.320339679718017578e+00 -1.251693964004516602e-01 9.479567527770996094e+00 2.806319475173950195e+00 6.820411682128906250e-01
3.779000000000000000e+03 5.749214935302734375e+01 -3.485615968704223633e+00 2.859930276870727539e+00 1.167126655578613281e+01 4.359358787536621094e+00 1.543198466300964355e+00
3.780000000000000000e+03 5.734582519531250000e+01 -8.756430625915527344e+00 3.520807504653930664e+00 1.171169471740722656e+01 4.569750785827636719e+00 -1.546214580535888672e+00
3.781000000000000000e+03 5.814447402954101562e+01 -8.089044570922851562e+00 4.074676513671875000e+00 1.075669002532958984e+01 4.449409961700439453e+00 -1.181286573410034180e+00
3.782000000000000000e+03 5.665335845947265625e+01 -2.597734928131103516e+00 1.484652042388916016e+00 1.236508083343505859e+01 4.154919624328613281e+00 1.064975619316101074e+00
3.783000000000000000e+03 5.457881927490234375e+01 -1.214852619171142578e+01 -4.869602620601654053e-01 1.107676410675048828e+01 3.176941156387329102e+00 1.518920660018920898e+00
3.784000000000000000e+03 5.600033569335937500e+01 -1.156700801849365234e+01 4.484811052680015564e-02 1.185489368438720703e+01 3.569922685623168945e+00 7.981357723474502563e-02
3.785000000000000000e+03 5.558339309692382812e+01 -1.133540153503417969e+01 -3.305926546454429626e-02 1.212665271759033203e+01 3.628077983856201172e+00 3.262670934200286865e-01
3.786000000000000000e+03 5.605606460571289062e+01 -2.204170703887939453e+00 7.748287916183471680e-01 1.262259006500244141e+01 4.019225597381591797e+00 5.140730142593383789e-01
3.787000000000000000e+03 5.355998992919921875e+01 -4.202901721000671387e-01 -3.689802885055541992e-01 1.000335502624511719e+01 2.890312433242797852e+00 -2.383678197860717773e+00
3.788000000000000000e+03 5.245140838623046875e+01 2.115606814622879028e-01 -1.193059012293815613e-01 8.187008857727050781e+00 2.420310974121093750e+00 -2.879607200622558594e+00
3.789000000000000000e+03 5.291292572021484375e+01 -2.667077444493770599e-02 -2.486824989318847656e-01 8.911457061767578125e+00 2.598832368850708008e+00 -2.745846748352050781e+00
3.790000000000000000e+03 5.360186004638671875e+01 -1.210108089447021484e+01 -4.282654821872711182e-01 1.031077957153320312e+01 2.964754343032836914e+00 2.442901611328125000e+00
3.791000000000000000e+03 5.273196029663085938e+01 -1.235336017608642578e+01 -1.987181007862091064e-01 8.899259567260742188e+00 2.610162496566772461e+00 2.970819950103759766e+00
3.792000000000000000e+03 5.208461380004882812e+01 1.121611833572387695e+00 -1.134335994720458984e-01 7.455645561218261719e+00 2.202663660049438477e+00 -2.705755233764648438e+00
3.793000000000000000e+03 6.264400100708007812e+01 -8.343506813049316406e+00 2.367471694946289062e+00 8.667901992797851562e+00 3.310611963272094727e+00 -6.289318203926086426e-01
3.794000000000000000e+03 6.267203903198242188e+01 -7.270320892333984375e+00 2.549427032470703125e+00 8.574419975280761719e+00 3.337153911590576172e+00 -3.134131133556365967e-01
3.795000000000000000e+03 5.144646453857421875e+01 -1.493868827819824219e+01 -1.415081918239593506e-01 6.592795848846435547e+00 1.935386300086975098e+00 2.529104232788085938e+00
3.796000000000000000e+03 5.074440002441406250e+01 5.269873619079589844e+00 -1.659616231918334961e-01 5.729440212249755859e+00 1.669043540954589844e+00 -1.917183637619018555e+00
3.797000000000000000e+03 6.285077667236328125e+01 -1.224365425109863281e+01 1.011563658714294434e+00 8.890638351440429688e+00 2.970660686492919922e+00 -1.128513097763061523e+00
3.798000000000000000e+03 6.324031829833984375e+01 -6.464433670043945312e+00 2.423236608505249023e+00 8.429167747497558594e+00 3.255721330642700195e+00 -1.454742625355720520e-02
3.799000000000000000e+03 6.350809097290039062e+01 -5.619574069976806641e+00 2.323487758636474609e+00 8.383154869079589844e+00 3.211992740631103516e+00 2.363579124212265015e-01
3.800000000000000000e+03 6.298910140991210938e+01 -8.742894172668457031e+00 2.188506364822387695e+00 8.608688354492187500e+00 3.239158391952514648e+00 -7.104161977767944336e-01
3.801000000000000000e+03 6.392146301269531250e+01 -8.238817214965820312e+00 2.062092065811157227e+00 8.339939117431640625e+00 3.120609521865844727e+00 -5.209430456161499023e-01
3.802000000000000000e+03 6.253071212768554688e+01 -2.596100330352783203e+00 1.811636447906494141e+00 8.857846260070800781e+00 3.200844764709472656e+00 1.036574840545654297e+00
3.803000000000000000e+03 5.123640060424804688e+01 -1.615016174316406250e+01 -1.754140704870223999e-01 6.232685565948486328e+00 1.817181468009948730e+00 2.347450017929077148e+00
3.804000000000000000e+03 6.314421844482421875e+01 -1.391756820678710938e+01 4.951867759227752686e-01 8.829847335815429688e+00 2.797510147094726562e+00 -1.098002195358276367e+00
3.805000000000000000e+03 5.215866470336914062e+01 1.768066048622131348e+00 -2.039375603199005127e-01 7.311861991882324219e+00 2.132377386093139648e+00 -2.500343799591064453e+00
3.806000000000000000e+03 6.267691421508789062e+01 -9.170794486999511719e+00 2.130529880523681641e+00 8.721749305725097656e+00 3.255683660507202148e+00 -8.209574818611145020e-01
3.807000000000000000e+03 6.327925872802734375e+01 -1.039886474609375000e+01 1.575429916381835938e+00 8.655371665954589844e+00 3.069240570068359375e+00 -9.832300543785095215e-01
3.808000000000000000e+03 6.110079574584960938e+01 1.541697502136230469e+00 2.191735804080963135e-01 9.336948394775390625e+00 2.866836547851562500e+00 9.667963385581970215e-01
3.809000000000000000e+03 6.253504562377929688e+01 -4.879246234893798828e+00 2.522230386734008789e+00 8.651267051696777344e+00 3.352049350738525391e+00 5.055987834930419922e-01
3.810000000000000000e+03 6.271214675903320312e+01 -5.605113983154296875e+00 2.573179006576538086e+00 8.572985649108886719e+00 3.343849420547485352e+00 2.810947299003601074e-01
3.811000000000000000e+03 6.006322860717773438e+01 -1.623262405395507812e+01 -3.606512546539306641e-01 9.194583892822265625e+00 2.650179862976074219e+00 -5.309622883796691895e-01
3.812000000000000000e+03 6.170981597900390625e+01 -1.520755004882812500e+01 4.712834954261779785e-02 9.087206840515136719e+00 2.740300416946411133e+00 -9.156322479248046875e-01
3.813000000000000000e+03 6.102283477783203125e+01 -1.479561805725097656e+01 6.742925941944122314e-02 9.278757095336914062e+00 2.803855895996093750e+00 -8.782458901405334473e-01
3.814000000000000000e+03 5.574235153198242188e+01 -1.771374893188476562e+01 -7.963495254516601562e-01 8.400249481201171875e+00 2.281169891357421875e+00 9.109018445014953613e-01
3.815000000000000000e+03 6.162885665893554688e+01 3.617584705352783203e-01 6.744616031646728516e-01 9.250119209289550781e+00 2.977374315261840820e+00 1.120025515556335449e+00
3.816000000000000000e+03 6.209035491943359375e+01 -1.441491889953613281e+01 2.894958257675170898e-01 9.067716598510742188e+00 2.807163715362548828e+00 -1.028261661529541016e+00
3.817000000000000000e+03 6.115772247314453125e+01 -6.054505705833435059e-01 1.022295236587524414e+00 9.425278663635253906e+00 3.134272098541259766e+00 1.186094164848327637e+00
3.818000000000000000e+03 6.051912689208984375e+01 1.944539785385131836e+00 5.190029740333557129e-02 9.405197143554687500e+00 2.837129116058349609e+00 8.479110002517700195e-01
3.819000000000000000e+03 5.671175765991210938e+01 -1.802853202819824219e+01 -8.028927445411682129e-01 8.559756278991699219e+00 2.327059030532836914e+00 5.790262818336486816e-01
3.820000000000000000e+03 6.240700912475585938e+01 -1.364964485168457031e+01 5.356857180595397949e-01 9.021549224853515625e+00 2.867170333862304688e+00 -1.099235773086547852e+00
3.821000000000000000e+03 6.022819519042968750e+01 3.192262172698974609e+00 -2.566624879837036133e-01 9.224953651428222656e+00 2.690487384796142578e+00 6.415095925331115723e-01
3.822000000000000000e+03 4.768944931030273438e+01 1.184571170806884766e+01 -5.706232041120529175e-02 4.266143798828125000e+00 1.262724518775939941e+00 -1.132084131240844727e+00
3.823000000000000000e+03 5.096453094482421875e+01 4.534375190734863281e+00 -1.565304100513458252e-01 5.929250240325927734e+00 1.731815934181213379e+00 -2.013687372207641602e+00
3.824000000000000000e+03 4.990271759033203125e+01 6.521251201629638672e+00 -8.938004821538925171e-02 5.175798892974853516e+00 1.525925636291503906e+00 -1.760004639625549316e+00
3.825000000000000000e+03 4.269634246826171875e+01 1.102220535278320312e+01 2.428999394178390503e-01 2.601760149002075195e+00 8.533980250358581543e-01 -8.290769457817077637e-01
3.826000000000000000e+03 4.127554702758789062e+01 1.289897632598876953e+01 2.135562449693679810e-01 2.440706253051757812e+00 7.962787747383117676e-01 -6.694301962852478027e-01
3.827000000000000000e+03 4.980174255371093750e+01 7.934314250946044922e+00 -1.494620740413665771e-01 5.132896423339843750e+00 1.495030283927917480e+00 -1.551908016204833984e+00
3.828000000000000000e+03 4.947531127929687500e+01 9.552890777587890625e+00 -1.662806123495101929e-01 4.948840618133544922e+00 1.434767961502075195e+00 -1.359380841255187988e+00
3.829000000000000000e+03 5.225927352905273438e+01 -2.069244575500488281e+01 -4.732984900474548340e-01 6.284726619720458984e+00 1.743428468704223633e+00 1.433009505271911621e+00
3.830000000000000000e+03 5.901977157592773438e+01 -2.016889953613281250e+01 -7.640239596366882324e-01 8.292246818542480469e+00 2.258466958999633789e+00 4.554391279816627502e-02
3.831000000000000000e+03 5.893910980224609375e+01 -1.621441459655761719e+01 -5.022006630897521973e-01 9.293916702270507812e+00 2.637514591217041016e+00 -2.589619159698486328e-01
3.832000000000000000e+03 5.481780242919921875e+01 -2.181453132629394531e+01 -7.041998505592346191e-01 7.092242240905761719e+00 1.916412591934204102e+00 9.105416536331176758e-01
3.833000000000000000e+03 3.983220291137695312e+01 1.057693290710449219e+01 2.832902669906616211e-01 1.833871126174926758e+00 6.351484060287475586e-01 -5.443440675735473633e-01
3.834000000000000000e+03 3.843008804321289062e+01 1.321194934844970703e+01 2.190239578485488892e-01 1.814169168472290039e+00 6.099579334259033203e-01 -4.362516105175018311e-01
3.835000000000000000e+03 5.058644485473632812e+01 7.268731117248535156e+00 -2.303130477666854858e-01 5.526734352111816406e+00 1.588926315307617188e+00 -1.612070083618164062e+00
3.836000000000000000e+03 5.778632354736328125e+01 8.945361137390136719e+00 -7.860992550849914551e-01 7.880360603332519531e+00 2.128278493881225586e+00 -2.955148220062255859e-01
3.837000000000000000e+03 5.861108779907226562e+01 5.646921634674072266e+00 -7.091718316078186035e-01 8.706931114196777344e+00 2.399327754974365234e+00 -1.810195483267307281e-02
3.838000000000000000e+03 4.643011093139648438e+01 1.227087974548339844e+01 2.640543319284915924e-02 3.837813138961791992e+00 1.159265637397766113e+00 -1.062975764274597168e+00
3.839000000000000000e+03 4.189617919921875000e+01 -2.785462760925292969e+01 3.535593748092651367e-01 2.600042104721069336e+00 8.860804438591003418e-01 6.561549305915832520e-01
3.840000000000000000e+03 4.575696945190429688e+01 -2.471943664550781250e+01 1.867077052593231201e-01 3.480804204940795898e+00 1.100253582000732422e+00 1.100031614303588867e+00
3.841000000000000000e+03 5.689404296875000000e+01 8.932301521301269531e+00 -7.772548794746398926e-01 7.678476333618164062e+00 2.070366382598876953e+00 -4.930891096591949463e-01
3.842000000000000000e+03 5.554566955566406250e+01 9.503863334655761719e+00 -7.353150248527526855e-01 7.252951622009277344e+00 1.955291032791137695e+00 -6.954811811447143555e-01
3.843000000000000000e+03 5.473147583007812500e+01 -2.563890838623046875e+01 -5.971587896347045898e-01 6.527321815490722656e+00 1.779048919677734375e+00 6.708008050918579102e-01
3.844000000000000000e+03 5.841020965576171875e+01 -2.477652549743652344e+01 -7.501320242881774902e-01 7.401250839233398438e+00 1.995335698127746582e+00 2.291921824216842651e-01
3.845000000000000000e+03 5.438830947875976562e+01 -2.300017327070236206e-01 -4.738200008869171143e-01 1.062146282196044922e+01 3.044292926788330078e+00 -1.652521371841430664e+00
3.846000000000000000e+03 5.365414428710937500e+01 5.252300575375556946e-02 -4.180235564708709717e-01 9.702993392944335938e+00 2.785490989685058594e+00 -2.196878671646118164e+00
3.847000000000000000e+03 5.828171539306640625e+01 -7.668368816375732422e+00 4.395595073699951172e+00 1.055805683135986328e+01 4.486095428466796875e+00 -9.349330663681030273e-01
3.848000000000000000e+03 5.978711318969726562e+01 4.090016484260559082e-01 4.314238429069519043e-01 9.824355125427246094e+00 3.076733589172363281e+00 9.657762646675109863e-01
3.849000000000000000e+03 5.396439743041992188e+01 -1.262739944458007812e+01 -5.312185883522033691e-01 1.020737743377685547e+01 2.902847528457641602e+00 2.033222198486328125e+00
3.850000000000000000e+03 5.533432769775390625e+01 -1.145080375671386719e+01 -1.395049691200256348e-01 1.200794506072998047e+01 3.560532093048095703e+00 5.981148481369018555e-01
3.851000000000000000e+03 5.808603668212890625e+01 -8.628510475158691406e+00 3.560966491699218750e+00 1.097563838958740234e+01 4.360981464385986328e+00 -1.382613420486450195e+00
3.852000000000000000e+03 5.720555496215820312e+01 -2.150457620620727539e+00 1.252264738082885742e+00 1.170415782928466797e+01 3.886926651000976562e+00 1.043247222900390625e+00
3.853000000000000000e+03 5.572187805175781250e+01 -1.162545776367187500e+01 -8.046862483024597168e-02 1.186631202697753906e+01 3.535753011703491211e+00 2.989286780357360840e-01
3.854000000000000000e+03 5.237558364868164062e+01 6.019511222839355469e-01 -1.199420541524887085e-01 7.908563613891601562e+00 2.336586475372314453e+00 -2.773112773895263672e+00
3.855000000000000000e+03 5.823200607299804688e+01 -5.040341854095458984e+00 4.374042987823486328e+00 1.059824943542480469e+01 4.491687774658203125e+00 9.878827333450317383e-01
3.856000000000000000e+03 5.827598190307617188e+01 -4.607005119323730469e+00 3.939305305480957031e+00 1.068524551391601562e+01 4.387365341186523438e+00 1.202882289886474609e+00
3.857000000000000000e+03 6.174512100219726562e+01 -3.733616113662719727e+00 2.401938199996948242e+00 8.995205879211425781e+00 3.419143199920654297e+00 9.056878685951232910e-01
3.858000000000000000e+03 6.223314285278320312e+01 -1.210004520416259766e+01 1.066610574722290039e+00 9.074212074279785156e+00 3.042246818542480469e+00 -1.158910632133483887e+00
3.859000000000000000e+03 5.357380676269531250e+01 -1.252971076965332031e+01 -4.644028246402740479e-01 9.899088859558105469e+00 2.830405950546264648e+00 2.370211362838745117e+00
3.860000000000000000e+03 5.780315399169921875e+01 -9.996386528015136719e+00 2.036166429519653320e+00 1.135433006286621094e+01 4.017148971557617188e+00 -1.360923290252685547e+00
3.861000000000000000e+03 5.270623779296875000e+01 -1.484189414978027344e+01 -4.351892769336700439e-01 7.779668807983398438e+00 2.203343868255615234e+00 2.312881469726562500e+00
3.862000000000000000e+03 5.279768371582031250e+01 -1.340845203399658203e+01 -3.536189794540405273e-01 8.449716567993164062e+00 2.428829431533813477e+00 2.655801296234130859e+00
3.863000000000000000e+03 5.280413055419921875e+01 3.506672382354736328e-01 -2.546971738338470459e-01 8.622323036193847656e+00 2.510287761688232422e+00 -2.689866781234741211e+00
3.864000000000000000e+03 6.308451843261718750e+01 -6.970562458038330078e+00 2.450684547424316406e+00 8.462379455566406250e+00 3.273919343948364258e+00 -1.846679747104644775e-01
3.865000000000000000e+03 5.211956405639648438e+01 2.490904331207275391e+00 -2.600557506084442139e-01 7.127396583557128906e+00 2.060202360153198242e+00 -2.326586484909057617e+00
3.866000000000000000e+03 5.130183029174804688e+01 3.063453674316406250e+00 -1.156032085418701172e-01 6.302026271820068359e+00 1.855926871299743652e+00 -2.324887752532958984e+00
3.867000000000000000e+03 6.214382553100585938e+01 -3.178668498992919922e+00 2.099506616592407227e+00 8.924755096435546875e+00 3.307278394699096680e+00 9.832330346107482910e-01
3.868000000000000000e+03 6.181226348876953125e+01 -1.392879128456115723e+00 1.378919839859008789e+00 9.181301116943359375e+00 3.168066263198852539e+00 1.181046128273010254e+00
3.869000000000000000e+03 5.310188674926757812e+01 -1.639109992980957031e+01 -5.712195038795471191e-01 7.655948638916015625e+00 2.125418663024902344e+00 1.889060139656066895e+00
3.870000000000000000e+03 6.219914245605468750e+01 -8.991790771484375000e+00 2.296275138854980469e+00 8.829348564147949219e+00 3.337687253952026367e+00 -8.331445455551147461e-01
3.871000000000000000e+03 6.265647125244140625e+01 -1.169488811492919922e+01 1.196457862854003906e+00 8.914442062377929688e+00 3.033270120620727539e+00 -1.120954513549804688e+00
3.872000000000000000e+03 6.182051849365234375e+01 -3.102419972419738770e-01 9.321324825286865234e-01 9.211205482482910156e+00 3.043001651763916016e+00 1.169892191886901855e+00
3.873000000000000000e+03 6.273291015625000000e+01 -1.089020633697509766e+01 1.521155595779418945e+00 8.877093315124511719e+00 3.119474649429321289e+00 -1.095114827156066895e+00
3.874000000000000000e+03 6.184284210205078125e+01 -8.174812316894531250e+00 2.645849227905273438e+00 8.869453430175781250e+00 3.454590797424316406e+00 -6.295543313026428223e-01
3.875000000000000000e+03 5.973768234252929688e+01 -1.397720146179199219e+01 1.266162395477294922e-01 9.727472305297851562e+00 2.956226587295532227e+00 -8.008385896682739258e-01
3.876000000000000000e+03 5.997486877441406250e+01 -1.503770923614501953e+01 -1.356853395700454712e-01 9.457117080688476562e+00 2.796429634094238281e+00 -6.762345433235168457e-01
3.877000000000000000e+03 6.240334320068359375e+01 -9.659374237060546875e+00 1.999734878540039062e+00 8.844655036926269531e+00 3.253317117691040039e+00 -9.561120867729187012e-01
3.878000000000000000e+03 6.196205139160156250e+01 -4.570021629333496094e+00 2.608268499374389648e+00 8.839954376220703125e+00 3.434466838836669922e+00 6.441791057586669922e-01
3.879000000000000000e+03 6.195460510253906250e+01 -5.815063953399658203e+00 2.854486703872680664e+00 8.765590667724609375e+00 3.486023426055908203e+00 2.065455764532089233e-01
3.880000000000000000e+03 6.090187454223632812e+01 1.248505190014839172e-01 6.852293014526367188e-01 9.494056701660156250e+00 3.053785800933837891e+00 1.109162688255310059e+00
3.881000000000000000e+03 6.081852722167968750e+01 8.866245150566101074e-01 4.194854497909545898e-01 9.481585502624511719e+00 2.970321178436279297e+00 1.020496010780334473e+00
3.882000000000000000e+03 5.865185546875000000e+01 -1.750103759765625000e+01 -6.653305888175964355e-01 8.935523986816406250e+00 2.481057882308959961e+00 -4.176323488354682922e-02
3.883000000000000000e+03 5.264120483398437500e+01 -1.750821495056152344e+01 -5.137214660644531250e-01 7.009409427642822266e+00 1.948706388473510742e+00 1.812732458114624023e+00
3.884000000000000000e+03 5.182151794433593750e+01 -1.791645812988281250e+01 -3.829646110534667969e-01 6.442986011505126953e+00 1.818006396293640137e+00 1.894637227058410645e+00
3.885000000000000000e+03 6.138526535034179688e+01 -1.406641483306884766e+01 3.183657824993133545e-01 9.277453422546386719e+00 2.878745794296264648e+00 -1.009663581848144531e+00
3.886000000000000000e+03 6.266888427734375000e+01 -1.292318820953369141e+01 7.786441445350646973e-01 8.949329376220703125e+00 2.918391942977905273e+00 -1.128264904022216797e+00
3.887000000000000000e+03 6.015917587280273438e+01 1.122950792312622070e+00 2.611163854598999023e-01 9.624939918518066406e+00 2.965816736221313477e+00 9.199035167694091797e-01
3.888000000000000000e+03 6.196361541748046875e+01 -1.268031597137451172e+01 8.499355316162109375e-01 9.165932655334472656e+00 3.004760503768920898e+00 -1.144196510314941406e+00
3.889000000000000000e+03 6.197603607177734375e+01 -2.298920154571533203e+00 1.756381630897521973e+00 9.065512657165527344e+00 3.246568202972412109e+00 1.115340113639831543e+00
3.890000000000000000e+03 5.180759429931640625e+01 4.769468784332275391e+00 -3.308753669261932373e-01 6.497092247009277344e+00 1.849864959716796875e+00 -1.882939815521240234e+00
3.891000000000000000e+03 5.044001388549804688e+01 5.986574172973632812e+00 -1.493444740772247314e-01 5.557202816009521484e+00 1.622357606887817383e+00 -1.822324395179748535e+00
3.892000000000000000e+03 5.611949920654296875e+01 8.536991119384765625e+00 -7.403338551521301270e-01 7.546136379241943359e+00 2.041740894317626953e+00 -5.627257823944091797e-01
3.893000000000000000e+03 5.138255691528320312e+01 8.048900604248046875e+00 -3.481743931770324707e-01 5.860082626342773438e+00 1.653572559356689453e+00 -1.453043699264526367e+00
3.894000000000000000e+03 5.050621414184570312e+01 8.856525421142578125e+00 -2.661837339401245117e-01 5.418829917907714844e+00 1.545793771743774414e+00 -1.415023803710937500e+00
3.895000000000000000e+03 5.884441757202148438e+01 4.223428249359130859e+00 -5.715674757957458496e-01 9.140858650207519531e+00 2.570787429809570312e+00 1.985162496566772461e-01
3.896000000000000000e+03 5.728871917724609375e+01 -1.989952278137207031e+01 -8.135218024253845215e-01 8.160370826721191406e+00 2.204054832458496094e+00 4.506175518035888672e-01
3.897000000000000000e+03 5.638053512573242188e+01 4.343690395355224609e+00 -7.450235486030578613e-01 8.795031547546386719e+00 2.415002346038818359e+00 -6.169512271881103516e-01
3.898000000000000000e+03 4.009871673583984375e+01 1.355201911926269531e+01 2.109023034572601318e-01 2.153008937835693359e+00 7.091733813285827637e-01 -5.447241067886352539e-01
3.899000000000000000e+03 4.064889907836914062e+01 1.164579772949218750e+01 2.642818689346313477e-01 2.161214351654052734e+00 7.276488542556762695e-01 -6.322517991065979004e-01
3.900000000000000000e+03 4.514752197265625000e+01 1.253114223480224609e+01 1.058171316981315613e-01 3.429203510284423828e+00 1.060506224632263184e+00 -9.886472225189208984e-01
3.901000000000000000e+03 4.530830001831054688e+01 1.402237606048583984e+01 4.746898263692855835e-02 3.549323081970214844e+00 1.079037666320800781e+00 -9.025532007217407227e-01
3.902000000000000000e+03 5.919889068603515625e+01 -1.839030265808105469e+01 -6.836426854133605957e-01 8.740487098693847656e+00 2.417053222656250000e+00 -1.049974486231803894e-01
3.903000000000000000e+03 5.813258361816406250e+01 7.290789604187011719e+00 -7.833246588706970215e-01 8.283817291259765625e+00 2.250147581100463867e+00 -2.124322056770324707e-01
3.904000000000000000e+03 5.784730529785156250e+01 1.026471233367919922e+01 -7.651443481445312500e-01 7.603778362274169922e+00 2.051590204238891602e+00 -2.934130132198333740e-01
3.905000000000000000e+03 5.009333419799804688e+01 1.062641716003417969e+01 -2.529649138450622559e-01 5.154644489288330078e+00 1.470503926277160645e+00 -1.229861259460449219e+00
3.906000000000000000e+03 5.942566680908203125e+01 -1.690497398376464844e+01 -5.337131023406982422e-01 9.090564727783203125e+00 2.567055463790893555e+00 -2.986929118633270264e-01
3.907000000000000000e+03 4.813599014282226562e+01 1.316285037994384766e+01 -1.219851747155189514e-01 4.433993339538574219e+00 1.293602466583251953e+00 -1.033568382263183594e+00
3.908000000000000000e+03 4.673840332031250000e+01 1.366797924041748047e+01 -3.332022577524185181e-02 3.986198425292968750e+00 1.185863494873046875e+00 -9.771357774734497070e-01
3.909000000000000000e+03 5.853686141967773438e+01 -6.214552402496337891e+00 4.712582588195800781e+00 1.021669292449951172e+01 4.478782653808593750e+00 1.452024281024932861e-01
3.910000000000000000e+03 5.278796005249023438e+01 2.554062843322753906e+00 -4.055848121643066406e-01 7.659094810485839844e+00 2.176053047180175781e+00 -2.127921342849731445e+00
3.911000000000000000e+03 5.577313613891601562e+01 -9.676736593246459961e-01 -7.080940902233123779e-02 1.160930252075195312e+01 3.461547851562500000e+00 -2.876464128494262695e-01
3.912000000000000000e+03 5.920335006713867188e+01 7.875285744667053223e-01 1.890990883111953735e-01 9.937786102294921875e+00 3.038065671920776367e+00 7.795726060867309570e-01
3.913000000000000000e+03 5.368626403808593750e+01 -1.804254913330078125e+01 -6.682039499282836914e-01 7.548319816589355469e+00 2.064034700393676758e+00 1.504343867301940918e+00
3.914000000000000000e+03 5.839316177368164062e+01 -7.233328819274902344e+00 4.606772899627685547e+00 1.038345813751220703e+01 4.497069358825683594e+00 -6.558449864387512207e-01
3.915000000000000000e+03 5.484391403198242188e+01 -1.203524494171142578e+01 -4.195686578750610352e-01 1.132915401458740234e+01 3.272875785827636719e+00 1.249518871307373047e+00
3.916000000000000000e+03 5.604664230346679688e+01 -1.186782455444335938e+01 -6.060372665524482727e-02 1.162360572814941406e+01 3.468900680541992188e+00 1.144327744841575623e-01
3.917000000000000000e+03 5.613456344604492188e+01 -1.657022237777709961e+00 4.029412865638732910e-01 1.213117885589599609e+01 3.760236024856567383e+00 2.635491490364074707e-01
3.918000000000000000e+03 5.871513366699218750e+01 1.765452742576599121e+00 -1.871576905250549316e-01 9.823744773864746094e+00 2.890976190567016602e+00 4.655271470546722412e-01
3.919000000000000000e+03 5.670016098022460938e+01 -1.113716316223144531e+01 6.255416870117187500e-01 1.185778427124023438e+01 3.744997739791870117e+00 -6.217105388641357422e-01
3.920000000000000000e+03 5.735317230224609375e+01 -1.078179454803466797e+01 1.148943185806274414e+00 1.160055732727050781e+01 3.824850320816040039e+00 -1.026232600212097168e+00
3.921000000000000000e+03 5.819281005859375000e+01 4.764132022857666016e+00 -6.810060143470764160e-01 8.878691673278808594e+00 2.459305524826049805e+00 -7.292538881301879883e-02
3.922000000000000000e+03 5.853421783447265625e+01 -5.853671550750732422e+00 4.644658088684082031e+00 1.024941253662109375e+01 4.468221187591552734e+00 3.988960981369018555e-01
3.923000000000000000e+03 5.547134780883789062e+01 -1.211122894287109375e+01 -3.067671656608581543e-01 1.140187549591064453e+01 3.328532457351684570e+00 6.586700677871704102e-01
3.924000000000000000e+03 5.781105422973632812e+01 -3.761363744735717773e+00 3.148410558700561523e+00 1.129361724853515625e+01 4.332608222961425781e+00 1.493489742279052734e+00
3.925000000000000000e+03 6.126405715942382812e+01 -1.247477412223815918e+00 1.314653873443603516e+00 9.369521141052246094e+00 3.205252647399902344e+00 1.204952239990234375e+00
3.926000000000000000e+03 5.752526092529296875e+01 -3.141762733459472656e+00 2.361118316650390625e+00 1.161466312408447266e+01 4.192734241485595703e+00 1.440839052200317383e+00
3.927000000000000000e+03 5.779409027099609375e+01 -4.731702327728271484e+00 4.311676979064941406e+00 1.111952877044677734e+01 4.629361629486083984e+00 1.294728636741638184e+00
3.928000000000000000e+03 5.460560607910156250e+01 -1.278613090515136719e+01 -5.765634775161743164e-01 1.058968544006347656e+01 3.003936529159545898e+00 1.497220873832702637e+00
3.929000000000000000e+03 5.883732223510742188e+01 -7.805339336395263672e+00 4.006901741027832031e+00 1.018649578094482422e+01 4.258018970489501953e+00 -8.988366127014160156e-01
3.930000000000000000e+03 5.912910079956054688e+01 -1.368943309783935547e+01 1.088465452194213867e-01 9.945684432983398438e+00 3.016359329223632812e+00 -7.196639776229858398e-01
3.931000000000000000e+03 6.193896102905273438e+01 -9.409698486328125000e+00 2.170304298400878906e+00 8.965214729309082031e+00 3.340655803680419922e+00 -9.481832981109619141e-01
3.932000000000000000e+03 5.939693832397460938e+01 -1.458382892608642578e+01 -1.268949359655380249e-01 9.654760360717773438e+00 2.858359575271606445e+00 -6.049771308898925781e-01
3.933000000000000000e+03 5.626454162597656250e+01 -1.118816852569580078e+01 3.743447065353393555e-01 1.205788326263427734e+01 3.729668378829956055e+00 -2.947480380535125732e-01
3.934000000000000000e+03 5.896356582641601562e+01 2.405643761157989502e-01 3.536825180053710938e-01 1.015502738952636719e+01 3.152612924575805664e+00 8.407444357872009277e-01
3.935000000000000000e+03 5.396623992919921875e+01 -1.305071544647216797e+01 -5.596644282341003418e-01 9.872259140014648438e+00 2.793778419494628906e+00 2.008496761322021484e+00
3.936000000000000000e+03 5.315533065795898438e+01 -1.290068244934082031e+01 -3.854121863842010498e-01 9.117300033569335938e+00 2.619566440582275391e+00 2.573850393295288086e+00
3.937000000000000000e+03 6.255162048339843750e+01 -6.454538345336914062e+00 2.722720146179199219e+00 8.607852935791015625e+00 3.399172067642211914e+00 -1.136634591966867447e-02
3.938000000000000000e+03 6.253390884399414062e+01 -5.998852729797363281e+00 2.666605472564697266e+00 8.616638183593750000e+00 3.384973287582397461e+00 1.281080991029739380e-01
3.939000000000000000e+03 5.250562286376953125e+01 -1.412393569946289062e+01 -3.353808224201202393e-01 7.848589420318603516e+00 2.253962516784667969e+00 2.576694965362548828e+00
3.940000000000000000e+03 5.221830368041992188e+01 -1.504496669769287109e+01 -3.406201004981994629e-01 7.308643341064453125e+00 2.090407133102416992e+00 2.441855907440185547e+00
3.941000000000000000e+03 5.246477127075195312e+01 9.925605058670043945e-01 -2.134003341197967529e-01 7.924266815185546875e+00 2.313259840011596680e+00 -2.612811565399169922e+00
3.942000000000000000e+03 6.152949523925781250e+01 -9.127320289611816406e+00 2.404508829116821289e+00 9.095679283142089844e+00 3.450056552886962891e+00 -9.405165910720825195e-01
3.943000000000000000e+03 6.181651687622070312e+01 -8.803073883056640625e+00 2.484324455261230469e+00 8.948171615600585938e+00 3.429749011993408203e+00 -8.328431248664855957e-01
3.944000000000000000e+03 6.210268402099609375e+01 -1.016256523132324219e+01 1.839961647987365723e+00 8.988287925720214844e+00 3.248474836349487305e+00 -1.058392405509948730e+00
3.945000000000000000e+03 6.168718719482421875e+01 -1.334920787811279297e+01 5.883976221084594727e-01 9.232376098632812500e+00 2.946232080459594727e+00 -1.098464369773864746e+00
3.946000000000000000e+03 5.950283050537109375e+01 -1.565728282928466797e+01 -3.352845311164855957e-01 9.383846282958984375e+00 2.714568376541137695e+00 -4.737614989280700684e-01
3.947000000000000000e+03 5.633860015869140625e+01 -1.155827045440673828e+01 1.962423175573348999e-01 1.176114654541015625e+01 3.587216854095458984e+00 -1.996902525424957275e-01
3.948000000000000000e+03 6.076419448852539062e+01 -3.955637693405151367e+00 2.751909255981445312e+00 9.337592124938964844e+00 3.626850605010986328e+00 9.655492901802062988e-01
3.949000000000000000e+03 6.118404006958007812e+01 -1.013944339752197266e+01 1.996223211288452148e+00 9.337776184082031250e+00 3.400199890136718750e+00 -1.148947000503540039e+00
3.950000000000000000e+03 5.345917510986328125e+01 -1.720123481750488281e+01 -6.429795026779174805e-01 7.639170646667480469e+00 2.098857402801513672e+00 1.661332249641418457e+00
3.951000000000000000e+03 6.165523910522460938e+01 -1.063506889343261719e+01 1.677904844284057617e+00 9.187065124511718750e+00 3.259491205215454102e+00 -1.151231050491333008e+00
3.952000000000000000e+03 5.966099166870117188e+01 -5.658972859382629395e-01 8.499166965484619141e-01 1.003098869323730469e+01 3.264271736145019531e+00 1.122350096702575684e+00
3.953000000000000000e+03 6.021394729614257812e+01 -2.212849557399749756e-01 7.579359412193298340e-01 9.762328147888183594e+00 3.156079053878784180e+00 1.106720209121704102e+00
3.954000000000000000e+03 5.946846008300781250e+01 1.499756932258605957e+00 2.652082219719886780e-02 9.716588020324707031e+00 2.922932863235473633e+00 7.244892120361328125e-01
3.955000000000000000e+03 5.121414947509765625e+01 6.507536411285400391e+00 -2.883614599704742432e-01 5.932939529418945312e+00 1.693373441696166992e+00 -1.681084871292114258e+00
3.956000000000000000e+03 6.219817733764648438e+01 -5.345809936523437500e+00 2.715396165847778320e+00 8.710281372070312500e+00 3.427703380584716797e+00 3.783330619335174561e-01
3.957000000000000000e+03 6.258053207397460938e+01 -6.896805763244628906e+00 2.640923261642456055e+00 8.599842071533203125e+00 3.372229576110839844e+00 -1.534293442964553833e-01
3.958000000000000000e+03 6.117568969726562500e+01 -3.414809465408325195e+00 2.387745380401611328e+00 9.246425628662109375e+00 3.490251302719116211e+00 1.049764513969421387e+00
3.959000000000000000e+03 6.158892059326171875e+01 -2.869136333465576172e+00 2.050864458084106445e+00 9.153232574462890625e+00 3.361229181289672852e+00 1.091157317161560059e+00
3.960000000000000000e+03 5.441386032104492188e+01 1.706058621406555176e+00 -6.155567765235900879e-01 9.232654571533203125e+00 2.585129261016845703e+00 -1.537262320518493652e+00
3.961000000000000000e+03 5.205622863769531250e+01 3.274270296096801758e+00 -3.052658736705780029e-01 6.918053627014160156e+00 1.983836293220520020e+00 -2.169433355331420898e+00
3.962000000000000000e+03 5.189684677124023438e+01 4.026966094970703125e+00 -3.130138516426086426e-01 6.697730064392089844e+00 1.915414810180664062e+00 -2.049165248870849609e+00
3.963000000000000000e+03 5.572934722900390625e+01 -2.006987380981445312e+01 -7.908710241317749023e-01 7.729889392852783203e+00 2.081705331802368164e+00 8.189527392387390137e-01
3.964000000000000000e+03 5.759188079833984375e+01 6.162693977355957031e+00 -7.721397280693054199e-01 8.454734802246093750e+00 2.304778575897216797e+00 -2.858443856239318848e-01
3.965000000000000000e+03 5.898884582519531250e+01 2.690064907073974609e+00 -3.533357679843902588e-01 9.479328155517578125e+00 2.737797498703002930e+00 3.866254091262817383e-01
3.966000000000000000e+03 4.082781219482421875e+01 7.036210060119628906e+00 3.738706409931182861e-01 1.588086247444152832e+00 5.885870456695556641e-01 -6.028748750686645508e-01
3.967000000000000000e+03 5.338641357421875000e+01 9.558636665344238281e+00 -5.705794095993041992e-01 6.529014587402343750e+00 1.787530541419982910e+00 -1.049182295799255371e+00
3.968000000000000000e+03 5.823165130615234375e+01 -1.909393882751464844e+01 -7.752778530120849609e-01 8.487339019775390625e+00 2.313618183135986328e+00 1.940810680389404297e-01
3.969000000000000000e+03 5.798551940917968750e+01 -1.594737720489501953e+01 -5.927941799163818359e-01 9.410930633544921875e+00 2.645441055297851562e+00 3.322486206889152527e-02
3.970000000000000000e+03 5.644832992553710938e+01 -2.079817008972167969e+01 -7.991497516632080078e-01 7.743871212005615234e+00 2.083416461944580078e+00 6.576538085937500000e-01
3.971000000000000000e+03 4.257236099243164062e+01 1.261819744110107422e+01 1.984222233295440674e-01 2.710953712463378906e+00 8.728127479553222656e-01 -7.877585291862487793e-01
3.972000000000000000e+03 5.387368011474609375e+01 -2.023266983032226562e+01 -6.477560400962829590e-01 7.062714099884033203e+00 1.924487471580505371e+00 1.220368981361389160e+00
3.973000000000000000e+03 5.804447937011718750e+01 1.282147693634033203e+01 -6.988772749900817871e-01 7.269676208496093750e+00 1.971239686012268066e+00 -2.167356610298156738e-01
3.974000000000000000e+03 5.459872817993164062e+01 9.902404785156250000e+00 -6.614353060722351074e-01 6.914927959442138672e+00 1.876047730445861816e+00 -8.343074917793273926e-01
3.975000000000000000e+03 3.905887603759765625e+01 1.424063110351562500e+01 2.115162909030914307e-01 1.995236039161682129e+00 6.620256900787353516e-01 -4.898499548435211182e-01
3.976000000000000000e+03 3.733877944946289062e+01 1.397913932800292969e+01 1.923398971557617188e-01 1.646584987640380859e+00 5.516774654388427734e-01 -3.432412743568420410e-01
3.977000000000000000e+03 5.103715133666992188e+01 -2.461611366271972656e+01 -2.985991537570953369e-01 5.428380489349365234e+00 1.538934469223022461e+00 1.109060406684875488e+00
3.978000000000000000e+03 5.310609817504882812e+01 -2.324551391601562500e+01 -5.255143642425537109e-01 6.305461406707763672e+00 1.733984112739562988e+00 1.050642609596252441e+00
3.979000000000000000e+03 4.946396255493164062e+01 1.252771949768066406e+01 -2.186384797096252441e-01 4.893211841583251953e+00 1.402372002601623535e+00 -1.071868300437927246e+00
3.980000000000000000e+03 5.464881896972656250e+01 -2.809697341918945312e+01 -5.221117734909057617e-01 6.245227813720703125e+00 1.716934800148010254e+00 5.208850502967834473e-01
3.981000000000000000e+03 5.547225952148437500e+01 7.940316200256347656e+00 -7.376039028167724609e-01 7.551229476928710938e+00 2.044087648391723633e+00 -7.992136478424072266e-01
3.982000000000000000e+03 5.415487670898437500e+01 5.750878334045410156e+00 -6.688154339790344238e-01 7.563253879547119141e+00 2.068331480026245117e+00 -1.265876412391662598e+00
3.983000000000000000e+03 4.052896499633789062e+01 1.468392753601074219e+01 1.741225421428680420e-01 2.410514354705810547e+00 7.753910422325134277e-01 -5.746393203735351562e-01
3.984000000000000000e+03 5.873774337768554688e+01 -8.572152137756347656e+00 3.462991237640380859e+00 1.043443107604980469e+01 4.169226646423339844e+00 -1.240249276161193848e+00
3.985000000000000000e+03 5.464820861816406250e+01 -1.256524085998535156e+01 -5.419670343399047852e-01 1.076220607757568359e+01 3.066071748733520508e+00 1.449978947639465332e+00
3.986000000000000000e+03 5.597452545166015625e+01 -1.321523547172546387e+00 1.654421091079711914e-01 1.191460704803466797e+01 3.624014616012573242e+00 1.738202013075351715e-02
3.987000000000000000e+03 5.645413208007812500e+01 -1.599410533905029297e+00 5.031715631484985352e-01 1.191903686523437500e+01 3.726662397384643555e+00 4.564319550991058350e-01
3.988000000000000000e+03 5.888194656372070312e+01 -7.094769477844238281e+00 4.342484474182128906e+00 1.005484676361083984e+01 4.319199085235595703e+00 -4.742460548877716064e-01
3.989000000000000000e+03 5.825016403198242188e+01 -9.246451377868652344e+00 2.861631631851196289e+00 1.091817760467529297e+01 4.133942604064941406e+00 -1.411843299865722656e+00
3.990000000000000000e+03 5.864616775512695312e+01 -8.076157569885253906e+00 3.897896051406860352e+00 1.039530658721923828e+01 4.287961006164550781e+00 -1.063116312026977539e+00
3.991000000000000000e+03 5.840711975097656250e+01 -7.890002250671386719e+00 4.124882698059082031e+00 1.052483654022216797e+01 4.394915580749511719e+00 -1.038107633590698242e+00
3.992000000000000000e+03 5.975875473022460938e+01 -4.198942661285400391e+00 3.148843288421630859e+00 9.783099174499511719e+00 3.879582881927490234e+00 1.036785006523132324e+00
3.993000000000000000e+03 5.278339004516601562e+01 1.242676377296447754e+00 -3.256841301918029785e-01 8.132141113281250000e+00 2.341937065124511719e+00 -2.449516296386718750e+00
3.994000000000000000e+03 5.755344009399414062e+01 -2.711153507232666016e+00 1.942965626716613770e+00 1.155232143402099609e+01 4.048586368560791016e+00 1.314010381698608398e+00
3.995000000000000000e+03 5.508572769165039062e+01 -1.194693088531494141e+01 -3.664308786392211914e-01 1.152929306030273438e+01 3.348858594894409180e+00 9.903811812400817871e-01
3.996000000000000000e+03 5.356993865966796875e+01 -1.297277355194091797e+01 -4.981056451797485352e-01 9.572401046752929688e+00 2.722288608551025391e+00 2.272384643554687500e+00
3.997000000000000000e+03 5.812352752685546875e+01 -3.738313436508178711e+00 3.128254175186157227e+00 1.101057147979736328e+01 4.241647720336914062e+00 1.435624837875366211e+00
3.998000000000000000e+03 6.051090240478515625e+01 -9.103763699531555176e-01 1.137151479721069336e+00 9.690782546997070312e+00 3.248380184173583984e+00 1.209746360778808594e+00
3.999000000000000000e+03 5.850690841674804688e+01 -3.867020368576049805e+00 3.213739395141601562e+00 1.066628742218017578e+01 4.164008140563964844e+00 1.365867137908935547e+00
4.000000000000000000e+03 6.107353973388671875e+01 -1.765162229537963867e+00 1.584033489227294922e+00 9.415110588073730469e+00 3.299743175506591797e+00 1.209790468215942383e+00
4.001000000000000000e+03 5.563409423828125000e+01 -1.197917079925537109e+01 -2.241400778293609619e-01 1.164108848571777344e+01 3.425084590911865234e+00 4.430855214595794678e-01
4.002000000000000000e+03 6.136561965942382812e+01 -4.267406940460205078e+00 2.702788114547729492e+00 9.066267013549804688e+00 3.530716657638549805e+00 7.961176037788391113e-01
4.003000000000000000e+03 5.814962387084960938e+01 -4.244604110717773438e+00 3.634740114212036133e+00 1.086872291564941406e+01 4.351038932800292969e+00 1.342342734336853027e+00
4.004000000000000000e+03 5.802120208740234375e+01 -9.615034103393554688e+00 2.474101781845092773e+00 1.117080116271972656e+01 4.093471050262451172e+00 -1.432425141334533691e+00
4.005000000000000000e+03 5.653316879272460938e+01 -2.076662540435791016e+00 9.134969115257263184e-01 1.225963020324707031e+01 3.951938152313232422e+00 7.373947501182556152e-01
4.006000000000000000e+03 5.399253463745117188e+01 1.847234725952148438e+00 -6.016923785209655762e-01 8.962759017944335938e+00 2.508319854736328125e+00 -1.771765232086181641e+00
4.007000000000000000e+03 5.289930725097656250e+01 -1.560405445098876953e+01 -5.150464773178100586e-01 7.713987827301025391e+00 2.159682512283325195e+00 2.079725027084350586e+00
4.008000000000000000e+03 5.321701049804687500e+01 -1.455884361267089844e+01 -5.283798575401306152e-01 8.335094451904296875e+00 2.342014312744140625e+00 2.191805124282836914e+00
4.009000000000000000e+03 5.934922027587890625e+01 -9.117341786623001099e-02 5.644109845161437988e-01 1.007857799530029297e+01 3.192896604537963867e+00 9.714743494987487793e-01
4.010000000000000000e+03 5.478641891479492188e+01 -2.172739952802658081e-01 -4.449985921382904053e-01 1.083178329467773438e+01 3.116035461425781250e+00 -1.292017340660095215e+00
4.011000000000000000e+03 5.530559539794921875e+01 -8.743121623992919922e-01 -2.717513144016265869e-01 1.156391525268554688e+01 3.387649059295654297e+00 -7.841261029243469238e-01
4.012000000000000000e+03 6.202769088745117188e+01 -6.540502548217773438e+00 2.879252433776855469e+00 8.723820686340332031e+00 3.480921745300292969e+00 -3.771043568849563599e-02
4.013000000000000000e+03 6.149478912353515625e+01 -8.513071060180664062e+00 2.665771484375000000e+00 9.031730651855468750e+00 3.509250640869140625e+00 -7.804961800575256348e-01
4.014000000000000000e+03 6.134556579589843750e+01 -5.573136329650878906e+00 3.081160545349121094e+00 8.961754798889160156e+00 3.612874746322631836e+00 3.393163681030273438e-01
4.015000000000000000e+03 6.023376083374023438e+01 -8.311319351196289062e+00 3.118263483047485352e+00 9.515726089477539062e+00 3.790196895599365234e+00 -8.835670948028564453e-01
4.016000000000000000e+03 6.160877990722656250e+01 -9.800115585327148438e+00 2.069159030914306641e+00 9.142830848693847656e+00 3.363597154617309570e+00 -1.059812903404235840e+00
4.017000000000000000e+03 6.214392089843750000e+01 -1.119512844085693359e+01 1.442420601844787598e+00 9.058085441589355469e+00 3.150151729583740234e+00 -1.136219501495361328e+00
4.018000000000000000e+03 5.899519348144531250e+01 -1.011906623840332031e+01 2.086966276168823242e+00 1.046721935272216797e+01 3.766255617141723633e+00 -1.337786078453063965e+00
4.019000000000000000e+03 6.149583816528320312e+01 -2.011911153793334961e+00 1.682035803794860840e+00 9.266190528869628906e+00 3.284467935562133789e+00 1.186180830001831055e+00
4.020000000000000000e+03 6.037160873413085938e+01 -1.438576316833496094e+01 9.358281642198562622e-02 9.476467132568359375e+00 2.871015071868896484e+00 -8.429264426231384277e-01
4.021000000000000000e+03 6.165250015258789062e+01 -1.172604751586914062e+01 1.224236011505126953e+00 9.256812095642089844e+00 3.144314527511596680e+00 -1.178145051002502441e+00
4.022000000000000000e+03 5.814299774169921875e+01 -3.506676852703094482e-01 4.185775518417358398e-01 1.058569812774658203e+01 3.301282644271850586e+00 7.684623599052429199e-01
4.023000000000000000e+03 6.035433578491210938e+01 -1.831555128097534180e+00 1.589686036109924316e+00 9.718359947204589844e+00 3.392413854598999023e+00 1.242876291275024414e+00
4.024000000000000000e+03 5.847452163696289062e+01 -1.463539028167724609e+01 -2.816472053527832031e-01 9.814820289611816406e+00 2.859951734542846680e+00 -3.521811664104461670e-01
4.025000000000000000e+03 6.028025817871093750e+01 -2.691097974777221680e+00 2.104044675827026367e+00 9.692951202392578125e+00 3.539098739624023438e+00 1.237878561019897461e+00
4.026000000000000000e+03 6.070903015136718750e+01 -1.372447490692138672e+01 3.397459387779235840e-01 9.486649513244628906e+00 2.947918653488159180e+00 -9.760950207710266113e-01
4.027000000000000000e+03 5.370362472534179688e+01 -1.611689186096191406e+01 -6.556916236877441406e-01 8.092275619506835938e+00 2.230975151062011719e+00 1.754534244537353516e+00
4.028000000000000000e+03 5.347982788085937500e+01 -1.884204292297363281e+01 -6.340150833129882812e-01 7.234476566314697266e+00 1.980138421058654785e+00 1.446178674697875977e+00
4.029000000000000000e+03 5.251854705810546875e+01 4.524455547332763672e+00 -4.442705214023590088e-01 6.992445945739746094e+00 1.964452743530273438e+00 -1.813848257064819336e+00
4.030000000000000000e+03 5.413290786743164062e+01 3.163023293018341064e-01 -5.124200582504272461e-01 1.007659149169921875e+01 2.869251489639282227e+00 -1.821315288543701172e+00
4.031000000000000000e+03 5.302092742919921875e+01 7.772408485412597656e+00 -5.535866618156433105e-01 6.697390556335449219e+00 1.843141198158264160e+00 -1.278199911117553711e+00
4.032000000000000000e+03 5.321746444702148438e+01 5.214798450469970703e+00 -5.639423131942749023e-01 7.262774944305419922e+00 2.009649753570556641e+00 -1.567581295967102051e+00
4.033000000000000000e+03 5.166952133178710938e+01 5.632569313049316406e+00 -3.348206877708435059e-01 6.302640438079833984e+00 1.790345907211303711e+00 -1.769574880599975586e+00
4.034000000000000000e+03 5.806468200683593750e+01 3.893978357315063477e+00 -6.128872036933898926e-01 9.185756683349609375e+00 2.571860790252685547e+00 -1.538917515426874161e-02
4.035000000000000000e+03 5.629923629760742188e+01 -9.851809740066528320e-01 1.310218870639801025e-01 1.160037326812744141e+01 3.519418716430664062e+00 1.335580945014953613e-01
4.036000000000000000e+03 5.397378921508789062e+01 8.364952087402343750e+00 -6.448072791099548340e-01 6.963571071624755859e+00 1.895629167556762695e+00 -1.066927909851074219e+00
4.037000000000000000e+03 5.485298919677734375e+01 8.851012229919433594e+00 -7.134512662887573242e-01 7.165452003479003906e+00 1.935600161552429199e+00 -9.061023592948913574e-01
4.038000000000000000e+03 5.639786911010742188e+01 6.393097877502441406e+00 -7.908596396446228027e-01 8.180393218994140625e+00 2.216860055923461914e+00 -6.087468862533569336e-01
4.039000000000000000e+03 5.637268447875976562e+01 7.559149265289306641e+00 -7.841034531593322754e-01 7.889476776123046875e+00 2.131612062454223633e+00 -5.880456566810607910e-01
4.040000000000000000e+03 5.364417648315429688e+01 6.724337577819824219e+00 -6.312727332115173340e-01 7.172632217407226562e+00 1.962407827377319336e+00 -1.285920143127441406e+00
4.041000000000000000e+03 5.472781372070312500e+01 -2.356493186950683594e+01 -6.549680233001708984e-01 6.797077178955078125e+00 1.842632770538330078e+00 8.122085332870483398e-01
4.042000000000000000e+03 5.250263214111328125e+01 1.201962757110595703e+01 -4.716174900531768799e-01 5.941837787628173828e+00 1.641066193580627441e+00 -9.394298791885375977e-01
4.043000000000000000e+03 5.487038040161132812e+01 -2.047701835632324219e+01 -7.282929420471191406e-01 7.363271236419677734e+00 1.990493416786193848e+00 1.004896521568298340e+00
4.044000000000000000e+03 4.890802764892578125e+01 1.129328632354736328e+01 -1.531228870153427124e-01 4.704955101013183594e+00 1.365549683570861816e+00 -1.189632058143615723e+00
4.045000000000000000e+03 5.606473541259765625e+01 -2.194307899475097656e+01 -7.653419971466064453e-01 7.422781467437744141e+00 1.997231841087341309e+00 6.971346735954284668e-01
4.046000000000000000e+03 5.772927856445312500e+01 -1.797280311584472656e+01 -7.641849517822265625e-01 8.724516868591308594e+00 2.388099670410156250e+00 2.758086025714874268e-01
4.047000000000000000e+03 4.390690994262695312e+01 1.420508098602294922e+01 1.178744360804557800e-01 3.160119056701660156e+00 9.833980202674865723e-01 -8.329373002052307129e-01
4.048000000000000000e+03 4.440506362915039062e+01 2.243287086486816406e+01 1.251013670116662979e-02 3.541741609573364258e+00 1.066275477409362793e+00 -5.258680582046508789e-01
4.049000000000000000e+03 5.208927917480468750e+01 7.119663238525390625e+00 -4.286934137344360352e-01 6.313070297241210938e+00 1.765313029289245605e+00 -1.485871911048889160e+00
4.050000000000000000e+03 4.388044357299804688e+01 1.595615291595458984e+01 6.791682541370391846e-02 3.235462903976440430e+00 9.910139441490173340e-01 -7.415417432785034180e-01
4.051000000000000000e+03 4.386924362182617188e+01 1.262193202972412109e+01 1.616002768278121948e-01 3.059560060501098633e+00 9.663481116294860840e-01 -8.960334062576293945e-01
4.052000000000000000e+03 4.929594802856445312e+01 1.613691520690917969e+01 -2.285588979721069336e-01 4.765941619873046875e+00 1.361214756965637207e+00 -8.175624608993530273e-01
4.053000000000000000e+03 5.278544998168945312e+01 -2.526230239868164062e+01 -4.504306018352508545e-01 5.958259582519531250e+00 1.652348637580871582e+00 8.899061083793640137e-01
4.054000000000000000e+03 5.128520965576171875e+01 9.865298271179199219e+00 -3.713133931159973145e-01 5.689601898193359375e+00 1.595486521720886230e+00 -1.247311949729919434e+00
4.055000000000000000e+03 5.640717697143554688e+01 1.400213336944580078e+01 -6.492637991905212402e-01 6.819451332092285156e+00 1.851056218147277832e+00 -4.294991195201873779e-01
4.056000000000000000e+03 4.150317382812500000e+01 1.426256847381591797e+01 1.696524620056152344e-01 2.609340190887451172e+00 8.336977958679199219e-01 -6.794268488883972168e-01
4.057000000000000000e+03 4.261572265625000000e+01 1.423986530303955078e+01 1.568843275308609009e-01 2.851947307586669922e+00 9.026495218276977539e-01 -7.486674189567565918e-01
4.058000000000000000e+03 6.076221847534179688e+01 -5.283539295196533203e+00 3.241425037384033203e+00 9.172180175781250000e+00 3.724081754684448242e+00 4.961899518966674805e-01
4.059000000000000000e+03 5.317008209228515625e+01 5.360752940177917480e-01 -3.655549585819244385e-01 8.963950157165527344e+00 2.579518318176269531e+00 -2.445172071456909180e+00
4.060000000000000000e+03 5.596156692504882812e+01 -1.682812881469726562e+01 -7.831127047538757324e-01 8.792000770568847656e+00 2.402666330337524414e+00 8.352820277214050293e-01
4.061000000000000000e+03 5.513397979736328125e+01 -1.257626056671142578e+01 -4.895279705524444580e-01 1.091475868225097656e+01 3.127569437026977539e+00 1.056272864341735840e+00
4.062000000000000000e+03 5.486380004882812500e+01 -6.644432544708251953e-01 -3.908520340919494629e-01 1.123922729492187500e+01 3.254512786865234375e+00 -1.193012714385986328e+00
4.063000000000000000e+03 5.808192825317382812e+01 -6.560600280761718750e+00 5.113363742828369141e+00 1.055359649658203125e+01 4.700088024139404297e+00 -1.559768319129943848e-01
4.064000000000000000e+03 5.851616287231445312e+01 -6.930241107940673828e+00 4.626270771026611328e+00 1.024311161041259766e+01 4.460814476013183594e+00 -3.933124542236328125e-01
4.065000000000000000e+03 5.719480895996093750e+01 -1.120522785186767578e+01 7.705346345901489258e-01 1.156499767303466797e+01 3.700659513473510742e+00 -8.153116106986999512e-01
4.066000000000000000e+03 5.336951446533203125e+01 -1.377579212188720703e+01 -5.199695229530334473e-01 8.880251884460449219e+00 2.508084774017333984e+00 2.251062154769897461e+00
4.067000000000000000e+03 5.411784744262695312e+01 -1.400020408630371094e+01 -6.294845342636108398e-01 9.373738288879394531e+00 2.623276233673095703e+00 1.816048502922058105e+00
4.068000000000000000e+03 5.480358505249023438e+01 -1.274774646759033203e+01 -5.513201951980590820e-01 1.067953491210937500e+01 3.038464546203613281e+00 1.334926247596740723e+00
4.069000000000000000e+03 5.480233383178710938e+01 -1.241612815856933594e+01 -5.120937824249267578e-01 1.090618515014648438e+01 3.118227243423461914e+00 1.335999369621276855e+00
4.070000000000000000e+03 5.803044128417968750e+01 -2.665904998779296875e+00 2.001060724258422852e+00 1.112864208221435547e+01 3.938910961151123047e+00 1.338645339012145996e+00
4.071000000000000000e+03 5.972451782226562500e+01 -5.821944713592529297e+00 3.839776277542114258e+00 9.559323310852050781e+00 4.019730091094970703e+00 3.113493323326110840e-01
4.072000000000000000e+03 5.858921051025390625e+01 -5.473807811737060547e+00 4.474262714385986328e+00 1.025940799713134766e+01 4.420101165771484375e+00 6.549912095069885254e-01
4.073000000000000000e+03 5.779610824584960938e+01 -3.488536119461059570e+00 2.928303003311157227e+00 1.138490486145019531e+01 4.293962478637695312e+00 1.489356279373168945e+00
4.074000000000000000e+03 5.884893035888671875e+01 -4.571208000183105469e+00 3.709524631500244141e+00 1.026460552215576172e+01 4.192239284515380859e+00 1.086899399757385254e+00
4.075000000000000000e+03 5.775431823730468750e+01 -1.659255504608154297e+00 1.068919658660888672e+00 1.120297241210937500e+01 3.681567668914794922e+00 1.046923637390136719e+00
4.076000000000000000e+03 5.899032211303710938e+01 -1.512528228759765625e+01 -3.004091978073120117e-01 9.581956863403320312e+00 2.784464120864868164e+00 -4.297448396682739258e-01
4.077000000000000000e+03 5.295721054077148438e+01 -1.397801971435546875e+01 -4.298600852489471436e-01 8.331187248229980469e+00 2.370398283004760742e+00 2.409736633300781250e+00
4.078000000000000000e+03 6.001654434204101562e+01 -1.396143198013305664e+00 1.323989868164062500e+00 9.900131225585937500e+00 3.367236375808715820e+00 1.233778357505798340e+00
4.079000000000000000e+03 6.173633956909179688e+01 -6.226198196411132812e+00 2.967749834060668945e+00 8.810936927795410156e+00 3.533605813980102539e+00 8.573760092258453369e-02
4.080000000000000000e+03 6.151488876342773438e+01 -7.440226078033447266e+00 2.929265737533569336e+00 8.923481941223144531e+00 3.555824279785156250e+00 -4.283370971679687500e-01
4.081000000000000000e+03 6.084143829345703125e+01 -9.728944778442382812e+00 2.228661060333251953e+00 9.417245864868164062e+00 3.493772029876708984e+00 -1.132028102874755859e+00
4.082000000000000000e+03 5.736640930175781250e+01 -1.570516467094421387e+00 8.802245855331420898e-01 1.139576435089111328e+01 3.682796716690063477e+00 8.915653228759765625e-01
4.083000000000000000e+03 5.520631408691406250e+01 -1.053445488214492798e-01 -4.130408763885498047e-01 1.095115470886230469e+01 3.161434173583984375e+00 -9.505408406257629395e-01
4.084000000000000000e+03 5.525194931030273438e+01 -5.117865800857543945e-01 -3.519005477428436279e-01 1.120612812042236328e+01 3.256268262863159180e+00 -8.652157187461853027e-01
4.085000000000000000e+03 6.007727432250976562e+01 -1.340928649902343750e+01 3.588989078998565674e-01 9.719359397888183594e+00 3.023477554321289062e+00 -9.435365796089172363e-01
4.086000000000000000e+03 5.672824478149414062e+01 -1.159273147583007812e+01 3.398182094097137451e-01 1.154628181457519531e+01 3.565829992294311523e+00 -4.217966794967651367e-01
4.087000000000000000e+03 5.398862075805664062e+01 -1.351012325286865234e+01 -5.997452139854431152e-01 9.574957847595214844e+00 2.692563772201538086e+00 1.944399833679199219e+00
4.088000000000000000e+03 5.657305908203125000e+01 -1.247512912750244141e+01 -1.326806396245956421e-01 1.107969379425048828e+01 3.284103870391845703e+00 -1.198563817888498306e-02
4.089000000000000000e+03 6.019406509399414062e+01 -7.778858661651611328e+00 3.409518480300903320e+00 9.466934204101562500e+00 3.862935781478881836e+00 -6.770119667053222656e-01
4.090000000000000000e+03 6.120668029785156250e+01 -9.446213722229003906e+00 2.306881666183471680e+00 9.255679130554199219e+00 3.468768358230590820e+00 -1.042456269264221191e+00
4.091000000000000000e+03 6.161158370971679688e+01 -6.588083267211914062e+00 3.073216438293457031e+00 8.865111351013183594e+00 3.581498384475708008e+00 -6.225036084651947021e-02
4.092000000000000000e+03 6.163032913208007812e+01 -5.071971893310546875e+00 2.853602647781372070e+00 8.904390335083007812e+00 3.527397871017456055e+00 5.122001767158508301e-01
4.093000000000000000e+03 6.212680435180664062e+01 -7.432431697845458984e+00 2.730691671371459961e+00 8.740950584411621094e+00 3.441492795944213867e+00 -3.903309702873229980e-01
4.094000000000000000e+03 6.117051315307617188e+01 -8.825294494628906250e+00 2.652688741683959961e+00 9.195378303527832031e+00 3.554419994354248047e+00 -9.237205386161804199e-01
4.095000000000000000e+03 6.126740264892578125e+01 -1.234559249877929688e+01 9.306463003158569336e-01 9.410202026367187500e+00 3.102254629135131836e+00 -1.162168383598327637e+00
4.096000000000000000e+03 5.277486801147460938e+01 1.811032891273498535e+00 -3.609550893306732178e-01 7.918663024902343750e+00 2.267312526702880859e+00 -2.291117191314697266e+00
4.097000000000000000e+03 6.008075332641601562e+01 -1.060282707214355469e+01 1.737364292144775391e+00 9.865386962890625000e+00 3.480825424194335938e+00 -1.247387886047363281e+00
4.098000000000000000e+03 6.070663070678710938e+01 -2.219080448150634766e+00 1.812356233596801758e+00 9.542490005493164062e+00 3.406453847885131836e+00 1.224049210548400879e+00
4.099000000000000000e+03 6.111483383178710938e+01 -2.552628755569458008e+00 1.958883285522460938e+00 9.354736328125000000e+00 3.394085884094238281e+00 1.171691298484802246e+00
4.100000000000000000e+03 5.752824020385742188e+01 -1.694608497619628906e+01 -7.218495011329650879e-01 9.053062438964843750e+00 2.499363899230957031e+00 2.771975398063659668e-01
4.101000000000000000e+03 5.344899368286132812e+01 -1.548681259155273438e+01 -6.071636080741882324e-01 8.166843414306640625e+00 2.267904043197631836e+00 1.950591683387756348e+00
4.102000000000000000e+03 5.540019989013671875e+01 -1.257650470733642578e+01 -4.651627540588378906e-01 1.105494689941406250e+01 3.176935434341430664e+00 8.279805779457092285e-01
4.103000000000000000e+03 5.727302169799804688e+01 2.851981163024902344e+00 -6.003238558769226074e-01 9.497168540954589844e+00 2.669053316116333008e+00 -2.008065879344940186e-01
4.104000000000000000e+03 5.495347976684570312e+01 -1.263640403747558594e+01 -5.356016755104064941e-01 1.081751728057861328e+01 3.084574699401855469e+00 1.222151875495910645e+00
4.105000000000000000e+03 5.852863693237304688e+01 -1.559965324401855469e+01 -4.676098525524139404e-01 9.512089729309082031e+00 2.713343858718872070e+00 -2.130700200796127319e-01
4.106000000000000000e+03 5.857479095458984375e+01 9.632431268692016602e-01 -2.021399326622486115e-03 1.009384441375732422e+01 3.027546882629394531e+00 5.796358585357666016e-01
4.107000000000000000e+03 5.792038345336914062e+01 -1.146383166313171387e+00 7.651606202125549316e-01 1.094599246978759766e+01 3.513345718383789062e+00 9.213072061538696289e-01
4.108000000000000000e+03 5.455695724487304688e+01 4.811141967773437500e+00 -6.996019482612609863e-01 8.004914283752441406e+00 2.191593647003173828e+00 -1.235991477966308594e+00
4.109000000000000000e+03 5.274738693237304688e+01 3.313436031341552734e+00 -4.308320879936218262e-01 7.385490417480468750e+00 2.086397647857666016e+00 -1.962451577186584473e+00
4.110000000000000000e+03 5.835628890991210938e+01 -2.824989557266235352e+00 2.177799701690673828e+00 1.088729667663574219e+01 3.919528961181640625e+00 1.381749987602233887e+00
4.111000000000000000e+03 5.807991409301757812e+01 2.921247005462646484e+00 -5.212423205375671387e-01 9.502396583557128906e+00 2.694346189498901367e+00 8.811631798744201660e-02
4.112000000000000000e+03 5.717975997924804688e+01 4.108407020568847656e+00 -7.096894979476928711e-01 9.060028076171875000e+00 2.505101680755615234e+00 -3.350213766098022461e-01
4.113000000000000000e+03 5.335773086547851562e+01 3.381783246994018555e+00 -5.570241808891296387e-01 7.883638381958007812e+00 2.197984218597412109e+00 -1.799461960792541504e+00
4.114000000000000000e+03 5.970522308349609375e+01 -1.295700740814208984e+01 4.860601723194122314e-01 9.914162635803222656e+00 3.120066881179809570e+00 -9.669802188873291016e-01
4.115000000000000000e+03 5.639060592651367188e+01 5.236916065216064453e+00 -7.797539234161376953e-01 8.555809020996093750e+00 2.332816362380981445e+00 -6.208480596542358398e-01
4.116000000000000000e+03 5.466633605957031250e+01 7.280217647552490234e+00 -7.080757021903991699e-01 7.434705257415771484e+00 2.017988920211791992e+00 -1.014536738395690918e+00
4.117000000000000000e+03 5.265900421142578125e+01 6.124381542205810547e+00 -4.956289529800415039e-01 6.784439086914062500e+00 1.886643052101135254e+00 -1.550494551658630371e+00
4.118000000000000000e+03 5.228718185424804688e+01 8.893530845642089844e+00 -4.659608900547027588e-01 6.179481983184814453e+00 1.714056372642517090e+00 -1.246293544769287109e+00
4.119000000000000000e+03 5.296354675292968750e+01 -1.830226898193359375e+01 -5.641940832138061523e-01 7.070212841033935547e+00 1.951805591583251953e+00 1.654908776283264160e+00
4.120000000000000000e+03 5.728580474853515625e+01 -1.544668197631835938e+01 -6.148058772087097168e-01 9.561148643493652344e+00 2.683902978897094727e+00 2.246588319540023804e-01
4.121000000000000000e+03 5.720285797119140625e+01 -1.481036567687988281e+01 -5.407457947731018066e-01 9.883537292480468750e+00 2.802837371826171875e+00 1.677660495042800903e-01
4.122000000000000000e+03 5.434012222290039062e+01 1.127787685394287109e+01 -6.378469467163085938e-01 6.680622577667236328e+00 1.812832593917846680e+00 -7.996720671653747559e-01
4.123000000000000000e+03 5.575344467163085938e+01 1.177386379241943359e+01 -6.912675499916076660e-01 6.961745738983154297e+00 1.881143450736999512e+00 -5.803131461143493652e-01
4.124000000000000000e+03 5.070192337036132812e+01 1.178215026855468750e+01 -3.224707543849945068e-01 5.347414493560791016e+00 1.507483124732971191e+00 -1.109022378921508789e+00
4.125000000000000000e+03 5.373739242553710938e+01 4.417165279388427734e+00 -6.225879788398742676e-01 7.767156124114990234e+00 2.143370389938354492e+00 -1.523426413536071777e+00
4.126000000000000000e+03 5.495398712158203125e+01 1.356427860260009766e+01 -5.945670604705810547e-01 6.498785018920898438e+00 1.771265387535095215e+00 -6.012986302375793457e-01
4.127000000000000000e+03 5.010135650634765625e+01 -2.644066619873046875e+01 -2.095070928335189819e-01 4.991508960723876953e+00 1.434600591659545898e+00 1.007729887962341309e+00
4.128000000000000000e+03 5.220423126220703125e+01 -2.737442207336425781e+01 -3.676107823848724365e-01 5.562922477722167969e+00 1.558593511581420898e+00 7.800311446189880371e-01
4.129000000000000000e+03 4.579150772094726562e+01 1.752220344543457031e+01 -3.448240086436271667e-02 3.807226896286010742e+00 1.131823301315307617e+00 -7.381839156150817871e-01
4.130000000000000000e+03 4.866181945800781250e+01 1.459772682189941406e+01 -1.801974028348922729e-01 4.600188255310058594e+00 1.325997233390808105e+00 -9.279481768608093262e-01
4.131000000000000000e+03 5.084245300292968750e+01 1.523346710205078125e+01 -3.299686312675476074e-01 5.235266685485839844e+00 1.471589446067810059e+00 -8.227424025535583496e-01
4.132000000000000000e+03 4.236488342285156250e+01 1.591875267028808594e+01 1.317510455846786499e-01 2.867383241653442383e+00 8.997403383255004883e-01 -6.880429983139038086e-01
4.133000000000000000e+03 5.868690490722656250e+01 -7.385280609130859375e+00 4.346708774566650391e+00 1.022829723358154297e+01 4.372501850128173828e+00 -6.929179430007934570e-01
4.134000000000000000e+03 5.931005096435546875e+01 -8.417862892150878906e+00 3.391573667526245117e+00 1.002870655059814453e+01 4.026083946228027344e+00 -1.083477139472961426e+00
4.135000000000000000e+03 5.295188903808593750e+01 8.858259916305541992e-01 -3.251910507678985596e-01 8.530798912048339844e+00 2.461682319641113281e+00 -2.481411933898925781e+00
4.136000000000000000e+03 5.395420837402343750e+01 -1.467073154449462891e+01 -6.476299166679382324e-01 8.844974517822265625e+00 2.459203481674194336e+00 1.820914268493652344e+00
4.137000000000000000e+03 5.609331130981445312e+01 -6.778767108917236328e-01 -8.775782585144042969e-02 1.144388484954833984e+01 3.406837940216064453e+00 -1.283120065927505493e-01
4.138000000000000000e+03 5.623278808593750000e+01 -1.266099166870117188e+01 -2.639235854148864746e-01 1.102817535400390625e+01 3.229275465011596680e+00 2.272377014160156250e-01
4.139000000000000000e+03 5.871672821044921875e+01 -9.494855880737304688e+00 2.602477550506591797e+00 1.060446166992187500e+01 3.962081909179687500e+00 -1.365687251091003418e+00
4.140000000000000000e+03 5.849784851074218750e+01 -9.868876457214355469e+00 2.264474630355834961e+00 1.078328895568847656e+01 3.914329051971435547e+00 -1.374464392662048340e+00
4.141000000000000000e+03 5.670557022094726562e+01 -1.204221439361572266e+01 8.941344171762466431e-02 1.128316402435302734e+01 3.411773204803466797e+00 -2.337320148944854736e-01
4.142000000000000000e+03 5.894138336181640625e+01 -9.126724243164062500e+00 2.902309417724609375e+00 1.039180660247802734e+01 3.988234758377075195e+00 -1.293799400329589844e+00
4.143000000000000000e+03 5.870872497558593750e+01 -3.372906684875488281e+00 2.730084180831909180e+00 1.059223747253417969e+01 3.996696472167968750e+00 1.368184089660644531e+00
4.144000000000000000e+03 5.699665832519531250e+01 -1.384572386741638184e+00 6.216777563095092773e-01 1.153436946868896484e+01 3.646814107894897461e+00 6.575330495834350586e-01
4.145000000000000000e+03 6.078536224365234375e+01 -1.043950462341308594e+01 1.854331851005554199e+00 9.485229492187500000e+00 3.401868343353271484e+00 -1.190885782241821289e+00
4.146000000000000000e+03 5.758590316772460938e+01 -1.038694667816162109e+01 1.597782969474792480e+00 1.149704265594482422e+01 3.928447484970092773e+00 -1.233335733413696289e+00
4.147000000000000000e+03 5.870306777954101562e+01 -5.049420356750488281e+00 4.157413959503173828e+00 1.026172637939453125e+01 4.325742244720458984e+00 8.934029340744018555e-01
4.148000000000000000e+03 5.913173675537109375e+01 -7.304349899291992188e+00 4.083331584930419922e+00 9.925119400024414062e+00 4.202535152435302734e+00 -5.780016779899597168e-01
4.149000000000000000e+03 5.478009414672851562e+01 2.735420167446136475e-01 -5.224272608757019043e-01 1.036333560943603516e+01 2.952272415161132812e+00 -1.334223508834838867e+00
4.150000000000000000e+03 6.039325714111328125e+01 -5.685539722442626953e+00 3.505185127258300781e+00 9.298141479492187500e+00 3.840997934341430664e+00 3.495304286479949951e-01
4.151000000000000000e+03 5.634073638916015625e+01 -1.193092060089111328e+01 7.689703488722443581e-04 1.150695896148681641e+01 3.452318429946899414e+00 -3.288829699158668518e-02
4.152000000000000000e+03 5.537022399902343750e+01 -1.293251609802246094e+01 -5.169298648834228516e-01 1.074835205078125000e+01 3.069426774978637695e+00 8.900413513183593750e-01
4.153000000000000000e+03 5.805144119262695312e+01 2.322923839092254639e-01 1.528127789497375488e-01 1.041405773162841797e+01 3.170061111450195312e+00 5.869631767272949219e-01
4.154000000000000000e+03 5.367013168334960938e+01 -1.421746826171875000e+01 -5.810774564743041992e-01 8.909990310668945312e+00 2.498673677444458008e+00 2.023690462112426758e+00
4.155000000000000000e+03 5.484235000610351562e+01 -1.343639659881591797e+01 -6.279841065406799316e-01 1.020848464965820312e+01 2.874150276184082031e+00 1.312068462371826172e+00
4.156000000000000000e+03 5.930430221557617188e+01 -7.678800106048583984e+00 3.841564655303955078e+00 9.863915443420410156e+00 4.111644268035888672e+00 -7.608582973480224609e-01
4.157000000000000000e+03 5.356077957153320312e+01 -1.498495101928710938e+01 -6.044122576713562012e-01 8.403436660766601562e+00 2.339707374572753906e+00 1.964349389076232910e+00
4.158000000000000000e+03 5.415739440917968750e+01 -1.678269195556640625e+01 -7.146154642105102539e-01 8.123542785644531250e+00 2.222678184509277344e+00 1.507379293441772461e+00
4.159000000000000000e+03 6.135684585571289062e+01 -7.886103153228759766e+00 2.874170303344726562e+00 9.003373146057128906e+00 3.563262939453125000e+00 -5.747195482254028320e-01
4.160000000000000000e+03 6.157941436767578125e+01 -6.990607738494873047e+00 3.036855459213256836e+00 8.879371643066406250e+00 3.574868202209472656e+00 -2.387539446353912354e-01
4.161000000000000000e+03 6.083873367309570312e+01 -9.113710403442382812e+00 2.556686639785766602e+00 9.370647430419921875e+00 3.578200340270996094e+00 -1.026886463165283203e+00
4.162000000000000000e+03 6.086315917968750000e+01 -8.529253959655761719e+00 2.847425222396850586e+00 9.272729873657226562e+00 3.636046648025512695e+00 -8.696413040161132812e-01
4.163000000000000000e+03 5.932493972778320312e+01 -1.611384153366088867e+00 1.399902224540710449e+00 1.023368930816650391e+01 3.490077495574951172e+00 1.237026691436767578e+00
4.164000000000000000e+03 5.874967193603515625e+01 -2.600856304168701172e+00 2.033357858657836914e+00 1.060833644866943359e+01 3.792508125305175781e+00 1.343958258628845215e+00
4.165000000000000000e+03 6.104160690307617188e+01 -4.782218456268310547e+00 2.967644214630126953e+00 9.118172645568847656e+00 3.625745058059692383e+00 6.614084243774414062e-01
4.166000000000000000e+03 6.041376495361328125e+01 -4.498663902282714844e+00 3.092266798019409180e+00 9.416654586791992188e+00 3.752676486968994141e+00 8.379670381546020508e-01
4.167000000000000000e+03 6.068151473999023438e+01 -3.071889400482177734e+00 2.275354385375976562e+00 9.480010032653808594e+00 3.526609182357788086e+00 1.158840060234069824e+00
4.168000000000000000e+03 5.589865875244140625e+01 -2.235658913850784302e-01 -2.827406227588653564e-01 1.108899688720703125e+01 3.241876840591430664e+00 -4.199973046779632568e-01
4.169000000000000000e+03 5.426272964477539062e+01 1.178403139114379883e+00 -5.837635993957519531e-01 9.471378326416015625e+00 2.666284561157226562e+00 -1.672684431076049805e+00
4.170000000000000000e+03 5.884931182861328125e+01 -1.417363166809082031e+01 -1.075010299682617188e-01 9.885986328125000000e+00 2.933545589447021484e+00 -5.414484143257141113e-01
4.171000000000000000e+03 5.960852432250976562e+01 -1.115714788436889648e+00 1.131590366363525391e+00 1.007831478118896484e+01 3.362971544265747070e+00 1.184229493141174316e+00
4.172000000000000000e+03 5.893643951416015625e+01 -4.932259321212768555e-01 6.736851334571838379e-01 1.035518932342529297e+01 3.308662414550781250e+00 9.960096478462219238e-01
4.173000000000000000e+03 5.853839874267578125e+01 3.434894382953643799e-01 2.126328051090240479e-01 1.029117679595947266e+01 3.151142835617065430e+00 7.097708582878112793e-01
4.174000000000000000e+03 6.028561019897460938e+01 -1.284440422058105469e+01 6.473914384841918945e-01 9.701181411743164062e+00 3.104571819305419922e+00 -1.067120909690856934e+00
4.175000000000000000e+03 6.066747665405273438e+01 -1.191475105285644531e+01 1.062730550765991211e+00 9.617640495300292969e+00 3.204111099243164062e+00 -1.177802205085754395e+00
4.176000000000000000e+03 5.575016021728515625e+01 -1.306372261047363281e+01 -4.909544885158538818e-01 1.074385166168212891e+01 3.075869083404541016e+00 6.676688790321350098e-01
4.177000000000000000e+03 5.794654083251953125e+01 1.970376253128051758e+00 -3.637519180774688721e-01 9.869745254516601562e+00 2.851797819137573242e+00 1.971820890903472900e-01
4.178000000000000000e+03 5.476256942749023438e+01 1.044106602668762207e+00 -5.993482470512390137e-01 9.852430343627929688e+00 2.775924682617187500e+00 -1.341234207153320312e+00
4.179000000000000000e+03 5.363975143432617188e+01 2.138516187667846680e+00 -5.539794564247131348e-01 8.548891067504882812e+00 2.398473501205444336e+00 -1.863590121269226074e+00
4.180000000000000000e+03 6.103250885009765625e+01 -1.140095710754394531e+01 1.357104778289794922e+00 9.451825141906738281e+00 3.242679119110107422e+00 -1.201719880104064941e+00
4.181000000000000000e+03 5.895954895019531250e+01 -1.153381443023681641e+01 1.077055335044860840e+00 1.040746879577636719e+01 3.445357322692871094e+00 -1.126273036003112793e+00
4.182000000000000000e+03 5.304530715942382812e+01 3.950898885726928711e+00 -5.119196176528930664e-01 7.479403495788574219e+00 2.090245246887207031e+00 -1.788708448410034180e+00
4.183000000000000000e+03 5.345126724243164062e+01 2.699346780776977539e+00 -5.451317429542541504e-01 8.158555984497070312e+00 2.284027099609375000e+00 -1.856667399406433105e+00
4.184000000000000000e+03 5.486175918579101562e+01 -1.733661842346191406e+01 -7.669928073883056641e-01 8.237179756164550781e+00 2.241056203842163086e+00 1.236372470855712891e+00
4.185000000000000000e+03 5.519121932983398438e+01 6.192648887634277344e+00 -7.443592548370361328e-01 7.859188079833984375e+00 2.134448528289794922e+00 -9.572870135307312012e-01
4.186000000000000000e+03 5.412619400024414062e+01 2.858063459396362305e+00 -6.376348733901977539e-01 8.596574783325195312e+00 2.387681961059570312e+00 -1.535687804222106934e+00
4.187000000000000000e+03 6.013127899169921875e+01 -1.222728061676025391e+01 8.604955077171325684e-01 9.794922828674316406e+00 3.196625471115112305e+00 -1.117332696914672852e+00
4.188000000000000000e+03 5.738762283325195312e+01 -1.613125991821289062e+01 -6.703573465347290039e-01 9.318298339843750000e+00 2.594382286071777344e+00 2.503857612609863281e-01
4.189000000000000000e+03 5.773070907592773438e+01 -1.485189151763916016e+01 -4.627458453178405762e-01 9.842066764831542969e+00 2.813796281814575195e+00 -4.805830121040344238e-02
4.190000000000000000e+03 5.674495697021484375e+01 -1.699190139770507812e+01 -7.700528502464294434e-01 8.947290420532226562e+00 2.453171253204345703e+00 5.283917188644409180e-01
4.191000000000000000e+03 5.357270050048828125e+01 1.287461948394775391e+01 -5.324417948722839355e-01 6.199600219726562500e+00 1.700147509574890137e+00 -7.708844542503356934e-01
4.192000000000000000e+03 5.504127883911132812e+01 -1.950834274291992188e+01 -7.623682618141174316e-01 7.688076019287109375e+00 2.077712297439575195e+00 1.058100581169128418e+00
4.193000000000000000e+03 5.543179702758789062e+01 -1.862755393981933594e+01 -7.920125126838684082e-01 8.048529624938964844e+00 2.176955223083496094e+00 9.852926135063171387e-01
4.194000000000000000e+03 5.406685256958007812e+01 3.608771324157714844e+00 -6.520031094551086426e-01 8.248119354248046875e+00 2.278834819793701172e+00 -1.512057423591613770e+00
4.195000000000000000e+03 4.826704025268554688e+01 1.871543121337890625e+01 -1.575729697942733765e-01 4.459455966949462891e+00 1.290564894676208496e+00 -6.851156949996948242e-01
4.196000000000000000e+03 4.622642135620117188e+01 1.949287986755371094e+01 -5.712107941508293152e-02 3.945452690124511719e+00 1.166499495506286621e+00 -6.515638828277587891e-01
4.197000000000000000e+03 5.625711822509765625e+01 -2.353861808776855469e+01 -7.352706193923950195e-01 7.184522151947021484e+00 1.934775471687316895e+00 5.965416431427001953e-01
4.198000000000000000e+03 5.010375976562500000e+01 1.384651279449462891e+01 -2.774349451065063477e-01 5.072340965270996094e+00 1.438471794128417969e+00 -9.501729011535644531e-01
4.199000000000000000e+03 4.395981597900390625e+01 2.006739997863769531e+01 3.330912441015243530e-02 3.415319919586181641e+00 1.034588694572448730e+00 -6.012601852416992188e-01
4.200000000000000000e+03 3.940949630737304688e+01 1.541639614105224609e+01 1.709128618240356445e-01 2.134941816329956055e+00 6.917564272880554199e-01 -4.862736165523529053e-01
4.201000000000000000e+03 3.557082748413085938e+01 1.697920608520507812e+01 1.544870585203170776e-01 1.566125512123107910e+00 5.161837339401245117e-01 -2.813033461570739746e-01
4.202000000000000000e+03 3.825054168701171875e+01 1.519091987609863281e+01 1.882454603910446167e-01 1.909587144851684570e+00 6.293497681617736816e-01 -4.298416078090667725e-01
4.203000000000000000e+03 5.233676147460937500e+01 1.421520614624023438e+01 -4.352620542049407959e-01 5.734607696533203125e+00 1.589803695678710938e+00 -7.902569174766540527e-01
4.204000000000000000e+03 5.401725769042968750e+01 1.686905479431152344e+01 -4.647661745548248291e-01 5.950284957885742188e+00 1.645655632019042969e+00 -5.292252302169799805e-01
4.205000000000000000e+03 5.606242370605468750e+01 1.578038215637207031e+01 -5.872262716293334961e-01 6.582910537719726562e+00 1.798705339431762695e+00 -4.096753299236297607e-01
4.206000000000000000e+03 4.876432037353515625e+01 -2.848970222473144531e+01 -9.660130739212036133e-02 4.510392189025878906e+00 1.324137210845947266e+00 8.547356724739074707e-01
4.207000000000000000e+03 7.056714630126953125e+01 3.319883728027343750e+01 -8.471364527940750122e-02 7.938847541809082031e+00 2.356240034103393555e+00 7.984282821416854858e-02
4.208000000000000000e+03 6.135537719726562500e+01 2.146822357177734375e+01 -4.461097717285156250e-01 6.945953845977783203e+00 1.949953198432922363e+00 4.214842990040779114e-02
4.209000000000000000e+03 5.760333251953125000e+01 1.813230514526367188e+01 -5.365092754364013672e-01 6.600912570953369141e+00 1.819321036338806152e+00 -2.233576774597167969e-01
4.210000000000000000e+03 3.216970062255859375e+01 1.708096504211425781e+01 6.528939306735992432e-02 1.043875336647033691e+00 3.327494263648986816e-01 -1.115464866161346436e-01
4.211000000000000000e+03 5.328176498413085938e+01 9.161116927862167358e-02 -3.625457286834716797e-01 9.327342987060546875e+00 2.689439296722412109e+00 -2.468642234802246094e+00
4.212000000000000000e+03 5.517676925659179688e+01 3.501287996768951416e-01 -5.231192111968994141e-01 1.048713111877441406e+01 2.989203691482543945e+00 -1.050049066543579102e+00
4.213000000000000000e+03 5.828985977172851562e+01 -1.025813293457031250e+01 1.892214298248291016e+00 1.095187377929687500e+01 3.853226423263549805e+00 -1.333485841751098633e+00
4.214000000000000000e+03 5.577806091308593750e+01 -1.260843944549560547e+01 -3.750038444995880127e-01 1.104650497436523438e+01 3.201450347900390625e+00 5.456671118736267090e-01
4.215000000000000000e+03 5.905067062377929688e+01 -6.556828498840332031e+00 4.339176177978515625e+00 9.910240173339843750e+00 4.274825096130371094e+00 -1.183056011795997620e-01
4.216000000000000000e+03 6.002835464477539062e+01 -5.343089103698730469e+00 3.588691949844360352e+00 9.471375465393066406e+00 3.918020248413085938e+00 5.342539548873901367e-01
4.217000000000000000e+03 5.752899169921875000e+01 -1.175453758239746094e+01 4.921010732650756836e-01 1.123619842529296875e+01 3.518489837646484375e+00 -7.474928498268127441e-01
4.218000000000000000e+03 5.896692276000976562e+01 -1.561571717262268066e+00 1.291943788528442383e+00 1.044457244873046875e+01 3.520954847335815430e+00 1.204803347587585449e+00
4.219000000000000000e+03 5.764072036743164062e+01 -2.190402984619140625e+00 1.442735552787780762e+00 1.140805625915527344e+01 3.855237483978271484e+00 1.186030626296997070e+00
4.220000000000000000e+03 5.644427871704101562e+01 -5.492002964019775391e-01 -1.154158357530832291e-02 1.128895950317382812e+01 3.383225440979003906e+00 6.210850924253463745e-02
4.221000000000000000e+03 5.458521652221679688e+01 5.944839715957641602e-01 -5.636374950408935547e-01 1.005431652069091797e+01 2.847203731536865234e+00 -1.465201854705810547e+00
4.222000000000000000e+03 5.834846878051757812e+01 -3.189599514007568359e+00 2.573758125305175781e+00 1.086719512939453125e+01 4.032286167144775391e+00 1.404572486877441406e+00
4.223000000000000000e+03 5.863277435302734375e+01 -1.237783953547477722e-01 4.487651586532592773e-01 1.037421607971191406e+01 3.246894359588623047e+00 8.449209332466125488e-01
4.224000000000000000e+03 6.007077026367187500e+01 -7.320110797882080078e+00 3.635345458984375000e+00 9.455289840698242188e+00 3.927190542221069336e+00 -4.892727434635162354e-01
4.225000000000000000e+03 5.624785232543945312e+01 -1.317254829406738281e+01 -4.055883884429931641e-01 1.069567871093750000e+01 3.087027311325073242e+00 3.513830006122589111e-01
4.226000000000000000e+03 6.111414718627929688e+01 -6.892029285430908203e+00 3.240164518356323242e+00 9.022538185119628906e+00 3.678810834884643555e+00 -2.112329453229904175e-01
4.227000000000000000e+03 6.091315078735351562e+01 -7.284499168395996094e+00 3.240602016448974609e+00 9.126751899719238281e+00 3.710206270217895508e+00 -4.022649228572845459e-01
4.228000000000000000e+03 5.452487945556640625e+01 -1.387590408325195312e+01 -6.570808291435241699e-01 9.721685409545898438e+00 2.719381332397460938e+00 1.573005437850952148e+00
4.229000000000000000e+03 5.383480453491210938e+01 5.218409299850463867e-01 -4.937807023525238037e-01 9.586025238037109375e+00 2.727673292160034180e+00 -2.009183168411254883e+00
4.230000000000000000e+03 5.908031845092773438e+01 -4.005909919738769531e+00 3.191718816757202148e+00 1.021983432769775391e+01 4.023466110229492188e+00 1.219202041625976562e+00
4.231000000000000000e+03 5.899889755249023438e+01 -5.514904499053955078e+00 4.218056678771972656e+00 1.001741600036621094e+01 4.270641803741455078e+00 5.684478878974914551e-01
4.232000000000000000e+03 5.925137329101562500e+01 -8.561189770698547363e-01 9.391466379165649414e-01 1.027495288848876953e+01 3.364229917526245117e+00 1.134631156921386719e+00
4.233000000000000000e+03 5.788183212280273438e+01 -1.108502674102783203e+01 1.095175862312316895e+00 1.111083602905273438e+01 3.661803722381591797e+00 -1.070855975151062012e+00
4.234000000000000000e+03 6.119226455688476562e+01 -6.078937530517578125e+00 3.176178932189941406e+00 8.989706993103027344e+00 3.649765729904174805e+00 1.466854959726333618e-01
4.235000000000000000e+03 6.113700866699218750e+01 -8.262111663818359375e+00 2.854571342468261719e+00 9.120277404785156250e+00 3.592454671859741211e+00 -7.379763126373291016e-01
4.236000000000000000e+03 6.063657760620117188e+01 -6.159618854522705078e+00 3.424591064453125000e+00 9.181450843811035156e+00 3.781812667846679688e+00 1.127529293298721313e-01
4.237000000000000000e+03 5.951635360717773438e+01 -8.126072883605957031e+00 3.477523088455200195e+00 9.820036888122558594e+00 3.989267826080322266e+00 -8.918718099594116211e-01
4.238000000000000000e+03 5.963646697998046875e+01 -8.905976295471191406e+00 2.945379734039306641e+00 9.899991035461425781e+00 3.853611230850219727e+00 -1.136630654335021973e+00
4.239000000000000000e+03 5.852077102661132812e+01 -1.308134651184082031e+01 1.562337279319763184e-01 1.029594516754150391e+01 3.135653734207153320e+00 -6.537935733795166016e-01
4.240000000000000000e+03 5.714875030517578125e+01 -1.167330360412597656e+01 4.414418637752532959e-01 1.135452938079833984e+01 3.538791418075561523e+00 -6.257863640785217285e-01
4.241000000000000000e+03 6.018812942504882812e+01 -3.609018564224243164e+00 2.689816236495971680e+00 9.661416053771972656e+00 3.705369710922241211e+00 1.128779768943786621e+00
4.242000000000000000e+03 5.994192886352539062e+01 -2.283469676971435547e+00 1.853313446044921875e+00 9.923642158508300781e+00 3.533086776733398438e+00 1.276360511779785156e+00
4.243000000000000000e+03 5.941619110107421875e+01 -9.335907936096191406e+00 2.663624286651611328e+00 1.010430335998535156e+01 3.830378293991088867e+00 -1.259816646575927734e+00
4.244000000000000000e+03 5.915057754516601562e+01 -8.760425567626953125e+00 3.211722850799560547e+00 1.018626117706298828e+01 4.019394874572753906e+00 -1.199156165122985840e+00
4.245000000000000000e+03 6.047049713134765625e+01 -8.766884803771972656e+00 2.841421842575073242e+00 9.479478836059570312e+00 3.696269989013671875e+00 -9.965369701385498047e-01
4.246000000000000000e+03 6.039002990722656250e+01 -9.763796806335449219e+00 2.270082473754882812e+00 9.619821548461914062e+00 3.566971063613891602e+00 -1.181015610694885254e+00
4.247000000000000000e+03 5.963298416137695312e+01 -1.904169082641601562e+00 1.605091333389282227e+00 1.010048389434814453e+01 3.511672496795654297e+00 1.261173844337463379e+00
4.248000000000000000e+03 5.814942169189453125e+01 -1.705349564552307129e+00 1.200155615806579590e+00 1.095397663116455078e+01 3.646239757537841797e+00 1.147764444351196289e+00
4.249000000000000000e+03 5.688969421386718750e+01 3.402158737182617188e+00 -6.806744933128356934e-01 9.293566703796386719e+00 2.583867788314819336e+00 -3.856326937675476074e-01
4.250000000000000000e+03 5.788191986083984375e+01 -1.431184101104736328e+01 -3.186008036136627197e-01 1.002343940734863281e+01 2.911451578140258789e+00 -2.087471187114715576e-01
4.251000000000000000e+03 5.697640609741210938e+01 7.193186283111572266e-01 -2.580844163894653320e-01 1.047204113006591797e+01 3.064187049865722656e+00 3.430402651429176331e-02
4.252000000000000000e+03 5.949282455444335938e+01 -2.692316532135009766e+00 2.123411893844604492e+00 1.015867996215820312e+01 3.684627532958984375e+00 1.308878540992736816e+00
4.253000000000000000e+03 5.523742294311523438e+01 -1.654937553405761719e+01 -7.696104049682617188e-01 8.684690475463867188e+00 2.374524116516113281e+00 1.126274943351745605e+00
4.254000000000000000e+03 5.418927383422851562e+01 -1.506551074981689453e+01 -6.855722069740295410e-01 8.795754432678222656e+00 2.433054685592651367e+00 1.660633921623229980e+00
4.255000000000000000e+03 5.857110595703125000e+01 -1.367986297607421875e+01 -7.164014969021081924e-03 1.008042621612548828e+01 3.021978616714477539e+00 -5.525490045547485352e-01
4.256000000000000000e+03 5.799669265747070312e+01 8.460245728492736816e-01 -8.500547707080841064e-02 1.023191261291503906e+01 3.044072151184082031e+00 4.260184764862060547e-01
4.257000000000000000e+03 5.723503875732421875e+01 2.098521947860717773e+00 -5.030090808868408203e-01 9.795744895935058594e+00 2.787820577621459961e+00 -1.111818701028823853e-01
4.258000000000000000e+03 5.378693389892578125e+01 1.367395043373107910e+00 -5.619739890098571777e-01 9.095370292663574219e+00 2.560018777847290039e+00 -1.893161058425903320e+00
4.259000000000000000e+03 5.527589797973632812e+01 9.196273088455200195e-01 -5.760196447372436523e-01 1.016788864135742188e+01 2.877560615539550781e+00 -1.042964935302734375e+00
4.260000000000000000e+03 5.616220092773437500e+01 3.687057256698608398e+00 -7.299106717109680176e-01 9.003796577453613281e+00 2.482165813446044922e+00 -6.979958415031433105e-01
4.261000000000000000e+03 5.544326782226562500e+01 5.128781795501708984e+00 -7.617024183273315430e-01 8.294406890869140625e+00 2.259811401367187500e+00 -9.247662425041198730e-01
4.262000000000000000e+03 5.558688354492187500e+01 1.873273998498916626e-01 -4.266394674777984619e-01 1.075785064697265625e+01 3.099363327026367188e+00 -7.063895463943481445e-01
4.263000000000000000e+03 5.599107360839843750e+01 -1.499794673919677734e+01 -7.042158842086791992e-01 9.607162475585937500e+00 2.670884132385253906e+00 7.510709762573242188e-01
4.264000000000000000e+03 5.676434326171875000e+01 -1.616282844543457031e+01 -7.262115478515625000e-01 9.255934715270996094e+00 2.558917045593261719e+00 4.789808094501495361e-01
4.265000000000000000e+03 5.566893768310546875e+01 4.219156265258789062e+00 -7.531464099884033203e-01 8.698253631591796875e+00 2.383532047271728516e+00 -8.742534518241882324e-01
4.266000000000000000e+03 5.452890014648437500e+01 -1.821767807006835938e+01 -7.465040683746337891e-01 7.854890346527099609e+00 2.132515907287597656e+00 1.287281274795532227e+00
4.267000000000000000e+03 5.423390579223632812e+01 -1.918390274047851562e+01 -7.032068371772766113e-01 7.459383964538574219e+00 2.026853322982788086e+00 1.253782510757446289e+00
4.268000000000000000e+03 6.720075225830078125e+01 3.232165145874023438e+01 -1.429364234209060669e-01 7.367887020111083984e+00 2.167485237121582031e+00 1.025175750255584717e-01
4.269000000000000000e+03 6.129753494262695312e+01 1.689561271667480469e+01 -5.707395672798156738e-01 7.275300025939941406e+00 2.011368036270141602e+00 1.064679473638534546e-01
4.270000000000000000e+03 6.024707031250000000e+01 1.953845214843750000e+01 -5.051066279411315918e-01 6.941105365753173828e+00 1.930799603462219238e+00 -5.401068367063999176e-03
4.271000000000000000e+03 5.596438217163085938e+01 2.179895210266113281e+01 -3.963249921798706055e-01 6.074816703796386719e+00 1.703547596931457520e+00 -2.632319927215576172e-01
4.272000000000000000e+03 5.141907882690429688e+01 1.298325538635253906e+01 -3.875527977943420410e-01 5.561417579650878906e+00 1.552159428596496582e+00 -9.546161293983459473e-01
4.273000000000000000e+03 4.382497406005859375e+01 1.790755653381347656e+01 4.288371279835700989e-02 3.322695255279541016e+00 1.009673714637756348e+00 -6.675353646278381348e-01
4.274000000000000000e+03 5.915302658081054688e+01 -7.960970878601074219e+00 3.775284528732299805e+00 1.000985813140869141e+01 4.135542869567871094e+00 -8.941670656204223633e-01
4.275000000000000000e+03 5.895686721801757812e+01 -5.863136291503906250e+00 4.376100540161132812e+00 9.991386413574218750e+00 4.310245990753173828e+00 3.541755378246307373e-01
4.276000000000000000e+03 5.639966201782226562e+01 1.730738580226898193e-02 -2.224910408258438110e-01 1.091929054260253906e+01 3.209039688110351562e+00 -1.390696465969085693e-01
4.277000000000000000e+03 5.859040069580078125e+01 -2.130698680877685547e+00 1.652272820472717285e+00 1.070529937744140625e+01 3.707271575927734375e+00 1.290062904357910156e+00
4.278000000000000000e+03 5.256714248657226562e+01 -1.772134304046630859e-01 -1.117463782429695129e-01 8.509021759033203125e+00 2.519182682037353516e+00 -2.971355676651000977e+00
4.279000000000000000e+03 5.438898468017578125e+01 -1.446766948699951172e+01 -6.743180751800537109e-01 9.255242347717285156e+00 2.574277162551879883e+00 1.582594394683837891e+00
4.280000000000000000e+03 5.856394958496093750e+01 -1.259452819824218750e+00 1.026744842529296875e+00 1.070099544525146484e+01 3.518322229385375977e+00 1.101015567779541016e+00
4.281000000000000000e+03 5.824384689331054688e+01 -8.426762223243713379e-01 6.796818375587463379e-01 1.072604370117187500e+01 3.421717643737792969e+00 9.397447109222412109e-01
4.282000000000000000e+03 5.810578155517578125e+01 -2.206148862838745117e+00 1.603646278381347656e+00 1.106793212890625000e+01 3.801473617553710938e+00 1.274724245071411133e+00
4.283000000000000000e+03 6.024123764038085938e+01 -1.147199344635009766e+01 1.279003977775573730e+00 9.818470954895019531e+00 3.329242706298828125e+00 -1.209135532379150391e+00
4.284000000000000000e+03 5.902409362792968750e+01 -3.006370067596435547e+00 2.354099273681640625e+00 1.040202999114990234e+01 3.826838970184326172e+00 1.353934168815612793e+00
4.285000000000000000e+03 5.920532989501953125e+01 -3.437477588653564453e+00 2.728045940399169922e+00 1.021212387084960938e+01 3.882050991058349609e+00 1.281340837478637695e+00
4.286000000000000000e+03 5.808355331420898438e+01 -1.066205024719238281e+01 1.487850069999694824e+00 1.106824779510498047e+01 3.766829490661621094e+00 -1.222936511039733887e+00
4.287000000000000000e+03 5.594176864624023438e+01 2.241438865661621094e+00 -6.754930019378662109e-01 9.615368843078613281e+00 2.681962728500366211e+00 -7.473301291465759277e-01
4.288000000000000000e+03 5.941608047485351562e+01 -4.728920936584472656e+00 3.605386972427368164e+00 9.866610527038574219e+00 4.041599273681640625e+00 9.223271012306213379e-01
4.289000000000000000e+03 5.462482070922851562e+01 -1.618920326232910156e+01 -7.412145733833312988e-01 8.592159271240234375e+00 2.355283498764038086e+00 1.361735463142395020e+00
4.290000000000000000e+03 6.019141387939453125e+01 -6.292775630950927734e+00 3.672729730606079102e+00 9.373620033264160156e+00 3.913904905319213867e+00 5.095573514699935913e-02
4.291000000000000000e+03 6.076311874389648438e+01 -7.748403072357177734e+00 3.166391372680664062e+00 9.212499618530273438e+00 3.713667392730712891e+00 -5.927569270133972168e-01
4.292000000000000000e+03 6.072557449340820312e+01 -8.187446594238281250e+00 3.012237310409545898e+00 9.279887199401855469e+00 3.687637329101562500e+00 -7.657572627067565918e-01
4.293000000000000000e+03 5.385918426513671875e+01 -1.533306503295898438e+01 -6.524721980094909668e-01 8.523670196533203125e+00 2.361359357833862305e+00 1.764414072036743164e+00
4.294000000000000000e+03 5.724072647094726562e+01 -1.416898536682128906e+01 -4.203926324844360352e-01 1.016662502288818359e+01 2.923869609832763672e+00 4.760714247822761536e-02
4.295000000000000000e+03 6.012168502807617188e+01 -9.124594688415527344e+00 2.713651418685913086e+00 9.662824630737304688e+00 3.712942838668823242e+00 -1.112834334373474121e+00
4.296000000000000000e+03 6.054095458984375000e+01 -9.407940864562988281e+00 2.472645521163940430e+00 9.519722938537597656e+00 3.597710371017456055e+00 -1.110590338706970215e+00
4.297000000000000000e+03 5.520222091674804688e+01 2.996356010437011719e+00 -7.092345952987670898e-01 9.001688957214355469e+00 2.487736463546752930e+00 -1.085320115089416504e+00
4.298000000000000000e+03 5.581578063964843750e+01 7.966101169586181641e-01 -4.999755322933197021e-01 1.043956089019775391e+01 2.981875658035278320e+00 -6.440002918243408203e-01
4.299000000000000000e+03 5.449910736083984375e+01 2.202271938323974609e+00 -6.564676165580749512e-01 9.019855499267578125e+00 2.509016513824462891e+00 -1.484995365142822266e+00
4.300000000000000000e+03 5.977492904663085938e+01 -3.161982059478759766e+00 2.488517522811889648e+00 9.933785438537597656e+00 3.726690769195556641e+00 1.254800319671630859e+00
4.301000000000000000e+03 6.026343917846679688e+01 -1.017581653594970703e+01 2.043093681335449219e+00 9.730510711669921875e+00 3.532081365585327148e+00 -1.224443912506103516e+00
4.302000000000000000e+03 5.751014709472656250e+01 8.457621932029724121e-02 5.898413807153701782e-02 1.063231277465820312e+01 3.207388877868652344e+00 3.988059163093566895e-01
4.303000000000000000e+03 6.022738647460937500e+01 -4.989120483398437500e+00 3.399679660797119141e+00 9.435463905334472656e+00 3.850543022155761719e+00 6.993322372436523438e-01
4.304000000000000000e+03 5.664313507080078125e+01 -1.397166824340820312e+01 -4.990524947643280029e-01 1.025053024291992188e+01 2.925443410873413086e+00 2.890039384365081787e-01
4.305000000000000000e+03 5.922747802734375000e+01 -2.294207811355590820e+00 1.825610280036926270e+00 1.029983043670654297e+01 3.637632131576538086e+00 1.296251773834228516e+00
4.306000000000000000e+03 5.685929870605468750e+01 -6.146132349967956543e-01 1.456427425146102905e-01 1.117986583709716797e+01 3.397652626037597656e+00 3.110387921333312988e-01
4.307000000000000000e+03 6.003458404541015625e+01 -1.104979705810546875e+01 1.502499699592590332e+00 9.903271675109863281e+00 3.421731233596801758e+00 -1.242742538452148438e+00
4.308000000000000000e+03 5.912221908569335938e+01 -1.307384586334228516e+01 3.182319402694702148e-01 1.008644008636474609e+01 3.121401548385620117e+00 -8.492108583450317383e-01
4.309000000000000000e+03 5.979267120361328125e+01 -1.166589927673339844e+01 1.129674673080444336e+00 9.984313011169433594e+00 3.334196329116821289e+00 -1.166592955589294434e+00
4.310000000000000000e+03 5.840485000610351562e+01 -1.249187564849853516e+01 4.066648483276367188e-01 1.052085494995117188e+01 3.278255939483642578e+00 -8.014186024665832520e-01
4.311000000000000000e+03 5.798429107666015625e+01 -1.369520473480224609e+01 -1.398281157016754150e-01 1.023602008819580078e+01 3.028857469558715820e+00 -3.770377635955810547e-01
4.312000000000000000e+03 5.751978683471679688e+01 -1.297184467315673828e+01 -2.217349596321582794e-02 1.064894294738769531e+01 3.188030719757080078e+00 -3.651494085788726807e-01
4.313000000000000000e+03 5.822691726684570312e+01 -1.255676627159118652e+00 9.598935842514038086e-01 1.084222126007080078e+01 3.540634393692016602e+00 1.069962143898010254e+00
4.314000000000000000e+03 5.750009918212890625e+01 7.034462094306945801e-01 -1.602461636066436768e-01 1.041513156890869141e+01 3.076465606689453125e+00 2.550659477710723877e-01
4.315000000000000000e+03 5.590894317626953125e+01 1.516100168228149414e+00 -6.028496623039245605e-01 9.998535156250000000e+00 2.818705558776855469e+00 -6.983376741409301758e-01
4.316000000000000000e+03 5.841803359985351562e+01 -1.135004997253417969e+01 1.061854600906372070e+00 1.076585483551025391e+01 3.548312664031982422e+00 -1.102036118507385254e+00
4.317000000000000000e+03 5.709024429321289062e+01 1.396583914756774902e+00 -3.977908492088317871e-01 1.011216449737548828e+01 2.914312124252319336e+00 -6.014215573668479919e-02
4.318000000000000000e+03 5.663515472412109375e+01 2.831676721572875977e+00 -6.713740229606628418e-01 9.492209434509277344e+00 2.646250486373901367e+00 -4.550543129444122314e-01
4.319000000000000000e+03 5.490266036987304688e+01 3.871161460876464844e+00 -7.157289981842041016e-01 8.542328834533691406e+00 2.347980022430419922e+00 -1.157663106918334961e+00
4.320000000000000000e+03 5.487327957153320312e+01 1.614450693130493164e+00 -6.360183358192443848e-01 9.576725959777832031e+00 2.682212114334106445e+00 -1.269100904464721680e+00
4.321000000000000000e+03 5.456710052490234375e+01 -1.493061161041259766e+01 -7.183381915092468262e-01 9.137508392333984375e+00 2.525751113891601562e+00 1.460005521774291992e+00
4.322000000000000000e+03 5.679576110839843750e+01 -1.549907207489013672e+01 -6.701582670211791992e-01 9.532169342041015625e+00 2.658603191375732422e+00 4.058281183242797852e-01
4.323000000000000000e+03 5.454108047485351562e+01 1.532714557647705078e+01 -5.280269384384155273e-01 6.226009845733642578e+00 1.709394812583923340e+00 -5.576379299163818359e-01
4.324000000000000000e+03 5.278040695190429688e+01 1.823326110839843750e+01 -3.976961672306060791e-01 5.620175361633300781e+00 1.566743850708007812e+00 -5.631694197654724121e-01
4.325000000000000000e+03 5.965626525878906250e+01 -6.806359767913818359e+00 3.931559085845947266e+00 9.600233078002929688e+00 4.059537410736083984e+00 -2.283426672220230103e-01
4.326000000000000000e+03 5.938567733764648438e+01 -7.413660049438476562e+00 3.866080999374389648e+00 9.803820610046386719e+00 4.100970268249511719e+00 -6.214580535888671875e-01
4.327000000000000000e+03 5.969976806640625000e+01 -7.794750213623046875e+00 3.625769853591918945e+00 9.697859764099121094e+00 3.997088909149169922e+00 -7.488443255424499512e-01
4.328000000000000000e+03 5.934436035156250000e+01 -5.855683326721191406e+00 4.103529930114746094e+00 9.793799400329589844e+00 4.169198513031005859e+00 3.224982619285583496e-01
4.329000000000000000e+03 5.972913360595703125e+01 -8.447279930114746094e+00 3.235016345977783203e+00 9.769693374633789062e+00 3.901412963867187500e+00 -1.000118732452392578e+00
4.330000000000000000e+03 5.761629104614257812e+01 -4.944850504398345947e-01 3.306928277015686035e-01 1.087897586822509766e+01 3.362900495529174805e+00 6.311900019645690918e-01
4.331000000000000000e+03 5.898249053955078125e+01 -1.247033405303955078e+01 5.802875161170959473e-01 1.028761291503906250e+01 3.260370254516601562e+00 -9.535170197486877441e-01
4.332000000000000000e+03 5.913948440551757812e+01 -5.139595985412597656e+00 3.980256080627441406e+00 9.987528800964355469e+00 4.190335750579833984e+00 7.729381322860717773e-01
4.333000000000000000e+03 5.989585876464843750e+01 -9.553591728210449219e+00 2.463166713714599609e+00 9.870086669921875000e+00 3.699976205825805664e+00 -1.219950795173645020e+00
4.334000000000000000e+03 5.537016296386718750e+01 1.565932631492614746e+00 -6.474188566207885742e-01 9.831326484680175781e+00 2.755172252655029297e+00 -9.905794858932495117e-01
4.335000000000000000e+03 5.489421463012695312e+01 2.172540187835693359e+00 -6.639806032180786133e-01 9.259899139404296875e+00 2.578775644302368164e+00 -1.206997752189636230e+00
4.336000000000000000e+03 5.416023635864257812e+01 -1.576828479766845703e+01 -7.020701766014099121e-01 8.516237258911132812e+00 2.344250202178955078e+00 1.590595483779907227e+00
4.337000000000000000e+03 5.538533782958984375e+01 -1.399116039276123047e+01 -6.559176445007324219e-01 1.007428646087646484e+01 2.825510740280151367e+00 1.013274431228637695e+00
4.338000000000000000e+03 5.724113464355468750e+01 -8.250640630722045898e-01 3.618125319480895996e-01 1.112269973754882812e+01 3.445353746414184570e+00 5.670793652534484863e-01
4.339000000000000000e+03 6.042344284057617188e+01 -6.976680755615234375e+00 3.510392665863037109e+00 9.290493965148925781e+00 3.840265750885009766e+00 -2.886423170566558838e-01
4.340000000000000000e+03 5.971008300781250000e+01 -9.965365409851074219e+00 2.195251464843750000e+00 1.001510715484619141e+01 3.663107395172119141e+00 -1.270616292953491211e+00
4.341000000000000000e+03 5.972455596923828125e+01 -7.130666732788085938e+00 3.821603536605834961e+00 9.592832565307617188e+00 4.024330615997314453e+00 -4.068614840507507324e-01
4.342000000000000000e+03 6.078761672973632812e+01 -6.630193233489990234e+00 3.364019870758056641e+00 9.130105018615722656e+00 3.748237371444702148e+00 -1.058680191636085510e-01
4.343000000000000000e+03 5.701102828979492188e+01 -1.272735404968261719e+01 -9.339763969182968140e-02 1.087326622009277344e+01 3.233960390090942383e+00 -1.811820268630981445e-01
4.344000000000000000e+03 5.609733200073242188e+01 -1.372650432586669922e+01 -5.356399416923522949e-01 1.033141803741455078e+01 2.938733339309692383e+00 5.501448512077331543e-01
4.345000000000000000e+03 5.785846328735351562e+01 -1.260085391998291016e+01 1.994550675153732300e-01 1.069135761260986328e+01 3.267243623733520508e+00 -5.959342718124389648e-01
4.346000000000000000e+03 5.799411010742187500e+01 -1.310677719116210938e+01 5.869822576642036438e-02 1.042344951629638672e+01 3.144644260406494141e+00 -5.167824625968933105e-01
4.347000000000000000e+03 5.695247268676757812e+01 3.282786905765533447e-02 -6.991640478372573853e-02 1.082683086395263672e+01 3.227074384689331055e+00 1.842374056577682495e-01
4.348000000000000000e+03 5.977572631835937500e+01 -5.022555828094482422e+00 3.567541122436523438e+00 9.649632453918457031e+00 3.965152025222778320e+00 7.297914028167724609e-01
4.349000000000000000e+03 5.447294235229492188e+01 -1.537134265899658203e+01 -7.130270004272460938e-01 8.855974197387695312e+00 2.442883968353271484e+00 1.469575881958007812e+00
4.350000000000000000e+03 5.549115753173828125e+01 -1.580448913574218750e+01 -7.592235207557678223e-01 9.105865478515625000e+00 2.503992557525634766e+00 1.017842173576354980e+00
4.351000000000000000e+03 5.878785324096679688e+01 -1.050837898254394531e+01 1.759938716888427734e+00 1.059098148345947266e+01 3.705276012420654297e+00 -1.296848773956298828e+00
4.352000000000000000e+03 5.957461547851562500e+01 -1.114830303192138672e+01 1.406939148902893066e+00 1.012596893310546875e+01 3.459872484207153320e+00 -1.240285873413085938e+00
4.353000000000000000e+03 5.767689895629882812e+01 1.263029336929321289e+00 -2.560076415538787842e-01 1.014141941070556641e+01 2.965623617172241211e+00 2.234296351671218872e-01
4.354000000000000000e+03 5.639308547973632812e+01 7.199526429176330566e-01 -3.831474184989929199e-01 1.050788784027099609e+01 3.037422180175781250e+00 -2.989604175090789795e-01
4.355000000000000000e+03 5.467594146728515625e+01 2.666241168975830078e+00 -6.771981716156005859e-01 8.895239830017089844e+00 2.465412616729736328e+00 -1.334136843681335449e+00
4.356000000000000000e+03 5.954125976562500000e+01 -1.237934970855712891e+01 7.080436348915100098e-01 1.004030132293701172e+01 3.224503278732299805e+00 -1.047518491744995117e+00
4.357000000000000000e+03 5.657336425781250000e+01 2.165099859237670898e+00 -6.106727123260498047e-01 9.716933250427246094e+00 2.731878280639648438e+00 -4.366802871227264404e-01
4.358000000000000000e+03 5.594719696044921875e+01 3.008767127990722656e+00 -7.046368122100830078e-01 9.240270614624023438e+00 2.560689926147460938e+00 -7.532806992530822754e-01
4.359000000000000000e+03 5.634005355834960938e+01 -1.536721992492675781e+01 -7.054739594459533691e-01 9.543380737304687500e+00 2.651372194290161133e+00 6.290151476860046387e-01
4.360000000000000000e+03 5.635478973388671875e+01 -1.453079700469970703e+01 -6.040341258049011230e-01 9.932621955871582031e+00 2.798576354980468750e+00 4.948562085628509521e-01
4.361000000000000000e+03 5.491695785522460938e+01 -1.559785079956054688e+01 -7.474001049995422363e-01 8.952638626098632812e+00 2.461571693420410156e+00 1.284975051879882812e+00
4.362000000000000000e+03 5.764849090576171875e+01 1.599148559570312500e+01 -6.145893335342407227e-01 6.814189910888671875e+00 1.859880089759826660e+00 -2.559104859828948975e-01
4.363000000000000000e+03 5.971476745605468750e+01 -7.438615798950195312e+00 3.710219621658325195e+00 9.636785507202148438e+00 4.004101276397705078e+00 -5.948905944824218750e-01
4.364000000000000000e+03 6.006366729736328125e+01 -6.636304855346679688e+00 3.745899200439453125e+00 9.430564880371093750e+00 3.952939271926879883e+00 -1.318835467100143433e-01
4.365000000000000000e+03 5.984984207153320312e+01 -6.366015911102294922e+00 3.944123029708862305e+00 9.524592399597167969e+00 4.040614604949951172e+00 1.832357421517372131e-02
4.366000000000000000e+03 5.948894500732421875e+01 -6.473012447357177734e+00 4.076562404632568359e+00 9.655169486999511719e+00 4.119519710540771484e+00 -3.468888252973556519e-02
4.367000000000000000e+03 5.859233474731445312e+01 -1.091283893585205078e+01 1.402326107025146484e+00 1.070440387725830078e+01 3.632019042968750000e+00 -1.221055030822753906e+00
4.368000000000000000e+03 5.832956695556640625e+01 -1.188979721069335938e+01 7.062435150146484375e-01 1.068884181976318359e+01 3.418525695800781250e+00 -9.340849518775939941e-01
4.369000000000000000e+03 5.786151123046875000e+01 -1.181547737121582031e+01 6.112045645713806152e-01 1.092459583282470703e+01 3.460740089416503906e+00 -8.413652181625366211e-01
4.370000000000000000e+03 5.910162734985351562e+01 -1.113642406463623047e+01 1.333041667938232422e+00 1.038963699340820312e+01 3.516803503036499023e+00 -1.218326210975646973e+00
4.371000000000000000e+03 5.933521652221679688e+01 -1.186165142059326172e+01 9.543666839599609375e-01 1.019189167022705078e+01 3.343877553939819336e+00 -1.110739827156066895e+00
4.372000000000000000e+03 5.952298736572265625e+01 -1.038672924041748047e+01 1.893188714981079102e+00 1.015847873687744141e+01 3.615500450134277344e+00 -1.292431592941284180e+00
4.373000000000000000e+03 5.670031356811523438e+01 -1.495664501190185547e+01 -6.176460385322570801e-01 9.812854766845703125e+00 2.758562564849853516e+00 3.973350226879119873e-01
4.374000000000000000e+03 5.476056289672851562e+01 -1.422639274597167969e+01 -6.876859068870544434e-01 9.630418777465820312e+00 2.682820081710815430e+00 1.382380008697509766e+00
4.375000000000000000e+03 5.680781173706054688e+01 -1.333393287658691406e+01 -3.162205517292022705e-01 1.059020137786865234e+01 3.082194328308105469e+00 7.235746830701828003e-02
4.376000000000000000e+03 5.737751770019531250e+01 -1.354374790191650391e+01 -2.552710175514221191e-01 1.043415069580078125e+01 3.053663969039916992e+00 -1.484707593917846680e-01
4.377000000000000000e+03 5.648899078369140625e+01 1.457325339317321777e+00 -5.151785016059875488e-01 1.007304382324218750e+01 2.867359399795532227e+00 -3.816420137882232666e-01
4.378000000000000000e+03 5.434838485717773438e+01 1.981430816650390625e+01 -4.094070494174957275e-01 5.878798484802246094e+00 1.640817403793334961e+00 -3.996784389019012451e-01
4.379000000000000000e+03 5.925994110107421875e+01 1.578994369506835938e+01 -6.237828135490417480e-01 7.090002059936523438e+00 1.939865827560424805e+00 -7.795298099517822266e-02
4.380000000000000000e+03 5.818127822875976562e+01 2.048890686035156250e+01 -4.704425036907196045e-01 6.533298492431640625e+00 1.818856716156005859e+00 -1.577609181404113770e-01
4.381000000000000000e+03 6.894508361816406250e+01 3.519476318359375000e+01 -8.446121960878372192e-02 7.662858963012695312e+00 2.273519277572631836e+00 8.008446544408798218e-02
4.382000000000000000e+03 7.477609252929687500e+01 3.698490524291992188e+01 -4.348916932940483093e-02 8.534130096435546875e+00 2.547192335128784180e+00 6.071497499942779541e-02
4.383000000000000000e+03 5.587976074218750000e+01 -1.422925949096679688e+01 -6.327562928199768066e-01 1.002845001220703125e+01 2.818708181381225586e+00 7.321298122406005859e-01
4.384000000000000000e+03 5.928189086914062500e+01 -1.076265621185302734e+01 1.632510423660278320e+00 1.029112339019775391e+01 3.577090024948120117e+00 -1.274750828742980957e+00
4.385000000000000000e+03 5.536563110351562500e+01 2.244627237319946289e+00 -6.901023983955383301e-01 9.500624656677246094e+00 2.643156766891479492e+00 -1.000489354133605957e+00
4.386000000000000000e+03 4.911560440063476562e+01 2.068026542663574219e+01 -1.799353510141372681e-01 4.637998104095458984e+00 1.337418794631958008e+00 -5.787071585655212402e-01
4.387000000000000000e+03 5.008393859863281250e+01 1.777129936218261719e+01 -2.648891806602478027e-01 4.947243690490722656e+00 1.404706358909606934e+00 -7.010573148727416992e-01
4.388000000000000000e+03 2.582339096069335938e+01 2.422490310668945312e+01 1.787799447774887085e-01 3.293461799621582031e-01 1.524378359317779541e-01 -4.889748618006706238e-02
4.389000000000000000e+03 4.390401840209960938e+01 -2.538104438781738281e+01 2.930237054824829102e-01 2.974155426025390625e+00 9.801537394523620605e-01 9.549154043197631836e-01
4.390000000000000000e+03 3.942997360229492188e+01 -2.770544624328613281e+01 4.294663667678833008e-01 2.023053169250488281e+00 7.357559204101562500e-01 4.963758289813995361e-01
4.391000000000000000e+03 8.638168334960937500e+00 3.832052612304687500e+01 1.843008399009704590e-01 -6.342934370040893555e-01 -1.349977701902389526e-01 1.348667740821838379e-01
4.392000000000000000e+03 3.529230499267578125e+01 1.410397052764892578e+01 1.424699723720550537e-01 1.332401156425476074e+00 4.424613416194915771e-01 -2.104193717241287231e-01
4.393000000000000000e+03 4.683372497558593750e+01 -2.677070808410644531e+01 6.011489033699035645e-02 3.937537670135498047e+00 1.199295759201049805e+00 9.728485941886901855e-01
4.394000000000000000e+03 3.681741333007812500e+01 1.265719795227050781e+01 1.882645934820175171e-01 1.444657206535339355e+00 4.898765385150909424e-01 -2.712516188621520996e-01
4.395000000000000000e+03 3.553129959106445312e+01 1.268107414245605469e+01 1.564631909132003784e-01 1.274752974510192871e+00 4.293648600578308105e-01 -1.860596686601638794e-01
4.396000000000000000e+03 5.958659362792968750e+01 1.761182022094726562e+01 -5.639508366584777832e-01 6.983996391296386719e+00 1.926013588905334473e+00 -4.503138363361358643e-02
4.397000000000000000e+03 3.718688201904296875e+01 1.629576492309570312e+01 1.751673370599746704e-01 1.799895524978637695e+00 5.925188660621643066e-01 -3.837534487247467041e-01
4.398000000000000000e+03 3.817634582519531250e+01 1.821651840209960938e+01 1.582467854022979736e-01 2.101680994033813477e+00 6.779783368110656738e-01 -4.287382066249847412e-01
4.399000000000000000e+03 4.172360610961914062e+01 -3.044156455993652344e+01 3.338241875171661377e-01 2.672629833221435547e+00 9.019362330436706543e-01 5.396757721900939941e-01
4.400000000000000000e+03 3.385906600952148438e+01 1.910885810852050781e+01 1.366491168737411499e-01 1.380743384361267090e+00 4.552177488803863525e-01 -2.322359234094619751e-01
4.401000000000000000e+03 4.144205856323242188e+01 2.034505081176757812e+01 1.027152687311172485e-01 2.843723297119140625e+00 8.839315772056579590e-01 -5.259928107261657715e-01
4.402000000000000000e+03 3.876953506469726562e+01 2.075824165344238281e+01 1.493385136127471924e-01 2.323672294616699219e+00 7.419033050537109375e-01 -4.347003698348999023e-01
4.403000000000000000e+03 3.899345397949218750e+01 2.362455940246582031e+01 1.514600813388824463e-01 2.459184408187866211e+00 7.831932902336120605e-01 -3.970029950141906738e-01
4.404000000000000000e+03 4.687337493896484375e+01 2.163488578796386719e+01 -7.943855226039886475e-02 4.104311466217041016e+00 1.207461833953857422e+00 -5.623349547386169434e-01
4.405000000000000000e+03 6.512786865234375000e+01 2.688560676574707031e+01 -2.515771090984344482e-01 7.206996440887451172e+00 2.086625814437866211e+00 1.211512088775634766e-01
4.406000000000000000e+03 1.932345771789550781e+01 -2.250120735168457031e+01 -6.411603838205337524e-02 -1.689131259918212891e-01 -6.990874558687210083e-02 -3.581532239913940430e-01
4.407000000000000000e+03 1.832298088073730469e+01 -2.482733917236328125e+01 6.932308524847030640e-02 -2.207049131393432617e-01 -4.541454836726188660e-02 -3.368266224861145020e-01
4.408000000000000000e+03 7.214945220947265625e+01 -4.111984252929687500e+01 -1.393244713544845581e-01 8.028606414794921875e+00 2.366784572601318359e+00 -4.581114277243614197e-02
4.409000000000000000e+03 6.986307525634765625e+01 -3.547229766845703125e+01 -2.788515388965606689e-01 7.809233188629150391e+00 2.259114503860473633e+00 -2.340745329856872559e-01
4.410000000000000000e+03 6.789179992675781250e+01 -3.384341812133789062e+01 -3.475937545299530029e-01 7.693488121032714844e+00 2.203768253326416016e+00 -2.822782099246978760e-01
4.411000000000000000e+03 2.726352500915527344e+01 2.911185264587402344e+01 3.227836489677429199e-01 6.303028464317321777e-01 2.859259545803070068e-01 -7.516931742429733276e-02
4.412000000000000000e+03 1.078002929687500000e+01 3.473514938354492188e+01 2.330782711505889893e-01 -5.675210356712341309e-01 -1.003328338265419006e-01 2.349094599485397339e-01
4.413000000000000000e+03 3.232358551025390625e+01 1.536935710906982422e+01 6.381435692310333252e-02 9.627889990806579590e-01 3.079810142517089844e-01 -5.870751664042472839e-02
4.414000000000000000e+03 6.120750427246093750e+01 2.506199073791503906e+01 -3.381310701370239258e-01 6.777773380279541016e+00 1.931892752647399902e+00 1.988009735941886902e-02
4.415000000000000000e+03 5.520933151245117188e+01 2.568465614318847656e+01 -2.712951600551605225e-01 5.746817111968994141e+00 1.642656564712524414e+00 -2.291974723339080811e-01
4.416000000000000000e+03 4.175667190551757812e+01 2.307144927978515625e+01 9.429908543825149536e-02 2.977440118789672852e+00 9.215217232704162598e-01 -4.643864929676055908e-01
4.417000000000000000e+03 2.576110458374023438e+01 -2.689312362670898438e+01 3.065075576305389404e-01 2.271389216184616089e-01 1.600939482450485229e-01 -2.072224169969558716e-01
4.418000000000000000e+03 5.038257980346679688e+01 -3.178025817871093750e+01 -2.014998197555541992e-01 4.951044082641601562e+00 1.424863338470458984e+00 5.804654359817504883e-01
4.419000000000000000e+03 1.082933998107910156e+01 -3.449666213989257812e+01 1.985827833414077759e-01 -4.548016786575317383e-01 -7.686566561460494995e-02 -2.239955514669418335e-01
4.420000000000000000e+03 2.563908576965332031e+01 -2.271762275695800781e+01 9.967731684446334839e-02 1.393759846687316895e-01 7.171598821878433228e-02 -3.181247115135192871e-01
4.421000000000000000e+03 2.754643249511718750e+01 -2.418466758728027344e+01 2.289567589759826660e-01 2.701113522052764893e-01 1.497204303741455078e-01 -2.365256398916244507e-01
4.422000000000000000e+03 1.391252803802490234e+01 -2.784846115112304688e+01 1.625592112541198730e-01 -3.963425755500793457e-01 -7.013501226902008057e-02 -3.449172079563140869e-01
4.423000000000000000e+03 7.482949829101562500e+01 -3.842947387695312500e+01 -1.089283078908920288e-01 8.273117065429687500e+00 2.449256658554077148e+00 -1.144417300820350647e-01
4.424000000000000000e+03 5.667329788208007812e+01 -2.552240371704101562e+01 -7.020965814590454102e-01 7.007826328277587891e+00 1.891718983650207520e+00 4.525882899761199951e-01
4.425000000000000000e+03 5.613277053833007812e+01 -3.237258148193359375e+01 -4.824470281600952148e-01 6.320457935333251953e+00 1.751403212547302246e+00 2.698992788791656494e-01
4.426000000000000000e+03 1.327660846710205078e+01 3.324606323242187500e+01 2.857557833194732666e-01 -5.219269990921020508e-01 -7.085135579109191895e-02 2.456504851579666138e-01
4.427000000000000000e+03 3.154124259948730469e+01 2.099494171142578125e+01 1.229250580072402954e-01 1.107585668563842773e+00 3.691532313823699951e-01 -1.734474599361419678e-01
4.428000000000000000e+03 2.962100028991699219e+01 2.043108367919921875e+01 6.977839767932891846e-02 7.724727392196655273e-01 2.526753246784210205e-01 -8.306639641523361206e-02
4.429000000000000000e+03 3.055597305297851562e+01 1.671321678161621094e+01 8.009160868823528290e-03 7.765346765518188477e-01 2.353631407022476196e-01 -3.121591173112392426e-02
4.430000000000000000e+03 3.385513305664062500e+01 1.718713760375976562e+01 1.160674318671226501e-01 1.302696943283081055e+00 4.256292879581451416e-01 -1.972605884075164795e-01
4.431000000000000000e+03 7.407142639160156250e+01 3.139391326904296875e+01 -5.017937719821929932e-02 8.364919662475585938e+00 2.494421958923339844e+00 9.449148923158645630e-02
4.432000000000000000e+03 2.321899414062500000e+01 2.009068489074707031e+01 -9.779085218906402588e-02 -1.388559937477111816e-01 -7.099405676126480103e-02 7.686630636453628540e-02
4.433000000000000000e+03 6.064638137817382812e+01 -3.060583496093750000e+01 -6.024902462959289551e-01 7.143961906433105469e+00 1.962441563606262207e+00 2.071194536983966827e-02
4.434000000000000000e+03 8.105993270874023438e+00 -4.097355651855468750e+01 1.232693642377853394e-01 -5.830940604209899902e-01 -1.379474103450775146e-01 -4.363801330327987671e-02
4.435000000000000000e+03 1.296616172790527344e+01 -3.297198867797851562e+01 2.275248169898986816e-01 -4.007398486137390137e-01 -5.196451023221015930e-02 -2.553245723247528076e-01
4.436000000000000000e+03 2.385965156555175781e+01 2.728098869323730469e+01 2.772026956081390381e-01 1.511820703744888306e-01 1.285154372453689575e-01 -1.685199700295925140e-02
4.437000000000000000e+03 6.603707122802734375e+01 2.960079765319824219e+01 -1.846995651721954346e-01 7.252268791198730469e+00 2.120270729064941406e+00 1.042045578360557556e-01
4.438000000000000000e+03 6.496765899658203125e+01 3.326445388793945312e+01 -1.495193839073181152e-01 7.056870460510253906e+00 2.072205305099487305e+00 5.168986693024635315e-02
4.439000000000000000e+03 3.576190948486328125e+01 -3.092333412170410156e+01 4.862730801105499268e-01 1.523304462432861328e+00 6.028732657432556152e-01 2.165709137916564941e-01
4.440000000000000000e+03 4.100099563598632812e+01 -3.335100173950195312e+01 3.548065423965454102e-01 2.666195392608642578e+00 9.063006043434143066e-01 3.897511065006256104e-01
4.441000000000000000e+03 4.464007186889648438e+01 -3.067728996276855469e+01 1.682523041963577271e-01 3.454303503036499023e+00 1.086766719818115234e+00 6.504718065261840820e-01
4.442000000000000000e+03 1.218641662597656250e+01 -3.733732223510742188e+01 2.467305362224578857e-01 -3.977788388729095459e-01 -4.531449452042579651e-02 -1.474655270576477051e-01
4.443000000000000000e+03 2.263355445861816406e+01 -3.735163879394531250e+01 4.926261603832244873e-01 1.812927275896072388e-01 2.021756619215011597e-01 -7.875704020261764526e-02
4.444000000000000000e+03 3.679754257202148438e+01 -3.527112960815429688e+01 4.875093698501586914e-01 1.918323040008544922e+00 7.217497229576110840e-01 1.911821067333221436e-01
4.445000000000000000e+03 3.482485198974609375e+01 -3.859187316894531250e+01 5.083689093589782715e-01 1.620800495147705078e+00 6.387507915496826172e-01 7.897680252790451050e-02
4.446000000000000000e+03 4.349709701538085938e+01 -3.728277206420898438e+01 2.076919078826904297e-01 3.257162332534790039e+00 1.039456248283386230e+00 2.447649985551834106e-01
4.447000000000000000e+03 5.151263046264648438e+01 -3.700993728637695312e+01 -2.201816141605377197e-01 5.119989871978759766e+00 1.469942450523376465e+00 2.596714794635772705e-01
4.448000000000000000e+03 6.129070281982421875e+01 -3.343651962280273438e+01 -5.119357109069824219e-01 6.971017837524414062e+00 1.937724709510803223e+00 -1.676723919808864594e-02
4.449000000000000000e+03 6.243699645996093750e+01 3.359634780883789062e+01 -1.451764106750488281e-01 6.740880012512207031e+00 1.978711128234863281e+00 5.664295051246881485e-03
4.450000000000000000e+03 6.612607574462890625e+01 3.659249877929687500e+01 -1.013620868325233459e-01 7.250844955444335938e+00 2.144844770431518555e+00 4.706636816263198853e-02
4.451000000000000000e+03 5.579417037963867188e+01 3.669315719604492188e+01 -1.064732372760772705e-01 5.642393589019775391e+00 1.660776138305664062e+00 -6.128309294581413269e-02
4.452000000000000000e+03 6.558816528320312500e+01 -3.546178817749023438e+01 -4.048420786857604980e-01 7.425131320953369141e+00 2.106086730957031250e+00 -1.755176186561584473e-01
4.453000000000000000e+03 3.716473770141601562e+01 3.719659805297851562e+01 2.920871675014495850e-01 2.292572021484375000e+00 7.753977775573730469e-01 -1.008728817105293274e-01
4.454000000000000000e+03 1.900660896301269531e+01 3.687139892578125000e+01 4.209997057914733887e-01 -1.141245886683464050e-01 9.206253290176391602e-02 7.090958207845687866e-02
4.455000000000000000e+03 2.351174736022949219e+01 3.727518463134765625e+01 4.512185752391815186e-01 3.416026830673217773e-01 2.378463745117187500e-01 3.170135430991649628e-03
4.456000000000000000e+03 1.548053455352783203e+01 3.541488647460937500e+01 3.534912467002868652e-01 -3.655644655227661133e-01 -3.621965879574418068e-03 1.550810039043426514e-01
4.457000000000000000e+03 3.189349937438964844e+01 1.890325546264648438e+01 1.003427952527999878e-01 1.092723488807678223e+00 3.579198718070983887e-01 -1.459000855684280396e-01
4.458000000000000000e+03 3.595351028442382812e+01 1.892243385314941406e+01 1.553336530923843384e-01 1.716887235641479492e+00 5.616662502288818359e-01 -3.174869120121002197e-01
4.459000000000000000e+03 5.110689163208007812e+01 1.953115653991699219e+01 -2.865957915782928467e-01 5.153714179992675781e+00 1.460135579109191895e+00 -5.724679231643676758e-01
4.460000000000000000e+03 5.016741943359375000e+01 2.278655815124511719e+01 -1.958322376012802124e-01 4.830079078674316406e+00 1.390274047851562500e+00 -4.672301411628723145e-01
4.461000000000000000e+03 6.275187683105468750e+01 2.762232208251953125e+01 -2.671204805374145508e-01 6.898260593414306641e+00 1.989342093467712402e+00 5.027975514531135559e-02
4.462000000000000000e+03 5.236917877197265625e+01 2.140026092529296875e+01 -3.026169836521148682e-01 5.371665954589843750e+00 1.520714640617370605e+00 -4.456040263175964355e-01
4.463000000000000000e+03 3.177671051025390625e+01 -2.725792503356933594e+01 4.596819579601287842e-01 7.920225858688354492e-01 3.755113482475280762e-01 1.775143109261989594e-02
4.464000000000000000e+03 1.453204727172851562e+01 -3.102912902832031250e+01 2.424436956644058228e-01 -3.463583588600158691e-01 -3.117440082132816315e-02 -2.852624058723449707e-01
4.465000000000000000e+03 1.510552883148193359e+01 -3.528950119018554688e+01 3.066085278987884521e-01 -2.895850241184234619e-01 5.107047967612743378e-03 -1.886138767004013062e-01
4.466000000000000000e+03 6.051818084716796875e+01 2.888174819946289062e+01 -2.540759742259979248e-01 6.552547931671142578e+00 1.889541625976562500e+00 -1.420639641582965851e-02
4.467000000000000000e+03 5.245611190795898438e+01 -3.293461227416992188e+01 -2.970017194747924805e-01 5.379128456115722656e+00 1.524637937545776367e+00 4.130360782146453857e-01
4.468000000000000000e+03 2.151895713806152344e+01 -2.469887733459472656e+01 1.015766188502311707e-01 -6.621278077363967896e-02 1.060915365815162659e-02 -3.192110061645507812e-01
4.469000000000000000e+03 2.338706016540527344e+01 -2.611654281616210938e+01 2.283176630735397339e-01 8.447160571813583374e-02 9.383678436279296875e-02 -2.691766619682312012e-01
4.470000000000000000e+03 1.918998527526855469e+01 -2.657899856567382812e+01 1.867268085479736328e-01 -1.534642875194549561e-01 9.978756308555603027e-03 -3.097209632396697998e-01
4.471000000000000000e+03 2.904205322265625000e+01 2.217642211914062500e+01 1.235979720950126648e-01 7.344993948936462402e-01 2.574292123317718506e-01 -1.021855100989341736e-01
4.472000000000000000e+03 6.210806655883789062e+01 -3.679018020629882812e+01 -4.413117170333862305e-01 6.995054244995117188e+00 1.966122746467590332e+00 -5.852268263697624207e-02
4.473000000000000000e+03 4.737664794921875000e+01 -3.423634338378906250e+01 -2.088954643113538623e-04 4.163876056671142578e+00 1.249100208282470703e+00 4.385109543800354004e-01
4.474000000000000000e+03 1.639081573486328125e+01 -2.697570419311523438e+01 1.610721945762634277e-01 -2.955544590950012207e-01 -4.034468159079551697e-02 -3.260670304298400879e-01
4.475000000000000000e+03 3.619005203247070312e+01 2.709907722473144531e+01 2.189448773860931396e-01 2.017291069030761719e+00 6.708707809448242188e-01 -2.895269989967346191e-01
4.476000000000000000e+03 3.614032363891601562e+01 2.129347229003906250e+01 1.657812446355819702e-01 1.822963237762451172e+00 5.966233611106872559e-01 -3.288035988807678223e-01
4.477000000000000000e+03 5.815575790405273438e+01 -3.077990531921386719e+01 -5.703285932540893555e-01 6.750964641571044922e+00 1.854190826416015625e+00 1.821447312831878662e-01
4.478000000000000000e+03 3.820696258544921875e+01 -3.237647628784179688e+01 4.426045417785644531e-01 2.055954694747924805e+00 7.495677471160888672e-01 3.220394849777221680e-01
4.479000000000000000e+03 2.795838928222656250e+01 2.086247825622558594e+01 5.599282309412956238e-02 5.215664505958557129e-01 1.732677817344665527e-01 -5.713719502091407776e-02
4.480000000000000000e+03 2.044346427917480469e+01 3.345213699340820312e+01 4.071411788463592529e-01 -5.648769065737724304e-02 1.051960438489913940e-01 7.732578366994857788e-02
4.481000000000000000e+03 5.960050582885742188e+01 -2.673990249633789062e+01 -6.918194293975830078e-01 7.359857559204101562e+00 2.000411510467529297e+00 5.968362465500831604e-02
4.482000000000000000e+03 2.431866645812988281e+01 3.368163681030273438e+01 4.137682914733886719e-01 3.647157549858093262e-01 2.335451990365982056e-01 -1.009955722838640213e-02
4.483000000000000000e+03 1.954615020751953125e+01 -3.351638031005859375e+01 3.812028169631958008e-01 -7.567340135574340820e-02 9.165882319211959839e-02 -1.918535530567169189e-01
4.484000000000000000e+03 5.451131439208984375e+01 -3.511420822143554688e+01 -3.627559244632720947e-01 5.779755592346191406e+00 1.625099897384643555e+00 2.486060410737991333e-01
4.485000000000000000e+03 5.638509750366210938e+01 3.208423233032226562e+01 -1.650456041097640991e-01 5.711972713470458984e+00 1.664078235626220703e+00 -8.931321650743484497e-02
4.486000000000000000e+03 5.864947509765625000e+01 3.486677169799804688e+01 -1.245412528514862061e-01 6.097571849822998047e+00 1.791909217834472656e+00 -2.490526810288429260e-02
4.487000000000000000e+03 4.775120544433593750e+01 2.397704505920410156e+01 -9.226597845554351807e-02 4.279520511627197266e+00 1.256176352500915527e+00 -4.697260260581970215e-01
4.488000000000000000e+03 4.304293060302734375e+01 2.880195045471191406e+01 1.046865582466125488e-01 3.306807041168212891e+00 1.023448109626770020e+00 -3.243988752365112305e-01
4.489000000000000000e+03 3.075194931030273438e+01 2.340244865417480469e+01 1.856897026300430298e-01 1.043223381042480469e+00 3.686739206314086914e-01 -1.732981055974960327e-01
4.490000000000000000e+03 2.637816238403320312e+01 2.656884002685546875e+01 2.572254538536071777e-01 4.423899054527282715e-01 2.098845988512039185e-01 -6.451068818569183350e-02
4.491000000000000000e+03 2.573619651794433594e+01 -2.448357772827148438e+01 1.928546577692031860e-01 1.707007288932800293e-01 1.090666130185127258e-01 -2.673611044883728027e-01
4.492000000000000000e+03 5.140933609008789062e+01 2.500130653381347656e+01 -1.998328268527984619e-01 5.046737194061279297e+00 1.454071283340454102e+00 -3.667494356632232666e-01
4.493000000000000000e+03 5.375226211547851562e+01 2.343473625183105469e+01 -2.953138947486877441e-01 5.555617332458496094e+00 1.578091025352478027e+00 -3.337816894054412842e-01
4.494000000000000000e+03 2.198682212829589844e+01 -2.772854232788085938e+01 2.756471931934356689e-01 1.451489888131618500e-02 8.704862743616104126e-02 -2.535900175571441650e-01
4.495000000000000000e+03 3.409755325317382812e+01 -3.342325592041015625e+01 5.270184278488159180e-01 1.365781188011169434e+00 5.678399205207824707e-01 1.085703596472740173e-01
4.496000000000000000e+03 2.944975471496582031e+01 3.060196304321289062e+01 3.448425233364105225e-01 9.813007712364196777e-01 3.978430032730102539e-01 -1.309629231691360474e-01
4.497000000000000000e+03 5.140530776977539062e+01 3.393931198120117188e+01 -4.551152884960174561e-02 4.841265678405761719e+00 1.438726186752319336e+00 -1.662277728319168091e-01
4.498000000000000000e+03 5.454521560668945312e+01 2.961293983459472656e+01 -1.780266016721725464e-01 5.473975658416748047e+00 1.588784694671630859e+00 -1.853205561637878418e-01
4.499000000000000000e+03 2.987314414978027344e+01 -3.415067291259765625e+01 5.245563387870788574e-01 8.015790581703186035e-01 3.978406190872192383e-01 4.970330744981765747e-03
4.500000000000000000e+03 2.620067024230957031e+01 -3.009071922302246094e+01 4.222381711006164551e-01 3.456479907035827637e-01 2.303658574819564819e-01 -1.341195106506347656e-01
4.501000000000000000e+03 5.036757659912109375e+01 -3.413607406616210938e+01 -1.860910058021545410e-01 4.879385471343994141e+00 1.407988309860229492e+00 4.533696174621582031e-01
4.502000000000000000e+03 4.607244110107421875e+01 2.774372863769531250e+01 -2.613000804558396339e-03 3.914752483367919922e+00 1.173641800880432129e+00 -3.557746708393096924e-01
4.503000000000000000e+03 5.900058364868164062e+01 2.650244903564453125e+01 -2.991864383220672607e-01 6.373742103576660156e+00 1.822366714477539062e+00 -5.128847435116767883e-02
4.504000000000000000e+03 3.321563339233398438e+01 2.416541481018066406e+01 2.097179591655731201e-01 1.421172618865966797e+00 4.892671704292297363e-01 -2.429318279027938843e-01
4.505000000000000000e+03 2.643375015258789062e+01 2.232020187377929688e+01 8.365008234977722168e-02 3.473994433879852295e-01 1.293148547410964966e-01 -4.233188182115554810e-02
4.506000000000000000e+03 2.984612655639648438e+01 2.778311157226562500e+01 2.829996943473815918e-01 1.023622274398803711e+00 3.919865787029266357e-01 -1.594113707542419434e-01
4.507000000000000000e+03 2.888117218017578125e+01 2.539350509643554688e+01 2.225213944911956787e-01 8.520571589469909668e-01 3.223735690116882324e-01 -1.250057667493820190e-01
4.508000000000000000e+03 6.392787170410156250e+01 3.038995170593261719e+01 -1.961140036582946777e-01 6.977419853210449219e+00 2.034391880035400391e+00 4.611175134778022766e-02
4.509000000000000000e+03 2.663174247741699219e+01 -3.737255096435546875e+01 5.465766787528991699e-01 5.705793499946594238e-01 3.351467847824096680e-01 -4.026377946138381958e-02
4.510000000000000000e+03 4.743297958374023438e+01 4.055014038085937500e+01 6.651903688907623291e-02 4.078247547149658203e+00 1.243430018424987793e+00 -4.454966261982917786e-02
4.511000000000000000e+03 1.997434425354003906e+01 -2.830730247497558594e+01 2.694969773292541504e-01 -8.333639800548553467e-02 5.584817752242088318e-02 -2.731004357337951660e-01
4.512000000000000000e+03 2.289408493041992188e+01 -3.047715759277343750e+01 3.696834743022918701e-01 1.107724532485008240e-01 1.441367715597152710e-01 -1.981258839368820190e-01
4.513000000000000000e+03 6.020161056518554688e+01 3.257882690429687500e+01 -1.662130057811737061e-01 6.428738117218017578e+00 1.878757476806640625e+00 -1.220537256449460983e-02
4.514000000000000000e+03 1.672588348388671875e+01 -3.251510238647460938e+01 3.149175345897674561e-01 -2.242849022150039673e-01 2.718978747725486755e-02 -2.405597865581512451e-01
4.515000000000000000e+03 5.030873489379882812e+01 2.915007781982421875e+01 -9.735915809869766235e-02 4.745500564575195312e+00 1.394442319869995117e+00 -2.948786318302154541e-01
4.516000000000000000e+03 4.792222976684570312e+01 3.706579208374023438e+01 4.845458269119262695e-02 4.178621292114257812e+00 1.268122673034667969e+00 -1.215349212288856506e-01
4.517000000000000000e+03 3.263383865356445312e+01 3.743194198608398438e+01 3.745692372322082520e-01 1.553845286369323730e+00 5.785243511199951172e-01 -8.449251204729080200e-02
4.518000000000000000e+03 3.142983245849609375e+01 -3.147665214538574219e+01 5.082719922065734863e-01 8.831576704978942871e-01 4.174289107322692871e-01 3.512636199593544006e-02
4.519000000000000000e+03 3.273295211791992188e+01 3.400861358642578125e+01 3.539351820945739746e-01 1.548911452293395996e+00 5.708540081977844238e-01 -1.327732801437377930e-01
4.520000000000000000e+03 4.821398925781250000e+01 3.390636444091796875e+01 1.750384457409381866e-02 4.320919513702392578e+00 1.301527023315429688e+00 -2.018971145153045654e-01
4.521000000000000000e+03 3.293160629272460938e+01 2.735528564453125000e+01 2.562416791915893555e-01 1.444337844848632812e+00 5.101738572120666504e-01 -2.193721085786819458e-01
4.522000000000000000e+03 4.056191635131835938e+01 3.300557327270507812e+01 1.830832213163375854e-01 2.857251644134521484e+00 9.121004343032836914e-01 -2.350094467401504517e-01
4.523000000000000000e+03 3.983449554443359375e+01 2.968751525878906250e+01 1.797585040330886841e-01 2.699067592620849609e+00 8.636478185653686523e-01 -2.904551327228546143e-01
4.524000000000000000e+03 2.934129905700683594e+01 -2.907207489013671875e+01 4.565398991107940674e-01 6.014510393142700195e-01 3.173972666263580322e-01 -5.928261205554008484e-02
4.525000000000000000e+03 4.727903366088867188e+01 3.071997070312500000e+01 -4.164178855717182159e-03 4.178466796875000000e+00 1.252290844917297363e+00 -2.615462839603424072e-01
4.526000000000000000e+03 4.522553253173828125e+01 3.517200469970703125e+01 9.819416701793670654e-02 3.709114551544189453e+00 1.142192602157592773e+00 -1.588899195194244385e-01
4.527000000000000000e+03 4.002357423305511475e-01 -2.190573930740356445e+00 1.801954786060377955e-04 -3.211638613720424473e-05 4.442373028723523021e-05 4.263687515049241483e-05
4.528000000000000000e+03 5.073955535888671875e+01 -4.758643150329589844e+00 1.789177894592285156e+00 1.590726494789123535e+00 1.013971328735351562e+00 -2.604843139648437500e+00
4.529000000000000000e+03 5.111880874633789062e+01 -4.377911090850830078e+00 2.532095432281494141e+00 3.185308456420898438e+00 1.715221166610717773e+00 -3.928810119628906250e+00
4.530000000000000000e+03 5.163968276977539062e+01 -4.515493869781494141e+00 3.028190135955810547e+00 4.906212806701660156e+00 2.380320787429809570e+00 -5.057217121124267578e+00
4.531000000000000000e+03 5.197600555419921875e+01 -4.687090873718261719e+00 3.302560567855834961e+00 6.554850101470947266e+00 2.957223176956176758e+00 -5.918902873992919922e+00
4.532000000000000000e+03 5.242146301269531250e+01 -4.715862274169921875e+00 3.046347379684448242e+00 1.047449684143066406e+01 4.056253433227539062e+00 -6.886872291564941406e+00
4.533000000000000000e+03 5.262878799438476562e+01 -4.736541271209716797e+00 2.678116798400878906e+00 1.256758117675781250e+01 4.573709487915039062e+00 -6.906316280364990234e+00
4.534000000000000000e+03 5.288600540161132812e+01 -4.463675022125244141e+00 1.632263898849487305e+00 1.434824657440185547e+01 4.794153213500976562e+00 -5.777673721313476562e+00
4.535000000000000000e+03 5.343842697143554688e+01 -4.798461914062500000e+00 1.510114192962646484e+00 1.967687034606933594e+01 6.356095314025878906e+00 -3.471560478210449219e+00
4.536000000000000000e+03 5.372913742065429688e+01 -4.580848693847656250e+00 1.461521267890930176e+00 1.911514663696289062e+01 6.173000812530517578e+00 -1.824233174324035645e+00
4.537000000000000000e+03 5.440824508666992188e+01 -4.784788608551025391e+00 3.584307193756103516e+00 1.850718498229980469e+01 6.627448081970214844e+00 1.260354995727539062e+00
4.538000000000000000e+03 5.470531463623046875e+01 -5.834435939788818359e+00 1.002374458312988281e+01 1.725451660156250000e+01 8.183478355407714844e+00 2.130080461502075195e+00
4.539000000000000000e+03 5.099916458129882812e+01 -8.049859046936035156e+00 2.157381296157836914e+00 2.074545860290527344e+00 1.269578099250793457e+00 3.187557220458984375e+00
4.540000000000000000e+03 5.168467712402343750e+01 -8.438205718994140625e+00 2.662562131881713867e+00 5.669509410858154297e+00 2.499621629714965820e+00 5.193820953369140625e+00
4.541000000000000000e+03 5.188480758666992188e+01 -8.374793052673339844e+00 2.923365592956542969e+00 6.567018985748291016e+00 2.847115516662597656e+00 5.687785148620605469e+00
4.542000000000000000e+03 5.263966751098632812e+01 -8.041357994079589844e+00 2.598474502563476562e+00 1.245530509948730469e+01 4.516133785247802734e+00 7.002983093261718750e+00
4.543000000000000000e+03 5.247404861450195312e+01 -8.336765289306640625e+00 2.311860799789428711e+00 1.088607215881347656e+01 3.959379911422729492e+00 6.380172729492187500e+00
4.544000000000000000e+03 5.283890151977539062e+01 -8.036856651306152344e+00 2.024022340774536133e+00 1.494713497161865234e+01 5.091347217559814453e+00 6.633095264434814453e+00
4.545000000000000000e+03 5.323945999145507812e+01 -8.023921012878417969e+00 1.415895104408264160e+00 1.822489166259765625e+01 5.892236232757568359e+00 4.721433639526367188e+00
4.546000000000000000e+03 5.399733352661132812e+01 -8.164279937744140625e+00 1.964291691780090332e+00 1.931343460083007812e+01 6.383317470550537109e+00 4.819643497467041016e-01
4.547000000000000000e+03 5.422740554809570312e+01 -8.106858253479003906e+00 2.634220123291015625e+00 1.897763633728027344e+01 6.483556747436523438e+00 -5.033009052276611328e-01
4.548000000000000000e+03 5.453275680541992188e+01 -7.298274517059326172e+00 7.639245986938476562e+00 1.860590934753417969e+01 7.873546600341796875e+00 -2.642464399337768555e+00
4.549000000000000000e+03 5.474984359741210938e+01 -7.685908317565917969e+00 5.596021652221679688e+00 1.756043052673339844e+01 6.946935653686523438e+00 -2.239463567733764648e+00
4.550000000000000000e+03 5.487894439697265625e+01 -7.447954177856445312e+00 6.935125350952148438e+00 1.697753715515136719e+01 7.173799037933349609e+00 -2.370820283889770508e+00
4.551000000000000000e+03 5.507078552246093750e+01 -6.987465858459472656e+00 8.926858901977539062e+00 1.568077373504638672e+01 7.382289886474609375e+00 -1.756205677986145020e+00
4.552000000000000000e+03 5.471193313598632812e+01 -6.906154632568359375e+00 1.013129329681396484e+01 1.717194938659667969e+01 8.190972328186035156e+00 -2.085551261901855469e+00
4.553000000000000000e+03 5.481515121459960938e+01 -6.465197563171386719e+00 1.112456321716308594e+01 1.624938201904296875e+01 8.212183952331542969e+00 -2.572873532772064209e-01
4.554000000000000000e+03 5.478985977172851562e+01 -6.250237464904785156e+00 1.106204700469970703e+01 1.628289031982421875e+01 8.203480720520019531e+00 5.265775322914123535e-01
4.555000000000000000e+03 1.293886542320251465e+00 2.749090433120727539e+00 3.113243292318657041e-05 -1.703931484371423721e-04 -4.177821392659097910e-05 2.738500734267290682e-05
4.556000000000000000e+03 7.192343902587890625e+01 -3.854414749145507812e+01 -1.744698137044906616e-01 7.995996475219726562e+00 2.346457958221435547e+00 -1.353607326745986938e-01
4.557000000000000000e+03 2.502142667770385742e+00 2.738812446594238281e+00 -4.268661723472177982e-04 -2.182623138651251793e-04 -1.935385371325537562e-04 2.419659722363576293e-05
4.558000000000000000e+03 5.081595611572265625e+01 -8.697729110717773438e+00 2.065287113189697266e+00 3.123853206634521484e+00 1.556742072105407715e+00 3.687418937683105469e+00
4.559000000000000000e+03 5.122883987426757812e+01 -8.758277893066406250e+00 2.324143171310424805e+00 4.292895793914794922e+00 1.985111594200134277e+00 4.399648189544677734e+00
4.560000000000000000e+03 5.195444107055664062e+01 -8.638597488403320312e+00 2.352774381637573242e+00 7.201103687286376953e+00 2.866163492202758789e+00 5.544062137603759766e+00
4.561000000000000000e+03 5.230041503906250000e+01 -8.624295234680175781e+00 2.076455831527709961e+00 9.600967407226562500e+00 3.503226995468139648e+00 5.945557117462158203e+00
4.562000000000000000e+03 5.311768722534179688e+01 -8.569375038146972656e+00 9.563739895820617676e-01 1.518152713775634766e+01 4.841370105743408203e+00 4.792397022247314453e+00
4.563000000000000000e+03 5.347066497802734375e+01 -8.299123764038085938e+00 1.121560454368591309e+00 1.798884391784667969e+01 5.733121395111083984e+00 3.258810281753540039e+00
4.564000000000000000e+03 5.328767395019531250e+01 -8.523996353149414062e+00 8.509991765022277832e-01 1.608274459838867188e+01 5.080123424530029297e+00 4.156078338623046875e+00
4.565000000000000000e+03 5.360523986816406250e+01 -8.603480339050292969e+00 7.739207744598388672e-01 1.695176315307617188e+01 5.317705154418945312e+00 2.880450963973999023e+00
4.566000000000000000e+03 5.366138076782226562e+01 -8.400897026062011719e+00 1.047519683837890625e+00 1.813813591003417969e+01 5.755696773529052734e+00 2.440586328506469727e+00
4.567000000000000000e+03 5.480365753173828125e+01 -8.169357299804687500e+00 3.635314702987670898e+00 1.687365150451660156e+01 6.152689933776855469e+00 -1.578033208847045898e+00
4.568000000000000000e+03 5.509667968750000000e+01 -8.101880073547363281e+00 4.222497463226318359e+00 1.605621337890625000e+01 6.083612918853759766e+00 -1.852456450462341309e+00
4.569000000000000000e+03 5.523973083496093750e+01 -7.593433856964111328e+00 6.292324066162109375e+00 1.553901100158691406e+01 6.549400329589843750e+00 -2.178696870803833008e+00
4.570000000000000000e+03 5.544401931762695312e+01 -7.073102474212646484e+00 7.993395805358886719e+00 1.455534839630126953e+01 6.764623165130615234e+00 -1.606130599975585938e+00
4.571000000000000000e+03 5.558947753906250000e+01 -6.550595283508300781e+00 8.592152595520019531e+00 1.381292819976806641e+01 6.721524238586425781e+00 -3.811846375465393066e-01
4.572000000000000000e+03 9.845813751220703125e+00 -2.137997627258300781e+01 -1.900054365396499634e-01 -4.875617921352386475e-01 -2.032701671123504639e-01 -4.203827977180480957e-01
4.573000000000000000e+03 5.378185653686523438e+01 -8.612862586975097656e+00 8.545477986335754395e-01 1.741925811767578125e+01 5.482141971588134766e+00 2.025263071060180664e+00
4.574000000000000000e+03 5.494368362426757812e+01 -8.500509262084960938e+00 2.815900087356567383e+00 1.619138526916503906e+01 5.702185630798339844e+00 -1.270889520645141602e+00
4.575000000000000000e+03 5.534182739257812500e+01 -7.989698886871337891e+00 4.854073524475097656e+00 1.533121395111083984e+01 6.055586338043212891e+00 -2.043915510177612305e+00
4.576000000000000000e+03 5.293082427978515625e+01 -4.199054241180419922e+00 1.236706972122192383e+00 1.385093498229980469e+01 4.526292324066162109e+00 -5.241332054138183594e+00
4.577000000000000000e+03 5.273515319824218750e+01 -4.178015232086181641e+00 1.485326051712036133e+00 1.258854293823242188e+01 4.222160816192626953e+00 -5.661594390869140625e+00
4.578000000000000000e+03 5.139118957519531250e+01 -4.407778263092041016e+00 2.786869287490844727e+00 4.203172683715820312e+00 2.097012519836425781e+00 -4.538786411285400391e+00
4.579000000000000000e+03 5.136486053466796875e+01 -4.083875179290771484e+00 2.507493019104003906e+00 4.787833690643310547e+00 2.188597917556762695e+00 -4.644510746002197266e+00
4.580000000000000000e+03 5.337754058837890625e+01 -4.205579757690429688e+00 8.437938094139099121e-01 1.642830085754394531e+01 5.181628227233886719e+00 -3.706289529800415039e+00
4.581000000000000000e+03 5.394400024414062500e+01 -4.633737564086914062e+00 1.925749778747558594e+00 1.936809349060058594e+01 6.388153076171875000e+00 -7.370770573616027832e-01
4.582000000000000000e+03 5.404107666015625000e+01 -4.308788299560546875e+00 1.430573940277099609e+00 1.794598960876464844e+01 5.812969207763671875e+00 -9.043476581573486328e-01
4.583000000000000000e+03 5.426615524291992188e+01 -4.411283016204833984e+00 2.036972999572753906e+00 1.788550758361816406e+01 5.976744174957275391e+00 1.340805552899837494e-02
4.584000000000000000e+03 5.411252212524414062e+01 -8.660531997680664062e+00 1.152544975280761719e+00 1.704559326171875000e+01 5.459441661834716797e+00 8.868048191070556641e-01
4.585000000000000000e+03 5.427358627319335938e+01 -8.385176658630371094e+00 1.946253180503845215e+00 1.799067497253417969e+01 5.981078147888183594e+00 -1.404633186757564545e-02
4.586000000000000000e+03 5.502708435058593750e+01 -4.785614967346191406e+00 4.642212867736816406e+00 1.636587333679199219e+01 6.302425861358642578e+00 1.942660570144653320e+00
4.587000000000000000e+03 5.470712280273437500e+01 -4.793499946594238281e+00 4.231640338897705078e+00 1.753482818603515625e+01 6.529940605163574219e+00 1.769751906394958496e+00
4.588000000000000000e+03 5.492448043823242188e+01 -5.283656597137451172e+00 6.758123874664306641e+00 1.678199195861816406e+01 7.062035083770751953e+00 2.384557485580444336e+00
4.589000000000000000e+03 5.338550567626953125e+01 -9.096327781677246094e+00 4.584221243858337402e-01 1.460504722595214844e+01 4.519041061401367188e+00 3.510995626449584961e+00
4.590000000000000000e+03 5.337102890014648438e+01 -8.709992408752441406e+00 6.839767694473266602e-01 1.563116073608398438e+01 4.894541263580322266e+00 3.714754581451416016e+00
4.591000000000000000e+03 5.274779129028320312e+01 -8.891622543334960938e+00 1.078057527542114258e+00 1.235846042633056641e+01 4.030955314636230469e+00 5.202244758605957031e+00
4.592000000000000000e+03 5.525168991088867188e+01 -5.379524707794189453e+00 6.979416370391845703e+00 1.536463451385498047e+01 6.703215122222900391e+00 2.114850282669067383e+00
4.593000000000000000e+03 5.211646652221679688e+01 -8.608650207519531250e+00 2.245177268981933594e+00 8.547364234924316406e+00 3.237762451171875000e+00 5.770573616027832031e+00
4.594000000000000000e+03 5.271398162841796875e+01 -8.618370056152343750e+00 1.411368012428283691e+00 1.253696155548095703e+01 4.184498786926269531e+00 5.625194072723388672e+00
4.595000000000000000e+03 3.122924804687500000e+00 3.731320190429687500e+01 4.081925749778747559e-02 -8.929566144943237305e-01 -2.556411921977996826e-01 7.066444307565689087e-02
4.596000000000000000e+03 5.044035720825195312e+01 -9.928499221801757812e+00 1.474207282066345215e+00 3.956148862838745117e+00 1.629106879234313965e+00 3.645373344421386719e+00
4.597000000000000000e+03 1.505738258361816406e+01 3.130114173889160156e+01 3.176303207874298096e-01 -4.861745536327362061e-01 -5.056327208876609802e-02 2.515858709812164307e-01
4.598000000000000000e+03 1.324770259857177734e+01 2.985610961914062500e+01 2.474217712879180908e-01 -5.932008028030395508e-01 -1.037337034940719604e-01 3.298836946487426758e-01
4.599000000000000000e+03 5.189312362670898438e+01 -9.003513336181640625e+00 1.865295052528381348e+00 7.532287120819091797e+00 2.819274663925170898e+00 5.272285461425781250e+00
4.600000000000000000e+03 5.178920364379882812e+01 -3.437523365020751953e+00 1.746318817138671875e+00 7.356709480285644531e+00 2.730908393859863281e+00 -5.094574451446533203e+00
4.601000000000000000e+03 5.179254150390625000e+01 -8.723458290100097656e+00 2.410741806030273438e+00 6.649531841278076172e+00 2.718082189559936523e+00 5.535703659057617188e+00
4.602000000000000000e+03 5.535723876953125000e+01 -8.712285041809082031e+00 2.728421211242675781e+00 1.508134078979492188e+01 5.342928409576416016e+00 -1.373484492301940918e+00
4.603000000000000000e+03 5.444386291503906250e+01 -4.161971092224121094e+00 1.776480078697204590e+00 1.695549583435058594e+01 5.619592666625976562e+00 1.458251476287841797e-01
4.604000000000000000e+03 5.449329757690429688e+01 -4.449796676635742188e+00 2.571523904800415039e+00 1.751247787475585938e+01 6.025200366973876953e+00 7.603504061698913574e-01
4.605000000000000000e+03 5.553593826293945312e+01 -8.392058372497558594e+00 3.764837741851806641e+00 1.482959175109863281e+01 5.578328609466552734e+00 -1.779720544815063477e+00
4.606000000000000000e+03 5.574184417724609375e+01 -8.001441001892089844e+00 4.958227634429931641e+00 1.434570693969726562e+01 5.791180133819580078e+00 -1.933872699737548828e+00
4.607000000000000000e+03 5.607384490966796875e+01 -7.531507015228271484e+00 6.060924053192138672e+00 1.324108695983886719e+01 5.790603160858154297e+00 -1.612733960151672363e+00
4.608000000000000000e+03 5.355182266235351562e+01 -8.856896400451660156e+00 5.361623764038085938e-01 1.590146255493164062e+01 4.931287765502929688e+00 3.100718259811401367e+00
4.609000000000000000e+03 5.623186874389648438e+01 -7.155344009399414062e+00 6.657401561737060547e+00 1.275907516479492188e+01 5.824943065643310547e+00 -1.208749413490295410e+00
4.610000000000000000e+03 5.627764511108398438e+01 -6.657387256622314453e+00 7.168747901916503906e+00 1.253975391387939453e+01 5.912550449371337891e+00 -4.469218850135803223e-01
4.611000000000000000e+03 5.617016601562500000e+01 -6.060065269470214844e+00 7.357732772827148438e+00 1.273360824584960938e+01 6.027402400970458984e+00 5.555666685104370117e-01
4.612000000000000000e+03 5.649626541137695312e+01 -6.137659549713134766e+00 6.875684261322021484e+00 1.221810340881347656e+01 5.728136062622070312e+00 3.580982089042663574e-01
4.613000000000000000e+03 5.247217559814453125e+01 -3.260631084442138672e+00 9.764389991760253906e-01 1.033433723449707031e+01 3.393232822418212891e+00 -4.802895069122314453e+00
4.614000000000000000e+03 8.953086853027343750e+00 -2.256521224975585938e+01 -1.196644678711891174e-01 -4.410309493541717529e-01 -1.682086288928985596e-01 -4.214303195476531982e-01
4.615000000000000000e+03 4.957851028442382812e+01 -9.453123092651367188e+00 1.156147241592407227e+00 2.001306056976318359e+00 9.472360014915466309e-01 2.493448734283447266e+00
4.616000000000000000e+03 4.922264480590820312e+01 -9.720213890075683594e+00 1.010502099990844727e+00 1.830040574073791504e+00 8.521628379821777344e-01 2.313664913177490234e+00
4.617000000000000000e+03 5.429296875000000000e+01 -9.136925697326660156e+00 7.900560498237609863e-01 1.578419208526611328e+01 4.972274303436279297e+00 9.516516923904418945e-01
4.618000000000000000e+03 5.453301620483398438e+01 -9.420081138610839844e+00 6.838082075119018555e-01 1.494784355163574219e+01 4.689495563507080078e+00 6.617672443389892578e-01
4.619000000000000000e+03 5.530162048339843750e+01 -4.807697296142578125e+00 4.911070823669433594e+00 1.540703964233398438e+01 6.095433235168457031e+00 1.971931338310241699e+00
4.620000000000000000e+03 5.404113769531250000e+01 -8.937281608581542969e+00 7.654239535331726074e-01 1.639460945129394531e+01 5.148009777069091797e+00 1.323986411094665527e+00
4.621000000000000000e+03 5.386164474487304688e+01 -9.179959297180175781e+00 3.903067111968994141e-01 1.533201122283935547e+01 4.716695308685302734e+00 2.147330522537231445e+00
4.622000000000000000e+03 5.276745223999023438e+01 -9.133785247802734375e+00 8.984947204589843750e-01 1.219539165496826172e+01 3.928165912628173828e+00 4.986807823181152344e+00
4.623000000000000000e+03 3.482022523880004883e+00 3.606751251220703125e+01 5.675425380468368530e-02 -8.325518965721130371e-01 -2.327392995357513428e-01 1.218212917447090149e-01
4.624000000000000000e+03 5.098801422119140625e+01 -3.452070236206054688e+00 1.894900679588317871e+00 4.510735034942626953e+00 1.921690821647644043e+00 -4.154237747192382812e+00
4.625000000000000000e+03 5.100273513793945312e+01 -3.764554262161254883e+00 2.099895477294921875e+00 3.876355171203613281e+00 1.792875170707702637e+00 -4.116902828216552734e+00
4.626000000000000000e+03 5.543469619750976562e+01 -4.522931575775146484e+00 4.042055130004882812e+00 1.498958110809326172e+01 5.709490776062011719e+00 1.852392196655273438e+00
4.627000000000000000e+03 1.371049213409423828e+01 -2.359446144104003906e+01 -1.786505430936813354e-02 -4.458858370780944824e-01 -1.391252726316452026e-01 -3.819617033004760742e-01
4.628000000000000000e+03 1.466758251190185547e+01 -2.612503623962402344e+01 1.081528142094612122e-01 -3.878466784954071045e-01 -8.390815556049346924e-02 -3.550419807434082031e-01
4.629000000000000000e+03 5.206322479248046875e+01 -9.389552116394042969e+00 1.441982388496398926e+00 8.513416290283203125e+00 2.986619710922241211e+00 5.104568004608154297e+00
4.630000000000000000e+03 5.235900878906250000e+01 -9.801523208618164062e+00 7.420583963394165039e-01 9.675341606140136719e+00 3.125220060348510742e+00 4.587095260620117188e+00
4.631000000000000000e+03 5.156108474731445312e+01 -3.765710830688476562e+00 2.056545495986938477e+00 6.010755538940429688e+00 2.420190334320068359e+00 -4.819458484649658203e+00
4.632000000000000000e+03 4.185177803039550781e+00 -2.266341590881347656e+01 -6.339436024427413940e-02 -2.217375338077545166e-01 -8.553957194089889526e-02 -2.206548452377319336e-01
4.633000000000000000e+03 1.818255424499511719e+01 -2.788402938842773438e+01 2.237815409898757935e-01 -1.997110098600387573e-01 7.221157662570476532e-03 -3.011421561241149902e-01
4.634000000000000000e+03 3.036558723449707031e+01 -2.525496482849121094e+01 3.610153794288635254e-01 5.460184216499328613e-01 2.721101343631744385e-01 -1.020018905401229858e-01
4.635000000000000000e+03 1.622491836547851562e+01 2.926979064941406250e+01 2.980204522609710693e-01 -4.826543033123016357e-01 -5.539014935493469238e-02 2.506271302700042725e-01
4.636000000000000000e+03 5.294909286499023438e+01 -3.966193675994873047e+00 1.001488924026489258e+00 1.346263504028320312e+01 4.339237213134765625e+00 -4.863371372222900391e+00
4.637000000000000000e+03 9.851212501525878906e+00 -3.661337614059448242e+00 1.956672349479049444e-04 -4.992414033040404320e-04 -9.107224468607455492e-05 4.443732541403733194e-05
4.638000000000000000e+03 5.596619796752929688e+01 -8.600239753723144531e+00 3.546966552734375000e+00 1.376955223083496094e+01 5.194955825805664062e+00 -1.709685921669006348e+00
4.639000000000000000e+03 5.597090530395507812e+01 -8.155865669250488281e+00 4.508470535278320312e+00 1.374074745178222656e+01 5.474765300750732422e+00 -1.855520248413085938e+00
4.640000000000000000e+03 5.358606719970703125e+01 -4.272551536560058594e+00 8.884768486022949219e-01 1.733188056945800781e+01 5.466107368469238281e+00 -2.924991846084594727e+00
4.641000000000000000e+03 5.281402969360351562e+01 -3.652983188629150391e+00 8.693108558654785156e-01 1.215088272094726562e+01 3.906058073043823242e+00 -4.770287513732910156e+00
4.642000000000000000e+03 5.450261306762695312e+01 -9.976862907409667969e+00 2.095088660717010498e-01 1.394424629211425781e+01 4.246126651763916016e+00 1.076212882995605469e+00
4.643000000000000000e+03 2.243715476989746094e+01 -2.056931734085083008e+00 -1.436034142971038818e-01 -1.819146722555160522e-01 -9.765542298555374146e-02 2.842081785202026367e-01
4.644000000000000000e+03 5.298870849609375000e+01 -3.402079105377197266e+00 6.100817322731018066e-01 1.250500392913818359e+01 3.934525728225708008e+00 -4.280910491943359375e+00
4.645000000000000000e+03 5.374673461914062500e+01 -9.706987380981445312e+00 1.108816713094711304e-01 1.386926555633544922e+01 4.194044113159179688e+00 2.518358230590820312e+00
4.646000000000000000e+03 4.038444995880126953e+00 4.387135982513427734e+00 -3.280529635958373547e-04 -1.882146898424252868e-04 -1.548802974866703153e-04 -1.545214472571387887e-04
4.647000000000000000e+03 5.508409881591796875e+01 -3.806589126586914062e+00 1.972822070121765137e+00 1.519454383850097656e+01 5.150209903717041016e+00 8.265761137008666992e-01
4.648000000000000000e+03 5.558531570434570312e+01 -9.261374473571777344e+00 1.953445553779602051e+00 1.418972301483154297e+01 4.842950820922851562e+00 -1.056625962257385254e+00
4.649000000000000000e+03 5.048204040527343750e+01 -3.095772266387939453e+00 1.712690830230712891e+00 3.593817472457885742e+00 1.591952443122863770e+00 -3.612756013870239258e+00
4.650000000000000000e+03 5.298270034790039062e+01 -9.156887054443359375e+00 6.955397725105285645e-01 1.307228946685791016e+01 4.130348682403564453e+00 4.532104015350341797e+00
4.651000000000000000e+03 5.549995803833007812e+01 -4.888960838317871094e+00 5.226674079895019531e+00 1.471060466766357422e+01 5.981183528900146484e+00 1.940631985664367676e+00
4.652000000000000000e+03 5.569754791259765625e+01 -4.682407379150390625e+00 4.635439872741699219e+00 1.429522418975830078e+01 5.679199218750000000e+00 1.885535836219787598e+00
4.653000000000000000e+03 5.563585662841796875e+01 -4.206927299499511719e+00 3.435392379760742188e+00 1.451121997833251953e+01 5.383983612060546875e+00 1.695500612258911133e+00
4.654000000000000000e+03 5.665091323852539062e+01 -5.856664180755615234e+00 6.429250240325927734e+00 1.203477287292480469e+01 5.539206981658935547e+00 7.397800087928771973e-01
4.655000000000000000e+03 5.697457504272460938e+01 -5.972030162811279297e+00 6.123223304748535156e+00 1.161159992218017578e+01 5.320446968078613281e+00 5.182910561561584473e-01
4.656000000000000000e+03 5.295413589477539062e+01 -9.389052391052246094e+00 5.689162611961364746e-01 1.221617126464843750e+01 3.835526227951049805e+00 4.370846748352050781e+00
4.657000000000000000e+03 5.245547485351562500e+01 -1.019157886505126953e+01 5.122639536857604980e-01 9.658143043518066406e+00 3.051121950149536133e+00 4.235270500183105469e+00
4.658000000000000000e+03 5.295599365234375000e+01 -9.685184478759765625e+00 3.806498348712921143e-01 1.171796798706054688e+01 3.629585504531860352e+00 4.092987537384033203e+00
4.659000000000000000e+03 5.410131454467773438e+01 -3.381620883941650391e+00 4.130002260208129883e-01 1.504828834533691406e+01 4.638386726379394531e+00 -1.584623456001281738e+00
4.660000000000000000e+03 5.457335662841796875e+01 -3.161731243133544922e+00 5.881824493408203125e-01 1.461202716827392578e+01 4.560062885284423828e+00 -7.176899909973144531e-01
4.661000000000000000e+03 5.161939620971679688e+01 -3.016914367675781250e+00 1.483069658279418945e+00 6.964349746704101562e+00 2.534225940704345703e+00 -4.661796569824218750e+00
4.662000000000000000e+03 5.506578445434570312e+01 -9.973110198974609375e+00 5.772054195404052734e-01 1.384172344207763672e+01 4.325678825378417969e+00 1.891065090894699097e-01
4.663000000000000000e+03 9.131669998168945312e+00 3.014393806457519531e+01 1.376896798610687256e-01 -6.020725965499877930e-01 -1.393148750066757202e-01 3.736051023006439209e-01
4.664000000000000000e+03 8.701665878295898438e+00 2.855115127563476562e+01 9.720704704523086548e-02 -5.864589214324951172e-01 -1.467755734920501709e-01 4.056331813335418701e-01
4.665000000000000000e+03 2.825332450866699219e+01 -2.640387535095214844e+01 3.451315164566040039e-01 3.915567100048065186e-01 2.210064679384231567e-01 -1.574994027614593506e-01
4.666000000000000000e+03 5.588193511962890625e+01 -4.944864749908447266e+00 5.336849689483642578e+00 1.381763267517089844e+01 5.746344566345214844e+00 1.847646355628967285e+00
4.667000000000000000e+03 5.583241653442382812e+01 -9.175479888916015625e+00 2.253642559051513672e+00 1.388948917388916016e+01 4.842939853668212891e+00 -1.272592186927795410e+00
4.668000000000000000e+03 5.666946411132812500e+01 -8.283796310424804688e+00 4.303527832031250000e+00 1.258712100982666016e+01 5.067194461822509766e+00 -1.709560632705688477e+00
4.669000000000000000e+03 5.632840347290039062e+01 -8.561187744140625000e+00 3.790120601654052734e+00 1.313365077972412109e+01 5.077131748199462891e+00 -1.720869064331054688e+00
4.670000000000000000e+03 5.330496215820312500e+01 -1.032296276092529297e+01 -1.344393286854028702e-02 1.189429092407226562e+01 3.564254045486450195e+00 3.252801418304443359e+00
4.671000000000000000e+03 5.638896942138671875e+00 -7.055031776428222656e+00 3.683043760247528553e-04 -8.199846342904493213e-05 8.589177014073356986e-05 -2.818828506860882044e-04
4.672000000000000000e+03 6.046726226806640625e+00 -5.031786918640136719e+00 -4.582439942169003189e-05 3.961058682762086391e-04 1.050844366545788944e-04 2.985558530781418085e-04
4.673000000000000000e+03 5.714714050292968750e+01 -6.184693336486816406e+00 6.010576248168945312e+00 1.138504123687744141e+01 5.218685150146484375e+00 2.095919102430343628e-01
4.674000000000000000e+03 5.676968002319335938e+01 -6.823414802551269531e+00 6.355216026306152344e+00 1.187756633758544922e+01 5.469834804534912109e+00 -5.993597507476806641e-01
4.675000000000000000e+03 5.666184234619140625e+01 -7.340395450592041016e+00 5.980145454406738281e+00 1.221809482574462891e+01 5.459472179412841797e+00 -1.198353052139282227e+00
4.676000000000000000e+03 8.710339546203613281e+00 -2.670078468322753906e+01 4.980010911822319031e-02 -4.637017548084259033e-01 -1.241704970598220825e-01 -3.750972449779510498e-01
4.677000000000000000e+03 2.726669120788574219e+01 1.039763259887695312e+01 -2.177688330411911011e-01 1.069068312644958496e-01 -3.325860202312469482e-02 4.091767668724060059e-01
4.678000000000000000e+03 5.710484695434570312e+01 -7.486502170562744141e+00 5.372610569000244141e+00 1.161379909515380859e+01 5.095922946929931641e+00 -1.137821555137634277e+00
4.679000000000000000e+03 5.172256851196289062e+01 -2.407513856887817383e+00 1.015702247619628906e+00 7.482933998107910156e+00 2.549590826034545898e+00 -4.343342304229736328e+00
4.680000000000000000e+03 5.700174713134765625e+01 -8.073742866516113281e+00 4.490745067596435547e+00 1.195547771453857422e+01 4.933866977691650391e+00 -1.487587451934814453e+00
4.681000000000000000e+03 5.429792022705078125e+01 -9.624379158020019531e+00 3.317739069461822510e-01 1.463260364532470703e+01 4.489313125610351562e+00 1.293137311935424805e+00
4.682000000000000000e+03 5.419512176513671875e+01 -1.016042709350585938e+01 -3.240665793418884277e-02 1.341636180877685547e+01 4.015186786651611328e+00 1.737598061561584473e+00
4.683000000000000000e+03 5.343938827514648438e+01 -9.874842643737792969e+00 5.763741955161094666e-02 1.305063247680664062e+01 3.932481050491333008e+00 3.176309347152709961e+00
4.684000000000000000e+03 5.396055603027343750e+01 -9.927565574645996094e+00 5.686248838901519775e-02 1.367722988128662109e+01 4.120227813720703125e+00 2.147404432296752930e+00
4.685000000000000000e+03 5.618504714965820312e+01 -4.498564243316650391e+00 4.369423389434814453e+00 1.343057537078857422e+01 5.339999675750732422e+00 1.821910262107849121e+00
4.686000000000000000e+03 5.633249664306640625e+01 -4.222929000854492188e+00 3.749353647232055664e+00 1.316501808166503906e+01 5.074311256408691406e+00 1.733227372169494629e+00
4.687000000000000000e+03 5.733668136596679688e+01 -5.374811172485351562e+00 5.252438068389892578e+00 1.135506725311279297e+01 4.982251644134521484e+00 1.013243079185485840e+00
4.688000000000000000e+03 4.741071701049804688e+01 -2.199624061584472656e+00 6.261320114135742188e-01 1.115182518959045410e+00 5.223943591117858887e-01 -1.462704181671142578e+00
4.689000000000000000e+03 5.520598602294921875e+01 -3.169850111007690430e+00 1.109677195549011230e+00 1.430996131896972656e+01 4.625891685485839844e+00 3.282251358032226562e-01
4.690000000000000000e+03 5.550243759155273438e+01 -2.862938165664672852e+00 1.020240187644958496e+00 1.364034080505371094e+01 4.398174285888671875e+00 4.593925178050994873e-01
4.691000000000000000e+03 4.963277435302734375e+01 -1.235958957672119141e+01 7.862216830253601074e-01 4.112793445587158203e+00 1.469704508781433105e+00 3.027901172637939453e+00
4.692000000000000000e+03 5.678349685668945312e+01 -8.836344718933105469e+00 3.321462631225585938e+00 1.248051643371582031e+01 4.740593910217285156e+00 -1.623660206794738770e+00
4.693000000000000000e+03 4.636407852172851562e+01 -2.224708747863769531e+01 2.032751590013504028e-01 3.565875053405761719e+00 1.130745053291320801e+00 1.328450083732604980e+00
4.694000000000000000e+03 2.423777580261230469e+01 1.623582243919372559e+00 -2.098321318626403809e-01 -2.879729568958282471e-01 -1.493415236473083496e-01 5.464407205581665039e-01
4.695000000000000000e+03 1.740702056884765625e+01 2.301397132873535156e+01 3.372270613908767700e-02 -6.776669025421142578e-01 -1.931832581758499146e-01 2.683628797531127930e-01
4.696000000000000000e+03 1.990987014770507812e+01 -2.430507087707519531e+01 6.287291646003723145e-02 -1.347773969173431396e-01 -2.157134190201759338e-02 -3.307926952838897705e-01
4.697000000000000000e+03 5.272779083251953125e+01 -9.340897560119628906e+00 7.739735841751098633e-01 1.171997642517089844e+01 3.748184919357299805e+00 4.743761539459228516e+00
4.698000000000000000e+03 5.336979675292968750e+01 -3.515142679214477539e+00 3.760976493358612061e-01 1.410135459899902344e+01 4.343235969543457031e+00 -3.515848636627197266e+00
4.699000000000000000e+03 5.300937271118164062e+01 -3.777522802352905273e+00 7.420662045478820801e-01 1.337341690063476562e+01 4.234644889831542969e+00 -4.475707530975341797e+00
4.700000000000000000e+03 5.329916763305664062e+01 -3.782794237136840820e+00 5.981796979904174805e-01 1.469071578979492188e+01 4.586668491363525391e+00 -3.780121564865112305e+00
4.701000000000000000e+03 5.056043624877929688e+01 -1.299085044860839844e+01 4.003466367721557617e-01 5.523039340972900391e+00 1.777015686035156250e+00 3.107198476791381836e+00
4.702000000000000000e+03 5.644050216674804688e+01 -9.265389442443847656e+00 2.511848688125610352e+00 1.289743614196777344e+01 4.622785091400146484e+00 -1.446927547454833984e+00
4.703000000000000000e+03 5.627488708496093750e+01 -9.581618309020996094e+00 1.895463824272155762e+00 1.302278327941894531e+01 4.475474357604980469e+00 -1.203522086143493652e+00
4.704000000000000000e+03 1.128284454345703125e+01 -2.628624534606933594e+01 7.072628289461135864e-02 -4.613282680511474609e-01 -1.171805933117866516e-01 -3.796599209308624268e-01
4.705000000000000000e+03 4.688421249389648438e+00 7.549972534179687500e+00 2.338187332497909665e-04 -7.938703056424856186e-04 -1.680154673522338271e-04 1.736844278639182448e-04
4.706000000000000000e+03 5.444622993469238281e+00 8.979557991027832031e+00 1.721182954497635365e-03 -6.277468055486679077e-04 3.280308446846902370e-04 3.969924000557512045e-04
4.707000000000000000e+03 5.732751846313476562e+01 -8.036848068237304688e+00 4.492758750915527344e+00 1.155562019348144531e+01 4.814513683319091797e+00 -1.408227562904357910e+00
4.708000000000000000e+03 5.701291275024414062e+01 -8.340467453002929688e+00 4.125866413116455078e+00 1.201477432250976562e+01 4.842192173004150391e+00 -1.571551084518432617e+00
4.709000000000000000e+03 5.222673034667968750e+01 -2.249163627624511719e+00 6.153395175933837891e-01 8.738524436950683594e+00 2.806159257888793945e+00 -4.116027355194091797e+00
4.710000000000000000e+03 4.692055130004882812e+01 -2.086580514907836914e+00 4.945416152477264404e-01 1.008089542388916016e+00 4.507893621921539307e-01 -1.278318405151367188e+00
4.711000000000000000e+03 2.063661956787109375e+01 -2.590388488769531250e+01 1.515209525823593140e-01 -9.512457251548767090e-02 1.691891252994537354e-02 -3.062968850135803223e-01
4.712000000000000000e+03 6.521480560302734375e+00 6.144696235656738281e+00 4.204685101285576820e-04 4.065018729306757450e-04 2.480911207385361195e-04 6.391411880031228065e-04
4.713000000000000000e+03 5.525099945068359375e+01 -2.618136882781982422e+00 5.678826570510864258e-01 1.351903915405273438e+01 4.226076602935791016e+00 -8.198177069425582886e-02
4.714000000000000000e+03 5.285388183593750000e+01 -2.272544622421264648e+00 2.085999846458435059e-01 1.057405281066894531e+01 3.234795808792114258e+00 -3.707265138626098633e+00
4.715000000000000000e+03 1.892728424072265625e+01 2.347524261474609375e+01 7.626742124557495117e-02 -5.216807126998901367e-01 -1.336239874362945557e-01 1.894868910312652588e-01
4.716000000000000000e+03 2.004854774475097656e+01 2.047403144836425781e+01 -1.532449573278427124e-01 -5.655362010002136230e-01 -2.156343460083007812e-01 1.911294907331466675e-01
4.717000000000000000e+03 5.456011962890625000e+01 -1.093871498107910156e+01 -2.134576737880706787e-01 1.246149349212646484e+01 3.674410581588745117e+00 1.334899902343750000e+00
4.718000000000000000e+03 5.780992889404296875e+01 -8.293607711791992188e+00 3.976304054260253906e+00 1.114697265625000000e+01 4.536983013153076172e+00 -1.358123183250427246e+00
4.719000000000000000e+03 5.541104507446289062e+01 -1.103072738647460938e+01 5.163103342056274414e-02 1.247421550750732422e+01 3.757753849029541016e+00 3.685124814510345459e-01
4.720000000000000000e+03 5.558155441284179688e+01 -1.060294532775878906e+01 4.029803872108459473e-01 1.287958717346191406e+01 3.984770298004150391e+00 -4.198352247476577759e-02
4.721000000000000000e+03 5.655930709838867188e+01 -4.039392471313476562e+00 3.458232164382934570e+00 1.279936313629150391e+01 4.877278804779052734e+00 1.688956975936889648e+00
4.722000000000000000e+03 5.643272781372070312e+01 -4.569344520568847656e+00 4.463884353637695312e+00 1.281132316589355469e+01 5.182562351226806641e+00 1.683473229408264160e+00
4.723000000000000000e+03 5.319192886352539062e+01 -1.198227405548095703e+01 -3.065871000289916992e-01 9.808932304382324219e+00 2.850703477859497070e+00 2.827239513397216797e+00
4.724000000000000000e+03 2.362759780883789062e+01 -1.840029335021972656e+01 -2.654985189437866211e-01 2.753683738410472870e-02 -7.138850539922714233e-02 -4.547432959079742432e-01
4.725000000000000000e+03 2.415931320190429688e+01 -1.568264675140380859e+01 -4.590379297733306885e-01 3.223410621285438538e-02 -1.280411481857299805e-01 -5.125559568405151367e-01
4.726000000000000000e+03 5.779803466796875000e+01 -5.069633960723876953e+00 4.651224136352539062e+00 1.098824119567871094e+01 4.691839694976806641e+00 1.086381554603576660e+00
4.727000000000000000e+03 5.042916107177734375e+01 -2.239867210388183594e+01 -2.372730225324630737e-01 5.280341148376464844e+00 1.512920498847961426e+00 1.382859826087951660e+00
4.728000000000000000e+03 4.456042861938476562e+01 -2.164728164672851562e+01 3.487400710582733154e-01 2.840458869934082031e+00 9.567596912384033203e-01 1.205294013023376465e+00
4.729000000000000000e+03 2.322839736938476562e+01 -1.200073528289794922e+01 -6.617036461830139160e-01 3.562825545668601990e-02 -1.878226250410079956e-01 -4.811672568321228027e-01
4.730000000000000000e+03 5.310399246215820312e+01 -2.036496162414550781e+00 3.974583745002746582e-02 1.081193161010742188e+01 3.255503416061401367e+00 -3.353315353393554688e+00
4.731000000000000000e+03 5.331704330444335938e+01 -1.730378508567810059e+00 -1.384824812412261963e-01 1.095736694335937500e+01 3.245665311813354492e+00 -2.954477548599243164e+00
4.732000000000000000e+03 5.350929260253906250e+01 -1.382060408592224121e+00 -2.360727638006210327e-01 1.088572406768798828e+01 3.194895505905151367e+00 -2.640578508377075195e+00
4.733000000000000000e+03 5.168793106079101562e+01 -1.074638605117797852e+00 4.520006775856018066e-01 7.352087497711181641e+00 2.341226339340209961e+00 -3.597399711608886719e+00
4.734000000000000000e+03 5.655274200439453125e+01 -4.303435325622558594e+00 4.042876243591308594e+00 1.277208042144775391e+01 5.044486999511718750e+00 1.762539148330688477e+00
4.735000000000000000e+03 5.684924697875976562e+01 -3.998784303665161133e+00 3.432605743408203125e+00 1.241989803314208984e+01 4.755751132965087891e+00 1.645394563674926758e+00
4.736000000000000000e+03 5.763906955718994141e+00 7.419873237609863281e+00 1.216642442159354687e-03 9.231937001459300518e-04 6.419508717954158783e-04 -4.090967704541981220e-04
4.737000000000000000e+03 7.139317989349365234e+00 6.626969814300537109e+00 3.839399432763457298e-04 1.269264146685600281e-03 4.959612269885838032e-04 -2.282176719745621085e-04
4.738000000000000000e+03 2.746772003173828125e+01 6.916482925415039062e+00 -2.105621248483657837e-01 -6.433370872400701046e-04 -6.336163729429244995e-02 5.429376363754272461e-01
4.739000000000000000e+03 5.653622436523437500e+01 -1.071259307861328125e+01 8.508862257003784180e-01 1.218311309814453125e+01 3.910199880599975586e+00 -7.133979797363281250e-01
4.740000000000000000e+03 5.749287414550781250e+01 -6.713778495788574219e+00 5.585485935211181641e+00 1.104720592498779297e+01 4.989807605743408203e+00 -3.512344360351562500e-01
4.741000000000000000e+03 5.772687149047851562e+01 -6.247675895690917969e+00 5.381816864013671875e+00 1.081951522827148438e+01 4.860399723052978516e+00 1.537307202816009521e-01
4.742000000000000000e+03 7.461141204833984375e+01 -2.569642066955566406e+01 -1.069020926952362061e-01 7.818832874298095703e+00 2.313579320907592773e+00 -5.353273749351501465e-01
4.743000000000000000e+03 5.227825546264648438e+01 -1.224870395660400391e+01 -3.526818379759788513e-02 8.269117355346679688e+00 2.470154523849487305e+00 3.250557184219360352e+00
4.744000000000000000e+03 5.460581970214843750e+01 -1.604336023330688477e+00 -2.037749588489532471e-01 1.212409782409667969e+01 3.576097011566162109e+00 -1.311098217964172363e+00
4.745000000000000000e+03 5.272428512573242188e+01 -1.497196555137634277e+00 7.837324589490890503e-02 9.540555000305175781e+00 2.885678529739379883e+00 -3.399972200393676758e+00
4.746000000000000000e+03 2.153913497924804688e+01 2.154333686828613281e+01 -1.772458851337432861e-02 -2.931647896766662598e-01 -9.326681494712829590e-02 1.146406605839729309e-01
4.747000000000000000e+03 5.786525344848632812e+01 -7.537623882293701172e+00 4.745291709899902344e+00 1.087905597686767578e+01 4.687304019927978516e+00 -9.711092710494995117e-01
4.748000000000000000e+03 4.910039520263671875e+01 -1.349725532531738281e+01 5.907174944877624512e-01 3.959686040878295898e+00 1.365121006965637207e+00 2.682688951492309570e+00
4.749000000000000000e+03 2.725636672973632812e+01 4.902452945709228516e+00 -2.272794991731643677e-01 -7.225809991359710693e-02 -8.986128121614456177e-02 6.029063463211059570e-01
4.750000000000000000e+03 5.392094421386718750e+01 -1.112220668792724609e+01 -3.201257884502410889e-01 1.169369983673095703e+01 3.412072181701660156e+00 2.260627985000610352e+00
4.751000000000000000e+03 5.423366165161132812e+01 -1.103090763092041016e+01 -2.994061410427093506e-01 1.217845535278320312e+01 3.563714742660522461e+00 1.821036458015441895e+00
4.752000000000000000e+03 5.432901000976562500e+01 -1.139273738861083984e+01 -3.783463239669799805e-01 1.174980163574218750e+01 3.411436557769775391e+00 1.732864975929260254e+00
4.753000000000000000e+03 5.470426559448242188e+01 -1.171477699279785156e+01 -3.882266581058502197e-01 1.156540489196777344e+01 3.353153228759765625e+00 1.323202133178710938e+00
4.754000000000000000e+03 2.469024658203125000e+01 -1.811608505249023438e+01 -2.684759795665740967e-01 4.150440543889999390e-02 -6.809147447347640991e-02 -4.615987241268157959e-01
4.755000000000000000e+03 5.696842956542968750e+01 -8.615363121032714844e+00 3.718632936477661133e+00 1.215199756622314453e+01 4.761188983917236328e+00 -1.621422290802001953e+00
4.756000000000000000e+03 7.155096435546875000e+01 -2.292510223388671875e+01 -1.853314489126205444e-01 7.776397228240966797e+00 2.277319669723510742e+00 -7.728112936019897461e-01
4.757000000000000000e+03 5.315942382812500000e+01 -1.243766689300537109e+01 -3.412489593029022217e-01 9.434425354003906250e+00 2.727952957153320312e+00 2.705557823181152344e+00
4.758000000000000000e+03 5.065871429443359375e+01 -1.367985534667968750e+01 2.685772478580474854e-01 5.688519477844238281e+00 1.787128925323486328e+00 2.964016675949096680e+00
4.759000000000000000e+03 6.516585540771484375e+01 2.025211524963378906e+01 -3.948460817337036133e-01 7.455256462097167969e+00 2.118123054504394531e+00 2.654372751712799072e-01
4.760000000000000000e+03 6.613004302978515625e+01 2.089782524108886719e+01 -3.493221998214721680e-01 7.515632152557373047e+00 2.149893045425415039e+00 2.830195128917694092e-01
4.761000000000000000e+03 5.345309829711914062e+01 -2.152292060852050781e+01 -5.977055430412292480e-01 6.647512435913085938e+00 1.814942121505737305e+00 1.183053135871887207e+00
4.762000000000000000e+03 2.575771331787109375e+01 -1.298565006256103516e+01 -6.655153036117553711e-01 3.540883958339691162e-02 -1.890319287776947021e-01 -5.041130185127258301e-01
4.763000000000000000e+03 5.908319091796875000e+01 1.424331665039062500e+01 -6.538566350936889648e-01 7.204529285430908203e+00 1.965201854705810547e+00 -9.785385429859161377e-02
4.764000000000000000e+03 6.025650024414062500e+01 1.372348403930664062e+01 -6.766964793205261230e-01 7.459354400634765625e+00 2.034797430038452148e+00 4.475703835487365723e-02
4.765000000000000000e+03 2.927129173278808594e+01 5.322088241577148438e+00 -1.759834289550781250e-01 9.220601618289947510e-02 -2.513322420418262482e-02 5.424038767814636230e-01
4.766000000000000000e+03 2.874672126770019531e+01 -2.048662757873535156e+01 5.001240596175193787e-02 2.291748374700546265e-01 8.375617116689682007e-02 -3.126213252544403076e-01
4.767000000000000000e+03 5.167209625244140625e+01 1.669959449768066406e+01 -3.647027611732482910e-01 5.393603324890136719e+00 1.508670091629028320e+00 -7.026714086532592773e-01
4.768000000000000000e+03 5.310139465332031250e+01 1.561771965026855469e+01 -4.558929502964019775e-01 5.840870857238769531e+00 1.615493416786193848e+00 -6.686478853225708008e-01
4.769000000000000000e+03 2.728340148925781250e+01 1.688596129417419434e+00 -2.899303138256072998e-01 -9.705527871847152710e-02 -1.160956770181655884e-01 6.056576371192932129e-01
4.770000000000000000e+03 2.617162895202636719e+01 2.701105356216430664e+00 -2.571397721767425537e-01 -1.653340607881546021e-01 -1.267421543598175049e-01 6.172292828559875488e-01
4.771000000000000000e+03 2.536837196350097656e+01 -1.918732070922851562e+01 -1.539162844419479370e-01 6.914158165454864502e-02 -2.543241158127784729e-02 -4.229392707347869873e-01
4.772000000000000000e+03 5.839626693725585938e+01 -8.347001075744628906e+00 3.747062921524047852e+00 1.064076709747314453e+01 4.316349029541015625e+00 -1.221589922904968262e+00
4.773000000000000000e+03 5.849403381347656250e+01 -8.898148536682128906e+00 3.194762468338012695e+00 1.068251800537109375e+01 4.163184165954589844e+00 -1.348273634910583496e+00
4.774000000000000000e+03 5.158454513549804688e+01 -1.354716300964355469e+01 -7.487596594728529453e-04 6.941400527954101562e+00 2.082195520401000977e+00 2.992449998855590820e+00
4.775000000000000000e+03 5.649374771118164062e+01 -1.015433883666992188e+01 1.355100989341735840e+00 1.255670547485351562e+01 4.173542022705078125e+00 -9.871503114700317383e-01
4.776000000000000000e+03 5.507654190063476562e+01 -1.361607789993286133e+00 -1.524147540330886841e-01 1.208961963653564453e+01 3.581161260604858398e+00 -8.234656453132629395e-01
4.777000000000000000e+03 5.688103866577148438e+01 -1.046215057373046875e+01 1.231963396072387695e+00 1.206073856353759766e+01 3.987810611724853516e+00 -1.008905291557312012e+00
4.778000000000000000e+03 2.663286590576171875e+01 -1.718353843688964844e+01 -2.939213812351226807e-01 7.542512565851211548e-02 -6.554888188838958740e-02 -4.684549868106842041e-01
4.779000000000000000e+03 5.371423339843750000e+01 -1.133023071289062500e+01 -3.228055238723754883e-01 1.118945407867431641e+01 3.259994506835937500e+00 2.464157581329345703e+00
4.780000000000000000e+03 5.364421844482421875e+01 -1.169402694702148438e+01 -3.818683028221130371e-01 1.070002269744873047e+01 3.095446109771728516e+00 2.480789899826049805e+00
4.781000000000000000e+03 5.403846740722656250e+01 -1.180031013488769531e+01 -4.495389163494110107e-01 1.107633304595947266e+01 3.188038110733032227e+00 2.028654098510742188e+00
4.782000000000000000e+03 5.186665344238281250e+01 1.100790977478027344e+01 -4.312462806701660156e-01 5.827113151550292969e+00 1.618760108947753906e+00 -1.098310947418212891e+00
4.783000000000000000e+03 5.188878250122070312e+01 -4.935497045516967773e-01 2.278322875499725342e-01 7.581276416778564453e+00 2.342732667922973633e+00 -3.348948001861572266e+00
4.784000000000000000e+03 5.776568984985351562e+01 -7.262094974517822266e+00 5.019483566284179688e+00 1.088472747802734375e+01 4.771263122558593750e+00 -7.753987908363342285e-01
4.785000000000000000e+03 5.807186508178710938e+01 -6.890997409820556641e+00 5.018576145172119141e+00 1.059462547302246094e+01 4.683960437774658203e+00 -4.300110936164855957e-01
4.786000000000000000e+03 5.589481735229492188e+01 -1.124934196472167969e+01 1.604910194873809814e-01 1.213119029998779297e+01 3.687504291534423828e+00 7.828678004443645477e-03
4.787000000000000000e+03 5.514553070068359375e+01 -1.158561801910400391e+01 -2.470521628856658936e-01 1.192358684539794922e+01 3.502960443496704102e+00 7.965523600578308105e-01
4.788000000000000000e+03 2.756922531127929688e+01 -1.769483184814453125e+01 -2.131023705005645752e-01 1.090908199548721313e-01 -3.120346367359161377e-02 -4.380184412002563477e-01
4.789000000000000000e+03 2.962685585021972656e+01 1.569990444183349609e+01 -3.897565975785255432e-02 6.044040918350219727e-01 1.696285307407379150e-01 5.775519832968711853e-02
4.790000000000000000e+03 5.318803787231445312e+01 -1.336047077178955078e+01 -4.457117319107055664e-01 8.887554168701171875e+00 2.532552719116210938e+00 2.461537837982177734e+00
4.791000000000000000e+03 5.930754852294921875e+01 1.292364215850830078e+01 -6.939832568168640137e-01 7.431299209594726562e+00 2.021194696426391602e+00 -6.527598947286605835e-02
4.792000000000000000e+03 6.963713836669921875e+01 -2.148223876953125000e+01 -2.236977219581604004e-01 7.864831447601318359e+00 2.292340278625488281e+00 -8.527176976203918457e-01
4.793000000000000000e+03 5.895618438720703125e+01 -8.258727073669433594e+00 3.607170820236206055e+00 1.021476936340332031e+01 4.146582126617431641e+00 -1.075423002243041992e+00
4.794000000000000000e+03 5.770257949829101562e+01 -4.435068607330322266e+00 3.988567829132080078e+00 1.125623893737792969e+01 4.573441982269287109e+00 1.395321846008300781e+00
4.795000000000000000e+03 2.864791870117187500e+01 -1.439326858520507812e+01 -5.546447634696960449e-01 4.199606552720069885e-02 -1.537946015596389771e-01 -4.726438224315643311e-01
4.796000000000000000e+03 5.356882858276367188e+01 -1.342961215972900391e+01 -5.280817747116088867e-01 9.257027626037597656e+00 2.618683815002441406e+00 2.188157081604003906e+00
4.797000000000000000e+03 5.438270950317382812e+01 -1.238071060180664062e+01 -5.315340757369995117e-01 1.077895164489746094e+01 3.074225425720214844e+00 1.695671558380126953e+00
4.798000000000000000e+03 5.290332794189453125e+01 -9.045090675354003906e-01 -1.017971709370613098e-01 9.482707977294921875e+00 2.814273118972778320e+00 -3.037269353866577148e+00
4.799000000000000000e+03 5.314955520629882812e+01 -6.403834819793701172e-01 -2.472073137760162354e-01 9.699345588684082031e+00 2.835641384124755859e+00 -2.749726057052612305e+00
4.800000000000000000e+03 4.165142822265625000e+01 -1.519397068023681641e+01 2.001125067472457886e-01 9.000428318977355957e-01 3.300465941429138184e-01 6.273328065872192383e-01
4.801000000000000000e+03 2.875510597229003906e+01 5.969555854797363281e+00 -1.848623156547546387e-01 7.385778427124023438e-02 -3.330136090517044067e-02 5.380471944808959961e-01
4.802000000000000000e+03 5.208813858032226562e+01 9.795512259006500244e-02 2.316167391836643219e-02 7.706864356994628906e+00 2.319007873535156250e+00 -3.036751985549926758e+00
4.803000000000000000e+03 5.856473922729492188e+01 -6.581163406372070312e+00 4.681502342224121094e+00 1.020316410064697266e+01 4.465399742126464844e+00 -1.557695269584655762e-01
4.804000000000000000e+03 3.053534317016601562e+01 1.419752216339111328e+01 -1.167937181890010834e-02 6.940523386001586914e-01 2.047118842601776123e-01 6.552111357450485229e-02
4.805000000000000000e+03 5.431862258911132812e+01 -1.272316455841064453e+01 -5.643632411956787109e-01 1.041565895080566406e+01 2.955388784408569336e+00 1.758631467819213867e+00
4.806000000000000000e+03 5.529428482055664062e+01 -1.184077644348144531e+01 -2.826482951641082764e-01 1.166456890106201172e+01 3.414576292037963867e+00 7.504617571830749512e-01
4.807000000000000000e+03 5.527045440673828125e+01 -1.224105930328369141e+01 -4.046513140201568604e-01 1.127497863769531250e+01 3.261098146438598633e+00 8.698937296867370605e-01
4.808000000000000000e+03 5.582700347900390625e+01 -1.189274024963378906e+01 -1.550778746604919434e-01 1.164892864227294922e+01 3.448155164718627930e+00 3.373984694480895996e-01
4.809000000000000000e+03 5.856037521362304688e+01 -7.662280559539794922e+00 4.260375022888183594e+00 1.035930824279785156e+01 4.385904788970947266e+00 -8.729566931724548340e-01
4.810000000000000000e+03 5.758113479614257812e+01 -4.149975776672363281e+00 3.633311033248901367e+00 1.143570613861083984e+01 4.520705223083496094e+00 1.481186389923095703e+00
4.811000000000000000e+03 3.950535202026367188e+01 1.243188095092773438e+01 2.541109919548034668e-01 1.968223333358764648e+00 6.667003035545349121e-01 -5.217335224151611328e-01
4.812000000000000000e+03 2.856724357604980469e+01 3.706128120422363281e+00 -2.346813678741455078e-01 3.319201292470097542e-03 -6.940864771604537964e-02 5.923559665679931641e-01
4.813000000000000000e+03 5.714165878295898438e+01 -1.217693328857421875e+01 1.899074316024780273e-01 1.108109760284423828e+01 3.381301641464233398e+00 -4.197470247745513916e-01
4.814000000000000000e+03 5.761549758911132812e+01 -1.215365505218505859e+01 3.504196107387542725e-01 1.097449111938476562e+01 3.397473335266113281e+00 -6.402493715286254883e-01
4.815000000000000000e+03 5.549328231811523438e+01 -1.172368049621582031e+01 -1.874991059303283691e-01 1.177995491027832031e+01 3.477736711502075195e+00 5.118486881256103516e-01
4.816000000000000000e+03 5.920294189453125000e+01 -9.732606887817382812e+00 2.377964258193969727e+00 1.029390144348144531e+01 3.801559686660766602e+00 -1.316326379776000977e+00
4.817000000000000000e+03 5.898093414306640625e+01 -6.202812194824218750e+00 4.404605865478515625e+00 9.959435462951660156e+00 4.309212684631347656e+00 1.289247870445251465e-01
4.818000000000000000e+03 5.938557815551757812e+01 -6.156680583953857422e+00 4.148112773895263672e+00 9.715829849243164062e+00 4.159183025360107422e+00 1.202969551086425781e-01
4.819000000000000000e+03 5.935141754150390625e+01 -5.566552639007568359e+00 4.037522792816162109e+00 9.819176673889160156e+00 4.157010078430175781e+00 4.836269319057464600e-01
4.820000000000000000e+03 5.662969589233398438e+01 -1.170688867568969727e+00 3.364170789718627930e-01 1.163656139373779297e+01 3.591893672943115234e+00 3.904845416545867920e-01
4.821000000000000000e+03 5.224755859375000000e+01 -1.886673927307128906e+01 -4.604619145393371582e-01 6.557591438293457031e+00 1.829138875007629395e+00 1.685054540634155273e+00
4.822000000000000000e+03 5.766359329223632812e+01 -1.143144512176513672e+01 7.942354679107666016e-01 1.113041210174560547e+01 3.577394485473632812e+00 -8.819548487663269043e-01
4.823000000000000000e+03 5.556666564941406250e+01 -6.160122752189636230e-01 -2.853297591209411621e-01 1.135555076599121094e+01 3.321066379547119141e+00 -6.205561161041259766e-01
4.824000000000000000e+03 3.414812088012695312e+01 1.256392765045166016e+01 1.094960346817970276e-01 1.050937414169311523e+00 3.481300473213195801e-01 -8.596312999725341797e-02
4.825000000000000000e+03 5.638329315185546875e+01 -1.911503219604492188e+01 -8.095576167106628418e-01 8.183333396911621094e+00 2.212132692337036133e+00 6.659638881683349609e-01
4.826000000000000000e+03 4.857364273071289062e+01 1.716138720512390137e+00 5.871201157569885254e-01 3.753972530364990234e+00 1.302327752113342285e+00 -2.341256380081176758e+00
4.827000000000000000e+03 4.889278411865234375e+01 -1.546106815338134766e+01 3.378515243530273438e-01 4.241098880767822266e+00 1.373685121536254883e+00 2.349387168884277344e+00
4.828000000000000000e+03 5.434390258789062500e+01 -1.309029483795166016e+01 -5.867912173271179199e-01 1.013198184967041016e+01 2.863557100296020508e+00 1.708995938301086426e+00
4.829000000000000000e+03 2.887092399597167969e+01 2.217928409576416016e+00 -2.847313284873962402e-01 -7.937325164675712585e-03 -8.780059218406677246e-02 5.969921946525573730e-01
4.830000000000000000e+03 4.118120574951171875e+01 1.552492713928222656e+01 1.666452139616012573e-01 2.639886856079101562e+00 8.419596552848815918e-01 -6.368638873100280762e-01
4.831000000000000000e+03 5.674474716186523438e+01 -1.787053585052490234e+00 7.734237909317016602e-01 1.186375904083251953e+01 3.791154623031616211e+00 7.139370441436767578e-01
4.832000000000000000e+03 5.629584121704101562e+01 -1.912209153175354004e+00 7.069609165191650391e-01 1.230091953277587891e+01 3.902364253997802734e+00 5.332551002502441406e-01
4.833000000000000000e+03 5.299649429321289062e+01 -3.840335309505462646e-01 -2.232719957828521729e-01 9.264747619628906250e+00 2.712442636489868164e+00 -2.796888828277587891e+00
4.834000000000000000e+03 5.468430328369140625e+01 -1.307963752746582031e+01 -6.028612852096557617e-01 1.039304065704345703e+01 2.937053918838500977e+00 1.442476511001586914e+00
4.835000000000000000e+03 5.441936111450195312e+01 -1.348063468933105469e+01 -6.209053993225097656e-01 9.871612548828125000e+00 2.775212049484252930e+00 1.644991993904113770e+00
4.836000000000000000e+03 3.055375862121582031e+01 -1.446677207946777344e+01 -5.095896720886230469e-01 8.144148439168930054e-02 -1.284444481134414673e-01 -4.288202226161956787e-01
4.837000000000000000e+03 5.808842086791992188e+01 -3.433293581008911133e+00 2.822792291641235352e+00 1.103628635406494141e+01 4.157723903656005859e+00 1.432509779930114746e+00
4.838000000000000000e+03 5.786809921264648438e+01 -3.211352586746215820e+00 2.472205162048339844e+00 1.131570148468017578e+01 4.136372089385986328e+00 1.459877133369445801e+00
4.839000000000000000e+03 5.898623657226562500e+01 -7.540862560272216797e+00 4.068572998046875000e+00 1.005365180969238281e+01 4.236667633056640625e+00 -7.291571497917175293e-01
4.840000000000000000e+03 5.501568984985351562e+01 -1.231650638580322266e+01 -4.766277670860290527e-01 1.110439968109130859e+01 3.188331365585327148e+00 1.125646114349365234e+00
4.841000000000000000e+03 5.266957092285156250e+01 7.001894712448120117e-01 -2.565715909004211426e-01 8.368999481201171875e+00 2.433728456497192383e+00 -2.624496221542358398e+00
4.842000000000000000e+03 5.573027038574218750e+01 -1.224285316467285156e+01 -2.816107869148254395e-01 1.135114097595214844e+01 3.320858955383300781e+00 4.635044336318969727e-01
4.843000000000000000e+03 5.597137069702148438e+01 -1.212466144561767578e+01 -1.867629289627075195e-01 1.142127037048339844e+01 3.370352268218994141e+00 2.600541412830352783e-01
4.844000000000000000e+03 5.968870544433593750e+01 -5.534532070159912109e+00 3.784441232681274414e+00 9.591164588928222656e+00 4.012681961059570312e+00 4.617548882961273193e-01
4.845000000000000000e+03 5.947749710083007812e+01 -5.296276569366455078e+00 3.821154594421386719e+00 9.766957283020019531e+00 4.076433658599853516e+00 6.468115448951721191e-01
4.846000000000000000e+03 5.827102661132812500e+01 -1.666712570190429688e+01 -6.335370540618896484e-01 9.159452438354492188e+00 2.557774543762207031e+00 9.279877878725528717e-03
4.847000000000000000e+03 4.946119689941406250e+01 -1.719248008728027344e+01 6.903281807899475098e-02 4.900645732879638672e+00 1.490903496742248535e+00 2.139673709869384766e+00
4.848000000000000000e+03 5.093507766723632812e+01 -1.558838748931884766e+01 -6.750492006540298462e-02 6.018185615539550781e+00 1.785204172134399414e+00 2.514979124069213867e+00
4.849000000000000000e+03 7.168047332763671875e+01 -9.006906509399414062e+00 5.873113274574279785e-01 7.115920543670654297e+00 2.310969591140747070e+00 -3.467739224433898926e-01
4.850000000000000000e+03 4.903322982788085938e+01 -1.684074592590332031e+01 1.969200372695922852e-01 4.512794017791748047e+00 1.412914156913757324e+00 2.169938802719116211e+00
4.851000000000000000e+03 3.696974945068359375e+01 1.134841156005859375e+01 2.135458290576934814e-01 1.354633092880249023e+00 4.704536795616149902e-01 -2.465512007474899292e-01
4.852000000000000000e+03 3.877402496337890625e+01 1.136134147644042969e+01 2.611978948116302490e-01 1.724701881408691406e+00 5.957699418067932129e-01 -4.395653307437896729e-01
4.853000000000000000e+03 5.181589508056640625e+01 -1.508467864990234375e+01 -2.446560710668563843e-01 6.891393184661865234e+00 1.994021177291870117e+00 2.471609592437744141e+00
4.854000000000000000e+03 5.167489242553710938e+01 -1.566187381744384766e+01 -2.408290207386016846e-01 6.663437366485595703e+00 1.926782488822937012e+00 2.358826160430908203e+00
4.855000000000000000e+03 5.888274002075195312e+01 -1.195323181152343750e+01 7.910558581352233887e-01 1.039745426177978516e+01 3.356553077697753906e+00 -1.022772669792175293e+00
4.856000000000000000e+03 5.920455169677734375e+01 -6.891008377075195312e+00 4.206693649291992188e+00 9.849008560180664062e+00 4.216710567474365234e+00 -3.122406005859375000e-01
4.857000000000000000e+03 5.492070770263671875e+01 -1.384743976593017578e+01 -6.537534594535827637e-01 9.973952293395996094e+00 2.796059608459472656e+00 1.262467861175537109e+00
4.858000000000000000e+03 5.511175155639648438e+01 -1.280261421203613281e+01 -5.342406034469604492e-01 1.074807453155517578e+01 3.064150333404541016e+00 1.107754707336425781e+00
4.859000000000000000e+03 5.624319458007812500e+01 -1.227719306945800781e+01 -1.731735616922378540e-01 1.131527709960937500e+01 3.342630863189697266e+00 1.296789050102233887e-01
4.860000000000000000e+03 4.823509597778320312e+01 -1.654224395751953125e+01 3.285721838474273682e-01 3.882602214813232422e+00 1.263352274894714355e+00 2.115166187286376953e+00
4.861000000000000000e+03 4.924469757080078125e+01 -1.601469230651855469e+01 2.178441137075424194e-01 4.616086483001708984e+00 1.450179100036621094e+00 2.322118997573852539e+00
4.862000000000000000e+03 5.316692733764648438e+01 1.176277279853820801e+00 -4.120243191719055176e-01 8.508525848388671875e+00 2.428950548171997070e+00 -2.262382030487060547e+00
4.863000000000000000e+03 5.974117660522460938e+01 -6.089966297149658203e+00 3.927410840988159180e+00 9.558867454528808594e+00 4.045883655548095703e+00 1.349433511495590210e-01
4.864000000000000000e+03 5.808065795898437500e+01 -2.990116596221923828e+00 2.363531589508056641e+00 1.118791866302490234e+01 4.065434932708740234e+00 1.457975745201110840e+00
4.865000000000000000e+03 5.758935928344726562e+01 -1.010349512100219727e+00 5.884062647819519043e-01 1.106593608856201172e+01 3.496302604675292969e+00 7.896360754966735840e-01
4.866000000000000000e+03 5.612701797485351562e+01 -1.601854324340820312e+01 -7.548869848251342773e-01 9.213322639465332031e+00 2.537530660629272461e+00 7.441315650939941406e-01
4.867000000000000000e+03 4.081938934326171875e+01 9.827654838562011719e+00 3.111959099769592285e-01 1.946802139282226562e+00 6.773993968963623047e-01 -6.311646103858947754e-01
4.868000000000000000e+03 4.156629562377929688e+01 1.064426612854003906e+01 2.711330056190490723e-01 2.301084041595458984e+00 7.716651558876037598e-01 -7.392002940177917480e-01
4.869000000000000000e+03 5.445204544067382812e+01 2.278686761856079102e-01 -5.232368707656860352e-01 1.024996566772460938e+01 2.918018817901611328e+00 -1.607556343078613281e+00
4.870000000000000000e+03 4.161883163452148438e+01 -1.445088386535644531e+01 1.032066494226455688e-01 7.324998974800109863e-01 2.507119476795196533e-01 5.394057035446166992e-01
4.871000000000000000e+03 5.494726562500000000e+01 -1.298055839538574219e+01 -5.757374167442321777e-01 1.059498405456542969e+01 3.005774021148681641e+00 1.234837770462036133e+00
4.872000000000000000e+03 5.936274337768554688e+01 -7.165843486785888672e+00 3.997444152832031250e+00 9.792593002319335938e+00 4.137011051177978516e+00 -4.623593688011169434e-01
4.873000000000000000e+03 5.518450546264648438e+01 -1.448573493957519531e+01 -7.015209794044494629e-01 9.656149864196777344e+00 2.686388731002807617e+00 1.145461559295654297e+00
4.874000000000000000e+03 6.924228668212890625e+01 -6.817578792572021484e+00 1.073459029197692871e+00 7.442201137542724609e+00 2.554697990417480469e+00 -8.038724213838577271e-02
4.875000000000000000e+03 5.902470779418945312e+01 -1.941836595535278320e+00 1.604743242263793945e+00 1.043134593963623047e+01 3.610826730728149414e+00 1.280923962593078613e+00
4.876000000000000000e+03 5.856019592285156250e+01 -1.671497821807861328e+00 1.268990635871887207e+00 1.072775745391845703e+01 3.599024295806884766e+00 1.192195057868957520e+00
4.877000000000000000e+03 7.097733306884765625e+01 -1.378758525848388672e+01 3.365859687328338623e-01 7.454981803894042969e+00 2.337470293045043945e+00 -8.254765272140502930e-01
4.878000000000000000e+03 5.352156829833984375e+01 8.661794662475585938e-01 -4.679114222526550293e-01 9.084597587585449219e+00 2.585005760192871094e+00 -2.132992744445800781e+00
4.879000000000000000e+03 5.332978820800781250e+01 1.675353884696960449e+00 -4.773085117340087891e-01 8.483079910278320312e+00 2.401731252670288086e+00 -2.088371038436889648e+00
4.880000000000000000e+03 5.518616485595703125e+01 -1.325928020477294922e+01 -5.965099930763244629e-01 1.045394039154052734e+01 2.957228899002075195e+00 1.080111980438232422e+00
4.881000000000000000e+03 6.003351593017578125e+01 -5.945384025573730469e+00 3.717201709747314453e+00 9.435813903808593750e+00 3.945904731750488281e+00 2.416150122880935669e-01
4.882000000000000000e+03 3.274768829345703125e+01 3.364938497543334961e+00 -1.567734181880950928e-01 2.335896044969558716e-01 2.304485626518726349e-02 4.491391479969024658e-01
4.883000000000000000e+03 5.418684005737304688e+01 7.052604556083679199e-01 -5.573117136955261230e-01 9.694919586181640625e+00 2.741282463073730469e+00 -1.736589193344116211e+00
4.884000000000000000e+03 5.504254150390625000e+01 -1.501801776885986328e+01 -7.214807271957397461e-01 9.288101196289062500e+00 2.569986104965209961e+00 1.231691002845764160e+00
4.885000000000000000e+03 5.558341979980468750e+01 -1.351823234558105469e+01 -5.807526707649230957e-01 1.040746116638183594e+01 2.948012351989746094e+00 8.417638540267944336e-01
4.886000000000000000e+03 6.938773345947265625e+01 -5.121849060058593750e+00 1.000154495239257812e+00 7.427938461303710938e+00 2.528427839279174805e+00 2.159741222858428955e-01
4.887000000000000000e+03 5.815787124633789062e+01 -1.510499763488769531e+01 -4.404214024543762207e-01 9.705296516418457031e+00 2.779462575912475586e+00 -1.637035906314849854e-01
4.888000000000000000e+03 5.776873397827148438e+01 -1.535900306701660156e+01 -5.548582673072814941e-01 9.633371353149414062e+00 2.723553895950317383e+00 3.060390055179595947e-02
4.889000000000000000e+03 5.564545822143554688e+01 -1.468274784088134766e+01 -7.011734843254089355e-01 9.726495742797851562e+00 2.707596540451049805e+00 9.119425415992736816e-01
4.890000000000000000e+03 5.556122589111328125e+01 -1.516970634460449219e+01 -7.309914231300354004e-01 9.434247016906738281e+00 2.610976696014404297e+00 9.614726901054382324e-01
4.891000000000000000e+03 5.890694046020507812e+01 -1.157577872276306152e+00 1.020267128944396973e+00 1.043556118011474609e+01 3.436748504638671875e+00 1.141340136528015137e+00
4.892000000000000000e+03 5.864501953125000000e+01 -8.778603076934814453e-01 7.786003947257995605e-01 1.053525161743164062e+01 3.394155502319335938e+00 1.027293205261230469e+00
4.893000000000000000e+03 6.109634399414062500e+01 -1.086627101898193359e+01 1.596416711807250977e+00 9.391784667968750000e+00 3.296460390090942383e+00 -1.187039017677307129e+00
4.894000000000000000e+03 6.118777465820312500e+01 -6.525348663330078125e+00 3.214299678802490234e+00 8.979277610778808594e+00 3.658073186874389648e+00 -4.665352404117584229e-02
4.895000000000000000e+03 7.013809967041015625e+01 -1.486238574981689453e+01 2.557567358016967773e-01 7.638155937194824219e+00 2.368173837661743164e+00 -9.141064286231994629e-01
4.896000000000000000e+03 6.805483245849609375e+01 -7.197581768035888672e+00 1.232070326805114746e+00 7.606044769287109375e+00 2.651434659957885742e+00 -1.519465297460556030e-01
4.897000000000000000e+03 5.731383514404296875e+01 7.996387481689453125e+00 -7.963901162147521973e-01 8.012683868408203125e+00 2.164888143539428711e+00 -3.866173028945922852e-01
4.898000000000000000e+03 4.505412673950195312e+01 1.119897079467773438e+01 1.548886001110076904e-01 3.308872461318969727e+00 1.039128303527832031e+00 -1.057560443878173828e+00
4.899000000000000000e+03 3.398717880249023438e+01 1.206028699874877930e+00 -3.163210451602935791e-01 1.675020456314086914e-01 -4.464569687843322754e-02 4.466135501861572266e-01
4.900000000000000000e+03 3.707393264770507812e+01 7.988525867462158203e+00 2.294563800096511841e-01 1.046318411827087402e+00 3.827324211597442627e-01 -1.514523178339004517e-01
4.901000000000000000e+03 3.428333282470703125e+01 2.348874807357788086e+00 -1.871992349624633789e-01 2.483861744403839111e-01 1.835607923567295074e-02 3.969308435916900635e-01
4.902000000000000000e+03 4.412932968139648438e+01 9.804564476013183594e+00 2.499056011438369751e-01 2.883370161056518555e+00 9.399827122688293457e-01 -1.027855634689331055e+00
4.903000000000000000e+03 6.059649276733398438e+01 -1.078236389160156250e+01 1.630688071250915527e+00 9.623245239257812500e+00 3.376180171966552734e+00 -1.220724821090698242e+00
4.904000000000000000e+03 4.463838958740234375e+01 8.560513496398925781e+00 2.946276366710662842e-01 2.921920061111450195e+00 9.649643301963806152e-01 -1.142844557762145996e+00
4.905000000000000000e+03 5.408167266845703125e+01 2.288634538650512695e+00 -6.387097239494323730e-01 8.783675193786621094e+00 2.443489551544189453e+00 -1.631683468818664551e+00
4.906000000000000000e+03 6.096744537353515625e+01 -1.302336025238037109e+01 6.479325890541076660e-01 9.478578567504882812e+00 3.037953376770019531e+00 -1.086878418922424316e+00
4.907000000000000000e+03 4.980449295043945312e+01 3.298253774642944336e+00 1.902125328779220581e-01 5.055393218994140625e+00 1.573681712150573730e+00 -2.304231405258178711e+00
4.908000000000000000e+03 6.207957077026367188e+01 -6.975706577301025391e+00 2.827275037765502930e+00 8.728771209716796875e+00 3.466814041137695312e+00 -2.131736874580383301e-01
4.909000000000000000e+03 4.791074371337890625e+01 6.178587913513183594e+00 1.960482597351074219e-01 4.069309711456298828e+00 1.279607415199279785e+00 -1.707096338272094727e+00
4.910000000000000000e+03 4.725739288330078125e+01 6.230635166168212891e+00 2.951347529888153076e-01 3.720466136932373047e+00 1.204680323600769043e+00 -1.670296669006347656e+00
4.911000000000000000e+03 4.712869262695312500e+01 7.050425052642822266e+00 2.137859016656875610e-01 3.764015436172485352e+00 1.193340420722961426e+00 -1.541872382164001465e+00
4.912000000000000000e+03 4.551810455322265625e+01 7.612685680389404297e+00 2.974341511726379395e-01 3.112165689468383789e+00 1.022879958152770996e+00 -1.313146591186523438e+00
4.913000000000000000e+03 6.049680709838867188e+01 -1.116851520538330078e+01 1.473641157150268555e+00 9.692032814025878906e+00 3.349702119827270508e+00 -1.227079629898071289e+00
4.914000000000000000e+03 6.289689254760742188e+01 -7.642776489257812500e+00 2.473819971084594727e+00 8.543908119201660156e+00 3.305318355560302734e+00 -3.992837965488433838e-01
4.915000000000000000e+03 5.944348526000976562e+01 3.557180643081665039e+00 -4.418388009071350098e-01 9.239034652709960938e+00 2.639158725738525391e+00 3.906603455543518066e-01
4.916000000000000000e+03 6.339395141601562500e+01 -1.001164245605468750e+01 1.741281032562255859e+00 8.579694747924804688e+00 3.096292734146118164e+00 -9.022813439369201660e-01
4.917000000000000000e+03 4.628138732910156250e+01 6.804281711578369141e+00 3.210403323173522949e-01 3.354679346084594727e+00 1.102715969085693359e+00 -1.475866794586181641e+00
4.918000000000000000e+03 6.490522003173828125e+01 -1.353576469421386719e+01 6.165014505386352539e-01 8.462873458862304688e+00 2.723812580108642578e+00 -1.089004397392272949e+00
4.919000000000000000e+03 6.343939971923828125e+01 -8.505366325378417969e+00 2.120174884796142578e+00 8.459141731262207031e+00 3.173794984817504883e+00 -6.028469800949096680e-01
4.920000000000000000e+03 6.364974212646484375e+01 -7.818396091461181641e+00 2.215568780899047852e+00 8.379357337951660156e+00 3.178477764129638672e+00 -4.066467583179473877e-01
4.921000000000000000e+03 6.479227447509765625e+01 -7.894106864929199219e+00 1.880126833915710449e+00 8.142833709716796875e+00 3.006888151168823242e+00 -3.788548707962036133e-01
4.922000000000000000e+03 1.488040065765380859e+01 1.046121835708618164e+00 1.910884748212993145e-04 5.341583164408802986e-04 2.175740519305691123e-04 5.026779763284139335e-05
4.923000000000000000e+03 1.433596038818359375e+01 8.109902739524841309e-01 1.774796837707981467e-04 -1.178767051897011697e-04 1.788089502952061594e-05 3.887952479999512434e-04
4.924000000000000000e+03 1.339948463439941406e+01 9.943951964378356934e-01 3.100675821769982576e-04 -1.479071943322196603e-05 8.858305955072864890e-05 -2.450049760227557272e-05
4.925000000000000000e+03 1.399857616424560547e+01 1.078236818313598633e+00 -3.974093415308743715e-04 -2.507807221263647079e-04 -1.944570249179378152e-04 -6.919081351952627301e-05
4.926000000000000000e+03 1.342517852783203125e+01 2.516243755817413330e-01 -6.525123899336904287e-05 3.676394771900959313e-05 -8.546187928004655987e-06 1.467292258894303814e-05
4.927000000000000000e+03 1.503903388977050781e+01 3.840551078319549561e-01 -5.467484515975229442e-05 -8.278145833173766732e-05 -4.123688995605334640e-05 -6.432426744140684605e-05
4.928000000000000000e+03 1.424006271362304688e+01 2.423980534076690674e-01 2.011890728681464680e-06 5.205771958571858704e-05 1.622088348085526377e-05 1.214443273056531325e-05
4.929000000000000000e+03 1.447602939605712891e+01 1.142013788223266602e+00 3.620695206336677074e-04 -2.885088542825542390e-05 9.996558947023004293e-05 5.718628744943998754e-05
4.930000000000000000e+03 1.113503360748291016e+01 3.384475409984588623e-01 -5.029447856941260397e-05 -1.636169617995619774e-04 -6.417342956410720944e-05 3.590988126234151423e-05
4.931000000000000000e+03 1.115649890899658203e+01 1.078244447708129883e+00 -3.385634045116603374e-04 3.964482675655744970e-05 -8.967557369032874703e-05 -2.450616157148033381e-04
4.932000000000000000e+03 1.038435840606689453e+01 3.729175329208374023e-01 -2.392969327047467232e-04 1.186367298942059278e-04 -3.619806375354528427e-05 -1.029547638609074056e-04
4.933000000000000000e+03 1.188578510284423828e+01 3.038018345832824707e-01 -1.225143059855327010e-04 1.763917971402406693e-04 1.616324334463570267e-05 -6.268791912589222193e-05
4.934000000000000000e+03 1.263660717010498047e+01 2.689834535121917725e-01 5.292991409078240395e-05 -1.482935476815328002e-04 -2.860909262381028384e-05 -2.781164084808551706e-06
4.935000000000000000e+03 1.266393947601318359e+01 1.008509635925292969e+00 -2.311736898263916373e-04 -3.190014103893190622e-05 -7.892214489402249455e-05 -1.457868056604638696e-04
4.936000000000000000e+03 1.040289020538330078e+01 1.112849831581115723e+00 1.301087904721498489e-04 4.693775190389715135e-05 5.311396307661198080e-05 2.348307461943477392e-04
4.937000000000000000e+03 1.191018390655517578e+01 1.043463349342346191e+00 1.237947726622223854e-04 -9.442071132070850581e-06 3.430580909480340779e-05 4.890188574790954590e-05
4.938000000000000000e+03 9.630480766296386719e+00 3.871794641017913818e-01 -1.257531694136559963e-04 1.000153861241415143e-05 -3.472548996796831489e-05 1.175316865555942059e-04
4.939000000000000000e+03 8.873666763305664062e+00 3.829238712787628174e-01 -2.932771458290517330e-04 -1.743582979543134570e-04 -1.402906345902010798e-04 -1.651388301979750395e-04
4.940000000000000000e+03 9.660673141479492188e+00 1.127179503440856934e+00 -3.514839627314358950e-04 -1.449928531656041741e-04 -1.489430433139204979e-04 -3.953683481086045504e-04
4.941000000000000000e+03 8.116720199584960938e+00 3.805542886257171631e-01 -1.593409397173672915e-04 3.491409879643470049e-04 5.694001811207272112e-05 1.684757153270766139e-04
4.942000000000000000e+03 7.360193252563476562e+00 3.795430362224578857e-01 -3.275930939707905054e-04 -4.938601050525903702e-04 -2.464359567966312170e-04 -1.919481874210759997e-04
4.943000000000000000e+03 5.847065925598144531e+00 3.768712580204010010e-01 -3.185692767146974802e-04 -6.394754163920879364e-04 -2.874134224839508533e-04 -1.873756555141881108e-04
4.944000000000000000e+03 5.091114044189453125e+00 3.758820295333862305e-01 -1.285027974518015981e-04 6.269786972552537918e-04 1.495427713962271810e-04 1.942535891430452466e-04
4.945000000000000000e+03 3.579006433486938477e+00 3.681437373161315918e-01 -5.319296178640797734e-05 4.552148457150906324e-04 1.206065644510090351e-04 1.611833286006003618e-04
4.946000000000000000e+03 2.823871612548828125e+00 3.614119887351989746e-01 -1.871814893092960119e-04 -3.507553192321211100e-04 -1.613810454728081822e-04 -1.087151031242683530e-04
4.947000000000000000e+03 2.070111274719238281e+00 3.578882515430450439e-01 3.209511123714037240e-05 2.534045488573610783e-04 8.564989548176527023e-05 1.282761950278654695e-04
4.948000000000000000e+03 2.362852334976196289e+00 1.097888231277465820e+00 -1.983334514079615474e-04 -2.305826346855610609e-04 -1.286748301936313510e-04 -4.319949584896676242e-05
4.949000000000000000e+03 1.328713655471801758e+00 3.659794926643371582e-01 -6.598909385502338409e-05 -1.593437627889215946e-04 -6.759985262760892510e-05 -5.306273305905051529e-05
4.950000000000000000e+03 1.647709608078002930e+00 1.105979442596435547e+00 5.464792411657981575e-05 1.777177676558494568e-04 6.970970571273937821e-05 1.279946591239422560e-04
4.951000000000000000e+03 6.516475677490234375e-01 3.939257264137268066e-01 -5.961907299933955073e-05 4.343966793385334313e-06 -1.658253313507884741e-05 -3.777561869355849922e-05
4.952000000000000000e+03 3.489431142807006836e-01 9.570703506469726562e-01 1.175211218651384115e-04 8.464495476800948381e-05 6.064982153475284576e-05 3.740913234651088715e-05
4.953000000000000000e+03 3.090358018875122070e+00 1.101411938667297363e+00 6.537535955430939794e-05 3.053713589906692505e-04 1.112240133807063103e-04 1.505148247815668583e-04
4.954000000000000000e+03 3.819237709045410156e+00 1.108143687248229980e+00 -2.421144163236021996e-04 -3.837850235868245363e-04 -1.877698377938941121e-04 -5.651156243402510881e-05
4.955000000000000000e+03 4.335169315338134766e+00 3.733847737312316895e-01 -2.605486952234059572e-04 -5.526845343410968781e-04 -2.439699746901169419e-04 -1.451262651244178414e-04
4.956000000000000000e+03 6.008533000946044922e+00 1.116871237754821777e+00 -9.246551599062513560e-06 5.155127146281301975e-04 1.518798526376485825e-04 2.808989956974983215e-04
4.957000000000000000e+03 6.603851795196533203e+00 3.786112964153289795e-01 -1.606380974408239126e-04 6.002431618981063366e-04 1.318815193371847272e-04 1.992743054870516062e-04
4.958000000000000000e+03 8.930113792419433594e+00 1.122923851013183594e+00 5.711282210540957749e-05 2.574739628471434116e-04 9.437603148398920894e-05 3.646664263214915991e-04
4.959000000000000000e+03 8.199422836303710938e+00 1.120554327964782715e+00 -3.594448498915880919e-04 -3.383099101483821869e-04 -2.093264192808419466e-04 -4.104684339836239815e-04
4.960000000000000000e+03 7.469150543212890625e+00 1.119543075561523438e+00 1.913336018333211541e-05 4.377475415822118521e-04 1.370642712572589517e-04 3.608208498917520046e-04
4.961000000000000000e+03 6.739063739776611328e+00 1.118611335754394531e+00 -3.368840552866458893e-04 -4.705894680228084326e-04 -2.422420511720702052e-04 -3.156030434183776379e-04
4.962000000000000000e+03 5.278835773468017578e+00 1.115882039070129395e+00 -2.846358402166515589e-04 -4.851588455494493246e-04 -2.309383999090641737e-04 -1.717774284770712256e-04
4.963000000000000000e+03 4.549146175384521484e+00 1.113384723663330078e+00 -9.197327926813159138e-06 4.688726039603352547e-04 1.379025779897347093e-04 1.906540855998173356e-04
4.964000000000000000e+03 9.968983530998229980e-01 1.133925795555114746e+00 5.141936526342760772e-06 -2.492039056960493326e-04 -7.321859447984024882e-05 1.191839714920206461e-06
4.965000000000000000e+03 7.947246074676513672e+00 -3.790149092674255371e-01 -1.048181438818573952e-04 1.108826036215759814e-04 1.819339217945525888e-06 3.583858415368013084e-05
4.966000000000000000e+03 8.798082351684570312e+00 -1.121163964271545410e+00 -4.652762436307966709e-05 9.889603097690269351e-05 1.571052234794478863e-05 1.163769047707319260e-04
4.967000000000000000e+03 9.582462310791015625e+00 -3.862577378749847412e-01 -6.234795000636950135e-05 1.448435068596154451e-04 2.474866778356954455e-05 3.516167271300218999e-05
4.968000000000000000e+03 7.128131389617919922e+00 -3.778152763843536377e-01 -1.334036933258175850e-04 -8.097208774415776134e-05 -6.431273504858836532e-05 -2.403978396614547819e-05
4.969000000000000000e+03 6.302709579467773438e+00 -3.771458566188812256e-01 -1.338625297648832202e-04 5.267365486361086369e-05 -2.435666283417958766e-05 3.640819340944290161e-05
4.970000000000000000e+03 5.439445972442626953e+00 -3.834656774997711182e-01 -1.274075184483081102e-04 -1.108618016587570310e-05 -4.154811176704242826e-05 -5.227834844845347106e-05
4.971000000000000000e+03 4.549984931945800781e+00 -3.402172923088073730e-01 -6.938075239304453135e-05 -1.610119034012313932e-05 -2.564458191045559943e-05 2.450461397529579699e-05
4.972000000000000000e+03 4.365737915039062500e+00 -8.721476197242736816e-01 -2.824830007739365101e-04 3.177073813276365399e-05 -7.521367660956457257e-05 -1.041817522491328418e-04
4.973000000000000000e+03 2.784216165542602539e+00 -7.810403704643249512e-01 -1.167135706054978073e-04 5.936738307354971766e-05 -1.720385625958442688e-05 -1.613980275578796864e-04
4.974000000000000000e+03 1.180924773216247559e+00 -3.613742887973785400e-01 5.656802022713236511e-05 -3.661173468572087586e-05 5.986885298625566065e-06 1.917417466756887734e-05
4.975000000000000000e+03 4.100910127162933350e-01 -5.529776215553283691e-01 -6.900515927554806694e-06 6.967848548811161891e-06 2.019984890466730576e-08 -3.361020617376198061e-06
4.976000000000000000e+03 7.475960254669189453e-01 -1.101374268531799316e+00 -2.186900965170934796e-04 2.846957795554772019e-05 -5.706615411327220500e-05 -4.297429040889255702e-05
4.977000000000000000e+03 9.582078933715820312e+00 -1.126257777214050293e+00 -6.428830238291993737e-05 -1.123285546782426536e-04 -5.298505857354030013e-05 -4.907854599878191948e-05
4.978000000000000000e+03 8.013586997985839844e+00 -1.119014978408813477e+00 -9.764257993083447218e-05 -7.275296229636296630e-05 -5.111866266815923154e-05 -7.339361764024943113e-05
4.979000000000000000e+03 7.227835178375244141e+00 -1.117815256118774414e+00 -7.683641160838305950e-05 6.337376544252038002e-05 -4.038794031657744199e-06 1.134059857577085495e-04
4.980000000000000000e+03 6.435775756835937500e+00 -1.117145895957946777e+00 -8.339246414834633470e-05 -2.276419945701491088e-05 -3.184700108249671757e-05 -1.038985428749583662e-04
4.981000000000000000e+03 5.605874538421630859e+00 -1.123465657234191895e+00 -1.500435319030657411e-04 1.513711504230741411e-05 -4.047192487632855773e-05 1.173918062704615295e-04
4.982000000000000000e+03 4.870606899261474609e+00 -1.221678614616394043e+00 6.941758329048752785e-05 3.260733501520007849e-05 3.060747621930204332e-05 -1.427540555596351624e-04
4.983000000000000000e+03 4.215381145477294922e+00 -1.291930317878723145e+00 1.787549263099208474e-05 -7.160813402151688933e-05 -1.611979314475320280e-05 1.502485683886334300e-04
4.984000000000000000e+03 3.483533143997192383e+00 -1.264367222785949707e+00 -1.956498017534613609e-04 6.250840669963508844e-05 -3.994241706095635891e-05 -2.541155845392495394e-04
4.985000000000000000e+03 2.720056772232055664e+00 -1.259521603584289551e+00 7.522444502683356404e-05 -1.450677063985494897e-05 1.821530167944729328e-05 1.718554849503561854e-04
4.986000000000000000e+03 1.356012225151062012e+00 -1.203287243843078613e+00 2.900138497352600098e-04 -2.797331580950412899e-05 7.861215999582782388e-05 1.691256693447940052e-05
4.987000000000000000e+03 1.973117947578430176e+00 -8.476541042327880859e-01 -1.039042836055159569e-04 -4.652217103284783661e-05 -4.512793748290278018e-05 1.255633687833324075e-04
4.988000000000000000e+03 8.765102386474609375e+00 -3.811639845371246338e-01 -1.005074955173768103e-04 -1.320138544542714953e-04 -6.975640280870720744e-05 -1.774735756043810397e-05
4.989000000000000000e+03 3.694828748703002930e+00 -2.827752828598022461e-01 -1.106339623220264912e-04 9.660317118687089533e-06 -3.029209437954705209e-05 -3.263971302658319473e-05
4.990000000000000000e+03 2.863922595977783203e+00 -2.815187871456146240e-01 -3.550522524164989591e-05 2.623464752105064690e-06 -9.864527783065568656e-06 2.052855597867164761e-05
4.991000000000000000e+03 1.994147539138793945e+00 -3.323310017585754395e-01 -4.162058394285850227e-05 -2.115861889251391403e-06 -1.312093354499666020e-05 -5.671789767802692950e-05
4.992000000000000000e+03 1.978801369667053223e+00 -1.275323033332824707e+00 -1.755092525854706764e-04 -4.691003050538711250e-05 -6.672578456345945597e-05 -2.007285511353984475e-04
4.993000000000000000e+03 3.578665971755981445e+00 -7.871425151824951172e-01 7.687032848480157554e-06 -2.023143497353885323e-05 -3.763321046790224500e-06 9.704518743092194200e-05
4.994000000000000000e+03 1.511178874969482422e+01 -1.151870131492614746e+00 -4.602496846928261220e-05 -4.388143497635610402e-05 -2.697192030609585345e-05 -2.047296038654167205e-05
4.995000000000000000e+03 1.328532791137695312e+01 -1.267471551895141602e+00 3.239645593566820025e-05 5.339279232430271804e-05 2.573677556938491762e-05 4.969973815605044365e-05
4.996000000000000000e+03 1.480503654479980469e+01 -5.744030475616455078e-01 3.885864498442970216e-05 -5.148976015334483236e-06 1.011290078167803586e-05 2.126806066371500492e-05
4.997000000000000000e+03 1.453040313720703125e+01 -1.313965797424316406e+00 -4.178602830506861210e-05 8.031711331568658352e-05 1.155932568508433178e-05 1.060028625943232328e-05
4.998000000000000000e+03 1.393833351135253906e+01 -1.278923630714416504e+00 -6.148193733679363504e-06 -5.042183329351246357e-05 -1.697100742603652179e-05 -3.385583477211184800e-05
4.999000000000000000e+03 1.336329460144042969e+01 -5.279909372329711914e-01 -1.137715844379272312e-05 -8.855587657308205962e-05 -2.997991032316349447e-05 -2.398413198534399271e-05
5.000000000000000000e+03 1.411463356018066406e+01 -5.394020080566406250e-01 8.432499271293636411e-06 6.544453208334743977e-05 2.216310895164497197e-05 1.878575312730390579e-05
5.001000000000000000e+03 1.111242771148681641e+01 -4.403275847434997559e-01 -2.176334237447008491e-05 1.375994179397821426e-04 3.475082485238090158e-05 2.451713226037099957e-05
5.002000000000000000e+03 1.260764503479003906e+01 -5.095726251602172852e-01 1.131020690081641078e-05 9.641965152695775032e-05 3.231895971111953259e-05 2.203190888394601643e-05
5.003000000000000000e+03 1.185993289947509766e+01 -4.741277396678924561e-01 -2.379233410465531051e-05 -1.187491070595569909e-04 -4.276243271306157112e-05 -5.713257451134268194e-06
5.004000000000000000e+03 1.109096240997314453e+01 -1.180124521255493164e+00 -3.628918784670531750e-05 -1.335585693595930934e-04 -5.095432788948528469e-05 -1.470297866035252810e-05
5.005000000000000000e+03 1.036482620239257812e+01 -4.067706167697906494e-01 -5.336579124559648335e-05 -1.553237379994243383e-04 -6.260685768211260438e-05 -8.752802386879920959e-06
5.006000000000000000e+03 1.034629440307617188e+01 -1.146702885627746582e+00 -2.597920138214249164e-05 1.270433131139725447e-04 3.031923370144795626e-05 8.868498844094574451e-05
5.007000000000000000e+03 1.258031177520751953e+01 -1.249099493026733398e+00 -4.699074270320124924e-05 -8.764297672314569354e-05 -4.039011400891467929e-05 -2.464005046931561083e-05
5.008000000000000000e+03 1.183553314208984375e+01 -1.213789224624633789e+00 1.856622111517935991e-05 1.018454131553880870e-04 3.612349246395751834e-05 4.832820559386163950e-05
5.009000000000000000e+03 5.301595306396484375e+01 -6.404581546783447266e+00 3.376034927368164062e+01 6.432261466979980469e+00 1.205778312683105469e+01 1.237957477569580078e+01
5.010000000000000000e+03 5.301995849609375000e+01 -6.423633098602294922e+00 3.086549949645996094e+01 1.891404533386230469e+01 1.493386363983154297e+01 2.348661231994628906e+01
5.011000000000000000e+03 5.302759933471679688e+01 -6.441540241241455078e+00 2.834071159362792969e+01 3.091286849975585938e+01 1.777607345581054688e+01 2.732511520385742188e+01
5.012000000000000000e+03 5.303857421875000000e+01 -6.457617759704589844e+00 2.443351364135742188e+01 4.334362792968750000e+01 2.033314323425292969e+01 2.832971954345703125e+01
5.013000000000000000e+03 5.305247497558593750e+01 -6.471251010894775391e+00 2.092918205261230469e+01 5.469174194335937500e+01 2.268627738952636719e+01 2.633912467956542969e+01
5.014000000000000000e+03 5.306875991821289062e+01 -6.481917381286621094e+00 1.767340850830078125e+01 6.417851257324218750e+01 2.455557632446289062e+01 2.193436813354492188e+01
5.015000000000000000e+03 5.308681106567382812e+01 -6.489209175109863281e+00 1.619473838806152344e+01 7.122993469238281250e+01 2.622740173339843750e+01 1.562027645111083984e+01
5.016000000000000000e+03 5.310593795776367188e+01 -6.492846965789794922e+00 1.617551422119140625e+01 7.498667907714843750e+01 2.734865760803222656e+01 8.363000869750976562e+00
5.017000000000000000e+03 5.312540435791015625e+01 -6.492691993713378906e+00 1.843776321411132812e+01 7.562488555908203125e+01 2.821879386901855469e+01 1.218157529830932617e+00
5.018000000000000000e+03 5.314447021484375000e+01 -6.488749980926513672e+00 2.231604385375976562e+01 7.335630035400390625e+01 2.870170402526855469e+01 -4.880772590637207031e+00
5.019000000000000000e+03 5.316240310668945312e+01 -6.481172084808349609e+00 2.752764129638671875e+01 6.907536315917968750e+01 2.898090171813964844e+01 -9.164289474487304688e+00
5.020000000000000000e+03 5.317851638793945312e+01 -6.470247745513916016e+00 3.305149841308593750e+01 6.362269973754882812e+01 2.900226020812988281e+01 -1.130715274810791016e+01
5.021000000000000000e+03 5.319219589233398438e+01 -6.456395149230957031e+00 3.838012695312500000e+01 5.814404678344726562e+01 2.895725250244140625e+01 -1.125676631927490234e+01
5.022000000000000000e+03 5.320291519165039062e+01 -6.440144538879394531e+00 4.273659896850585938e+01 5.332126998901367188e+01 2.881735992431640625e+01 -9.389435768127441406e+00
5.023000000000000000e+03 5.321026611328125000e+01 -6.422117710113525391e+00 4.583784866333007812e+01 4.987707901000976562e+01 2.871447753906250000e+01 -6.142725467681884766e+00
5.024000000000000000e+03 5.321397018432617188e+01 -6.403005123138427734e+00 4.739813232421875000e+01 4.806670379638671875e+01 2.863945007324218750e+01 -2.092547416687011719e+00
5.025000000000000000e+03 5.321387863159179688e+01 -6.383537292480468750e+00 4.734979629516601562e+01 4.808162689208984375e+01 2.862942695617675781e+01 2.193761110305786133e+00
5.026000000000000000e+03 5.320999908447265625e+01 -6.364459037780761719e+00 4.573052597045898438e+01 5.001484298706054688e+01 2.872361183166503906e+01 6.224699497222900391e+00
5.027000000000000000e+03 5.320248413085937500e+01 -6.346501350402832031e+00 4.256218719482421875e+01 5.347156906127929688e+01 2.881012725830078125e+01 9.410372734069824219e+00
5.028000000000000000e+03 5.319161224365234375e+01 -6.330350875854492188e+00 3.814345932006835938e+01 5.836639404296875000e+01 2.895295715332031250e+01 1.120748805999755859e+01
5.029000000000000000e+03 5.317780685424804688e+01 -6.316625595092773438e+00 3.283265686035156250e+01 6.384420013427734375e+01 2.900305747985839844e+01 1.115810775756835938e+01
5.030000000000000000e+03 5.316159057617187500e+01 -6.305850982666015625e+00 2.724258422851562500e+01 6.925207519531250000e+01 2.894839668273925781e+01 8.921282768249511719e+00
5.031000000000000000e+03 5.314358901977539062e+01 -6.298439025878906250e+00 2.215997314453125000e+01 7.345063018798828125e+01 2.868317985534667969e+01 4.569391250610351562e+00
5.032000000000000000e+03 5.312448883056640625e+01 -6.294673442840576172e+00 1.830202674865722656e+01 7.559693908691406250e+01 2.816968917846679688e+01 -1.619538426399230957e+00
5.033000000000000000e+03 5.310501861572265625e+01 -6.294698715209960938e+00 1.619396400451660156e+01 7.484307098388671875e+01 2.731111145019531250e+01 -8.753796577453613281e+00
5.034000000000000000e+03 5.308592987060546875e+01 -6.298513412475585938e+00 1.618681144714355469e+01 7.087600708007812500e+01 2.611884689331054688e+01 -1.601338958740234375e+01
5.035000000000000000e+03 5.306794738769531250e+01 -6.305972099304199219e+00 1.784534835815429688e+01 6.381586456298828125e+01 2.449836349487304688e+01 -2.218318748474121094e+01
5.036000000000000000e+03 5.305176162719726562e+01 -6.316788673400878906e+00 2.111201858520507812e+01 5.412770843505859375e+01 2.257191848754882812e+01 -2.652935791015625000e+01
5.037000000000000000e+03 5.303799057006835938e+01 -6.330549240112304688e+00 2.452999877929687500e+01 4.279488754272460938e+01 2.019746589660644531e+01 -2.839885139465332031e+01
5.038000000000000000e+03 5.302716064453125000e+01 -6.346727848052978516e+00 2.845304298400878906e+01 3.044134140014648438e+01 1.766831398010253906e+01 -2.723369789123535156e+01
5.039000000000000000e+03 5.301968765258789062e+01 -6.364705562591552734e+00 3.081100654602050781e+01 1.843099975585937500e+01 1.477260112762451172e+01 -2.332201957702636719e+01
5.040000000000000000e+03 5.301585769653320312e+01 -6.383793354034423828e+00 3.353627014160156250e+01 6.253484249114990234e+00 1.193692684173583984e+01 -1.209559726715087891e+01
