# el_label, x, y, sXX, sYY, sZZ, sXY
1.000000000000000000e+00 2.582160377502441406e+01 -6.746124744415283203e+00 -6.345617294311523438e+00 -2.060109138488769531e+00 -2.521717786788940430e+00 -2.472128868103027344e+00
2.000000000000000000e+00 2.562261772155761719e+01 -6.750792026519775391e+00 -1.057000994682312012e+00 8.366708755493164062e-01 -6.609905511140823364e-02 7.261193990707397461e-01
3.000000000000000000e+00 2.542363166809082031e+01 -6.755459308624267578e+00 -1.970974802970886230e+00 -4.283156096935272217e-01 -7.197871208190917969e-01 1.338157895952463150e-02
4.000000000000000000e+00 2.522464561462402344e+01 -6.760126590728759766e+00 -1.980692505836486816e+00 2.220137566328048706e-01 -5.276036262512207031e-01 2.300141900777816772e-01
5.000000000000000000e+00 2.582867813110351562e+01 -6.804099559783935547e+00 8.963638305664062500e+00 -2.536633014678955078e+00 1.928101539611816406e+00 4.566443860530853271e-01
6.000000000000000000e+00 2.563440704345703125e+01 -6.847416877746582031e+00 2.844484806060791016e+00 8.123590797185897827e-02 8.777161836624145508e-01 7.448403835296630859e-01
7.000000000000000000e+00 2.544013786315917969e+01 -6.890734195709228516e+00 3.090529203414916992e+00 4.762526154518127441e-01 1.070034503936767578e+00 1.525507807731628418e+00
8.000000000000000000e+00 2.524586677551269531e+01 -6.934051513671875000e+00 2.067906141281127930e+00 1.606531254947185516e-02 6.251914501190185547e-01 8.634116649627685547e-01
9.000000000000000000e+00 2.584690284729003906e+01 -6.859588146209716797e+00 1.508237361907958984e+01 1.086372375488281250e+00 4.850624084472656250e+00 6.815756797790527344e+00
1.000000000000000000e+01 2.566478347778320312e+01 -6.939898014068603516e+00 9.072434425354003906e+00 6.001296639442443848e-01 2.901769161224365234e+00 3.883810281753540039e+00
1.100000000000000000e+01 2.548266410827636719e+01 -7.020207405090332031e+00 6.229630947113037109e+00 1.308037519454956055e+00 2.261300563812255859e+00 3.154967069625854492e+00
1.200000000000000000e+01 2.530054283142089844e+01 -7.100517272949218750e+00 5.461506366729736328e+00 1.221977353096008301e+00 2.005045175552368164e+00 3.034508705139160156e+00
1.300000000000000000e+01 2.587558174133300781e+01 -6.910466670989990234e+00 1.764393234252929688e+01 6.660136699676513672e+00 7.291220664978027344e+00 1.215698623657226562e+01
1.400000000000000000e+01 2.571258163452148438e+01 -7.024695396423339844e+00 1.143976020812988281e+01 4.054216861724853516e+00 4.648193359375000000e+00 7.852664470672607422e+00
1.500000000000000000e+01 2.554958152770996094e+01 -7.138924121856689453e+00 9.054767608642578125e+00 3.365869998931884766e+00 3.726191282272338867e+00 6.143560886383056641e+00
1.600000000000000000e+01 2.538658332824707031e+01 -7.253152847290039062e+00 7.326842308044433594e+00 3.111173868179321289e+00 3.131404876708984375e+00 5.202820777893066406e+00
1.700000000000000000e+01 2.591361808776855469e+01 -6.954788684844970703e+00 1.664984512329101562e+01 1.421699047088623047e+01 9.260050773620605469e+00 1.598811531066894531e+01
1.800000000000000000e+01 2.577597618103027344e+01 -7.098565101623535156e+00 1.204955196380615234e+01 9.049051284790039062e+00 6.329580783843994141e+00 1.106984615325927734e+01
1.900000000000000000e+01 2.563833236694335938e+01 -7.242341518402099609e+00 9.513558387756347656e+00 7.193574905395507812e+00 5.012140274047851562e+00 8.787946701049804688e+00
2.000000000000000000e+01 2.550069046020507812e+01 -7.386117935180664062e+00 8.143334388732910156e+00 6.224061489105224609e+00 4.310218811035156250e+00 7.579367637634277344e+00
2.100000000000000000e+01 2.595955467224121094e+01 -6.990857124328613281e+00 1.428770637512207031e+01 2.242413520812988281e+01 1.101355266571044922e+01 1.750890731811523438e+01
2.200000000000000000e+01 2.585253715515136719e+01 -7.158679485321044922e+00 1.070334720611572266e+01 1.515276622772216797e+01 7.756834030151367188e+00 1.275386524200439453e+01
2.300000000000000000e+01 2.574551773071289062e+01 -7.326501846313476562e+00 8.925439834594726562e+00 1.201798057556152344e+01 6.283026218414306641e+00 1.052925205230712891e+01
2.400000000000000000e+01 2.563850021362304688e+01 -7.494324207305908203e+00 7.462412834167480469e+00 1.034960556030273438e+01 5.343605518341064453e+00 9.069837570190429688e+00
2.500000000000000000e+01 2.601163482666015625e+01 -7.017292499542236328e+00 1.114376544952392578e+01 3.040177917480468750e+01 1.246366310119628906e+01 1.649782562255859375e+01
2.600000000000000000e+01 2.593933677673339844e+01 -7.202738761901855469e+00 8.982572555541992188e+00 2.133129119873046875e+01 9.094159126281738281e+00 1.276548671722412109e+01
2.700000000000000000e+01 2.586703872680664062e+01 -7.388184547424316406e+00 7.308273792266845703e+00 1.725183868408203125e+01 7.368033885955810547e+00 1.073474407196044922e+01
2.800000000000000000e+01 2.579473876953125000e+01 -7.573630809783935547e+00 6.366801738739013672e+00 1.486691856384277344e+01 6.370116233825683594e+00 9.500324249267578125e+00
2.900000000000000000e+01 2.606786537170410156e+01 -7.033082962036132812e+00 8.940161705017089844e+00 3.702893829345703125e+01 1.379072952270507812e+01 1.343562030792236328e+01
3.000000000000000000e+01 2.603305244445800781e+01 -7.229056358337402344e+00 7.132017135620117188e+00 2.688277435302734375e+01 1.020443725585937500e+01 1.102711296081542969e+01
3.100000000000000000e+01 2.599824142456054688e+01 -7.425029277801513672e+00 5.930974960327148438e+00 2.212776756286621094e+01 8.417622566223144531e+00 9.613933563232421875e+00
3.200000000000000000e+01 2.596342849731445312e+01 -7.621002197265625000e+00 4.938456058502197266e+00 1.916904640197753906e+01 7.232250690460205078e+00 8.483251571655273438e+00
3.300000000000000000e+01 2.612609291076660156e+01 -7.037624359130859375e+00 8.021006584167480469e+00 4.157280349731445312e+01 1.487814331054687500e+01 8.877338409423828125e+00
3.400000000000000000e+01 2.613010025024414062e+01 -7.236625194549560547e+00 6.257109642028808594e+00 3.118940353393554688e+01 1.123395347595214844e+01 8.163590431213378906e+00
3.500000000000000000e+01 2.613410758972167969e+01 -7.435626029968261719e+00 4.965013980865478516e+00 2.600476455688476562e+01 9.290933609008789062e+00 7.190973281860351562e+00
3.600000000000000000e+01 2.613811302185058594e+01 -7.634626865386962891e+00 4.144710063934326172e+00 2.282578086853027344e+01 8.091147422790527344e+00 6.578723907470703125e+00
3.700000000000000000e+01 2.618409156799316406e+01 -7.030743122100830078e+00 8.981253623962402344e+00 4.381978988647460938e+01 1.584031295776367188e+01 4.046030998229980469e+00
3.800000000000000000e+01 2.622676467895507812e+01 -7.225155830383300781e+00 6.505571365356445312e+00 3.379480743408203125e+01 1.209011268615722656e+01 4.505592823028564453e+00
3.900000000000000000e+01 2.626943588256835938e+01 -7.419569015502929688e+00 5.042248725891113281e+00 2.859985160827636719e+01 1.009263038635253906e+01 4.254643440246582031e+00
4.000000000000000000e+01 2.631210708618164062e+01 -7.613982200622558594e+00 4.185128688812255859e+00 2.520404815673828125e+01 8.816753387451171875e+00 3.904227972030639648e+00
4.100000000000000000e+01 2.623964118957519531e+01 -7.012701988220214844e+00 1.159438705444335938e+01 4.383911895751953125e+01 1.663005256652832031e+01 -3.461507558822631836e-01
4.200000000000000000e+01 2.631934547424316406e+01 -7.195087432861328125e+00 8.016602516174316406e+00 3.477569198608398438e+01 1.283768844604492188e+01 9.550951123237609863e-01
4.300000000000000000e+01 2.639904975891113281e+01 -7.377472877502441406e+00 6.312058448791503906e+00 2.959309196472167969e+01 1.077154541015625000e+01 1.143279552459716797e+00
4.400000000000000000e+01 2.647875404357910156e+01 -7.559858798980712891e+00 5.141851902008056641e+00 2.630148506164550781e+01 9.433001518249511719e+00 1.208775281906127930e+00
4.500000000000000000e+01 2.629061317443847656e+01 -6.984191894531250000e+00 1.532979965209960938e+01 4.233795928955078125e+01 1.730032920837402344e+01 -3.476320266723632812e+00
4.600000000000000000e+01 2.640430068969726562e+01 -7.147570133209228516e+00 1.064647483825683594e+01 3.414247512817382812e+01 1.343668460845947266e+01 -1.990213871002197266e+00
4.700000000000000000e+01 2.651798820495605469e+01 -7.310948848724365234e+00 8.507613182067871094e+00 2.934449195861816406e+01 1.135563182830810547e+01 -1.454884648323059082e+00
4.800000000000000000e+01 2.663167572021484375e+01 -7.474327564239501953e+00 7.141091346740722656e+00 2.609320259094238281e+01 9.970288276672363281e+00 -1.162386178970336914e+00
4.900000000000000000e+01 2.633506202697753906e+01 -6.946303367614746094e+00 1.945723724365234375e+01 3.985116195678710938e+01 1.779252052307128906e+01 -5.107513427734375000e+00
5.000000000000000000e+01 2.647838020324707031e+01 -7.084422588348388672e+00 1.397649002075195312e+01 3.255078506469726562e+01 1.395818328857421875e+01 -3.788218498229980469e+00
5.100000000000000000e+01 2.662170028686523438e+01 -7.222542285919189453e+00 1.129123973846435547e+01 2.797711944580078125e+01 1.178050804138183594e+01 -3.149355888366699219e+00
5.200000000000000000e+01 2.676501846313476562e+01 -7.360661983489990234e+00 9.687752723693847656e+00 2.516159439086914062e+01 1.045480442047119141e+01 -2.710819244384765625e+00
5.300000000000000000e+01 2.637128257751464844e+01 -6.900486469268798828e+00 2.336581993103027344e+01 3.732367706298828125e+01 1.820684814453125000e+01 -5.172358989715576172e+00
5.400000000000000000e+01 2.653874969482421875e+01 -7.008061408996582031e+00 1.736813354492187500e+01 3.034136199951171875e+01 1.431284809112548828e+01 -4.296185016632080078e+00
5.500000000000000000e+01 2.670621490478515625e+01 -7.115636348724365234e+00 1.425553131103515625e+01 2.626625823974609375e+01 1.215653705596923828e+01 -3.656988382339477539e+00
5.600000000000000000e+01 2.687368202209472656e+01 -7.223211288452148438e+00 1.224871158599853516e+01 2.343865394592285156e+01 1.070620918273925781e+01 -3.148939847946166992e+00
5.700000000000000000e+01 2.639789199829101562e+01 -6.848494529724121094e+00 2.647998237609863281e+01 3.510617446899414062e+01 1.847584724426269531e+01 -3.965632438659667969e+00
5.800000000000000000e+01 2.658309555053710938e+01 -6.921408176422119141e+00 2.026572418212890625e+01 2.833431816101074219e+01 1.458001327514648438e+01 -3.528579473495483398e+00
5.900000000000000000e+01 2.676830101013183594e+01 -6.994322299957275391e+00 1.680054283142089844e+01 2.450544166564941406e+01 1.239179515838623047e+01 -2.992061853408813477e+00
6.000000000000000000e+01 2.695350646972656250e+01 -7.067236423492431641e+00 1.458888149261474609e+01 2.176892471313476562e+01 1.090734195709228516e+01 -2.668650627136230469e+00
6.100000000000000000e+01 2.641386795043945312e+01 -6.792317390441894531e+00 2.840138626098632812e+01 3.364665603637695312e+01 1.861441230773925781e+01 -1.919851303100585938e+00
6.200000000000000000e+01 2.660972404479980469e+01 -6.827779769897460938e+00 2.217403602600097656e+01 2.698700332641601562e+01 1.474831199645996094e+01 -1.730213046073913574e+00
6.300000000000000000e+01 2.680558204650878906e+01 -6.863242149353027344e+00 1.849406051635742188e+01 2.320570564270019531e+01 1.250992965698242188e+01 -1.484058260917663574e+00
6.400000000000000000e+01 2.700143814086914062e+01 -6.898705005645751953e+00 1.609543418884277344e+01 2.078244018554687500e+01 1.106336307525634766e+01 -1.373901724815368652e+00
6.500000000000000000e+01 2.641860198974609375e+01 -6.734104633331298828e+00 2.900307273864746094e+01 3.327747726440429688e+01 1.868416595458984375e+01 5.743851065635681152e-01
6.600000000000000000e+01 2.661761474609375000e+01 -6.730758666992187500e+00 2.274085807800292969e+01 2.648010063171386719e+01 1.476628780364990234e+01 5.653567910194396973e-01
6.700000000000000000e+01 2.681662750244140625e+01 -6.727412700653076172e+00 1.900816154479980469e+01 2.290487098693847656e+01 1.257390975952148438e+01 4.959229528903961182e-01
6.800000000000000000e+01 2.701564216613769531e+01 -6.724066734313964844e+00 1.647489547729492188e+01 2.043062782287597656e+01 1.107165622711181641e+01 4.379078149795532227e-01
6.900000000000000000e+01 2.641191482543945312e+01 -6.676084041595458984e+00 2.815137290954589844e+01 3.385646057128906250e+01 1.860235023498535156e+01 3.063958883285522461e+00
7.000000000000000000e+01 2.660646820068359375e+01 -6.634057521820068359e+00 2.189158058166503906e+01 2.714744186401367188e+01 1.471170711517333984e+01 2.786542177200317383e+00
7.100000000000000000e+01 2.680102157592773438e+01 -6.592031478881835938e+00 1.821570014953613281e+01 2.344020652770996094e+01 1.249677181243896484e+01 2.461189985275268555e+00
7.200000000000000000e+01 2.699557495117187500e+01 -6.550004959106445312e+00 1.581497669219970703e+01 2.100504302978515625e+01 1.104600620269775391e+01 2.199391126632690430e+00
7.300000000000000000e+01 2.639405822753906250e+01 -6.620475769042968750e+00 2.597686576843261719e+01 3.546931838989257812e+01 1.843385505676269531e+01 5.050840377807617188e+00
7.400000000000000000e+01 2.657670593261718750e+01 -6.541377544403076172e+00 1.969516944885253906e+01 2.870720100402832031e+01 1.452071094512939453e+01 4.416112422943115234e+00
7.500000000000000000e+01 2.675935554504394531e+01 -6.462278842926025391e+00 1.630780792236328125e+01 2.479302787780761719e+01 1.233025074005126953e+01 3.835432291030883789e+00
7.600000000000000000e+01 2.694200515747070312e+01 -6.383180618286132812e+00 1.413726711273193359e+01 2.224780273437500000e+01 1.091552066802978516e+01 3.424340248107910156e+00
7.700000000000000000e+01 2.636571502685546875e+01 -6.569407939910888672e+00 2.262174606323242188e+01 3.780505752563476562e+01 1.812804031372070312e+01 6.096945285797119141e+00
7.800000000000000000e+01 2.652947235107421875e+01 -6.456264495849609375e+00 1.658557891845703125e+01 3.086210441589355469e+01 1.423430538177490234e+01 4.990710258483886719e+00
7.900000000000000000e+01 2.669322776794433594e+01 -6.343120574951171875e+00 1.354690265655517578e+01 2.659352302551269531e+01 1.204212760925292969e+01 4.222731113433837891e+00
8.000000000000000000e+01 2.685698318481445312e+01 -6.229977130889892578e+00 1.165052318572998047e+01 2.382451629638671875e+01 1.064251136779785156e+01 3.714052438735961914e+00
8.100000000000000000e+01 2.632797622680664062e+01 -6.524834632873535156e+00 1.853100204467773438e+01 4.054712677001953125e+01 1.772343826293945312e+01 5.781677246093750000e+00
8.200000000000000000e+01 2.646656990051269531e+01 -6.381975650787353516e+00 1.303878402709960938e+01 3.297689437866210938e+01 1.380470371246337891e+01 4.252282142639160156e+00
8.300000000000000000e+01 2.660516548156738281e+01 -6.239116191864013672e+00 1.046823120117187500e+01 2.843377494812011719e+01 1.167060184478759766e+01 3.444842100143432617e+00
8.400000000000000000e+01 2.674376106262207031e+01 -6.096257209777832031e+00 8.757347106933593750e+00 2.532210731506347656e+01 1.022383594512939453e+01 2.937259435653686523e+00
8.500000000000000000e+01 2.628227996826171875e+01 -6.488461971282958984e+00 1.424668312072753906e+01 4.295080566406250000e+01 1.715924644470214844e+01 3.889836788177490234e+00
8.600000000000000000e+01 2.639040946960449219e+01 -6.321353912353515625e+00 9.709359169006347656e+00 3.456258010864257812e+01 1.328158187866210938e+01 2.169461250305175781e+00
8.700000000000000000e+01 2.649854087829589844e+01 -6.154246330261230469e+00 7.566470623016357422e+00 2.960842132568359375e+01 1.115246772766113281e+01 1.549700379371643066e+00
8.800000000000000000e+01 2.660667419433593750e+01 -5.987138271331787109e+00 6.214865207672119141e+00 2.640611076354980469e+01 9.786293029785156250e+00 1.230503439903259277e+00
8.900000000000000000e+01 2.623037719726562500e+01 -6.461680889129638672e+00 1.052153968811035156e+01 4.438242340087890625e+01 1.647118759155273438e+01 4.212540090084075928e-01
9.000000000000000000e+01 2.630390548706054688e+01 -6.276719570159912109e+00 7.135612010955810547e+00 3.490764617919921875e+01 1.261297702789306641e+01 -9.699727296829223633e-01
9.100000000000000000e+01 2.637743377685546875e+01 -6.091757774353027344e+00 5.397544384002685547e+00 2.974572944641113281e+01 1.054298210144042969e+01 -1.190159440040588379e+00
9.200000000000000000e+01 2.645096397399902344e+01 -5.906795978546142578e+00 4.427155017852783203e+00 2.635982322692871094e+01 9.236093521118164062e+00 -1.241286039352416992e+00
9.300000000000000000e+01 2.617425346374511719e+01 -6.445517539978027344e+00 8.074204444885253906e+00 4.398171997070312500e+01 1.561677742004394531e+01 -4.160205364227294922e+00
9.400000000000000000e+01 2.621036720275878906e+01 -6.249780178070068359e+00 5.694512844085693359e+00 3.373151016235351562e+01 1.182780647277832031e+01 -4.697813987731933594e+00
9.500000000000000000e+01 2.624647903442382812e+01 -6.054042339324951172e+00 4.368255615234375000e+00 2.834075736999511719e+01 9.812704086303710938e+00 -4.326302528381347656e+00
9.600000000000000000e+01 2.628259277343750000e+01 -5.858304977416992188e+00 3.470187664031982422e+00 2.502768707275390625e+01 8.549362182617187500e+00 -4.043045043945312500e+00
9.700000000000000000e+01 2.611605644226074219e+01 -6.440588951110839844e+00 7.384706497192382812e+00 4.134664916992187500e+01 1.461940670013427734e+01 -9.224518775939941406e+00
9.800000000000000000e+01 2.611337280273437500e+01 -6.241566181182861328e+00 5.582713603973388672e+00 3.068596076965332031e+01 1.088060188293457031e+01 -8.236062049865722656e+00
9.900000000000000000e+01 2.611068725585937500e+01 -6.042543411254882812e+00 4.445103168487548828e+00 2.552638816833496094e+01 8.991447448730468750e+00 -7.376579761505126953e+00
1.000000000000000000e+02 2.610800361633300781e+01 -5.843520641326904297e+00 3.602798223495483398e+00 2.221486091613769531e+01 7.745297908782958984e+00 -6.569769382476806641e+00
1.010000000000000000e+02 2.605801582336425781e+01 -6.447085380554199219e+00 8.446481704711914062e+00 3.624903106689453125e+01 1.340865421295166016e+01 -1.359812736511230469e+01
1.020000000000000000e+02 2.601663398742675781e+01 -6.252392768859863281e+00 6.722127437591552734e+00 2.601806068420410156e+01 9.822056770324707031e+00 -1.108688354492187500e+01
1.030000000000000000e+02 2.597525596618652344e+01 -6.057700634002685547e+00 5.385825157165527344e+00 2.130046272277832031e+01 8.005886077880859375e+00 -9.496400833129882812e+00
1.040000000000000000e+02 2.593387603759765625e+01 -5.863008499145507812e+00 4.607487678527832031e+00 1.851371383666992188e+01 6.936360359191894531e+00 -8.487202644348144531e+00
1.050000000000000000e+02 2.600234794616699219e+01 -6.464756965637207031e+00 1.105128288269042969e+01 2.907150840759277344e+01 1.203683757781982422e+01 -1.651471900939941406e+01
1.060000000000000000e+02 2.592385673522949219e+01 -6.281845569610595703e+00 8.459821701049804688e+00 2.008656120300292969e+01 8.563914299011230469e+00 -1.240919589996337891e+01
1.070000000000000000e+02 2.584536552429199219e+01 -6.098934650421142578e+00 6.915774345397949219e+00 1.622159576416015625e+01 6.941210746765136719e+00 -1.042610836029052734e+01
1.080000000000000000e+02 2.576687431335449219e+01 -5.916023254394531250e+00 5.836517810821533203e+00 1.408246994018554688e+01 5.975696563720703125e+00 -9.037812232971191406e+00
1.090000000000000000e+02 2.595118522644042969e+01 -6.492928028106689453e+00 1.390169334411621094e+01 2.065798568725585938e+01 1.036790370941162109e+01 -1.697951698303222656e+01
1.100000000000000000e+02 2.583858680725097656e+01 -6.328797340393066406e+00 1.040463542938232422e+01 1.360262680053710938e+01 7.202178955078125000e+00 -1.209002590179443359e+01
1.110000000000000000e+02 2.572598838806152344e+01 -6.164666652679443359e+00 8.144318580627441406e+00 1.088550281524658203e+01 5.708946228027343750e+00 -9.648338317871093750e+00
1.120000000000000000e+02 2.561338996887207031e+01 -6.000535964965820312e+00 6.882634162902832031e+00 9.423329353332519531e+00 4.891788959503173828e+00 -8.354821205139160156e+00
1.130000000000000000e+02 2.590648651123046875e+01 -6.530519962310791016e+00 1.646559143066406250e+01 1.193279457092285156e+01 8.519515991210937500e+00 -1.485290718078613281e+01
1.140000000000000000e+02 2.576408958435058594e+01 -6.391450881958007812e+00 1.095336818695068359e+01 7.526386260986328125e+00 5.543926239013671875e+00 -9.788749694824218750e+00
1.150000000000000000e+02 2.562169075012207031e+01 -6.252381801605224609e+00 8.824037551879882812e+00 6.174856185913085938e+00 4.499668121337890625e+00 -7.675813198089599609e+00
1.160000000000000000e+02 2.547929382324218750e+01 -6.113312721252441406e+00 6.983604907989501953e+00 5.194315433502197266e+00 3.653376102447509766e+00 -6.473583698272705078e+00
1.170000000000000000e+02 2.586996269226074219e+01 -6.576094627380371094e+00 1.606859016418457031e+01 4.300006389617919922e+00 6.110579013824462891e+00 -1.030251312255859375e+01
1.180000000000000000e+02 2.570321464538574219e+01 -6.467409133911132812e+00 1.029291820526123047e+01 2.726867914199829102e+00 3.905935764312744141e+00 -6.091653347015380859e+00
1.190000000000000000e+02 2.553646659851074219e+01 -6.358723640441894531e+00 7.209543228149414062e+00 2.820949554443359375e+00 3.009147882461547852e+00 -4.722314357757568359e+00
1.200000000000000000e+02 2.536972045898437500e+01 -6.250037670135498047e+00 6.307557582855224609e+00 2.635196208953857422e+00 2.682826280593872070e+00 -4.489152431488037109e+00
1.210000000000000000e+02 2.584300804138183594e+01 -6.627908706665039062e+00 1.275027275085449219e+01 -1.723715305328369141e+00 3.307967424392700195e+00 -3.606876373291015625e+00
1.220000000000000000e+02 2.565829277038574219e+01 -6.553765296936035156e+00 5.575692176818847656e+00 7.844860553741455078e-01 1.908053517341613770e+00 -2.070280551910400391e+00
1.230000000000000000e+02 2.547357749938964844e+01 -6.479622364044189453e+00 5.057904720306396484e+00 1.236876487731933594e+00 1.888434410095214844e+00 -2.660862445831298828e+00
1.240000000000000000e+02 2.528886032104492188e+01 -6.405478954315185547e+00 3.724707126617431641e+00 6.091048717498779297e-01 1.300143599510192871e+00 -1.883427500724792480e+00
1.250000000000000000e+02 2.582665824890136719e+01 -6.683978080749511719e+00 -5.318794846534729004e-01 -2.788393020629882812e+00 -9.960817098617553711e-01 2.163539886474609375e+00
1.260000000000000000e+02 2.563104248046875000e+01 -6.647214412689208984e+00 2.209192037582397461e+00 1.108786463737487793e+00 9.953935742378234863e-01 -1.011713027954101562e+00
1.270000000000000000e+02 2.543542671203613281e+01 -6.610450744628906250e+00 7.477653622627258301e-01 -3.537114262580871582e-01 1.182161867618560791e-01 -2.372000366449356079e-01
1.280000000000000000e+02 2.523981094360351562e+01 -6.573687553405761719e+00 2.323521524667739868e-01 2.868194282054901123e-01 1.557514667510986328e-01 -2.550056278705596924e-01
1.290000000000000000e+02 2.113026237487792969e+01 -6.935838222503662109e+00 -8.291956782341003418e-01 1.067347750067710876e-01 -2.167382687330245972e-01 -1.262462586164474487e-01
1.300000000000000000e+02 2.257460403442382812e+01 -7.114504337310791016e+00 -8.586204648017883301e-01 -8.125399798154830933e-02 -2.819623351097106934e-01 1.131564900279045105e-01
1.310000000000000000e+02 2.030849838256835938e+01 -7.300714015960693359e+00 -3.667610287666320801e-01 1.808641850948333740e-01 -5.576905608177185059e-02 -3.109548389911651611e-01
1.320000000000000000e+02 2.039672088623046875e+01 -6.815159320831298828e+00 -7.019430994987487793e-01 7.900018244981765747e-02 -1.868828684091567993e-01 -2.058531939983367920e-01
1.330000000000000000e+02 2.277644538879394531e+01 -7.623651027679443359e+00 6.869696974754333496e-01 2.914709784090518951e-02 2.148350328207015991e-01 3.027592003345489502e-01
1.340000000000000000e+02 2.291808891296386719e+01 -6.827235698699951172e+00 -1.520184755325317383e+00 7.782529294490814209e-02 -4.327078461647033691e-01 7.671337574720382690e-02
1.350000000000000000e+02 2.287130165100097656e+01 -7.211715221405029297e+00 -4.240657091140747070e-01 9.433720260858535767e-02 -9.891855716705322266e-02 1.594879031181335449e-01
1.360000000000000000e+02 2.281872367858886719e+01 -7.416612625122070312e+00 2.449746727943420410e-01 5.795396864414215088e-02 9.087859094142913818e-02 2.905185520648956299e-01
1.370000000000000000e+02 2.291914558410644531e+01 -7.016846179962158203e+00 -1.000800132751464844e+00 4.819703474640846252e-02 -2.857809364795684814e-01 4.666785150766372681e-02
1.380000000000000000e+02 2.236209487915039062e+01 -7.583088874816894531e+00 3.079903721809387207e-01 2.230871021747589111e-01 1.593232303857803345e-01 1.745141744613647461e-01
1.390000000000000000e+02 2.106162261962890625e+01 -7.426770687103271484e+00 -2.094840854406356812e-01 1.670098900794982910e-01 -1.274226047098636627e-02 -1.807609945535659790e-01
1.400000000000000000e+02 2.048914146423339844e+01 -6.328910827636718750e+00 -1.123559594154357910e+00 1.453535817563533783e-02 -3.327072858810424805e-01 5.801796913146972656e-02
1.410000000000000000e+02 2.266318321228027344e+01 -7.825290203094482422e+00 9.344798922538757324e-01 2.065858691930770874e-01 3.423197269439697266e-01 4.509751200675964355e-01
1.420000000000000000e+02 2.192115020751953125e+01 -6.559594154357910156e+00 -1.820895910263061523e+00 -3.383882110938429832e-03 -5.472839474678039551e-01 1.871740818023681641e-01
1.430000000000000000e+02 2.181011962890625000e+01 -7.034944057464599609e+00 -8.175219297409057617e-01 6.213611364364624023e-02 -2.266157418489456177e-01 -6.050935387611389160e-02
1.440000000000000000e+02 2.179617881774902344e+01 -7.539186954498291016e+00 5.378218740224838257e-02 1.713133156299591064e-01 6.752865016460418701e-02 -1.952588558197021484e-02
1.450000000000000000e+02 2.228617286682128906e+01 -7.066407680511474609e+00 -8.478097915649414062e-01 5.463775992393493652e-02 -2.379516065120697021e-01 2.145576477050781250e-02
1.460000000000000000e+02 2.267588424682617188e+01 -6.916765689849853516e+00 -1.281181812286376953e+00 4.795947298407554626e-02 -3.699667155742645264e-01 9.869583696126937866e-02
1.470000000000000000e+02 2.122270393371582031e+01 -6.448218822479248047e+00 -1.484468221664428711e+00 -1.434819074347615242e-03 -4.457709193229675293e-01 1.182347312569618225e-01
1.480000000000000000e+02 2.282513999938964844e+01 -6.592357635498046875e+00 -2.420938730239868164e+00 1.792944967746734619e-02 -7.209028005599975586e-01 2.755265831947326660e-01
1.490000000000000000e+02 2.241620826721191406e+01 -6.726727485656738281e+00 -1.806920409202575684e+00 -6.101204082369804382e-02 -5.603797435760498047e-01 1.581778973340988159e-01
1.500000000000000000e+02 2.245101547241210938e+01 -7.307853698730468750e+00 -2.396566569805145264e-01 6.655357778072357178e-02 -5.193092301487922668e-02 1.079855114221572876e-01
1.510000000000000000e+02 2.417126655578613281e+01 -7.019851684570312500e+00 -3.590173721313476562e-01 3.158568590879440308e-02 -9.822951257228851318e-02 3.486832082271575928e-01
1.520000000000000000e+02 2.722856330871582031e+01 -6.728395462036132812e+00 1.472899532318115234e+01 1.862884140014648438e+01 1.000735092163085938e+01 3.151495158672332764e-01
1.530000000000000000e+02 2.590459632873535156e+01 -5.640116214752197266e+00 3.808057546615600586e+00 1.662555122375488281e+01 6.130083084106445312e+00 -7.435415744781494141e+00
1.540000000000000000e+02 2.610998725891113281e+01 -5.626122474670410156e+00 3.030437469482421875e+00 2.013271903991699219e+01 6.948946952819824219e+00 -5.954738140106201172e+00
1.550000000000000000e+02 2.657157516479492188e+01 -7.716235160827636719e+00 4.550461769104003906e+00 2.413343048095703125e+01 8.605167388916015625e+00 1.069239377975463867e+00
1.560000000000000000e+02 2.552124977111816406e+01 -7.700354576110839844e+00 6.502339839935302734e+00 9.383780479431152344e+00 4.765836238861083984e+00 8.044471740722656250e+00
1.570000000000000000e+02 2.502102088928222656e+01 -6.764235973358154297e+00 -2.102254629135131836e+00 -1.544796228408813477e-01 -6.770203113555908203e-01 1.514761149883270264e-01
1.580000000000000000e+02 2.306268882751464844e+01 -7.889071941375732422e+00 1.659348130226135254e+00 6.256062388420104980e-01 6.854863166809082031e-01 9.944467544555664062e-01
1.590000000000000000e+02 2.326723480224609375e+01 -7.906562328338623047e+00 1.852595567703247070e+00 4.725430309772491455e-01 6.975415945053100586e-01 1.024127960205078125e+00
1.600000000000000000e+02 2.538752174377441406e+01 -7.900275707244873047e+00 5.796082973480224609e+00 8.396441459655761719e+00 4.257757186889648438e+00 7.178497314453125000e+00
1.610000000000000000e+02 2.533165550231933594e+01 -7.566271305084228516e+00 6.823991298675537109e+00 5.314786434173583984e+00 3.641633272171020508e+00 6.447559356689453125e+00
1.620000000000000000e+02 2.346961784362792969e+01 -7.922121047973632812e+00 2.126159906387329102e+00 6.564753651618957520e-01 8.347905874252319336e-01 1.255087375640869141e+00
1.630000000000000000e+02 2.732998275756835938e+01 -6.248622894287109375e+00 1.127260303497314453e+01 1.869021797180175781e+01 8.988846778869628906e+00 2.661343574523925781e+00
1.640000000000000000e+02 2.715131759643554688e+01 -6.306144237518310547e+00 1.250037574768066406e+01 2.006811904907226562e+01 9.770547866821289062e+00 3.063751459121704102e+00
1.650000000000000000e+02 2.747010231018066406e+01 -6.542745590209960938e+00 1.273389148712158203e+01 1.726840400695800781e+01 9.000688552856445312e+00 1.245818376541137695e+00
1.660000000000000000e+02 2.716660308837890625e+01 -7.112411022186279297e+00 1.315626716613769531e+01 1.988304901123046875e+01 9.911794662475585938e+00 -2.319743871688842773e+00
1.670000000000000000e+02 2.631585693359375000e+01 -7.841164112091064453e+00 3.502242565155029297e+00 2.239479637145996094e+01 7.769111633300781250e+00 4.056517124176025391e+00
1.680000000000000000e+02 2.339620590209960938e+01 -5.116319656372070312e+00 1.764761447906494141e+00 1.257951974868774414e+00 9.068140387535095215e-01 -1.474809050559997559e+00
1.690000000000000000e+02 2.336920547485351562e+01 -5.320181846618652344e+00 1.440668225288391113e+00 9.393782019615173340e-01 7.140139341354370117e-01 -1.114842295646667480e+00
1.700000000000000000e+02 2.364048385620117188e+01 -6.407275676727294922e+00 -1.580590963363647461e+00 -5.893542038393206894e-06 -4.741790890693664551e-01 8.533554524183273315e-02
1.710000000000000000e+02 2.487811851501464844e+01 -5.665698528289794922e+00 4.298209190368652344e+00 3.134002208709716797e+00 2.229663372039794922e+00 -4.077785491943359375e+00
1.720000000000000000e+02 2.534631156921386719e+01 -5.948158264160156250e+00 6.110723018646240234e+00 5.245012760162353516e+00 3.406720876693725586e+00 -6.055920124053955078e+00
1.730000000000000000e+02 2.324664878845214844e+01 -6.380261898040771484e+00 -1.637138724327087402e+00 -5.564333498477935791e-02 -5.078346133232116699e-01 1.553700119256973267e-01
1.740000000000000000e+02 2.327952957153320312e+01 -6.170584201812744141e+00 -9.951641559600830078e-01 -8.240349590778350830e-03 -3.010213375091552734e-01 -1.298938225954771042e-02
1.750000000000000000e+02 2.355681800842285156e+01 -5.482526779174804688e+00 1.506433963775634766e+00 8.177024126052856445e-01 6.972408890724182129e-01 -1.124997138977050781e+00
1.760000000000000000e+02 2.464483451843261719e+01 -6.465320587158203125e+00 -7.328432798385620117e-01 1.540914364159107208e-02 -2.152302414178848267e-01 -8.877788484096527100e-02
1.770000000000000000e+02 2.519734573364257812e+01 -6.114023208618164062e+00 5.305827617645263672e+00 2.286904573440551758e+00 2.277819633483886719e+00 -3.926261901855468750e+00
1.780000000000000000e+02 2.504364967346191406e+01 -6.535384178161621094e+00 -1.769088059663772583e-01 -8.391717076301574707e-02 -7.824779301881790161e-02 -1.646678149700164795e-01
1.790000000000000000e+02 2.721305274963378906e+01 -6.523699283599853516e+00 1.398440742492675781e+01 1.903681373596191406e+01 9.906366348266601562e+00 1.831637501716613770e+00
1.800000000000000000e+02 2.704076766967773438e+01 -6.107656955718994141e+00 1.008271694183349609e+01 2.156271934509277344e+01 9.493631362915039062e+00 3.257931709289550781e+00
1.810000000000000000e+02 2.696185302734375000e+01 -5.654550075531005859e+00 5.234114170074462891e+00 2.115232849121093750e+01 7.915932655334472656e+00 1.540537118911743164e+00
1.820000000000000000e+02 2.649004173278808594e+01 -5.680333614349365234e+00 3.442238807678222656e+00 2.370269775390625000e+01 8.143480300903320312e+00 -1.612051367759704590e+00
1.830000000000000000e+02 2.592788124084472656e+01 -7.838231563568115234e+00 4.354336738586425781e+00 1.729993247985839844e+01 6.496280670166015625e+00 7.647947311401367188e+00
1.840000000000000000e+02 2.730771636962890625e+01 -7.473758220672607422e+00 9.805006027221679688e+00 1.915729904174804688e+01 8.688691139221191406e+00 -2.691596984863281250e+00
1.850000000000000000e+02 2.709845352172851562e+01 -7.284027099609375000e+00 1.133182334899902344e+01 2.092885208129882812e+01 9.678202629089355469e+00 -2.860011339187622070e+00
1.860000000000000000e+02 2.408949661254882812e+01 -7.934491157531738281e+00 3.372100114822387695e+00 1.249908566474914551e+00 1.386602640151977539e+00 2.330685615539550781e+00
1.870000000000000000e+02 2.312730979919433594e+01 -7.466448307037353516e+00 5.151109695434570312e-01 1.375964730978012085e-01 1.958122402429580688e-01 3.047889173030853271e-01
1.880000000000000000e+02 2.330286407470703125e+01 -7.696542263031005859e+00 1.484253525733947754e+00 3.903424441814422607e-01 5.623787641525268555e-01 8.711014389991760254e-01
1.890000000000000000e+02 2.341356849670410156e+01 -6.645040512084960938e+00 -2.607198476791381836e+00 2.320876717567443848e-02 -7.751969099044799805e-01 1.854202151298522949e-01
1.900000000000000000e+02 2.321426200866699219e+01 -6.628204822540283203e+00 -2.707043409347534180e+00 -2.009560763835906982e-01 -8.723998069763183594e-01 2.955620288848876953e-01
1.910000000000000000e+02 2.570491790771484375e+01 -5.716533184051513672e+00 4.912598609924316406e+00 1.300413227081298828e+01 5.375019073486328125e+00 -8.089735984802246094e+00
1.920000000000000000e+02 2.690751838684082031e+01 -5.950904369354248047e+00 7.679352760314941406e+00 2.300534057617187500e+01 9.205408096313476562e+00 2.669637680053710938e+00
1.930000000000000000e+02 2.515109825134277344e+01 -5.266057014465332031e+00 4.157737255096435547e+00 6.887950897216796875e+00 3.313706398010253906e+00 -5.686521053314208984e+00
1.940000000000000000e+02 2.553055000305175781e+01 -5.298221111297607422e+00 3.817284822463989258e+00 1.048930263519287109e+01 4.291976451873779297e+00 -6.613943576812744141e+00
1.950000000000000000e+02 2.674250030517578125e+01 -7.647019386291503906e+00 6.079707145690917969e+00 2.378372764587402344e+01 8.959031105041503906e+00 -9.690067172050476074e-01
1.960000000000000000e+02 2.503093338012695312e+01 -6.983391761779785156e+00 1.644471049308776855e+00 1.696368008852005005e-01 5.442323684692382812e-01 9.542492628097534180e-01
1.970000000000000000e+02 2.709566879272460938e+01 -7.457602977752685547e+00 9.527499198913574219e+00 2.102596473693847656e+01 9.166039466857910156e+00 -2.570418119430541992e+00
1.980000000000000000e+02 2.490638542175292969e+01 -8.021372795104980469e+00 5.218751907348632812e+00 4.524909019470214844e+00 2.923098325729370117e+00 5.175762176513671875e+00
1.990000000000000000e+02 2.518610763549804688e+01 -7.798782825469970703e+00 6.053032875061035156e+00 5.399150848388671875e+00 3.435655117034912109e+00 6.117893695831298828e+00
2.000000000000000000e+02 2.690789031982421875e+01 -7.541980266571044922e+00 8.056629180908203125e+00 2.277627944946289062e+01 9.249872207641601562e+00 -2.268389940261840820e+00
2.010000000000000000e+02 2.612644767761230469e+01 -7.852667331695556641e+00 3.602271080017089844e+00 2.031160354614257812e+01 7.174162387847900391e+00 6.113474369049072266e+00
2.020000000000000000e+02 2.721248435974121094e+01 -6.924549102783203125e+00 1.435146141052246094e+01 1.893672752380371094e+01 9.986456871032714844e+00 -1.095850348472595215e+00
2.030000000000000000e+02 2.572099685668945312e+01 -5.338892459869384766e+00 3.464597463607788086e+00 1.315295982360839844e+01 4.985267162322998047e+00 -6.849020004272460938e+00
2.040000000000000000e+02 2.358725166320800781e+01 -5.130604267120361328e+00 1.941374897956848145e+00 1.262518048286437988e+00 9.611678719520568848e-01 -1.649923205375671387e+00
2.050000000000000000e+02 2.534044075012207031e+01 -5.279883861541748047e+00 4.048658847808837891e+00 8.555433273315429688e+00 3.781227827072143555e+00 -6.207851409912109375e+00
2.060000000000000000e+02 2.405268859863281250e+01 -6.129076004028320312e+00 2.711746692657470703e-01 2.374532669782638550e-01 1.525883823633193970e-01 -4.260607957839965820e-01
2.070000000000000000e+02 2.477406311035156250e+01 -5.495218276977539062e+00 4.170323371887207031e+00 3.186693668365478516e+00 2.207105159759521484e+00 -4.051688194274902344e+00
2.080000000000000000e+02 2.424037551879882812e+01 -6.426177501678466797e+00 -1.153188109397888184e+00 4.883933439850807190e-02 -3.313046097755432129e-01 -3.603681176900863647e-02
2.090000000000000000e+02 2.612869834899902344e+01 -5.372179031372070312e+00 2.476954221725463867e+00 1.832291603088378906e+01 6.239961147308349609e+00 -5.324793338775634766e+00
2.100000000000000000e+02 2.610467720031738281e+01 -8.103467941284179688e+00 3.176233291625976562e+00 1.807947349548339844e+01 6.376712322235107422e+00 5.707625865936279297e+00
2.110000000000000000e+02 2.629519653320312500e+01 -8.098566055297851562e+00 2.911533355712890625e+00 1.959009933471679688e+01 6.750489711761474609e+00 4.376364707946777344e+00
2.120000000000000000e+02 2.632545852661132812e+01 -5.390204429626464844e+00 2.371223211288452148e+00 2.005978775024414062e+01 6.729303359985351562e+00 -3.821442365646362305e+00
2.130000000000000000e+02 2.630641555786132812e+01 -5.641226291656494141e+00 2.899361848831176758e+00 2.237837028503417969e+01 7.583319187164306641e+00 -3.888657331466674805e+00
2.140000000000000000e+02 2.682972526550292969e+01 -5.536593437194824219e+00 4.188120841979980469e+00 2.173661804199218750e+01 7.777421474456787109e+00 6.140956878662109375e-01
2.150000000000000000e+02 2.694453430175781250e+01 -7.871000766754150391e+00 5.458117008209228516e+00 2.131333541870117188e+01 8.031435966491699219e+00 -1.086952328681945801e+00
2.160000000000000000e+02 2.707041168212890625e+01 -7.734121799468994141e+00 6.685436248779296875e+00 2.066596412658691406e+01 8.205420494079589844e+00 -1.799044609069824219e+00
2.170000000000000000e+02 2.647649955749511719e+01 -8.079488754272460938e+00 2.961136341094970703e+00 2.076183319091796875e+01 7.116890907287597656e+00 2.951783180236816406e+00
2.180000000000000000e+02 2.736020469665527344e+01 -6.081500530242919922e+00 1.025404357910156250e+01 1.892531776428222656e+01 8.753808021545410156e+00 3.065034151077270508e+00
2.190000000000000000e+02 2.746963310241699219e+01 -6.359952926635742188e+00 1.191637229919433594e+01 1.764092636108398438e+01 8.867189407348632812e+00 2.194942951202392578e+00
2.200000000000000000e+02 2.667408752441406250e+01 -5.661708831787109375e+00 4.144180774688720703e+00 2.302949142456054688e+01 8.152101516723632812e+00 -1.194353178143501282e-01
2.210000000000000000e+02 2.651124763488769531e+01 -5.422976016998291016e+00 2.627492189407348633e+00 2.085573196411132812e+01 7.044967174530029297e+00 -2.233425855636596680e+00
2.220000000000000000e+02 2.648093605041503906e+01 -7.857540130615234375e+00 3.789554834365844727e+00 2.284548377990722656e+01 7.990511417388916016e+00 2.378495931625366211e+00
2.230000000000000000e+02 2.736663055419921875e+01 -7.312311172485351562e+00 1.078969001770019531e+01 1.834819984436035156e+01 8.741367340087890625e+00 -2.316219091415405273e+00
2.240000000000000000e+02 2.746320915222167969e+01 -6.945219039916992188e+00 1.281130695343017578e+01 1.724048805236816406e+01 9.015538215637207031e+00 -9.053531885147094727e-01
2.250000000000000000e+02 2.745121192932128906e+01 -6.208352565765380859e+00 1.036692905426025391e+01 1.798607254028320312e+01 8.505900382995605469e+00 2.182664155960083008e+00
2.260000000000000000e+02 2.747933387756347656e+01 -6.748514175415039062e+00 1.313500785827636719e+01 1.707763862609863281e+01 9.063794136047363281e+00 1.807196438312530518e-01
2.270000000000000000e+02 2.723220062255859375e+01 -5.944303512573242188e+00 8.576944351196289062e+00 1.993428421020507812e+01 8.553368568420410156e+00 2.976334810256958008e+00
2.280000000000000000e+02 2.709847068786621094e+01 -5.787234306335449219e+00 6.828310966491699219e+00 2.080402565002441406e+01 8.289700508117675781e+00 2.518706798553466797e+00
2.290000000000000000e+02 2.742335319519042969e+01 -7.135154247283935547e+00 1.195256614685058594e+01 1.768059158325195312e+01 8.889946937561035156e+00 -1.743118762969970703e+00
2.300000000000000000e+02 2.665144920349121094e+01 -8.039011955261230469e+00 3.594931364059448242e+00 2.125829887390136719e+01 7.455969333648681641e+00 1.221464753150939941e+00
2.310000000000000000e+02 2.676731872558593750e+01 -5.823292732238769531e+00 5.551747798919677734e+00 2.383097076416015625e+01 8.814815521240234375e+00 1.292999982833862305e+00
2.320000000000000000e+02 2.721210479736328125e+01 -7.609846591949462891e+00 8.013665199279785156e+00 2.006179046630859375e+01 8.422636032104492188e+00 -2.419122934341430664e+00
2.330000000000000000e+02 2.444264030456542969e+01 -6.440178871154785156e+00 -9.504970908164978027e-01 1.838184893131256104e-02 -2.796345651149749756e-01 -7.533773034811019897e-02
2.340000000000000000e+02 2.333342552185058594e+01 -5.955829143524169922e+00 5.187787860631942749e-02 8.760647475719451904e-02 4.184530675411224365e-02 -1.202030479907989502e-01
2.350000000000000000e+02 2.469394111633300781e+01 -6.180506229400634766e+00 2.033990383148193359e+00 5.774881243705749512e-01 7.834435701370239258e-01 -1.282652974128723145e+00
2.360000000000000000e+02 2.510045433044433594e+01 -6.323733806610107422e+00 3.047895431518554688e+00 8.067626953125000000e-01 1.156397461891174316e+00 -1.772425174713134766e+00
2.370000000000000000e+02 2.484569549560546875e+01 -6.497999191284179688e+00 -4.856408536434173584e-01 9.936748445034027100e-02 -1.158820092678070068e-01 -1.417478322982788086e-01
2.380000000000000000e+02 2.429629898071289062e+01 -7.959731578826904297e+00 3.791864871978759766e+00 1.689784765243530273e+00 1.644494891166687012e+00 2.817106485366821289e+00
2.390000000000000000e+02 2.460918045043945312e+01 -6.748780250549316406e+00 -2.320685148239135742e+00 -5.335679277777671814e-02 -7.122125625610351562e-01 2.093209475278854370e-01
2.400000000000000000e+02 2.420414352416992188e+01 -6.735970497131347656e+00 -2.462517976760864258e+00 -3.094717301428318024e-02 -7.480395436286926270e-01 1.806418299674987793e-01
2.410000000000000000e+02 2.339370918273925781e+01 -7.031930923461914062e+00 -7.833681106567382812e-01 -9.511309862136840820e-02 -2.635443508625030518e-01 2.140519022941589355e-01
2.420000000000000000e+02 2.315722465515136719e+01 -7.253170490264892578e+00 -1.085561439394950867e-01 5.093960091471672058e-02 -1.728496141731739044e-02 2.413975894451141357e-01
2.430000000000000000e+02 2.469882011413574219e+01 -8.012638092041015625e+00 4.927599430084228516e+00 3.204171180725097656e+00 2.439531087875366211e+00 4.317043781280517578e+00
2.440000000000000000e+02 2.530192565917968750e+01 -8.077170372009277344e+00 5.189764499664306641e+00 7.566524982452392578e+00 3.826886892318725586e+00 6.526659488677978516e+00
2.450000000000000000e+02 2.387903022766113281e+01 -7.924604892730712891e+00 2.961316585540771484e+00 9.686433672904968262e-01 1.178987979888916016e+00 1.913342833518981934e+00
2.460000000000000000e+02 2.449695396423339844e+01 -7.992746829986572266e+00 4.349538326263427734e+00 2.206869602203369141e+00 1.966922402381896973e+00 3.395334959030151367e+00
2.470000000000000000e+02 2.568960762023925781e+01 -8.067302703857421875e+00 4.487297058105468750e+00 1.277108860015869141e+01 5.177515506744384766e+00 7.339802742004394531e+00
2.480000000000000000e+02 2.455717277526855469e+01 -7.775851249694824219e+00 4.218407630920410156e+00 1.797501444816589355e+00 1.804772734642028809e+00 3.078222274780273438e+00
2.490000000000000000e+02 2.590324211120605469e+01 -8.091692924499511719e+00 3.713951587677001953e+00 1.575560951232910156e+01 5.840868473052978516e+00 6.848606586456298828e+00
2.500000000000000000e+02 2.336313438415527344e+01 -5.735500335693359375e+00 6.004179716110229492e-01 3.280587196350097656e-01 2.785429954528808594e-01 -4.260961413383483887e-01
2.510000000000000000e+02 2.335716438293457031e+01 -5.523203372955322266e+00 1.205301165580749512e+00 5.232081413269042969e-01 5.185527801513671875e-01 -7.389105558395385742e-01
2.520000000000000000e+02 2.317341232299804688e+01 -7.044022083282470703e+00 -7.695271968841552734e-01 2.869496122002601624e-02 -2.222496718168258667e-01 8.786398917436599731e-02
2.530000000000000000e+02 2.396751976013183594e+01 -5.217272281646728516e+00 2.538035869598388672e+00 1.670831084251403809e+00 1.262660026550292969e+00 -2.234293937683105469e+00
2.540000000000000000e+02 2.552314758300781250e+01 -5.832959651947021484e+00 5.990334987640380859e+00 8.669781684875488281e+00 4.398035049438476562e+00 -7.589154720306396484e+00
2.550000000000000000e+02 2.481355094909667969e+01 -6.759419441223144531e+00 -2.192599534988403320e+00 4.252548515796661377e-02 -6.450222134590148926e-01 2.337788045406341553e-01
2.560000000000000000e+02 2.377526092529296875e+01 -5.161304950714111328e+00 2.221220254898071289e+00 1.556793928146362305e+00 1.133404254913330078e+00 -1.950450897216796875e+00
2.570000000000000000e+02 2.458013343811035156e+01 -5.243883132934570312e+00 3.806489467620849609e+00 3.391571283340454102e+00 2.159418344497680664e+00 -3.928424358367919922e+00
2.580000000000000000e+02 2.438394165039062500e+01 -5.235343933105468750e+00 3.426887750625610352e+00 2.704240560531616211e+00 1.839338541030883789e+00 -3.321025371551513672e+00
2.590000000000000000e+02 2.458349990844726562e+01 -5.523166179656982422e+00 3.703304529190063477e+00 2.495653867721557617e+00 1.859687447547912598e+00 -3.328955173492431641e+00
2.600000000000000000e+02 2.417546844482421875e+01 -5.241245269775390625e+00 2.977270603179931641e+00 2.015255212783813477e+00 1.497757792472839355e+00 -2.662914752960205078e+00
2.610000000000000000e+02 2.419778251647949219e+01 -5.529569625854492188e+00 2.600755691528320312e+00 1.449531674385070801e+00 1.215086221694946289e+00 -2.106125831604003906e+00
2.620000000000000000e+02 2.344547462463378906e+01 -6.398528099060058594e+00 -1.635348320007324219e+00 4.398310184478759766e-02 -4.774095714092254639e-01 1.530624032020568848e-01
2.630000000000000000e+02 2.383789634704589844e+01 -6.406614303588867188e+00 -1.462320923805236816e+00 2.105083875358104706e-02 -4.323810338973999023e-01 5.725127086043357849e-02
2.640000000000000000e+02 2.403843498229980469e+01 -6.414178371429443359e+00 -1.329124450683593750e+00 2.992263250052928925e-02 -3.897605538368225098e-01 1.771830208599567413e-02
2.650000000000000000e+02 2.477200317382812500e+01 -5.896030902862548828e+00 3.673191070556640625e+00 1.652235388755798340e+00 1.597627997398376465e+00 -2.816782474517822266e+00
2.660000000000000000e+02 2.380204582214355469e+01 -6.702051639556884766e+00 -2.531776428222656250e+00 -1.231673173606395721e-02 -7.632279396057128906e-01 1.971251964569091797e-01
2.670000000000000000e+02 2.414214134216308594e+01 -7.635474205017089844e+00 2.785401105880737305e+00 7.120903134346008301e-01 1.049247384071350098e+00 1.700829982757568359e+00
2.680000000000000000e+02 2.360826301574707031e+01 -6.671430587768554688e+00 -2.573341369628906250e+00 -2.446769177913665771e-02 -7.793427705764770508e-01 2.022682577371597290e-01
2.690000000000000000e+02 2.438370704650878906e+01 -7.002681255340576172e+00 -2.277272045612335205e-01 2.401534654200077057e-02 -6.111355870962142944e-02 3.616941869258880615e-01
2.700000000000000000e+02 2.511180686950683594e+01 -8.041371345520019531e+00 5.259531974792480469e+00 6.082045078277587891e+00 3.402473211288452148e+00 5.909133434295654297e+00
2.710000000000000000e+02 2.416497802734375000e+01 -7.322169780731201172e+00 1.587929248809814453e+00 2.273623496294021606e-01 5.445874929428100586e-01 9.236319065093994141e-01
2.720000000000000000e+02 2.309335708618164062e+01 -7.678164958953857422e+00 9.517763853073120117e-01 3.753362596035003662e-01 3.981337845325469971e-01 5.525488257408142090e-01
2.730000000000000000e+02 2.518458747863769531e+01 -7.398209095001220703e+00 6.292211055755615234e+00 2.754987239837646484e+00 2.714159488677978516e+00 4.715215206146240234e+00
2.740000000000000000e+02 2.508699607849121094e+01 -7.196238994598388672e+00 4.371431350708007812e+00 8.140236139297485352e-01 1.555636405944824219e+00 2.441132783889770508e+00
2.750000000000000000e+02 2.475759887695312500e+01 -7.182522773742675781e+00 2.631077289581298828e+00 2.850252687931060791e-01 8.748307228088378906e-01 1.407453417778015137e+00
2.760000000000000000e+02 2.469225311279296875e+01 -7.618337154388427734e+00 4.388509273529052734e+00 1.699092268943786621e+00 1.826280474662780762e+00 3.030012607574462891e+00
2.770000000000000000e+02 2.432735443115234375e+01 -5.724130630493164062e+00 2.490060567855834961e+00 1.183437824249267578e+00 1.102049469947814941e+00 -1.934709906578063965e+00
2.780000000000000000e+02 2.480057525634765625e+01 -6.993606090545654297e+00 8.883118033409118652e-01 -2.178327552974224091e-02 2.599585652351379395e-01 7.341823577880859375e-01
2.790000000000000000e+02 2.354678916931152344e+01 -6.903259754180908203e+00 -1.356182098388671875e+00 3.826028853654861450e-02 -3.953765630722045898e-01 1.840759664773941040e-01
2.800000000000000000e+02 2.367677497863769531e+01 -7.687101840972900391e+00 1.883964776992797852e+00 4.700642526149749756e-01 7.062087059020996094e-01 1.126543521881103516e+00
2.810000000000000000e+02 2.356591796875000000e+01 -7.530963420867919922e+00 1.369299530982971191e+00 2.430055439472198486e-01 4.836915135383605957e-01 7.725843191146850586e-01
2.820000000000000000e+02 2.528254318237304688e+01 -5.729628562927246094e+00 5.445766448974609375e+00 5.888237476348876953e+00 3.400201320648193359e+00 -6.092293739318847656e+00
2.830000000000000000e+02 2.453808212280273438e+01 -5.818212032318115234e+00 2.966063737869262695e+00 1.380606532096862793e+00 1.304001092910766602e+00 -2.301171541213989258e+00
2.840000000000000000e+02 2.425625228881835938e+01 -6.134619712829589844e+00 8.998420834541320801e-01 3.009440302848815918e-01 3.602358400821685791e-01 -7.176538109779357910e-01
2.850000000000000000e+02 2.416041564941406250e+01 -5.906210899353027344e+00 1.692288398742675781e+00 5.377864241600036621e-01 6.690224409103393555e-01 -1.153111457824707031e+00
2.860000000000000000e+02 2.453372955322265625e+01 -7.467948913574218750e+00 3.328457832336425781e+00 8.845468759536743164e-01 1.263901472091674805e+00 2.067730665206909180e+00
2.870000000000000000e+02 2.354831314086914062e+01 -6.024695873260498047e+00 -1.632169634103775024e-01 1.498438268899917603e-01 -4.011943470686674118e-03 -2.066643685102462769e-01
2.880000000000000000e+02 2.367251014709472656e+01 -7.925499916076660156e+00 2.519074916839599609e+00 6.449757814407348633e-01 9.492151737213134766e-01 1.504026651382446289e+00
2.890000000000000000e+02 2.389354705810546875e+01 -7.637730121612548828e+00 2.160803556442260742e+00 4.272534549236297607e-01 7.764170765876770020e-01 1.255155682563781738e+00
2.900000000000000000e+02 2.338160133361816406e+01 -6.847796916961669922e+00 -1.792096138000488281e+00 -7.795573770999908447e-02 -5.610155463218688965e-01 2.265479713678359985e-01
2.910000000000000000e+02 2.340504074096679688e+01 -7.248227119445800781e+00 1.300241891294717789e-02 6.193025410175323486e-02 2.247980237007141113e-02 3.252380788326263428e-01
2.920000000000000000e+02 2.437236213684082031e+01 -7.688718318939208984e+00 3.487885236740112305e+00 1.144155025482177734e+00 1.389612078666687012e+00 2.277642011642456055e+00
2.930000000000000000e+02 2.473403930664062500e+01 -7.797482967376708984e+00 4.898384571075439453e+00 2.403715133666992188e+00 2.190629959106445312e+00 3.775276184082031250e+00
2.940000000000000000e+02 2.318940925598144531e+01 -6.837720394134521484e+00 -1.733820199966430664e+00 -1.700730621814727783e-01 -5.711679458618164062e-01 1.527452617883682251e-01
2.950000000000000000e+02 2.373223686218261719e+01 -6.980828285217285156e+00 -9.331263303756713867e-01 -3.941302653402090073e-03 -2.811203002929687500e-01 2.181428521871566772e-01
2.960000000000000000e+02 2.400190162658691406e+01 -6.723628997802734375e+00 -2.492671966552734375e+00 -1.397230476140975952e-02 -7.519932985305786133e-01 1.966114491224288940e-01
2.970000000000000000e+02 2.395370864868164062e+01 -7.014563083648681641e+00 -6.008813381195068359e-01 2.472701668739318848e-02 -1.728462874889373779e-01 2.629521191120147705e-01
2.980000000000000000e+02 2.440669441223144531e+01 -6.742531299591064453e+00 -2.408293008804321289e+00 3.531023114919662476e-02 -7.118948698043823242e-01 2.115617394447326660e-01
2.990000000000000000e+02 2.458816719055175781e+01 -6.982435226440429688e+00 3.621623292565345764e-02 2.028882950544357300e-01 7.173135876655578613e-02 5.598576068878173828e-01
3.000000000000000000e+02 2.347124862670898438e+01 -6.200025558471679688e+00 -8.392114043235778809e-01 3.096071071922779083e-02 -2.424752116203308105e-01 1.284948643296957016e-02
3.010000000000000000e+02 2.383747673034667969e+01 -6.130577564239501953e+00 -7.516624778509140015e-02 1.252763420343399048e-01 1.503302901983261108e-02 -2.780573666095733643e-01
3.020000000000000000e+02 2.362681388854980469e+01 -5.660874843597412109e+00 1.241938233375549316e+00 4.925882220268249512e-01 5.203579664230346680e-01 -8.309094905853271484e-01
3.030000000000000000e+02 2.354845046997070312e+01 -5.318283557891845703e+00 1.764011502265930176e+00 1.055218815803527832e+00 8.457691073417663574e-01 -1.384875655174255371e+00
3.040000000000000000e+02 2.369855308532714844e+01 -5.363309383392333984e+00 1.922953009605407715e+00 1.036004066467285156e+00 8.876871466636657715e-01 -1.509039878845214844e+00
3.050000000000000000e+02 2.384429740905761719e+01 -5.482399940490722656e+00 2.024672269821166992e+00 1.078090786933898926e+00 9.308289289474487305e-01 -1.566848158836364746e+00
3.060000000000000000e+02 2.399303054809570312e+01 -5.689158916473388672e+00 1.906711101531982422e+00 8.350642919540405273e-01 8.225325942039489746e-01 -1.397360920906066895e+00
3.070000000000000000e+02 2.477113342285156250e+01 -5.247525691986083984e+00 4.041103363037109375e+00 4.124113559722900391e+00 2.449565172195434570e+00 -4.466605186462402344e+00
3.080000000000000000e+02 2.496146202087402344e+01 -5.252921104431152344e+00 4.158725738525390625e+00 5.405428409576416016e+00 2.869246244430541992e+00 -5.186545848846435547e+00
3.090000000000000000e+02 2.548554801940917969e+01 -8.075156211853027344e+00 4.999644756317138672e+00 1.012301445007324219e+01 4.536797523498535156e+00 7.274168491363525391e+00
3.100000000000000000e+02 2.495452880859375000e+01 -7.768475532531738281e+00 5.624042510986328125e+00 3.551340818405151367e+00 2.752614974975585938e+00 4.828214168548583984e+00
3.110000000000000000e+02 2.572226715087890625e+01 -7.795798778533935547e+00 5.444521903991699219e+00 1.326595497131347656e+01 5.613142967224121094e+00 8.297044754028320312e+00
3.120000000000000000e+02 2.681496238708496094e+01 -7.976625919342041016e+00 4.274678707122802734e+00 2.095772552490234375e+01 7.569721221923828125e+00 2.341440171003341675e-01
3.130000000000000000e+02 2.678918838500976562e+01 -7.822149753570556641e+00 5.132560729980468750e+00 2.222668266296386719e+01 8.207773208618164062e+00 -3.529696762561798096e-01
3.140000000000000000e+02 2.668339729309082031e+01 -5.461238384246826172e+00 3.065247058868408203e+00 2.162177276611328125e+01 7.406105518341064453e+00 -9.288151264190673828e-01
3.150000000000000000e+02 2.592243957519531250e+01 -5.367407321929931641e+00 2.979901552200317383e+00 1.585697174072265625e+01 5.651062011718750000e+00 -6.413874149322509766e+00
3.160000000000000000e+02 2.561899185180664062e+01 -5.555021286010742188e+00 4.495821952819824219e+00 1.185272979736328125e+01 4.904565811157226562e+00 -7.390738964080810547e+00
3.170000000000000000e+02 2.547307586669921875e+01 -5.498239517211914062e+00 4.485524177551269531e+00 9.540329933166503906e+00 4.207756042480468750e+00 -6.888909339904785156e+00
3.180000000000000000e+02 2.447269630432128906e+01 -6.129519462585449219e+00 1.489687204360961914e+00 3.551829457283020020e-01 5.534610748291015625e-01 -9.764458537101745605e-01
3.190000000000000000e+02 2.490303421020507812e+01 -6.244921684265136719e+00 2.560734987258911133e+00 5.373845696449279785e-01 9.294358491897583008e-01 -1.507199287414550781e+00
3.200000000000000000e+02 2.499713325500488281e+01 -5.991125106811523438e+00 4.566807270050048828e+00 2.220899105072021484e+00 2.036311864852905273e+00 -3.515703201293945312e+00
3.210000000000000000e+02 2.546635818481445312e+01 -5.667987823486328125e+00 5.432697772979736328e+00 8.936898231506347656e+00 4.310878753662109375e+00 -7.285984516143798828e+00
3.220000000000000000e+02 2.492787361145019531e+01 -7.523276329040527344e+00 5.164222240447998047e+00 2.106998443603515625e+00 2.181366205215454102e+00 3.716183900833129883e+00
3.230000000000000000e+02 2.363878440856933594e+01 -6.191669940948486328e+00 -5.650411248207092285e-01 1.535256057977676392e-01 -1.234546601772308350e-01 -7.398087531328201294e-02
3.240000000000000000e+02 2.349352455139160156e+01 -7.719538688659667969e+00 1.703602552413940430e+00 4.130545854568481445e-01 6.349971294403076172e-01 1.009271621704101562e+00
3.250000000000000000e+02 2.335418319702148438e+01 -7.483445644378662109e+00 7.933557033538818359e-01 1.912783086299896240e-01 2.953901886940002441e-01 4.918289780616760254e-01
3.260000000000000000e+02 2.365762710571289062e+01 -7.282590389251708984e+00 4.477966725826263428e-01 7.605533301830291748e-02 1.571556031703948975e-01 4.925994277000427246e-01
3.270000000000000000e+02 2.374868392944335938e+01 -5.873589992523193359e+00 8.589233160018920898e-01 3.228846788406372070e-01 3.545423746109008789e-01 -6.016583442687988281e-01
3.280000000000000000e+02 2.459405899047851562e+01 -7.182818889617919922e+00 1.916232228279113770e+00 2.534694075584411621e-01 6.509104967117309570e-01 9.320420026779174805e-01
3.290000000000000000e+02 2.486118888854980469e+01 -7.309833049774169922e+00 3.777536392211914062e+00 8.314326405525207520e-01 1.382690668106079102e+00 2.263072967529296875e+00
3.300000000000000000e+02 2.438582420349121094e+01 -5.499052047729492188e+00 3.284245252609252930e+00 1.902070879936218262e+00 1.555894851684570312e+00 -2.763762712478637695e+00
3.310000000000000000e+02 2.494329071044921875e+01 -5.471147537231445312e+00 4.642730712890625000e+00 4.463334083557128906e+00 2.731819391250610352e+00 -4.920368194580078125e+00
3.320000000000000000e+02 2.507738876342773438e+01 -5.735468387603759766e+00 4.924258232116699219e+00 4.024474143981933594e+00 2.684619665145874023e+00 -4.877825260162353516e+00
3.330000000000000000e+02 2.511727523803710938e+01 -5.491522789001464844e+00 4.762424945831298828e+00 5.808115482330322266e+00 3.171162128448486328e+00 -5.666438579559326172e+00
3.340000000000000000e+02 2.468199348449707031e+01 -7.319375514984130859e+00 3.390429258346557617e+00 8.567278385162353516e-01 1.274147152900695801e+00 1.994222164154052734e+00
3.350000000000000000e+02 2.662817573547363281e+01 -7.864320755004882812e+00 4.256284713745117188e+00 2.252770996093750000e+01 8.035198211669921875e+00 9.886628389358520508e-01
3.360000000000000000e+02 2.529909515380859375e+01 -5.496937274932861328e+00 4.666253089904785156e+00 7.478821754455566406e+00 3.643522500991821289e+00 -6.322278976440429688e+00
3.370000000000000000e+02 2.391003036499023438e+01 -7.325641632080078125e+00 1.051393270492553711e+00 2.039598673582077026e-01 3.766059577465057373e-01 7.332961559295654297e-01
3.380000000000000000e+02 2.440389633178710938e+01 -7.264183998107910156e+00 1.883089661598205566e+00 2.779515385627746582e-01 6.483123898506164551e-01 1.067200899124145508e+00
3.390000000000000000e+02 2.263713264465332031e+01 -6.033040523529052734e+00 -1.042963624000549316e+00 -6.979404389858245850e-02 -3.338272869586944580e-01 1.855903118848800659e-01
3.400000000000000000e+02 2.167052650451660156e+01 -6.020077228546142578e+00 -1.261589527130126953e+00 -4.851567745208740234e-02 -3.930315673351287842e-01 2.815354764461517334e-01
3.410000000000000000e+02 2.290124320983886719e+01 -5.936399459838867188e+00 -4.455011487007141113e-01 2.138372063636779785e-01 -6.949917972087860107e-02 -3.892238438129425049e-02
3.420000000000000000e+02 2.116777038574218750e+01 -5.870244979858398438e+00 -9.634980559349060059e-01 -4.784996435046195984e-02 -3.034043908119201660e-01 2.813350856304168701e-01
3.430000000000000000e+02 2.290783500671386719e+01 -5.686704158782958984e+00 1.600458323955535889e-01 2.990414500236511230e-01 1.377261877059936523e-01 -3.128282427787780762e-01
3.440000000000000000e+02 2.307621574401855469e+01 -5.330389499664306641e+00 1.141261696815490723e+00 3.371534347534179688e-01 4.435245394706726074e-01 -7.929880023002624512e-01
3.450000000000000000e+02 2.076021766662597656e+01 -4.960482120513916016e+00 7.856840640306472778e-02 6.414215895347297192e-04 2.376294694840908051e-02 1.841973662376403809e-01
3.460000000000000000e+02 2.058761405944824219e+01 -5.681979179382324219e+00 -7.355375885963439941e-01 -5.147201195359230042e-02 -2.361028790473937988e-01 2.750204503536224365e-01
3.470000000000000000e+02 2.220288467407226562e+01 -6.071896553039550781e+00 -1.367546916007995605e+00 -2.221038192510604858e-02 -4.169271886348724365e-01 2.549201548099517822e-01
3.480000000000000000e+02 2.309551429748535156e+01 -5.544627666473388672e+00 7.392857074737548828e-01 2.600659728050231934e-01 2.998055219650268555e-01 -5.880118608474731445e-01
3.490000000000000000e+02 2.309773254394531250e+01 -5.930453777313232422e+00 -1.681049019098281860e-01 2.270169854164123535e-01 1.767362281680107117e-02 -9.464540332555770874e-02
3.500000000000000000e+02 2.305010032653808594e+01 -6.109355926513671875e+00 -7.526203989982604980e-01 2.031377255916595459e-01 -1.648447960615158081e-01 7.127410918474197388e-02
3.510000000000000000e+02 2.292115783691406250e+01 -6.309176445007324219e+00 -1.626466989517211914e+00 7.318896241486072540e-03 -4.857444465160369873e-01 2.765678465366363525e-01
3.520000000000000000e+02 2.311587333679199219e+01 -5.737153530120849609e+00 3.131834864616394043e-01 1.178667694330215454e-01 1.293150782585144043e-01 -2.273555099964141846e-01
3.530000000000000000e+02 2.260722541809082031e+01 -5.616830825805664062e+00 4.838166013360023499e-02 1.384652256965637207e-01 5.605406686663627625e-02 -1.977372169494628906e-01
3.540000000000000000e+02 2.302439498901367188e+01 -5.079588413238525391e+00 1.442251920700073242e+00 6.941490769386291504e-01 6.409202814102172852e-01 -1.021452665328979492e+00
3.550000000000000000e+02 2.157893371582031250e+01 -5.578413963317871094e+00 -4.790568947792053223e-01 2.259694272652268410e-03 -1.430391669273376465e-01 1.797956377267837524e-01
3.560000000000000000e+02 2.269265937805175781e+01 -5.231575012207031250e+00 9.492615461349487305e-01 5.105292797088623047e-01 4.379372596740722656e-01 -5.784999132156372070e-01
3.570000000000000000e+02 2.218669509887695312e+01 -5.078556537628173828e+00 6.621905565261840820e-01 3.472592532634735107e-01 3.028349280357360840e-01 -3.748034834861755371e-01
3.580000000000000000e+02 2.214572143554687500e+01 -5.571571350097656250e+00 -8.088213205337524414e-02 1.240406781435012817e-01 1.294756215065717697e-02 1.035249326378107071e-02
3.590000000000000000e+02 2.149950981140136719e+01 -5.029152393341064453e+00 2.891187965869903564e-01 1.960497796535491943e-01 1.455505788326263428e-01 -2.512359619140625000e-02
3.600000000000000000e+02 1.905580329895019531e+01 -4.613489627838134766e+00 -6.255099922418594360e-02 -2.930261790752410889e-01 -1.066731512546539307e-01 2.531575262546539307e-01
3.610000000000000000e+02 1.992511749267578125e+01 -4.797539234161376953e+00 1.538893114775419235e-02 -3.680481389164924622e-02 -6.424765102565288544e-03 2.960184216499328613e-01
3.620000000000000000e+02 1.847771644592285156e+01 -4.667171001434326172e+00 -1.918864063918590546e-02 -3.058130145072937012e-01 -9.750049561262130737e-02 4.535814002156257629e-02
3.630000000000000000e+02 1.978026580810546875e+01 -5.523462295532226562e+00 -4.221735000610351562e-01 -7.302083820104598999e-02 -1.485583037137985229e-01 2.457087188959121704e-01
3.640000000000000000e+02 1.890536689758300781e+01 -5.338151454925537109e+00 -7.778301090002059937e-02 -8.782105147838592529e-02 -4.968122020363807678e-02 1.390281021595001221e-01
3.650000000000000000e+02 1.866776466369628906e+01 -5.977191448211669922e+00 -1.123999431729316711e-01 1.143422559835016727e-03 -3.337695822119712830e-02 -5.540107563138008118e-02
3.660000000000000000e+02 1.915827560424804688e+01 -6.702631473541259766e+00 -4.913451671600341797e-01 7.012640684843063354e-02 -1.263656318187713623e-01 -2.562459707260131836e-01
3.670000000000000000e+02 1.907854652404785156e+01 -6.264052391052246094e+00 -3.286117613315582275e-01 7.745601236820220947e-02 -7.534672319889068604e-02 -1.508503556251525879e-01
3.680000000000000000e+02 1.961295318603515625e+01 -7.181979179382324219e+00 -3.900041282176971436e-01 1.120841801166534424e-01 -8.337599039077758789e-02 -3.460983335971832275e-01
3.690000000000000000e+02 1.970428848266601562e+01 -6.719318389892578125e+00 -5.574393272399902344e-01 1.285113245248794556e-01 -1.286783963441848755e-01 -2.747319042682647705e-01
3.700000000000000000e+02 1.970807647705078125e+01 -6.197409629821777344e+00 -6.400851011276245117e-01 2.106548659503459930e-02 -1.857058852910995483e-01 -1.340352650731801987e-02
3.710000000000000000e+02 1.873244667053222656e+01 -6.836939334869384766e+00 -3.466212153434753418e-01 2.128154970705509186e-02 -9.760189801454544067e-02 -3.106566667556762695e-01
3.720000000000000000e+02 1.902582359313964844e+01 -7.075485229492187500e+00 -3.255468904972076416e-01 6.481682509183883667e-02 -7.821901887655258179e-02 -3.355959951877593994e-01
3.730000000000000000e+02 1.827340888977050781e+01 -6.938152313232421875e+00 -2.752259969711303711e-01 -2.328453660011291504e-01 -1.524214148521423340e-01 -3.316081166267395020e-01
3.740000000000000000e+02 1.866379928588867188e+01 -6.453208446502685547e+00 -2.801602780818939209e-01 -8.728128671646118164e-02 -1.102324649691581726e-01 -2.380372732877731323e-01
3.750000000000000000e+02 1.795946693420410156e+01 -6.885802745819091797e+00 -1.298072468489408493e-02 -3.731957376003265381e-01 -1.158529371023178101e-01 -1.820846349000930786e-01
3.760000000000000000e+02 1.828892326354980469e+01 -6.633300304412841797e+00 -2.229511439800262451e-01 -6.840091943740844727e-02 -8.740561455488204956e-02 -2.067502588033676147e-01
3.770000000000000000e+02 1.811682510375976562e+01 -6.392295837402343750e+00 -8.438636362552642822e-02 -1.454527229070663452e-01 -6.895172595977783203e-02 -1.024087145924568176e-01
3.780000000000000000e+02 1.824081039428710938e+01 -8.448477745056152344e+00 -1.133388355374336243e-01 -2.083436846733093262e-01 -9.650475531816482544e-02 -3.096544742584228516e-01
3.790000000000000000e+02 1.886762428283691406e+01 -7.673752307891845703e+00 -2.043543010950088501e-01 1.011425349861383438e-02 -5.827201157808303833e-02 -3.652057647705078125e-01
3.800000000000000000e+02 1.708870697021484375e+01 -9.291653633117675781e+00 -2.003991752862930298e-01 -7.064846158027648926e-01 -2.720651328563690186e-01 -3.933972716331481934e-01
3.810000000000000000e+02 1.497897052764892578e+01 -1.272411441802978516e+01 -4.060001298785209656e-02 -2.874931991100311279e-01 -9.842795878648757935e-02 -1.150829643011093140e-01
3.820000000000000000e+02 1.235490417480468750e+01 -1.598670673370361328e+01 -9.453564137220382690e-02 -4.436580836772918701e-02 -4.167043417692184448e-02 -4.334615916013717651e-02
3.830000000000000000e+02 1.414352512359619141e+01 -1.569752502441406250e+01 1.339981406927108765e-01 2.691501677036285400e-01 1.209444925189018250e-01 2.556493282318115234e-01
3.840000000000000000e+02 1.426722335815429688e+01 -2.307802391052246094e+01 2.071257680654525757e-01 1.562771081924438477e+00 5.309690833091735840e-01 7.573222517967224121e-01
3.850000000000000000e+02 1.617213630676269531e+01 -3.473003005981445312e+01 -2.680884599685668945e-01 2.867235183715820312e+00 7.797439694404602051e-01 3.702456951141357422e-01
3.860000000000000000e+02 1.790993118286132812e+01 -4.054827117919921875e+01 -4.317210912704467773e-01 3.351069450378417969e+00 8.758044838905334473e-01 1.071790605783462524e-01
3.870000000000000000e+02 2.281454658508300781e+01 -4.088882827758789062e+01 -7.125438451766967773e-01 4.688159942626953125e+00 1.192684888839721680e+00 8.097752928733825684e-02
3.880000000000000000e+02 1.940362167358398438e+01 -3.680615234375000000e+01 -4.696868062019348145e-01 3.729257583618164062e+00 9.778711795806884766e-01 3.166395127773284912e-01
3.890000000000000000e+02 2.282477188110351562e+01 -3.113036537170410156e+01 -5.767868757247924805e-01 4.721424579620361328e+00 1.243391394615173340e+00 6.927384734153747559e-01
3.900000000000000000e+02 2.254000854492187500e+01 -2.123938751220703125e+01 -1.885472387075424194e-01 4.907939910888671875e+00 1.415817737579345703e+00 1.543180227279663086e+00
3.910000000000000000e+02 2.086222267150878906e+01 -1.585438346862792969e+01 6.256737709045410156e-01 3.428990364074707031e+00 1.216399192810058594e+00 1.947245955467224121e+00
3.920000000000000000e+02 1.327557182312011719e+01 -1.492760658264160156e+01 -3.420491889119148254e-02 -5.524651333689689636e-02 -2.683543041348457336e-02 -4.139888286590576172e-02
3.930000000000000000e+02 1.138230705261230469e+01 -1.703514671325683594e+01 -1.731286793947219849e-01 -4.408648237586021423e-02 -6.516455113887786865e-02 -9.693080186843872070e-02
3.940000000000000000e+02 1.026800537109375000e+01 -1.805853271484375000e+01 -4.385858774185180664e-01 -7.741121947765350342e-02 -1.547991186380386353e-01 -8.537369966506958008e-02
3.950000000000000000e+02 8.971208572387695312e+00 -1.850660133361816406e+01 -5.075089931488037109e-01 -8.891423046588897705e-02 -1.789269596338272095e-01 2.103341277688741684e-03
3.960000000000000000e+02 7.160854816436767578e+00 -1.725413131713867188e+01 -1.983118653297424316e-01 -1.561218593269586563e-02 -6.417721509933471680e-02 5.045391246676445007e-02
3.970000000000000000e+02 6.369253635406494141e+00 -1.625479507446289062e+01 -3.630834072828292847e-02 -4.554990213364362717e-03 -1.225899998098611832e-02 2.669082395732402802e-02
3.980000000000000000e+02 7.082828044891357422e+00 -1.510078811645507812e+01 6.541157141327857971e-03 2.026909962296485901e-02 8.043076843023300171e-03 -2.324301982298493385e-03
3.990000000000000000e+02 8.844849586486816406e+00 -1.149419212341308594e+01 -2.113410271704196930e-03 3.358445246703922749e-04 -5.332697182893753052e-04 2.358940895646810532e-03
4.000000000000000000e+02 9.635329246520996094e+00 -1.033345127105712891e+01 1.536284224130213261e-03 1.694872393272817135e-03 9.693469619378447533e-04 -9.551484254188835621e-04
4.010000000000000000e+02 1.215088367462158203e+01 -7.060134410858154297e+00 -8.010258316062390804e-04 -2.650242822710424662e-04 -3.198150370735675097e-04 4.448824620340019464e-04
4.020000000000000000e+02 1.173768043518066406e+01 -2.756092548370361328e+00 -4.768855869770050049e-04 4.118471406400203705e-04 -1.951153353729750961e-05 3.760099643841385841e-04
4.030000000000000000e+02 1.226921558380126953e+01 -4.651251792907714844e+00 5.379655631259083748e-04 1.411366974934935570e-04 2.037306694546714425e-04 -4.890566342510282993e-04
4.040000000000000000e+02 1.105321121215820312e+01 -1.915256023406982422e+00 -2.513220824766904116e-04 2.236352156614884734e-04 -8.306059498863760382e-06 3.829472989309579134e-04
4.050000000000000000e+02 4.281933307647705078e+00 -1.940243840217590332e+00 -8.774451998760923743e-05 -1.093879654945340008e-05 -2.960499477921985090e-05 -2.830612065736204386e-04
4.060000000000000000e+02 1.642990827560424805e+00 -1.464299678802490234e+01 -2.275645267218351364e-03 -5.274785798974335194e-04 -8.409371366724371910e-04 4.033616860397160053e-04
4.070000000000000000e+02 4.546966075897216797e+00 -1.811617469787597656e+01 -1.050294265151023865e-01 3.808094933629035950e-02 -2.008454315364360809e-02 -8.773236721754074097e-02
4.080000000000000000e+02 6.827574372291564941e-01 -2.479016304016113281e+01 3.894087392836809158e-03 -3.626274168491363525e-01 -1.076200008392333984e-01 -3.141944110393524170e-02
4.090000000000000000e+02 7.853167653083801270e-01 -3.189279937744140625e+01 2.713274676352739334e-03 -5.032675862312316895e-01 -1.501663029193878174e-01 4.171269014477729797e-03
4.100000000000000000e+02 2.856565237045288086e+00 -3.789382553100585938e+01 2.893406525254249573e-02 -7.856767624616622925e-02 -1.489008311182260513e-02 9.172080457210540771e-02
4.110000000000000000e+02 8.141015172004699707e-01 -3.728336715698242188e+01 1.316079962998628616e-02 -3.855385184288024902e-01 -1.117133125662803650e-01 4.409331455826759338e-02
4.120000000000000000e+02 8.955201148986816406e+00 -3.797389221191406250e+01 -7.510551810264587402e-02 1.215043902397155762e+00 3.419815301895141602e-01 7.148935645818710327e-02
4.130000000000000000e+02 7.928327560424804688e+00 -3.310345077514648438e+01 1.171939261257648468e-02 9.072124361991882324e-01 2.756795585155487061e-01 1.447219550609588623e-01
4.140000000000000000e+02 1.012947940826416016e+01 -2.529246139526367188e+01 2.032538503408432007e-01 7.995572686195373535e-01 3.008433282375335693e-01 2.770475447177886963e-01
4.150000000000000000e+02 1.060411739349365234e+01 -2.225294494628906250e+01 2.007764428853988647e-01 5.617454648017883301e-01 2.287565767765045166e-01 2.558332383632659912e-01
4.160000000000000000e+02 6.606303453445434570e-01 -2.336995124816894531e+01 6.458334974013268948e-05 -2.915335595607757568e-01 -8.744069933891296387e-02 -3.569054603576660156e-02
4.170000000000000000e+02 1.254779720306396484e+01 -2.000137567520141602e+00 -3.286938226665370166e-05 1.421681954525411129e-04 3.278964504715986550e-05 6.223301170393824577e-05
4.180000000000000000e+02 2.764287948608398438e+01 -4.100148773193359375e+01 -9.477312564849853516e-01 5.807092666625976562e+00 1.457808494567871094e+00 5.987641215324401855e-02
4.190000000000000000e+02 2.781617927551269531e+01 -2.939632987976074219e+01 -8.539247512817382812e-01 6.238663673400878906e+00 1.615421652793884277e+00 5.399971604347229004e-01
4.200000000000000000e+02 2.918648719787597656e+01 -2.472293472290039062e+01 -8.210778832435607910e-01 7.001869201660156250e+00 1.854237318038940430e+00 6.180712580680847168e-01
4.210000000000000000e+02 2.761431884765625000e+01 -1.909801292419433594e+01 -5.523816347122192383e-01 7.629519462585449219e+00 2.123141288757324219e+00 1.089119076728820801e+00
4.220000000000000000e+02 3.737500381469726562e+01 -4.069264221191406250e+01 -1.108389854431152344e+00 7.373884201049804688e+00 1.879648327827453613e+00 -1.405951939523220062e-02
4.230000000000000000e+02 3.692389297485351562e+01 -3.142835235595703125e+01 -9.958194494247436523e-01 7.558169364929199219e+00 1.968704938888549805e+00 -1.015931963920593262e-01
4.240000000000000000e+02 3.295704650878906250e+01 -2.289347076416015625e+01 -7.195155620574951172e-01 7.972792625427246094e+00 2.175983190536499023e+00 2.694026753306388855e-02
4.250000000000000000e+02 3.376270675659179688e+01 -2.130977439880371094e+01 -5.525694489479064941e-01 8.277895927429199219e+00 2.317598104476928711e+00 -1.708448827266693115e-01
4.260000000000000000e+02 3.258895874023437500e+01 4.223849773406982422e+00 8.456165343523025513e-02 8.958879470825195312e+00 2.713032245635986328e+00 -3.399533405900001526e-02
4.270000000000000000e+02 3.557431030273437500e+01 1.007693099975585938e+01 -1.152556464076042175e-01 7.993017196655273438e+00 2.363328456878662109e+00 8.584488183259963989e-02
4.280000000000000000e+02 3.356964111328125000e+01 1.591197299957275391e+01 -3.381812870502471924e-01 7.238432407379150391e+00 2.070075273513793945e+00 -1.479359418153762817e-01
4.290000000000000000e+02 3.695754241943359375e+01 2.677461433410644531e+01 -7.118636965751647949e-01 6.936258792877197266e+00 1.867318511009216309e+00 1.018673852086067200e-01
4.300000000000000000e+02 4.102020645141601562e+01 3.341341400146484375e+01 -7.797726988792419434e-01 7.111191749572753906e+00 1.899425745010375977e+00 1.336489170789718628e-01
4.310000000000000000e+02 3.740074157714843750e+01 4.077797698974609375e+01 -8.776844143867492676e-01 6.723707199096679688e+00 1.753806829452514648e+00 1.008789800107479095e-02
4.320000000000000000e+02 3.254840469360351562e+01 4.077948760986328125e+01 -8.810885548591613770e-01 6.182203769683837891e+00 1.590334534645080566e+00 -7.928712293505668640e-03
4.330000000000000000e+02 3.316951370239257812e+01 2.995602035522460938e+01 -7.747938632965087891e-01 6.439255714416503906e+00 1.699338555335998535e+00 -3.831585869193077087e-02
4.340000000000000000e+02 2.858640670776367188e+01 1.679571723937988281e+01 -1.916028559207916260e-01 6.488228321075439453e+00 1.888987541198730469e+00 -5.267516970634460449e-01
4.350000000000000000e+02 2.709472274780273438e+01 1.101117134094238281e+01 9.731441736221313477e-02 6.736945152282714844e+00 2.050277948379516602e+00 -1.089550018310546875e+00
4.360000000000000000e+02 2.637568283081054688e+01 3.944865465164184570e+00 -1.697672903537750244e-01 7.837084770202636719e+00 2.300195217132568359e+00 -1.914870500564575195e+00
4.370000000000000000e+02 2.714868927001953125e+01 -5.460175037384033203e+00 4.837688922882080078e+00 1.968812751770019531e+01 7.357744693756103516e+00 1.558957815170288086e+00
4.380000000000000000e+02 4.246705627441406250e+01 -4.061003875732421875e+01 -1.026083469390869141e+00 7.757796287536621094e+00 2.019513845443725586e+00 -5.102882161736488342e-02
4.390000000000000000e+02 3.651292419433593750e+01 -3.742094039916992188e+01 -1.098984241485595703e+00 7.319857120513916016e+00 1.866261959075927734e+00 -9.890594519674777985e-03
4.400000000000000000e+02 4.445459365844726562e+01 -3.039893531799316406e+01 -7.122965455055236816e-01 7.985058307647705078e+00 2.181828498840332031e+00 -4.071072041988372803e-01
4.410000000000000000e+02 3.992232513427734375e+01 -2.364246559143066406e+01 -4.332462847232818604e-01 8.160700798034667969e+00 2.318236112594604492e+00 -5.663827061653137207e-01
4.420000000000000000e+02 4.042681121826171875e+01 -2.125201988220214844e+01 -1.230508238077163696e-01 8.232690811157226562e+00 2.432892084121704102e+00 -7.128364443778991699e-01
4.430000000000000000e+02 4.121168518066406250e+01 -1.043809795379638672e+01 1.787330865859985352e+00 7.940286159515380859e+00 2.918285131454467773e+00 -5.959628224372863770e-01
4.440000000000000000e+02 4.010673522949218750e+01 -1.994629144668579102e+00 1.815516471862792969e+00 8.093653678894042969e+00 2.972751140594482422e+00 6.137923598289489746e-01
4.450000000000000000e+02 4.043110275268554688e+01 5.491439819335937500e+00 5.177224874496459961e-01 8.195135116577148438e+00 2.613857269287109375e+00 6.752634048461914062e-01
4.460000000000000000e+02 4.015391540527343750e+01 1.244030094146728516e+01 -1.198942512273788452e-01 7.864008903503417969e+00 2.323234319686889648e+00 4.123863279819488525e-01
4.470000000000000000e+02 4.339674758911132812e+01 1.515333366394042969e+01 -1.967458724975585938e-01 7.749636650085449219e+00 2.265867233276367188e+00 4.936690330505371094e-01
4.480000000000000000e+02 4.162369918823242188e+01 3.706332397460937500e+01 -8.115915656089782715e-01 7.110944747924804688e+00 1.889805912971496582e+00 8.074331283569335938e-02
4.490000000000000000e+02 4.222217941284179688e+01 4.070052719116210938e+01 -8.222448229789733887e-01 7.134246826171875000e+00 1.893600583076477051e+00 2.743693627417087555e-02
4.500000000000000000e+02 4.752382659912109375e+01 -4.078350067138671875e+01 -8.588594794273376465e-01 7.963528156280517578e+00 2.131400585174560547e+00 -6.715003401041030884e-02
4.510000000000000000e+02 4.767943572998046875e+01 -3.733867645263671875e+01 -8.141447305679321289e-01 7.964218616485595703e+00 2.145022153854370117e+00 -1.919502317905426025e-01
4.520000000000000000e+02 4.793133926391601562e+01 -3.070975112915039062e+01 -5.925638079643249512e-01 7.995700836181640625e+00 2.220941066741943359e+00 -4.315570592880249023e-01
4.530000000000000000e+02 4.957810974121093750e+01 -2.207846450805664062e+01 3.408163413405418396e-02 7.919677734375000000e+00 2.386127710342407227e+00 -6.623625159263610840e-01
4.540000000000000000e+02 4.948155212402343750e+01 -1.471150588989257812e+01 7.005792856216430664e-01 7.731840610504150391e+00 2.529726028442382812e+00 -5.757500529289245605e-01
4.550000000000000000e+02 5.068736267089843750e+01 -9.377056121826171875e+00 1.018766999244689941e+00 7.567098617553710938e+00 2.575759649276733398e+00 -2.268058955669403076e-01
4.560000000000000000e+02 5.017304611206054688e+01 -2.080789327621459961e+00 1.014295935630798340e+00 7.582484722137451172e+00 2.579034090042114258e+00 3.121878802776336670e-01
4.570000000000000000e+02 5.035383987426757812e+01 3.128457546234130859e+00 7.047222256660461426e-01 7.670300006866455078e+00 2.512506723403930664e+00 5.653727054595947266e-01
4.580000000000000000e+02 4.674505615234375000e+01 1.046507167816162109e+01 1.693254858255386353e-01 7.832676887512207031e+00 2.400600671768188477e+00 6.664708256721496582e-01
4.590000000000000000e+02 4.813449859619140625e+01 1.694975662231445312e+01 -2.022485882043838501e-01 7.737423896789550781e+00 2.260552406311035156e+00 5.756410360336303711e-01
4.600000000000000000e+02 5.034411621093750000e+01 2.787639617919921875e+01 -5.147906541824340820e-01 7.652426242828369141e+00 2.141290664672851562e+00 3.730892837047576904e-01
4.610000000000000000e+02 5.118558883666992188e+01 3.105822372436523438e+01 -5.403109788894653320e-01 7.654649734497070312e+00 2.134301662445068359e+00 3.024735450744628906e-01
4.620000000000000000e+02 5.141112518310546875e+01 4.012991714477539062e+01 -6.041042804718017578e-01 7.638417720794677734e+00 2.110294103622436523e+00 6.102565675973892212e-02
4.630000000000000000e+02 4.951167297363281250e+01 3.579017639160156250e+01 -6.343886852264404297e-01 7.565807819366455078e+00 2.079425811767578125e+00 1.778630763292312622e-01
4.640000000000000000e+02 6.221500396728515625e+01 -4.076084136962890625e+01 -3.263472318649291992e-01 7.908134460449218750e+00 2.274536132812500000e+00 -5.184841528534889221e-02
4.650000000000000000e+02 5.734591293334960938e+01 -4.077890777587890625e+01 -4.877923130989074707e-01 7.966444492340087891e+00 2.243595600128173828e+00 -6.203495711088180542e-02
4.660000000000000000e+02 5.634750366210937500e+01 -3.336026382446289062e+01 -4.121377170085906982e-01 7.946102619171142578e+00 2.260189533233642578e+00 -3.160645067691802979e-01
4.670000000000000000e+02 5.355509185791015625e+01 -2.084069633483886719e+01 1.450138241052627563e-01 7.806386947631835938e+00 2.385420083999633789e+00 -5.819373130798339844e-01
4.680000000000000000e+02 5.612780380249023438e+01 -1.588131713867187500e+01 4.058973789215087891e-01 7.647891044616699219e+00 2.416136503219604492e+00 -4.388787746429443359e-01
4.690000000000000000e+02 5.862763214111328125e+01 -8.524344444274902344e+00 5.615520477294921875e-01 7.510546207427978516e+00 2.421629428863525391e+00 -9.862565249204635620e-02
4.700000000000000000e+02 6.214809036254882812e+01 -5.073606967926025391e+00 4.219431281089782715e-01 7.490119457244873047e+00 2.373618841171264648e+00 7.205379754304885864e-02
4.710000000000000000e+02 5.710169601440429688e+01 4.995765209197998047e+00 3.895805776119232178e-01 7.619666099548339844e+00 2.402773857116699219e+00 5.082189440727233887e-01
4.720000000000000000e+02 5.984788513183593750e+01 9.354069709777832031e+00 1.884769797325134277e-01 7.673805236816406250e+00 2.358684778213500977e+00 5.440725684165954590e-01
4.730000000000000000e+02 5.755211639404296875e+01 1.314935493469238281e+01 5.858533829450607300e-02 7.735701560974121094e+00 2.338286161422729492e+00 6.022529602050781250e-01
4.740000000000000000e+02 6.034253692626953125e+01 2.656505584716796875e+01 -2.441854178905487061e-01 7.874120712280273438e+00 2.288980484008789062e+00 4.184521436691284180e-01
4.750000000000000000e+02 5.885422515869140625e+01 3.241426467895507812e+01 -3.492161631584167480e-01 7.865816116333007812e+00 2.254980087280273438e+00 2.838698327541351318e-01
4.760000000000000000e+02 5.841250610351562500e+01 4.046147918701171875e+01 -4.291675388813018799e-01 7.848180770874023438e+00 2.225703954696655273e+00 5.616842210292816162e-02
4.770000000000000000e+02 5.486965560913085938e+01 3.819478607177734375e+01 -5.084167122840881348e-01 7.751757621765136719e+00 2.173002243041992188e+00 1.111267954111099243e-01
4.780000000000000000e+02 6.718383026123046875e+01 -3.228899383544921875e+01 -1.288528293371200562e-01 7.786643028259277344e+00 2.297337055206298828e+00 -2.483544349670410156e-01
4.790000000000000000e+02 6.346385574340820312e+01 -2.710390663146972656e+01 -1.016198471188545227e-01 7.771076202392578125e+00 2.300836801528930664e+00 -3.643752634525299072e-01
4.800000000000000000e+02 6.445721435546875000e+01 -1.643976020812988281e+01 1.813386976718902588e-01 7.570295810699462891e+00 2.325490474700927734e+00 -2.961261570453643799e-01
4.810000000000000000e+02 6.345652770996093750e+01 -7.694849967956542969e+00 3.622383475303649902e-01 7.484270572662353516e+00 2.353952646255493164e+00 -3.192700445652008057e-02
4.820000000000000000e+02 6.749560546875000000e+01 -4.717976570129394531e+00 2.171410471200942993e-01 7.455865859985351562e+00 2.301902055740356445e+00 7.302778959274291992e-02
4.830000000000000000e+02 6.647685241699218750e+01 2.237269163131713867e+00 2.053014934062957764e-01 7.528820991516113281e+00 2.320236682891845703e+00 2.902632653713226318e-01
4.840000000000000000e+02 6.748754882812500000e+01 1.113827991485595703e+01 5.943574383854866028e-02 7.693335056304931641e+00 2.325831174850463867e+00 4.228801727294921875e-01
4.850000000000000000e+02 6.607727050781250000e+01 2.091449546813964844e+01 -7.923865318298339844e-02 7.884283065795898438e+00 2.341513395309448242e+00 4.386300146579742432e-01
4.860000000000000000e+02 6.537720489501953125e+01 2.587489509582519531e+01 -1.468526721000671387e-01 7.951245307922363281e+00 2.341317892074584961e+00 3.792129158973693848e-01
4.870000000000000000e+02 6.227907562255859375e+01 3.109631538391113281e+01 -2.524128258228302002e-01 7.935934543609619141e+00 2.305056571960449219e+00 3.019784986972808838e-01
4.880000000000000000e+02 6.282266616821289062e+01 4.089741897583007812e+01 -2.901156544685363770e-01 7.979033470153808594e+00 2.306675195693969727e+00 3.704517334699630737e-02
4.890000000000000000e+02 6.699376678466796875e+01 -4.082849502563476562e+01 -1.966642886400222778e-01 7.857721328735351562e+00 2.298317193984985352e+00 -4.013891145586967468e-02
4.900000000000000000e+02 7.014622497558593750e+01 -3.783727264404296875e+01 -1.081894859671592712e-01 7.818263530731201172e+00 2.313022136688232422e+00 -9.803134202957153320e-02
4.910000000000000000e+02 7.375948333740234375e+01 -3.101680564880371094e+01 -3.314000368118286133e-02 7.722506999969482422e+00 2.306810140609741211e+00 -1.523178964853286743e-01
4.920000000000000000e+02 7.138283538818359375e+01 -2.465569877624511719e+01 -5.171296186745166779e-03 7.616948127746582031e+00 2.283533096313476562e+00 -2.379158139228820801e-01
4.930000000000000000e+02 7.164545440673828125e+01 -1.826816749572753906e+01 4.590624570846557617e-02 7.492924213409423828e+00 2.261649131774902344e+00 -2.050306499004364014e-01
4.940000000000000000e+02 7.063981628417968750e+01 -1.035172748565673828e+01 1.229118332266807556e-01 7.410521984100341797e+00 2.260030269622802734e+00 -8.302082866430282593e-02
4.950000000000000000e+02 7.005698394775390625e+01 -5.138450145721435547e+00 1.520648151636123657e-01 7.413918972015380859e+00 2.269795179367065430e+00 4.801085218787193298e-02
4.960000000000000000e+02 7.274047851562500000e+01 4.995422840118408203e+00 5.212471634149551392e-02 7.506989002227783203e+00 2.267734050750732422e+00 2.288294583559036255e-01
4.970000000000000000e+02 7.235523223876953125e+01 1.168446826934814453e+01 2.290323749184608459e-02 7.689702033996582031e+00 2.313781738281250000e+00 3.043709993362426758e-01
4.980000000000000000e+02 7.190856933593750000e+01 1.941360855102539062e+01 -1.947102136909961700e-02 7.912684440612792969e+00 2.367964029312133789e+00 3.213295936584472656e-01
4.990000000000000000e+02 7.165622711181640625e+01 2.582405662536621094e+01 -5.729440972208976746e-02 8.068993568420410156e+00 2.403509616851806641e+00 2.753464877605438232e-01
5.000000000000000000e+02 6.985968780517578125e+01 3.037415695190429688e+01 -1.023994311690330505e-01 8.104253768920898438e+00 2.400556325912475586e+00 2.407173514366149902e-01
5.010000000000000000e+02 6.737883758544921875e+01 3.809804916381835938e+01 -1.715965270996093750e-01 8.107449531555175781e+00 2.380755901336669922e+00 1.015850752592086792e-01
5.020000000000000000e+02 7.790879058837890625e+01 -4.162708282470703125e+01 -5.108464974910020828e-03 7.902297973632812500e+00 2.369156837463378906e+00 -1.426606788299977779e-03
5.030000000000000000e+02 7.775607299804687500e+01 -3.679497909545898438e+01 -7.989957928657531738e-03 7.852483272552490234e+00 2.353348016738891602e+00 -3.309223800897598267e-02
5.040000000000000000e+02 7.804141998291015625e+01 -3.047645950317382812e+01 -5.129258614033460617e-03 7.721909999847412109e+00 2.315034389495849609e+00 -5.970144271850585938e-02
5.050000000000000000e+02 7.807717895507812500e+01 -2.367872619628906250e+01 3.499316226225346327e-04 7.506539344787597656e+00 2.252066850662231445e+00 -7.094829529523849487e-02
5.060000000000000000e+02 7.792338562011718750e+01 -1.670341873168945312e+01 5.354397930204868317e-03 7.295500278472900391e+00 2.190256357192993164e+00 -6.175390258431434631e-02
5.070000000000000000e+02 7.793057250976562500e+01 -9.546778678894042969e+00 8.825155906379222870e-03 7.164037227630615234e+00 2.151858806610107422e+00 -1.965003833174705505e-02
5.080000000000000000e+02 7.804619598388671875e+01 -2.514237880706787109e+00 7.969755679368972778e-03 7.175668716430664062e+00 2.155091524124145508e+00 3.092949092388153076e-02
5.090000000000000000e+02 7.804735565185546875e+01 4.390139579772949219e+00 5.755405407398939133e-03 7.344320297241210938e+00 2.205022811889648438e+00 7.387021929025650024e-02
5.100000000000000000e+02 7.801702117919921875e+01 1.130380535125732422e+01 2.686372259631752968e-03 7.622825145721435547e+00 2.287653446197509766e+00 9.897386282682418823e-02
5.110000000000000000e+02 7.792984008789062500e+01 1.959899902343750000e+01 -1.126118353568017483e-03 8.007508277893066406e+00 2.401914596557617188e+00 1.046736016869544983e-01
5.120000000000000000e+02 7.656881713867187500e+01 2.239671707153320312e+01 -8.384788408875465393e-03 8.090728759765625000e+00 2.424703121185302734e+00 1.546258628368377686e-01
5.130000000000000000e+02 7.926166534423828125e+01 3.204371261596679688e+01 -2.967818640172481537e-03 8.548939704895019531e+00 2.563791513442993164e+00 1.957659795880317688e-02
5.140000000000000000e+02 7.725179290771484375e+01 3.723374557495117188e+01 -1.473219320178031921e-02 8.512130737304687500e+00 2.549219608306884766e+00 3.449508175253868103e-02
5.150000000000000000e+02 7.902988433837890625e+01 3.755709075927734375e+01 -1.244408544152975082e-03 8.640413284301757812e+00 2.591750621795654297e+00 1.024385262280702591e-02
5.160000000000000000e+02 2.262294006347656250e+01 4.041972732543945312e+01 -6.892035603523254395e-01 4.545795917510986328e+00 1.156977653503417969e+00 -7.525178790092468262e-02
5.170000000000000000e+02 2.190896987915039062e+01 3.163298797607421875e+01 -6.079350709915161133e-01 4.621867179870605469e+00 1.204179525375366211e+00 -3.650975525379180908e-01
5.180000000000000000e+02 2.316651344299316406e+01 2.201220893859863281e+01 -3.170337378978729248e-01 5.266544818878173828e+00 1.484853386878967285e+00 -6.124144196510314941e-01
5.190000000000000000e+02 2.095865440368652344e+01 1.582599830627441406e+01 4.102688133716583252e-01 5.209938049316406250e+00 1.686061978340148926e+00 -1.057793617248535156e+00
5.200000000000000000e+02 2.027705764770507812e+01 9.606630325317382812e+00 8.633467555046081543e-01 5.563460826873779297e+00 1.928042173385620117e+00 -1.670164227485656738e+00
5.210000000000000000e+02 1.982723999023437500e+01 5.202694892883300781e+00 3.843053877353668213e-01 4.812874317169189453e+00 1.559153795242309570e+00 -1.435984492301940918e+00
5.220000000000000000e+02 2.155291366577148438e+01 -4.420805454254150391e+00 7.895277738571166992e-01 5.267449021339416504e-01 3.948818147182464600e-01 -4.085209369659423828e-01
5.230000000000000000e+02 2.403365707397460938e+01 -4.867323398590087891e+00 3.005996942520141602e+00 2.649991035461425781e+00 1.696796417236328125e+00 -2.986229896545410156e+00
5.240000000000000000e+02 1.749142074584960938e+01 4.055208587646484375e+01 -5.117314457893371582e-01 3.587197542190551758e+00 9.226398468017578125e-01 -8.637093007564544678e-02
5.250000000000000000e+02 2.361603164672851562e+01 3.642187500000000000e+01 -7.003634572029113770e-01 4.777266979217529297e+00 1.223070979118347168e+00 -1.891282349824905396e-01
5.260000000000000000e+02 1.941507911682128906e+01 3.001474189758300781e+01 -4.875768125057220459e-01 4.076274871826171875e+00 1.076609373092651367e+00 -4.715215861797332764e-01
5.270000000000000000e+02 1.705812835693359375e+01 2.202728462219238281e+01 -9.009346365928649902e-02 3.686906576156616211e+00 1.079043984413146973e+00 -9.497390985488891602e-01
5.280000000000000000e+02 1.301359367370605469e+01 1.755460166931152344e+01 1.178744792938232422e+00 1.609844684600830078e+00 8.365768194198608398e-01 -1.310264587402343750e+00
5.290000000000000000e+02 1.509672355651855469e+01 1.549069404602050781e+01 1.617405176162719727e+00 3.475167989730834961e+00 1.527771949768066406e+00 -2.142079114913940430e+00
5.300000000000000000e+02 1.863510704040527344e+01 1.554882335662841797e+01 6.785895824432373047e-01 4.714999198913574219e+00 1.618076562881469727e+00 -1.290853738784790039e+00
5.310000000000000000e+02 1.593677330017089844e+01 1.430192089080810547e+01 1.502996802330017090e+00 4.487814903259277344e+00 1.797243475914001465e+00 -2.296971321105957031e+00
5.320000000000000000e+02 1.803418350219726562e+01 9.062974929809570312e+00 6.608590483665466309e-01 6.396224021911621094e+00 2.117125034332275391e+00 -1.712292313575744629e+00
5.330000000000000000e+02 1.855219841003417969e+01 6.337493896484375000e+00 2.749028503894805908e-01 5.377834796905517578e+00 1.695821404457092285e+00 -1.110682964324951172e+00
5.340000000000000000e+02 1.892694091796875000e+01 2.184946298599243164e+00 4.483144730329513550e-02 2.482702255249023438e+00 7.582601308822631836e-01 -5.137675404548645020e-01
5.350000000000000000e+02 1.884967422485351562e+01 -5.218977332115173340e-01 5.846206098794937134e-02 2.704719007015228271e-01 9.868019074201583862e-02 -3.031256198883056641e-01
5.360000000000000000e+02 1.965899658203125000e+01 -3.052138090133666992e+00 3.177204430103302002e-01 1.100387573242187500e-01 1.283277571201324463e-01 -1.107808127999305725e-01
5.370000000000000000e+02 1.260374069213867188e+01 4.101586914062500000e+01 -3.010999262332916260e-01 2.449964046478271484e+00 6.446592807769775391e-01 -4.961219802498817444e-02
5.380000000000000000e+02 8.107258796691894531e+00 4.112912368774414062e+01 -1.379326134920120239e-01 1.460740804672241211e+00 3.968424499034881592e-01 -3.949138522148132324e-02
5.390000000000000000e+02 6.955056190490722656e+00 3.187772560119628906e+01 -3.002144582569599152e-02 1.132735371589660645e+00 3.308141827583312988e-01 -2.603130936622619629e-01
5.400000000000000000e+02 6.169142723083496094e+00 2.438747406005859375e+01 1.654114276170730591e-01 4.698487520217895508e-01 1.905780583620071411e-01 -1.766423434019088745e-01
5.410000000000000000e+02 1.031750965118408203e+01 1.894407463073730469e+01 2.631506025791168213e-01 4.311841726303100586e-01 2.083004266023635864e-01 -5.018460154533386230e-01
5.420000000000000000e+02 1.177904415130615234e+01 1.847676849365234375e+01 7.531653046607971191e-01 9.330775141716003418e-01 5.058728456497192383e-01 -8.617836833000183105e-01
5.430000000000000000e+02 2.000382423400878906e+00 4.164722824096679688e+01 -8.571682870388031006e-02 3.294712007045745850e-01 7.312630861997604370e-02 -2.432218752801418304e-02
5.440000000000000000e+02 4.395472049713134766e+00 3.775835418701171875e+01 -5.320749711245298386e-03 6.414417624473571777e-01 1.908363103866577148e-01 -3.226646035909652710e-02
5.450000000000000000e+02 2.007349967956542969e+00 3.598246765136718750e+01 7.874324917793273926e-03 2.417993247509002686e-01 7.490209490060806274e-02 -9.783208370208740234e-02
5.460000000000000000e+02 2.133033037185668945e+00 2.912586784362792969e+01 1.309000607579946518e-02 4.798800498247146606e-02 1.832340285181999207e-02 -6.193011254072189331e-02
5.470000000000000000e+02 2.050084114074707031e+00 2.317860412597656250e+01 2.532101050019264221e-02 -8.360031992197036743e-02 -1.748379133641719818e-02 3.789913281798362732e-02
5.480000000000000000e+02 4.264654159545898438e+00 1.576539421081542969e+01 -4.607875272631645203e-02 2.256870269775390625e-02 -7.053014356642961502e-03 1.065240427851676941e-02
5.490000000000000000e+02 4.782872796058654785e-01 6.423679828643798828e+00 4.461126227397471666e-04 1.174334320239722729e-03 4.861340858042240143e-04 -4.320163279771804810e-04
5.500000000000000000e+02 6.064997673034667969e+00 1.862596631050109863e+00 2.709305845201015472e-04 5.529916961677372456e-04 2.471767074894160032e-04 4.961729864589869976e-04
5.510000000000000000e+02 8.119466781616210938e+00 2.592630624771118164e+00 1.992300967685878277e-04 8.350806310772895813e-04 3.102932241745293140e-04 1.181415515020489693e-03
5.520000000000000000e+02 9.637421607971191406e+00 1.866609454154968262e+00 1.232170761795714498e-04 -3.524372878018766642e-04 -6.876606494188308716e-05 -6.415692623704671860e-04
5.530000000000000000e+02 1.392702865600585938e+01 1.749329924583435059e+00 -4.864058282691985369e-04 3.548770328052341938e-04 -3.945863500121049583e-05 -1.596689253346994519e-05
5.540000000000000000e+02 1.446054077148437500e+01 6.256228446960449219e+00 1.607906422577798367e-03 5.128075135871767998e-04 6.362141575664281845e-04 5.480170366354286671e-04
5.550000000000000000e+02 1.184947681427001953e+01 9.559756278991699219e+00 1.796366414055228233e-03 5.252014379948377609e-03 2.114514354616403580e-03 3.026674967259168625e-03
5.560000000000000000e+02 1.133266258239746094e+01 1.233737850189208984e+01 -5.637970287352800369e-03 -3.833571448922157288e-03 -2.841462614014744759e-03 -6.703782361000776291e-03
5.570000000000000000e+02 1.217972469329833984e+01 1.123314762115478516e+01 5.164915230125188828e-03 4.845655988901853561e-03 3.003171412274241447e-03 3.210719907656311989e-03
5.580000000000000000e+02 9.418273925781250000e+00 1.446198749542236328e+01 -9.067927487194538116e-03 -8.500920608639717102e-03 -5.270654801279306412e-03 -1.610945351421833038e-02
5.590000000000000000e+02 7.865432262420654297e+00 1.687922286987304688e+01 -5.541483312845230103e-02 -1.129418611526489258e-01 -5.050700902938842773e-02 -7.884817570447921753e-02
5.600000000000000000e+02 1.841017484664916992e+00 2.174624824523925781e+01 1.629606820642948151e-02 -9.465458989143371582e-02 -2.350755594670772552e-02 5.933575332164764404e-02
5.610000000000000000e+02 1.139513373374938965e+00 3.860586166381835938e+00 -3.885509795509278774e-04 1.822393824113532901e-04 -6.189347914187237620e-05 1.777915458660572767e-04
5.620000000000000000e+02 1.326094627380371094e+01 2.477745056152343750e+00 5.219422164373099804e-04 -4.616525548044592142e-04 1.808689557947218418e-05 -2.120364952133968472e-04
5.630000000000000000e+02 2.096098518371582031e+01 -7.998313903808593750e+00 2.957189083099365234e-01 2.966300547122955322e-01 1.777046918869018555e-01 -9.844873100519180298e-02
5.640000000000000000e+02 3.257442474365234375e+01 -8.763758659362792969e+00 3.941997528076171875e+00 9.622073173522949219e+00 4.069221019744873047e+00 -9.673525094985961914e-01
5.650000000000000000e+02 4.048899841308593750e+01 -9.572262763977050781e+00 2.007116317749023438e+00 7.967514514923095703e+00 2.992389202117919922e+00 -5.129547715187072754e-01
5.660000000000000000e+02 5.241733169555664062e+01 -1.107840251922607422e+01 8.206204175949096680e-01 7.581782341003417969e+00 2.520720958709716797e+00 -3.144169449806213379e-01
5.670000000000000000e+02 5.769909667968750000e+01 -1.003808116912841797e+01 5.688470005989074707e-01 7.531271457672119141e+00 2.430035591125488281e+00 -1.770681440830230713e-01
5.680000000000000000e+02 6.365414047241210938e+01 -1.401006412506103516e+01 2.555668652057647705e-01 7.540785789489746094e+00 2.338905811309814453e+00 -2.487782984972000122e-01
5.690000000000000000e+02 7.184089660644531250e+01 -1.097397994995117188e+01 9.510343521833419800e-02 7.390659809112548828e+00 2.245728969573974609e+00 -8.890803158283233643e-02
5.700000000000000000e+02 7.928522491455078125e+01 -1.249675655364990234e+01 1.641710638068616390e-03 7.134162902832031250e+00 2.140741348266601562e+00 -1.408974546939134598e-02
5.710000000000000000e+02 7.934272766113281250e+01 -5.488042354583740234e+00 1.640820410102605820e-03 7.073810100555419922e+00 2.122635364532470703e+00 4.061655607074499130e-03
5.720000000000000000e+02 7.274401855468750000e+01 -5.725217342376708984e+00 8.535815030336380005e-02 7.352354526519775391e+00 2.231313705444335938e+00 2.534204348921775818e-02
5.730000000000000000e+02 6.714093017578125000e+01 -7.138640403747558594e+00 2.356981635093688965e-01 7.454463005065917969e+00 2.307048320770263672e+00 -6.312833633273839951e-03
5.740000000000000000e+02 6.079553985595703125e+01 -5.790589809417724609e+00 4.773217141628265381e-01 7.494493961334228516e+00 2.391544818878173828e+00 4.281229153275489807e-02
5.750000000000000000e+02 5.137623977661132812e+01 -5.392889976501464844e+00 1.032320261001586914e+00 7.534086704254150391e+00 2.569921970367431641e+00 6.240759417414665222e-02
5.760000000000000000e+02 4.611577606201171875e+01 -2.681463479995727539e+00 1.358447074890136719e+00 7.671734809875488281e+00 2.709054470062255859e+00 3.433035910129547119e-01
5.770000000000000000e+02 2.063582038879394531e+01 -2.247540092468261719e+01 -7.279468327760696411e-02 3.929915666580200195e+00 1.157136321067810059e+00 1.364520549774169922e+00
5.780000000000000000e+02 1.526024246215820312e+01 -2.174168968200683594e+01 2.353915721178054810e-01 1.701187610626220703e+00 5.809737443923950195e-01 9.099800586700439453e-01
5.790000000000000000e+02 2.669959831237792969e+01 -1.995536231994628906e+01 -5.388656854629516602e-01 7.044634819030761719e+00 1.951730728149414062e+00 1.233775377273559570e+00
5.800000000000000000e+02 3.321774673461914062e+01 -1.785020828247070312e+01 -1.621790528297424316e-01 8.850314140319824219e+00 2.606440544128417969e+00 -3.557376563549041748e-01
5.810000000000000000e+02 4.283868408203125000e+01 -1.635652923583984375e+01 7.034425735473632812e-01 8.077765464782714844e+00 2.634362220764160156e+00 -8.375238180160522461e-01
5.820000000000000000e+02 4.967884063720703125e+01 -1.727183151245117188e+01 4.797014594078063965e-01 7.799387454986572266e+00 2.483726739883422852e+00 -6.450481414794921875e-01
5.830000000000000000e+02 5.495116424560546875e+01 -1.737293434143066406e+01 3.565284013748168945e-01 7.696310997009277344e+00 2.415851831436157227e+00 -5.065794587135314941e-01
5.840000000000000000e+02 6.395217514038085938e+01 -1.820122718811035156e+01 1.454989612102508545e-01 7.604714870452880859e+00 2.325064182281494141e+00 -3.334578573703765869e-01
5.850000000000000000e+02 7.278015899658203125e+01 -1.827203559875488281e+01 3.845331817865371704e-02 7.468364238739013672e+00 2.252045392990112305e+00 -1.859761625528335571e-01
5.860000000000000000e+02 7.934803771972656250e+01 -2.229387855529785156e+01 -1.632544626772869378e-05 7.436092853546142578e+00 2.230823040008544922e+00 -2.508851327002048492e-02
5.870000000000000000e+02 5.389850139617919922e+00 -1.546205615997314453e+01 -3.027580119669437408e-02 -3.313586348667740822e-03 -1.007681619375944138e-02 4.818769637495279312e-03
5.880000000000000000e+02 1.850329637527465820e+00 -1.736603546142578125e+01 -2.086871117353439331e-02 -1.564236357808113098e-02 -1.095332298427820206e-02 -3.081596083939075470e-02
5.890000000000000000e+02 5.603224039077758789e-01 -1.065686225891113281e+01 9.751354227773845196e-04 3.150399075821042061e-03 1.237660297192633152e-03 1.157871563918888569e-03
5.900000000000000000e+02 4.235643005371093750e+01 -2.435923004150390625e+01 -3.778141438961029053e-01 8.104473114013671875e+00 2.317997694015502930e+00 -6.159478425979614258e-01
5.910000000000000000e+02 4.760465240478515625e+01 -2.492259597778320312e+01 -2.399217188358306885e-01 7.996321201324462891e+00 2.326919794082641602e+00 -6.264903545379638672e-01
5.920000000000000000e+02 5.446503448486328125e+01 -2.303708457946777344e+01 -1.375125139020383358e-03 7.838603496551513672e+00 2.351168394088745117e+00 -5.622739195823669434e-01
5.930000000000000000e+02 6.491159057617187500e+01 -2.844589042663574219e+01 -1.102838218212127686e-01 7.770260810852050781e+00 2.297993183135986328e+00 -3.169959783554077148e-01
5.940000000000000000e+02 7.329358673095703125e+01 -2.473590087890625000e+01 -5.000295583158731461e-03 7.596433639526367188e+00 2.277430057525634766e+00 -1.955212056636810303e-01
5.950000000000000000e+02 7.937789154052734375e+01 -2.644721603393554688e+01 -7.605194114148616791e-04 7.593622207641601562e+00 2.277858495712280273e+00 -2.387873828411102295e-02
5.960000000000000000e+02 7.597747445106506348e-01 -3.046389007568359375e+01 3.446491900831460953e-03 -5.051825642585754395e-01 -1.505208164453506470e-01 -1.506159664131700993e-03
5.970000000000000000e+02 8.621010780334472656e+00 -3.540315628051757812e+01 -2.543712407350540161e-02 1.149123191833496094e+00 3.371058106422424316e-01 1.308644711971282959e-01
5.980000000000000000e+02 2.531089210510253906e+01 -3.191327857971191406e+01 -7.698209285736083984e-01 5.439800739288330078e+00 1.400993943214416504e+00 5.692370533943176270e-01
5.990000000000000000e+02 3.595881271362304688e+01 -3.442123031616210938e+01 -1.072120308876037598e+00 7.339411735534667969e+00 1.880187392234802246e+00 -1.611299067735671997e-02
6.000000000000000000e+02 3.921783447265625000e+01 -3.560496139526367188e+01 -1.040948033332824707e+00 7.647017478942871094e+00 1.981820940971374512e+00 -1.322533935308456421e-01
6.010000000000000000e+02 4.788390731811523438e+01 -3.394924545288085938e+01 -7.279313206672668457e-01 7.976217746734619141e+00 2.174485921859741211e+00 -3.164265453815460205e-01
6.020000000000000000e+02 5.696787643432617188e+01 -3.720205307006835938e+01 -4.685897827148437500e-01 7.961050510406494141e+00 2.247738122940063477e+00 -1.851363927125930786e-01
6.030000000000000000e+02 7.500460815429687500e+01 -3.290704727172851562e+01 -3.260900080204010010e-02 7.760446071624755859e+00 2.318351030349731445e+00 -1.129336580634117126e-01
6.040000000000000000e+02 7.933144378662109375e+01 -3.335945510864257812e+01 -6.775346701033413410e-04 7.812737941741943359e+00 2.343618154525756836e+00 -1.618248037993907928e-02
6.050000000000000000e+02 7.935184478759765625e+01 2.860864639282226562e+00 1.463351771235466003e-03 7.236223697662353516e+00 2.171306133270263672e+00 2.422031573951244354e-02
6.060000000000000000e+02 7.253698730468750000e+01 1.154960751533508301e+00 8.133400231599807739e-02 7.428204536437988281e+00 2.252861499786376953e+00 1.711948662996292114e-01
6.070000000000000000e+02 6.582283020019531250e+01 6.333556771278381348e-01 2.483570873737335205e-01 7.509085178375244141e+00 2.327232599258422852e+00 2.488112598657608032e-01
6.080000000000000000e+02 5.952669906616210938e+01 4.326165199279785156e+00 3.489086329936981201e-01 7.595870018005371094e+00 2.383433580398559570e+00 4.469409883022308350e-01
6.090000000000000000e+02 5.166371917724609375e+01 3.798846006393432617e+00 6.100466847419738770e-01 7.657286167144775391e+00 2.480199813842773438e+00 5.585590600967407227e-01
6.100000000000000000e+02 3.994717025756835938e+01 4.022654533386230469e+00 7.185762524604797363e-01 8.252338409423828125e+00 2.691274404525756836e+00 7.077242732048034668e-01
6.110000000000000000e+02 2.605692291259765625e+01 4.675086498260498047e+00 -8.689372986555099487e-02 7.501688480377197266e+00 2.224438428878784180e+00 -1.927496314048767090e+00
6.120000000000000000e+02 7.934458160400390625e+01 8.419541358947753906e+00 6.247638375498354435e-04 7.462912559509277344e+00 2.239061117172241211e+00 3.324537351727485657e-02
6.130000000000000000e+02 7.256152343750000000e+01 7.611092090606689453e+00 4.451738670468330383e-02 7.570591926574707031e+00 2.284532785415649414e+00 2.637943923473358154e-01
6.140000000000000000e+02 6.745356750488281250e+01 9.506565093994140625e+00 8.490110933780670166e-02 7.657286643981933594e+00 2.322656393051147461e+00 4.102433919906616211e-01
6.150000000000000000e+02 5.848075103759765625e+01 6.238378047943115234e+00 3.178057670593261719e-01 7.629543304443359375e+00 2.384204626083374023e+00 5.142149925231933594e-01
6.160000000000000000e+02 5.041085815429687500e+01 8.930288314819335938e+00 2.949009537696838379e-01 7.751348495483398438e+00 2.413874864578247070e+00 6.656302809715270996e-01
6.170000000000000000e+02 4.240282058715820312e+01 9.252877235412597656e+00 1.940515935420989990e-01 7.962238788604736328e+00 2.446887016296386719e+00 6.090807318687438965e-01
6.180000000000000000e+02 2.719028663635253906e+01 1.007429027557373047e+01 8.072385191917419434e-02 6.894029617309570312e+00 2.092426061630249023e+00 -1.190325140953063965e+00
6.190000000000000000e+02 3.337261581420898438e+01 9.289095878601074219e+00 -1.332681626081466675e-01 8.034928321838378906e+00 2.370497941970825195e+00 -1.921967864036560059e-01
6.200000000000000000e+02 2.007398223876953125e+01 3.766021966934204102e+00 2.596996724605560303e-01 4.204612255096435547e+00 1.339293599128723145e+00 -1.483702898025512695e+00
6.210000000000000000e+02 1.889782524108886719e+01 3.573557615280151367e+00 1.176088973879814148e-01 3.664430379867553711e+00 1.134611845016479492e+00 -6.622101664543151855e-01
6.220000000000000000e+02 7.932518005371093750e+01 1.675793266296386719e+01 -4.038518818560987711e-04 7.886726856231689453e+00 2.365896940231323242e+00 3.871085494756698608e-02
6.230000000000000000e+02 7.227682495117187500e+01 1.694320297241210938e+01 -2.826059004291892052e-03 7.840319633483886719e+00 2.351248025894165039e+00 3.154447972774505615e-01
6.240000000000000000e+02 6.628450775146484375e+01 1.350581836700439453e+01 3.039623983204364777e-02 7.744413375854492188e+00 2.332442998886108398e+00 4.628635346889495850e-01
6.250000000000000000e+02 5.523249053955078125e+01 1.439210319519042969e+01 -3.802386927418410778e-04 7.752632141113281250e+00 2.325675487518310547e+00 6.223531961441040039e-01
6.260000000000000000e+02 5.207159042358398438e+01 1.315818786621093750e+01 3.889341279864311218e-02 7.755972862243652344e+00 2.338459730148315430e+00 6.471371650695800781e-01
6.270000000000000000e+02 2.717371559143066406e+01 1.773091697692871094e+01 -1.750039011240005493e-01 6.208073139190673828e+00 1.809920787811279297e+00 -5.797172784805297852e-01
6.280000000000000000e+02 3.577183532714843750e+01 1.480839633941650391e+01 -3.104397952556610107e-01 7.535606861114501953e+00 2.167550086975097656e+00 5.245848000049591064e-02
6.290000000000000000e+02 2.007865524291992188e+01 1.105260467529296875e+01 8.957818150520324707e-01 5.506408691406250000e+00 1.920657277107238770e+00 -1.588940143585205078e+00
6.300000000000000000e+02 7.932024383544921875e+01 2.370836448669433594e+01 -8.974283700808882713e-04 8.237339973449707031e+00 2.470932722091674805e+00 3.448475524783134460e-02
6.310000000000000000e+02 7.054354858398437500e+01 2.366104507446289062e+01 -5.556451156735420227e-02 7.996407032012939453e+00 2.382252693176269531e+00 3.236736655235290527e-01
6.320000000000000000e+02 6.246158599853515625e+01 2.523248481750488281e+01 -1.901211738586425781e-01 7.892430782318115234e+00 2.310693025588989258e+00 4.264400899410247803e-01
6.330000000000000000e+02 5.901385498046875000e+01 2.426961517333984375e+01 -2.355155050754547119e-01 7.842729091644287109e+00 2.282164096832275391e+00 4.681349694728851318e-01
6.340000000000000000e+02 4.903353881835937500e+01 2.205227661132812500e+01 -3.845210969448089600e-01 7.683878421783447266e+00 2.189807176589965820e+00 4.899283349514007568e-01
6.350000000000000000e+02 4.308080291748046875e+01 2.013230514526367188e+01 -4.351809322834014893e-01 7.562061309814453125e+00 2.138064146041870117e+00 3.962514400482177734e-01
6.360000000000000000e+02 2.923257255554199219e+01 2.641884040832519531e+01 -6.640036702156066895e-01 6.075387954711914062e+00 1.623415350914001465e+00 -2.249266505241394043e-01
6.370000000000000000e+02 3.402633285522460938e+01 2.413166427612304688e+01 -6.257165074348449707e-01 6.805521011352539062e+00 1.853941440582275391e+00 -3.451805561780929565e-02
6.380000000000000000e+02 2.111378479003906250e+01 1.706081008911132812e+01 2.587935030460357666e-01 5.140201091766357422e+00 1.619698405265808105e+00 -9.523453712463378906e-01
6.390000000000000000e+02 2.762524843215942383e+00 2.097028350830078125e+01 1.021896768361330032e-02 -1.073047053068876266e-02 -1.534509938210248947e-04 7.720899581909179688e-02
6.400000000000000000e+02 7.935351562500000000e+01 2.925349235534667969e+01 -1.400882465532049537e-04 8.463731765747070312e+00 2.539077281951904297e+00 2.500320971012115479e-02
6.410000000000000000e+02 7.189955139160156250e+01 3.222304916381835938e+01 -7.762717455625534058e-02 8.204535484313964844e+00 2.438072443008422852e+00 1.777749657630920410e-01
6.420000000000000000e+02 6.480027770996093750e+01 3.170593833923339844e+01 -2.062298506498336792e-01 7.997065067291259766e+00 2.337250709533691406e+00 2.721879482269287109e-01
6.430000000000000000e+02 6.016539764404296875e+01 3.013870048522949219e+01 -2.986774146556854248e-01 7.887763023376464844e+00 2.276725769042968750e+00 3.323584198951721191e-01
6.440000000000000000e+02 4.724267578125000000e+01 2.869475364685058594e+01 -5.971868634223937988e-01 7.535570621490478516e+00 2.081515073776245117e+00 3.204115331172943115e-01
6.450000000000000000e+02 3.290794754028320312e+01 3.364139556884765625e+01 -8.405433297157287598e-01 6.307745933532714844e+00 1.640160799026489258e+00 -3.111464157700538635e-02
6.460000000000000000e+02 2.249946784973144531e+01 2.381253814697265625e+01 -4.152201712131500244e-01 5.035408973693847656e+00 1.386056661605834961e+00 -5.827192068099975586e-01
6.470000000000000000e+02 1.872463035583496094e+01 2.646291542053222656e+01 -3.801313042640686035e-01 4.020963191986083984e+00 1.092249512672424316e+00 -6.477088332176208496e-01
6.480000000000000000e+02 7.914972305297851562e+00 2.292625808715820312e+01 2.501194775104522705e-01 6.289399266242980957e-01 2.637178301811218262e-01 -3.229514658451080322e-01
6.490000000000000000e+02 1.471643352508544922e+01 3.382338714599609375e+01 -3.324089050292968750e-01 2.914039373397827148e+00 7.744891047477722168e-01 -3.919377028942108154e-01
6.500000000000000000e+02 2.126815795898437500e+00 3.195229721069335938e+01 -1.999355619773268700e-03 1.491075009107589722e-01 4.413244500756263733e-02 -8.284670859575271606e-02
6.510000000000000000e+02 1.555402636528015137e+00 9.079989433288574219e+00 -2.022596599999815226e-04 1.810816233046352863e-03 4.825669748242944479e-04 -8.918039966374635696e-04
6.520000000000000000e+02 1.952799797058105469e+01 -7.784250259399414062e+00 -1.340914666652679443e-01 1.624323725700378418e-01 8.502273820340633392e-03 -3.529165983200073242e-01
6.530000000000000000e+02 1.416034984588623047e+01 -1.384902191162109375e+01 -3.678204491734504700e-02 -1.370634883642196655e-01 -5.215366184711456299e-02 -5.257060378789901733e-02
6.540000000000000000e+02 7.558137416839599609e+00 -1.387580204010009766e+01 -4.049873910844326019e-03 1.035550422966480255e-02 1.891689025796949863e-03 5.362356547266244888e-03
6.550000000000000000e+02 1.133460235595703125e+01 -8.134904861450195312e+00 9.423359879292547703e-04 4.532773746177554131e-04 4.186840087641030550e-04 -6.153254653327167034e-04
6.560000000000000000e+02 1.016692352294921875e+01 -3.155197381973266602e+00 1.307670609094202518e-04 4.333206161390990019e-04 1.692263031145557761e-04 -1.014115405268967152e-03
6.570000000000000000e+02 1.321065330505371094e+01 -1.961304903030395508e+00 -4.970557347405701876e-05 -7.480928616132587194e-05 -3.735445716301910579e-05 -1.570765889482572675e-04
6.580000000000000000e+02 1.491146183013916016e+01 -2.293657302856445312e+00 -5.606431659543886781e-05 -8.153372618835419416e-05 -4.127941065235063434e-05 1.183153945021331310e-04
6.590000000000000000e+02 1.430585479736328125e+01 -2.140648126602172852e+00 8.007261203601956367e-05 1.501446095062419772e-04 6.906516500748693943e-05 -1.907672703964635730e-04
6.600000000000000000e+02 1.375237941741943359e+01 -1.996098756790161133e+00 -4.689091292675584555e-05 -1.494639000156894326e-04 -5.890644388273358345e-05 1.919829082908108830e-04
6.610000000000000000e+02 1.179957675933837891e+01 -1.972266554832458496e+00 2.319891791557893157e-04 -2.677821030374616385e-04 -1.073788007488474250e-05 -1.555919734528288245e-04
6.620000000000000000e+02 1.031589317321777344e+01 -1.859590172767639160e+00 1.771125680534169078e-04 -1.075682084774598479e-04 2.086330823658499867e-05 -4.773160326294600964e-04
6.630000000000000000e+02 9.574419021606445312e+00 -1.835653781890869141e+00 -1.079884896171279252e-04 8.375954348593950272e-05 -7.268684839800698683e-06 4.948319401592016220e-04
6.640000000000000000e+02 8.826362609863281250e+00 -1.843073964118957520e+00 1.161207255790941417e-04 -3.053281398024410009e-05 2.567637420725077391e-05 -4.933285526931285858e-04
6.650000000000000000e+02 7.321565151214599609e+00 -1.862602114677429199e+00 1.773811527527868748e-04 -2.590403710200916976e-05 4.544313196674920619e-05 -4.674470110330730677e-04
6.660000000000000000e+02 5.799889087677001953e+00 -1.881833553314208984e+00 1.965069350262638181e-05 3.339831164339557290e-05 1.591470208950340748e-05 -4.171629552729427814e-04
6.670000000000000000e+02 3.517662525177001953e+00 -1.985231280326843262e+00 1.676862448221072555e-04 -3.941117029171437025e-06 4.912354052066802979e-05 1.799505989765748382e-04
6.680000000000000000e+02 5.040381431579589844e+00 -1.905621767044067383e+00 1.706939074210822582e-04 -5.706094088964164257e-05 3.408989141462370753e-05 3.875818219967186451e-04
6.690000000000000000e+02 4.444642066955566406e+00 -2.806357145309448242e+00 2.771046711131930351e-04 -3.668803037726320326e-05 7.212498894659802318e-05 3.840655263047665358e-04
6.700000000000000000e+02 2.746729135513305664e+00 -2.036065578460693359e+00 -5.150137440068647265e-06 8.057090781221631914e-06 8.720861046640493441e-07 -8.134196832543238997e-05
6.710000000000000000e+02 1.969424128532409668e+00 -2.076670169830322266e+00 -8.040004468057304621e-05 5.309510015649721026e-05 -8.191482265829108655e-06 2.399197983322665095e-04
6.720000000000000000e+02 4.869018793106079102e-01 -3.599982023239135742e+00 2.908961323555558920e-04 -3.288696825620718300e-05 7.740275032119825482e-05 -4.162685218034312129e-05
6.730000000000000000e+02 2.040339708328247070e+00 -4.163034057617187500e+01 -8.892059326171875000e-02 -1.955721080303192139e-01 -8.534780889749526978e-02 2.517201378941535950e-02
6.740000000000000000e+02 6.258524417877197266e+00 -3.804277420043945312e+01 -7.231334224343299866e-03 6.796795725822448730e-01 2.017344683408737183e-01 3.083361871540546417e-02
6.750000000000000000e+02 1.028751969337463379e+00 -3.864920806884765625e+01 -2.783637726679444313e-03 -3.149960637092590332e-01 -9.533391147851943970e-02 4.662260040640830994e-02
6.760000000000000000e+02 6.649092435836791992e-01 -3.475878906250000000e+01 -2.624924294650554657e-03 -4.870480895042419434e-01 -1.469019055366516113e-01 3.407428506761789322e-03
6.770000000000000000e+02 8.159353137016296387e-01 -3.336311721801757812e+01 -6.971939001232385635e-04 -4.947047233581542969e-01 -1.486205756664276123e-01 5.940872244536876678e-03
6.780000000000000000e+02 7.372418642044067383e-01 -2.904319381713867188e+01 5.935716908425092697e-03 -4.936850368976593018e-01 -1.463247984647750854e-01 -1.024426333606243134e-02
6.790000000000000000e+02 7.200735807418823242e-01 -2.762714767456054688e+01 3.171091433614492416e-03 -4.646596014499664307e-01 -1.384465545415878296e-01 -1.923223584890365601e-02
6.800000000000000000e+02 7.031096816062927246e-01 -2.620994377136230469e+01 2.589624375104904175e-03 -4.203470647335052490e-01 -1.253272294998168945e-01 -2.487130835652351379e-02
6.810000000000000000e+02 6.443681120872497559e-01 -2.194760322570800781e+01 1.952066784724593163e-03 -2.113193720579147339e-01 -6.281019002199172974e-02 -3.771707415580749512e-02
6.820000000000000000e+02 1.893849134445190430e+00 -2.039199829101562500e+01 -7.654346991330385208e-03 -8.657743036746978760e-02 -2.826953306794166565e-02 -8.851327747106552124e-02
6.830000000000000000e+02 5.658994913101196289e-01 -1.623192977905273438e+01 -1.295537076657637954e-04 6.263324059545993805e-03 1.840131124481558800e-03 -3.187284804880619049e-03
6.840000000000000000e+02 5.469336509704589844e-01 -1.483591747283935547e+01 -2.640777733176946640e-03 1.121051516383886337e-02 2.570921089500188828e-03 -1.125912531279027462e-04
6.850000000000000000e+02 5.532740354537963867e-01 -1.344358634948730469e+01 1.655288157053291798e-03 9.093071334064006805e-03 3.224507905542850494e-03 1.853267312981188297e-03
6.860000000000000000e+02 4.481059551239013672e+00 -1.468897819519042969e+01 -1.276851445436477661e-02 -8.247533813118934631e-03 -6.304814480245113373e-03 -1.331959734670817852e-03
6.870000000000000000e+02 5.414269566535949707e-01 -9.264406204223632812e+00 -2.644338528625667095e-04 1.515566720627248287e-03 3.753398486878722906e-04 1.716844853945076466e-04
6.880000000000000000e+02 5.189706683158874512e-01 -7.873889923095703125e+00 1.232969225384294987e-04 6.589729455299675465e-04 2.346809487789869308e-04 3.874008834827691317e-04
6.890000000000000000e+02 5.072809457778930664e-01 -6.481650352478027344e+00 1.366677170153707266e-04 2.500427654013037682e-04 1.160131505457684398e-04 -4.835836080019362271e-06
6.900000000000000000e+02 7.462974548339843750e+01 -4.019679260253906250e+01 -3.160049021244049072e-02 7.838389396667480469e+00 2.342036724090576172e+00 -3.570501878857612610e-02
6.910000000000000000e+02 5.244488143920898438e+01 -4.081183624267578125e+01 -6.685346364974975586e-01 7.996798515319824219e+00 2.198479175567626953e+00 -6.114824861288070679e-02
6.920000000000000000e+02 2.795363426208496094e+01 -3.793518066406250000e+01 -9.529510736465454102e-01 5.910401344299316406e+00 1.487235069274902344e+00 1.892150640487670898e-01
6.930000000000000000e+02 1.291225719451904297e+01 -4.058461380004882812e+01 -2.136352658271789551e-01 2.191106796264648438e+00 5.932414531707763672e-01 8.786138147115707397e-02
6.940000000000000000e+02 7.865875244140625000e+01 4.033060836791992188e+01 -5.557780619710683823e-03 8.624882698059082031e+00 2.585797548294067383e+00 -2.059430070221424103e-02
6.950000000000000000e+02 7.808067321777343750e+01 4.175959014892578125e+01 2.658454515039920807e-02 8.609783172607421875e+00 2.590910196304321289e+00 -7.428769487887620926e-03
6.960000000000000000e+02 7.878768920898437500e+01 3.894092941284179688e+01 -2.262680791318416595e-02 8.640494346618652344e+00 2.585360288619995117e+00 -6.770311854779720306e-03
6.970000000000000000e+02 7.761108398437500000e+01 3.607550811767578125e+01 -2.289608120918273926e-03 8.530896186828613281e+00 2.558582067489624023e+00 4.073609039187431335e-02
6.980000000000000000e+02 7.920348358154296875e+01 3.481786727905273438e+01 -3.434409620240330696e-03 8.604441642761230469e+00 2.580302238464355469e+00 1.463557034730911255e-02
6.990000000000000000e+02 7.762151336669921875e+01 3.339944458007812500e+01 -1.102100592106580734e-02 8.489949226379394531e+00 2.543678283691406250e+00 5.106036365032196045e-02
7.000000000000000000e+02 7.922042846679687500e+01 3.343552780151367188e+01 4.576940264087170362e-04 8.579106330871582031e+00 2.573869228363037109e+00 1.731573231518268585e-02
7.010000000000000000e+02 7.931623077392578125e+01 3.064871215820312500e+01 -1.124915317632257938e-03 8.510476112365722656e+00 2.552805423736572266e+00 2.365125715732574463e-02
7.020000000000000000e+02 7.676761627197265625e+01 2.800074577331542969e+01 -1.473524048924446106e-02 8.297949790954589844e+00 2.484964370727539062e+00 1.166787520051002502e-01
7.030000000000000000e+02 7.933449554443359375e+01 2.649055290222167969e+01 1.086433185264468193e-04 8.356615066528320312e+00 2.507017135620117188e+00 2.952514402568340302e-02
7.040000000000000000e+02 7.654026031494140625e+01 2.518483352661132812e+01 -1.413848623633384705e-02 8.198877334594726562e+00 2.455421686172485352e+00 1.415651291608810425e-01
7.050000000000000000e+02 7.932252502441406250e+01 2.510414314270019531e+01 -1.968846190720796585e-03 8.299177169799804688e+00 2.489162445068359375e+00 3.155476599931716919e-02
7.060000000000000000e+02 7.931664276123046875e+01 2.092584419250488281e+01 -3.401624562684446573e-04 8.101804733276367188e+00 2.430439472198486328e+00 3.745188191533088684e-02
7.070000000000000000e+02 7.931560516357421875e+01 1.953849411010742188e+01 -4.318476130720227957e-04 8.031130790710449219e+00 2.409209728240966797e+00 3.828142210841178894e-02
7.080000000000000000e+02 7.931895446777343750e+01 1.814869117736816406e+01 2.411599853076040745e-04 7.959434986114501953e+00 2.387902736663818359e+00 3.847122192382812500e-02
7.090000000000000000e+02 7.933744812011718750e+01 1.397841453552246094e+01 -1.610292529221624136e-04 7.740293979644775391e+00 2.322039842605590820e+00 3.782349824905395508e-02
7.100000000000000000e+02 7.934011840820312500e+01 1.258907032012939453e+01 9.349996107630431652e-04 7.668116569519042969e+00 2.300715446472167969e+00 3.696154803037643433e-02
7.110000000000000000e+02 7.934204864501953125e+01 1.119995403289794922e+01 1.063674935721792281e-04 7.597603321075439453e+00 2.279312849044799805e+00 3.595060855150222778e-02
7.120000000000000000e+02 7.934622192382812500e+01 7.028955936431884766e+00 8.778874180279672146e-04 7.399919509887695312e+00 2.220239162445068359e+00 3.165018558502197266e-02
7.130000000000000000e+02 7.934848022460937500e+01 5.639285564422607422e+00 1.241038786247372627e-03 7.340622901916503906e+00 2.202559232711791992e+00 2.936351299285888672e-02
7.140000000000000000e+02 7.935042572021484375e+01 4.249658107757568359e+00 1.043788506649434566e-03 7.285888195037841797e+00 2.186079502105712891e+00 2.695453353226184845e-02
7.150000000000000000e+02 7.935153198242187500e+01 8.255180716514587402e-02 1.403048285283148289e-03 7.154910564422607422e+00 2.146894216537475586e+00 1.810733042657375336e-02
7.160000000000000000e+02 7.935094451904296875e+01 -1.307473540306091309e+00 1.729237730614840984e-03 7.123981952667236328e+00 2.137713432312011719e+00 1.470214221626520157e-02
7.170000000000000000e+02 7.804255676269531250e+01 -3.909301757812500000e+00 7.908039726316928864e-03 7.159563541412353516e+00 2.150241613388061523e+00 2.105311304330825806e-02
7.180000000000000000e+02 7.934749603271484375e+01 -4.093002319335937500e+00 1.788722933270037174e-03 7.083254814147949219e+00 2.125513076782226562e+00 7.711488753557205200e-03
7.190000000000000000e+02 7.932382202148437500e+01 -8.287200927734375000e+00 1.740484498441219330e-03 7.076916217803955078e+00 2.123597145080566406e+00 -3.278642427176237106e-03
7.200000000000000000e+02 7.788121032714843750e+01 -1.097587013244628906e+01 8.457088842988014221e-03 7.181389808654785156e+00 2.156954050064086914e+00 -3.033549897372722626e-02
7.210000000000000000e+02 7.929510498046875000e+01 -1.109500598907470703e+01 1.570830238051712513e-03 7.108843803405761719e+00 2.133124351501464844e+00 -1.093411818146705627e-02
7.220000000000000000e+02 7.929439544677734375e+01 -1.530348300933837891e+01 1.192395342513918877e-03 7.200695991516113281e+00 2.160566568374633789e+00 -1.953082531690597534e-02
7.230000000000000000e+02 7.795343017578125000e+01 -1.813028335571289062e+01 3.297485178336501122e-03 7.334375858306884766e+00 2.201302051544189453e+00 -6.590376049280166626e-02
7.240000000000000000e+02 7.931592559814453125e+01 -1.811536598205566406e+01 8.300648769363760948e-04 7.286450386047363281e+00 2.186184167861938477e+00 -2.344577386975288391e-02
7.250000000000000000e+02 7.936021423339843750e+01 -2.367955398559570312e+01 -2.629805821925401688e-04 7.488437175750732422e+00 2.246452331542968750e+00 -2.476733550429344177e-02
7.260000000000000000e+02 7.811266326904296875e+01 -2.504291343688964844e+01 -9.136569569818675518e-04 7.551956176757812500e+00 2.265312671661376953e+00 -6.903273612260818481e-02
7.270000000000000000e+02 7.937117767333984375e+01 -2.506434059143066406e+01 1.301730517297983170e-04 7.541144371032714844e+00 2.262382507324218750e+00 -2.463342063128948212e-02
7.280000000000000000e+02 7.936476898193359375e+01 -2.921463775634765625e+01 -8.694307180121541023e-04 7.693644523620605469e+00 2.307832479476928711e+00 -2.236664853990077972e-02
7.290000000000000000e+02 7.798493194580078125e+01 -3.184037971496582031e+01 -5.644990131258964539e-03 7.758275508880615234e+00 2.325789213180541992e+00 -5.460636317729949951e-02
7.300000000000000000e+02 7.933573913574218750e+01 -3.198209190368652344e+01 -1.520246500149369240e-03 7.778397560119628906e+00 2.333063125610351562e+00 -1.838326081633567810e-02
7.310000000000000000e+02 7.931651306152343750e+01 -3.607629776000976562e+01 1.281094970181584358e-03 7.865396499633789062e+00 2.360003232955932617e+00 -1.188400667160749435e-02
7.320000000000000000e+02 7.918990325927734375e+01 -3.739011001586914062e+01 -4.195738118141889572e-03 7.882779598236083984e+00 2.363575220108032227e+00 -7.597418501973152161e-03
7.330000000000000000e+02 7.892822265625000000e+01 -3.868438339233398438e+01 2.031217562034726143e-03 7.894016265869140625e+00 2.368814229965209961e+00 -7.875217124819755554e-03
7.340000000000000000e+02 7.854475402832031250e+01 -4.004428482055664062e+01 -3.500001505017280579e-03 7.900506973266601562e+00 2.369102001190185547e+00 -5.365192424505949020e-03
7.350000000000000000e+02 1.244188594818115234e+01 3.804008102416992188e+01 -2.812031507492065430e-01 2.425996780395507812e+00 6.434381008148193359e-01 -1.605174541473388672e-01
7.360000000000000000e+02 2.766317749023437500e+01 4.068792343139648438e+01 -8.296923041343688965e-01 5.491536140441894531e+00 1.398553252220153809e+00 -2.700225263833999634e-02
7.370000000000000000e+02 4.695513916015625000e+01 4.051152420043945312e+01 -7.296211123466491699e-01 7.428505420684814453e+00 2.009665250778198242e+00 3.975527361035346985e-02
7.380000000000000000e+02 6.895444989204406738e-01 3.052944421768188477e+00 5.179864820092916489e-04 4.349839291535317898e-04 2.858911175280809402e-04 -2.184607728850096464e-04
7.390000000000000000e+02 3.184332609176635742e+00 2.751061916351318359e+00 4.388947272673249245e-04 -4.145109560340642929e-04 7.315128186746733263e-06 -5.970582133159041405e-04
7.400000000000000000e+02 5.309753417968750000e+00 2.611920833587646484e+00 1.823660713853314519e-04 5.050048930570483208e-04 2.062113053398206830e-04 4.226890159770846367e-04
7.410000000000000000e+02 1.468404769897460938e+00 6.350667476654052734e+00 -2.334639430046081543e-04 1.086319331079721451e-03 2.558566338848322630e-04 -1.812268019421026111e-04
7.420000000000000000e+02 5.168908238410949707e-01 9.215577125549316406e+00 8.749086409807205200e-04 3.194898366928100586e-03 1.220942125655710697e-03 -6.806190940551459789e-04
7.430000000000000000e+02 5.824425220489501953e-01 1.202230167388916016e+01 8.330381242558360100e-04 5.883043166249990463e-03 2.014824422076344490e-03 -5.472463089972734451e-04
7.440000000000000000e+02 1.763055920600891113e+00 1.183007907867431641e+01 -1.261173281818628311e-03 1.463748631067574024e-03 6.077259604353457689e-05 -5.834826151840388775e-04
7.450000000000000000e+02 6.349294185638427734e-01 1.766297149658203125e+01 -3.792124334722757339e-03 -5.857739970088005066e-02 -1.871085725724697113e-02 1.984329335391521454e-02
7.460000000000000000e+02 7.702122211456298828e+00 1.838851165771484375e+01 -2.232666313648223877e-01 -3.767625987529754639e-02 -7.828287035226821899e-02 -6.385394185781478882e-02
7.470000000000000000e+02 6.214302182197570801e-01 2.192960357666015625e+01 7.235243916511535645e-03 -2.323211133480072021e-01 -6.752575933933258057e-02 2.398892678320407867e-02
7.480000000000000000e+02 6.767848730087280273e-01 2.335209846496582031e+01 1.805081032216548920e-03 -2.736702263355255127e-01 -8.155953884124755859e-02 1.497670449316501617e-02
7.490000000000000000e+02 7.007349729537963867e-01 2.479931449890136719e+01 9.324146434664726257e-03 -2.917997539043426514e-01 -8.474268019199371338e-02 3.173832315951585770e-03
7.500000000000000000e+02 7.097398042678833008e-01 2.908462333679199219e+01 3.296888433396816254e-03 -2.340081036090850830e-01 -6.921336054801940918e-02 -2.105369791388511658e-02
7.510000000000000000e+02 7.070177197456359863e-01 3.050143814086914062e+01 3.799734258791431785e-05 -1.887129694223403931e-01 -5.660248920321464539e-02 -2.445095963776111603e-02
7.520000000000000000e+02 2.129776477813720703e+00 3.055021476745605469e+01 9.086146019399166107e-03 9.374692291021347046e-02 3.084992058575153351e-02 -7.738889008760452271e-02
7.530000000000000000e+02 7.011356353759765625e-01 3.190960121154785156e+01 5.238481680862605572e-04 -1.396239548921585083e-01 -4.173003509640693665e-02 -2.506474591791629791e-02
7.540000000000000000e+02 6.671125888824462891e-01 3.607555007934570312e+01 -5.637248046696186066e-03 3.943976387381553650e-02 1.014075428247451782e-02 -2.671946026384830475e-02
7.550000000000000000e+02 3.116759777069091797e+00 3.726512145996093750e+01 1.258733589202165604e-02 3.970000147819519043e-01 1.228762045502662659e-01 -1.145641505718231201e-01
7.560000000000000000e+02 8.700181245803833008e-01 3.876287841796875000e+01 -1.053143758326768875e-02 2.031486928462982178e-01 5.778517946600914001e-02 -4.573773965239524841e-02
7.570000000000000000e+02 1.252926468849182129e+00 4.010589981079101562e+01 3.256584331393241882e-02 2.921180725097656250e-01 9.740517288446426392e-02 -7.213624566793441772e-02
7.580000000000000000e+02 1.037634468078613281e+01 1.855839729309082031e+00 4.245820164214819670e-04 1.431824202882125974e-04 1.703293237369507551e-04 8.276824955828487873e-04
7.590000000000000000e+02 8.917397499084472656e+00 1.864363789558410645e+00 3.383348230272531509e-04 4.511485167313367128e-04 2.368450077483430505e-04 9.742202237248420715e-04
7.600000000000000000e+02 8.202506065368652344e+00 1.861429810523986816e+00 3.812213544733822346e-04 -6.593339494429528713e-04 -8.343376975972205400e-05 -7.205266156233847141e-04
7.610000000000000000e+02 7.489533424377441406e+00 1.859507799148559570e+00 2.896203077398240566e-04 5.834130570292472839e-04 2.619100268930196762e-04 8.167159976437687874e-04
7.620000000000000000e+02 5.350862503051757812e+00 1.870268940925598145e+00 4.876051098108291626e-04 -6.683690007776021957e-04 -5.422917456598952413e-05 -5.780683713965117931e-04
7.630000000000000000e+02 4.635892868041992188e+00 1.883140563964843750e+00 2.094034425681456923e-04 4.782125761266797781e-04 2.062848070636391640e-04 1.995811617234721780e-04
7.640000000000000000e+02 3.922014236450195312e+00 1.897561073303222656e+00 4.145598504692316055e-04 -5.172142409719526768e-04 -3.079631278524175286e-05 -4.941103397868573666e-04
7.650000000000000000e+02 3.212339401245117188e+00 1.906513452529907227e+00 9.725773998070508242e-05 4.594119382090866566e-04 1.670009078225120902e-04 7.005273346294416115e-06
7.660000000000000000e+02 2.513004779815673828e+00 1.904362320899963379e+00 1.960554800461977720e-04 -2.927412569988518953e-04 -2.900573599617928267e-05 -3.728244628291577101e-04
7.670000000000000000e+02 1.819394588470458984e+00 1.901760339736938477e+00 5.737334140576422215e-05 2.889195457100868225e-04 1.038878690451383591e-04 7.105239637894555926e-05
7.680000000000000000e+02 1.263589572906494141e+01 1.765447378158569336e+00 1.135267302743159235e-04 -2.282922359881922603e-04 -3.442965316935442388e-05 1.698308187769725919e-05
7.690000000000000000e+02 1.331701946258544922e+01 1.740914225578308105e+00 3.303889534436166286e-04 2.608734357636421919e-04 1.773787225829437375e-04 5.510250339284539223e-04
7.700000000000000000e+02 1.513098812103271484e+01 1.858817219734191895e+00 1.987876203202176839e-05 -8.297851309180259705e-04 -2.429719170322641730e-04 -7.968399440869688988e-04
7.710000000000000000e+02 1.341329002380371094e+01 3.118803501129150391e+00 -1.308089413214474916e-04 -1.657042186707258224e-03 -5.363553063943982124e-04 -2.995203249156475067e-04
7.720000000000000000e+02 1.476403236389160156e+01 3.609654903411865234e+00 2.226490323664620519e-04 -2.507594472263008356e-04 -8.433129551121965051e-06 4.281814908608794212e-04
7.730000000000000000e+02 1.406908226013183594e+01 7.559120178222656250e+00 -2.347777597606182098e-03 -3.937118526664562523e-05 -7.161446264944970608e-04 -1.100960886105895042e-03
7.740000000000000000e+02 1.353108406066894531e+01 8.821338653564453125e+00 3.129669465124607086e-03 1.797297736629843712e-03 1.478090183809399605e-03 1.463666674681007862e-03
7.750000000000000000e+02 1.289740276336669922e+01 1.004942512512207031e+01 -3.857418196275830269e-03 -9.130302933044731617e-04 -1.431134529411792755e-03 -2.937336685135960579e-03
7.760000000000000000e+02 1.031028938293457031e+01 1.166797542572021484e+01 5.245728534646332264e-04 1.150747202336788177e-02 3.609613515436649323e-03 3.910545259714126587e-03
7.770000000000000000e+02 9.407404899597167969e+00 1.271873378753662109e+01 -5.059890681877732277e-04 -9.830839931964874268e-03 -3.101048758253455162e-03 -4.430117085576057434e-03
7.780000000000000000e+02 8.452290534973144531e+00 1.557408237457275391e+01 2.145979925990104675e-02 2.577689476311206818e-02 1.417100895196199417e-02 1.360613014549016953e-02
7.790000000000000000e+02 1.629018211364746094e+01 1.645118141174316406e+01 8.448979854583740234e-01 3.947206974029541016e+00 1.437631487846374512e+00 -1.503970026969909668e+00
7.800000000000000000e+02 1.660246086120605469e+01 1.301874160766601562e+01 1.168604373931884766e+00 5.010210514068603516e+00 1.853644371032714844e+00 -2.261447429656982422e+00
7.810000000000000000e+02 1.765938568115234375e+01 1.040854167938232422e+01 9.412907361984252930e-01 6.211917877197265625e+00 2.145962476730346680e+00 -2.112949848175048828e+00
7.820000000000000000e+02 1.831069183349609375e+01 7.701918125152587891e+00 3.437795341014862061e-01 5.879243850708007812e+00 1.866907000541687012e+00 -1.330377221107482910e+00
7.830000000000000000e+02 1.875844573974609375e+01 4.961546421051025391e+00 1.991542130708694458e-01 4.709774971008300781e+00 1.472678780555725098e+00 -8.858003020286560059e-01
7.840000000000000000e+02 1.923628807067871094e+01 -3.797127246856689453e+00 1.912958323955535889e-01 -2.058420628309249878e-01 -4.363871645182371140e-03 1.320817321538925171e-01
7.850000000000000000e+02 1.909012794494628906e+01 -2.657058238983154297e+00 5.144821107387542725e-02 -3.609068393707275391e-01 -9.283759444952011108e-02 -1.231443658471107483e-01
7.860000000000000000e+02 2.009921264648437500e+01 -4.054217815399169922e+00 3.377834558486938477e-01 5.971521511673927307e-02 1.192495971918106079e-01 9.639912098646163940e-02
7.870000000000000000e+02 2.223843383789062500e+01 -4.538487434387207031e+00 1.177236676216125488e+00 7.240793704986572266e-01 5.703948140144348145e-01 -7.832803130149841309e-01
7.880000000000000000e+02 2.290922164916992188e+01 -4.632465362548828125e+00 1.646612763404846191e+00 1.218758463859558105e+00 8.596113324165344238e-01 -1.377501249313354492e+00
7.890000000000000000e+02 2.336981010437011719e+01 -4.740932464599609375e+00 2.092525005340576172e+00 1.595617175102233887e+00 1.106442689895629883e+00 -1.880918264389038086e+00
7.900000000000000000e+02 2.729559326171875000e+01 -5.603013038635253906e+00 6.061661243438720703e+00 1.912244415283203125e+01 7.555231571197509766e+00 2.280855655670166016e+00
7.910000000000000000e+02 2.774859428405761719e+01 -6.323661327362060547e+00 1.073241996765136719e+01 1.611184692382812500e+01 8.053279876708984375e+00 1.761855483055114746e+00
7.920000000000000000e+02 2.775488662719726562e+01 -6.963341712951660156e+00 1.143830013275146484e+01 1.579598236083984375e+01 8.170284271240234375e+00 -7.515267133712768555e-01
7.930000000000000000e+02 2.771320152282714844e+01 -7.169594764709472656e+00 1.082794666290283203e+01 1.616937828063964844e+01 8.099197387695312500e+00 -1.514909386634826660e+00
7.940000000000000000e+02 2.800048255920410156e+01 -7.197512149810791016e+00 9.999228477478027344e+00 1.517521953582763672e+01 7.552334785461425781e+00 -1.223194718360900879e+00
7.950000000000000000e+02 2.744201850891113281e+01 -7.772203445434570312e+00 7.281342506408691406e+00 1.831973648071289062e+01 7.680324077606201172e+00 -2.289895534515380859e+00
7.960000000000000000e+02 2.713155555725097656e+01 -8.107363700866699219e+00 4.716657638549804688e+00 1.926128196716308594e+01 7.193382263183593750e+00 -9.481086730957031250e-01
7.970000000000000000e+02 2.674028778076171875e+01 -8.300460815429687500e+00 2.937810420989990234e+00 1.940356826782226562e+01 6.702413558959960938e+00 1.397799968719482422e+00
7.980000000000000000e+02 2.525201606750488281e+01 -8.385896682739257812e+00 4.479788780212402344e+00 8.065665245056152344e+00 3.763636112213134766e+00 6.223277091979980469e+00
7.990000000000000000e+02 2.385224151611328125e+01 -8.177622795104980469e+00 3.265411376953125000e+00 1.331805467605590820e+00 1.379165053367614746e+00 2.246303081512451172e+00
8.000000000000000000e+02 2.384962654113769531e+01 -8.388027191162109375e+00 3.299186944961547852e+00 1.717802643775939941e+00 1.505096912384033203e+00 2.501330375671386719e+00
8.010000000000000000e+02 2.216664314270019531e+01 -8.381014823913574219e+00 1.364514350891113281e+00 4.869868755340576172e-01 5.554503798484802246e-01 5.781434178352355957e-01
8.020000000000000000e+02 2.165852546691894531e+01 -8.121638298034667969e+00 7.872858047485351562e-01 3.383794426918029785e-01 3.376995623111724854e-01 2.018881291151046753e-01
8.030000000000000000e+02 2.022949600219726562e+01 -7.891459465026855469e+00 4.105963930487632751e-02 2.364206463098526001e-01 8.324408531188964844e-02 -2.495195865631103516e-01
8.040000000000000000e+02 1.765197944641113281e+01 -7.583419799804687500e+00 -1.966112107038497925e-01 -7.201367020606994629e-01 -2.750243544578552246e-01 -3.812168836593627930e-01
8.050000000000000000e+02 2.222061729431152344e+01 -3.933086872100830078e+00 1.384688377380371094e+00 1.261249661445617676e+00 7.937813997268676758e-01 -1.170384645462036133e+00
8.060000000000000000e+02 2.361350822448730469e+01 -4.792820930480957031e+00 2.430309772491455078e+00 1.959240317344665527e+00 1.316864967346191406e+00 -2.242244720458984375e+00
8.070000000000000000e+02 2.382596397399902344e+01 -4.828819274902343750e+00 2.674270391464233398e+00 2.101032495498657227e+00 1.432590842247009277e+00 -2.515551805496215820e+00
8.080000000000000000e+02 2.538993072509765625e+01 -5.027199745178222656e+00 3.420709848403930664e+00 9.451601028442382812e+00 3.861693143844604492e+00 -5.977049827575683594e+00
8.090000000000000000e+02 2.480036735534667969e+01 -4.958324909210205078e+00 3.609416723251342773e+00 5.219707965850830078e+00 2.648737430572509766e+00 -4.734272003173828125e+00
8.100000000000000000e+02 2.349127769470214844e+01 -4.383415222167968750e+00 2.262925863265991211e+00 2.209852457046508789e+00 1.341833472251892090e+00 -2.374527931213378906e+00
8.110000000000000000e+02 2.460255050659179688e+01 -4.944830417633056641e+00 3.511996269226074219e+00 4.218360900878906250e+00 2.319107294082641602e+00 -4.220846652984619141e+00
8.120000000000000000e+02 2.525133895874023438e+01 -4.711066722869873047e+00 2.935894727706909180e+00 8.668696403503417969e+00 3.481377363204956055e+00 -5.430386543273925781e+00
8.130000000000000000e+02 2.598416519165039062e+01 -5.075845718383789062e+00 2.245755195617675781e+00 1.532266044616699219e+01 5.270524978637695312e+00 -5.410490036010742188e+00
8.140000000000000000e+02 2.564062118530273438e+01 -4.766112327575683594e+00 2.405911445617675781e+00 1.180885124206542969e+01 4.264428615570068359e+00 -5.578013896942138672e+00
8.150000000000000000e+02 2.794466590881347656e+01 -8.164248466491699219e+00 5.833810806274414062e+00 1.589881229400634766e+01 6.519787311553955078e+00 -1.941257238388061523e+00
8.160000000000000000e+02 2.590719604492187500e+01 -8.423768997192382812e+00 3.042335271835327148e+00 1.454332542419433594e+01 5.275698184967041016e+00 5.930249214172363281e+00
8.170000000000000000e+02 2.693612098693847656e+01 -8.213624000549316406e+00 3.687196731567382812e+00 1.962649345397949219e+01 6.994107246398925781e+00 1.423600167036056519e-01
8.180000000000000000e+02 2.806787109375000000e+01 -6.986590862274169922e+00 1.034737777709960938e+01 1.478685379028320312e+01 7.540269374847412109e+00 -5.926159620285034180e-01
8.190000000000000000e+02 2.730159187316894531e+01 -7.954483032226562500e+00 5.850903034210205078e+00 1.888193130493164062e+01 7.419850826263427734e+00 -1.706568598747253418e+00
8.200000000000000000e+02 2.765440368652343750e+01 -5.533441066741943359e+00 6.392071247100830078e+00 1.750273132324218750e+01 7.168440818786621094e+00 2.392560482025146484e+00
8.210000000000000000e+02 2.744116020202636719e+01 -5.747546672821044922e+00 7.291690826416015625e+00 1.837065124511718750e+01 7.698702335357666016e+00 2.684093475341796875e+00
8.220000000000000000e+02 2.770135307312011719e+01 -6.101693153381347656e+00 9.560943603515625000e+00 1.677539634704589844e+01 7.900901794433593750e+00 2.381478071212768555e+00
8.230000000000000000e+02 2.799823379516601562e+01 -7.403516769409179688e+00 9.189783096313476562e+00 1.530924415588378906e+01 7.349708080291748047e+00 -1.763652324676513672e+00
8.240000000000000000e+02 2.777814292907714844e+01 -6.539518833160400391e+00 1.136857700347900391e+01 1.574495220184326172e+01 8.134058952331542969e+00 1.009428977966308594e+00
8.250000000000000000e+02 2.679590225219726562e+01 -5.209609508514404297e+00 2.626405239105224609e+00 1.979759788513183594e+01 6.727200984954833984e+00 -7.418828606605529785e-01
8.260000000000000000e+02 2.699337577819824219e+01 -5.310371875762939453e+00 3.514490604400634766e+00 1.987223243713378906e+01 7.016016960144042969e+00 5.072792768478393555e-01
8.270000000000000000e+02 2.633128356933593750e+01 -8.408489227294921875e+00 2.455538511276245117e+00 1.774363136291503906e+01 6.059751033782958984e+00 3.992313146591186523e+00
8.280000000000000000e+02 2.653873252868652344e+01 -8.366035461425781250e+00 2.531470298767089844e+00 1.880971908569335938e+01 6.402357101440429688e+00 2.701930522918701172e+00
8.290000000000000000e+02 2.423954010009765625e+01 -8.213992118835449219e+00 3.908980131149291992e+00 2.130662679672241211e+00 1.811892747879028320e+00 3.187783479690551758e+00
8.300000000000000000e+02 2.364192771911621094e+01 -8.194192886352539062e+00 2.990060091018676758e+00 1.060419321060180664e+00 1.215143799781799316e+00 1.945480346679687500e+00
8.310000000000000000e+02 2.503242492675781250e+01 -8.369264602661132812e+00 4.563644409179687500e+00 6.359312057495117188e+00 3.276886940002441406e+00 5.663312911987304688e+00
8.320000000000000000e+02 2.462745857238769531e+01 -8.285973548889160156e+00 4.418860435485839844e+00 3.857345581054687500e+00 2.482861757278442383e+00 4.418633937835693359e+00
8.330000000000000000e+02 2.482392501831054688e+01 -8.334581375122070312e+00 4.530561447143554688e+00 5.133666038513183594e+00 2.899268388748168945e+00 5.128979206085205078e+00
8.340000000000000000e+02 2.343692970275878906e+01 -8.174802780151367188e+00 2.636529922485351562e+00 8.973093032836914062e-01 1.060151815414428711e+00 1.655311584472656250e+00
8.350000000000000000e+02 2.303015327453613281e+01 -8.169124603271484375e+00 2.008641958236694336e+00 5.430504083633422852e-01 7.655076980590820312e-01 1.156479597091674805e+00
8.360000000000000000e+02 2.324521827697753906e+01 -8.153907775878906250e+00 2.191011905670166016e+00 8.042386770248413086e-01 8.985751867294311523e-01 1.300224661827087402e+00
8.370000000000000000e+02 2.443290901184082031e+01 -8.244985580444335938e+00 4.228931427001953125e+00 2.780739068984985352e+00 2.102901220321655273e+00 3.761730909347534180e+00
8.380000000000000000e+02 1.452383518218994141e+01 1.739007592201232910e+00 -4.939707578159868717e-04 2.254600694868713617e-04 -8.055320358835160732e-05 4.921158542856574059e-04
8.390000000000000000e+02 1.463629245758056641e+01 2.563318014144897461e+00 8.589404169470071793e-04 1.171946874819695950e-03 6.092661642469465733e-04 -1.597060036147013307e-04
8.400000000000000000e+02 1.188862228393554688e+01 1.799578905105590820e+00 3.532100818119943142e-04 1.953752871486358345e-05 1.118242798838764429e-04 3.570821427274495363e-04
8.410000000000000000e+02 1.446754360198974609e+01 -3.373388528823852539e+00 1.222142745973542333e-04 6.015789113007485867e-04 2.171379601350054145e-04 -1.800842001102864742e-04
8.420000000000000000e+02 1.385090732574462891e+01 -2.962684154510498047e+00 -1.066829572664573789e-04 -2.462467818986624479e-04 -1.058789202943444252e-04 -1.802986480470281094e-05
8.430000000000000000e+02 1.884761428833007812e+01 -8.507391929626464844e+00 -4.253380466252565384e-03 3.661154955625534058e-02 9.707450866699218750e-03 -2.660392224788665771e-01
8.440000000000000000e+02 3.907221078872680664e+00 3.543693304061889648e+00 4.999496741220355034e-04 -4.412003327161073685e-04 1.762479951139539480e-05 -9.110381943173706532e-04
8.450000000000000000e+02 9.551865577697753906e+00 2.612181663513183594e+00 3.495484997984021902e-04 5.962245631963014603e-04 2.837319334503263235e-04 1.313444226980209351e-03
8.460000000000000000e+02 7.415387153625488281e+00 2.586173772811889648e+00 5.536584067158401012e-04 -1.103388378396630287e-03 -1.649189798627048731e-04 -8.493678178638219833e-04
8.470000000000000000e+02 6.777374744415283203e+00 1.859636545181274414e+00 5.031901528127491474e-04 -7.601312827318906784e-04 -7.708235352765768766e-05 -6.653341697528958321e-04
8.480000000000000000e+02 6.714030742645263672e+00 2.585134744644165039e+00 1.538507640361785889e-04 7.499767234548926353e-04 2.711482520680874586e-04 8.024380076676607132e-04
8.490000000000000000e+02 8.029098510742187500e+00 3.346902608871459961e+00 5.730931297875940800e-04 -1.527935499325394630e-03 -2.864527050405740738e-04 -1.013304339721798897e-03
8.500000000000000000e+02 5.896444320678710938e+00 4.054861545562744141e+00 8.521461277268826962e-04 -1.509373891167342663e-03 -1.971683523152023554e-04 -6.254998734220862389e-04
8.510000000000000000e+02 1.506796836853027344e+00 7.717549324035644531e+00 5.903629353269934654e-04 9.355412330478429794e-04 4.577712679747492075e-04 -1.172386924736201763e-03
8.520000000000000000e+02 3.871405124664306641e-01 3.799553394317626953e+00 -1.106432755477726460e-04 2.265804941998794675e-04 3.478116559563204646e-05 -2.948675828520208597e-04
8.530000000000000000e+02 2.383379936218261719e+00 3.700732469558715820e+00 4.440994525793939829e-04 -4.301041772123426199e-04 4.198585884296335280e-06 -5.651108222082257271e-04
8.540000000000000000e+02 3.871382176876068115e-01 2.100501298904418945e+00 -1.145143760368227959e-04 5.502463682205416262e-05 -1.784691994544118643e-05 1.187923262477852404e-04
8.550000000000000000e+02 1.123172879219055176e+00 1.948736071586608887e+00 1.467789552407339215e-04 3.864226528094150126e-05 5.562636943068355322e-05 -3.570970147848129272e-04
8.560000000000000000e+02 1.113224506378173828e+01 1.830457091331481934e+00 -1.084229224943555892e-04 -2.171549931517802179e-05 -3.904152617906220257e-05 -3.341357223689556122e-04
8.570000000000000000e+02 8.730057716369628906e+00 3.365217924118041992e+00 1.289119099965319037e-04 1.129101146943867207e-03 3.774039214476943016e-04 1.567721832543611526e-03
8.580000000000000000e+02 2.086960220336914062e+01 -4.264067173004150391e+00 5.558007955551147461e-01 3.211331069469451904e-01 2.630801796913146973e-01 -7.157079875469207764e-02
8.590000000000000000e+02 2.153973197937011719e+01 -3.281678915023803711e+00 9.860872626304626465e-01 1.288470506668090820e+00 6.823673248291015625e-01 -9.591081142425537109e-01
8.600000000000000000e+02 2.161588859558105469e+01 -3.855005264282226562e+00 1.121236205101013184e+00 8.697648644447326660e-01 5.973002910614013672e-01 -7.260859012603759766e-01
8.610000000000000000e+02 1.347023200988769531e+01 -4.840513706207275391e+00 -4.744357429444789886e-04 -3.846615800284780562e-05 -1.538705691928043962e-04 1.961281232070177794e-04
8.620000000000000000e+02 1.288371086120605469e+01 -5.963588714599609375e+00 6.758220260962843895e-04 1.486241671955212951e-04 2.473338681738823652e-04 -2.914749493356794119e-04
8.630000000000000000e+02 1.333368587493896484e+01 -2.560794591903686523e+00 1.677463005762547255e-04 3.913496329914778471e-04 1.677287800703197718e-04 -1.191857300000265241e-04
8.640000000000000000e+02 8.143920898437500000e+00 -2.588183403015136719e+00 2.196031418861821294e-04 -7.474018639186397195e-05 4.345888737589120865e-05 -5.490078474394977093e-04
8.650000000000000000e+02 8.828942298889160156e+00 2.602646589279174805e+00 2.867012808565050364e-04 -9.012442897073924541e-04 -1.843628997448831797e-04 -9.317987132817506790e-04
8.660000000000000000e+02 1.361922168731689453e+01 3.925359964370727539e+00 -9.307349100708961487e-04 1.057206769473850727e-03 3.794156509684398770e-05 -8.544207084923982620e-04
8.670000000000000000e+02 1.258007621765136719e+01 2.541607618331909180e+00 3.623912634793668985e-04 -1.967846474144607782e-04 4.968198845745064318e-05 1.956203195732086897e-04
8.680000000000000000e+02 1.105920982360839844e+01 2.603111982345581055e+00 5.922187701798975468e-04 1.072157392627559602e-04 2.098303521052002907e-04 1.047792495228350163e-03
8.690000000000000000e+02 8.076479911804199219e+00 -1.855162858963012695e+00 -1.156285652541555464e-04 3.504871347104199231e-05 -2.417395444354042411e-05 4.455709422472864389e-04
8.700000000000000000e+02 1.255015850067138672e+01 -3.697823286056518555e+00 -4.853948194067925215e-04 3.596893220674246550e-04 -3.771164847421459854e-05 3.170373092871159315e-04
8.710000000000000000e+02 7.404670238494873047e+00 -2.600459337234497070e+00 -1.634078944334760308e-04 6.867510091979056597e-05 -2.841983587131835520e-05 5.340516217984259129e-04
8.720000000000000000e+02 1.177835178375244141e+01 -5.628760337829589844e+00 -5.965934833511710167e-04 -4.165150457993149757e-04 -3.039325529243797064e-04 5.130834178999066353e-04
8.730000000000000000e+02 7.246241569519042969e+00 -4.914927482604980469e+00 -9.359676914755254984e-05 1.341336290352046490e-03 3.743218549061566591e-04 -4.956168122589588165e-04
8.740000000000000000e+02 6.561642169952392578e+00 -1.868810534477233887e+00 -4.805098797078244388e-05 -1.866844650066923350e-05 -2.001583015953656286e-05 4.221354902256280184e-04
8.750000000000000000e+02 6.657737255096435547e+00 -2.605936288833618164e+00 1.946521369973197579e-04 -7.125115371309220791e-05 3.702029425767250359e-05 -6.163237849250435829e-04
8.760000000000000000e+02 5.177660942077636719e+00 -2.709701061248779297e+00 -6.564646901097148657e-05 -2.038841194007545710e-05 -2.581046464911196381e-05 -4.981218371540307999e-04
8.770000000000000000e+02 1.570307731628417969e+00 -7.885102748870849609e+00 2.099487610394135118e-04 3.097064036410301924e-04 1.558965450385585427e-04 6.176733586471527815e-05
8.780000000000000000e+02 3.936242103576660156e+00 -3.799900293350219727e+00 3.724576381500810385e-04 3.314498462714254856e-05 1.216807868331670761e-04 2.886186703108251095e-04
8.790000000000000000e+02 1.525485754013061523e+00 -6.566548347473144531e+00 -5.240079190116375685e-06 1.599444804014638066e-04 4.641132181859575212e-05 5.889259045943617821e-04
8.800000000000000000e+02 1.187974691390991211e+00 -2.132908105850219727e+00 2.649118869157973677e-05 8.413227624259889126e-05 3.318703966215252876e-05 -2.119418350048363209e-04
8.810000000000000000e+02 5.328961610794067383e-01 -5.051420211791992188e+00 -1.809815439628437161e-04 -1.726477057673037052e-05 -5.947389217908494174e-05 1.147168877650983632e-04
8.820000000000000000e+02 2.084702682495117188e+01 -8.674235343933105469e+00 8.601870536804199219e-01 4.738134443759918213e-01 4.002001583576202393e-01 1.987302303314208984e-01
8.830000000000000000e+02 1.949184989929199219e+01 -8.567043304443359375e+00 1.984380632638931274e-01 2.224395275115966797e-01 1.262632757425308228e-01 -1.728965193033218384e-01
8.840000000000000000e+02 2.016938591003417969e+01 -8.616672515869140625e+00 4.561066329479217529e-01 3.777902126312255859e-01 2.501690685749053955e-01 -4.375400394201278687e-02
8.850000000000000000e+02 1.858631324768066406e+01 -3.516792535781860352e+00 3.160940855741500854e-02 -7.623208165168762207e-01 -2.192134261131286621e-01 -1.567183434963226318e-02
8.860000000000000000e+02 2.041017341613769531e+01 -3.287121534347534180e+00 5.697950124740600586e-01 4.999099075794219971e-01 3.209114670753479004e-01 -2.939350605010986328e-01
8.870000000000000000e+02 1.139935302734375000e+01 -1.918497276306152344e+01 -6.029565259814262390e-02 2.894743084907531738e-01 6.875360012054443359e-02 2.878833115100860596e-01
8.880000000000000000e+02 4.172662734985351562e+00 -1.905130577087402344e+01 -8.253913372755050659e-02 1.691888272762298584e-02 -1.968607492744922638e-02 -9.276818484067916870e-02
8.890000000000000000e+02 1.282900524139404297e+01 1.991248893737792969e+01 4.041439294815063477e-01 1.860806345939636230e+00 6.794850826263427734e-01 -1.115571737289428711e+00
8.900000000000000000e+02 8.772064208984375000e+00 2.016175842285156250e+01 3.007701337337493896e-01 1.746004372835159302e-01 1.426111757755279541e-01 -2.652167081832885742e-01
8.910000000000000000e+02 1.936483192443847656e+01 7.970892429351806641e+00 6.378036737442016602e-01 5.666796207427978516e+00 1.891379952430725098e+00 -1.645154476165771484e+00
8.920000000000000000e+02 1.911892127990722656e+01 9.359656333923339844e+00 8.854951858520507812e-01 5.705214977264404297e+00 1.977213025093078613e+00 -1.722919821739196777e+00
8.930000000000000000e+02 1.401324939727783203e+01 1.875659561157226562e+01 5.804551839828491211e-01 2.446286678314208984e+00 9.080225229263305664e-01 -1.294437170028686523e+00
8.940000000000000000e+02 1.410069942474365234e+01 1.656044960021972656e+01 1.442968249320983887e+00 2.380161046981811523e+00 1.146938800811767578e+00 -1.753283500671386719e+00
8.950000000000000000e+02 1.717276954650878906e+01 1.172315788269042969e+01 1.052218794822692871e+00 5.545413494110107422e+00 1.979289650917053223e+00 -2.244277477264404297e+00
8.960000000000000000e+02 1.722521972656250000e+01 1.506357765197753906e+01 1.026302456855773926e+00 4.440107345581054688e+00 1.639922857284545898e+00 -1.612981915473937988e+00
8.970000000000000000e+02 2.008776092529296875e+01 2.293224573135375977e+00 1.419446766376495361e-01 3.445103883743286133e+00 1.076114535331726074e+00 -1.407827138900756836e+00
8.980000000000000000e+02 6.315364241600036621e-01 1.623485374450683594e+01 -3.889796789735555649e-03 -2.220325171947479248e-02 -7.827914319932460785e-03 1.119088381528854370e-02
8.990000000000000000e+02 1.959403228759765625e+01 6.593166828155517578e+00 4.453301727771759033e-01 5.309118270874023438e+00 1.726334452629089355e+00 -1.470773458480834961e+00
9.000000000000000000e+02 1.842437744140625000e+01 1.218019199371337891e+01 9.432090520858764648e-01 5.443943500518798828e+00 1.916145801544189453e+00 -1.773420214653015137e+00
9.010000000000000000e+02 1.514688396453857422e+01 1.762735748291015625e+01 7.411978840827941895e-01 3.196375370025634766e+00 1.181271910667419434e+00 -1.468338012695312500e+00
9.020000000000000000e+02 1.888067245483398438e+01 8.129413723945617676e-01 2.297201752662658691e-02 1.273100495338439941e+00 3.888217806816101074e-01 -4.242765307426452637e-01
9.030000000000000000e+02 1.990265274047851562e+01 8.995007276535034180e-01 9.844706952571868896e-02 2.414051055908203125e+00 7.537494301795959473e-01 -1.140266776084899902e+00
9.040000000000000000e+02 1.788875579833984375e+01 1.358386325836181641e+01 1.056456804275512695e+00 5.023725986480712891e+00 1.824054837226867676e+00 -1.817252755165100098e+00
9.050000000000000000e+02 2.231735420227050781e+01 -2.180054664611816406e+00 1.097615242004394531e+00 2.931737422943115234e+00 1.208805799484252930e+00 -1.991778492927551270e+00
9.060000000000000000e+02 1.885850334167480469e+01 -1.777803421020507812e+00 3.997056558728218079e-02 -3.619967401027679443e-01 -9.660784900188446045e-02 -1.646373867988586426e-01
9.070000000000000000e+02 3.761647224426269531e+00 -1.582867050170898438e+01 -3.530224040150642395e-02 -1.407371251843869686e-03 -1.101288385689258575e-02 -7.618892937898635864e-03
9.080000000000000000e+02 6.125715374946594238e-01 -1.764193725585937500e+01 -8.444519713521003723e-03 -1.870903372764587402e-02 -8.146066218614578247e-03 -1.536477077752351761e-02
9.090000000000000000e+02 1.237114715576171875e+01 -1.797470283508300781e+01 -7.911390811204910278e-02 3.196824193000793457e-01 7.217054814100265503e-02 2.144981175661087036e-01
9.100000000000000000e+02 1.026209735870361328e+01 -2.530491113662719727e+00 -2.158822171622887254e-04 3.977418600698001683e-05 -5.283240898279473186e-05 7.752247038297355175e-04
9.110000000000000000e+02 1.643778038024902344e+01 -1.040867805480957031e+01 -1.216016262769699097e-01 -6.441555023193359375e-01 -2.297271490097045898e-01 -3.175555169582366943e-01
9.120000000000000000e+02 1.726017570495605469e+01 -1.118881034851074219e+01 2.715092897415161133e-01 -3.095077909529209137e-02 7.216755300760269165e-02 1.934202611446380615e-01
9.130000000000000000e+02 1.573314094543457031e+01 -1.156724166870117188e+01 -7.996232807636260986e-02 -5.004801154136657715e-01 -1.741327345371246338e-01 -1.963179260492324829e-01
9.140000000000000000e+02 1.732558250427246094e+01 -1.309740829467773438e+01 5.145523548126220703e-01 5.578415989875793457e-01 3.217181861400604248e-01 6.692072153091430664e-01
9.150000000000000000e+02 1.328084564208984375e+01 -1.682697486877441406e+01 7.884559780359268188e-02 3.062960207462310791e-01 1.155424863100051880e-01 2.223001420497894287e-01
9.160000000000000000e+02 1.651680564880371094e+01 -1.229677486419677734e+01 2.685338258743286133e-01 2.807202748954296112e-02 8.898175507783889771e-02 2.538564205169677734e-01
9.170000000000000000e+02 1.364406204223632812e+01 -3.802559375762939453e+00 2.361480583203956485e-04 -5.867374129593372345e-04 -1.051767976605333388e-04 5.520550075743813068e-06
9.180000000000000000e+02 1.575969123840332031e+01 -1.342768096923828125e+01 2.336815148591995239e-01 9.527216106653213501e-02 9.868610650300979614e-02 2.782325148582458496e-01
9.190000000000000000e+02 1.820740318298339844e+01 -7.584360599517822266e+00 -2.155670225620269775e-01 -2.051783353090286255e-01 -1.262236088514328003e-01 -3.481363952159881592e-01
9.200000000000000000e+02 1.815414237976074219e+01 -9.170433044433593750e+00 1.126511488109827042e-03 -1.685854494571685791e-01 -5.023768171668052673e-02 -1.328259557485580444e-01
9.210000000000000000e+02 1.497044754028320312e+01 -1.456597995758056641e+01 2.130159437656402588e-01 2.004558593034744263e-01 1.240415424108505249e-01 2.668883502483367920e-01
9.220000000000000000e+02 1.048200893402099609e+01 -9.218002319335937500e+00 -1.153745106421411037e-03 -3.195859608240425587e-04 -4.419993201736360788e-04 8.585524046793580055e-04
9.230000000000000000e+02 9.519434928894042969e+00 -8.719891548156738281e+00 8.299965993501245975e-04 1.722930115647614002e-03 7.658780086785554886e-04 -1.256170682609081268e-03
9.240000000000000000e+02 1.112395763397216797e+01 -6.632392406463623047e+00 7.003310020081698895e-04 7.238108082674443722e-04 4.272425430826842785e-04 -7.131111342459917068e-04
9.250000000000000000e+02 1.036273193359375000e+01 -7.657964706420898438e+00 -8.069665054790675640e-04 -7.566576241515576839e-04 -4.690872447099536657e-04 9.211784927174448967e-04
9.260000000000000000e+02 1.715415716171264648e+00 -1.057650184631347656e+01 3.023410681635141373e-04 7.816071738488972187e-04 3.251844609621912241e-04 1.002406119368970394e-03
9.270000000000000000e+02 8.161307334899902344e+00 -1.267540550231933594e+01 3.942206036299467087e-03 6.143849808722734451e-03 3.025816753506660461e-03 -1.746725873090326786e-03
9.280000000000000000e+02 1.043917560577392578e+01 -4.072246074676513672e+00 1.834819413488730788e-04 9.526864159852266312e-04 3.408504999242722988e-04 -8.295039297081530094e-04
9.290000000000000000e+02 7.776570892333984375e+01 3.198065757751464844e+01 -1.154579315334558487e-02 8.462198257446289062e+00 2.535195827484130859e+00 6.214612722396850586e-02
9.300000000000000000e+02 7.916992950439453125e+01 3.618968582153320312e+01 -2.567792835179716349e-04 8.624677658081054688e+00 2.587326288223266602e+00 1.151737198233604431e-02
9.310000000000000000e+02 7.937584686279296875e+01 -2.782995414733886719e+01 1.537147036287933588e-04 7.644768714904785156e+00 2.293476819992065430e+00 -2.324729785323143005e-02
9.320000000000000000e+02 7.704558563232421875e+01 -3.774536132812500000e+01 -1.377360336482524872e-02 7.855047702789306641e+00 2.352382183074951172e+00 -3.315890207886695862e-02
9.330000000000000000e+02 7.933513641357421875e+01 -3.472678756713867188e+01 -2.570254495367407799e-03 7.841020107269287109e+00 2.351534843444824219e+00 -1.251174509525299072e-02
9.340000000000000000e+02 7.933609771728515625e+01 -2.090725708007812500e+01 3.383408766239881516e-04 7.384619712829589844e+00 2.215487480163574219e+00 -2.473913133144378662e-02
9.350000000000000000e+02 7.813518524169921875e+01 -2.639793014526367188e+01 -7.517478661611676216e-04 7.596453189849853516e+00 2.278710365295410156e+00 -6.767074763774871826e-02
9.360000000000000000e+02 7.934940338134765625e+01 -3.059992980957031250e+01 -6.294816848821938038e-04 7.738658428192138672e+00 2.321408748626708984e+00 -2.075543254613876343e-02
9.370000000000000000e+02 7.798216247558593750e+01 -3.453146362304687500e+01 -5.379546899348497391e-03 7.817389488220214844e+00 2.343603134155273438e+00 -4.072785750031471252e-02
9.380000000000000000e+02 7.795927429199218750e+01 -3.320024871826171875e+01 -7.285473868250846863e-03 7.789207935333251953e+00 2.334576845169067383e+00 -4.661664739251136780e-02
9.390000000000000000e+02 7.442961883544921875e+01 -3.717236709594726562e+01 -3.938413411378860474e-02 7.815539836883544922e+00 2.332846641540527344e+00 -7.344813644886016846e-02
9.400000000000000000e+02 7.609075164794921875e+01 -3.887102890014648438e+01 -1.533673983067274094e-02 7.855989456176757812e+00 2.352195739746093750e+00 -3.792758658528327942e-02
9.410000000000000000e+02 7.800296783447265625e+01 1.406283950805664062e+01 1.564426231198012829e-03 7.749584197998046875e+00 2.325344562530517578e+00 1.035221144556999207e-01
9.420000000000000000e+02 7.933213806152343750e+01 1.536786174774169922e+01 7.335336413234472275e-04 7.813455104827880859e+00 2.344256639480590820e+00 3.833353146910667419e-02
9.430000000000000000e+02 7.793363952636718750e+01 2.097664451599121094e+01 -2.216917928308248520e-03 8.068709373474121094e+00 2.419947862625122070e+00 1.027585342526435852e-01
9.440000000000000000e+02 7.931941223144531250e+01 2.231405830383300781e+01 -8.042014669626951218e-04 8.170859336853027344e+00 2.451016664505004883e+00 3.626867383718490601e-02
9.450000000000000000e+02 7.796313476562500000e+01 3.058494758605957031e+01 -5.740463268011808395e-03 8.430694580078125000e+00 2.527486085891723633e+00 6.516153365373611450e-02
9.460000000000000000e+02 7.806233978271484375e+01 2.788134956359863281e+01 -4.671630449593067169e-03 8.349325180053710938e+00 2.503396034240722656e+00 7.254119962453842163e-02
9.470000000000000000e+02 7.935426330566406250e+01 2.786842155456542969e+01 -2.075468655675649643e-03 8.411586761474609375e+00 2.522853612899780273e+00 2.745116688311100006e-02
9.480000000000000000e+02 7.794912719726562500e+01 2.515195465087890625e+01 -4.921365063637495041e-03 8.247833251953125000e+00 2.472873449325561523e+00 8.862758427858352661e-02
9.490000000000000000e+02 7.795763397216796875e+01 2.374433517456054688e+01 -5.515164230018854141e-03 8.189545631408691406e+00 2.455209255218505859e+00 9.387277066707611084e-02
9.500000000000000000e+02 7.794371795654296875e+01 1.821204566955566406e+01 -1.406789408065378666e-03 7.944287776947021484e+00 2.382864236831665039e+00 1.062165498733520508e-01
9.510000000000000000e+02 7.798693847656250000e+01 1.544218635559082031e+01 2.915947407018393278e-04 7.814289569854736328e+00 2.344374418258666992e+00 1.053502410650253296e-01
9.520000000000000000e+02 7.796546936035156250e+01 1.682481956481933594e+01 -1.411422708770260215e-04 7.879338741302490234e+00 2.363759279251098633e+00 1.061905771493911743e-01
9.530000000000000000e+02 7.801104736328125000e+01 1.268357372283935547e+01 1.442764536477625370e-03 7.685776233673095703e+00 2.306165695190429688e+00 1.015248671174049377e-01
9.540000000000000000e+02 7.666954803466796875e+01 1.140620708465576172e+01 5.565145052969455719e-03 7.644383907318115234e+00 2.294984579086303711e+00 1.560521572828292847e-01
9.550000000000000000e+02 7.802825164794921875e+01 8.536506652832031250e+00 3.693410893902182579e-03 7.502847671508789062e+00 2.251962423324584961e+00 9.164079278707504272e-02
9.560000000000000000e+02 7.934360504150390625e+01 9.810375213623046875e+00 9.121426264755427837e-04 7.528961181640625000e+00 2.258961915969848633e+00 3.483376279473304749e-02
9.570000000000000000e+02 7.928551483154296875e+01 -1.389820671081542969e+01 1.375900348648428917e-03 7.164778232574462891e+00 2.149846076965332031e+00 -1.702074334025382996e-02
9.580000000000000000e+02 7.933500671386718750e+01 -6.885887145996093750e+00 1.793873147107660770e-03 7.071746826171875000e+00 2.122062206268310547e+00 4.131139430683106184e-04
9.590000000000000000e+02 7.932542419433593750e+01 -1.951490592956542969e+01 4.449952757568098605e-05 7.334616184234619141e+00 2.200398206710815430e+00 -2.435776777565479279e-02
9.600000000000000000e+02 7.804909515380859375e+01 2.567292749881744385e-01 7.194222882390022278e-03 7.226428031921386719e+00 2.170086622238159180e+00 4.950346797704696655e-02
9.610000000000000000e+02 7.935204315185546875e+01 1.472130537033081055e+00 1.415862119756639004e-03 7.192448616027832031e+00 2.158159255981445312e+00 2.113709971308708191e-02
9.620000000000000000e+02 7.671272277832031250e+01 7.274421691894531250e+00 1.051085442304611206e-02 7.486426353454589844e+00 2.249081134796142578e+00 1.367377191781997681e-01
9.630000000000000000e+02 7.808769226074218750e+01 2.921542358398437500e+01 -3.730867756530642509e-03 8.394612312316894531e+00 2.517264366149902344e+00 6.813107430934906006e-02
9.640000000000000000e+02 7.618821716308593750e+01 3.631135559082031250e+01 -1.639592647552490234e-02 8.462169647216796875e+00 2.533732175827026367e+00 4.697620496153831482e-02
9.650000000000000000e+02 7.405823516845703125e+01 3.507666015625000000e+01 -5.926160141825675964e-02 8.330744743347167969e+00 2.481444835662841797e+00 1.054431572556495667e-01
9.660000000000000000e+02 7.802262115478515625e+01 9.921725273132324219e+00 2.633090596646070480e-03 7.561938762664794922e+00 2.269371509552001953e+00 9.528205543756484985e-02
9.670000000000000000e+02 7.672885131835937500e+01 4.541116654872894287e-01 1.805978454649448395e-02 7.288465023040771484e+00 2.191957473754882812e+00 8.026966452598571777e-02
9.680000000000000000e+02 7.805068969726562500e+01 3.012615442276000977e+00 6.209711078554391861e-03 7.300003051757812500e+00 2.191863775253295898e+00 6.627709418535232544e-02
9.690000000000000000e+02 7.804775238037109375e+01 -1.126045942306518555e+00 7.522713392972946167e-03 7.198155403137207031e+00 2.161703348159790039e+00 4.053223133087158203e-02
9.700000000000000000e+02 7.934975433349609375e+01 -2.699126005172729492e+00 1.493534771725535393e-03 7.100042343139648438e+00 2.130460739135742188e+00 1.126708090305328369e-02
9.710000000000000000e+02 7.797619628906250000e+01 -8.123887062072753906e+00 8.437721990048885345e-03 7.152564525604248047e+00 2.148300647735595703e+00 -9.159907698631286621e-03
9.720000000000000000e+02 7.803076171875000000e+01 -5.306151390075683594e+00 8.256250061094760895e-03 7.150195598602294922e+00 2.147535562515258789e+00 1.115195266902446747e-02
9.730000000000000000e+02 7.930933380126953125e+01 -9.690722465515136719e+00 2.125666709616780281e-03 7.089427471160888672e+00 2.127465963363647461e+00 -7.270725443959236145e-03
9.740000000000000000e+02 7.784426116943359375e+01 -1.240163612365722656e+01 7.534591481089591980e-03 7.204163551330566406e+00 2.163509368896484375e+00 -4.031722992658615112e-02
9.750000000000000000e+02 7.930540466308593750e+01 -1.671065330505371094e+01 9.397573885507881641e-04 7.241397380828857422e+00 2.172701120376586914e+00 -2.166051790118217468e-02
9.760000000000000000e+02 7.797489166259765625e+01 -1.954272079467773438e+01 2.516324864700436592e-03 7.375384330749511719e+00 2.213370323181152344e+00 -6.891744583845138550e-02
9.770000000000000000e+02 7.569528102874755859e+00 1.985516738891601562e+01 4.894056171178817749e-02 1.285373568534851074e-01 5.324337258934974670e-02 -2.469685301184654236e-02
9.780000000000000000e+02 8.869685173034667969e+00 1.871627998352050781e+01 -2.337660342454910278e-01 -8.354461193084716797e-02 -9.519319236278533936e-02 -1.973240971565246582e-01
9.790000000000000000e+02 1.357555031776428223e+00 -4.005376052856445312e+01 3.246881812810897827e-02 -2.312910556793212891e-01 -5.964666977524757385e-02 7.536137849092483521e-02
9.800000000000000000e+02 7.006903886795043945e-01 3.743372726440429688e+01 1.873781159520149231e-02 1.158381700515747070e-01 4.037279263138771057e-02 -4.380248859524726868e-02
9.810000000000000000e+02 6.749126315116882324e-01 3.469821548461914062e+01 9.228161652572453022e-04 -2.302024140954017639e-02 -6.629227194935083389e-03 -3.212297335267066956e-02
9.820000000000000000e+02 6.892871260643005371e-01 3.330719375610351562e+01 2.717480063438415527e-03 -8.526393026113510132e-02 -2.476393431425094604e-02 -2.831931784749031067e-02
9.830000000000000000e+02 7.129489779472351074e-01 2.766582107543945312e+01 4.356111865490674973e-03 -2.675004899501800537e-01 -7.894331216812133789e-02 -1.335543300956487656e-02
9.840000000000000000e+02 7.109451889991760254e-01 2.623983764648437500e+01 1.525511266663670540e-03 -2.878521978855133057e-01 -8.589801192283630371e-02 -7.589206565171480179e-03
9.850000000000000000e+02 6.004068255424499512e-01 -3.600797271728515625e+01 1.240770053118467331e-02 -4.558959901332855225e-01 -1.330464780330657959e-01 1.808900013566017151e-02
9.860000000000000000e+02 2.440421819686889648e+00 -3.329108428955078125e+01 9.964299388229846954e-03 -1.723839342594146729e-01 -4.872589185833930969e-02 2.210187166929244995e-02
9.870000000000000000e+02 3.569504976272583008e+00 2.624272346496582031e+01 5.173530429601669312e-02 1.973362118005752563e-01 7.472145557403564453e-02 -7.134994864463806152e-02
9.880000000000000000e+02 3.451126098632812500e+00 2.471479225158691406e+01 5.729429423809051514e-02 1.280458420515060425e-01 5.560204386711120605e-02 -3.396767750382423401e-02
9.890000000000000000e+02 2.096182823181152344e+00 3.332075119018554688e+01 2.845395938493311405e-04 1.856327801942825317e-01 5.577519908547401428e-02 -7.333438098430633545e-02
9.900000000000000000e+02 2.335387229919433594e+00 3.820353698730468750e+01 2.432127296924591064e-02 3.592611849308013916e-01 1.150747314095497131e-01 -1.025945991277694702e-01
9.910000000000000000e+02 3.270211696624755859e+00 3.918482589721679688e+01 -6.715261377394199371e-03 3.955893218517303467e-01 1.166622191667556763e-01 -6.664461642503738403e-02
9.920000000000000000e+02 2.277487993240356445e+00 -3.040945243835449219e+01 2.210989035665988922e-02 -2.240020781755447388e-01 -6.056765839457511902e-02 -7.650038693100214005e-03
9.930000000000000000e+02 2.165749549865722656e+00 -2.756538009643554688e+01 1.773192360997200012e-02 -2.339270859956741333e-01 -6.485854834318161011e-02 -4.272434860467910767e-02
9.940000000000000000e+02 2.358827829360961914e+00 -3.659257507324218750e+01 1.983405277132987976e-02 -1.741645485162734985e-01 -4.629914835095405579e-02 5.296411737799644470e-02
9.950000000000000000e+02 5.372669219970703125e+00 -1.725198364257812500e+01 -1.467777639627456665e-01 2.845241129398345947e-02 -3.549760207533836365e-02 8.446888998150825500e-03
9.960000000000000000e+02 6.096362471580505371e-01 2.052509880065917969e+01 -3.869507927447557449e-03 -1.680401861667633057e-01 -5.157290771603584290e-02 2.920717000961303711e-02
9.970000000000000000e+02 6.367996335029602051e-01 1.910017204284667969e+01 -3.894123656209558249e-04 -1.079202815890312195e-01 -3.249290958046913147e-02 2.405235171318054199e-02
9.980000000000000000e+02 6.290556788444519043e-01 1.482263278961181641e+01 -1.221094396896660328e-03 -3.046730067580938339e-03 -1.280347350984811783e-03 4.977887496352195740e-03
9.990000000000000000e+02 6.140265464782714844e-01 1.342278861999511719e+01 -2.098679309710860252e-03 4.807838704437017441e-03 8.127478067763149738e-04 1.352588413283228874e-03
1.000000000000000000e+03 4.971644282341003418e-01 7.817387580871582031e+00 -5.974970408715307713e-04 2.142640529200434685e-03 4.635430232156068087e-04 -1.384277566103264689e-04
1.001000000000000000e+03 6.442614197731018066e-01 -1.907447624206542969e+01 -1.532316673547029495e-03 -6.517685949802398682e-02 -2.001275308430194855e-02 -2.518102340400218964e-02
1.002000000000000000e+03 1.646871209144592285e+00 -9.222708702087402344e+00 6.409457419067621231e-04 6.927575450390577316e-04 4.001109919045120478e-04 1.628974103368818760e-03
1.003000000000000000e+03 5.026742458343505859e+00 -4.028554153442382812e+01 -4.669641703367233276e-02 3.317352533340454102e-01 8.551164716482162476e-02 -2.679559402167797089e-02
1.004000000000000000e+03 3.508008241653442383e+00 -3.910104370117187500e+01 1.056901295669376850e-03 -6.806700676679611206e-02 -2.010303176939487457e-02 2.720659784972667694e-02
1.005000000000000000e+03 4.807626724243164062e+00 -3.618375015258789062e+01 8.370202034711837769e-03 2.944333553314208984e-01 9.084106981754302979e-02 1.892208680510520935e-02
1.006000000000000000e+03 1.655576944351196289e+00 -3.538991928100585938e+01 1.949243620038032532e-02 -2.835793495178222656e-01 -7.922607660293579102e-02 5.440073087811470032e-02
1.007000000000000000e+03 2.360058069229125977e+00 -3.184455299377441406e+01 7.626628503203392029e-03 -2.079828977584838867e-01 -6.010688096284866333e-02 7.748143747448921204e-03
1.008000000000000000e+03 3.635955572128295898e+00 -2.750547599792480469e+01 3.934701159596443176e-02 -2.664889208972454071e-02 3.809436457231640816e-03 -4.293683543801307678e-02
1.009000000000000000e+03 2.047847986221313477e+00 -2.469975090026855469e+01 1.445279829204082489e-02 -2.057837247848510742e-01 -5.739927664399147034e-02 -8.067569136619567871e-02
1.010000000000000000e+03 2.114752769470214844e+00 -2.613723182678222656e+01 1.702141389250755310e-02 -2.272100746631622314e-01 -6.305660307407379150e-02 -6.435351818799972534e-02
1.011000000000000000e+03 6.419891715049743652e-01 -2.051587486267089844e+01 -5.898158997297286987e-03 -1.312445998191833496e-01 -4.114282503724098206e-02 -3.393382951617240906e-02
1.012000000000000000e+03 3.156525850296020508e+00 -2.171158027648925781e+01 -4.894683370366692543e-04 -5.920990183949470520e-02 -1.790981180965900421e-02 -1.293636858463287354e-01
1.013000000000000000e+03 1.686404943466186523e+00 -1.597678184509277344e+01 -9.242624044418334961e-03 -5.160393659025430679e-03 -4.320905543863773346e-03 -8.819786831736564636e-03
1.014000000000000000e+03 1.734500646591186523e+00 -1.194516563415527344e+01 1.326264231465756893e-03 8.895666687749326229e-04 6.647492409683763981e-04 3.258194541558623314e-03
1.015000000000000000e+03 5.650794506072998047e-01 -1.205064582824707031e+01 -1.099560991860926151e-03 5.721367895603179932e-03 1.386542106047272682e-03 8.246368961408734322e-04
1.016000000000000000e+03 8.620963096618652344e+00 -9.842049598693847656e+00 -1.141492160968482494e-03 -9.653051965869963169e-04 -6.320392130874097347e-04 1.085996511392295361e-03
1.017000000000000000e+03 5.360950946807861328e+00 -3.498606443405151367e+00 3.161883505526930094e-04 1.494245589128695428e-05 9.933923865901306272e-05 6.598840118385851383e-04
1.018000000000000000e+03 3.693278551101684570e+00 -2.927793264389038086e+00 -9.295962081523612142e-05 -4.674746014643460512e-05 -4.191212428850121796e-05 -2.214362466474995017e-04
1.019000000000000000e+03 2.903224706649780273e+00 -3.106444597244262695e+00 1.337348076049238443e-04 1.120821107178926468e-04 7.374507549684494734e-05 1.395262515870854259e-04
1.020000000000000000e+03 1.341450095176696777e+00 -3.370399951934814453e+00 9.738610242493450642e-05 4.856394371017813683e-04 1.749076618580147624e-04 3.819846606347709894e-04
1.021000000000000000e+03 4.408962130546569824e-01 5.054036140441894531e+00 -1.138057850766927004e-04 7.938045309856534004e-04 2.039996325038373470e-04 8.667047222843393683e-05
1.022000000000000000e+03 3.169561862945556641e+00 3.660989761352539062e+00 -3.556750380084849894e-05 3.946458746213465929e-04 1.077235065167769790e-04 1.435050944564864039e-04
1.023000000000000000e+03 1.642385363578796387e+00 1.044968128204345703e+01 4.932204028591513634e-04 1.477360958233475685e-03 5.911744083277881145e-04 -1.556403585709631443e-03
1.024000000000000000e+03 5.462817549705505371e-01 1.061786651611328125e+01 -9.096526773646473885e-04 4.790317732840776443e-03 1.164199551567435265e-03 -4.138323711231350899e-04
1.025000000000000000e+03 1.877503275871276855e+00 1.320843982696533203e+01 -3.762039355933666229e-03 -5.908648599870502949e-04 -1.305871177464723587e-03 2.707263454794883728e-03
1.026000000000000000e+03 1.912637591361999512e+00 1.459908008575439453e+01 -8.992426097393035889e-03 -1.691390410996973515e-03 -3.205145010724663734e-03 9.969445876777172089e-03
1.027000000000000000e+03 1.887772679328918457e+00 1.602241897583007812e+01 -1.475240103900432587e-02 -8.898921310901641846e-03 -7.095396984368562698e-03 2.606741897761821747e-02
1.028000000000000000e+03 2.086296558380126953e+00 2.474495887756347656e+01 3.221007063984870911e-02 -6.817641854286193848e-02 -1.078990381211042404e-02 -7.152218604460358620e-04
1.029000000000000000e+03 9.359845161437988281e+00 1.100122547149658203e+01 1.110069337300956249e-03 -7.884615100920200348e-03 -2.032363787293434143e-03 6.684709223918616772e-04
1.030000000000000000e+03 1.247906589508056641e+01 8.457873344421386719e+00 -2.178260823711752892e-03 -1.886930782347917557e-03 -1.219557481817901134e-03 -2.407395513728260994e-03
1.031000000000000000e+03 1.468731212615966797e+01 4.925996303558349609e+00 -9.736295323818922043e-04 2.049767208518460393e-04 -2.305958478245884180e-04 -2.872139739338308573e-04
1.032000000000000000e+03 1.182765865325927734e+01 2.580501317977905273e+00 -4.614453064277768135e-04 2.244848874397575855e-04 -7.108812860678881407e-05 -3.735458885785192251e-04
1.033000000000000000e+03 1.039079093933105469e+01 1.339618492126464844e+01 9.029487147927284241e-03 1.274258457124233246e-02 6.531621795147657394e-03 6.306822411715984344e-03
1.034000000000000000e+03 8.481708526611328125e+00 1.031301116943359375e+01 -2.856388455256819725e-03 5.717656109482049942e-03 8.583803428336977959e-04 -1.346065313555300236e-03
1.035000000000000000e+03 8.446802139282226562e+00 1.382694149017333984e+01 -6.079175975173711777e-03 1.912301406264305115e-02 3.913151565939188004e-03 4.729098640382289886e-03
1.036000000000000000e+03 1.178624820709228516e+01 3.369761705398559570e+00 9.648313862271606922e-04 -1.562480174470692873e-04 2.425750135444104671e-04 1.366102253086864948e-03
1.037000000000000000e+03 7.728974342346191406e+00 -1.109294795989990234e+01 2.846284478437155485e-04 4.414736758917570114e-03 1.409809570759534836e-03 -2.657647943124175072e-03
1.038000000000000000e+03 2.440937423706054688e+01 -4.945349693298339844e+00 3.381315708160400391e+00 3.578722715377807617e+00 2.088011503219604492e+00 -3.837168216705322266e+00
1.039000000000000000e+03 2.584183311462402344e+01 -4.777702808380126953e+00 2.099893331527709961e+00 1.330580329895019531e+01 4.621708869934082031e+00 -5.266121387481689453e+00
1.040000000000000000e+03 2.438806343078613281e+01 -4.669198989868164062e+00 3.059477567672729492e+00 4.104115009307861328e+00 2.149077892303466797e+00 -3.897534608840942383e+00
1.041000000000000000e+03 2.605101394653320312e+01 -4.787934780120849609e+00 1.781593561172485352e+00 1.485858249664306641e+01 4.992053031921386719e+00 -4.701178550720214844e+00
1.042000000000000000e+03 2.398996925354003906e+01 -4.529257774353027344e+00 2.639430999755859375e+00 3.079794168472290039e+00 1.715767502784729004e+00 -3.128355741500854492e+00
1.043000000000000000e+03 2.505622673034667969e+01 -4.660429000854492188e+00 3.013128995895385742e+00 7.419428825378417969e+00 3.129767417907714844e+00 -5.188534259796142578e+00
1.044000000000000000e+03 2.618280982971191406e+01 -5.094835281372070312e+00 1.986459016799926758e+00 1.706145858764648438e+01 5.714375019073486328e+00 -4.581255435943603516e+00
1.045000000000000000e+03 2.626997756958007812e+01 -4.802471160888671875e+00 1.568035125732421875e+00 1.613874435424804688e+01 5.312034130096435547e+00 -3.911931514739990234e+00
1.046000000000000000e+03 2.467252922058105469e+01 -8.725114822387695312e+00 4.000311374664306641e+00 5.288860321044921875e+00 2.786751508712768555e+00 4.823052406311035156e+00
1.047000000000000000e+03 2.404804420471191406e+01 -8.187746047973632812e+00 3.544051170349121094e+00 1.792527198791503906e+00 1.600973486900329590e+00 2.701101541519165039e+00
1.048000000000000000e+03 2.592961120605468750e+01 -8.815972328186035156e+00 2.440431833267211914e+00 1.360133266448974609e+01 4.812529087066650391e+00 5.128031253814697266e+00
1.049000000000000000e+03 2.612035369873046875e+01 -8.426368713378906250e+00 2.624859809875488281e+00 1.631404876708984375e+01 5.681672573089599609e+00 5.095048904418945312e+00
1.050000000000000000e+03 2.777892494201660156e+01 -6.754135131835937500e+00 1.155518341064453125e+01 1.565140247344970703e+01 8.161975860595703125e+00 1.211604550480842590e-01
1.051000000000000000e+03 2.641491889953613281e+01 -8.778681755065917969e+00 2.008239030838012695e+00 1.624177742004394531e+01 5.475004673004150391e+00 3.419822216033935547e+00
1.052000000000000000e+03 2.808857154846191406e+01 -5.984034061431884766e+00 8.477927207946777344e+00 1.510449123382568359e+01 7.074725627899169922e+00 2.107768297195434570e+00
1.053000000000000000e+03 2.657814598083496094e+01 -5.166039943695068359e+00 2.076760768890380859e+00 1.923086929321289062e+01 6.392288684844970703e+00 -2.205691099166870117e+00
1.054000000000000000e+03 2.788862609863281250e+01 -7.784916877746582031e+00 7.636882781982421875e+00 1.604045677185058594e+01 7.103201866149902344e+00 -2.144609451293945312e+00
1.055000000000000000e+03 2.732201576232910156e+01 -8.446622848510742188e+00 3.815786361694335938e+00 1.770440292358398438e+01 6.456056594848632812e+00 -6.730790734291076660e-01
1.056000000000000000e+03 2.329550743103027344e+01 -3.916060209274291992e+00 2.138811588287353516e+00 2.568508386611938477e+00 1.412196040153503418e+00 -2.456634759902954102e+00
1.057000000000000000e+03 2.073013114929199219e+01 -2.968944907188415527e-01 3.195658028125762939e-01 2.564860343933105469e+00 8.653278350830078125e-01 -1.433310747146606445e+00
1.058000000000000000e+03 2.281016921997070312e+01 -3.984710454940795898e+00 1.788387417793273926e+00 1.906662702560424805e+00 1.108515024185180664e+00 -1.803074240684509277e+00
1.059000000000000000e+03 3.893465518951416016e+00 2.708472728729248047e+00 9.541404870105907321e-05 4.137666837777942419e-04 1.527542190160602331e-04 1.634892687434330583e-04
1.060000000000000000e+03 4.602774620056152344e+00 2.654316425323486328e+00 5.156814586371183395e-04 -6.410713540390133858e-04 -3.761696643778122962e-05 -7.317226845771074295e-04
1.061000000000000000e+03 6.013874530792236328e+00 2.591049194335937500e+00 6.067123031243681908e-04 -9.638568735681474209e-04 -1.071433725883252919e-04 -7.484058151021599770e-04
1.062000000000000000e+03 5.285513877868652344e+00 3.345688819885253906e+00 6.373755168169736862e-04 -9.320565150119364262e-04 -8.840429654810577631e-05 -8.272628765553236008e-04
1.063000000000000000e+03 5.965298175811767578e+00 3.322427988052368164e+00 9.135564323514699936e-05 7.033799774944782257e-04 2.384206891292706132e-04 6.272927857935428619e-04
1.064000000000000000e+03 1.029632472991943359e+01 2.613775491714477539e+00 -1.068557103280909359e-04 -3.682928800117224455e-04 -1.425445807399228215e-04 -8.149462519213557243e-04
1.065000000000000000e+03 7.335450172424316406e+00 3.331198692321777344e+00 3.280148348494549282e-07 1.083719893358647823e-03 3.252143796999007463e-04 1.118258805945515633e-03
1.066000000000000000e+03 6.646218776702880859e+00 3.323086500167846680e+00 7.662485004402697086e-04 -1.419996726326644421e-03 -1.961244852282106876e-04 -8.066589361988008022e-04
1.067000000000000000e+03 4.605029106140136719e+00 3.427700281143188477e+00 1.748631184455007315e-04 2.680214529391378164e-04 1.328653743257746100e-04 3.609216364566236734e-04
1.068000000000000000e+03 1.866287827491760254e+00 2.677917480468750000e+00 4.550489757093600929e-05 -8.871553291101008654e-05 -1.296319169341586530e-05 -4.845322691835463047e-04
1.069000000000000000e+03 1.020184993743896484e+01 3.391585826873779297e+00 3.899856819771230221e-04 7.086242549121379852e-04 3.295829810667783022e-04 1.699541928246617317e-03
1.070000000000000000e+03 2.068320083618164062e+01 -2.397298574447631836e+00 5.941520333290100098e-01 1.254939436912536621e+00 5.547274351119995117e-01 -8.309476971626281738e-01
1.071000000000000000e+03 9.567560195922851562e+00 -2.501395225524902344e+00 1.057706467690877616e-04 -2.736116948653943837e-05 2.352284172957297415e-05 -6.968431989662349224e-04
1.072000000000000000e+03 2.150123786926269531e+01 -2.552503824234008789e+00 9.825525283813476562e-01 1.822213530540466309e+00 8.414298295974731445e-01 -1.290907502174377441e+00
1.073000000000000000e+03 2.106464958190917969e+01 -3.610749244689941406e+00 7.951586246490478516e-01 7.505950927734375000e-01 4.637261033058166504e-01 -4.763280749320983887e-01
1.074000000000000000e+03 1.158652019500732422e+01 -3.564828634262084961e+00 5.283034406602382660e-04 -8.791581058176234365e-05 1.321162853855639696e-04 -6.464582984335720539e-04
1.075000000000000000e+03 1.097240638732910156e+01 -2.639388084411621094e+00 4.050010757055133581e-04 -1.704098394839093089e-04 7.037736941128969193e-05 -6.592645659111440182e-04
1.076000000000000000e+03 1.126331233978271484e+01 -4.398378372192382812e+00 -4.884036607109010220e-04 -3.777267120312899351e-04 -2.598391147330403328e-04 6.862384616397321224e-04
1.077000000000000000e+03 1.258293342590332031e+01 -2.801738977432250977e+00 2.218182780779898167e-04 -5.001442041248083115e-04 -8.349777635885402560e-05 3.381824353709816933e-05
1.078000000000000000e+03 1.358788108825683594e+01 5.012569904327392578e+00 1.089523779228329659e-03 3.542597696650773287e-04 4.331350501161068678e-04 1.284292084164917469e-03
1.079000000000000000e+03 9.450726509094238281e+00 3.381426811218261719e+00 1.761513121891766787e-04 -1.089974655769765377e-03 -2.741469943430274725e-04 -1.154388883151113987e-03
1.080000000000000000e+03 1.264052772521972656e+01 4.120238304138183594e+00 1.345395576208829880e-03 -3.085840144194662571e-04 3.110434627160429955e-04 1.693287747912108898e-03
1.081000000000000000e+03 1.260122680664062500e+01 3.309079408645629883e+00 -1.000811811536550522e-03 1.070295693352818489e-03 2.084518018818926066e-05 -4.308431525714695454e-04
1.082000000000000000e+03 9.337195396423339844e+00 4.182421207427978516e+00 -1.343424082733690739e-05 1.439002109691500664e-03 4.276703693903982639e-04 1.942186616361141205e-03
1.083000000000000000e+03 6.746678829193115234e+00 -3.328403711318969727e+00 -7.658920367248356342e-05 -8.908101335691753775e-06 -2.564919122960418463e-05 7.863663486205041409e-04
1.084000000000000000e+03 2.539662122726440430e+00 -6.636808395385742188e+00 1.654438383411616087e-04 1.312891399720683694e-04 8.901989349396899343e-05 -1.849863037932664156e-04
1.085000000000000000e+03 7.472312927246093750e+00 -4.145922660827636719e+00 -7.675132656004279852e-05 -4.814946150872856379e-04 -1.674737868597730994e-04 8.602373418398201466e-04
1.086000000000000000e+03 8.864834785461425781e+00 -2.545641183853149414e+00 -7.657006062800064683e-05 9.202627552440389991e-05 4.636864559870446101e-06 5.451256292872130871e-04
1.087000000000000000e+03 5.912782192230224609e+00 -2.639370203018188477e+00 7.907859981060028076e-05 1.112205063691362739e-05 2.706019586184993386e-05 5.621451418846845627e-04
1.088000000000000000e+03 5.621451854705810547e+00 -4.275753498077392578e+00 -5.544626401388086379e-05 -3.504667547531425953e-04 -1.217739045387133956e-04 -7.927257101982831955e-04
1.089000000000000000e+03 4.165562629699707031e+00 -4.652600765228271484e+00 -2.143109304597601295e-04 3.699187436723150313e-05 -5.319571937434375286e-05 -2.950160705950111151e-04
1.090000000000000000e+03 2.102229595184326172e+00 -3.189467668533325195e+00 4.333576653152704239e-04 -1.732057571643963456e-04 7.804557390045374632e-05 -1.932801096700131893e-04
1.091000000000000000e+03 1.576723694801330566e+00 -5.245079517364501953e+00 3.157089522574096918e-04 4.637469537556171417e-04 2.338367776246741414e-04 -2.021599793806672096e-04
1.092000000000000000e+03 2.014715576171875000e+01 -9.378731727600097656e+00 8.505342006683349609e-01 5.841381549835205078e-01 4.304017126560211182e-01 3.434365391731262207e-01
1.093000000000000000e+03 1.946534919738769531e+01 -9.396207809448242188e+00 5.020800232887268066e-01 3.870393633842468262e-01 2.667358219623565674e-01 1.419214010238647461e-01
1.094000000000000000e+03 2.157476425170898438e+01 -3.036975860595703125e-01 4.423899948596954346e-01 3.344100952148437500e+00 1.135947227478027344e+00 -1.888969779014587402e+00
1.095000000000000000e+03 2.119591712951660156e+01 2.092648744583129883e+00 2.066372781991958618e-01 4.140164375305175781e+00 1.304040551185607910e+00 -1.910812258720397949e+00
1.096000000000000000e+03 1.767161560058593750e+01 -8.585598945617675781e+00 -2.142571210861206055e-01 -5.610049366950988770e-01 -2.325786203145980835e-01 -3.412905335426330566e-01
1.097000000000000000e+03 2.090921020507812500e+01 5.534406661987304688e+00 4.260575175285339355e-01 5.108074188232421875e+00 1.660239458084106445e+00 -1.791011214256286621e+00
1.098000000000000000e+03 1.087993335723876953e+01 9.044654846191406250e+00 -4.383321502245962620e-04 -4.990594461560249329e-03 -1.628677942790091038e-03 -1.736549311317503452e-03
1.099000000000000000e+03 1.112662506103515625e+01 1.062621307373046875e+01 -2.212708583101630211e-03 -5.066455807536840439e-03 -2.183749340474605560e-03 -3.779306309297680855e-03
1.100000000000000000e+03 1.337151241302490234e+01 6.171124935150146484e+00 -1.619630958884954453e-03 -3.574636648409068584e-04 -5.931283812969923019e-04 -1.417084597051143646e-03
1.101000000000000000e+03 6.136204719543457031e+00 -1.442753982543945312e+01 -4.855192266404628754e-03 -1.124600507318973541e-02 -4.830359481275081635e-03 -3.440650179982185364e-04
1.102000000000000000e+03 6.807367801666259766e+00 -1.342032051086425781e+01 8.714321302250027657e-04 8.986115455627441406e-03 2.957264427095651627e-03 -6.738027092069387436e-03
1.103000000000000000e+03 1.881695556640625000e+01 1.076954364776611328e+01 9.708861112594604492e-01 5.647995471954345703e+00 1.985664486885070801e+00 -1.697996616363525391e+00
1.104000000000000000e+03 2.065547180175781250e+01 6.867651462554931641e+00 5.758021473884582520e-01 5.381402492523193359e+00 1.787161350250244141e+00 -1.768160700798034668e+00
1.105000000000000000e+03 1.079819107055664062e+01 -3.361433982849121094e+00 -3.729802847374230623e-04 -2.159667346859350801e-04 -1.766841014614328742e-04 8.882012916728854179e-04
1.106000000000000000e+03 8.012753486633300781e+00 -2.046876907348632812e+01 -5.860954150557518005e-02 5.137176066637039185e-02 -2.171333646401762962e-03 -1.185656562447547913e-01
1.107000000000000000e+03 7.675733089447021484e+00 -1.876911735534667969e+01 -2.921473383903503418e-01 2.616237848997116089e-03 -8.685933053493499756e-02 -5.095617100596427917e-02
1.108000000000000000e+03 1.009730529785156250e+01 4.186925888061523438e+00 8.696860459167510271e-05 -1.217976561747491360e-03 -3.393024089746177197e-04 -1.497271354310214520e-03
1.109000000000000000e+03 1.013294219970703125e+01 -6.180055141448974609e+00 -3.643364179879426956e-04 -1.099366694688796997e-03 -4.391109396237879992e-04 7.880829507485032082e-04
1.110000000000000000e+03 1.542648983001708984e+01 -1.838750267028808594e+01 2.917262613773345947e-01 1.221694231033325195e+00 4.540261626243591309e-01 8.392869234085083008e-01
1.111000000000000000e+03 1.585393524169921875e+01 -1.529830837249755859e+01 3.660345077514648438e-01 6.420374512672424316e-01 3.024215698242187500e-01 6.119735240936279297e-01
1.112000000000000000e+03 9.319019317626953125e+00 -2.035058975219726562e+01 7.791285216808319092e-02 7.163013517856597900e-02 4.486289620399475098e-02 3.552004694938659668e-02
1.113000000000000000e+03 1.981259918212890625e+01 -3.584516346454620361e-01 1.654487103223800659e-01 1.520738124847412109e+00 5.058560371398925781e-01 -9.173022508621215820e-01
1.114000000000000000e+03 1.949384498596191406e+01 -1.027438163757324219e+01 8.441354036331176758e-01 6.630854010581970215e-01 4.521662294864654541e-01 5.581669807434082031e-01
1.115000000000000000e+03 3.731687307357788086e+00 2.174318122863769531e+01 4.713347181677818298e-02 6.730100512504577637e-02 3.433034196496009827e-02 6.502099335193634033e-02
1.116000000000000000e+03 1.868509864807128906e+01 -1.037331867218017578e+01 5.348576903343200684e-01 3.332231938838958740e-01 2.604242861270904541e-01 3.327881693840026855e-01
1.117000000000000000e+03 1.782599067687988281e+01 -1.007583904266357422e+01 2.321816980838775635e-01 -5.088645219802856445e-02 5.438857153058052063e-02 4.006018489599227905e-02
1.118000000000000000e+03 7.292318725585937500e+01 -3.791332626342773438e+01 -6.712523102760314941e-02 7.814234733581542969e+00 2.324132919311523438e+00 -7.359381020069122314e-02
1.119000000000000000e+03 7.499025726318359375e+01 -3.456499862670898438e+01 -3.381561115384101868e-02 7.791741847991943359e+00 2.327377796173095703e+00 -9.441152215003967285e-02
1.120000000000000000e+03 7.688160705566406250e+01 -3.580326461791992188e+01 -1.365171186625957489e-02 7.822692394256591797e+00 2.342712163925170898e+00 -5.364965274930000305e-02
1.121000000000000000e+03 7.533060455322265625e+01 -2.250021934509277344e+01 4.130595363676548004e-03 7.512892246246337891e+00 2.255106925964355469e+00 -1.491453647613525391e-01
1.122000000000000000e+03 7.809797668457031250e+01 -2.911110877990722656e+01 -2.345537766814231873e-03 7.682480812072753906e+00 2.304040431976318359e+00 -6.288438290357589722e-02
1.123000000000000000e+03 7.521157073974609375e+01 1.555341625213623047e+01 1.429099473170936108e-03 7.811472415924072266e+00 2.343870401382446289e+00 2.215542793273925781e-01
1.124000000000000000e+03 7.661752319335937500e+01 1.550420093536376953e+01 1.272355671972036362e-03 7.813280582427978516e+00 2.344365835189819336e+00 1.654488593339920044e-01
1.125000000000000000e+03 7.759062957763671875e+01 3.479396057128906250e+01 -8.526945486664772034e-03 8.511922836303710938e+00 2.551018714904785156e+00 4.111486300826072693e-02
1.126000000000000000e+03 7.621995544433593750e+01 3.175611114501953125e+01 -1.849372312426567078e-02 8.367143630981445312e+00 2.504595041275024414e+00 1.013139188289642334e-01
1.127000000000000000e+03 7.803659057617187500e+01 -2.230916023254394531e+01 7.587539730593562126e-04 7.461745738983154297e+00 2.238751411437988281e+00 -7.085940986871719360e-02
1.128000000000000000e+03 7.678750610351562500e+01 -2.372178077697753906e+01 1.271082728635519743e-04 7.526103496551513672e+00 2.257869243621826172e+00 -1.103628203272819519e-01
1.129000000000000000e+03 7.673241424560546875e+01 -3.031934165954589844e+01 -9.565383195877075195e-03 7.711348533630371094e+00 2.310534954071044922e+00 -9.516271948814392090e-02
1.130000000000000000e+03 7.813272857666015625e+01 -2.775098228454589844e+01 -2.674530725926160812e-03 7.640717983245849609e+00 2.291413068771362305e+00 -6.535500288009643555e-02
1.131000000000000000e+03 7.685094451904296875e+01 -2.898773765563964844e+01 -8.031276054680347443e-03 7.676620960235595703e+00 2.300576925277709961e+00 -9.866314381361007690e-02
1.132000000000000000e+03 7.690818023681640625e+01 -2.767267227172851562e+01 -4.416170064359903336e-03 7.639464378356933594e+00 2.290514469146728516e+00 -1.019427701830863953e-01
1.133000000000000000e+03 7.685494995117187500e+01 -2.505911445617675781e+01 -7.433280698023736477e-04 7.564558029174804688e+00 2.269144296646118164e+00 -1.092050001025199890e-01
1.134000000000000000e+03 7.550318145751953125e+01 -2.383173942565917969e+01 7.452344289049506187e-04 7.547121524810791016e+00 2.264359951019287109e+00 -1.485852152109146118e-01
1.135000000000000000e+03 7.659954071044921875e+01 -3.167338180541992188e+01 -1.544626522809267044e-02 7.743067264556884766e+00 2.318286418914794922e+00 -8.941479027271270752e-02
1.136000000000000000e+03 7.656347656250000000e+01 -3.447291564941406250e+01 -1.699025928974151611e-02 7.800127029418945312e+00 2.334941148757934570e+00 -6.598556041717529297e-02
1.137000000000000000e+03 7.417578125000000000e+01 -2.971232986450195312e+01 -2.433370985090732574e-02 7.698264598846435547e+00 2.302179336547851562e+00 -1.558700352907180786e-01
1.138000000000000000e+03 7.795184326171875000e+01 2.235109710693359375e+01 -3.023151541128754616e-03 8.129499435424804688e+00 2.437942981719970703e+00 9.930085390806198120e-02
1.139000000000000000e+03 7.649835968017578125e+01 1.965794563293457031e+01 -5.065926350653171539e-03 7.985831260681152344e+00 2.394229650497436523e+00 1.661303341388702393e-01
1.140000000000000000e+03 7.515496826171875000e+01 2.253334236145019531e+01 -1.474242378026247025e-02 8.061920166015625000e+00 2.414153337478637695e+00 2.071518599987030029e-01
1.141000000000000000e+03 7.649788665771484375e+01 2.104323959350585938e+01 -5.050210747867822647e-03 8.039993286132812500e+00 2.410482883453369141e+00 1.612082868814468384e-01
1.142000000000000000e+03 7.665913391113281250e+01 1.277494430541992188e+01 4.558479879051446915e-03 7.699706077575683594e+00 2.311279296875000000e+00 1.604179739952087402e-01
1.143000000000000000e+03 7.534770202636718750e+01 8.755724906921386719e+00 1.655583828687667847e-02 7.564864158630371094e+00 2.274425983428955078e+00 1.922980844974517822e-01
1.144000000000000000e+03 7.664413452148437500e+01 1.414015102386474609e+01 2.415343886241316795e-03 7.756737709045410156e+00 2.327745914459228516e+00 1.634688973426818848e-01
1.145000000000000000e+03 7.660235595703125000e+01 2.376322746276855469e+01 -1.003604289144277573e-02 8.146586418151855469e+00 2.440964937210083008e+00 1.489567160606384277e-01
1.146000000000000000e+03 7.797438049316406250e+01 2.654008865356445312e+01 -4.862872418016195297e-03 8.301772117614746094e+00 2.489072799682617188e+00 8.092228323221206665e-02
1.147000000000000000e+03 7.800066375732421875e+01 -2.093495750427246094e+01 1.468827133066952229e-03 7.418217182159423828e+00 2.225905656814575195e+00 -7.087753713130950928e-02
1.148000000000000000e+03 7.670339965820312500e+01 -2.236852073669433594e+01 2.051248913630843163e-03 7.488001346588134766e+00 2.247015714645385742e+00 -1.127479299902915955e-01
1.149000000000000000e+03 7.510284423828125000e+01 -1.533684444427490234e+01 2.660093829035758972e-02 7.359780788421630859e+00 2.215914487838745117e+00 -1.147951558232307434e-01
1.150000000000000000e+03 7.531394958496093750e+01 -7.680307865142822266e+00 3.799289837479591370e-02 7.269196510314941406e+00 2.192156791687011719e+00 -1.191294845193624496e-02
1.151000000000000000e+03 7.788277435302734375e+01 -1.526579761505126953e+01 6.198027171194553375e-03 7.260208129882812500e+00 2.179921865463256836e+00 -5.546892061829566956e-02
1.152000000000000000e+03 7.539096832275390625e+01 -6.964302659034729004e-01 3.556183725595474243e-02 7.317559242248535156e+00 2.205936431884765625e+00 9.119353443384170532e-02
1.153000000000000000e+03 7.664053344726562500e+01 -7.924339771270751953e+00 2.044952474534511566e-02 7.215870380401611328e+00 2.170896053314208984e+00 -1.210496202111244202e-02
1.154000000000000000e+03 7.804190063476562500e+01 5.770983695983886719e+00 4.929525777697563171e-03 7.393672466278076172e+00 2.219580650329589844e+00 8.073410391807556152e-02
1.155000000000000000e+03 7.673493194580078125e+01 3.175223112106323242e+00 1.577737554907798767e-02 7.354420185089111328e+00 2.211059093475341797e+00 1.058134436607360840e-01
1.156000000000000000e+03 7.592455291748046875e+01 3.489768981933593750e+01 -2.958203293383121490e-02 8.433263778686523438e+00 2.521104574203491211e+00 7.618511468172073364e-02
1.157000000000000000e+03 7.803513336181640625e+01 7.152440547943115234e+00 4.131117369979619980e-03 7.446504116058349609e+00 2.235190629959106445e+00 8.624150604009628296e-02
1.158000000000000000e+03 7.672491455078125000e+01 5.904102325439453125e+00 1.212109159678220749e-02 7.438606262207031250e+00 2.235218286514282227e+00 1.271843165159225464e-01
1.159000000000000000e+03 7.673513793945312500e+01 -2.310609817504882812e+00 1.956140995025634766e-02 7.240807056427001953e+00 2.178110599517822266e+00 5.075211822986602783e-02
1.160000000000000000e+03 7.655835723876953125e+01 -9.358819961547851562e+00 2.118227817118167877e-02 7.226681709289550781e+00 2.174359083175659180e+00 -2.835890650749206543e-02
1.161000000000000000e+03 7.656092071533203125e+01 -1.672917556762695312e+01 1.132505666464567184e-02 7.343380928039550781e+00 2.206411838531494141e+00 -9.584035724401473999e-02
1.162000000000000000e+03 7.591597747802734375e+01 3.331076431274414062e+01 -2.957367151975631714e-02 8.387735366821289062e+00 2.507448434829711914e+00 9.808532893657684326e-02
1.163000000000000000e+03 7.257388305664062500e+01 3.417260360717773438e+01 -6.699731945991516113e-02 8.252619743347167969e+00 2.455686569213867188e+00 1.377972364425659180e-01
1.164000000000000000e+03 7.667937469482421875e+01 3.038014411926269531e+01 -1.182417478412389755e-02 8.359704971313476562e+00 2.504364252090454102e+00 9.839741140604019165e-02
1.165000000000000000e+03 7.653660583496093750e+01 1.826154708862304688e+01 -3.128226613625884056e-03 7.928135395050048828e+00 2.377502202987670898e+00 1.682946383953094482e-01
1.166000000000000000e+03 7.668234252929687500e+01 1.003040313720703125e+01 7.460985332727432251e-03 7.589596748352050781e+00 2.279117345809936523e+00 1.510575413703918457e-01
1.167000000000000000e+03 7.784585571289062500e+01 -1.382866764068603516e+01 6.933361757546663284e-03 7.230360507965087891e+00 2.171188116073608398e+00 -4.835652559995651245e-02
1.168000000000000000e+03 7.647493743896484375e+01 -1.526200866699218750e+01 1.645915582776069641e-02 7.313157558441162109e+00 2.198884963989257812e+00 -8.754918724298477173e-02
1.169000000000000000e+03 7.800901031494140625e+01 -6.709648132324218750e+00 8.089547976851463318e-03 7.147761344909667969e+00 2.146755218505859375e+00 1.076805638149380684e-03
1.170000000000000000e+03 7.805068969726562500e+01 1.636599659919738770e+00 6.864298600703477859e-03 7.260447025299072266e+00 2.180193424224853516e+00 5.840901657938957214e-02
1.171000000000000000e+03 7.673087310791015625e+01 -9.232253432273864746e-01 1.904018037021160126e-02 7.261933326721191406e+00 2.184292078018188477e+00 6.569908559322357178e-02
1.172000000000000000e+03 7.673301696777343750e+01 4.535902500152587891e+00 1.390547957271337509e-02 7.394967555999755859e+00 2.222661972045898438e+00 1.172417327761650085e-01
1.173000000000000000e+03 7.673575592041015625e+01 -3.705924034118652344e+00 2.006638236343860626e-02 7.224846839904785156e+00 2.173474073410034180e+00 3.521318361163139343e-02
1.174000000000000000e+03 7.672225952148437500e+01 -5.101702690124511719e+00 1.995816268026828766e-02 7.215321540832519531e+00 2.170583963394165039e+00 1.968143507838249207e-02
1.175000000000000000e+03 7.637214660644531250e+01 -1.377356529235839844e+01 1.798312552273273468e-02 7.286908149719238281e+00 2.191467523574829102e+00 -7.543142884969711304e-02
1.176000000000000000e+03 7.645185852050781250e+01 -1.081563854217529297e+01 2.185926586389541626e-02 7.244342327117919922e+00 2.179860353469848633e+00 -4.565656185150146484e-02
1.177000000000000000e+03 7.519514465332031250e+01 -9.106526374816894531e+00 3.806739673018455505e-02 7.278789997100830078e+00 2.195057153701782227e+00 -3.332609683275222778e-02
1.178000000000000000e+03 7.664100646972656250e+01 -2.100053787231445312e+01 4.251965787261724472e-03 7.450135231018066406e+00 2.236316204071044922e+00 -1.113563999533653259e-01
1.179000000000000000e+03 7.660211944580078125e+01 -1.817234039306640625e+01 8.891981095075607300e-03 7.376684665679931641e+00 2.215672969818115234e+00 -1.021561622619628906e-01
1.180000000000000000e+03 7.524358367919921875e+01 -1.679766845703125000e+01 2.032301574945449829e-02 7.382900238037109375e+00 2.220967054367065430e+00 -1.240172237157821655e-01
1.181000000000000000e+03 7.486417293548583984e+00 1.313088798522949219e+01 4.188267514109611511e-03 -9.203650057315826416e-03 -1.504614949226379395e-03 7.480967324227094650e-03
1.182000000000000000e+03 1.150255393981933594e+01 8.065394401550292969e+00 3.347466699779033661e-04 4.787093028426170349e-03 1.536551979370415211e-03 2.639504615217447281e-03
1.183000000000000000e+03 1.299411201477050781e+01 7.326426029205322266e+00 1.744937966577708721e-03 2.131653949618339539e-03 1.162977539934217930e-03 2.017311984673142433e-03
1.184000000000000000e+03 1.929010200500488281e+01 1.408196353912353516e+01 8.171768784523010254e-01 5.069393634796142578e+00 1.765971064567565918e+00 -1.393623471260070801e+00
1.185000000000000000e+03 2.051195383071899414e+00 3.467274093627929688e+01 8.958338759839534760e-03 1.998296827077865601e-01 6.263640522956848145e-02 -7.316240668296813965e-02
1.186000000000000000e+03 3.370889663696289062e+00 3.604020309448242188e+01 4.541097208857536316e-03 4.519917666912078857e-01 1.369598507881164551e-01 -7.338242977857589722e-02
1.187000000000000000e+03 2.145859003067016602e+00 2.769571113586425781e+01 1.380613818764686584e-02 5.779016762971878052e-03 5.875546485185623169e-03 -5.078795552253723145e-02
1.188000000000000000e+03 3.565042018890380859e+00 3.061612701416015625e+01 8.209811523556709290e-03 4.013073146343231201e-01 1.228551343083381653e-01 -1.304180622100830078e-01
1.189000000000000000e+03 2.129754066467285156e+00 2.623995208740234375e+01 1.753642410039901733e-02 -3.549093008041381836e-02 -5.386352073401212692e-03 -3.086764924228191376e-02
1.190000000000000000e+03 3.616792917251586914e+00 2.775439262390136719e+01 3.189299628138542175e-02 2.581569552421569824e-01 8.701498806476593018e-02 -1.054755225777626038e-01
1.191000000000000000e+03 5.270012378692626953e+00 3.215642166137695312e+01 -1.555285789072513580e-02 7.840288281440734863e-01 2.305427938699722290e-01 -1.790318489074707031e-01
1.192000000000000000e+03 3.562956809997558594e+00 2.919760513305664062e+01 3.081123158335685730e-02 3.248190879821777344e-01 1.066891029477119446e-01 -1.278731077909469604e-01
1.193000000000000000e+03 6.192924499511718750e+00 3.828429031372070312e+01 -7.429068535566329956e-02 1.118358850479125977e+00 3.132204711437225342e-01 -6.795731186866760254e-02
1.194000000000000000e+03 3.565734386444091797e+00 3.338808822631835938e+01 6.665104301646351814e-04 4.620893597602844238e-01 1.388267576694488525e-01 -1.205968633294105530e-01
1.195000000000000000e+03 4.952267169952392578e+00 3.065251159667968750e+01 -2.655732911080121994e-03 6.764301061630249023e-01 2.021323144435882568e-01 -1.783645153045654297e-01
1.196000000000000000e+03 3.618947505950927734e+00 3.203115081787109375e+01 -8.623064495623111725e-03 4.352512359619140625e-01 1.279884427785873413e-01 -1.201025843620300293e-01
1.197000000000000000e+03 3.509149074554443359e+00 -3.562151336669921875e+01 4.738140478730201721e-02 5.854692310094833374e-02 3.177849948406219482e-02 3.730261698365211487e-02
1.198000000000000000e+03 4.014751434326171875e+00 -3.447830963134765625e+01 2.618378587067127228e-02 1.680851429700851440e-01 5.828068032860755920e-02 4.084932804107666016e-02
1.199000000000000000e+03 3.781886816024780273e+00 -3.032612800598144531e+01 3.225429356098175049e-02 6.288889795541763306e-02 2.854295633733272552e-02 6.711474619805812836e-03
1.200000000000000000e+03 2.211549758911132812e+00 -2.898304939270019531e+01 1.740559749305248260e-02 -2.313880473375320435e-01 -6.419473886489868164e-02 -2.743480540812015533e-02
1.201000000000000000e+03 5.185156822204589844e+00 -2.749744415283203125e+01 7.469841837882995605e-02 2.006051242351531982e-01 8.259106427431106567e-02 6.648695096373558044e-03
1.202000000000000000e+03 3.405026197433471680e+00 2.316418457031250000e+01 6.929778307676315308e-02 6.607379019260406494e-02 4.061147198081016541e-02 1.680614799261093140e-02
1.203000000000000000e+03 1.677506804466247559e+00 -1.330734443664550781e+01 -9.679836803115904331e-04 1.329658087342977524e-03 1.085023250197991729e-04 2.115799114108085632e-03
1.204000000000000000e+03 1.801811575889587402e+00 2.044532966613769531e+01 -4.206886049360036850e-03 -7.953094691038131714e-02 -2.512134984135627747e-02 6.738995760679244995e-02
1.205000000000000000e+03 1.925210833549499512e+00 1.898748779296875000e+01 -1.068523060530424118e-02 -4.699798673391342163e-02 -1.730496622622013092e-02 6.343188136816024780e-02
1.206000000000000000e+03 5.568518638610839844e+00 1.823270034790039062e+01 -9.036148339509963989e-02 9.137096256017684937e-02 3.028447390533983707e-04 2.227134071290493011e-02
1.207000000000000000e+03 1.941673398017883301e+00 -1.887127494812011719e+01 -2.828720025718212128e-02 -3.910278901457786560e-02 -2.021699771285057068e-02 -6.476914137601852417e-02
1.208000000000000000e+03 3.704592227935791016e+00 -1.759873771667480469e+01 -8.492922782897949219e-02 1.473047863692045212e-02 -2.105962485074996948e-02 -4.019775241613388062e-02
1.209000000000000000e+03 5.438196182250976562e+00 1.342296218872070312e+01 -1.157689932733774185e-02 -3.317078517284244299e-05 -3.483021166175603867e-03 -7.797497673891484737e-04
1.210000000000000000e+03 1.914585351943969727e+00 -2.183952331542968750e+01 -4.039769060909748077e-03 -1.327373236417770386e-01 -4.103312641382217407e-02 -9.311369806528091431e-02
1.211000000000000000e+03 6.498577594757080078e+00 -1.939146995544433594e+01 -1.290220022201538086e-01 7.096181809902191162e-02 -1.741805300116539001e-02 -1.232789233326911926e-01
1.212000000000000000e+03 3.893230199813842773e+00 5.248135089874267578e+00 7.042866200208663940e-04 -1.391064957715570927e-03 -2.060335100395604968e-04 -4.137901996728032827e-04
1.213000000000000000e+03 2.536765336990356445e+00 7.617067337036132812e+00 2.292726640007458627e-05 8.168173953890800476e-04 2.519233967177569866e-04 -7.379273301921784878e-04
1.214000000000000000e+03 4.521449089050292969e+00 1.458204460144042969e+01 -2.147731184959411621e-02 3.404184710234403610e-03 -5.421938374638557434e-03 -2.284311456605792046e-03
1.215000000000000000e+03 1.884305715560913086e+00 1.747459602355957031e+01 -1.490242127329111099e-02 -2.019720338284969330e-02 -1.052988693118095398e-02 4.329118877649307251e-02
1.216000000000000000e+03 3.538476705551147461e+00 1.995542716979980469e+01 -9.771432727575302124e-03 4.301263019442558289e-02 9.972359053790569305e-03 8.233050256967544556e-02
1.217000000000000000e+03 2.593069791793823242e+00 8.921966552734375000e+00 6.717868382111191750e-04 -4.220016417093575001e-04 7.493556768167763948e-05 -1.401803572662174702e-03
1.218000000000000000e+03 4.925386428833007812e+00 -4.498891830444335938e+00 5.096434033475816250e-04 -5.362983938539400697e-05 1.368040684610605240e-04 5.484796129167079926e-04
1.219000000000000000e+03 2.713366508483886719e+00 -4.546818733215332031e+00 2.121167926816269755e-04 7.934541790746152401e-04 3.016713017132133245e-04 -4.787847501575015485e-05
1.220000000000000000e+03 1.909903049468994141e+00 -4.151800155639648438e+00 -5.377640482038259506e-04 -6.151041598059237003e-04 -3.458604624029248953e-04 8.002281538210809231e-05
1.221000000000000000e+03 2.801399230957031250e+00 -1.566191768646240234e+01 -1.599838584661483765e-02 -7.712544873356819153e-03 -7.113279309123754501e-03 -8.861598558723926544e-03
1.222000000000000000e+03 7.662105083465576172e+00 -9.279671669006347656e+00 -1.454234879929572344e-04 3.268659580498933792e-03 9.369708131998777390e-04 -1.515306066721677780e-03
1.223000000000000000e+03 3.683394908905029297e+00 -2.891735839843750000e+01 4.463636502623558044e-02 4.585812333971261978e-03 1.476665306836366653e-02 -1.109903957694768906e-02
1.224000000000000000e+03 4.595932006835937500e+00 -2.292911148071289062e+01 3.349049761891365051e-02 1.989340782165527344e-02 1.601517200469970703e-02 -1.304034292697906494e-01
1.225000000000000000e+03 4.445195198059082031e+00 -3.768312072753906250e+01 2.807957306504249573e-02 1.553207635879516602e-01 5.502010136842727661e-02 -3.444885835051536560e-02
1.226000000000000000e+03 2.642385959625244141e+00 -7.849428176879882812e+00 5.231912364251911640e-04 1.075322943506762385e-04 1.892170694191008806e-04 1.047356752678751945e-03
1.227000000000000000e+03 2.734682321548461914e+00 -3.462520599365234375e+01 2.585230953991413116e-02 -1.542295217514038086e-01 -3.851316124200820923e-02 2.231201902031898499e-02
1.228000000000000000e+03 5.485869407653808594e+00 -3.486294555664062500e+01 2.701045013964176178e-02 4.706976413726806641e-01 1.493124216794967651e-01 5.938740819692611694e-02
1.229000000000000000e+03 4.078437328338623047e+00 -3.318469238281250000e+01 2.133905701339244843e-02 1.291707307100296021e-01 4.515293613076210022e-02 2.620311826467514038e-02
1.230000000000000000e+03 3.079413652420043945e+00 -2.031376457214355469e+01 -3.078718483448028564e-02 -3.804966434836387634e-02 -2.065105549991130829e-02 -1.108705997467041016e-01
1.231000000000000000e+03 1.974974870681762695e+00 -2.326779365539550781e+01 8.854391984641551971e-03 -1.731330007314682007e-01 -4.928358271718025208e-02 -9.421031177043914795e-02
1.232000000000000000e+03 3.538598537445068359e+00 -2.604536819458007812e+01 4.504199698567390442e-02 -4.805099219083786011e-02 -9.026990737766027451e-04 -6.970389187335968018e-02
1.233000000000000000e+03 2.749380588531494141e+00 -1.445358467102050781e+01 -6.815591361373662949e-03 -5.410594865679740906e-03 -3.667855868116021156e-03 -2.031581010669469833e-03
1.234000000000000000e+03 2.818718910217285156e+00 -1.323981571197509766e+01 -3.302557743154466152e-04 -4.884612746536731720e-03 -1.564460573717951775e-03 2.133448375388979912e-03
1.235000000000000000e+03 5.687180995941162109e+00 -9.561532974243164062e+00 6.381410639733076096e-04 9.870713984128087759e-05 2.210544625995680690e-04 -3.208918788004666567e-04
1.236000000000000000e+03 2.730830430984497070e+00 1.022858619689941406e+01 -5.610363587038591504e-05 -6.916678830748423934e-05 -3.758112870855256915e-05 -1.089158002287149429e-03
1.237000000000000000e+03 3.273766756057739258e+00 1.440302371978759766e+01 -1.758998073637485504e-02 2.031054347753524780e-03 -4.667677916586399078e-03 7.641775067895650864e-03
1.238000000000000000e+03 6.846613407135009766e+00 1.665822982788085938e+01 -8.940946310758590698e-02 5.158797837793827057e-03 -2.527520060539245605e-02 -6.625922024250030518e-02
1.239000000000000000e+03 5.618630409240722656e+00 1.672118186950683594e+01 -7.392203062772750854e-02 4.317121207714080811e-02 -9.225245565176010132e-03 -7.656976114958524704e-03
1.240000000000000000e+03 4.338308334350585938e+00 1.702868843078613281e+01 -5.944424495100975037e-02 4.804044216871261597e-02 -3.421141067519783974e-03 3.070536814630031586e-02
1.241000000000000000e+03 5.350327014923095703e+00 1.538510036468505859e+01 -4.276408255100250244e-02 1.979287713766098022e-02 -6.891361903399229050e-03 -1.123322732746601105e-02
1.242000000000000000e+03 7.461130619049072266e+00 1.511010837554931641e+01 8.531893603503704071e-03 -2.794413268566131592e-02 -5.823671352118253708e-03 -8.693211711943149567e-03
1.243000000000000000e+03 3.981772184371948242e+00 -8.908986091613769531e+00 1.010394189506769180e-03 -4.836013540625572205e-04 1.580378593644127250e-04 8.055260987021028996e-04
1.244000000000000000e+03 9.421684265136718750e+00 -7.161213397979736328e+00 2.765839453786611557e-04 1.802475424483418465e-03 6.237177876755595207e-04 -1.097047817893326283e-03
1.245000000000000000e+03 8.605762481689453125e+00 -8.189809799194335938e+00 -2.222392504336312413e-04 -1.750107854604721069e-03 -5.917041562497615814e-04 7.809462840668857098e-04
1.246000000000000000e+03 1.200572776794433594e+01 7.067102909088134766e+00 -1.078686094842851162e-03 -2.316026948392391205e-03 -1.018413924612104893e-03 -2.097070449963212013e-03
1.247000000000000000e+03 2.126474952697753906e+01 4.214005470275878906e+00 3.130549490451812744e-01 4.873757362365722656e+00 1.556043624877929688e+00 -1.932756304740905762e+00
1.248000000000000000e+03 1.619421005249023438e+01 1.872380828857421875e+01 3.447145819664001465e-01 3.614570140838623047e+00 1.187785387039184570e+00 -1.243163466453552246e+00
1.249000000000000000e+03 2.212677764892578125e+01 1.632948517799377441e+00 2.331676036119461060e-01 4.768238067626953125e+00 1.500421762466430664e+00 -2.262269496917724609e+00
1.250000000000000000e+03 2.381129646301269531e+01 4.518424510955810547e+00 1.536158472299575806e-01 6.303136348724365234e+00 1.937025666236877441e+00 -2.231239080429077148e+00
1.251000000000000000e+03 1.859813499450683594e+01 1.697462272644042969e+01 4.876855015754699707e-01 4.547909259796142578e+00 1.510678410530090332e+00 -1.182216405868530273e+00
1.252000000000000000e+03 1.983380508422851562e+01 1.258637714385986328e+01 8.716518878936767578e-01 5.333212852478027344e+00 1.861459493637084961e+00 -1.483794569969177246e+00
1.253000000000000000e+03 1.807796859741210938e+01 -1.211019897460937500e+01 6.240027546882629395e-01 6.031447649002075195e-01 3.681442439556121826e-01 6.722488999366760254e-01
1.254000000000000000e+03 1.509209728240966797e+01 -1.645041847229003906e+01 2.958490848541259766e-01 6.924106478691101074e-01 2.964779138565063477e-01 5.680543780326843262e-01
1.255000000000000000e+03 1.659462547302246094e+01 -1.417348384857177734e+01 4.551686942577362061e-01 6.033307313919067383e-01 3.175498247146606445e-01 6.479229331016540527e-01
1.256000000000000000e+03 2.045777893066406250e+01 8.220110893249511719e+00 7.406700849533081055e-01 5.508026123046875000e+00 1.874608874320983887e+00 -1.733638763427734375e+00
1.257000000000000000e+03 2.143287658691406250e+01 1.118110752105712891e+01 7.853605747222900391e-01 5.553281784057617188e+00 1.901592731475830078e+00 -1.507773518562316895e+00
1.258000000000000000e+03 1.350948810577392578e+01 -1.881575775146484375e+01 1.311888098716735840e-01 7.352789044380187988e-01 2.599403262138366699e-01 5.346960425376892090e-01
1.259000000000000000e+03 1.985720825195312500e+01 -2.352338075637817383e+00 2.257836014032363892e-01 5.421321988105773926e-01 2.303747385740280151e-01 -4.014825522899627686e-01
1.260000000000000000e+03 1.336841392517089844e+01 2.245831108093261719e+01 1.399336457252502441e-01 2.304257869720458984e+00 7.332574725151062012e-01 -1.023544788360595703e+00
1.261000000000000000e+03 1.185313892364501953e+01 2.130899429321289062e+01 2.938937544822692871e-01 1.524873375892639160e+00 5.456300973892211914e-01 -9.622643589973449707e-01
1.262000000000000000e+03 5.557666778564453125e+00 -1.180598640441894531e+01 -2.312638825969770551e-04 4.990453599020838737e-04 8.033444464672356844e-05 -2.660165773704648018e-03
1.263000000000000000e+03 4.907308101654052734e+00 4.041193008422851562e+01 -7.312662899494171143e-02 7.801800370216369629e-01 2.121160328388214111e-01 1.028278470039367676e-02
1.264000000000000000e+03 2.484860038757324219e+01 -4.617744922637939453e+00 3.026573896408081055e+00 6.265727996826171875e+00 2.787690639495849609e+00 -4.820906639099121094e+00
1.265000000000000000e+03 2.462586021423339844e+01 -4.606080055236816406e+00 3.033627986907958984e+00 5.210108757019042969e+00 2.473120927810668945e+00 -4.401311397552490234e+00
1.266000000000000000e+03 2.544467926025390625e+01 -4.747346878051757812e+00 2.722196102142333984e+00 1.019182968139648438e+01 3.874207735061645508e+00 -5.648735046386718750e+00
1.267000000000000000e+03 2.450141143798828125e+01 -8.577053070068359375e+00 4.043422698974609375e+00 4.077428340911865234e+00 2.436255455017089844e+00 4.297463893890380859e+00
1.268000000000000000e+03 2.404861259460449219e+01 -8.705836296081542969e+00 3.668241739273071289e+00 2.986318349838256836e+00 1.996368050575256348e+00 3.474479913711547852e+00
1.269000000000000000e+03 2.366753196716308594e+01 -8.440623283386230469e+00 3.088173627853393555e+00 1.432337880134582520e+00 1.356153488159179688e+00 2.273359298706054688e+00
1.270000000000000000e+03 2.746519660949707031e+01 -4.665947914123535156e+00 2.603993177413940430e+00 1.662881088256835938e+01 5.769841194152832031e+00 5.917822122573852539e-01
1.271000000000000000e+03 2.803810310363769531e+01 -5.449623584747314453e+00 6.086692810058593750e+00 1.563759040832519531e+01 6.517284870147705078e+00 2.202497482299804688e+00
1.272000000000000000e+03 2.844987678527832031e+01 -7.469915866851806641e+00 8.318328857421875000e+00 1.392031097412109375e+01 6.671591758728027344e+00 -1.422284603118896484e+00
1.273000000000000000e+03 2.840779113769531250e+01 -7.062188148498535156e+00 9.234230995178222656e+00 1.375178432464599609e+01 6.895804405212402344e+00 -6.361124515533447266e-01
1.274000000000000000e+03 2.709849357604980469e+01 -8.548810958862304688e+00 3.032890796661376953e+00 1.793358993530273438e+01 6.289944171905517578e+00 2.208304256200790405e-01
1.275000000000000000e+03 2.665057182312011719e+01 -8.721314430236816406e+00 2.132428646087646484e+00 1.714817047119140625e+01 5.784180164337158203e+00 2.361192464828491211e+00
1.276000000000000000e+03 2.757027053833007812e+01 -8.153325080871582031e+00 5.471951961517333984e+00 1.738630676269531250e+01 6.857477664947509766e+00 -1.723397254943847656e+00
1.277000000000000000e+03 2.146767997741699219e+01 -8.761050224304199219e+00 1.292955160140991211e+00 6.709567904472351074e-01 5.891736149787902832e-01 5.307798981666564941e-01
1.278000000000000000e+03 2.242601776123046875e+01 -8.805294036865234375e+00 2.080318927764892578e+00 9.882920980453491211e-01 9.205833077430725098e-01 1.222130775451660156e+00
1.279000000000000000e+03 2.218088912963867188e+01 -3.311293601989746094e+00 1.367866992950439453e+00 1.963684678077697754e+00 9.994654655456542969e-01 -1.564574241638183594e+00
1.280000000000000000e+03 2.073024559020996094e+01 -1.375266313552856445e+00 5.059248805046081543e-01 1.886189579963684082e+00 7.176343798637390137e-01 -1.203992128372192383e+00
1.281000000000000000e+03 8.616925239562988281e+00 4.164303779602050781e+00 5.244885105639696121e-04 -1.892224652692675591e-03 -4.103208484593778849e-04 -1.165542751550674438e-03
1.282000000000000000e+03 9.601850509643554688e+00 -3.136869192123413086e+00 -9.075989510165527463e-05 2.875056816264986992e-04 5.902373959543183446e-05 7.990497979335486889e-04
1.283000000000000000e+03 8.967094421386718750e+00 -3.292790412902832031e+00 1.024730881908908486e-04 -2.045091096078976989e-04 -3.061080860788933933e-05 -5.908517632633447647e-04
1.284000000000000000e+03 1.981766319274902344e+01 -1.472307205200195312e+00 2.807194888591766357e-01 9.448696970939636230e-01 3.676767647266387939e-01 -6.525431275367736816e-01
1.285000000000000000e+03 7.924093246459960938e+00 4.131504058837890625e+00 -1.467317633796483278e-04 1.577319577336311340e-03 4.291763470973819494e-04 1.520384219475090504e-03
1.286000000000000000e+03 7.117536067962646484e+00 4.853281497955322266e+00 -5.697570741176605225e-04 1.857772935181856155e-03 3.864047466777265072e-04 1.049799961037933826e-03
1.287000000000000000e+03 3.621626853942871094e+00 6.319116115570068359e+00 1.134769481723196805e-04 5.890874890610575676e-04 2.107693289872258902e-04 -4.088143468834459782e-04
1.288000000000000000e+03 2.408351659774780273e+00 4.887844562530517578e+00 -6.470092193922027946e-05 4.354343109298497438e-04 1.112200116040185094e-04 -4.409446773934178054e-05
1.289000000000000000e+03 1.381083130836486816e+00 4.991040706634521484e+00 4.275444371160119772e-04 3.896320704370737076e-04 2.451529435347765684e-04 -8.438657969236373901e-04
1.290000000000000000e+03 1.695211768150329590e+00 3.397534847259521484e+00 1.313598331762477756e-04 9.380713454447686672e-04 3.208293637726455927e-04 -4.146227438468486071e-04
1.291000000000000000e+03 7.477951526641845703e+00 -3.363336324691772461e+00 3.991926787421107292e-04 -9.335842332802712917e-05 9.175026934826746583e-05 -7.737908163107931614e-04
1.292000000000000000e+03 1.075928688049316406e+01 -5.261766910552978516e+00 4.440342599991708994e-04 9.012721129693090916e-04 4.035918973386287689e-04 -6.962565239518880844e-04
1.293000000000000000e+03 1.098325538635253906e+01 3.388668537139892578e+00 -4.578465304803103209e-04 -2.486140292603522539e-04 -2.119381679221987724e-04 -1.137319020926952362e-03
1.294000000000000000e+03 1.166162109375000000e+01 5.023306369781494141e+00 7.795931305736303329e-04 1.365873496979475021e-03 6.436399416998028755e-04 2.740377560257911682e-03
1.295000000000000000e+03 1.080740451812744141e+01 4.987205982208251953e+00 -5.573859380092471838e-05 -1.563989906571805477e-03 -4.859185428358614445e-04 -2.092021983116865158e-03
1.296000000000000000e+03 9.830673217773437500e+00 -4.792127609252929688e+00 -6.122481136117130518e-05 -1.243674894794821739e-03 -3.914698900189250708e-04 4.959445795975625515e-04
1.297000000000000000e+03 4.662959575653076172e+00 -3.648905515670776367e+00 -1.677046675467863679e-04 -3.893127723131328821e-05 -6.199078052304685116e-05 -4.309992946218699217e-04
1.298000000000000000e+03 6.574020385742187500e+00 -4.546313285827636719e+00 4.496510955505073071e-04 -1.440623542293906212e-03 -2.972917282022535801e-04 -2.003949630307033658e-04
1.299000000000000000e+03 8.236162185668945312e+00 -3.381425619125366211e+00 -2.458889794070273638e-04 1.834399154176935554e-04 -1.873471592261921614e-05 4.789608647115528584e-04
1.300000000000000000e+03 3.709526300430297852e+00 -7.718984603881835938e+00 4.673588555306196213e-04 -6.575825973413884640e-04 -5.706712545361369848e-05 -1.786112552508711815e-04
1.301000000000000000e+03 3.206773042678833008e+00 -3.992644071578979492e+00 -4.022382781840860844e-04 -2.244737697765231133e-04 -1.880136114777997136e-04 7.181554974522441626e-05
1.302000000000000000e+03 3.447535514831542969e+00 -5.608320236206054688e+00 -1.538185169920325279e-04 2.619370061438530684e-04 3.243555329390801489e-05 -3.520160389598459005e-04
1.303000000000000000e+03 2.543960571289062500e+00 -5.516317844390869141e+00 2.740568597801029682e-04 -3.832268121186643839e-04 -3.275098788435570896e-05 5.779571365565061569e-04
1.304000000000000000e+03 1.174758911132812500e+01 4.175724506378173828e+00 -9.563093190081417561e-04 -1.500093057984486222e-04 -3.318956005387008190e-04 -1.672111568041145802e-03
1.305000000000000000e+03 2.080083847045898438e+01 -9.365171432495117188e+00 1.190149307250976562e+00 7.665355801582336426e-01 5.870054364204406738e-01 5.845690369606018066e-01
1.306000000000000000e+03 2.140179252624511719e+01 -9.378888130187988281e+00 1.534612417221069336e+00 9.386574625968933105e-01 7.419809699058532715e-01 8.668630719184875488e-01
1.307000000000000000e+03 2.382504844665527344e+01 -4.189500808715820312e+00 2.507701158523559570e+00 3.387548446655273438e+00 1.768574833869934082e+00 -3.105268001556396484e+00
1.308000000000000000e+03 2.156526184082031250e+01 -1.236280560493469238e+00 6.667895913124084473e-01 2.805613279342651367e+00 1.041720867156982422e+00 -1.737047791481018066e+00
1.309000000000000000e+03 1.879090499877929688e+01 -9.363351821899414062e+00 2.403461188077926636e-01 1.239914968609809875e-01 1.093012839555740356e-01 -2.789353893604129553e-04
1.310000000000000000e+03 1.016179275512695312e+01 1.001250171661376953e+01 -1.546608749777078629e-03 8.818306960165500641e-03 2.181509509682655334e-03 2.005199436098337173e-03
1.311000000000000000e+03 1.000328922271728516e+01 8.493934631347656250e+00 -1.565036945976316929e-03 6.305539514869451523e-03 1.422150759026408195e-03 9.254380129277706146e-04
1.312000000000000000e+03 2.960193634033203125e+00 1.155900287628173828e+01 -1.354825333692133427e-03 -2.129121916368603706e-03 -1.045184093527495861e-03 -5.367156700231134892e-04
1.313000000000000000e+03 6.658204078674316406e+00 1.825610733032226562e+01 -1.304381191730499268e-01 9.840022027492523193e-02 -9.611370973289012909e-03 -6.731912028044462204e-03
1.314000000000000000e+03 3.103035926818847656e+00 1.726774406433105469e+01 -3.506608679890632629e-02 1.332880556583404541e-02 -6.521183997392654419e-03 4.976572468876838684e-02
1.315000000000000000e+03 9.996488571166992188e+00 5.001964092254638672e+00 -3.313874476589262486e-04 1.797900651581585407e-03 4.399539611767977476e-04 2.496384549885988235e-03
1.316000000000000000e+03 4.132084846496582031e+00 1.113322734832763672e+01 -1.650176593102514744e-03 -1.737861079163849354e-03 -1.016411348246037960e-03 -8.852751489030197263e-05
1.317000000000000000e+03 8.135416984558105469e+00 -2.188492012023925781e+01 1.475958824157714844e-01 1.544247269630432129e-01 9.060618281364440918e-02 1.871819404186680913e-04
1.318000000000000000e+03 1.076587009429931641e+01 -2.064717102050781250e+01 1.210067048668861389e-01 3.457182943820953369e-01 1.400174945592880249e-01 2.851369976997375488e-01
1.319000000000000000e+03 3.153103113174438477e+00 -1.888673210144042969e+01 -4.137937724590301514e-02 -1.174454670399427414e-02 -1.593717746436595917e-02 -9.293220192193984985e-02
1.320000000000000000e+03 6.028156280517578125e+00 -1.816752624511718750e+01 -2.019419372081756592e-01 7.190968096256256104e-02 -3.900967538356781006e-02 -6.811596453189849854e-02
1.321000000000000000e+03 9.215169906616210938e+00 -4.100342750549316406e+00 -3.313234483357518911e-04 1.120307715609669685e-03 2.366952685406431556e-04 4.033997538499534130e-04
1.322000000000000000e+03 6.814328193664550781e+00 -2.080508804321289062e+01 -6.432303786277770996e-02 7.819698750972747803e-02 4.162185359746217728e-03 -1.348175704479217529e-01
1.323000000000000000e+03 2.173684310913085938e+01 7.142845630645751953e+00 5.794711112976074219e-01 5.556334495544433594e+00 1.840741634368896484e+00 -1.884602427482604980e+00
1.324000000000000000e+03 9.274733543395996094e+00 9.366038322448730469e+00 1.102281035855412483e-03 -5.911631509661674500e-03 -1.442805049009621143e-03 2.026865724474191666e-03
1.325000000000000000e+03 1.257899761199951172e+01 5.046515941619873047e+00 -1.252379268407821655e-03 -2.583411405794322491e-04 -4.532161401584744453e-04 -1.756225945428013802e-03
1.326000000000000000e+03 2.190410041809082031e+01 3.175168275833129883e+00 2.136811316013336182e-01 4.962062835693359375e+00 1.552723169326782227e+00 -2.125734806060791016e+00
1.327000000000000000e+03 2.087165260314941406e+01 8.470582365989685059e-01 1.941857784986495972e-01 3.255962610244750977e+00 1.035044550895690918e+00 -1.667294263839721680e+00
1.328000000000000000e+03 8.162100791931152344e+00 -5.233864784240722656e+00 1.019488991005346179e-04 -1.233762479387223721e-03 -3.395440580788999796e-04 4.841899208258837461e-04
1.329000000000000000e+03 8.467478752136230469e+00 1.203079509735107422e+01 -5.516455974429845810e-03 1.019484549760818481e-02 1.403516740538179874e-03 -7.191690383478999138e-04
1.330000000000000000e+03 5.825402736663818359e+00 1.145898723602294922e+01 -2.810586243867874146e-03 -2.642565639689564705e-03 -1.635945518501102924e-03 1.295924535952508450e-03
1.331000000000000000e+03 1.419144058227539062e+01 2.109600639343261719e+01 1.716539710760116577e-01 2.609560489654541016e+00 8.343642950057983398e-01 -1.105798959732055664e+00
1.332000000000000000e+03 7.524658966064453125e+01 1.421034431457519531e+01 5.088497884571552277e-03 7.760810852050781250e+00 2.329769849777221680e+00 2.181405276060104370e-01
1.333000000000000000e+03 7.537494659423828125e+01 6.820868253707885742e-01 3.360928595066070557e-02 7.342263221740722656e+00 2.212761640548706055e+00 1.101035252213478088e-01
1.334000000000000000e+03 7.398921203613281250e+01 -7.391310214996337891e+00 5.924885347485542297e-02 7.314374923706054688e+00 2.212087154388427734e+00 -8.753755129873752594e-03
1.335000000000000000e+03 7.501571655273437500e+01 -1.057871341705322266e+01 4.033868387341499329e-02 7.295478343963623047e+00 2.200745105743408203e+00 -5.588938668370246887e-02
1.336000000000000000e+03 7.635955810546875000e+01 -1.228839206695556641e+01 1.961637660861015320e-02 7.265161991119384766e+00 2.185433387756347656e+00 -6.175003945827484131e-02
1.337000000000000000e+03 7.321987915039062500e+01 -1.168485641479492188e+01 6.500341743230819702e-02 7.360934734344482422e+00 2.227781295776367188e+00 -9.060051292181015015e-02
1.338000000000000000e+03 7.669178771972656250e+01 -6.505560398101806641e+00 2.047126367688179016e-02 7.212342739105224609e+00 2.169844150543212891e+00 4.029653500765562057e-03
1.339000000000000000e+03 7.538185119628906250e+01 -6.273459911346435547e+00 3.716105967760086060e-02 7.266652107238769531e+00 2.191143989562988281e+00 9.003547951579093933e-03
1.340000000000000000e+03 7.411305236816406250e+01 -3.258897066116333008e+00 5.797384679317474365e-02 7.327458381652832031e+00 2.215629577636718750e+00 6.578414142131805420e-02
1.341000000000000000e+03 7.541323089599609375e+01 -2.090752601623535156e+00 3.640562295913696289e-02 7.296365737915039062e+00 2.199831247329711914e+00 7.073804736137390137e-02
1.342000000000000000e+03 7.542515563964843750e+01 -3.485935926437377930e+00 3.674172237515449524e-02 7.280624389648437500e+00 2.195209980010986328e+00 5.029621720314025879e-02
1.343000000000000000e+03 7.673129272460937500e+01 1.819737911224365234e+00 1.684030890464782715e-02 7.319366931915283203e+00 2.200862169265747070e+00 9.318519383668899536e-02
1.344000000000000000e+03 7.537630462646484375e+01 2.030885696411132812e+00 3.151675313711166382e-02 7.370538711547851562e+00 2.220616579055786133e+00 1.277872771024703979e-01
1.345000000000000000e+03 7.537010192871093750e+01 7.392392635345458984e+00 1.816682144999504089e-02 7.520405292510986328e+00 2.261571645736694336e+00 1.817272901535034180e-01
1.346000000000000000e+03 7.498623657226562500e+01 3.104434776306152344e+01 -2.856563590466976166e-02 8.304561614990234375e+00 2.482798814773559570e+00 1.326789259910583496e-01
1.347000000000000000e+03 7.382440948486328125e+01 -1.555671977996826172e+01 3.789975866675376892e-02 7.395808696746826172e+00 2.230112552642822266e+00 -1.384464651346206665e-01
1.348000000000000000e+03 7.669770812988281250e+01 8.650175094604492188e+00 8.426906540989875793e-03 7.536921501159667969e+00 2.263604402542114258e+00 1.439133584499359131e-01
1.349000000000000000e+03 7.540183258056640625e+01 4.688271999359130859e+00 2.600805647671222687e-02 7.437155723571777344e+00 2.238949060440063477e+00 1.573826670646667480e-01
1.350000000000000000e+03 7.538963317871093750e+01 6.039204597473144531e+00 2.235977351665496826e-02 7.478066921234130859e+00 2.250128030776977539e+00 1.714889109134674072e-01
1.351000000000000000e+03 7.401090240478515625e+01 3.563842773437500000e+00 4.705054685473442078e-02 7.441433906555175781e+00 2.246545314788818359e+00 1.791742444038391113e-01
1.352000000000000000e+03 7.531880187988281250e+01 1.013325595855712891e+01 1.361979357898235321e-02 7.612708568572998047e+00 2.287898540496826172e+00 2.015235424041748047e-01
1.353000000000000000e+03 7.527655792236328125e+01 -1.823039245605468750e+01 1.631727255880832672e-02 7.413110733032226562e+00 2.228828430175781250e+00 -1.344109326601028442e-01
1.354000000000000000e+03 7.661609649658203125e+01 -1.959980392456054688e+01 6.480726413428783417e-03 7.413151264190673828e+00 2.225889682769775391e+00 -1.080282256007194519e-01
1.355000000000000000e+03 7.524820709228515625e+01 -1.967283630371093750e+01 1.238757558166980743e-02 7.448007583618164062e+00 2.238118410110473633e+00 -1.429602950811386108e-01
1.356000000000000000e+03 7.529074859619140625e+01 1.150560951232910156e+01 1.066269166767597198e-02 7.661743640899658203e+00 2.301721811294555664e+00 2.094460576772689819e-01
1.357000000000000000e+03 7.393078613281250000e+01 1.022010707855224609e+01 2.191637270152568817e-02 7.631850242614746094e+00 2.296129941940307617e+00 2.488349825143814087e-01
1.358000000000000000e+03 7.565618896484375000e+01 -2.883644294738769531e+01 -1.223426777869462967e-02 7.674885272979736328e+00 2.298795223236083984e+00 -1.301941573619842529e-01
1.359000000000000000e+03 7.428297424316406250e+01 -2.404846954345703125e+01 -1.209395471960306168e-03 7.568382740020751953e+00 2.270152091979980469e+00 -1.756144762039184570e-01
1.360000000000000000e+03 7.658039855957031250e+01 1.687593269348144531e+01 -6.139758042991161346e-04 7.870315074920654297e+00 2.360910415649414062e+00 1.676998436450958252e-01
1.361000000000000000e+03 7.509617614746093750e+01 1.828204536437988281e+01 -4.157742019742727280e-03 7.909878730773925781e+00 2.371716260910034180e+00 2.238057851791381836e-01
1.362000000000000000e+03 7.492970275878906250e+01 2.118053245544433594e+01 -1.274518016725778580e-02 8.013648986816406250e+00 2.400271177291870117e+00 2.186579406261444092e-01
1.363000000000000000e+03 7.500709533691406250e+01 1.969440841674804688e+01 -9.850446134805679321e-03 7.960991382598876953e+00 2.385342359542846680e+00 2.245924621820449829e-01
1.364000000000000000e+03 7.371938323974609375e+01 1.691685867309570312e+01 -3.019324503839015961e-03 7.850354671478271484e+00 2.354200601577758789e+00 2.740892469882965088e-01
1.365000000000000000e+03 7.559888458251953125e+01 -2.512839317321777344e+01 -4.364247899502515793e-03 7.582473278045654297e+00 2.273432731628417969e+00 -1.420044600963592529e-01
1.366000000000000000e+03 7.689856719970703125e+01 -2.637083244323730469e+01 -4.070254042744636536e-03 7.603255271911621094e+00 2.279755353927612305e+00 -1.052365005016326904e-01
1.367000000000000000e+03 7.434207916259765625e+01 -2.648172378540039062e+01 -1.073808316141366959e-02 7.624612808227539062e+00 2.284162521362304688e+00 -1.699755042791366577e-01
1.368000000000000000e+03 7.308550262451171875e+01 2.821798324584960938e+01 -5.051974207162857056e-02 8.162594795227050781e+00 2.433622360229492188e+00 2.141142189502716064e-01
1.369000000000000000e+03 7.275315856933593750e+01 2.266531562805175781e+01 -3.040486015379428864e-02 8.020709037780761719e+00 2.397091388702392578e+00 2.744281291961669922e-01
1.370000000000000000e+03 7.650742340087890625e+01 2.667402267456054688e+01 -1.235074549913406372e-02 8.247954368591308594e+00 2.470681190490722656e+00 1.311921030282974243e-01
1.371000000000000000e+03 7.491558074951171875e+01 2.666418075561523438e+01 -2.641047164797782898e-02 8.191992759704589844e+00 2.449674844741821289e+00 1.806019544601440430e-01
1.372000000000000000e+03 7.692781066894531250e+01 2.914136695861816406e+01 -7.273401133716106415e-03 8.345764160156250000e+00 2.501547336578369141e+00 9.781906008720397949e-02
1.373000000000000000e+03 7.451909637451171875e+01 2.980068588256835938e+01 -4.006348922848701477e-02 8.254392623901367188e+00 2.464298725128173828e+00 1.639478653669357300e-01
1.374000000000000000e+03 7.466816711425781250e+01 2.829977035522460938e+01 -3.105129301548004150e-02 8.225341796875000000e+00 2.458287000656127930e+00 1.732063144445419312e-01
1.375000000000000000e+03 7.519366455078125000e+01 -3.143242835998535156e+01 -2.233336120843887329e-02 7.732609272003173828e+00 2.313082695007324219e+00 -1.225632205605506897e-01
1.376000000000000000e+03 7.270390319824218750e+01 -3.607803726196289062e+01 -6.387027353048324585e-02 7.801200389862060547e+00 2.321199178695678711e+00 -1.021966040134429932e-01
1.377000000000000000e+03 7.564000701904296875e+01 -3.629241180419921875e+01 -2.689060010015964508e-02 7.819298267364501953e+00 2.337722301483154297e+00 -6.740004569292068481e-02
1.378000000000000000e+03 7.415634918212890625e+01 3.341301727294921875e+01 -3.799385949969291687e-02 8.311196327209472656e+00 2.481960535049438477e+00 1.235495954751968384e-01
1.379000000000000000e+03 7.651652526855468750e+01 -3.306551361083984375e+01 -1.712858304381370544e-02 7.774755001068115234e+00 2.327287912368774414e+00 -8.029954880475997925e-02
1.380000000000000000e+03 7.544227600097656250e+01 -3.009390830993652344e+01 -1.856753043830394745e-02 7.704061985015869141e+00 2.305648326873779297e+00 -1.259516328573226929e-01
1.381000000000000000e+03 3.115895748138427734e+00 1.585446739196777344e+01 -3.077112883329391479e-02 1.224409602582454681e-02 -5.558109842240810394e-03 2.216677926480770111e-02
1.382000000000000000e+03 2.981999874114990234e+00 -1.681275939941406250e+01 -3.688673675060272217e-02 -2.117428928613662720e-03 -1.170124951750040054e-02 -2.894805930554866791e-02
1.383000000000000000e+03 3.708547115325927734e+00 -1.376768207550048828e+01 -5.784659646451473236e-03 -6.623887922614812851e-03 -3.722564317286014557e-03 4.459379124455153942e-05
1.384000000000000000e+03 5.482735633850097656e+00 1.960991859436035156e+01 -3.012362122535705566e-02 1.238577142357826233e-01 2.812022715806961060e-02 6.277064234018325806e-02
1.385000000000000000e+03 4.573471069335937500e+00 -1.651242065429687500e+01 -4.896173253655433655e-02 4.556861240416765213e-03 -1.332146115601062775e-02 -1.906918012537062168e-03
1.386000000000000000e+03 4.287336349487304688e+00 2.061941719055175781e+01 1.240076124668121338e-02 9.106574207544326782e-02 3.103994950652122498e-02 7.132628560066223145e-02
1.387000000000000000e+03 4.400682926177978516e+00 1.837801170349121094e+01 -5.219497904181480408e-02 7.267693430185317993e-02 6.144586019217967987e-03 5.708694458007812500e-02
1.388000000000000000e+03 5.771336078643798828e+00 2.296661758422851562e+01 1.688029170036315918e-01 3.167877197265625000e-01 1.456771939992904663e-01 -9.068527072668075562e-02
1.389000000000000000e+03 4.807764053344726562e+00 2.464212989807128906e+01 1.032072231173515320e-01 2.875859439373016357e-01 1.172379478812217712e-01 -8.364889770746231079e-02
1.390000000000000000e+03 4.978650093078613281e+00 2.937422943115234375e+01 2.650205977261066437e-02 6.209009885787963867e-01 1.942209154367446899e-01 -1.993926316499710083e-01
1.391000000000000000e+03 6.130575180053710938e+00 -2.421416854858398438e+01 1.042956113815307617e-01 1.553403288125991821e-01 7.789078354835510254e-02 -5.967115238308906555e-02
1.392000000000000000e+03 3.248477697372436523e+00 1.294264125823974609e+01 -6.702271290123462677e-03 1.187677262350916862e-04 -1.975051127374172211e-03 1.236868673004209995e-03
1.393000000000000000e+03 5.352217197418212891e+00 -1.365400505065917969e+01 -4.697770811617374420e-03 -4.709986038506031036e-03 -2.822327194735407829e-03 4.176970105618238449e-04
1.394000000000000000e+03 2.798165559768676758e+00 -9.124059677124023438e+00 9.494119440205395222e-04 -8.235389832407236099e-04 3.776188532356172800e-05 2.015688660321757197e-04
1.395000000000000000e+03 2.948341131210327148e+00 -1.044662094116210938e+01 1.277291215956211090e-03 -1.414490398019552231e-03 -4.115974661544896662e-05 2.193508902564644814e-03
1.396000000000000000e+03 5.072021961212158203e+00 -1.882739448547363281e+01 -9.716943651437759399e-02 3.629631921648979187e-02 -1.826193556189537048e-02 -1.050361543893814087e-01
1.397000000000000000e+03 3.282305955886840820e+00 -2.312705612182617188e+01 1.535243168473243713e-02 -7.132890820503234863e-02 -1.679294183850288391e-02 -1.177033782005310059e-01
1.398000000000000000e+03 5.618712425231933594e+00 -2.121449089050292969e+01 -1.921410858631134033e-02 5.451388284564018250e-02 1.058993209153413773e-02 -1.497249156236648560e-01
1.399000000000000000e+03 5.060499668121337891e+00 2.620508575439453125e+01 9.477948397397994995e-02 4.331083595752716064e-01 1.583663523197174072e-01 -1.609820872545242310e-01
1.400000000000000000e+03 3.414474725723266602e+00 -2.457288551330566406e+01 3.487197309732437134e-02 -6.643065810203552246e-02 -9.467605501413345337e-03 -1.029914692044258118e-01
1.401000000000000000e+03 4.393969535827636719e+00 -2.152024841308593750e+01 -1.118954550474882126e-02 6.177184171974658966e-03 -1.503708423115313053e-03 -1.357301026582717896e-01
1.402000000000000000e+03 4.775338649749755859e+00 -2.440324974060058594e+01 6.116271018981933594e-02 4.809138551354408264e-02 3.277622908353805542e-02 -9.057927876710891724e-02
1.403000000000000000e+03 3.963693141937255859e+00 -3.176375579833984375e+01 2.418326772749423981e-02 1.143144145607948303e-01 4.154930636286735535e-02 1.637635566294193268e-02
1.404000000000000000e+03 5.160606384277343750e+00 -2.892195320129394531e+01 6.218206509947776794e-02 2.507047951221466064e-01 9.386605769395828247e-02 2.545582130551338196e-02
1.405000000000000000e+03 4.735307216644287109e+00 9.600204467773437500e+00 -1.517381024314090610e-04 -1.799147459678351879e-03 -5.852656322531402111e-04 -1.185015644296072423e-04
1.406000000000000000e+03 6.575274467468261719e+00 3.630070877075195312e+01 -7.872391492128372192e-02 1.137494802474975586e+00 3.176312744617462158e-01 -1.473860591650009155e-01
1.407000000000000000e+03 4.845844745635986328e+00 3.623296737670898438e+01 -3.048514761030673981e-02 7.803110480308532715e-01 2.249477654695510864e-01 -8.813098073005676270e-02
1.408000000000000000e+03 3.011801958084106445e+00 -1.185957717895507812e+01 1.006250851787626743e-03 -2.595430938526988029e-03 -4.767540376633405685e-04 9.134886204265058041e-04
1.409000000000000000e+03 6.118402957916259766e+00 9.770170211791992188e+00 -5.186931230127811432e-04 -2.970399800688028336e-03 -1.046727877110242844e-03 2.092831535264849663e-03
1.410000000000000000e+03 3.530222415924072266e+00 -6.612971305847167969e+00 6.746941944584250450e-04 -2.225453790742903948e-04 1.356446446152403951e-04 7.820603204891085625e-04
1.411000000000000000e+03 7.217520236968994141e+00 -3.118189239501953125e+01 5.233121663331985474e-02 6.996566057205200195e-01 2.255963534116744995e-01 1.405844986438751221e-01
1.412000000000000000e+03 5.203577995300292969e+00 -3.019731903076171875e+01 4.036631062626838684e-02 3.077327013015747070e-01 1.044297069311141968e-01 3.805441409349441528e-02
1.413000000000000000e+03 5.609026432037353516e+00 -3.162701416015625000e+01 3.668692335486412048e-02 4.215858280658721924e-01 1.374818235635757446e-01 5.880500748753547668e-02
1.414000000000000000e+03 3.469484090805053711e+00 3.472292709350585938e+01 -1.636378001421689987e-04 5.010063648223876953e-01 1.502528190612792969e-01 -1.090203002095222473e-01
1.415000000000000000e+03 6.261540889739990234e+00 3.454047012329101562e+01 -4.869634658098220825e-02 1.054949879646301270e+00 3.018760383129119873e-01 -1.773090213537216187e-01
1.416000000000000000e+03 4.889422416687011719e+00 3.483457565307617188e+01 -3.569452464580535889e-02 7.597229480743408203e-01 2.172085195779800415e-01 -1.196125894784927368e-01
1.417000000000000000e+03 3.617900848388671875e+00 8.761000633239746094e+00 1.789025409379974008e-04 -1.266822509933263063e-04 1.566608989378437400e-05 -9.424439631402492523e-04
1.418000000000000000e+03 3.422572612762451172e+00 -4.739281177520751953e+00 7.409155368804931641e-04 -4.638065292965620756e-04 8.313270518556237221e-05 4.261199501343071461e-04
1.419000000000000000e+03 5.645899295806884766e+00 5.560047626495361328e+00 1.199439517222344875e-03 -1.963986782357096672e-03 -2.293641882715746760e-04 -4.953129100613296032e-04
1.420000000000000000e+03 6.422752380371093750e+00 -3.604995727539062500e+01 -1.113328989595174789e-02 6.400124430656433105e-01 1.886637508869171143e-01 4.807553440332412720e-02
1.421000000000000000e+03 7.766457080841064453e+00 -7.618051052093505859e+00 -3.083442279603332281e-04 2.474805107340216637e-03 6.499383016489446163e-04 -7.137763896025717258e-04
1.422000000000000000e+03 2.141924476623535156e+01 -9.985062599182128906e+00 1.738670349121093750e+00 1.336846351623535156e+00 9.226550459861755371e-01 1.284875273704528809e+00
1.423000000000000000e+03 1.430775928497314453e+01 -1.762338829040527344e+01 1.769561171531677246e-01 7.290314435958862305e-01 2.717962861061096191e-01 5.260381698608398438e-01
1.424000000000000000e+03 1.724163818359375000e+01 -1.789593124389648438e+01 4.072111546993255615e-01 1.814316987991333008e+00 6.664584279060363770e-01 1.170143961906433105e+00
1.425000000000000000e+03 5.137578010559082031e+00 -8.478833198547363281e+00 7.552584866061806679e-04 -1.745018293149769306e-03 -2.969279303215444088e-04 -6.782008567824959755e-04
1.426000000000000000e+03 1.814982414245605469e+01 -1.391789913177490234e+01 7.048752307891845703e-01 1.206251621246337891e+00 5.733380913734436035e-01 1.080686211585998535e+00
1.427000000000000000e+03 6.510911941528320312e+00 1.969318008422851562e+01 -4.612089321017265320e-02 1.329573392868041992e-01 2.605093270540237427e-02 4.674692451953887939e-02
1.428000000000000000e+03 4.480186939239501953e+00 1.958669471740722656e+01 -2.291947603225708008e-02 8.599464595317840576e-02 1.892255060374736786e-02 6.843308359384536743e-02
1.429000000000000000e+03 2.283889770507812500e+01 1.114905261993408203e+01 6.181910037994384766e-01 5.754700183868408203e+00 1.911867380142211914e+00 -1.448763847351074219e+00
1.430000000000000000e+03 7.217401027679443359e+00 -1.234433650970458984e+01 -3.313867608085274696e-03 3.210199298337101936e-03 -3.110049510723911226e-05 1.946980017237365246e-03
1.431000000000000000e+03 6.555189609527587891e+00 -1.051403999328613281e+01 4.975699703209102154e-04 -2.953443210572004318e-03 -7.367620128206908703e-04 -1.427649171091616154e-03
1.432000000000000000e+03 8.452568054199218750e+00 2.156659317016601562e+01 3.104273378849029541e-01 4.546571671962738037e-01 2.295253574848175049e-01 -3.746219575405120850e-01
1.433000000000000000e+03 2.198229217529296875e+01 5.929198741912841797e+00 4.355017840862274170e-01 5.515708923339843750e+00 1.785363197326660156e+00 -2.024250745773315430e+00
1.434000000000000000e+03 1.681093025207519531e+01 -1.603062057495117188e+01 4.805314838886260986e-01 1.195884466171264648e+00 5.029247999191284180e-01 9.473485946655273438e-01
1.435000000000000000e+03 4.313622474670410156e+00 -1.020268440246582031e+01 1.578767318278551102e-03 -2.666146028786897659e-03 -3.262136306148022413e-04 -8.907046867534518242e-04
1.436000000000000000e+03 1.612573814392089844e+01 -1.718700981140136719e+01 3.709267377853393555e-01 1.204937815666198730e+00 4.727593660354614258e-01 8.759742975234985352e-01
1.437000000000000000e+03 1.748284149169921875e+01 -1.492924308776855469e+01 5.785698890686035156e-01 1.178434610366821289e+00 5.271013379096984863e-01 1.011437654495239258e+00
1.438000000000000000e+03 7.591796112060546875e+01 4.053155136108398438e+01 -1.766121573746204376e-02 8.518651962280273438e+00 2.550297021865844727e+00 4.277849569916725159e-02
1.439000000000000000e+03 7.439002990722656250e+01 3.709074401855468750e+01 -4.343766719102859497e-02 8.381359100341796875e+00 2.501376628875732422e+00 7.632669061422348022e-02
1.440000000000000000e+03 2.150416946411132812e+01 9.764472007751464844e+00 7.710047364234924316e-01 5.600923538208007812e+00 1.911578416824340820e+00 -1.652350306510925293e+00
1.441000000000000000e+03 1.723437118530273438e+01 1.986543273925781250e+01 1.021604165434837341e-01 3.882812261581420898e+00 1.195491790771484375e+00 -1.072224855422973633e+00
1.442000000000000000e+03 1.735419464111328125e+01 1.764243698120117188e+01 4.807585179805755615e-01 4.122372627258300781e+00 1.380939364433288574e+00 -1.219745397567749023e+00
1.443000000000000000e+03 1.989949417114257812e+01 1.582325839996337891e+01 5.114610195159912109e-01 5.000035285949707031e+00 1.653448939323425293e+00 -1.141609311103820801e+00
1.444000000000000000e+03 2.286972427368164062e+01 3.928178548812866211e+00 2.029954195022583008e-01 5.755985736846923828e+00 1.787694334983825684e+00 -2.252375125885009766e+00
1.445000000000000000e+03 1.512727165222167969e+01 1.986260604858398438e+01 2.306499928236007690e-01 3.097221374511718750e+00 9.983614087104797363e-01 -1.202922463417053223e+00
1.446000000000000000e+03 1.471278953552246094e+01 -1.961841201782226562e+01 2.497317492961883545e-01 1.212085366249084473e+00 4.385451078414916992e-01 7.791486978530883789e-01
1.447000000000000000e+03 2.159599876403808594e+01 8.424628257751464844e+00 6.969226598739624023e-01 5.610156536102294922e+00 1.892123699188232422e+00 -1.782438158988952637e+00
1.448000000000000000e+03 2.426575851440429688e+01 1.105551910400390625e+01 4.172520041465759277e-01 6.094507694244384766e+00 1.953527927398681641e+00 -1.377362251281738281e+00
1.449000000000000000e+03 2.568228340148925781e+01 -4.498142242431640625e+00 2.029481410980224609e+00 1.163501358032226562e+01 4.099348545074462891e+00 -5.130971908569335938e+00
1.450000000000000000e+03 2.548987960815429688e+01 -4.261306762695312500e+00 1.922830581665039062e+00 1.039335346221923828e+01 3.694855213165283203e+00 -4.931321144104003906e+00
1.451000000000000000e+03 2.430590248107910156e+01 -4.326585769653320312e+00 2.706325054168701172e+00 4.579470634460449219e+00 2.185738801956176758e+00 -3.871551513671875000e+00
1.452000000000000000e+03 2.515464973449707031e+01 -4.344587326049804688e+00 2.444038152694702148e+00 8.328193664550781250e+00 3.231669425964355469e+00 -5.029336452484130859e+00
1.453000000000000000e+03 2.416418457031250000e+01 -8.453520774841308594e+00 3.850805282592773438e+00 2.624850749969482422e+00 1.942696809768676758e+00 3.442392587661743164e+00
1.454000000000000000e+03 2.519712638854980469e+01 -8.789710044860839844e+00 3.567110300064086914e+00 8.473703384399414062e+00 3.612243890762329102e+00 5.718074321746826172e+00
1.455000000000000000e+03 2.492100906372070312e+01 -8.803134918212890625e+00 3.856784343719482422e+00 6.662915706634521484e+00 3.155910015106201172e+00 5.298259735107421875e+00
1.456000000000000000e+03 2.544984245300292969e+01 -8.783215522766113281e+00 3.268202781677246094e+00 1.015455722808837891e+01 4.026827812194824219e+00 5.828164577484130859e+00
1.457000000000000000e+03 2.453815460205078125e+01 -9.427991867065429688e+00 3.154998064041137695e+00 5.806044101715087891e+00 2.688312530517578125e+00 4.455346107482910156e+00
1.458000000000000000e+03 2.394553947448730469e+01 -9.257760047912597656e+00 3.315315723419189453e+00 3.646429061889648438e+00 2.088523387908935547e+00 3.591399669647216797e+00
1.459000000000000000e+03 2.547324371337890625e+01 -8.397722244262695312e+00 4.057299137115478516e+00 1.039647197723388672e+01 4.336131572723388672e+00 6.562867641448974609e+00
1.460000000000000000e+03 2.748288345336914062e+01 -5.417759895324707031e+00 5.588445186614990234e+00 1.799586868286132812e+01 7.075294017791748047e+00 2.100230216979980469e+00
1.461000000000000000e+03 2.756413459777832031e+01 -4.949735164642333984e+00 3.627140283584594727e+00 1.690238189697265625e+01 6.158856391906738281e+00 1.304224014282226562e+00
1.462000000000000000e+03 2.567580413818359375e+01 -9.157796859741210938e+00 2.399257898330688477e+00 1.134735107421875000e+01 4.123982429504394531e+00 5.052654266357421875e+00
1.463000000000000000e+03 2.617228126525878906e+01 -8.811026573181152344e+00 2.151200294494628906e+00 1.500243377685546875e+01 5.146090030670166016e+00 4.393574714660644531e+00
1.464000000000000000e+03 2.593859672546386719e+01 -9.220469474792480469e+00 2.031287193298339844e+00 1.265770530700683594e+01 4.406697750091552734e+00 4.578245162963867188e+00
1.465000000000000000e+03 2.687747001647949219e+01 -8.643040657043457031e+00 2.478584527969360352e+00 1.774014282226562500e+01 6.065618038177490234e+00 1.269088268280029297e+00
1.466000000000000000e+03 2.847866630554199219e+01 -6.787767410278320312e+00 9.330120086669921875e+00 1.356694602966308594e+01 6.869119644165039062e+00 -2.137220837175846100e-02
1.467000000000000000e+03 2.861482048034667969e+01 -6.259458541870117188e+00 8.477223396301269531e+00 1.339790439605712891e+01 6.562538146972656250e+00 1.148696899414062500e+00
1.468000000000000000e+03 2.839117050170898438e+01 -6.063931465148925781e+00 8.349243164062500000e+00 1.408209705352783203e+01 6.729402065277099609e+00 1.669922947883605957e+00
1.469000000000000000e+03 2.759673690795898438e+01 -5.203152656555175781e+00 4.580497741699218750e+00 1.725481033325195312e+01 6.550592422485351562e+00 1.790951490402221680e+00
1.470000000000000000e+03 2.716179466247558594e+01 -4.809463024139404297e+00 2.472403764724731445e+00 1.753461074829101562e+01 6.002104759216308594e+00 4.020604304969310760e-03
1.471000000000000000e+03 2.349777412414550781e+01 -8.611942291259765625e+00 3.005934953689575195e+00 1.529674530029296875e+00 1.360682845115661621e+00 2.238467693328857422e+00
1.472000000000000000e+03 2.274690055847167969e+01 -3.355427742004394531e+00 1.684589624404907227e+00 2.527034044265747070e+00 1.263487100601196289e+00 -2.133052587509155273e+00
1.473000000000000000e+03 2.463868522644042969e+01 -4.210597991943359375e+00 2.608660459518432617e+00 6.011834144592285156e+00 2.586148262023925781e+00 -4.406371593475341797e+00
1.474000000000000000e+03 2.219297218322753906e+01 -2.709135532379150391e+00 1.340415596961975098e+00 2.485576152801513672e+00 1.147797465324401855e+00 -1.875779032707214355e+00
1.475000000000000000e+03 2.276499938964843750e+01 -2.792275428771972656e+00 1.481614112854003906e+00 3.059187412261962891e+00 1.362240433692932129e+00 -2.268801450729370117e+00
1.476000000000000000e+03 4.027064323425292969e+00 4.388615608215332031e+00 3.619451308622956276e-04 -6.040350490366108716e-05 9.046248305821791291e-05 2.072325005428865552e-04
1.477000000000000000e+03 6.939277648925781250e+00 5.571000099182128906e+00 1.845680759288370609e-03 -3.749579656869173050e-03 -5.711697158403694630e-04 9.710523590911179781e-05
1.478000000000000000e+03 6.560674667358398438e+00 4.069952964782714844e+00 -1.732529053697362542e-04 1.100674387998878956e-03 2.782264491543173790e-04 7.421669433824717999e-04
1.479000000000000000e+03 5.092750072479248047e+00 4.670520782470703125e+00 6.341191474348306656e-04 -1.530539011582732201e-03 -2.689259417820721865e-04 -8.357677143067121506e-05
1.480000000000000000e+03 5.275480747222900391e+00 4.035681247711181641e+00 2.259429456898942590e-04 4.070175928063690662e-04 1.898881600936874747e-04 4.020236665382981300e-04
1.481000000000000000e+03 2.020151901245117188e+01 -1.014882946014404297e+01 1.119393587112426758e+00 8.724617958068847656e-01 5.975566506385803223e-01 7.445898056030273438e-01
1.482000000000000000e+03 8.481196403503417969e+00 5.018689632415771484e+00 -2.121526777045801282e-04 1.944434596225619316e-03 5.196845741011202335e-04 1.889243605546653271e-03
1.483000000000000000e+03 7.240800380706787109e+00 4.094075679779052734e+00 9.859495330601930618e-04 -2.086596330627799034e-03 -3.301940450910478830e-04 -8.455188362859189510e-04
1.484000000000000000e+03 9.240934371948242188e+00 7.866570472717285156e+00 9.223643573932349682e-04 -3.644209355115890503e-03 -8.165534818544983864e-04 2.529714955016970634e-03
1.485000000000000000e+03 4.688428878784179688e+00 4.194371223449707031e+00 5.097142420709133148e-04 -2.345746470382437110e-04 8.254188287537544966e-05 -1.052726409398019314e-03
1.486000000000000000e+03 8.340790748596191406e+00 -4.275895118713378906e+00 4.705013125203549862e-04 -3.030059997399803251e-05 1.320602168561890721e-04 -9.068342624232172966e-04
1.487000000000000000e+03 6.168160915374755859e+00 -7.820062637329101562e+00 4.250842321198433638e-04 7.300200522877275944e-04 3.465312765911221504e-04 -1.430231495760381222e-04
1.488000000000000000e+03 6.746152877807617188e+00 -5.657937526702880859e+00 3.967813390772789717e-04 -1.529548782855272293e-03 -3.398302360437810421e-04 -3.709486918523907661e-04
1.489000000000000000e+03 2.363352966308593750e+01 -3.331737995147705078e+00 1.894832849502563477e+00 3.943083047866821289e+00 1.751374721527099609e+00 -3.047272920608520508e+00
1.490000000000000000e+03 2.235912513732910156e+01 -3.663711845874786377e-01 5.287042856216430664e-01 4.239435672760009766e+00 1.430441975593566895e+00 -2.306430816650390625e+00
1.491000000000000000e+03 6.781951904296875000e+00 -3.996010541915893555e+00 1.466619578422978520e-04 4.054639721289277077e-04 1.656377717154100537e-04 -9.917645948007702827e-04
1.492000000000000000e+03 6.210649013519287109e+00 -4.037703514099121094e+00 1.138893785537220538e-04 3.355393128003925085e-04 1.348286023130640388e-04 9.067690116353332996e-04
1.493000000000000000e+03 1.090253257751464844e+01 4.184764385223388672e+00 4.938397905789315701e-04 9.176411549560725689e-04 4.234442894812673330e-04 2.226772019639611244e-03
1.494000000000000000e+03 1.146954250335693359e+01 5.907551288604736328e+00 -5.573903908953070641e-04 -1.999625936150550842e-03 -7.671048515476286411e-04 -2.112208865582942963e-03
1.495000000000000000e+03 1.948656845092773438e+01 -1.241804504394531250e+01 9.818639755249023438e-01 1.416100502014160156e+00 7.193893790245056152e-01 1.250416398048400879e+00
1.496000000000000000e+03 7.598853588104248047e+00 1.130496311187744141e+01 5.217231810092926025e-04 -4.393720533698797226e-03 -1.161599182523787022e-03 6.251086946576833725e-03
1.497000000000000000e+03 6.591781616210937500e+00 1.233576488494873047e+01 -1.961995847523212433e-03 -6.096988916397094727e-03 -2.417695475742220879e-03 -4.301451146602630615e-03
1.498000000000000000e+03 8.449437141418457031e+00 8.638385772705078125e+00 -1.431090058758854866e-03 3.685884177684783936e-03 6.764382123947143555e-04 -1.178967300802469254e-03
1.499000000000000000e+03 4.381080627441406250e+00 -1.161989498138427734e+01 1.231692731380462646e-03 -5.187936592847108841e-03 -1.186873181723058224e-03 1.969253935385495424e-04
1.500000000000000000e+03 9.222054481506347656e+00 5.036612987518310547e+00 5.393865867517888546e-04 -2.034052973613142967e-03 -4.483998927753418684e-04 -1.256416086107492447e-03
1.501000000000000000e+03 1.062688064575195312e+01 7.640898227691650391e+00 5.547319888137280941e-04 -4.620111081749200821e-03 -1.219613710418343544e-03 -9.917108109220862389e-04
1.502000000000000000e+03 6.235685825347900391e+00 -1.268682289123535156e+01 1.802699058316648006e-03 -4.630142357200384140e-03 -8.482330595143139362e-04 -6.382239516824483871e-03
1.503000000000000000e+03 1.236971282958984375e+01 6.053526401519775391e+00 9.840781567618250847e-04 1.920861192047595978e-03 8.714817813597619534e-04 2.386749722063541412e-03
1.504000000000000000e+03 1.890209960937500000e+01 -1.147103881835937500e+01 7.899180054664611816e-01 7.445106506347656250e-01 4.603286087512969971e-01 7.540589570999145508e-01
1.505000000000000000e+03 2.140211105346679688e+01 1.270179462432861328e+01 7.115466594696044922e-01 5.456501007080078125e+00 1.850414395332336426e+00 -1.333054423332214355e+00
1.506000000000000000e+03 2.526768207550048828e+00 6.259239673614501953e+00 7.217657403089106083e-04 -3.123947826679795980e-04 1.228112814715132117e-04 -1.116035156883299351e-03
1.507000000000000000e+03 9.161373138427734375e+00 -5.663626194000244141e+00 8.527776117261964828e-06 1.642157905735075474e-03 4.952056915499269962e-04 -8.328729891218245029e-04
1.508000000000000000e+03 2.256049346923828125e+01 4.285072088241577148e-01 3.696964681148529053e-01 4.782883167266845703e+00 1.545773863792419434e+00 -2.420896291732788086e+00
1.509000000000000000e+03 6.432425498962402344e+00 1.436602878570556641e+01 -1.496772468090057373e-02 -1.067802123725414276e-02 -7.693723775446414948e-03 -1.783403381705284119e-02
1.510000000000000000e+03 5.362116336822509766e+00 -1.990807533264160156e+01 -9.211828559637069702e-02 4.780896380543708801e-02 -1.329279597848653793e-02 -1.217821463942527771e-01
1.511000000000000000e+03 5.209674835205078125e+00 1.052189159393310547e+01 -5.022039986215531826e-04 -3.619953524321317673e-03 -1.236647251062095165e-03 -7.776949205435812473e-04
1.512000000000000000e+03 2.182885551452636719e+01 -1.912475824356079102e+00 8.417704701423645020e-01 2.616189956665039062e+00 1.037388205528259277e+00 -1.702213048934936523e+00
1.513000000000000000e+03 7.572329711914062500e+01 -2.761238098144531250e+01 -9.403321892023086548e-03 7.642158031463623047e+00 2.289826393127441406e+00 -1.341063976287841797e-01
1.514000000000000000e+03 7.456935882568359375e+01 -2.862376785278320312e+01 -1.907073333859443665e-02 7.673728466033935547e+00 2.296397209167480469e+00 -1.547964811325073242e-01
1.515000000000000000e+03 7.414294433593750000e+01 2.332134056091308594e+01 -2.156827412545681000e-02 8.060977935791015625e+00 2.411822795867919922e+00 2.328508794307708740e-01
1.516000000000000000e+03 7.530644226074218750e+01 2.374003028869628906e+01 -1.781772263348102570e-02 8.113679885864257812e+00 2.428758859634399414e+00 1.908749639987945557e-01
1.517000000000000000e+03 7.523298645019531250e+01 -2.111199569702148438e+01 7.714663632214069366e-03 7.482511997222900391e+00 2.247067928314208984e+00 -1.485363841056823730e-01
1.518000000000000000e+03 7.386980438232421875e+01 -2.277327919006347656e+01 4.690325353294610977e-03 7.545568466186523438e+00 2.265077590942382812e+00 -1.852840036153793335e-01
1.519000000000000000e+03 7.527083587646484375e+01 1.286153793334960938e+01 7.380302529782056808e-03 7.711889266967773438e+00 2.315780878067016602e+00 2.141263782978057861e-01
1.520000000000000000e+03 7.374549865722656250e+01 1.559524440765380859e+01 2.820768160745501518e-03 7.807116031646728516e+00 2.342981100082397461e+00 2.710826992988586426e-01
1.521000000000000000e+03 7.516460418701171875e+01 1.690591621398925781e+01 -1.675802050158381462e-03 7.861464977264404297e+00 2.357936859130859375e+00 2.220483124256134033e-01
1.522000000000000000e+03 7.397531890869140625e+01 8.846384048461914062e+00 2.650568634271621704e-02 7.587237834930419922e+00 2.284123182296752930e+00 2.368226051330566406e-01
1.523000000000000000e+03 7.366123199462890625e+01 2.476352882385253906e+01 -3.195123001933097839e-02 8.092471122741699219e+00 2.418155908584594727e+00 2.376581877470016479e-01
1.524000000000000000e+03 7.326239013671875000e+01 2.640708541870117188e+01 -4.314798861742019653e-02 8.126432418823242188e+00 2.424985408782958984e+00 2.316861301660537720e-01
1.525000000000000000e+03 7.509809112548828125e+01 2.509555816650390625e+01 -2.173123136162757874e-02 8.146788597106933594e+00 2.437517404556274414e+00 1.883851736783981323e-01
1.526000000000000000e+03 7.398769378662109375e+01 -1.690699005126953125e+01 3.051571920514106750e-02 7.417016506195068359e+00 2.234259605407714844e+00 -1.493816822767257690e-01
1.527000000000000000e+03 7.482487487792968750e+01 -1.377506160736083984e+01 3.595622256398200989e-02 7.341228008270263672e+00 2.213155269622802734e+00 -1.012590751051902771e-01
1.528000000000000000e+03 7.339116668701171875e+01 -1.416484546661376953e+01 5.268029868602752686e-02 7.385676860809326172e+00 2.231507062911987305e+00 -1.266257613897323608e-01
1.529000000000000000e+03 7.397432708740234375e+01 9.314584136009216309e-01 5.456944555044174194e-02 7.390087604522705078e+00 2.233397006988525391e+00 1.412160396575927734e-01
1.530000000000000000e+03 7.395180511474609375e+01 2.283925771713256836e+00 4.944120347499847412e-02 7.416044712066650391e+00 2.239645719528198242e+00 1.615259498357772827e-01
1.531000000000000000e+03 7.539363861083984375e+01 3.354395151138305664e+00 2.869528532028198242e-02 7.402348041534423828e+00 2.229312896728515625e+00 1.428467333316802979e-01
1.532000000000000000e+03 7.541528320312500000e+01 -4.876747608184814453e+00 3.722203895449638367e-02 7.270649909973144531e+00 2.192361593246459961e+00 2.969435416162014008e-02
1.533000000000000000e+03 7.406951141357421875e+01 -6.012738704681396484e+00 5.917972326278686523e-02 7.312973976135253906e+00 2.211646080017089844e+00 1.606884412467479706e-02
1.534000000000000000e+03 7.386585998535156250e+01 1.159778308868408203e+01 1.660927385091781616e-02 7.676468372344970703e+00 2.307923316955566406e+00 2.579638063907623291e-01
1.535000000000000000e+03 7.384428405761718750e+01 -8.778439521789550781e+00 6.059687957167625427e-02 7.322189807891845703e+00 2.214835882186889648e+00 -3.414718061685562134e-02
1.536000000000000000e+03 7.360683441162109375e+01 -1.020022773742675781e+01 6.101499125361442566e-02 7.336364746093750000e+00 2.219213962554931641e+00 -5.976998805999755859e-02
1.537000000000000000e+03 7.478008270263671875e+01 -1.214438056945800781e+01 4.007101058959960938e-02 7.321138858795166016e+00 2.208362817764282227e+00 -8.154866844415664673e-02
1.538000000000000000e+03 7.408578491210937500e+01 -1.868458986282348633e+00 5.734644830226898193e-02 7.343403339385986328e+00 2.220224857330322266e+00 9.094128012657165527e-02
1.539000000000000000e+03 7.410620880126953125e+01 -4.635202407836914062e+00 5.847170203924179077e-02 7.317395687103271484e+00 2.212760210037231445e+00 4.111992195248603821e-02
1.540000000000000000e+03 7.405570983886718750e+01 4.846245288848876953e+00 4.058123379945755005e-02 7.476630687713623047e+00 2.255163431167602539e+00 1.973406225442886353e-01
1.541000000000000000e+03 7.399951171875000000e+01 -1.827348136901855469e+01 2.580759301781654358e-02 7.442679405212402344e+00 2.240546226501464844e+00 -1.607499122619628906e-01
1.542000000000000000e+03 7.362554168701171875e+01 1.825091361999511719e+01 -8.388790301978588104e-03 7.896975517272949219e+00 2.366575956344604492e+00 2.724626362323760986e-01
1.543000000000000000e+03 7.432617187500000000e+01 -2.522361564636230469e+01 -5.885249469429254532e-03 7.597200393676757812e+00 2.277394533157348633e+00 -1.747910976409912109e-01
1.544000000000000000e+03 7.462225341796875000e+01 -2.763085746765136719e+01 -1.266988273710012436e-02 7.649291992187500000e+00 2.290986537933349609e+00 -1.604818552732467651e-01
1.545000000000000000e+03 7.565833282470703125e+01 -2.638679695129394531e+01 -5.191951524466276169e-03 7.610061168670654297e+00 2.281460762023925781e+00 -1.383288353681564331e-01
1.546000000000000000e+03 7.590797424316406250e+01 2.873726463317871094e+01 -1.820594072341918945e-02 8.285045623779296875e+00 2.480051994323730469e+00 1.335615515708923340e-01
1.547000000000000000e+03 7.322025299072265625e+01 3.002768325805664062e+01 -5.296945571899414062e-02 8.212343215942382812e+00 2.447812080383300781e+00 1.850349456071853638e-01
1.548000000000000000e+03 7.399592590332031250e+01 7.503254413604736328e+00 3.044184297323226929e-02 7.547089099884033203e+00 2.273259401321411133e+00 2.235234826803207397e-01
1.549000000000000000e+03 7.372915649414062500e+01 -2.125178718566894531e+01 1.163855753839015961e-02 7.516197681427001953e+00 2.258350849151611328e+00 -1.854220777750015259e-01
1.550000000000000000e+03 7.365985870361328125e+01 3.174486732482910156e+01 -4.729017242789268494e-02 8.269287109375000000e+00 2.466598987579345703e+00 1.512338668107986450e-01
1.551000000000000000e+03 7.039511871337890625e+01 3.502178192138671875e+01 -1.082355156540870667e-01 8.190658569335937500e+00 2.424726963043212891e+00 1.447421908378601074e-01
1.552000000000000000e+03 7.380221557617187500e+01 1.427249240875244141e+01 6.788170430809259415e-03 7.766850471496582031e+00 2.332091569900512695e+00 2.688049077987670898e-01
1.553000000000000000e+03 7.325811767578125000e+01 2.110915565490722656e+01 -2.277894318103790283e-02 7.982617378234863281e+00 2.387951374053955078e+00 2.740124166011810303e-01
1.554000000000000000e+03 7.347810363769531250e+01 1.962159156799316406e+01 -1.240406185388565063e-02 7.934280395507812500e+00 2.376562833786010742e+00 2.728473842144012451e-01
1.555000000000000000e+03 7.312214660644531250e+01 -3.431915283203125000e+01 -5.838891863822937012e-02 7.779726505279541016e+00 2.316401243209838867e+00 -1.245948374271392822e-01
1.556000000000000000e+03 1.034077072143554688e+01 6.437287330627441406e+00 8.929724572226405144e-04 -4.034218378365039825e-03 -9.423737647011876106e-04 3.747635346371680498e-04
1.557000000000000000e+03 5.197371006011962891e+00 2.790373802185058594e+01 5.637543648481369019e-02 5.662662386894226074e-01 1.867924928665161133e-01 -2.007116228342056274e-01
1.558000000000000000e+03 7.159914016723632812e+00 2.956531524658203125e+01 7.153319194912910461e-03 1.022915363311767578e+00 3.090206086635589600e-01 -2.917398512363433838e-01
1.559000000000000000e+03 4.948313713073730469e+00 -2.592519378662109375e+01 8.233853429555892944e-02 1.091167032718658447e-01 5.743657052516937256e-02 -4.655595123767852783e-02
1.560000000000000000e+03 7.487681388854980469e+00 -2.430701828002929688e+01 1.541756391525268555e-01 2.961795330047607422e-01 1.351065486669540405e-01 2.678774483501911163e-02
1.561000000000000000e+03 1.212336254119873047e+01 -2.120896148681640625e+01 1.722955405712127686e-01 7.078735828399658203e-01 2.640507221221923828e-01 4.772913455963134766e-01
1.562000000000000000e+03 6.845068454742431641e+00 -8.592720985412597656e+00 6.218117778189480305e-04 -2.118791919201612473e-03 -4.490940191317349672e-04 -1.060221227817237377e-03
1.563000000000000000e+03 4.644355773925781250e+00 2.328271865844726562e+01 1.100440248847007751e-01 2.185993194580078125e-01 9.859300404787063599e-02 -3.448833152651786804e-02
1.564000000000000000e+03 1.111335277557373047e+01 2.282756614685058594e+01 2.401928901672363281e-01 1.419112920761108398e+00 4.977917373180389404e-01 -7.738921046257019043e-01
1.565000000000000000e+03 4.627287864685058594e+00 1.235422134399414062e+01 -5.153454374521970749e-03 -4.284769296646118164e-03 -2.831466961652040482e-03 -6.851613870821893215e-04
1.566000000000000000e+03 4.227931499481201172e+00 -2.020696640014648438e+01 -4.317330196499824524e-02 9.168457239866256714e-03 -1.020145416259765625e-02 -1.350776106119155884e-01
1.567000000000000000e+03 6.385264396667480469e+00 2.589431953430175781e+01 1.238206028938293457e-01 6.424813270568847656e-01 2.298905700445175171e-01 -2.341528832912445068e-01
1.568000000000000000e+03 7.098318099975585938e+00 -2.218882179260253906e+01 9.071175754070281982e-02 1.148931309580802917e-01 6.168146803975105286e-02 -9.736049175262451172e-02
1.569000000000000000e+03 8.519221305847167969e+00 -6.648500442504882812e+00 1.593929046066477895e-04 -1.761929714120924473e-03 -4.807610530406236649e-04 5.022558616474270821e-04
1.570000000000000000e+03 7.870571613311767578e+00 -2.305565643310546875e+01 1.333601921796798706e-01 2.563670277595520020e-01 1.169181689620018005e-01 2.184062264859676361e-02
1.571000000000000000e+03 6.101392269134521484e+00 3.024103164672851562e+01 -4.256171174347400665e-03 8.519215583801269531e-01 2.542996108531951904e-01 -2.386082261800765991e-01
1.572000000000000000e+03 5.309570789337158203e+00 2.095224189758300781e+01 5.308611690998077393e-02 1.355129182338714600e-01 5.657970905303955078e-02 4.692396521568298340e-02
1.573000000000000000e+03 4.882562637329101562e+00 2.214726638793945312e+01 1.210542917251586914e-01 1.610471904277801514e-01 8.463044464588165283e-02 1.352578587830066681e-02
1.574000000000000000e+03 5.131103992462158203e+00 3.358215332031250000e+01 -1.213972736150026321e-02 8.104870319366455078e-01 2.395041882991790771e-01 -1.618221849203109741e-01
1.575000000000000000e+03 5.877386569976806641e+00 -3.332810211181640625e+01 2.743694931268692017e-02 5.241808295249938965e-01 1.654853373765945435e-01 7.031872868537902832e-02
1.576000000000000000e+03 1.381955242156982422e+01 -3.231695175170898438e+01 -9.230879694223403931e-02 2.138630390167236328e+00 6.138964891433715820e-01 4.296594262123107910e-01
1.577000000000000000e+03 7.347060203552246094e+00 2.114811325073242188e+01 2.400275915861129761e-01 2.667991220951080322e-01 1.520480066537857056e-01 -1.352530568838119507e-01
1.578000000000000000e+03 6.722775936126708984e+00 2.814318847656250000e+01 5.849151685833930969e-02 8.504477739334106445e-01 2.726817727088928223e-01 -2.682661712169647217e-01
1.579000000000000000e+03 6.634145259857177734e+00 -2.726919937133789062e+01 1.020914763212203979e-01 3.842186629772186279e-01 1.458930373191833496e-01 5.103357136249542236e-02
1.580000000000000000e+03 3.782442808151245117e+00 9.944229125976562500e+00 2.576461411081254482e-04 -2.474577864632010460e-03 -6.650795112363994122e-04 -7.776360725983977318e-04
1.581000000000000000e+03 4.622550487518310547e+00 8.649898529052734375e+00 8.607044583186507225e-04 -3.060254501178860664e-03 -6.598649779334664345e-04 3.078516238019801676e-05
1.582000000000000000e+03 3.585483551025390625e+00 7.563100814819335938e+00 9.567221277393400669e-04 -1.517800381407141685e-03 -1.683234877418726683e-04 -1.038825837895274162e-03
1.583000000000000000e+03 4.482317447662353516e+00 -6.471395492553710938e+00 -2.297990249644499272e-05 -1.594315544934943318e-04 -5.472343764267861843e-05 -5.247577792033553123e-04
1.584000000000000000e+03 4.332495689392089844e+00 -5.541566371917724609e+00 7.594791240990161896e-04 -3.056188579648733139e-04 1.361580798402428627e-04 7.214914658106863499e-04
1.585000000000000000e+03 1.274461174011230469e+01 -2.001344490051269531e+01 1.696019321680068970e-01 7.064293026924133301e-01 2.628093659877777100e-01 5.020073056221008301e-01
1.586000000000000000e+03 1.504662036895751953e+01 2.359665870666503906e+01 -5.525774136185646057e-02 2.965633869171142578e+00 8.731127977371215820e-01 -9.376937747001647949e-01
1.587000000000000000e+03 9.220735549926757812e+00 2.335380554199218750e+01 2.471490353345870972e-01 9.442102313041687012e-01 3.574077785015106201e-01 -5.248159766197204590e-01
1.588000000000000000e+03 1.842750740051269531e+01 -1.564822959899902344e+01 6.306520700454711914e-01 1.857754707336425781e+00 7.465220093727111816e-01 1.345548868179321289e+00
1.589000000000000000e+03 2.097388458251953125e+01 -1.069325542449951172e+01 1.533506035804748535e+00 1.511423826217651367e+00 9.134789705276489258e-01 1.361825585365295410e+00
1.590000000000000000e+03 1.882030487060546875e+01 -1.306111717224121094e+01 8.451108932495117188e-01 1.292065739631652832e+00 6.411529779434204102e-01 1.154318451881408691e+00
1.591000000000000000e+03 1.936081886291503906e+01 1.805707168579101562e+01 2.132236212491989136e-01 4.658402442932128906e+00 1.461487770080566406e+00 -1.002769351005554199e+00
1.592000000000000000e+03 1.901161003112792969e+01 -1.467379856109619141e+01 7.568144798278808594e-01 1.910309672355651855e+00 8.001372218132019043e-01 1.435084223747253418e+00
1.593000000000000000e+03 1.784020996093750000e+01 -1.673491287231445312e+01 5.079023241996765137e-01 1.823301434516906738e+00 6.993610858917236328e-01 1.248552083969116211e+00
1.594000000000000000e+03 2.235892105102539062e+01 4.833513259887695312e+00 3.062466084957122803e-01 5.590668678283691406e+00 1.769074559211730957e+00 -2.137294054031372070e+00
1.595000000000000000e+03 2.337591934204101562e+01 5.353366374969482422e+00 2.604302763938903809e-01 6.090393543243408203e+00 1.905247211456298828e+00 -2.147940874099731445e+00
1.596000000000000000e+03 2.437421035766601562e+01 5.846217632293701172e+00 1.944457888603210449e-01 6.502715587615966797e+00 2.009148359298706055e+00 -2.055686950683593750e+00
1.597000000000000000e+03 2.271365547180175781e+01 2.491381406784057617e+00 1.649742126464843750e-01 5.403228759765625000e+00 1.670460939407348633e+00 -2.344304800033569336e+00
1.598000000000000000e+03 1.662528228759765625e+01 -1.911805725097656250e+01 3.328280746936798096e-01 1.776948690414428711e+00 6.329330205917358398e-01 1.081187725067138672e+00
1.599000000000000000e+03 2.430607986450195312e+01 1.237230682373046875e+01 3.831053674221038818e-01 6.006340503692626953e+00 1.916833758354187012e+00 -1.202654600143432617e+00
1.600000000000000000e+03 1.624282836914062500e+01 2.085236740112304688e+01 5.045361071825027466e-02 3.502247571945190430e+00 1.065810322761535645e+00 -1.104732275009155273e+00
1.601000000000000000e+03 1.984672927856445312e+01 1.703537368774414062e+01 3.541536033153533936e-01 4.898800373077392578e+00 1.575886130332946777e+00 -1.044177412986755371e+00
1.602000000000000000e+03 7.216459655761718750e+01 4.093669891357421875e+01 -6.679216027259826660e-02 8.298402786254882812e+00 2.469483137130737305e+00 2.858260273933410645e-02
1.603000000000000000e+03 2.281855964660644531e+01 7.369033336639404297e+00 4.926669299602508545e-01 5.871087551116943359e+00 1.909126281738281250e+00 -1.929027795791625977e+00
1.604000000000000000e+03 2.401634025573730469e+01 8.513799667358398438e+00 4.183537662029266357e-01 6.170949459075927734e+00 1.976791024208068848e+00 -1.747097849845886230e+00
1.605000000000000000e+03 2.386318969726562500e+01 -2.461244583129882812e+00 1.361596584320068359e+00 5.303285121917724609e+00 1.999464511871337891e+00 -3.238198041915893555e+00
1.606000000000000000e+03 2.534578132629394531e+01 -4.042505741119384766e+00 1.866534709930419922e+00 9.561943054199218750e+00 3.428543567657470703e+00 -4.761408329010009766e+00
1.607000000000000000e+03 2.379876899719238281e+01 -8.906914710998535156e+00 3.425042152404785156e+00 2.789261579513549805e+00 1.864291071891784668e+00 3.195991754531860352e+00
1.608000000000000000e+03 2.503740501403808594e+01 -9.604162216186523438e+00 2.609243392944335938e+00 7.999255180358886719e+00 3.182549715042114258e+00 4.753148078918457031e+00
1.609000000000000000e+03 2.331183815002441406e+01 -8.420886039733886719e+00 2.744388818740844727e+00 1.131014347076416016e+00 1.162620902061462402e+00 1.827897548675537109e+00
1.610000000000000000e+03 2.236927795410156250e+01 -9.947674751281738281e+00 2.206888437271118164e+00 1.972619414329528809e+00 1.253852367401123047e+00 1.942280888557434082e+00
1.611000000000000000e+03 2.664777946472167969e+01 -4.909992218017578125e+00 1.748560070991516113e+00 1.834341049194335938e+01 6.027591228485107422e+00 -2.057375907897949219e+00
1.612000000000000000e+03 2.685463142395019531e+01 -4.338134765625000000e+00 1.264515638351440430e+00 1.590776824951171875e+01 5.151685237884521484e+00 -1.646334648132324219e+00
1.613000000000000000e+03 2.640729522705078125e+01 -4.238355159759521484e+00 1.063480734825134277e+00 1.463222885131835938e+01 4.708712577819824219e+00 -3.149317979812622070e+00
1.614000000000000000e+03 2.849829864501953125e+01 -5.513817787170410156e+00 6.597243309020996094e+00 1.422066783905029297e+01 6.245373725891113281e+00 2.084349155426025391e+00
1.615000000000000000e+03 2.856303024291992188e+01 -8.049740791320800781e+00 6.468900680541992188e+00 1.408589553833007812e+01 6.166439056396484375e+00 -1.845748424530029297e+00
1.616000000000000000e+03 2.884542465209960938e+01 -6.740865230560302734e+00 8.455620765686035156e+00 1.275849246978759766e+01 6.364233970642089844e+00 1.346483975648880005e-01
1.617000000000000000e+03 2.702151679992675781e+01 -8.992197990417480469e+00 2.089540004730224609e+00 1.640805816650390625e+01 5.549279689788818359e+00 1.139723777770996094e+00
1.618000000000000000e+03 2.783135414123535156e+01 -8.925031661987304688e+00 3.237350702285766602e+00 1.558655452728271484e+01 5.647171497344970703e+00 -8.664276003837585449e-01
1.619000000000000000e+03 2.195826721191406250e+01 -9.416561126708984375e+00 1.981333971023559570e+00 1.210767626762390137e+00 9.576304554939270020e-01 1.295200347900390625e+00
1.620000000000000000e+03 2.273072814941406250e+01 -9.205883026123046875e+00 2.474717378616333008e+00 1.611756086349487305e+00 1.225942015647888184e+00 1.854128479957580566e+00
1.621000000000000000e+03 2.084137916564941406e+01 -1.004636669158935547e+01 1.406882047653198242e+00 1.095730900764465332e+00 7.507838606834411621e-01 9.611743092536926270e-01
1.622000000000000000e+03 2.326423072814941406e+01 -2.843508481979370117e+00 1.587170600891113281e+00 3.850763559341430664e+00 1.631380319595336914e+00 -2.738215446472167969e+00
1.623000000000000000e+03 2.322541046142578125e+01 -3.354217767715454102e+00 1.808425188064575195e+00 3.233318567276000977e+00 1.512523174285888672e+00 -2.597007274627685547e+00
1.624000000000000000e+03 2.284096908569335938e+01 -2.263554096221923828e+00 1.222426176071166992e+00 3.667156934738159180e+00 1.466874957084655762e+00 -2.432080268859863281e+00
1.625000000000000000e+03 2.235881996154785156e+01 -1.695468544960021973e+00 8.809607028961181641e-01 3.494815826416015625e+00 1.312732934951782227e+00 -2.192613124847412109e+00
1.626000000000000000e+03 2.372916412353515625e+01 -2.924397468566894531e+00 1.654238224029541016e+00 4.658543586730957031e+00 1.893834590911865234e+00 -3.176503896713256836e+00
1.627000000000000000e+03 5.768919467926025391e+00 4.781734943389892578e+00 -1.576834329171106219e-04 9.709354490041732788e-04 2.439756062813103199e-04 4.105879270355217159e-05
1.628000000000000000e+03 4.807207584381103516e+00 5.455863952636718750e+00 1.058547786669805646e-04 6.818255642428994179e-04 2.363041130593046546e-04 -1.878800539998337626e-04
1.629000000000000000e+03 8.301869392395019531e+00 5.948301792144775391e+00 9.542365442030131817e-04 -3.286709776148200035e-03 -6.997419986873865128e-04 -7.380585302598774433e-04
1.630000000000000000e+03 9.963232040405273438e+00 5.831073760986328125e+00 4.038063052576035261e-04 -1.003026845864951611e-03 -1.797661534510552883e-04 -2.496227622032165527e-03
1.631000000000000000e+03 2.012406349182128906e+01 -1.194449138641357422e+01 1.153268694877624512e+00 1.572908759117126465e+00 8.178532719612121582e-01 1.364579916000366211e+00
1.632000000000000000e+03 2.330459213256835938e+01 -1.007813930511474609e+01 2.619532346725463867e+00 3.439926862716674805e+00 1.817837715148925781e+00 3.016648769378662109e+00
1.633000000000000000e+03 7.784661293029785156e+00 4.946843147277832031e+00 1.071172533556818962e-03 -2.855214057490229607e-03 -5.352124571800231934e-04 -9.127951343543827534e-04
1.634000000000000000e+03 6.355447292327880859e+00 5.507063388824462891e+00 -5.666763172484934330e-04 9.977756999433040619e-04 1.293297973461449146e-04 6.139663164503872395e-04
1.635000000000000000e+03 6.450111389160156250e+00 4.802915573120117188e+00 1.389483106322586536e-03 -2.415684983134269714e-03 -3.078605514019727707e-04 -5.128327175043523312e-04
1.636000000000000000e+03 5.239646911621093750e+00 -5.380548000335693359e+00 -3.196977786501520313e-06 -2.713972935453057289e-04 -8.237828296842053533e-05 -6.853467784821987152e-04
1.637000000000000000e+03 5.404056072235107422e+00 -6.263271331787109375e+00 9.608257678337395191e-04 -8.664972847327589989e-04 2.829854747687932104e-05 5.567435291595757008e-04
1.638000000000000000e+03 1.068866729736328125e+01 5.759975433349609375e+00 -2.067572058876976371e-04 2.698458964005112648e-03 7.475105230696499348e-04 3.165459493175148964e-03
1.639000000000000000e+03 1.112018394470214844e+01 6.778631210327148438e+00 -3.614465240389108658e-04 4.334483295679092407e-03 1.191911054775118828e-03 2.343132626265287399e-03
1.640000000000000000e+03 7.669465065002441406e+00 9.609926223754882812e+00 3.738292725756764412e-04 -3.885228652507066727e-03 -1.053419779054820538e-03 4.224644042551517487e-03
1.641000000000000000e+03 8.053004264831542969e+00 6.966187477111816406e+00 -1.079579000361263752e-03 3.526883199810981750e-03 7.341912714764475822e-04 1.081898575648665428e-03
1.642000000000000000e+03 2.175800895690917969e+01 6.658256053924560547e-01 3.000560998916625977e-01 4.073235034942626953e+00 1.311987400054931641e+00 -2.072091817855834961e+00
1.643000000000000000e+03 6.818682193756103516e+00 1.054573249816894531e+01 -7.935156463645398617e-05 -2.303815446794033051e-03 -7.149501470848917961e-04 -1.512342249043285847e-03
1.644000000000000000e+03 2.170770072937011719e+01 1.418875312805175781e+01 5.453110933303833008e-01 5.402813434600830078e+00 1.784437417984008789e+00 -1.153955340385437012e+00
1.645000000000000000e+03 2.159809684753417969e+01 1.833446502685546875e+01 5.355849862098693848e-02 5.147257804870605469e+00 1.560244798660278320e+00 -8.446317911148071289e-01
1.646000000000000000e+03 2.385915565490722656e+01 7.478753566741943359e+00 3.818961977958679199e-01 6.196192741394042969e+00 1.973426699638366699e+00 -1.863286137580871582e+00
1.647000000000000000e+03 1.958936119079589844e+01 -1.384704875946044922e+01 9.048925042152404785e-01 1.992635011672973633e+00 8.692582249641418457e-01 1.532281160354614258e+00
1.648000000000000000e+03 2.014952659606933594e+01 -1.317065525054931641e+01 1.059605002403259277e+00 2.104165554046630859e+00 9.491311907768249512e-01 1.647129416465759277e+00
1.649000000000000000e+03 6.364421844482421875e+00 2.102739524841308594e+01 1.204629093408584595e-01 1.885146349668502808e-01 9.269326180219650269e-02 9.594230912625789642e-03
1.650000000000000000e+03 9.295827865600585938e+00 -2.199341201782226562e+01 1.510443687438964844e-01 3.282147943973541260e-01 1.437777429819107056e-01 1.339757889509201050e-01
1.651000000000000000e+03 2.291928100585937500e+01 1.214190363883972168e+00 2.447505891323089600e-01 5.373372077941894531e+00 1.685436844825744629e+00 -2.473764657974243164e+00
1.652000000000000000e+03 9.855003356933593750e+00 7.167416572570800781e+00 -2.049816073849797249e-03 5.514887627214193344e-03 1.039521419443190098e-03 1.113402075134217739e-03
1.653000000000000000e+03 2.429059982299804688e+01 3.766598463058471680e+00 5.468152463436126709e-02 6.620450019836425781e+00 2.002539396286010742e+00 -2.289619684219360352e+00
1.654000000000000000e+03 7.091159820556640625e+01 -2.694634437561035156e+01 -2.677082642912864685e-02 7.667539596557617188e+00 2.292230606079101562e+00 -2.386445105075836182e-01
1.655000000000000000e+03 7.177915191650390625e+01 -3.188065910339355469e+01 -5.608409270644187927e-02 7.743360519409179688e+00 2.306182861328125000e+00 -1.772007495164871216e-01
1.656000000000000000e+03 1.970187377929687500e+01 -1.115176391601562500e+01 1.046926140785217285e+00 1.021138668060302734e+00 6.204194426536560059e-01 9.422136545181274414e-01
1.657000000000000000e+03 7.340117645263671875e+01 -3.254327011108398438e+01 -4.248515889048576355e-02 7.751370429992675781e+00 2.312665700912475586e+00 -1.462712138891220093e-01
1.658000000000000000e+03 9.385158538818359375e+00 2.977720260620117188e+01 -3.659403324127197266e-02 1.511395454406738281e+00 4.424404501914978027e-01 -3.800677359104156494e-01
1.659000000000000000e+03 1.004439067840576172e+01 3.270925903320312500e+01 -1.283528059720993042e-01 1.846331000328063965e+00 5.153934955596923828e-01 -3.513912558555603027e-01
1.660000000000000000e+03 7.253288269042968750e+01 -2.353751182556152344e+01 1.077830020221881568e-04 7.582468509674072266e+00 2.274772882461547852e+00 -2.136076688766479492e-01
1.661000000000000000e+03 7.218733215332031250e+01 2.421525573730468750e+01 -4.146720841526985168e-02 8.045247077941894531e+00 2.401134014129638672e+00 2.778155803680419922e-01
1.662000000000000000e+03 7.091379547119140625e+01 1.740675544738769531e+01 -9.947662241756916046e-03 7.850021362304687500e+00 2.352022171020507812e+00 3.523854017257690430e-01
1.663000000000000000e+03 7.215019989013671875e+01 1.564175415039062500e+01 1.182966516353189945e-03 7.807513713836669922e+00 2.342609167098999023e+00 3.187250196933746338e-01
1.664000000000000000e+03 7.131434631347656250e+01 1.021361827850341797e+01 3.651060909032821655e-02 7.655812263488769531e+00 2.307696819305419922e+00 3.192173838615417480e-01
1.665000000000000000e+03 7.259021759033203125e+01 8.924959182739257812e+00 3.925674036145210266e-02 7.604558944702148438e+00 2.293144702911376953e+00 2.771952748298645020e-01
1.666000000000000000e+03 7.275625610351562500e+01 -1.702145576477050781e+01 4.184545949101448059e-02 7.444844722747802734e+00 2.246006965637207031e+00 -1.709770411252975464e-01
1.667000000000000000e+03 7.133283996582031250e+01 -6.734861850738525391e+00 1.166070252656936646e-01 7.385257720947265625e+00 2.250559329986572266e+00 4.248162265866994858e-03
1.668000000000000000e+03 7.251235961914062500e+01 -8.394807815551757812e+00 8.601539582014083862e-02 7.358915328979492188e+00 2.233479261398315430e+00 -3.076447732746601105e-02
1.669000000000000000e+03 7.238257598876953125e+01 2.615916252136230469e+00 7.467094808816909790e-02 7.460173130035400391e+00 2.260453224182128906e+00 2.018841207027435303e-01
1.670000000000000000e+03 7.226174926757812500e+01 -9.708214759826660156e+00 8.796727657318115234e-02 7.372042655944824219e+00 2.238003015518188477e+00 -5.934228748083114624e-02
1.671000000000000000e+03 7.243410491943359375e+01 -1.298692893981933594e+01 7.224810123443603516e-02 7.393336296081542969e+00 2.239675283432006836e+00 -1.205903515219688416e-01
1.672000000000000000e+03 7.279508209228515625e+01 -3.025838136672973633e+00 8.264633268117904663e-02 7.366994380950927734e+00 2.234892368316650391e+00 8.211211860179901123e-02
1.673000000000000000e+03 7.278315734863281250e+01 -4.374563217163085938e+00 8.449554443359375000e-02 7.357247829437255859e+00 2.232522964477539062e+00 5.394214019179344177e-02
1.674000000000000000e+03 7.403336334228515625e+01 -4.656187891960144043e-01 5.668572336435317993e-02 7.364346504211425781e+00 2.226309776306152344e+00 1.160670369863510132e-01
1.675000000000000000e+03 7.268429565429687500e+01 -2.677726745605468750e-01 8.126412332057952881e-02 7.402145385742187500e+00 2.245022773742675781e+00 1.395350396633148193e-01
1.676000000000000000e+03 7.402745819091796875e+01 6.171873092651367188e+00 3.248738124966621399e-02 7.511732101440429688e+00 2.263265848159790039e+00 2.099086940288543701e-01
1.677000000000000000e+03 7.155706024169921875e+01 4.786480903625488281e+00 7.421351224184036255e-02 7.518257617950439453e+00 2.277741193771362305e+00 2.524922490119934082e-01
1.678000000000000000e+03 7.261516571044921875e+01 -1.960080337524414062e+01 2.833795547485351562e-02 7.499635219573974609e+00 2.258391857147216797e+00 -1.996269822120666504e-01
1.679000000000000000e+03 7.389669799804687500e+01 -1.970727348327636719e+01 2.077921666204929352e-02 7.476293563842773438e+00 2.249121904373168945e+00 -1.754531860351562500e-01
1.680000000000000000e+03 7.384184265136718750e+01 1.294181632995605469e+01 1.142944861203432083e-02 7.719343662261962891e+00 2.319231986999511719e+00 2.649722993373870850e-01
1.681000000000000000e+03 7.079748535156250000e+01 2.720871925354003906e+01 -7.674976438283920288e-02 8.081589698791503906e+00 2.401452064514160156e+00 2.752569913864135742e-01
1.682000000000000000e+03 7.154830169677734375e+01 2.849002075195312500e+01 -7.012846320867538452e-02 8.123058319091796875e+00 2.415879011154174805e+00 2.412442564964294434e-01
1.683000000000000000e+03 7.304370117187500000e+01 -2.703307533264160156e+01 -1.647454500198364258e-02 7.645470142364501953e+00 2.288698673248291016e+00 -1.962319165468215942e-01
1.684000000000000000e+03 7.372119140625000000e+01 -2.807274055480957031e+01 -2.095166407525539398e-02 7.666327953338623047e+00 2.293612957000732422e+00 -1.774657517671585083e-01
1.685000000000000000e+03 7.981576919555664062e+00 3.379746246337890625e+01 -8.050592988729476929e-02 1.406777739524841309e+00 3.978815376758575439e-01 -2.329181730747222900e-01
1.686000000000000000e+03 1.026267623901367188e+01 2.054241752624511719e+01 3.898299634456634521e-01 7.153842449188232422e-01 3.315642774105072021e-01 -7.099674940109252930e-01
1.687000000000000000e+03 6.252107620239257812e+00 -2.575280952453613281e+01 1.163603737950325012e-01 2.453457713127136230e-01 1.085118427872657776e-01 6.352256517857313156e-03
1.688000000000000000e+03 6.236094951629638672e+00 -6.433279514312744141e+00 2.139279968105256557e-05 1.251872046850621700e-03 3.819794510491192341e-04 -2.865993010345846415e-04
1.689000000000000000e+03 4.728145599365234375e+00 -7.452966213226318359e+00 9.107717196457087994e-04 -2.057137753581628203e-04 2.115173701895400882e-04 5.345038953237235546e-04
1.690000000000000000e+03 7.201959133148193359e+00 2.690077018737792969e+01 8.934986591339111328e-02 8.515830636024475098e-01 2.822798788547515869e-01 -3.000239729881286621e-01
1.691000000000000000e+03 7.587304115295410156e+00 8.001873016357421875e+00 8.736717281863093376e-04 -4.314963705837726593e-03 -1.032387604936957359e-03 2.176726935431361198e-03
1.692000000000000000e+03 4.680359840393066406e+00 6.459968090057373047e+00 1.154074096120893955e-03 -2.076913369819521904e-03 -2.768517879303544760e-04 -8.395783952437341213e-04
1.693000000000000000e+03 6.699263572692871094e+00 7.523472785949707031e+00 -5.047771264798939228e-04 1.633289968594908714e-03 3.385538584552705288e-04 -1.967620337381958961e-04
1.694000000000000000e+03 2.527969169616699219e+01 8.209931373596191406e+00 2.393309175968170166e-01 6.610576629638671875e+00 2.054972171783447266e+00 -1.658636689186096191e+00
1.695000000000000000e+03 2.278079795837402344e+01 8.546038627624511719e+00 5.806704163551330566e-01 5.834052085876464844e+00 1.924416780471801758e+00 -1.771212935447692871e+00
1.696000000000000000e+03 1.315508270263671875e+01 -2.205112266540527344e+01 2.288450896739959717e-01 1.104681491851806641e+00 4.000579714775085449e-01 6.274533867835998535e-01
1.697000000000000000e+03 1.398339462280273438e+01 -2.085558509826660156e+01 2.233271300792694092e-01 1.190331220626831055e+00 4.240975081920623779e-01 7.095685601234436035e-01
1.698000000000000000e+03 6.785675048828125000e+01 3.000020599365234375e+01 -1.399420797824859619e-01 8.051950454711914062e+00 2.373602628707885742e+00 2.715483307838439941e-01
1.699000000000000000e+03 1.942960929870605469e+01 -1.629231834411621094e+01 5.912718176841735840e-01 2.584868192672729492e+00 9.528419971466064453e-01 1.614333748817443848e+00
1.700000000000000000e+03 1.250980949401855469e+01 2.388860130310058594e+01 1.122384220361709595e-01 2.031778812408447266e+00 6.432051658630371094e-01 -8.922084569931030273e-01
1.701000000000000000e+03 1.830028533935546875e+01 1.890547180175781250e+01 1.495631188154220581e-01 4.317493438720703125e+00 1.340116977691650391e+00 -1.013715505599975586e+00
1.702000000000000000e+03 1.974435424804687500e+01 -1.912920761108398438e+01 2.616698145866394043e-01 3.263657093048095703e+00 1.057598114013671875e+00 1.566032052040100098e+00
1.703000000000000000e+03 2.047952079772949219e+01 -1.682664871215820312e+01 4.925270974636077881e-01 3.358574628829956055e+00 1.155330538749694824e+00 1.823639988899230957e+00
1.704000000000000000e+03 2.322971343994140625e+01 1.395235347747802734e+01 4.103359282016754150e-01 5.715540885925292969e+00 1.837763071060180664e+00 -1.088845729827880859e+00
1.705000000000000000e+03 2.358724594116210938e+01 1.683645248413085938e+01 1.031888872385025024e-01 5.633018970489501953e+00 1.720862388610839844e+00 -8.281915187835693359e-01
1.706000000000000000e+03 8.725818634033203125e+00 -3.032242202758789062e+01 6.658083945512771606e-02 9.051491618156433105e-01 2.915189862251281738e-01 2.019208818674087524e-01
1.707000000000000000e+03 6.363621234893798828e+00 -2.964770126342773438e+01 6.220563873648643494e-02 4.670200347900390625e-01 1.587677001953125000e-01 7.935683429241180420e-02
1.708000000000000000e+03 1.686849594116210938e+01 2.494904518127441406e+01 -2.233713120222091675e-01 3.529598474502563477e+00 9.918681383132934570e-01 -8.183652758598327637e-01
1.709000000000000000e+03 1.564385509490966797e+01 2.206933593750000000e+01 -3.697247942909598351e-03 3.240456581115722656e+00 9.710277915000915527e-01 -1.031781673431396484e+00
1.710000000000000000e+03 1.597565841674804688e+01 -2.039328193664550781e+01 2.744745314121246338e-01 1.744962334632873535e+00 6.058310866355895996e-01 1.008774518966674805e+00
1.711000000000000000e+03 1.676581573486328125e+01 -2.246533966064453125e+01 1.728672832250595093e-01 2.263532161712646484e+00 7.309198379516601562e-01 1.062854409217834473e+00
1.712000000000000000e+03 7.226455688476562500e+01 -1.488813018798828125e+01 6.804069131612777710e-02 7.425853252410888672e+00 2.248168230056762695e+00 -1.547210365533828735e-01
1.713000000000000000e+03 6.762694835662841797e+00 2.219264793395996094e+01 2.140568792819976807e-01 3.356487154960632324e-01 1.649116873741149902e-01 -1.451724171638488770e-01
1.714000000000000000e+03 7.231471252441406250e+01 1.428975009918212891e+01 7.038323674350976944e-03 7.770021915435791016e+00 2.333118200302124023e+00 3.176769316196441650e-01
1.715000000000000000e+03 7.516450881958007812e+00 -2.877330780029296875e+01 9.321231395006179810e-02 6.067395210266113281e-01 2.099855542182922363e-01 1.313577741384506226e-01
1.716000000000000000e+03 2.612228965759277344e+01 -3.893927335739135742e+00 9.784262180328369141e-01 1.273793792724609375e+01 4.114909172058105469e+00 -3.674604654312133789e+00
1.717000000000000000e+03 2.439013671875000000e+01 -3.629297018051147461e+00 2.127949237823486328e+00 5.837749004364013672e+00 2.389709472656250000e+00 -3.982095479965209961e+00
1.718000000000000000e+03 2.532987785339355469e+01 -3.457737445831298828e+00 1.340883374214172363e+00 9.376670837402343750e+00 3.215266227722167969e+00 -4.193818092346191406e+00
1.719000000000000000e+03 2.553071212768554688e+01 -9.384592056274414062e+00 2.386004209518432617e+00 1.041895008087158203e+01 3.841486215591430664e+00 4.924016952514648438e+00
1.720000000000000000e+03 2.692327117919921875e+01 -9.468923568725585938e+00 1.504962086677551270e+00 1.491291904449462891e+01 4.925364017486572266e+00 1.772764325141906738e+00
1.721000000000000000e+03 2.906009292602539062e+01 -5.550764083862304688e+00 6.343935966491699219e+00 1.290952301025390625e+01 5.776037693023681641e+00 1.716999053955078125e+00
1.722000000000000000e+03 2.725350570678710938e+01 -8.882162094116210938e+00 2.581163883209228516e+00 1.662128829956054688e+01 5.760735988616943359e+00 2.715804576873779297e-01
1.723000000000000000e+03 2.677521896362304688e+01 -9.087379455566406250e+00 1.771718621253967285e+00 1.590588188171386719e+01 5.303279876708984375e+00 2.061538219451904297e+00
1.724000000000000000e+03 2.707920837402343750e+01 -4.495337963104248047e+00 1.631463646888732910e+00 1.636369514465332031e+01 5.398547649383544922e+00 -8.622053265571594238e-01
1.725000000000000000e+03 2.898927307128906250e+01 -7.571267604827880859e+00 7.334887981414794922e+00 1.273339939117431641e+01 6.020486354827880859e+00 -1.194935202598571777e+00
1.726000000000000000e+03 2.743268966674804688e+01 -9.205377578735351562e+00 2.243114709854125977e+00 1.554841041564941406e+01 5.337457656860351562e+00 2.147959768772125244e-01
1.727000000000000000e+03 2.803105735778808594e+01 -8.854071617126464844e+00 3.709746837615966797e+00 1.516858005523681641e+01 5.663497924804687500e+00 -1.257885575294494629e+00
1.728000000000000000e+03 2.829462814331054688e+01 -4.637488365173339844e+00 3.743923425674438477e+00 1.474313068389892578e+01 5.546116352081298828e+00 1.595053434371948242e+00
1.729000000000000000e+03 2.833629226684570312e+01 -5.213898658752441406e+00 5.441761016845703125e+00 1.488364219665527344e+01 6.097620964050292969e+00 2.100698947906494141e+00
1.730000000000000000e+03 2.848241424560546875e+01 -8.274524688720703125e+00 5.777170181274414062e+00 1.426495552062988281e+01 6.012637615203857422e+00 -1.830636858940124512e+00
1.731000000000000000e+03 2.809155654907226562e+01 -4.986810207366943359e+00 4.494003295898437500e+00 1.545150566101074219e+01 5.983652591705322266e+00 1.855731248855590820e+00
1.732000000000000000e+03 2.412765502929687500e+01 -9.692473411560058594e+00 2.958453178405761719e+00 4.690326690673828125e+00 2.294633865356445312e+00 3.888246774673461914e+00
1.733000000000000000e+03 2.334879302978515625e+01 -2.346005439758300781e+00 1.307615399360656738e+00 4.333323001861572266e+00 1.692281484603881836e+00 -2.802855014801025391e+00
1.734000000000000000e+03 2.302197074890136719e+01 -8.872149467468261719e+00 2.714835405349731445e+00 1.469891905784606934e+00 1.255418181419372559e+00 1.928262352943420410e+00
1.735000000000000000e+03 2.193217277526855469e+01 -9.957906723022460938e+00 1.986338019371032715e+00 1.681756496429443359e+00 1.100428342819213867e+00 1.637669324874877930e+00
1.736000000000000000e+03 2.436902618408203125e+01 -9.038798332214355469e+00 3.637338161468505859e+00 4.565943717956542969e+00 2.460984468460083008e+00 4.281260013580322266e+00
1.737000000000000000e+03 2.243051147460937500e+01 -9.544147491455078125e+00 2.298067569732666016e+00 1.668476819992065430e+00 1.189963340759277344e+00 1.793098330497741699e+00
1.738000000000000000e+03 2.291180610656738281e+01 -1.721590995788574219e+00 9.798393249511718750e-01 4.176920890808105469e+00 1.547028064727783203e+00 -2.530279397964477539e+00
1.739000000000000000e+03 2.230563545227050781e+01 -1.100830554962158203e+00 7.686007022857666016e-01 3.794932842254638672e+00 1.369060039520263672e+00 -2.231561660766601562e+00
1.740000000000000000e+03 9.146832466125488281e+00 5.985437393188476562e+00 -5.958942929282784462e-04 2.201274037361145020e-03 4.816139116883277893e-04 2.410390647128224373e-03
1.741000000000000000e+03 2.070036125183105469e+01 -1.156331729888916016e+01 1.371857285499572754e+00 1.763076186180114746e+00 9.404800534248352051e-01 1.513390779495239258e+00
1.742000000000000000e+03 2.498043632507324219e+01 -1.023177623748779297e+01 2.096800088882446289e+00 7.871725082397460938e+00 2.990557432174682617e+00 4.264367103576660156e+00
1.743000000000000000e+03 2.067902374267578125e+01 -1.260781097412109375e+01 1.221853613853454590e+00 2.252317428588867188e+00 1.042251348495483398e+00 1.780129909515380859e+00
1.744000000000000000e+03 2.118863487243652344e+01 -1.126442146301269531e+01 1.530508637428283691e+00 1.937171339988708496e+00 1.040303945541381836e+00 1.652314901351928711e+00
1.745000000000000000e+03 5.691645145416259766e+00 6.446684837341308594e+00 -9.253965254174545407e-05 1.624578871997073293e-04 2.097546894219703972e-05 8.780556963756680489e-04
1.746000000000000000e+03 6.988422393798828125e+00 -7.016836166381835938e+00 5.375309847295284271e-04 -1.831253408454358578e-03 -3.881167212966829538e-04 -5.069562466815114021e-04
1.747000000000000000e+03 7.634328365325927734e+00 -6.150820732116699219e+00 -1.429755793651565909e-04 1.786219771020114422e-03 4.929732531309127808e-04 -4.311354132369160652e-04
1.748000000000000000e+03 2.037680435180664062e+01 -1.089116477966308594e+01 1.277574896812438965e+00 1.260567426681518555e+00 7.614427208900451660e-01 1.123347282409667969e+00
1.749000000000000000e+03 2.582239151000976562e+01 -4.011603832244873047e+00 1.347256779670715332e+00 1.182514381408691406e+01 3.951719999313354492e+00 -4.355093479156494141e+00
1.750000000000000000e+03 2.407211685180664062e+01 2.543318271636962891e+00 3.319502249360084534e-02 6.510625839233398438e+00 1.963146209716796875e+00 -2.427673816680908203e+00
1.751000000000000000e+03 6.894347190856933594e+00 8.934671401977539062e+00 2.276774321217089891e-04 -1.359243906335905194e-04 2.752591171883977950e-05 -8.493536151945590973e-04
1.752000000000000000e+03 1.991851806640625000e+01 -1.532629394531250000e+01 7.302742004394531250e-01 2.652441501617431641e+00 1.014814734458923340e+00 1.730263710021972656e+00
1.753000000000000000e+03 2.307636260986328125e+01 -4.977656900882720947e-01 5.880137681961059570e-01 5.055049896240234375e+00 1.692919015884399414e+00 -2.640297174453735352e+00
1.754000000000000000e+03 2.326682281494140625e+01 1.747523546218872070e-01 3.867746293544769287e-01 5.523674011230468750e+00 1.773134589195251465e+00 -2.643495321273803711e+00
1.755000000000000000e+03 2.346639251708984375e+01 3.190065383911132812e+00 9.134948253631591797e-02 6.057422161102294922e+00 1.844631433486938477e+00 -2.356522560119628906e+00
1.756000000000000000e+03 7.255242156982421875e+01 1.026263999938964844e+01 3.155354037880897522e-02 7.645218372344970703e+00 2.303031444549560547e+00 2.917825579643249512e-01
1.757000000000000000e+03 1.199127960205078125e+01 -2.252705192565917969e+01 2.271668165922164917e-01 8.817861080169677734e-01 3.326858878135681152e-01 4.952781200408935547e-01
1.758000000000000000e+03 8.433644294738769531e+00 -2.592516136169433594e+01 1.659792661666870117e-01 5.550955533981323242e-01 2.163224518299102783e-01 1.451446861028671265e-01
1.759000000000000000e+03 2.398620414733886719e+01 6.638130664825439453e+00 2.943175435066223145e-01 6.324614048004150391e+00 1.985679507255554199e+00 -1.989690661430358887e+00
1.760000000000000000e+03 7.266053009033203125e+01 -7.067411422729492188e+00 8.584833145141601562e-02 7.353142738342285156e+00 2.231697320938110352e+00 -3.441292559728026390e-03
1.761000000000000000e+03 7.099368286132812500e+01 -9.218199729919433594e+00 1.174250766634941101e-01 7.398613452911376953e+00 2.254811525344848633e+00 -5.524667352437973022e-02
1.762000000000000000e+03 7.256542968750000000e+01 3.874986648559570312e+00 6.662576645612716675e-02 7.482761383056640625e+00 2.264816045761108398e+00 2.178762853145599365e-01
1.763000000000000000e+03 7.276828002929687500e+01 -1.662581443786621094e+00 8.165646344423294067e-02 7.381676673889160156e+00 2.238999843597412109e+00 1.100010946393013000e-01
1.764000000000000000e+03 7.007004547119140625e+01 -3.805420160293579102e+00 1.493581682443618774e-01 7.420707702636718750e+00 2.271019697189331055e+00 8.484032005071640015e-02
1.765000000000000000e+03 7.223380279541015625e+01 -2.105426979064941406e+01 1.774154230952262878e-02 7.538325786590576172e+00 2.266820192337036133e+00 -2.152848243713378906e-01
1.766000000000000000e+03 7.010279083251953125e+01 -2.563903999328613281e+01 -2.115850336849689484e-02 7.655718326568603516e+00 2.290367841720581055e+00 -2.579539120197296143e-01
1.767000000000000000e+03 7.261548614501953125e+01 6.273560523986816406e+00 4.953099414706230164e-02 7.536419391632080078e+00 2.275785207748413086e+00 2.464617192745208740e-01
1.768000000000000000e+03 6.915174865722656250e+01 2.364922046661376953e+00 1.427272260189056396e-01 7.507109165191650391e+00 2.294950962066650391e+00 2.552423477172851562e-01
1.769000000000000000e+03 7.140389251708984375e+01 -5.425552368164062500e+00 1.165563240647315979e-01 7.386180400848388672e+00 2.250820875167846680e+00 3.610920533537864685e-02
1.770000000000000000e+03 2.515621376037597656e+01 4.259449958801269531e+00 -2.261917851865291595e-02 7.097023487091064453e+00 2.122321367263793945e+00 -2.129982233047485352e+00
1.771000000000000000e+03 7.604288101196289062e+00 2.435843467712402344e+01 1.950469017028808594e-01 7.370678782463073730e-01 2.796344161033630371e-01 -3.118421733379364014e-01
1.772000000000000000e+03 7.059574127197265625e+01 -2.363215255737304688e+01 -5.404037656262516975e-04 7.611917018890380859e+00 2.283412933349609375e+00 -2.507964670658111572e-01
1.773000000000000000e+03 7.223687744140625000e+01 -2.582670211791992188e+01 -1.333208847790956497e-02 7.630191326141357422e+00 2.285057783126831055e+00 -2.171561717987060547e-01
1.774000000000000000e+03 7.267225646972656250e+01 -1.585790538787841797e+01 4.956486448645591736e-02 7.431088924407958984e+00 2.244196176528930664e+00 -1.622060388326644897e-01
1.775000000000000000e+03 7.145319366455078125e+01 -1.709086227416992188e+01 5.860082060098648071e-02 7.477304458618164062e+00 2.260771512985229492e+00 -1.968652606010437012e-01
1.776000000000000000e+03 7.113111114501953125e+01 1.370350551605224609e+01 1.594221778213977814e-02 7.748495101928710938e+00 2.329331159591674805e+00 3.498673737049102783e-01
1.777000000000000000e+03 7.029380035400390625e+01 9.813550949096679688e+00 5.126886442303657532e-02 7.651365756988525391e+00 2.310790538787841797e+00 3.456529676914215088e-01
1.778000000000000000e+03 7.145801544189453125e+01 -2.772579669952392578e+00 1.113906651735305786e-01 7.400553703308105469e+00 2.253583431243896484e+00 9.948599338531494141e-02
1.779000000000000000e+03 7.095758056640625000e+01 1.148154449462890625e+01 3.356574848294258118e-02 7.688744068145751953e+00 2.316692829132080078e+00 3.403418958187103271e-01
1.780000000000000000e+03 5.926214218139648438e+00 -2.266345024108886719e+01 5.363787338137626648e-02 8.982923626899719238e-02 4.304013401269912720e-02 -1.071849092841148376e-01
1.781000000000000000e+03 7.004670715332031250e+01 -1.136607933044433594e+01 1.315409690141677856e-01 7.429862499237060547e+00 2.268421173095703125e+00 -1.105488166213035583e-01
1.782000000000000000e+03 7.117864227294921875e+01 -1.212799549102783203e+01 1.023812592029571533e-01 7.412483215332031250e+00 2.254459381103515625e+00 -1.174857318401336670e-01
1.783000000000000000e+03 7.166870880126953125e+01 2.070411300659179688e+01 -2.978823706507682800e-02 7.945606708526611328e+00 2.374745607376098633e+00 3.225226998329162598e-01
1.784000000000000000e+03 7.049526214599609375e+01 1.983717155456542969e+01 -2.677755430340766907e-02 7.903313636779785156e+00 2.362960815429687500e+00 3.528498113155364990e-01
1.785000000000000000e+03 1.124372291564941406e+01 3.091516113281250000e+01 -1.285234838724136353e-01 2.040807962417602539e+00 5.736853480339050293e-01 -4.427098333835601807e-01
1.786000000000000000e+03 7.147461700439453125e+01 -1.931584167480468750e+01 3.977222368121147156e-02 7.516776084899902344e+00 2.266964435577392578e+00 -2.195497304201126099e-01
1.787000000000000000e+03 7.298072814941406250e+01 -2.906135749816894531e+01 -3.023771010339260101e-02 7.688880443572998047e+00 2.297592878341674805e+00 -1.849310696125030518e-01
1.788000000000000000e+03 2.181523513793945312e+01 -1.624786376953125000e+01 4.823830425739288330e-01 4.205486774444580078e+00 1.406360983848571777e+00 2.087155103683471680e+00
1.789000000000000000e+03 6.935707855224609375e+01 2.638267898559570312e+01 -8.422721922397613525e-02 8.027975082397460938e+00 2.383124351501464844e+00 3.118824064731597900e-01
1.790000000000000000e+03 7.093901824951171875e+01 2.210860252380371094e+01 -4.358188807964324951e-02 7.967941284179687500e+00 2.377307891845703125e+00 3.283745646476745605e-01
1.791000000000000000e+03 7.189067077636718750e+01 -2.812120437622070312e+01 -3.206119313836097717e-02 7.680120468139648438e+00 2.294417858123779297e+00 -2.160493731498718262e-01
1.792000000000000000e+03 2.476253128051757812e+01 5.033176422119140625e+00 9.082640707492828369e-02 6.773187160491943359e+00 2.059204101562500000e+00 -2.094954013824462891e+00
1.793000000000000000e+03 2.539819335937500000e+01 6.421638011932373047e+00 1.201163902878761292e-01 6.886258125305175781e+00 2.101912260055541992e+00 -1.842165470123291016e+00
1.794000000000000000e+03 7.115196990966796875e+01 1.225269556045532227e+00 1.097085550427436829e-01 7.455031394958496094e+00 2.269422054290771484e+00 1.944017559289932251e-01
1.795000000000000000e+03 2.293654060363769531e+01 1.253978443145751953e+01 5.284397006034851074e-01 5.730121612548828125e+00 1.877568364143371582e+00 -1.258235573768615723e+00
1.796000000000000000e+03 2.363230895996093750e+01 1.543779468536376953e+01 2.247288525104522705e-01 5.696330547332763672e+00 1.776317834854125977e+00 -9.156163334846496582e-01
1.797000000000000000e+03 9.761550903320312500e+00 2.206069183349609375e+01 3.070594668388366699e-01 8.985868096351623535e-01 3.616938889026641846e-01 -5.854701995849609375e-01
1.798000000000000000e+03 1.028914737701416016e+01 2.413738822937011719e+01 1.865531504154205322e-01 1.353034615516662598e+00 4.618763327598571777e-01 -6.311690211296081543e-01
1.799000000000000000e+03 1.715697288513183594e+01 -2.758171081542968750e+01 -7.689606398344039917e-02 2.828553199768066406e+00 8.254970908164978027e-01 8.289311528205871582e-01
1.800000000000000000e+03 7.116510009765625000e+01 6.255921363830566406e+00 7.285089790821075439e-02 7.556409835815429688e+00 2.288778066635131836e+00 2.850555181503295898e-01
1.801000000000000000e+03 6.935808563232421875e+01 7.830205917358398438e+00 8.120298385620117188e-02 7.613318443298339844e+00 2.308356523513793945e+00 3.478886783123016357e-01
1.802000000000000000e+03 1.929078483581542969e+01 2.001583862304687500e+01 -3.101320751011371613e-02 4.488913536071777344e+00 1.337370157241821289e+00 -9.027453660964965820e-01
1.803000000000000000e+03 1.823555755615234375e+01 2.103660583496093750e+01 -9.029200673103332520e-02 4.142643451690673828e+00 1.215705394744873047e+00 -8.995102643966674805e-01
1.804000000000000000e+03 1.838669776916503906e+01 -2.321998786926269531e+01 4.956858232617378235e-02 3.033715963363647461e+00 9.249853491783142090e-01 1.172794342041015625e+00
1.805000000000000000e+03 7.155831146240234375e+01 -1.584344577789306641e+01 6.760486215353012085e-02 7.457615375518798828e+00 2.257566213607788086e+00 -1.798700541257858276e-01
1.806000000000000000e+03 7.138690948486328125e+01 -1.404987812042236328e+01 8.350419253110885620e-02 7.431826114654541016e+00 2.254599094390869141e+00 -1.525388509035110474e-01
1.807000000000000000e+03 7.754355907440185547e+00 -2.674336814880371094e+01 1.374190896749496460e-01 5.237089395523071289e-01 1.983384042978286743e-01 1.164995431900024414e-01
1.808000000000000000e+03 1.195258235931396484e+01 -2.414536666870117188e+01 2.161744236946105957e-01 1.084363222122192383e+00 3.901613056659698486e-01 4.611229002475738525e-01
1.809000000000000000e+03 7.593507766723632812e+00 2.576240730285644531e+01 1.478007584810256958e-01 8.523887991905212402e-01 3.000568747520446777e-01 -3.267009556293487549e-01
1.810000000000000000e+03 9.096158027648925781e+00 2.462408447265625000e+01 1.987064033746719360e-01 1.118635535240173340e+00 3.952025771141052246e-01 -4.874078035354614258e-01
1.811000000000000000e+03 7.237325286865234375e+01 1.303070449829101562e+01 1.808913238346576691e-02 7.723660945892333984e+00 2.322525024414062500e+00 3.103029131889343262e-01
1.812000000000000000e+03 1.844729804992675781e+01 -1.855713653564453125e+01 3.728620409965515137e-01 2.487484455108642578e+00 8.581039309501647949e-01 1.397132515907287598e+00
1.813000000000000000e+03 2.131234359741210938e+01 -1.831710624694824219e+01 2.226660698652267456e-01 4.095567703247070312e+00 1.295470118522644043e+00 1.815855979919433594e+00
1.814000000000000000e+03 6.868187713623046875e+01 -2.110871887207031250e+01 4.060076177120208740e-02 7.590279579162597656e+00 2.289263963699340820e+00 -2.838562726974487305e-01
1.815000000000000000e+03 7.150740051269531250e+01 -2.246835517883300781e+01 9.325285442173480988e-03 7.574930191040039062e+00 2.275276660919189453e+00 -2.322688400745391846e-01
1.816000000000000000e+03 2.131652069091796875e+01 2.028579521179199219e+01 -1.411750763654708862e-01 4.994803905487060547e+00 1.456088662147521973e+00 -7.602097392082214355e-01
1.817000000000000000e+03 1.793128395080566406e+01 -1.981025314331054688e+01 2.851943671703338623e-01 2.446353673934936523e+00 8.194643855094909668e-01 1.292538046836853027e+00
1.818000000000000000e+03 2.010958671569824219e+01 -1.791999244689941406e+01 3.709095716476440430e-01 3.303860425949096680e+00 1.102431058883666992e+00 1.694739699363708496e+00
1.819000000000000000e+03 8.810667991638183594e+00 3.599906921386718750e+01 -1.270157694816589355e-01 1.605428218841552734e+00 4.435237348079681396e-01 -1.898997873067855835e-01
1.820000000000000000e+03 8.388448715209960938e+00 3.100832748413085938e+01 -4.843035712838172913e-02 1.357060909271240234e+00 3.925891816616058350e-01 -3.305049240589141846e-01
1.821000000000000000e+03 6.857453918457031250e+01 -2.648104667663574219e+01 -3.805126994848251343e-02 7.688952445983886719e+00 2.295270442962646484e+00 -2.841465473175048828e-01
1.822000000000000000e+03 1.892661094665527344e+01 -2.182626152038574219e+01 9.139639884233474731e-02 3.137877941131591797e+00 9.687823057174682617e-01 1.310485720634460449e+00
1.823000000000000000e+03 7.164945983886718750e+01 3.030275535583496094e+01 -7.361756265163421631e-02 8.163680076599121094e+00 2.427018880844116211e+00 2.114281952381134033e-01
1.824000000000000000e+03 6.853493499755859375e+01 2.800412368774414062e+01 -1.149207279086112976e-01 8.038833618164062500e+00 2.377173900604248047e+00 3.013266623020172119e-01
1.825000000000000000e+03 1.004638481140136719e+01 -2.912216567993164062e+01 8.967747539281845093e-02 1.079846382141113281e+00 3.508571684360504150e-01 2.784806787967681885e-01
1.826000000000000000e+03 7.231591033935546875e+01 -3.035480690002441406e+01 -4.316846653819084167e-02 7.718604564666748047e+00 2.302630901336669922e+00 -1.854933053255081177e-01
1.827000000000000000e+03 9.041401863098144531e+00 2.608655357360839844e+01 1.137884631752967834e-01 1.211519479751586914e+00 3.975923657417297363e-01 -4.491685926914215088e-01
1.828000000000000000e+03 2.622087478637695312e+01 1.892571067810058594e+01 -2.124323993921279907e-01 5.976978778839111328e+00 1.729363918304443359e+00 -5.709617733955383301e-01
1.829000000000000000e+03 9.991225242614746094e+00 -3.212095642089843750e+01 7.769166957587003708e-03 1.294826149940490723e+00 3.907786011695861816e-01 2.588049769401550293e-01
1.830000000000000000e+03 1.344331169128417969e+01 -2.459988021850585938e+01 1.964997351169586182e-01 1.465471625328063965e+00 4.985914230346679688e-01 6.400754451751708984e-01
1.831000000000000000e+03 2.344046592712402344e+01 -1.820601820945739746e+00 1.056705355644226074e+00 4.938562870025634766e+00 1.798580408096313477e+00 -2.922073841094970703e+00
1.832000000000000000e+03 2.563103294372558594e+01 -3.750145435333251953e+00 1.319280624389648438e+00 1.070226192474365234e+01 3.606462717056274414e+00 -4.279989242553710938e+00
1.833000000000000000e+03 2.563253211975097656e+01 -9.710859298706054688e+00 1.906074523925781250e+00 1.058263778686523438e+01 3.746613740921020508e+00 4.431031703948974609e+00
1.834000000000000000e+03 2.630529594421386719e+01 -9.617843627929687500e+00 1.425280213356018066e+00 1.320847892761230469e+01 4.390127658843994141e+00 3.385841369628906250e+00
1.835000000000000000e+03 2.870732498168945312e+01 -4.968162536621093750e+00 4.885220527648925781e+00 1.396111106872558594e+01 5.653899192810058594e+00 1.949393033981323242e+00
1.836000000000000000e+03 2.596974945068359375e+01 -9.655555725097656250e+00 1.652576208114624023e+00 1.192486667633056641e+01 4.073232650756835938e+00 4.075936794281005859e+00
1.837000000000000000e+03 2.662627601623535156e+01 -9.556095123291015625e+00 1.377326130867004395e+00 1.419886684417724609e+01 4.672857761383056641e+00 2.590063810348510742e+00
1.838000000000000000e+03 2.785434341430664062e+01 -4.802218437194824219e+00 3.650033712387084961e+00 1.597478199005126953e+01 5.887444496154785156e+00 1.453931212425231934e+00
1.839000000000000000e+03 2.949913787841796875e+01 -6.119034290313720703e+00 6.941922664642333984e+00 1.186357688903808594e+01 5.641649723052978516e+00 9.304854869842529297e-01
1.840000000000000000e+03 2.875129890441894531e+01 -7.263641357421875000e+00 8.240401268005371094e+00 1.303153705596923828e+01 6.381581306457519531e+00 -8.910502195358276367e-01
1.841000000000000000e+03 2.938355064392089844e+01 -7.134041786193847656e+00 7.467613220214843750e+00 1.196974468231201172e+01 5.831207275390625000e+00 -5.161729454994201660e-01
1.842000000000000000e+03 2.911147689819335938e+01 -6.320876598358154297e+00 7.767274856567382812e+00 1.238090133666992188e+01 6.044453144073486328e+00 7.698173522949218750e-01
1.843000000000000000e+03 2.764913368225097656e+01 -9.060462951660156250e+00 2.763873815536499023e+00 1.572220516204833984e+01 5.545823574066162109e+00 -4.375961124897003174e-01
1.844000000000000000e+03 2.887603378295898438e+01 -5.265274524688720703e+00 5.723832130432128906e+00 1.343685913085937500e+01 5.748207092285156250e+00 1.913418650627136230e+00
1.845000000000000000e+03 2.772861480712890625e+01 -4.244626998901367188e+00 2.146791458129882812e+00 1.535055065155029297e+01 5.249202728271484375e+00 4.565898776054382324e-01
1.846000000000000000e+03 2.350093460083007812e+01 -9.423492431640625000e+00 2.963970899581909180e+00 2.891028642654418945e+00 1.756499886512756348e+00 2.978178501129150391e+00
1.847000000000000000e+03 2.272324752807617188e+01 -9.839086532592773438e+00 2.454769611358642578e+00 2.276231050491333008e+00 1.419300198554992676e+00 2.267745494842529297e+00
1.848000000000000000e+03 2.371469497680664062e+01 -9.903885841369628906e+00 2.808869361877441406e+00 4.001903533935546875e+00 2.043231964111328125e+00 3.431884527206420898e+00
1.849000000000000000e+03 2.304792022705078125e+01 -1.068222618103027344e+01 2.239356517791748047e+00 3.534367561340332031e+00 1.732117176055908203e+00 2.870303153991699219e+00
1.850000000000000000e+03 2.436552429199218750e+01 -1.019379234313964844e+01 2.454301357269287109e+00 5.958774566650390625e+00 2.523922920227050781e+00 4.008487701416015625e+00
1.851000000000000000e+03 2.201265335083007812e+01 -1.049328327178955078e+01 1.970328330993652344e+00 2.095643758773803711e+00 1.219791650772094727e+00 1.905995488166809082e+00
1.852000000000000000e+03 2.246938514709472656e+01 -1.038807487487792969e+01 2.170303583145141602e+00 2.471201658248901367e+00 1.392451524734497070e+00 2.238339185714721680e+00
1.853000000000000000e+03 2.151841354370117188e+01 -1.057481288909912109e+01 1.763880014419555664e+00 1.814544916152954102e+00 1.073527455329895020e+00 1.636220216751098633e+00
1.854000000000000000e+03 2.359620857238769531e+01 -1.266704440116882324e+00 7.670804858207702637e-01 5.563945293426513672e+00 1.899307727813720703e+00 -2.927820682525634766e+00
1.855000000000000000e+03 2.414661598205566406e+01 4.863706529140472412e-01 2.025456130504608154e-01 6.596424102783203125e+00 2.039690971374511719e+00 -2.709318161010742188e+00
1.856000000000000000e+03 2.124630546569824219e+01 -1.500144767761230469e+01 7.684716582298278809e-01 3.520236253738403320e+00 1.286612391471862793e+00 2.078754425048828125e+00
1.857000000000000000e+03 2.281217575073242188e+01 -1.124617958068847656e+01 1.953373312950134277e+00 3.552941083908081055e+00 1.651894330978393555e+00 2.719676733016967773e+00
1.858000000000000000e+03 2.524281120300292969e+01 -2.741973161697387695e+00 9.735442399978637695e-01 8.742982864379882812e+00 2.914958238601684570e+00 -3.752411603927612305e+00
1.859000000000000000e+03 2.478958511352539062e+01 3.075498342514038086e+00 -5.202401056885719299e-02 7.020689487457275391e+00 2.090599775314331055e+00 -2.316294670104980469e+00
1.860000000000000000e+03 7.556948184967041016e+00 5.791402339935302734e+00 -6.864494644105434418e-04 2.498032059520483017e-03 5.434748018160462379e-04 1.121546491049230099e-03
1.861000000000000000e+03 9.010223388671875000e+00 7.008490085601806641e+00 1.388992299325764179e-03 -3.763897810131311417e-03 -7.124716066755354404e-04 -9.201620123349130154e-04
1.862000000000000000e+03 2.386860656738281250e+01 -5.878306925296783447e-02 3.714186847209930420e-01 6.227838993072509766e+00 1.979777336120605469e+00 -2.787553787231445312e+00
1.863000000000000000e+03 2.343320655822753906e+01 1.927020311355590820e+00 1.291934698820114136e-01 5.960134983062744141e+00 1.826798439025878906e+00 -2.482023477554321289e+00
1.864000000000000000e+03 6.127848625183105469e+00 8.280981063842773438e+00 -8.327676914632320404e-05 -2.261497313156723976e-03 -7.034322479739785194e-04 1.489850459620356560e-03
1.865000000000000000e+03 7.146477508544921875e+01 -1.466661214828491211e+00 1.076949313282966614e-01 7.413155078887939453e+00 2.256255149841308594e+00 1.285665035247802734e-01
1.866000000000000000e+03 6.866069030761718750e+01 -6.146716117858886719e+00 1.915524154901504517e-01 7.433952808380126953e+00 2.287651538848876953e+00 2.118371985852718353e-02
1.867000000000000000e+03 2.039999961853027344e+01 -1.449112892150878906e+01 8.701266646385192871e-01 2.742320775985717773e+00 1.083734273910522461e+00 1.846027016639709473e+00
1.868000000000000000e+03 6.976977539062500000e+01 -8.821490287780761719e+00 1.486291289329528809e-01 7.420032501220703125e+00 2.270598411560058594e+00 -5.071276053786277771e-02
1.869000000000000000e+03 7.143603515625000000e+01 -4.094048500061035156e+00 1.147238016128540039e-01 7.391481876373291016e+00 2.251861810684204102e+00 6.858052313327789307e-02
1.870000000000000000e+03 2.116022491455078125e+01 -1.211902046203613281e+01 1.395135521888732910e+00 2.405699253082275391e+00 1.140250444412231445e+00 1.900973081588745117e+00
1.871000000000000000e+03 2.086504554748535156e+01 -1.377448177337646484e+01 1.021011710166931152e+00 2.854101419448852539e+00 1.162533998489379883e+00 1.970215201377868652e+00
1.872000000000000000e+03 7.073987579345703125e+01 2.720205307006835938e+00 1.028486117720603943e-01 7.491519451141357422e+00 2.278310537338256836e+00 2.340741604566574097e-01
1.873000000000000000e+03 6.954962921142578125e+01 -2.434355735778808594e+01 -7.282075472176074982e-03 7.639301300048828125e+00 2.289605855941772461e+00 -2.743226885795593262e-01
1.874000000000000000e+03 6.948653411865234375e+01 -2.817090988159179688e+01 -5.388642102479934692e-02 7.708732128143310547e+00 2.296453714370727539e+00 -2.547223865985870361e-01
1.875000000000000000e+03 6.959864807128906250e+01 -9.855333328247070312e+00 1.493958830833435059e-01 7.427431106567382812e+00 2.273048162460327148e+00 -7.668857276439666748e-02
1.876000000000000000e+03 7.012593841552734375e+01 -1.752805709838867188e+01 6.813991814851760864e-02 7.508798599243164062e+00 2.273081541061401367e+00 -2.213482111692428589e-01
1.877000000000000000e+03 7.064959716796875000e+01 -1.866863250732421875e+01 5.252346396446228027e-02 7.518076896667480469e+00 2.271180152893066406e+00 -2.277877926826477051e-01
1.878000000000000000e+03 7.023410034179687500e+01 -5.748619884252548218e-02 1.323286741971969604e-01 7.450955867767333984e+00 2.274985313415527344e+00 1.745920479297637939e-01
1.879000000000000000e+03 6.988330841064453125e+01 1.097799205780029297e+01 4.689991474151611328e-02 7.680499076843261719e+00 2.318219661712646484e+00 3.688170313835144043e-01
1.880000000000000000e+03 6.949365997314453125e+01 1.847878265380859375e+01 -2.273700758814811707e-02 7.863780975341796875e+00 2.352313280105590820e+00 3.854873180389404297e-01
1.881000000000000000e+03 6.938396453857421875e+01 -1.423263168334960938e+01 1.188391521573066711e-01 7.474560737609863281e+00 2.278019905090332031e+00 -1.841093003749847412e-01
1.882000000000000000e+03 7.120376586914062500e+01 -8.002891540527343750e+00 1.157104969024658203e-01 7.390218257904052734e+00 2.251778602600097656e+00 -2.660099603235721588e-02
1.883000000000000000e+03 6.863420867919921875e+01 -9.755483627319335938e+00 1.768478602170944214e-01 7.443078994750976562e+00 2.285978078842163086e+00 -8.170840889215469360e-02
1.884000000000000000e+03 2.210447883605957031e+01 -1.538352203369140625e+01 6.175373792648315430e-01 4.310410976409912109e+00 1.478384494781494141e+00 2.221506118774414062e+00
1.885000000000000000e+03 6.964216613769531250e+01 6.121783256530761719e+00 9.605302661657333374e-02 7.571173667907714844e+00 2.300168037414550781e+00 3.154085874557495117e-01
1.886000000000000000e+03 7.121418762207031250e+01 9.078792572021484375e+00 5.058135837316513062e-02 7.625324726104736328e+00 2.302771806716918945e+00 3.166717290878295898e-01
1.887000000000000000e+03 2.659279823303222656e+01 7.929261684417724609e+00 7.273738831281661987e-02 7.074470043182373047e+00 2.144162178039550781e+00 -1.489545106887817383e+00
1.888000000000000000e+03 2.478676414489746094e+01 7.205480098724365234e+00 2.314230352640151978e-01 6.585029125213623047e+00 2.044935703277587891e+00 -1.828625440597534180e+00
1.889000000000000000e+03 7.052339172363281250e+01 1.599879169464111328e+01 -3.218085970729589462e-03 7.811983108520507812e+00 2.342629432678222656e+00 3.667620420455932617e-01
1.890000000000000000e+03 7.013198089599609375e+01 1.270923328399658203e+01 2.858993969857692719e-02 7.722400665283203125e+00 2.325297355651855469e+00 3.716049492359161377e-01
1.891000000000000000e+03 6.701712036132812500e+01 -2.068605232238769531e+01 5.844102427363395691e-02 7.606286048889160156e+00 2.299418210983276367e+00 -3.085970282554626465e-01
1.892000000000000000e+03 7.086143493652343750e+01 -2.045807266235351562e+01 3.097044117748737335e-02 7.549901485443115234e+00 2.274261474609375000e+00 -2.408606112003326416e-01
1.893000000000000000e+03 9.115927696228027344e+00 -2.342296409606933594e+01 1.881819814443588257e-01 4.540059566497802734e-01 1.926563829183578491e-01 1.350606232881546021e-01
1.894000000000000000e+03 7.139760589599609375e+01 -1.418803930282592773e-01 1.073191687464714050e-01 7.430323600769042969e+00 2.261292934417724609e+00 1.584571599960327148e-01
1.895000000000000000e+03 1.001248359680175781e+01 2.829250717163085938e+01 2.337442943826317787e-03 1.627941250801086426e+00 4.890835881233215332e-01 -4.552384316921234131e-01
1.896000000000000000e+03 6.922136688232421875e+01 2.113534545898437500e+01 -4.717538133263587952e-02 7.918936729431152344e+00 2.361528396606445312e+00 3.765558898448944092e-01
1.897000000000000000e+03 1.045633316040039062e+01 -2.379282760620117188e+01 2.136117964982986450e-01 6.916130781173706055e-01 2.715674638748168945e-01 2.939598262310028076e-01
1.898000000000000000e+03 7.015026092529296875e+01 -2.175491523742675781e+01 2.023013681173324585e-02 7.581640243530273438e+00 2.280560970306396484e+00 -2.579292356967926025e-01
1.899000000000000000e+03 9.580787658691406250e+00 -2.668512344360351562e+01 1.638157218694686890e-01 8.111011385917663574e-01 2.924750447273254395e-01 2.430634349584579468e-01
1.900000000000000000e+03 7.017903900146484375e+01 2.505121421813964844e+01 -7.165683060884475708e-02 8.023459434509277344e+00 2.385540723800659180e+00 3.147926330566406250e-01
1.901000000000000000e+03 2.038256263732910156e+01 1.907610702514648438e+01 3.178761526942253113e-02 4.858650684356689453e+00 1.467131495475769043e+00 -8.760322332382202148e-01
1.902000000000000000e+03 2.026797866821289062e+01 2.103095626831054688e+01 -1.596676707267761230e-01 4.672873020172119141e+00 1.353961586952209473e+00 -8.016370534896850586e-01
1.903000000000000000e+03 7.020172882080078125e+01 -3.107927894592285156e+01 -7.324227690696716309e-02 7.745764255523681641e+00 2.301756620407104492e+00 -2.139231860637664795e-01
1.904000000000000000e+03 1.761387252807617188e+01 -2.432587623596191406e+01 4.510928690433502197e-02 2.784627437591552734e+00 8.489210009574890137e-01 1.067386269569396973e+00
1.905000000000000000e+03 7.031111907958984375e+01 -1.318994998931884766e+01 1.086715757846832275e-01 7.443275928497314453e+00 2.265584230422973633e+00 -1.499495506286621094e-01
1.906000000000000000e+03 6.886376953125000000e+01 1.376104640960693359e+01 2.285032533109188080e-02 7.749486446380615234e+00 2.331701040267944336e+00 4.068109095096588135e-01
1.907000000000000000e+03 6.997226715087890625e+01 1.476364326477050781e+01 9.088510647416114807e-03 7.775140285491943359e+00 2.335268735885620117e+00 3.832062780857086182e-01
1.908000000000000000e+03 7.081594848632812500e+01 -2.947948837280273438e+01 -5.249564349651336670e-02 7.715277671813964844e+00 2.298834562301635742e+00 -2.207960039377212524e-01
1.909000000000000000e+03 1.935445785522460938e+01 2.218049812316894531e+01 -1.960387974977493286e-01 4.397220134735107422e+00 1.260354399681091309e+00 -8.289532661437988281e-01
1.910000000000000000e+03 1.569461441040039062e+01 2.658516120910644531e+01 -2.201862484216690063e-01 3.133823394775390625e+00 8.740912079811096191e-01 -7.386962175369262695e-01
1.911000000000000000e+03 2.090893745422363281e+01 -2.095840454101562500e+01 -1.163007545983418822e-04 4.045947551727294922e+00 1.213749408721923828e+00 1.508821845054626465e+00
1.912000000000000000e+03 1.150354290008544922e+01 2.527718353271484375e+01 9.420824050903320312e-02 1.787055969238281250e+00 5.643792748451232910e-01 -7.083733677864074707e-01
1.913000000000000000e+03 6.839947509765625000e+01 -3.395361709594726562e+01 -1.384932547807693481e-01 7.806416511535644531e+00 2.300376892089843750e+00 -1.819078475236892700e-01
1.914000000000000000e+03 6.791484832763671875e+01 2.542055320739746094e+01 -9.737497568130493164e-02 7.979484558105468750e+00 2.364632844924926758e+00 3.517811000347137451e-01
1.915000000000000000e+03 1.936245536804199219e+01 -2.044602394104003906e+01 1.768013089895248413e-01 3.191639661788940430e+00 1.010532259941101074e+00 1.437382578849792480e+00
1.916000000000000000e+03 2.893647766113281250e+01 -4.462519645690917969e+00 3.871230125427246094e+00 1.346904087066650391e+01 5.202081203460693359e+00 1.715865254402160645e+00
1.917000000000000000e+03 2.690955352783203125e+01 -3.968148946762084961e+00 9.894154667854309082e-01 1.491155815124511719e+01 4.770292282104492188e+00 -1.729329466819763184e+00
1.918000000000000000e+03 2.444841384887695312e+01 -3.089061498641967773e+00 1.615307211875915527e+00 6.455726623535156250e+00 2.421310186386108398e+00 -3.817835569381713867e+00
1.919000000000000000e+03 2.289639282226562500e+01 -1.024687099456787109e+01 2.409391880035400391e+00 2.908861637115478516e+00 1.595476031303405762e+00 2.625978469848632812e+00
1.920000000000000000e+03 2.740234375000000000e+01 -9.715951919555664062e+00 1.544313073158264160e+00 1.442571735382080078e+01 4.791008949279785156e+00 7.743373513221740723e-01
1.921000000000000000e+03 2.710672569274902344e+01 -9.882135391235351562e+00 1.252072691917419434e+00 1.400464344024658203e+01 4.577014923095703125e+00 1.477280020713806152e+00
1.922000000000000000e+03 2.474369239807128906e+01 -9.864949226379394531e+00 2.540910959243774414e+00 7.052834987640380859e+00 2.878123760223388672e+00 4.436330318450927734e+00
1.923000000000000000e+03 2.941649436950683594e+01 -7.500113964080810547e+00 6.949728965759277344e+00 1.198953056335449219e+01 5.681777954101562500e+00 -9.417122006416320801e-01
1.924000000000000000e+03 2.768227958679199219e+01 -9.980182647705078125e+00 1.482635140419006348e+00 1.390011405944824219e+01 4.614824771881103516e+00 4.718483686447143555e-01
1.925000000000000000e+03 2.772545623779296875e+01 -3.879864454269409180e+00 1.592553734779357910e+00 1.476970863342285156e+01 4.908678531646728516e+00 6.190267205238342285e-02
1.926000000000000000e+03 2.811837577819824219e+01 -3.838862180709838867e+00 1.929586529731750488e+00 1.428345584869384766e+01 4.863912582397460938e+00 5.976148247718811035e-01
1.927000000000000000e+03 2.850156593322753906e+01 -8.536073684692382812e+00 4.977096080780029297e+00 1.427306842803955078e+01 5.775049209594726562e+00 -1.720808029174804688e+00
1.928000000000000000e+03 2.843745422363281250e+01 -9.508855819702148438e+00 2.766166687011718750e+00 1.386722183227539062e+01 4.990016460418701172e+00 -9.628424644470214844e-01
1.929000000000000000e+03 2.899153327941894531e+01 -8.393566131591796875e+00 5.414301872253417969e+00 1.304648685455322266e+01 5.538236618041992188e+00 -1.653120398521423340e+00
1.930000000000000000e+03 2.261635780334472656e+01 -1.084268379211425781e+01 2.088513135910034180e+00 3.035232543945312500e+00 1.537123680114746094e+00 2.514212846755981445e+00
1.931000000000000000e+03 2.492923927307128906e+01 -3.204229116439819336e+00 1.421196222305297852e+00 7.845474720001220703e+00 2.780001163482666016e+00 -3.977920055389404297e+00
1.932000000000000000e+03 2.297403526306152344e+01 -1.135328292846679688e+00 7.823064327239990234e-01 4.637174129486083984e+00 1.625844240188598633e+00 -2.611687898635864258e+00
1.933000000000000000e+03 2.215936470031738281e+01 -1.105036640167236328e+01 1.886762738227844238e+00 2.644196987152099609e+00 1.359287858009338379e+00 2.213535308837890625e+00
1.934000000000000000e+03 2.390903282165527344e+01 -1.955591678619384766e+00 1.040961384773254395e+00 5.743120670318603516e+00 2.035224676132202148e+00 -3.164391994476318359e+00
1.935000000000000000e+03 2.156445693969726562e+01 -1.166228866577148438e+01 1.598129272460937500e+00 2.491042852401733398e+00 1.226751685142517090e+00 2.019386529922485352e+00
1.936000000000000000e+03 2.359485816955566406e+01 8.321281075477600098e-01 2.211333960294723511e-01 6.018393039703369141e+00 1.871857881546020508e+00 -2.626821041107177734e+00
1.937000000000000000e+03 2.670965576171875000e+01 3.290299892425537109e+00 -2.187136113643646240e-01 8.192671775817871094e+00 2.392187356948852539e+00 -1.862162113189697266e+00
1.938000000000000000e+03 2.171000862121582031e+01 -1.257232093811035156e+01 1.355546474456787109e+00 3.088897466659545898e+00 1.333333134651184082e+00 2.220766782760620117e+00
1.939000000000000000e+03 2.130629730224609375e+01 -1.314440059661865234e+01 1.180306911468505859e+00 2.979648828506469727e+00 1.247986674308776855e+00 2.090293169021606445e+00
1.940000000000000000e+03 2.529761314392089844e+01 -1.010024738311767578e+01 1.957617402076721191e+00 8.922188758850097656e+00 3.263941764831542969e+00 4.324651241302490234e+00
1.941000000000000000e+03 6.920804595947265625e+01 -1.229340744018554688e+01 1.447817832231521606e-01 7.453058242797851562e+00 2.279351949691772461e+00 -1.420042365789413452e-01
1.942000000000000000e+03 2.556124687194824219e+01 3.542936801910400391e+00 -1.043942347168922424e-01 7.456192493438720703e+00 2.205539464950561523e+00 -2.147867679595947266e+00
1.943000000000000000e+03 6.919694519042968750e+01 1.186049842834472656e+01 4.203737154603004456e-02 7.702888011932373047e+00 2.323477745056152344e+00 3.899069726467132568e-01
1.944000000000000000e+03 6.884133148193359375e+01 1.081908893585205078e+01 5.480346828699111938e-02 7.683211326599121094e+00 2.321404457092285156e+00 3.914043605327606201e-01
1.945000000000000000e+03 6.877987670898437500e+01 -1.840700912475585938e+01 7.657735049724578857e-02 7.545596122741699219e+00 2.286652088165283203e+00 -2.586385011672973633e-01
1.946000000000000000e+03 2.655794143676757812e+01 6.802017211914062500e+00 1.733465678989887238e-02 7.252698421478271484e+00 2.181010007858276367e+00 -1.612599492073059082e+00
1.947000000000000000e+03 2.574299621582031250e+01 5.493792057037353516e+00 6.682923412881791592e-04 7.203428745269775391e+00 2.161229133605957031e+00 -1.891753315925598145e+00
1.948000000000000000e+03 2.689295578002929688e+01 9.058272361755371094e+00 8.878364413976669312e-02 6.972960472106933594e+00 2.118523120880126953e+00 -1.314986467361450195e+00
1.949000000000000000e+03 2.548527526855468750e+01 1.221505069732666016e+01 2.568143904209136963e-01 6.251203060150146484e+00 1.952405333518981934e+00 -1.149476766586303711e+00
1.950000000000000000e+03 2.280857467651367188e+01 9.810380935668945312e+00 6.269900798797607422e-01 5.800043106079101562e+00 1.928110003471374512e+00 -1.620015144348144531e+00
1.951000000000000000e+03 2.551832962036132812e+01 1.121417903900146484e+01 2.657246589660644531e-01 6.381173610687255859e+00 1.994069457054138184e+00 -1.273480415344238281e+00
1.952000000000000000e+03 2.651002502441406250e+01 1.440623474121093750e+01 4.852160438895225525e-02 6.352263927459716797e+00 1.920235633850097656e+00 -8.413144350051879883e-01
1.953000000000000000e+03 6.811536407470703125e+01 -2.469302749633789062e+01 -1.712960191071033478e-02 7.665266990661621094e+00 2.294441223144531250e+00 -2.960376143455505371e-01
1.954000000000000000e+03 6.818968200683593750e+01 -2.287490653991699219e+01 1.166824344545602798e-02 7.632450103759765625e+00 2.293235540390014648e+00 -3.003956377506256104e-01
1.955000000000000000e+03 2.079475975036621094e+01 2.311104393005371094e+01 -3.148261904716491699e-01 4.695196151733398438e+00 1.314110994338989258e+00 -7.014155387878417969e-01
1.956000000000000000e+03 1.983550453186035156e+01 2.472647476196289062e+01 -3.680570125579833984e-01 4.372000694274902344e+00 1.201183199882507324e+00 -6.886016726493835449e-01
1.957000000000000000e+03 6.999947357177734375e+01 -6.424543857574462891e+00 1.517406553030014038e-01 7.412761688232421875e+00 2.269350767135620117e+00 1.210870966315269470e-02
1.958000000000000000e+03 6.989500427246093750e+01 -7.653622627258300781e+00 1.502466052770614624e-01 7.415021419525146484e+00 2.269580364227294922e+00 -2.050228789448738098e-02
1.959000000000000000e+03 6.790310668945312500e+01 1.969858360290527344e+01 -4.737310856580734253e-02 7.878335475921630859e+00 2.349288702011108398e+00 4.169409871101379395e-01
1.960000000000000000e+03 6.823426818847656250e+01 1.722492980957031250e+01 -1.484438776969909668e-02 7.825418949127197266e+00 2.343172311782836914e+00 4.159778952598571777e-01
1.961000000000000000e+03 2.363672256469726562e+01 -1.858285713195800781e+01 -9.242501109838485718e-02 5.567507743835449219e+00 1.642524838447570801e+00 1.828898787498474121e+00
1.962000000000000000e+03 2.421545791625976562e+01 9.736408233642578125e+00 4.305805861949920654e-01 6.152847290039062500e+00 1.975028395652770996e+00 -1.558292388916015625e+00
1.963000000000000000e+03 2.250590133666992188e+01 -1.854426574707031250e+01 6.519326567649841309e-02 4.854209423065185547e+00 1.475820779800415039e+00 1.857432007789611816e+00
1.964000000000000000e+03 2.154645156860351562e+01 -1.722155189514160156e+01 3.511071801185607910e-01 4.133081912994384766e+00 1.345256686210632324e+00 1.950436353683471680e+00
1.965000000000000000e+03 1.159383106231689453e+01 -2.591989517211914062e+01 1.887432187795639038e-01 1.162679553031921387e+00 4.054268300533294678e-01 4.115734696388244629e-01
1.966000000000000000e+03 1.150621986389160156e+01 2.902085876464843750e+01 -7.765098661184310913e-02 2.059126615524291992e+00 5.944426655769348145e-01 -5.439043641090393066e-01
1.967000000000000000e+03 1.523639965057373047e+01 -2.399856567382812500e+01 1.757540702819824219e-01 1.966891407966613770e+00 6.427936553955078125e-01 8.577237129211425781e-01
1.968000000000000000e+03 1.405931186676025391e+01 2.512366294860839844e+01 -5.497455596923828125e-02 2.616572856903076172e+00 7.684795260429382324e-01 -8.390793800354003906e-01
1.969000000000000000e+03 1.300368022918701172e+01 2.648832130432128906e+01 -5.348137021064758301e-02 2.331609487533569336e+00 6.834384202957153320e-01 -7.474598884582519531e-01
1.970000000000000000e+03 6.687973785400390625e+01 2.711190032958984375e+01 -1.295595020055770874e-01 7.987099170684814453e+00 2.357261896133422852e+00 3.424875438213348389e-01
1.971000000000000000e+03 2.013093566894531250e+01 -2.407249641418457031e+01 -1.208596378564834595e-01 3.774430513381958008e+00 1.096071243286132812e+00 1.222449421882629395e+00
1.972000000000000000e+03 1.061391353607177734e+01 2.673903465270996094e+01 4.322714358568191528e-02 1.693794608116149902e+00 5.211065411567687988e-01 -5.809667110443115234e-01
1.973000000000000000e+03 6.995449066162109375e+01 1.042573332786560059e+00 1.345691084861755371e-01 7.471204757690429688e+00 2.281732082366943359e+00 2.059306800365447998e-01
1.974000000000000000e+03 2.529781150817871094e+01 -9.759153366088867188e+00 2.199221849441528320e+00 9.007759094238281250e+00 3.362094402313232422e+00 4.580644607543945312e+00
1.975000000000000000e+03 2.432351684570312500e+01 -1.954416155815124512e+00 9.137969017028808594e-01 6.662808418273925781e+00 2.272981643676757812e+00 -3.285325288772583008e+00
1.976000000000000000e+03 2.603747940063476562e+01 -1.010738945007324219e+01 1.299506664276123047e+00 1.143194198608398438e+01 3.819434642791748047e+00 3.584083795547485352e+00
1.977000000000000000e+03 2.695783615112304688e+01 -3.562608242034912109e+00 7.294496893882751465e-01 1.395923233032226562e+01 4.406604766845703125e+00 -1.808045268058776855e+00
1.978000000000000000e+03 2.598376274108886719e+01 -3.570369243621826172e+00 9.370663166046142578e-01 1.175845813751220703e+01 3.808657407760620117e+00 -3.648010492324829102e+00
1.979000000000000000e+03 2.962327194213867188e+01 -5.594390392303466797e+00 6.074259757995605469e+00 1.192233180999755859e+01 5.398977279663085938e+00 1.395765304565429688e+00
1.980000000000000000e+03 2.675641059875488281e+01 -9.964929580688476562e+00 1.129004955291748047e+00 1.341544151306152344e+01 4.363334178924560547e+00 2.284211158752441406e+00
1.981000000000000000e+03 2.441580772399902344e+01 -2.491803884506225586e+00 1.200932264328002930e+00 6.634966373443603516e+00 2.350769758224487305e+00 -3.523127317428588867e+00
1.982000000000000000e+03 2.640213012695312500e+01 -1.003151798248291016e+01 1.147513985633850098e+00 1.260874080657958984e+01 4.126876354217529297e+00 3.006053686141967773e+00
1.983000000000000000e+03 2.289856719970703125e+01 -1.190509605407714844e+01 1.637780547142028809e+00 4.131323337554931641e+00 1.730731248855590820e+00 2.801040172576904297e+00
1.984000000000000000e+03 2.974751281738281250e+01 -6.396868228912353516e+00 6.869264602661132812e+00 1.150218200683593750e+01 5.511434078216552734e+00 5.231886506080627441e-01
1.985000000000000000e+03 2.930643653869628906e+01 -6.857210636138916016e+00 7.606310367584228516e+00 1.199695968627929688e+01 5.880980968475341797e+00 -1.319925021380186081e-02
1.986000000000000000e+03 2.725142478942871094e+01 -1.034175586700439453e+01 1.012657523155212402e+00 1.322958278656005859e+01 4.272672176361083984e+00 1.366204977035522461e+00
1.987000000000000000e+03 2.985750579833984375e+01 -7.459311485290527344e+00 6.561056137084960938e+00 1.143330669403076172e+01 5.398309230804443359e+00 -7.940734624862670898e-01
1.988000000000000000e+03 2.971897697448730469e+01 -5.117786884307861328e+00 5.271478652954101562e+00 1.197172451019287109e+01 5.172961235046386719e+00 1.597029566764831543e+00
1.989000000000000000e+03 2.951398086547851562e+01 -7.900321483612060547e+00 6.247959136962890625e+00 1.201513671875000000e+01 5.478929042816162109e+00 -1.313660860061645508e+00
1.990000000000000000e+03 2.788896751403808594e+01 -9.324822425842285156e+00 2.553057670593261719e+00 1.484885406494140625e+01 5.220573425292968750e+00 -5.255350470542907715e-01
1.991000000000000000e+03 2.908703613281250000e+01 -4.737808704376220703e+00 4.411744117736816406e+00 1.311735725402832031e+01 5.258730411529541016e+00 1.733977079391479492e+00
1.992000000000000000e+03 2.856413269042968750e+01 -8.807945251464843750e+00 4.336173534393310547e+00 1.407762527465820312e+01 5.524139404296875000e+00 -1.616597890853881836e+00
1.993000000000000000e+03 2.997353172302246094e+01 -7.860766887664794922e+00 5.987226486206054688e+00 1.140744590759277344e+01 5.218401432037353516e+00 -1.121516227722167969e+00
1.994000000000000000e+03 2.435780525207519531e+01 -2.099972367286682129e-01 3.192512691020965576e-01 6.807318210601806641e+00 2.137970924377441406e+00 -2.844571113586425781e+00
1.995000000000000000e+03 2.373826408386230469e+01 -6.677283048629760742e-01 5.546810626983642578e-01 5.930356502532958984e+00 1.945511341094970703e+00 -2.861473083496093750e+00
1.996000000000000000e+03 2.207777404785156250e+01 -1.201588916778564453e+01 1.569323420524597168e+00 3.158699274063110352e+00 1.418406724929809570e+00 2.335659503936767578e+00
1.997000000000000000e+03 2.529611015319824219e+01 2.431390047073364258e+00 -1.100648120045661926e-01 7.479499816894531250e+00 2.210830450057983398e+00 -2.319927453994750977e+00
1.998000000000000000e+03 2.896687126159667969e+01 4.596477031707763672e+00 -2.109050601720809937e-01 8.591331481933593750e+00 2.514127969741821289e+00 -1.095009207725524902e+00
1.999000000000000000e+03 2.406661987304687500e+01 1.426038265228271484e+00 9.905735403299331665e-02 6.533756732940673828e+00 1.989844322204589844e+00 -2.570239543914794922e+00
2.000000000000000000e+03 2.245370292663574219e+01 -1.155493164062500000e+01 1.781282186508178711e+00 3.286624431610107422e+00 1.520372033119201660e+00 2.501718044281005859e+00
2.001000000000000000e+03 2.162060165405273438e+01 -1.425026702880859375e+01 9.154691696166992188e-01 3.632282257080078125e+00 1.364325404167175293e+00 2.205857038497924805e+00
2.002000000000000000e+03 2.458885574340820312e+01 9.548501372337341309e-01 6.529282033443450928e-02 7.064075946807861328e+00 2.138810634613037109e+00 -2.631427049636840820e+00
2.003000000000000000e+03 2.598181343078613281e+01 2.886313915252685547e+00 -1.897016763687133789e-01 7.892508983612060547e+00 2.310842275619506836e+00 -2.116335868835449219e+00
2.004000000000000000e+03 2.197812843322753906e+01 -1.357647991180419922e+01 1.078306198120117188e+00 3.749866008758544922e+00 1.448451638221740723e+00 2.348991870880126953e+00
2.005000000000000000e+03 2.274679565429687500e+01 -1.650875282287597656e+01 3.186227977275848389e-01 4.961272239685058594e+00 1.583968520164489746e+00 2.142068624496459961e+00
2.006000000000000000e+03 2.676584243774414062e+01 5.819129467010498047e+00 -7.238173484802246094e-02 7.551396369934082031e+00 2.243704319000244141e+00 -1.672641396522521973e+00
2.007000000000000000e+03 2.560393333435058594e+01 9.408366203308105469e+00 2.381155639886856079e-01 6.569494724273681641e+00 2.042283058166503906e+00 -1.462107181549072266e+00
2.008000000000000000e+03 6.917805480957031250e+01 3.740907609462738037e-01 1.551434844732284546e-01 7.474822998046875000e+00 2.288990020751953125e+00 2.004738748073577881e-01
2.009000000000000000e+03 2.644157409667968750e+01 1.180519294738769531e+01 1.340041607618331909e-01 6.565642356872558594e+00 2.009893894195556641e+00 -1.085693836212158203e+00
2.010000000000000000e+03 2.110854148864746094e+01 -1.956113624572753906e+01 1.056785508990287781e-01 4.071192264556884766e+00 1.253061175346374512e+00 1.669936895370483398e+00
2.011000000000000000e+03 2.249136543273925781e+01 -1.978404045104980469e+01 -7.020679861307144165e-02 4.867966651916503906e+00 1.439327955245971680e+00 1.706161975860595703e+00
2.012000000000000000e+03 6.156040954589843750e+01 -2.137729644775390625e+01 7.234381139278411865e-02 7.694342613220214844e+00 2.330005884170532227e+00 -4.105149209499359131e-01
2.013000000000000000e+03 6.632018280029296875e+01 -2.498873901367187500e+01 -3.125810623168945312e-02 7.697658061981201172e+00 2.299920082092285156e+00 -3.307849764823913574e-01
2.014000000000000000e+03 6.824609375000000000e+01 -1.322645854949951172e+01 1.542062163352966309e-01 7.478487014770507812e+00 2.289808034896850586e+00 -1.760919392108917236e-01
2.015000000000000000e+03 6.854925537109375000e+01 -7.383348941802978516e+00 1.891381740570068359e-01 7.436240673065185547e+00 2.287613630294799805e+00 -1.462457980960607529e-02
2.016000000000000000e+03 2.462651443481445312e+01 1.368918514251708984e+01 2.854303419589996338e-01 5.979232311248779297e+00 1.879398703575134277e+00 -1.040953159332275391e+00
2.017000000000000000e+03 2.516181755065917969e+01 1.512255477905273438e+01 1.310065686702728271e-01 6.007095336914062500e+00 1.841430544853210449e+00 -8.673740029335021973e-01
2.018000000000000000e+03 6.911839294433593750e+01 -1.063369846343994141e+01 1.568183004856109619e-01 7.441360473632812500e+00 2.279453516006469727e+00 -1.019562780857086182e-01
2.019000000000000000e+03 6.960007476806640625e+01 -1.964650535583496094e+01 5.291514098644256592e-02 7.552888393402099609e+00 2.281741142272949219e+00 -2.567856907844543457e-01
2.020000000000000000e+03 2.787116432189941406e+01 7.831592559814453125e+00 -5.549880862236022949e-02 7.492578029632568359e+00 2.231123685836791992e+00 -1.258880615234375000e+00
2.021000000000000000e+03 2.775756072998046875e+01 6.853916645050048828e+00 -8.716546744108200073e-02 7.657261371612548828e+00 2.271028757095336914e+00 -1.342713952064514160e+00
2.022000000000000000e+03 2.810642051696777344e+01 1.261431121826171875e+01 -1.057343557476997375e-02 6.784110069274902344e+00 2.032060861587524414e+00 -8.466753363609313965e-01
2.023000000000000000e+03 6.795185852050781250e+01 1.258673191070556641e+01 3.850294649600982666e-02 7.724106311798095703e+00 2.328782796859741211e+00 4.201208055019378662e-01
2.024000000000000000e+03 8.803334236145019531e+00 -2.474146270751953125e+01 1.784556806087493896e-01 5.241646170616149902e-01 2.107860743999481201e-01 1.447938382625579834e-01
2.025000000000000000e+03 6.957390594482421875e+01 -2.307204246520996094e+01 8.066861890256404877e-03 7.613519191741943359e+00 2.286475896835327148e+00 -2.720397412776947021e-01
2.026000000000000000e+03 6.762969970703125000e+01 2.262121772766113281e+01 -8.048958331346511841e-02 7.931238651275634766e+00 2.355224847793579102e+00 3.923905789852142334e-01
2.027000000000000000e+03 1.321920013427734375e+01 -2.650930023193359375e+01 1.439841240644454956e-01 1.630448818206787109e+00 5.323298573493957520e-01 5.422940850257873535e-01
2.028000000000000000e+03 2.174822425842285156e+01 2.573079109191894531e+01 -4.787462353706359863e-01 4.766491413116455078e+00 1.286323547363281250e+00 -5.582122206687927246e-01
2.029000000000000000e+03 2.390226745605468750e+01 -2.616423034667968750e+01 -5.467174053192138672e-01 5.288799285888671875e+00 1.422624588012695312e+00 1.027416586875915527e+00
2.030000000000000000e+03 2.574819946289062500e+01 -2.485892677307128906e+01 -6.485292315483093262e-01 6.028705596923828125e+00 1.614053010940551758e+00 1.006630063056945801e+00
2.031000000000000000e+03 1.741374778747558594e+01 2.826610374450683594e+01 -3.570027351379394531e-01 3.595922946929931641e+00 9.716760516166687012e-01 -6.269669532775878906e-01
2.032000000000000000e+03 1.438611125946044922e+01 2.799552345275878906e+01 -1.821565181016921997e-01 2.737280607223510742e+00 7.665372490882873535e-01 -6.617083549499511719e-01
2.033000000000000000e+03 2.732600021362304688e+01 -3.946586608886718750e+00 1.254935622215270996e+00 1.511163043975830078e+01 4.909969806671142578e+00 -7.323552966117858887e-01
2.034000000000000000e+03 2.926348876953125000e+01 -4.124227046966552734e+00 3.329116106033325195e+00 1.285131740570068359e+01 4.854129791259765625e+00 1.520661234855651855e+00
2.035000000000000000e+03 2.650640487670898438e+01 -1.043481254577636719e+01 9.465984702110290527e-01 1.207726097106933594e+01 3.907157897949218750e+00 2.693779468536376953e+00
2.036000000000000000e+03 2.862110710144042969e+01 -4.646572113037109375e+00 4.040969371795654297e+00 1.414946556091308594e+01 5.457130432128906250e+00 1.745900392532348633e+00
2.037000000000000000e+03 2.348133468627929688e+01 -1.056153583526611328e+01 2.334456920623779297e+00 4.181506156921386719e+00 1.954788923263549805e+00 3.208636045455932617e+00
2.038000000000000000e+03 2.616003990173339844e+01 -1.050307273864746094e+01 1.068948507308959961e+00 1.119369316101074219e+01 3.678792476654052734e+00 3.202509641647338867e+00
2.039000000000000000e+03 2.687082862854003906e+01 -1.038968849182128906e+01 9.061323404312133789e-01 1.277175998687744141e+01 4.103367805480957031e+00 2.064416646957397461e+00
2.040000000000000000e+03 2.614023971557617188e+01 -2.961554288864135742e+00 5.745562314987182617e-01 1.130287361145019531e+01 3.563228845596313477e+00 -3.219324588775634766e+00
2.041000000000000000e+03 2.637950706481933594e+01 -3.094703674316406250e+00 5.258389711380004883e-01 1.227784156799316406e+01 3.841104269027709961e+00 -2.825297355651855469e+00
2.042000000000000000e+03 2.694839477539062500e+01 -1.083588790893554688e+01 7.362941503524780273e-01 1.216881084442138672e+01 3.871531486511230469e+00 1.939156651496887207e+00
2.043000000000000000e+03 2.980568885803222656e+01 -7.084203243255615234e+00 6.862462520599365234e+00 1.138593006134033203e+01 5.474517822265625000e+00 -3.500277698040008545e-01
2.044000000000000000e+03 3.023209571838378906e+01 -5.536852836608886719e+00 5.550209999084472656e+00 1.126155185699462891e+01 5.043528556823730469e+00 1.205503225326538086e+00
2.045000000000000000e+03 2.878347587585449219e+01 -8.518225669860839844e+00 5.124115467071533203e+00 1.353719997406005859e+01 5.598394393920898438e+00 -1.729157447814941406e+00
2.046000000000000000e+03 2.958999061584472656e+01 -8.787847518920898438e+00 4.687543869018554688e+00 1.220664501190185547e+01 5.068256378173828125e+00 -1.594835162162780762e+00
2.047000000000000000e+03 2.765402412414550781e+01 -1.034868907928466797e+01 1.194582581520080566e+00 1.333076381683349609e+01 4.357604026794433594e+00 7.214367389678955078e-01
2.048000000000000000e+03 2.805792999267578125e+01 -1.037346935272216797e+01 1.432332873344421387e+00 1.316438961029052734e+01 4.379016876220703125e+00 9.941931068897247314e-02
2.049000000000000000e+03 2.595474052429199219e+01 -3.248658895492553711e+00 8.069415092468261719e-01 1.114237308502197266e+01 3.584794521331787109e+00 -3.576454162597656250e+00
2.050000000000000000e+03 2.393663215637207031e+01 -1.043977069854736328e+01 2.376473665237426758e+00 5.067460536956787109e+00 2.233180284500122070e+00 3.608040332794189453e+00
2.051000000000000000e+03 2.859804153442382812e+01 -9.871377944946289062e+00 2.312601327896118164e+00 1.329519462585449219e+01 4.682338714599609375e+00 -8.019499182701110840e-01
2.052000000000000000e+03 2.927269172668457031e+01 -8.553323745727539062e+00 5.073138713836669922e+00 1.261248779296875000e+01 5.305687904357910156e+00 -1.634740591049194336e+00
2.053000000000000000e+03 2.911024665832519531e+01 -9.418688774108886719e+00 3.456291913986206055e+00 1.293377017974853516e+01 4.917018413543701172e+00 -1.405704855918884277e+00
2.054000000000000000e+03 2.475311470031738281e+01 -1.775076031684875488e+00 7.222281098365783691e-01 7.411116600036621094e+00 2.440003395080566406e+00 -3.324682235717773438e+00
2.055000000000000000e+03 2.451147651672363281e+01 -1.259237051010131836e+00 5.826964378356933594e-01 6.997888565063476562e+00 2.274175405502319336e+00 -3.103016853332519531e+00
2.056000000000000000e+03 2.434717178344726562e+01 -7.203167080879211426e-01 4.619948267936706543e-01 6.779027462005615234e+00 2.172306776046752930e+00 -2.973889112472534180e+00
2.057000000000000000e+03 2.408674621582031250e+01 -1.532928824424743652e+00 7.739593982696533203e-01 6.257491111755371094e+00 2.109435081481933594e+00 -3.102284193038940430e+00
2.058000000000000000e+03 2.311561012268066406e+01 -1.149162101745605469e+01 1.825493335723876953e+00 4.179305076599121094e+00 1.801439523696899414e+00 2.920010566711425781e+00
2.059000000000000000e+03 2.261701583862304688e+01 -1.239737892150878906e+01 1.456170678138732910e+00 4.008594989776611328e+00 1.639429688453674316e+00 2.655830621719360352e+00
2.060000000000000000e+03 2.689054489135742188e+01 1.777319908142089844e+00 -2.611190974712371826e-01 8.819577217102050781e+00 2.567537546157836914e+00 -1.888477802276611328e+00
2.061000000000000000e+03 2.465099906921386719e+01 1.949983119964599609e+00 -2.137736231088638306e-02 7.039961814880371094e+00 2.105575323104858398e+00 -2.464876651763916016e+00
2.062000000000000000e+03 2.518518257141113281e+01 1.357748031616210938e+00 -6.399767100811004639e-02 7.635268688201904297e+00 2.271381378173828125e+00 -2.480184316635131836e+00
2.063000000000000000e+03 2.581634330749511719e+01 1.806589126586914062e+00 -1.710978597402572632e-01 8.069485664367675781e+00 2.369516372680664062e+00 -2.272183895111083984e+00
2.064000000000000000e+03 2.698624229431152344e+01 4.986138820648193359e+00 -1.480402797460556030e-01 7.840213298797607422e+00 2.307651996612548828e+00 -1.676806330680847168e+00
2.065000000000000000e+03 2.722097778320312500e+01 4.259669780731201172e+00 -1.999036520719528198e-01 8.136420249938964844e+00 2.380954980850219727e+00 -1.657384157180786133e+00
2.066000000000000000e+03 2.267389297485351562e+01 -1.391631221771240234e+01 9.162285327911376953e-01 4.557133197784423828e+00 1.642008543014526367e+00 2.507603883743286133e+00
2.067000000000000000e+03 2.357931137084960938e+01 -1.756376075744628906e+01 4.020992293953895569e-02 5.578997611999511719e+00 1.685762286186218262e+00 1.981629252433776855e+00
2.068000000000000000e+03 2.294762992858886719e+01 -1.565134334564208984e+01 4.500153362751007080e-01 5.069136619567871094e+00 1.655745506286621094e+00 2.287866353988647461e+00
2.069000000000000000e+03 2.780549049377441406e+01 5.970301628112792969e+00 -1.372320502996444702e-01 7.864479064941406250e+00 2.318174123764038086e+00 -1.399576544761657715e+00
2.070000000000000000e+03 2.847162818908691406e+01 1.005331325531005859e+01 -2.898589894175529480e-02 7.203887939453125000e+00 2.152470588684082031e+00 -9.882030487060546875e-01
2.071000000000000000e+03 2.381195259094238281e+01 -1.975260925292968750e+01 -2.128451764583587646e-01 5.603237152099609375e+00 1.617117643356323242e+00 1.677344441413879395e+00
2.072000000000000000e+03 2.316737937927246094e+01 -1.488068771362304688e+01 5.789225697517395020e-01 5.216474533081054688e+00 1.738619089126586914e+00 2.425932884216308594e+00
2.073000000000000000e+03 2.239448928833007812e+01 -1.461336421966552734e+01 7.637186050415039062e-01 4.426963329315185547e+00 1.557204604148864746e+00 2.368712663650512695e+00
2.074000000000000000e+03 2.215975189208984375e+01 1.553838920593261719e+01 3.400748670101165771e-01 5.385375022888183594e+00 1.717634916305541992e+00 -9.886819720268249512e-01
2.075000000000000000e+03 7.017003631591796875e+01 4.392127513885498047e+00 1.003218144178390503e-01 7.528794288635253906e+00 2.288734912872314453e+00 2.734256982803344727e-01
2.076000000000000000e+03 6.799071502685546875e+01 1.348717212677001953e+00 1.798596680164337158e-01 7.504358291625976562e+00 2.305265426635742188e+00 2.484612315893173218e-01
2.077000000000000000e+03 7.008557891845703125e+01 -2.477004528045654297e+00 1.434922814369201660e-01 7.430572986602783203e+00 2.272219419479370117e+00 1.189543977379798889e-01
2.078000000000000000e+03 7.015019226074218750e+01 -1.211030364036560059e+00 1.367037296295166016e-01 7.440437316894531250e+00 2.273142337799072266e+00 1.483037620782852173e-01
2.079000000000000000e+03 6.867382812500000000e+01 -2.138783216476440430e+00 1.814440041780471802e-01 7.454954624176025391e+00 2.290919542312622070e+00 1.399728655815124512e-01
2.080000000000000000e+03 6.873104858398437500e+01 -4.889534950256347656e+00 1.901078969240188599e-01 7.437759399414062500e+00 2.288360118865966797e+00 6.076677888631820679e-02
2.081000000000000000e+03 6.706417083740234375e+01 -1.204695987701416016e+01 1.999205350875854492e-01 7.481478691101074219e+00 2.304419755935668945e+00 -1.568147391080856323e-01
2.082000000000000000e+03 2.587493515014648438e+01 1.327348041534423828e+01 1.727307289838790894e-01 6.267345905303955078e+00 1.932023048400878906e+00 -1.005823493003845215e+00
2.083000000000000000e+03 6.721279907226562500e+01 -1.732965087890625000e+01 1.169376224279403687e-01 7.547897338867187500e+00 2.299450397491455078e+00 -2.672490477561950684e-01
2.084000000000000000e+03 6.723120880126953125e+01 -1.883137702941894531e+01 9.032376855611801147e-02 7.572076797485351562e+00 2.298720121383666992e+00 -2.873735427856445312e-01
2.085000000000000000e+03 1.101739406585693359e+01 -2.761627960205078125e+01 1.314415335655212402e-01 1.166884660720825195e+00 3.894978761672973633e-01 3.544352948665618896e-01
2.086000000000000000e+03 2.260064888000488281e+01 -2.300454902648925781e+01 -3.127601146697998047e-01 4.903458595275878906e+00 1.377209544181823730e+00 1.334746122360229492e+00
2.087000000000000000e+03 2.697887229919433594e+01 1.271075725555419922e+01 6.974008679389953613e-02 6.588816165924072266e+00 1.997566938400268555e+00 -9.594895243644714355e-01
2.088000000000000000e+03 6.452594757080078125e+01 2.414230728149414062e+01 -1.385223567485809326e-01 7.914067745208740234e+00 2.332663536071777344e+00 4.193882346153259277e-01
2.089000000000000000e+03 6.674930572509765625e+01 -2.727567672729492188e+01 -6.689526885747909546e-02 7.727149963378906250e+00 2.298076391220092773e+00 -3.058296442031860352e-01
2.090000000000000000e+03 1.863276100158691406e+01 -2.688941383361816406e+01 -1.700886338949203491e-01 3.346746206283569336e+00 9.529973268508911133e-01 8.907456994056701660e-01
2.091000000000000000e+03 2.210428237915039062e+01 -2.488987159729003906e+01 -3.574879467487335205e-01 4.698483943939208984e+00 1.302298784255981445e+00 1.161624312400817871e+00
2.092000000000000000e+03 2.412719917297363281e+01 -2.115142440795898438e+01 -3.546697199344635010e-01 5.651290416717529297e+00 1.588986158370971680e+00 1.488334417343139648e+00
2.093000000000000000e+03 2.150262641906738281e+01 2.161278152465820312e+01 -2.345027327537536621e-01 4.958213806152343750e+00 1.417113304138183594e+00 -7.184101343154907227e-01
2.094000000000000000e+03 2.815050125122070312e+01 8.888466835021972656e+00 -3.766117244958877563e-02 7.359161376953125000e+00 2.196449995040893555e+00 -1.138157486915588379e+00
2.095000000000000000e+03 2.525179100036621094e+01 -1.044535160064697266e+01 1.664149284362792969e+00 8.729931831359863281e+00 3.118224382400512695e+00 4.004551410675048828e+00
2.096000000000000000e+03 2.811974716186523438e+01 -2.973122835159301758e+00 9.686630368232727051e-01 1.326764297485351562e+01 4.270891666412353516e+00 -1.445193737745285034e-01
2.097000000000000000e+03 3.014858627319335938e+01 -6.147358417510986328e+00 6.279036045074462891e+00 1.112964725494384766e+01 5.222604751586914062e+00 7.132563591003417969e-01
2.098000000000000000e+03 2.657475852966308594e+01 -3.519332647323608398e+00 6.722276806831359863e-01 1.330283927917480469e+01 4.192520141601562500e+00 -2.609147548675537109e+00
2.099000000000000000e+03 2.734115409851074219e+01 -3.545431852340698242e+00 8.916812539100646973e-01 1.418328189849853516e+01 4.522489070892333984e+00 -1.014054417610168457e+00
2.100000000000000000e+03 2.702170562744140625e+01 -2.880217075347900391e+00 4.235791862010955811e-01 1.278800678253173828e+01 3.963475942611694336e+00 -1.790725231170654297e+00
2.101000000000000000e+03 2.657846260070800781e+01 -1.083989334106445312e+01 7.660831212997436523e-01 1.155860519409179688e+01 3.697406530380249023e+00 2.463588476181030273e+00
2.102000000000000000e+03 2.495559692382812500e+01 4.897799193859100342e-01 6.529776006937026978e-02 7.479687690734863281e+00 2.263495683670043945e+00 -2.665105104446411133e+00
2.103000000000000000e+03 2.546640586853027344e+01 -1.094419860839843750e+01 1.256108403205871582e+00 9.082979202270507812e+00 3.101726293563842773e+00 3.573240041732788086e+00
2.104000000000000000e+03 2.986842536926269531e+01 -8.529670715332031250e+00 5.081558227539062500e+00 1.175631618499755859e+01 5.051362037658691406e+00 -1.476289510726928711e+00
2.105000000000000000e+03 3.022666168212890625e+01 -8.278365135192871094e+00 5.300436496734619141e+00 1.126709938049316406e+01 4.970261096954345703e+00 -1.281472086906433105e+00
2.106000000000000000e+03 2.891017913818359375e+01 -9.781311035156250000e+00 2.656779289245605469e+00 1.302110195159912109e+01 4.703364372253417969e+00 -1.084755539894104004e+00
2.107000000000000000e+03 2.522148895263671875e+01 -1.555348753929138184e+00 4.400193691253662109e-01 8.371263504028320312e+00 2.643384933471679688e+00 -3.197662115097045898e+00
2.108000000000000000e+03 2.455392837524414062e+01 1.808947771787643433e-01 1.985437721014022827e-01 7.075383663177490234e+00 2.182178258895874023e+00 -2.773653030395507812e+00
2.109000000000000000e+03 2.230908966064453125e+01 -1.296119117736816406e+01 1.256346225738525391e+00 3.862308502197265625e+00 1.535596370697021484e+00 2.485845804214477539e+00
2.110000000000000000e+03 2.880754661560058594e+01 6.800181388854980469e+00 -1.521994620561599731e-01 7.945631504058837891e+00 2.338029623031616211e+00 -1.115787982940673828e+00
2.111000000000000000e+03 2.399300956726074219e+01 -1.168356990814208984e+01 1.540264725685119629e+00 5.842420578002929688e+00 2.214805603027343750e+00 3.300630807876586914e+00
2.112000000000000000e+03 2.793244934082031250e+01 5.179401874542236328e+00 -1.801640093326568604e-01 8.123257637023925781e+00 2.382928133010864258e+00 -1.410603880882263184e+00
2.113000000000000000e+03 2.362638664245605469e+01 -1.665410232543945312e+01 1.535942852497100830e-01 5.651734828948974609e+00 1.741598725318908691e+00 2.120809555053710938e+00
2.114000000000000000e+03 2.466089248657226562e+01 -1.843546104431152344e+01 -2.056159228086471558e-01 6.216581821441650391e+00 1.803289771080017090e+00 1.767353892326354980e+00
2.115000000000000000e+03 2.375970840454101562e+01 -1.582986259460449219e+01 2.731533646583557129e-01 5.805759906768798828e+00 1.823673963546752930e+00 2.263960123062133789e+00
2.116000000000000000e+03 2.840557098388671875e+01 1.135093116760253906e+01 -2.133107744157314301e-02 6.999169826507568359e+00 2.093351602554321289e+00 -9.066974520683288574e-01
2.117000000000000000e+03 2.757368087768554688e+01 1.361208915710449219e+01 -1.535063143819570541e-03 6.596889495849609375e+00 1.978606224060058594e+00 -8.182331919670104980e-01
2.118000000000000000e+03 6.853038024902343750e+01 -8.628927230834960938e+00 1.859412938356399536e-01 7.439436435699462891e+00 2.287613391876220703e+00 -5.024631693959236145e-02
2.119000000000000000e+03 6.602964782714843750e+01 -8.796544075012207031e+00 2.650804519653320312e-01 7.468824386596679688e+00 2.320171356201171875e+00 -6.664709001779556274e-02
2.120000000000000000e+03 2.552907180786132812e+01 -2.067751884460449219e+01 -4.724513590335845947e-01 6.370409011840820312e+00 1.769387364387512207e+00 1.366778612136840820e+00
2.121000000000000000e+03 2.577372741699218750e+01 2.082427978515625000e+01 -3.379183709621429443e-01 5.791866779327392578e+00 1.636184573173522949e+00 -5.221230983734130859e-01
2.122000000000000000e+03 2.898621749877929688e+01 7.669014453887939453e+00 -1.184016913175582886e-01 7.793446540832519531e+00 2.302513599395751953e+00 -1.036541461944580078e+00
2.123000000000000000e+03 2.935168647766113281e+01 8.609915733337402344e+00 -1.047591045498847961e-01 7.655086994171142578e+00 2.265098333358764648e+00 -9.317160248756408691e-01
2.124000000000000000e+03 6.869946289062500000e+01 -3.540685653686523438e+00 1.861194670200347900e-01 7.445243358612060547e+00 2.289408922195434570e+00 1.000525951385498047e-01
2.125000000000000000e+03 6.733847808837890625e+01 -5.843967914581298828e+00 2.377192378044128418e-01 7.450756072998046875e+00 2.306542634963989258e+00 3.319216892123222351e-02
2.126000000000000000e+03 6.733522033691406250e+01 -2.018812149763107300e-01 2.145393192768096924e-01 7.490105628967285156e+00 2.311393499374389648e+00 2.122378200292587280e-01
2.127000000000000000e+03 6.845905303955078125e+01 -1.524245071411132812e+01 1.260271221399307251e-01 7.500136852264404297e+00 2.287849187850952148e+00 -2.140278220176696777e-01
2.128000000000000000e+03 6.577728271484375000e+01 -7.142105579376220703e+00 2.796067595481872559e-01 7.466303825378417969e+00 2.323773145675659180e+00 -7.771496195346117020e-03
2.129000000000000000e+03 6.822493743896484375e+01 -1.128677558898925781e+01 1.749020069837570190e-01 7.458288192749023438e+00 2.289957046508789062e+00 -1.236229985952377319e-01
2.130000000000000000e+03 6.842871093750000000e+01 4.102478027343750000e+00 1.398568004369735718e-01 7.542316436767578125e+00 2.304651975631713867e+00 3.013405203819274902e-01
2.131000000000000000e+03 6.382770156860351562e+01 2.199773216247558594e+01 -1.209419518709182739e-01 7.877914428710937500e+00 2.327091693878173828e+00 4.587983489036560059e-01
2.132000000000000000e+03 6.506687164306640625e+01 1.886734962463378906e+01 -6.163205578923225403e-02 7.841317176818847656e+00 2.333905458450317383e+00 4.749186933040618896e-01
2.133000000000000000e+03 6.591194152832031250e+01 -1.698598289489746094e+01 1.414916664361953735e-01 7.560945987701416016e+00 2.310731410980224609e+00 -2.820770740509033203e-01
2.134000000000000000e+03 6.799746704101562500e+01 5.993940830230712891e+00 1.245850324630737305e-01 7.583968162536621094e+00 2.312566041946411133e+00 3.484000563621520996e-01
2.135000000000000000e+03 2.462581825256347656e+01 -2.289956474304199219e+01 -4.988476336002349854e-01 5.753609180450439453e+00 1.576428413391113281e+00 1.259809732437133789e+00
2.136000000000000000e+03 2.500113868713378906e+01 -1.947476387023925781e+01 -3.381244838237762451e-01 6.273211479187011719e+00 1.780526041984558105e+00 1.582343935966491699e+00
2.137000000000000000e+03 2.365293502807617188e+01 1.884283828735351562e+01 -9.818951040506362915e-02 5.524887084960937500e+00 1.628009319305419922e+00 -6.934878826141357422e-01
2.138000000000000000e+03 2.393273353576660156e+01 2.645873069763183594e+01 -5.520821213722229004e-01 5.175837516784667969e+00 1.387126564979553223e+00 -4.555967152118682861e-01
2.139000000000000000e+03 6.656108093261718750e+01 -2.273409271240234375e+01 2.055472880601882935e-02 7.650009632110595703e+00 2.301169395446777344e+00 -3.299348354339599609e-01
2.140000000000000000e+03 6.236530303955078125e+01 -2.412569999694824219e+01 -1.806377246975898743e-02 7.734572410583496094e+00 2.314952611923217773e+00 -4.015070796012878418e-01
2.141000000000000000e+03 3.036757087707519531e+01 -7.717485427856445312e+00 5.826610088348388672e+00 1.092711925506591797e+01 5.026118755340576172e+00 -8.836707472801208496e-01
2.142000000000000000e+03 2.470394134521484375e+01 -1.060119724273681641e+01 1.953083157539367676e+00 7.098894119262695312e+00 2.715593099594116211e+00 3.951653718948364258e+00
2.143000000000000000e+03 2.940767478942871094e+01 -9.973078727722167969e+00 2.658162593841552734e+00 1.238580989837646484e+01 4.513191699981689453e+00 -1.209717154502868652e+00
2.144000000000000000e+03 2.923908042907714844e+01 -5.032799243927001953e+00 5.120504856109619141e+00 1.278969669342041016e+01 5.373060226440429688e+00 1.787740468978881836e+00
2.145000000000000000e+03 2.542698669433593750e+01 -2.010987520217895508e+00 5.262551307678222656e-01 9.019591331481933594e+00 2.863753795623779297e+00 -3.295721530914306641e+00
2.146000000000000000e+03 3.034347724914550781e+01 -4.826856613159179688e+00 4.626603603363037109e+00 1.134958171844482422e+01 4.792855739593505859e+00 1.464762091636657715e+00
2.147000000000000000e+03 2.814189338684082031e+01 -3.423402070999145508e+00 1.433727979660034180e+00 1.376161193847656250e+01 4.558601856231689453e+00 2.333925664424896240e-01
2.148000000000000000e+03 2.357115936279296875e+01 -1.107456207275390625e+01 2.036014795303344727e+00 4.665583133697509766e+00 2.010479450225830078e+00 3.245727300643920898e+00
2.149000000000000000e+03 2.453063392639160156e+01 -1.114400482177734375e+01 1.694715142250061035e+00 6.768652439117431641e+00 2.539010286331176758e+00 3.651184320449829102e+00
2.150000000000000000e+03 2.495102882385253906e+01 -2.300067901611328125e+00 9.063606858253479004e-01 7.933938026428222656e+00 2.652089595794677734e+00 -3.574865818023681641e+00
2.151000000000000000e+03 2.566084861755371094e+01 -2.404019355773925781e+00 5.568977594375610352e-01 9.736152648925781250e+00 3.087914943695068359e+00 -3.314588069915771484e+00
2.152000000000000000e+03 2.672144126892089844e+01 -2.812626600265502930e+00 3.759784400463104248e-01 1.227832412719726562e+01 3.796290636062622070e+00 -2.259447336196899414e+00
2.153000000000000000e+03 2.699833106994628906e+01 -3.197176933288574219e+00 5.394915342330932617e-01 1.323216724395751953e+01 4.131497859954833984e+00 -1.837561368942260742e+00
2.154000000000000000e+03 2.734353065490722656e+01 -3.168802261352539062e+00 6.522570848464965820e-01 1.346911811828613281e+01 4.236412525177001953e+00 -1.200664639472961426e+00
2.155000000000000000e+03 2.851537513732910156e+01 -3.838031291961669922e+00 2.285083055496215820e+00 1.377892780303955078e+01 4.819203376770019531e+00 9.574723839759826660e-01
2.156000000000000000e+03 2.503121948242187500e+01 -1.077542901039123535e+00 3.608286678791046143e-01 7.932285785675048828e+00 2.487934350967407227e+00 -3.047900438308715820e+00
2.157000000000000000e+03 2.550627326965332031e+01 7.395774126052856445e-01 -6.777613610029220581e-02 8.094360351562500000e+00 2.407975196838378906e+00 -2.506261110305786133e+00
2.158000000000000000e+03 2.773984909057617188e+01 -1.079815483093261719e+01 9.163624048233032227e-01 1.262373161315917969e+01 4.062028408050537109e+00 7.979021668434143066e-01
2.159000000000000000e+03 2.733534622192382812e+01 -1.082117748260498047e+01 7.980760931968688965e-01 1.244442367553710938e+01 3.972749948501586914e+00 1.389344215393066406e+00
2.160000000000000000e+03 2.857498741149902344e+01 -1.072182178497314453e+01 1.438402652740478516e+00 1.252876186370849609e+01 4.190149307250976562e+00 -2.385291159152984619e-01
2.161000000000000000e+03 2.317647743225097656e+01 -1.268063163757324219e+01 1.268314242362976074e+00 4.834754943847656250e+00 1.830920815467834473e+00 2.815464496612548828e+00
2.162000000000000000e+03 2.476850318908691406e+01 -1.679616123437881470e-01 2.290500253438949585e-01 7.393838882446289062e+00 2.286866664886474609e+00 -2.850826025009155273e+00
2.163000000000000000e+03 2.642262458801269531e+01 2.293407440185546875e+00 -2.257359474897384644e-01 8.354256629943847656e+00 2.438556194305419922e+00 -2.016177892684936523e+00
2.164000000000000000e+03 2.404072189331054688e+01 -1.105589103698730469e+01 1.934239149093627930e+00 5.677879333496093750e+00 2.283635616302490234e+00 3.526999473571777344e+00
2.165000000000000000e+03 2.293483734130859375e+01 -1.327527713775634766e+01 1.085224151611328125e+00 4.705193519592285156e+00 1.737125277519226074e+00 2.670144796371459961e+00
2.166000000000000000e+03 2.394003486633300781e+01 -1.507806873321533203e+01 3.883364498615264893e-01 5.981485366821289062e+00 1.910946607589721680e+00 2.416031837463378906e+00
2.167000000000000000e+03 2.772894096374511719e+01 3.028530359268188477e+00 -2.607984244823455811e-01 8.751713752746582031e+00 2.547274827957153320e+00 -1.520143866539001465e+00
2.168000000000000000e+03 2.442663002014160156e+01 -1.671086883544921875e+01 1.684691198170185089e-02 6.265570163726806641e+00 1.884725093841552734e+00 2.048463344573974609e+00
2.169000000000000000e+03 2.761739540100097656e+01 -2.103664779663085938e+01 -6.537558436393737793e-01 7.210414886474609375e+00 1.966997742652893066e+00 9.927867054939270020e-01
2.170000000000000000e+03 2.602145004272460938e+01 -1.899107551574707031e+01 -4.201892614364624023e-01 6.896913528442382812e+00 1.943017244338989258e+00 1.449566960334777832e+00
2.171000000000000000e+03 2.746807861328125000e+01 3.613239288330078125e+00 -2.428429126739501953e-01 8.437561035156250000e+00 2.458415269851684570e+00 -1.606349945068359375e+00
2.172000000000000000e+03 2.865186882019042969e+01 1.446723270416259766e+01 -9.284213185310363770e-02 6.711585044860839844e+00 1.985622882843017578e+00 -6.774028539657592773e-01
2.173000000000000000e+03 2.746264266967773438e+01 1.555672359466552734e+01 -6.287233531475067139e-02 6.430912017822265625e+00 1.910411953926086426e+00 -6.942831873893737793e-01
2.174000000000000000e+03 2.989561653137207031e+01 3.970331192016601562e+00 -1.765433102846145630e-01 8.958969116210937500e+00 2.634727716445922852e+00 -7.634053826332092285e-01
2.175000000000000000e+03 2.879507446289062500e+01 6.009453296661376953e+00 -1.721882522106170654e-01 8.138637542724609375e+00 2.389934778213500977e+00 -1.141273260116577148e+00
2.176000000000000000e+03 6.638458251953125000e+01 -4.934317588806152344e+00 2.575471699237823486e-01 7.466365814208984375e+00 2.317173957824707031e+00 6.641385704278945923e-02
2.177000000000000000e+03 6.880751037597656250e+01 -7.843916416168212891e-01 1.718133985996246338e-01 7.466555595397949219e+00 2.291510820388793945e+00 1.764542907476425171e-01
2.178000000000000000e+03 6.735754394531250000e+01 -3.388417005538940430e+00 2.267576903104782104e-01 7.460597515106201172e+00 2.306206464767456055e+00 1.055863574147224426e-01
2.179000000000000000e+03 7.046204376220703125e+01 -1.520067977905273438e+01 8.905899524688720703e-02 7.468313217163085938e+00 2.267211675643920898e+00 -1.856849342584609985e-01
2.180000000000000000e+03 6.660526275634765625e+01 4.049004554748535156e+00 1.786566525697708130e-01 7.556307315826416016e+00 2.320489168167114258e+00 3.309234082698822021e-01
2.181000000000000000e+03 7.101486206054687500e+01 7.771274089813232422e+00 6.107712164521217346e-02 7.595533370971679688e+00 2.296983242034912109e+00 3.072600066661834717e-01
2.182000000000000000e+03 6.905635833740234375e+01 9.442963600158691406e+00 6.648179143667221069e-02 7.651144504547119141e+00 2.315288066864013672e+00 3.726103007793426514e-01
2.183000000000000000e+03 6.730172729492187500e+01 -1.427596950531005859e+01 1.607198119163513184e-01 7.502607345581054688e+00 2.298998117446899414e+00 -2.086478471755981445e-01
2.184000000000000000e+03 6.596771240234375000e+01 -1.321657466888427734e+01 2.110388427972793579e-01 7.506032943725585938e+00 2.315121650695800781e+00 -1.966462731361389160e-01
2.185000000000000000e+03 2.971989059448242188e+01 6.017663002014160156e+00 -1.712573468685150146e-01 8.322936058044433594e+00 2.445503711700439453e+00 -8.818822503089904785e-01
2.186000000000000000e+03 3.040213775634765625e+01 8.061033248901367188e+00 -1.497185081243515015e-01 7.980395317077636719e+00 2.349203109741210938e+00 -7.176969647407531738e-01
2.187000000000000000e+03 2.606475448608398438e+01 1.653807449340820312e+01 -3.637859970331192017e-02 6.110052108764648438e+00 1.822102069854736328e+00 -7.131186723709106445e-01
2.188000000000000000e+03 6.833828735351562500e+01 -1.709170341491699219e+01 1.014584526419639587e-01 7.530945301055908203e+00 2.289721012115478516e+00 -2.470811158418655396e-01
2.189000000000000000e+03 2.631781578063964844e+01 -2.206936645507812500e+01 -6.096269488334655762e-01 6.544132709503173828e+00 1.780351758003234863e+00 1.133644580841064453e+00
2.190000000000000000e+03 6.578221893310546875e+01 1.160911941528320312e+01 6.580783426761627197e-02 7.704610824584960938e+00 2.331125497817993164e+00 4.643256366252899170e-01
2.191000000000000000e+03 6.571695709228515625e+01 9.693155288696289062e+00 1.012173518538475037e-01 7.666295528411865234e+00 2.330253839492797852e+00 4.475704431533813477e-01
2.192000000000000000e+03 1.170253944396972656e+01 -3.058246612548828125e+01 2.950655482709407806e-02 1.534733772277832031e+00 4.692720770835876465e-01 3.856814205646514893e-01
2.193000000000000000e+03 1.281855869293212891e+01 -2.860471725463867188e+01 8.058512955904006958e-02 1.643586516380310059e+00 5.172514915466308594e-01 4.747437536716461182e-01
2.194000000000000000e+03 6.208213806152343750e+01 1.728693580627441406e+01 -5.099117010831832886e-02 7.797707557678222656e+00 2.324014902114868164e+00 5.321939587593078613e-01
2.195000000000000000e+03 6.408552551269531250e+01 1.428456497192382812e+01 2.325779013335704803e-02 7.754232883453369141e+00 2.333247184753417969e+00 5.053244233131408691e-01
2.196000000000000000e+03 8.712879180908203125e+00 -2.785618209838867188e+01 1.263785511255264282e-01 7.343715429306030273e-01 2.582250237464904785e-01 1.901587545871734619e-01
2.197000000000000000e+03 6.524561309814453125e+01 -5.520325660705566406e+00 3.008456826210021973e-01 7.471946239471435547e+00 2.331837654113769531e+00 5.253803357481956482e-02
2.198000000000000000e+03 6.664097595214843750e+01 1.651589012145996094e+01 -1.234738994389772415e-02 7.801500797271728516e+00 2.336745977401733398e+00 4.588822424411773682e-01
2.199000000000000000e+03 6.691599273681640625e+01 1.817682647705078125e+01 -3.509294614195823669e-02 7.841313838958740234e+00 2.341866254806518555e+00 4.465438127517700195e-01
2.200000000000000000e+03 1.958252143859863281e+01 -2.827613449096679688e+01 -2.959944903850555420e-01 3.760372161865234375e+00 1.039313316345214844e+00 8.413205146789550781e-01
2.201000000000000000e+03 2.392690467834472656e+01 -2.910201072692871094e+01 -6.119906306266784668e-01 5.140723705291748047e+00 1.358619928359985352e+00 8.306537270545959473e-01
2.202000000000000000e+03 2.660126304626464844e+01 -1.124742221832275391e+01 6.602356433868408203e-01 1.114672183990478516e+01 3.542087078094482422e+00 2.376265525817871094e+00
2.203000000000000000e+03 2.760990905761718750e+01 -2.656955957412719727e+00 4.990511834621429443e-01 1.278191852569580078e+01 3.984290838241577148e+00 -9.868865013122558594e-01
2.204000000000000000e+03 2.959607887268066406e+01 -4.824005603790283203e+00 4.658192634582519531e+00 1.230721378326416016e+01 5.089622020721435547e+00 1.654857277870178223e+00
2.205000000000000000e+03 3.044932556152343750e+01 -6.431982517242431641e+00 6.193922996520996094e+00 1.075619983673095703e+01 5.085037231445312500e+00 3.619046807289123535e-01
2.206000000000000000e+03 3.056805038452148438e+01 -6.731901168823242188e+00 6.004405498504638672e+00 1.062125301361083984e+01 4.987697601318359375e+00 7.872075587511062622e-02
2.207000000000000000e+03 2.597841835021972656e+01 -1.134802436828613281e+01 7.748734951019287109e-01 1.001002025604248047e+01 3.235468149185180664e+00 2.961045742034912109e+00
2.208000000000000000e+03 2.943757820129394531e+01 -9.514703750610351562e+00 3.443466901779174805e+00 1.237907218933105469e+01 4.746761798858642578e+00 -1.427849531173706055e+00
2.209000000000000000e+03 3.021183967590332031e+01 -8.930385589599609375e+00 4.367691993713378906e+00 1.141388702392578125e+01 4.734473705291748047e+00 -1.469217896461486816e+00
2.210000000000000000e+03 2.626822471618652344e+01 -2.491226911544799805e+00 3.458526432514190674e-01 1.109830379486083984e+01 3.433246850967407227e+00 -2.806226491928100586e+00
2.211000000000000000e+03 3.018314170837402344e+01 -7.056155204772949219e+00 6.418480396270751953e+00 1.102048015594482422e+01 5.231688022613525391e+00 -2.706152200698852539e-01
2.212000000000000000e+03 3.085394477844238281e+01 -6.143929004669189453e+00 5.693134307861328125e+00 1.047838878631591797e+01 4.851457118988037109e+00 5.653879642486572266e-01
2.213000000000000000e+03 3.022918701171875000e+01 -7.384507179260253906e+00 6.210635185241699219e+00 1.098720169067382812e+01 5.159350872039794922e+00 -6.250705718994140625e-01
2.214000000000000000e+03 2.698641777038574219e+01 -1.131620979309082031e+01 5.953254103660583496e-01 1.147446727752685547e+01 3.620937585830688477e+00 1.884960532188415527e+00
2.215000000000000000e+03 2.353178405761718750e+01 -1.160161399841308594e+01 1.721660375595092773e+00 4.956682682037353516e+00 2.003502845764160156e+00 3.156301259994506836e+00
2.216000000000000000e+03 2.572176170349121094e+01 -1.137610721588134766e+01 9.160134196281433105e-01 9.193182945251464844e+00 3.032758951187133789e+00 3.189122676849365234e+00
2.217000000000000000e+03 2.487919998168945312e+01 -6.067366600036621094e-01 2.970822751522064209e-01 7.662129878997802734e+00 2.387763500213623047e+00 -2.925171136856079102e+00
2.218000000000000000e+03 2.338565063476562500e+01 -1.212916851043701172e+01 1.469367146492004395e+00 4.962261199951171875e+00 1.929488539695739746e+00 2.994923591613769531e+00
2.219000000000000000e+03 3.012602806091308594e+01 -9.585077285766601562e+00 3.516914844512939453e+00 1.158733844757080078e+01 4.531276226043701172e+00 -1.458751082420349121e+00
2.220000000000000000e+03 2.613550949096679688e+01 7.179428339004516602e-01 -1.667030304670333862e-01 8.716972351074218750e+00 2.565080881118774414e+00 -2.290680170059204102e+00
2.221000000000000000e+03 2.639895629882812500e+01 1.296599149703979492e+00 -2.098869532346725464e-01 8.684852600097656250e+00 2.542489767074584961e+00 -2.121205091476440430e+00
2.222000000000000000e+03 2.374966812133789062e+01 -1.288414955139160156e+01 1.067945718765258789e+00 5.682345867156982422e+00 2.025087594985961914e+00 2.909405231475830078e+00
2.223000000000000000e+03 2.569460105895996094e+01 -1.338775277137756348e+00 2.147591412067413330e-01 9.181395530700683594e+00 2.818846464157104492e+00 -2.907405376434326172e+00
2.224000000000000000e+03 2.696562004089355469e+01 9.231059551239013672e-01 -2.345481961965560913e-01 9.309140205383300781e+00 2.722377538681030273e+00 -1.892872929573059082e+00
2.225000000000000000e+03 2.801016807556152344e+01 2.494536161422729492e+00 -2.698611617088317871e-01 9.069265365600585938e+00 2.639821290969848633e+00 -1.404498577117919922e+00
2.226000000000000000e+03 2.905372810363769531e+01 3.962788343429565430e+00 -2.271358966827392578e-01 8.811056137084960938e+00 2.575176000595092773e+00 -1.051738500595092773e+00
2.227000000000000000e+03 2.735686492919921875e+01 1.331181526184082031e+00 -2.606958746910095215e-01 9.327436447143554688e+00 2.720021963119506836e+00 -1.679310560226440430e+00
2.228000000000000000e+03 2.706282997131347656e+01 2.703313589096069336e+00 -2.605957388877868652e-01 8.565636634826660156e+00 2.491512298583984375e+00 -1.777138352394104004e+00
2.229000000000000000e+03 2.338133811950683594e+01 -1.417461299896240234e+01 7.216247916221618652e-01 5.375615596771240234e+00 1.829172134399414062e+00 2.587742805480957031e+00
2.230000000000000000e+03 2.526942253112792969e+01 -1.737343025207519531e+01 -1.862590461969375610e-01 6.757857799530029297e+00 1.971479535102844238e+00 1.836526989936828613e+00
2.231000000000000000e+03 2.472974777221679688e+01 -1.525432777404785156e+01 1.815372109413146973e-01 6.741336822509765625e+00 2.076862335205078125e+00 2.278796195983886719e+00
2.232000000000000000e+03 2.886737823486328125e+01 5.278306484222412109e+00 -1.954106837511062622e-01 8.347175598144531250e+00 2.445529460906982422e+00 -1.127779841423034668e+00
2.233000000000000000e+03 2.808859443664550781e+01 4.476008415222167969e+00 -2.217607945203781128e-01 8.380925178527832031e+00 2.447749376296997070e+00 -1.380716323852539062e+00
2.234000000000000000e+03 6.717988586425781250e+01 -1.836540937423706055e+00 2.325485646724700928e-01 7.474424362182617188e+00 2.312091827392578125e+00 1.654927134513854980e-01
2.235000000000000000e+03 2.977266311645507812e+01 1.180756855010986328e+01 -1.100021302700042725e-01 7.198385715484619141e+00 2.126515150070190430e+00 -6.953119635581970215e-01
2.236000000000000000e+03 2.985964965820312500e+01 9.701332092285156250e+00 -1.204154491424560547e-01 7.544012069702148438e+00 2.227078914642333984e+00 -7.869307398796081543e-01
2.237000000000000000e+03 2.683149147033691406e+01 -1.835612678527832031e+01 -4.541835486888885498e-01 7.448129653930664062e+00 2.098183870315551758e+00 1.335124135017395020e+00
2.238000000000000000e+03 6.402333068847656250e+01 -6.043953895568847656e+00 3.534415364265441895e-01 7.477373600006103516e+00 2.349244594573974609e+00 3.333922475576400757e-02
2.239000000000000000e+03 6.575840759277343750e+01 -2.033269166946411133e+00 2.749466598033905029e-01 7.484567165374755859e+00 2.327854156494140625e+00 1.692596822977066040e-01
2.240000000000000000e+03 6.766206359863281250e+01 7.789883136749267578e+00 1.056002900004386902e-01 7.622664928436279297e+00 2.318479537963867188e+00 3.845064938068389893e-01
2.241000000000000000e+03 2.978177261352539062e+01 5.334797382354736328e+00 -1.834293305873870850e-01 8.504675865173339844e+00 2.496373891830444336e+00 -8.590252995491027832e-01
2.242000000000000000e+03 3.039323043823242188e+01 6.381011009216308594e+00 -1.637243777513504028e-01 8.361974716186523438e+00 2.459475278854370117e+00 -7.128453850746154785e-01
2.243000000000000000e+03 3.010050964355468750e+01 1.552159118652343750e+01 -2.202784866094589233e-01 6.861294269561767578e+00 1.992304682731628418e+00 -4.696229994297027588e-01
2.244000000000000000e+03 6.486251068115234375e+01 4.173653602600097656e+00 2.213654369115829468e-01 7.568778991699218750e+00 2.337043285369873047e+00 3.645624816417694092e-01
2.245000000000000000e+03 6.592421722412109375e+01 7.809973716735839844e+00 1.330045312643051147e-01 7.628442287445068359e+00 2.328433990478515625e+00 4.186074137687683105e-01
2.246000000000000000e+03 2.939635658264160156e+01 1.317426013946533203e+01 -1.126825883984565735e-01 6.953277587890625000e+00 2.052178382873535156e+00 -6.904749274253845215e-01
2.247000000000000000e+03 2.934372711181640625e+01 -1.878318023681640625e+01 -5.640451908111572266e-01 8.282837867736816406e+00 2.315637826919555664e+00 6.435977220535278320e-01
2.248000000000000000e+03 2.953812980651855469e+01 1.833622932434082031e+01 -3.176012337207794189e-01 6.512416839599609375e+00 1.858444690704345703e+00 -3.920328915119171143e-01
2.249000000000000000e+03 2.753598022460937500e+01 -2.360397338867187500e+01 -7.301487922668457031e-01 6.772735595703125000e+00 1.812776088714599609e+00 8.981395363807678223e-01
2.250000000000000000e+03 2.771086120605468750e+01 -3.077795028686523438e+00 7.999975085258483887e-01 1.344412231445312500e+01 4.273236274719238281e+00 -6.266122460365295410e-01
2.251000000000000000e+03 2.499711990356445312e+01 -1.129818725585937500e+01 1.340914487838745117e+00 7.943744182586669922e+00 2.785397529602050781e+00 3.545782566070556641e+00
2.252000000000000000e+03 2.648991012573242188e+01 -1.160184192657470703e+01 5.613409876823425293e-01 1.058705902099609375e+01 3.344520092010498047e+00 2.444982290267944336e+00
2.253000000000000000e+03 2.892852210998535156e+01 -3.895191907882690430e+00 2.742014169692993164e+00 1.325235462188720703e+01 4.798310756683349609e+00 1.278883934020996094e+00
2.254000000000000000e+03 2.946323966979980469e+01 -4.484737873077392578e+00 4.076635360717773438e+00 1.254037952423095703e+01 4.985104560852050781e+00 1.669120192527770996e+00
2.255000000000000000e+03 2.905872344970703125e+01 -3.370638608932495117e+00 2.097897529602050781e+00 1.284615230560302734e+01 4.483214855194091797e+00 1.000609636306762695e+00
2.256000000000000000e+03 3.053584671020507812e+01 -5.827788829803466797e+00 5.653453826904296875e+00 1.080267047882080078e+01 4.936837196350097656e+00 8.679720163345336914e-01
2.257000000000000000e+03 2.998339080810546875e+01 -4.690249919891357422e+00 4.404551506042480469e+00 1.175651741027832031e+01 4.848320960998535156e+00 1.544467091560363770e+00
2.258000000000000000e+03 2.733339691162109375e+01 -2.327894687652587891e+00 2.765408456325531006e-01 1.218123912811279297e+01 3.737334012985229492e+00 -1.474801540374755859e+00
2.259000000000000000e+03 2.877251243591308594e+01 -1.023920536041259766e+01 2.002105474472045898e+00 1.283645439147949219e+01 4.451567649841308594e+00 -7.118383049964904785e-01
2.260000000000000000e+03 2.785090065002441406e+01 -1.123007011413574219e+01 7.423639297485351562e-01 1.210960769653320312e+01 3.855591297149658203e+00 7.867592573165893555e-01
2.261000000000000000e+03 2.510052108764648438e+01 -1.081758689880371094e+01 1.520114660263061523e+00 8.309635162353515625e+00 2.948925018310546875e+00 3.805993795394897461e+00
2.262000000000000000e+03 2.858021163940429688e+01 -3.380661010742187500e+00 1.750791788101196289e+00 1.337186622619628906e+01 4.536797523498535156e+00 6.682693958282470703e-01
2.263000000000000000e+03 2.389312744140625000e+01 -1.228062438964843750e+01 1.274099230766296387e+00 5.782512664794921875e+00 2.116983413696289062e+00 3.082824230194091797e+00
2.264000000000000000e+03 2.447456932067871094e+01 -1.177295112609863281e+01 1.326277852058410645e+00 6.708972454071044922e+00 2.410575151443481445e+00 3.332987070083618164e+00
2.265000000000000000e+03 2.601052474975585938e+01 -6.731187701225280762e-01 9.612722322344779968e-03 9.271275520324707031e+00 2.784266471862792969e+00 -2.578264951705932617e+00
2.266000000000000000e+03 2.587520790100097656e+01 -1.768186688423156738e+00 2.627233266830444336e-01 9.741310119628906250e+00 3.001210212707519531e+00 -2.917289733886718750e+00
2.267000000000000000e+03 2.994835281372070312e+01 -1.017167472839355469e+01 2.679144859313964844e+00 1.171526527404785156e+01 4.318323135375976562e+00 -1.280140519142150879e+00
2.268000000000000000e+03 2.933057212829589844e+01 -1.048627185821533203e+01 2.069505929946899414e+00 1.224983692169189453e+01 4.295802593231201172e+00 -9.324858784675598145e-01
2.269000000000000000e+03 2.552291679382324219e+01 -8.847824931144714355e-01 1.645316183567047119e-01 8.684073448181152344e+00 2.654581546783447266e+00 -2.881499290466308594e+00
2.270000000000000000e+03 2.670459938049316406e+01 4.656677842140197754e-01 -1.956746429204940796e-01 9.314712524414062500e+00 2.735711336135864258e+00 -2.010581731796264648e+00
2.271000000000000000e+03 2.822891616821289062e+01 1.233100771903991699e+00 -2.160728126764297485e-01 9.779429435729980469e+00 2.869006872177124023e+00 -1.226153016090393066e+00
2.272000000000000000e+03 2.926344871520996094e+01 2.368153333663940430e+00 -1.836822330951690674e-01 9.488073348999023438e+00 2.791317224502563477e+00 -8.646172881126403809e-01
2.273000000000000000e+03 2.743883514404296875e+01 2.173370838165283203e+00 -2.738422751426696777e-01 8.965653419494628906e+00 2.607543230056762695e+00 -1.639199733734130859e+00
2.274000000000000000e+03 2.741777420043945312e+01 5.863062143325805664e-01 -2.226843237876892090e-01 9.773221015930175781e+00 2.865161180496215820e+00 -1.628058314323425293e+00
2.275000000000000000e+03 2.357564163208007812e+01 -1.351346874237060547e+01 8.856430649757385254e-01 5.521621704101562500e+00 1.922179341316223145e+00 2.732436418533325195e+00
2.276000000000000000e+03 2.496571159362792969e+01 -1.246784496307373047e+01 8.445042967796325684e-01 7.529834270477294922e+00 2.512301683425903320e+00 3.026386022567749023e+00
2.277000000000000000e+03 2.410507392883300781e+01 -1.437013721466064453e+01 5.111481547355651855e-01 6.165810108184814453e+00 2.003087520599365234e+00 2.547789335250854492e+00
2.278000000000000000e+03 3.022371673583984375e+01 3.110564231872558594e+00 -1.148797497153282166e-01 9.282869338989257812e+00 2.750396966934204102e+00 -5.899896025657653809e-01
2.279000000000000000e+03 2.985161209106445312e+01 4.651191234588623047e+00 -1.823601871728897095e-01 8.763266563415527344e+00 2.574271917343139648e+00 -8.034732341766357422e-01
2.280000000000000000e+03 2.825137329101562500e+01 3.840689897537231445e+00 -2.409701943397521973e-01 8.646424293518066406e+00 2.521636247634887695e+00 -1.331110239028930664e+00
2.281000000000000000e+03 2.859570121765136719e+01 2.733233690261840820e+00 -2.417224645614624023e-01 9.173563957214355469e+00 2.679552555084228516e+00 -1.173709988594055176e+00
2.282000000000000000e+03 2.625197029113769531e+01 -1.773438453674316406e+01 -3.596534430980682373e-01 7.300027847290039062e+00 2.082112312316894531e+00 1.527412176132202148e+00
2.283000000000000000e+03 2.554669952392578125e+01 -1.813803100585937500e+01 -3.055264949798583984e-01 6.818824291229248047e+00 1.953989267349243164e+00 1.658364892005920410e+00
2.284000000000000000e+03 2.612775993347167969e+01 -1.605200767517089844e+01 -1.773942410945892334e-01 7.699763774871826172e+00 2.256710767745971680e+00 1.761106491088867188e+00
2.285000000000000000e+03 2.512365341186523438e+01 -1.670427131652832031e+01 -9.659022092819213867e-02 6.753783226013183594e+00 1.997157931327819824e+00 1.938707113265991211e+00
2.286000000000000000e+03 3.169708633422851562e+01 6.843251705169677734e+00 -1.407741010189056396e-01 8.393752098083496094e+00 2.475893259048461914e+00 -4.386569857597351074e-01
2.287000000000000000e+03 2.991089248657226562e+01 7.392300128936767578e+00 -1.587444245815277100e-01 8.012162208557128906e+00 2.356025218963623047e+00 -8.763079047203063965e-01
2.288000000000000000e+03 2.780491065979003906e+01 1.906527709960937500e+01 -2.955473065376281738e-01 6.214576721191406250e+00 1.775708794593811035e+00 -4.700644612312316895e-01
2.289000000000000000e+03 6.454466247558593750e+01 -7.411761760711669922e+00 3.264946341514587402e-01 7.477235317230224609e+00 2.341119050979614258e+00 -1.921796426177024841e-02
2.290000000000000000e+03 6.381880950927734375e+01 9.818172454833984375e+00 1.227119266986846924e-01 7.671484470367431641e+00 2.338258981704711914e+00 4.859761893749237061e-01
2.291000000000000000e+03 6.626747131347656250e+01 5.949382305145263672e+00 1.564936786890029907e-01 7.592854976654052734e+00 2.324804544448852539e+00 3.791549503803253174e-01
2.292000000000000000e+03 2.484728050231933594e+01 1.781056976318359375e+01 -5.820474028587341309e-02 5.793579101562500000e+00 1.720612287521362305e+00 -7.013095617294311523e-01
2.293000000000000000e+03 2.738392448425292969e+01 -1.761908340454101562e+01 -4.452520906925201416e-01 7.932974338531494141e+00 2.246316671371459961e+00 1.232028365135192871e+00
2.294000000000000000e+03 6.748850250244140625e+01 1.494210338592529297e+01 6.998072378337383270e-03 7.776959896087646484e+00 2.335187435150146484e+00 4.430261850357055664e-01
2.295000000000000000e+03 6.377773284912109375e+01 2.587509393692016602e+00 2.789938747882843018e-01 7.552807331085205078e+00 2.349540472030639648e+00 3.409413993358612061e-01
2.296000000000000000e+03 6.455811309814453125e+01 1.563832879066467285e+00 2.737864553928375244e-01 7.532555103302001953e+00 2.341902494430541992e+00 2.973149418830871582e-01
2.297000000000000000e+03 2.279487037658691406e+01 1.774866294860839844e+01 6.383681297302246094e-02 5.450640678405761719e+00 1.654343366622924805e+00 -7.980218529701232910e-01
2.298000000000000000e+03 2.881452178955078125e+01 -2.217077255249023438e+01 -7.314574718475341797e-01 7.384589672088623047e+00 1.995939612388610840e+00 7.443135380744934082e-01
2.299000000000000000e+03 3.494207763671875000e+01 8.436493873596191406e+00 -5.365090817213058472e-02 8.202978134155273438e+00 2.444797992706298828e+00 6.061717867851257324e-02
2.300000000000000000e+03 2.519836807250976562e+01 -2.780194854736328125e+01 -6.821855902671813965e-01 5.662385463714599609e+00 1.494059920310974121e+00 8.469458222389221191e-01
2.301000000000000000e+03 3.126759910583496094e+01 -5.783391475677490234e+00 5.114716529846191406e+00 1.024147987365722656e+01 4.606859207153320312e+00 7.459958195686340332e-01
2.302000000000000000e+03 2.540748977661132812e+01 -1.137288856506347656e+01 1.068020343780517578e+00 8.805572509765625000e+00 2.962077856063842773e+00 3.374960184097290039e+00
2.303000000000000000e+03 2.802786827087402344e+01 -2.489741086959838867e+00 5.927768349647521973e-01 1.266902351379394531e+01 3.978540182113647461e+00 -5.496551990509033203e-01
2.304000000000000000e+03 3.091079711914062500e+01 -5.472227096557617188e+00 5.124514579772949219e+00 1.057497692108154297e+01 4.709847450256347656e+00 1.001818060874938965e+00
2.305000000000000000e+03 2.970719909667968750e+01 -3.819565534591674805e+00 3.035537719726562500e+00 1.225540542602539062e+01 4.587283134460449219e+00 1.424944281578063965e+00
2.306000000000000000e+03 3.050119209289550781e+01 -7.036305427551269531e+00 6.051032066345214844e+00 1.067301940917968750e+01 5.017215728759765625e+00 -2.435604929924011230e-01
2.307000000000000000e+03 2.815999984741210938e+01 -1.077202606201171875e+01 1.146012425422668457e+00 1.267198753356933594e+01 4.145400047302246094e+00 2.168591916561126709e-01
2.308000000000000000e+03 2.741858863830566406e+01 -1.130593204498291016e+01 6.071877479553222656e-01 1.181460094451904297e+01 3.726536750793457031e+00 1.349863886833190918e+00
2.309000000000000000e+03 3.058427810668945312e+01 -8.684530258178710938e+00 4.597710132598876953e+00 1.100005149841308594e+01 4.679328441619873047e+00 -1.343553781509399414e+00
2.310000000000000000e+03 3.157648658752441406e+01 -6.192539691925048828e+00 5.124308109283447266e+00 9.968786239624023438e+00 4.527928352355957031e+00 4.258697628974914551e-01
2.311000000000000000e+03 2.687923240661621094e+01 -1.838742256164550781e+00 9.683019667863845825e-02 1.125228214263916016e+01 3.404733896255493164e+00 -2.031936168670654297e+00
2.312000000000000000e+03 2.729565620422363281e+01 -2.837643861770629883e+00 4.577397108078002930e-01 1.289159011840820312e+01 4.004798889160156250e+00 -1.444688200950622559e+00
2.313000000000000000e+03 3.053199768066406250e+01 -7.290020942687988281e+00 5.979291915893554688e+00 1.069029808044433594e+01 5.000876903533935547e+00 -4.880598783493041992e-01
2.314000000000000000e+03 3.094180297851562500e+01 -7.332059383392333984e+00 5.594751358032226562e+00 1.040165424346923828e+01 4.798921585083007812e+00 -4.355391860008239746e-01
2.315000000000000000e+03 3.068177032470703125e+01 -7.542642116546630859e+00 5.706397056579589844e+00 1.061697959899902344e+01 4.897013187408447266e+00 -6.648360490798950195e-01
2.316000000000000000e+03 2.606671142578125000e+01 -2.150580167770385742e+00 3.215827643871307373e-01 1.034503841400146484e+01 3.199986457824707031e+00 -2.909191608428955078e+00
2.317000000000000000e+03 2.808501243591308594e+01 5.527716279029846191e-01 -1.667181104421615601e-01 1.007760429382324219e+01 2.973265886306762695e+00 -1.257610082626342773e+00
2.318000000000000000e+03 2.646602439880371094e+01 -1.962866187095642090e+00 1.485842913389205933e-01 1.085969924926757812e+01 3.302485227584838867e+00 -2.488151788711547852e+00
2.319000000000000000e+03 3.042986106872558594e+01 -1.010993385314941406e+01 2.893494129180908203e+00 1.126747322082519531e+01 4.248290061950683594e+00 -1.346890687942504883e+00
2.320000000000000000e+03 3.129725456237792969e+01 -9.524221420288085938e+00 3.598351001739501953e+00 1.049872875213623047e+01 4.229123592376708984e+00 -1.344175219535827637e+00
2.321000000000000000e+03 2.833324813842773438e+01 2.006278038024902344e+00 -2.551186084747314453e-01 9.399641990661621094e+00 2.743356943130493164e+00 -1.249381780624389648e+00
2.322000000000000000e+03 2.995187950134277344e+01 -1.055434513092041016e+01 2.264996290206909180e+00 1.164027404785156250e+01 4.171581268310546875e+00 -1.126924514770507812e+00
2.323000000000000000e+03 2.918663787841796875e+01 2.853320598602294922e+00 -1.995582431554794312e-01 9.300595283508300781e+00 2.730311155319213867e+00 -9.125425219535827637e-01
2.324000000000000000e+03 2.879350662231445312e+01 2.275264263153076172e+00 -2.323479205369949341e-01 9.435955047607421875e+00 2.761081933975219727e+00 -1.047748804092407227e+00
2.325000000000000000e+03 2.718010330200195312e+01 2.097153514623641968e-01 -2.021431475877761841e-01 9.836843490600585938e+00 2.890410184860229492e+00 -1.812335491180419922e+00
2.326000000000000000e+03 2.974494361877441406e+01 3.380578041076660156e+00 -1.675023138523101807e-01 9.155308723449707031e+00 2.696341991424560547e+00 -7.527806758880615234e-01
2.327000000000000000e+03 2.872363662719726562e+01 1.563647031784057617e+00 -1.937663108110427856e-01 9.749238967895507812e+00 2.866641759872436523e+00 -1.001182675361633301e+00
2.328000000000000000e+03 2.984985351562500000e+01 2.323071956634521484e+00 -1.002317667007446289e-01 9.578340530395507812e+00 2.843432426452636719e+00 -6.061514019966125488e-01
2.329000000000000000e+03 2.546283149719238281e+01 -1.557470893859863281e+01 -2.524536335840821266e-03 7.291161537170410156e+00 2.186591148376464844e+00 2.086145162582397461e+00
2.330000000000000000e+03 2.588711738586425781e+01 -1.512568283081054688e+01 -6.025493144989013672e-03 7.729810237884521484e+00 2.317135572433471680e+00 2.023555994033813477e+00
2.331000000000000000e+03 3.064708328247070312e+01 3.658773183822631836e+00 -9.913595020771026611e-02 9.124540328979492188e+00 2.707621335983276367e+00 -5.070474743843078613e-01
2.332000000000000000e+03 2.688416099548339844e+01 -1.646571159362792969e+01 -2.938301563262939453e-01 8.031291961669921875e+00 2.321238756179809570e+00 1.480863332748413086e+00
2.333000000000000000e+03 2.824390411376953125e+01 -1.818349266052246094e+01 -5.186808705329895020e-01 8.109409332275390625e+00 2.277218580245971680e+00 9.587391018867492676e-01
2.334000000000000000e+03 3.054205703735351562e+01 5.035620212554931641e+00 -1.562135815620422363e-01 8.719985961914062500e+00 2.569131851196289062e+00 -6.392461657524108887e-01
2.335000000000000000e+03 3.248810958862304688e+01 7.949755668640136719e+00 -1.290103346109390259e-01 8.224941253662109375e+00 2.428779363632202148e+00 -3.032851815223693848e-01
2.336000000000000000e+03 2.961435127258300781e+01 -1.769503021240234375e+01 -4.528324007987976074e-01 8.661169052124023438e+00 2.462500810623168945e+00 5.206894874572753906e-01
2.337000000000000000e+03 2.862093544006347656e+01 -1.992996215820312500e+01 -6.310026645660400391e-01 7.785940647125244141e+00 2.146481513977050781e+00 8.181039690971374512e-01
2.338000000000000000e+03 3.088887405395507812e+01 2.268490791320800781e+01 -5.522561669349670410e-01 6.456480503082275391e+00 1.771267294883728027e+00 -2.010877132415771484e-01
2.339000000000000000e+03 2.799462890625000000e+01 2.101685333251953125e+01 -4.153764843940734863e-01 6.139462947845458984e+00 1.717225909233093262e+00 -3.991438150405883789e-01
2.340000000000000000e+03 3.097405624389648438e+01 1.379418849945068359e+01 -2.085726261138916016e-01 7.154113292694091797e+00 2.083662271499633789e+00 -4.495038986206054688e-01
2.341000000000000000e+03 3.056727409362792969e+01 1.083569240570068359e+01 -1.390335708856582642e-01 7.476931571960449219e+00 2.201369524002075195e+00 -6.306737065315246582e-01
2.342000000000000000e+03 6.182880783081054688e+01 9.726571083068847656e+00 1.557342857122421265e-01 7.671608924865722656e+00 2.348202943801879883e+00 5.171898603439331055e-01
2.343000000000000000e+03 6.410738372802734375e+01 7.784423351287841797e+00 1.645622849464416504e-01 7.633753776550292969e+00 2.339494705200195312e+00 4.501432776451110840e-01
2.344000000000000000e+03 6.480198669433593750e+01 -8.902854919433593750e+00 3.005816936492919922e-01 7.479956626892089844e+00 2.334161520004272461e+00 -7.352551072835922241e-02
2.345000000000000000e+03 6.727003479003906250e+01 -8.651653289794921875e+00 2.277791202068328857e-01 7.455421924591064453e+00 2.304960250854492188e+00 -5.774760246276855469e-02
2.346000000000000000e+03 6.333571624755859375e+01 -1.012993621826171875e+01 3.373132944107055664e-01 7.501139640808105469e+00 2.351535797119140625e+00 -1.288993060588836670e-01
2.347000000000000000e+03 6.364170074462890625e+01 6.888080239295959473e-01 3.133538663387298584e-01 7.526130676269531250e+00 2.351845264434814453e+00 2.819665074348449707e-01
2.348000000000000000e+03 6.479164123535156250e+01 -6.099246740341186523e-01 2.948030233383178711e-01 7.502063751220703125e+00 2.339060068130493164e+00 2.228567898273468018e-01
2.349000000000000000e+03 6.329153060913085938e+01 3.987235546112060547e+00 2.663566768169403076e-01 7.573559284210205078e+00 2.351974725723266602e+00 3.827001154422760010e-01
2.350000000000000000e+03 6.513553619384765625e+01 -1.477409362792968750e+01 2.065030038356781006e-01 7.535117626190185547e+00 2.322486162185668945e+00 -2.482465058565139771e-01
2.351000000000000000e+03 6.289563751220703125e+01 -1.578121757507324219e+01 2.356657534837722778e-01 7.573690414428710938e+00 2.342806816101074219e+00 -3.062622845172882080e-01
2.352000000000000000e+03 6.217327117919921875e+01 -1.771249961853027344e+01 1.893743723630905151e-01 7.618101596832275391e+00 2.342242717742919922e+00 -3.586944043636322021e-01
2.353000000000000000e+03 2.235077667236328125e+01 1.674377059936523438e+01 2.059885263442993164e-01 5.391942024230957031e+00 1.679379105567932129e+00 -8.974011540412902832e-01
2.354000000000000000e+03 6.452289581298828125e+01 1.662385559082031250e+01 -2.103061042726039886e-02 7.795946598052978516e+00 2.332474708557128906e+00 4.962037503719329834e-01
2.355000000000000000e+03 6.275955963134765625e+01 5.673616886138916016e+00 2.392817884683609009e-01 7.602985858917236328e+00 2.352680444717407227e+00 4.343600571155548096e-01
2.356000000000000000e+03 2.908743476867675781e+01 -2.651782417297363281e+01 -8.646587133407592773e-01 6.789598941802978516e+00 1.777482151985168457e+00 5.920321941375732422e-01
2.357000000000000000e+03 2.712343215942382812e+01 -2.620597600936889648e+00 3.370594978332519531e-01 1.251750659942626953e+01 3.856369972229003906e+00 -1.696461915969848633e+00
2.358000000000000000e+03 2.497216987609863281e+01 -1.186007690429687500e+01 1.077410221099853516e+00 7.686257839202880859e+00 2.629100322723388672e+00 3.279236078262329102e+00
2.359000000000000000e+03 2.441921234130859375e+01 -1.239125537872314453e+01 1.064870476722717285e+00 6.656423568725585938e+00 2.316388130187988281e+00 3.109262704849243164e+00
2.360000000000000000e+03 2.547216033935546875e+01 -1.188806247711181641e+01 8.548094034194946289e-01 8.672869682312011719e+00 2.858303546905517578e+00 3.068188190460205078e+00
2.361000000000000000e+03 3.135397338867187500e+01 -8.789824485778808594e+00 4.297012805938720703e+00 1.033700656890869141e+01 4.390205860137939453e+00 -1.200105786323547363e+00
2.362000000000000000e+03 2.689379310607910156e+01 -1.178168869018554688e+01 4.465298354625701904e-01 1.081750774383544922e+01 3.379211425781250000e+00 1.951229691505432129e+00
2.363000000000000000e+03 3.060349464416503906e+01 -5.185528278350830078e+00 4.943759441375732422e+00 1.098420143127441406e+01 4.778388023376464844e+00 1.254273176193237305e+00
2.364000000000000000e+03 2.630705451965332031e+01 -1.578081846237182617e+00 1.193220466375350952e-01 1.028554534912109375e+01 3.121460199356079102e+00 -2.552588224411010742e+00
2.365000000000000000e+03 2.872806930541992188e+01 -1.114681243896484375e+01 1.168157815933227539e+00 1.210229969024658203e+01 3.981137275695800781e+00 -1.461263447999954224e-01
2.366000000000000000e+03 3.106268310546875000e+01 -5.035936355590820312e+00 4.608020782470703125e+00 1.059010124206542969e+01 4.559436321258544922e+00 1.178698301315307617e+00
2.367000000000000000e+03 2.835848236083984375e+01 1.895571053028106689e-01 -9.807644784450531006e-02 1.045382595062255859e+01 3.106724739074707031e+00 -1.013722538948059082e+00
2.368000000000000000e+03 2.615437316894531250e+01 -1.151653409004211426e+00 6.691844761371612549e-02 9.758674621582031250e+00 2.947677850723266602e+00 -2.582128286361694336e+00
2.369000000000000000e+03 2.661045646667480469e+01 -2.301860094070434570e+00 2.351877838373184204e-01 1.139553165435791016e+01 3.489215850830078125e+00 -2.395348072052001953e+00
2.370000000000000000e+03 2.490009689331054688e+01 -1.380149841308593750e+01 4.519460499286651611e-01 7.184588432312011719e+00 2.290960311889648438e+00 2.599549055099487305e+00
2.371000000000000000e+03 2.553380584716796875e+01 -1.250142574310302734e+01 6.080530285835266113e-01 8.472310066223144531e+00 2.724108934402465820e+00 2.821204662322998047e+00
2.372000000000000000e+03 2.759000968933105469e+01 -1.174136638641357422e+01 4.786133468151092529e-01 1.140984153747558594e+01 3.566536426544189453e+00 1.217204809188842773e+00
2.373000000000000000e+03 3.054222869873046875e+01 -9.372691154479980469e+00 3.814594507217407227e+00 1.117468833923339844e+01 4.496785163879394531e+00 -1.443314552307128906e+00
2.374000000000000000e+03 2.654009628295898438e+01 -4.233639314770698547e-02 -1.407212764024734497e-01 9.441873550415039062e+00 2.790345668792724609e+00 -2.172499418258666992e+00
2.375000000000000000e+03 2.605463409423828125e+01 1.369032412767410278e-01 -1.028928756713867188e-01 8.913944244384765625e+00 2.643315315246582031e+00 -2.427515983581542969e+00
2.376000000000000000e+03 2.782590293884277344e+01 -1.205139541625976562e+01 4.132604598999023438e-01 1.119492912292480469e+01 3.482456922531127930e+00 1.000179290771484375e+00
2.377000000000000000e+03 3.091601753234863281e+01 -7.810886859893798828e+00 5.356555461883544922e+00 1.049324226379394531e+01 4.754939556121826172e+00 -8.162213563919067383e-01
2.378000000000000000e+03 3.119996643066406250e+01 -6.465370655059814453e+00 5.519289493560791016e+00 1.019630146026611328e+01 4.714677333831787109e+00 2.411398589611053467e-01
2.379000000000000000e+03 3.051908874511718750e+01 -1.069575405120849609e+01 2.330142498016357422e+00 1.116465950012207031e+01 4.048440933227539062e+00 -1.197338581085205078e+00
2.380000000000000000e+03 2.905968666076660156e+01 -2.788928985595703125e+00 1.449866533279418945e+00 1.246550178527832031e+01 4.174610614776611328e+00 6.063346266746520996e-01
2.381000000000000000e+03 2.777796554565429688e+01 2.836028039455413818e-01 -1.762247234582901001e-01 1.010488605499267578e+01 2.978598594665527344e+00 -1.397684693336486816e+00
2.382000000000000000e+03 2.857525062561035156e+01 -2.878171205520629883e+00 1.217842221260070801e+00 1.287710952758789062e+01 4.228485584259033203e+00 2.756826579570770264e-01
2.383000000000000000e+03 2.486971473693847656e+01 -1.452215385437011719e+01 2.860442698001861572e-01 6.994506835937500000e+00 2.184165239334106445e+00 2.423884630203247070e+00
2.384000000000000000e+03 2.776415634155273438e+01 9.288081526756286621e-01 -2.229727357625961304e-01 9.735731124877929688e+00 2.853827476501464844e+00 -1.465262293815612793e+00
2.385000000000000000e+03 2.423161315917968750e+01 -1.368879890441894531e+01 6.680114269256591797e-01 6.365885734558105469e+00 2.110169172286987305e+00 2.719356775283813477e+00
2.386000000000000000e+03 2.965187263488769531e+01 1.699587345123291016e+00 -7.658589631319046021e-02 9.793395042419433594e+00 2.915042877197265625e+00 -6.039621829986572266e-01
2.387000000000000000e+03 2.911864662170410156e+01 1.945781230926513672e+00 -1.792879700660705566e-01 9.625056266784667969e+00 2.833730459213256836e+00 -8.766859769821166992e-01
2.388000000000000000e+03 3.118104553222656250e+01 3.028951644897460938e+00 2.907169237732887268e-02 9.336681365966796875e+00 2.809725761413574219e+00 -2.374932467937469482e-01
2.389000000000000000e+03 2.664282798767089844e+01 -1.716787338256835938e+01 -3.442639410495758057e-01 7.688766956329345703e+00 2.203351020812988281e+00 1.484378933906555176e+00
2.390000000000000000e+03 3.111609840393066406e+01 5.833198547363281250e+00 -1.487690657377243042e-01 8.575788497924804688e+00 2.528105974197387695e+00 -5.293313860893249512e-01
2.391000000000000000e+03 2.841636085510253906e+01 -1.351512432098388672e+01 1.028648763895034790e-01 1.024616146087646484e+01 3.104707717895507812e+00 7.677345275878906250e-01
2.392000000000000000e+03 2.862515258789062500e+01 -1.726648902893066406e+01 -4.406285881996154785e-01 8.489784240722656250e+00 2.414746761322021484e+00 8.514713048934936523e-01
2.393000000000000000e+03 3.116532516479492188e+01 8.914111137390136719e+00 -1.547947973012924194e-01 7.904653549194335938e+00 2.324957609176635742e+00 -5.654206275939941406e-01
2.394000000000000000e+03 3.074592781066894531e+01 7.223356723785400391e+00 -1.506358087062835693e-01 8.199939727783203125e+00 2.414791107177734375e+00 -6.276400685310363770e-01
2.395000000000000000e+03 6.630290985107421875e+01 -1.050234603881835938e+01 2.366297692060470581e-01 7.477782726287841797e+00 2.314323663711547852e+00 -1.205617934465408325e-01
2.396000000000000000e+03 6.210774993896484375e+01 -1.320618152618408203e+01 3.198375999927520752e-01 7.542177200317382812e+00 2.358604431152343750e+00 -2.448736727237701416e-01
2.397000000000000000e+03 6.283097457885742188e+01 -6.509296894073486328e+00 3.963204324245452881e-01 7.483966827392578125e+00 2.364086151123046875e+00 8.395981043577194214e-03
2.398000000000000000e+03 6.132501220703125000e+01 -1.073080348968505859e+01 4.026793837547302246e-01 7.518250942230224609e+00 2.376279115676879883e+00 -1.661422252655029297e-01
2.399000000000000000e+03 6.610411834716796875e+01 -3.475929975509643555e+00 2.655191123485565186e-01 7.472031593322753906e+00 2.321265220642089844e+00 1.112544387578964233e-01
2.400000000000000000e+03 6.439698028564453125e+01 -4.267693996429443359e+00 3.245456218719482422e-01 7.483156204223632812e+00 2.342310428619384766e+00 9.600868076086044312e-02
2.401000000000000000e+03 6.344706344604492188e+01 -4.825896263122558594e+00 3.591060936450958252e-01 7.485743045806884766e+00 2.353454589843750000e+00 7.939006388187408447e-02
2.402000000000000000e+03 6.441945648193359375e+01 -1.231669235229492188e+01 2.671304047107696533e-01 7.510984420776367188e+00 2.333434343338012695e+00 -1.889709383249282837e-01
2.403000000000000000e+03 6.129968643188476562e+01 -1.495087909698486328e+01 2.966472208499908447e-01 7.575726509094238281e+00 2.361712217330932617e+00 -3.092006444931030273e-01
2.404000000000000000e+03 2.984852600097656250e+01 -2.084752464294433594e+01 -6.845703721046447754e-01 7.878118991851806641e+00 2.158064603805541992e+00 5.611076354980468750e-01
2.405000000000000000e+03 3.211325836181640625e+01 -2.044921493530273438e+01 -5.739039182662963867e-01 8.311906814575195312e+00 2.321400880813598633e+00 5.771254375576972961e-02
2.406000000000000000e+03 6.374897384643554688e+01 1.200247192382812500e+01 7.113468647003173828e-02 7.712708473205566406e+00 2.335153102874755859e+00 5.049732327461242676e-01
2.407000000000000000e+03 2.245396041870117188e+01 1.957344245910644531e+01 -1.247153058648109436e-01 5.222845077514648438e+00 1.529438972473144531e+00 -7.225198149681091309e-01
2.408000000000000000e+03 2.380016899108886719e+01 2.030707168579101562e+01 -2.222168594598770142e-01 5.458248615264892578e+00 1.570809602737426758e+00 -6.450735926628112793e-01
2.409000000000000000e+03 3.028547096252441406e+01 -2.325655364990234375e+01 -7.891815304756164551e-01 7.497622489929199219e+00 2.012532234191894531e+00 4.864665567874908447e-01
2.410000000000000000e+03 3.129350662231445312e+01 -2.183813095092773438e+01 -7.094494700431823730e-01 7.944292545318603516e+00 2.170452833175659180e+00 2.818725109100341797e-01
2.411000000000000000e+03 6.223251342773437500e+01 7.591773033142089844e+00 1.979389488697052002e-01 7.638299942016601562e+00 2.350871801376342773e+00 4.772425591945648193e-01
2.412000000000000000e+03 3.242464447021484375e+01 1.931764221191406250e+01 -4.395715594291687012e-01 6.870021820068359375e+00 1.929135084152221680e+00 -1.570768356323242188e-01
2.413000000000000000e+03 3.144643211364746094e+01 1.713645744323730469e+01 -3.349958658218383789e-01 6.907517433166503906e+00 1.971756458282470703e+00 -2.849066555500030518e-01
2.414000000000000000e+03 2.586948013305664062e+01 -1.171565055847167969e+01 7.364810705184936523e-01 9.530360221862792969e+00 3.080052375793457031e+00 2.955838203430175781e+00
2.415000000000000000e+03 2.660124778747558594e+01 -1.025109171867370605e+00 -1.275431364774703979e-02 1.016928195953369141e+01 3.046958208084106445e+00 -2.243498563766479492e+00
2.416000000000000000e+03 2.624687385559082031e+01 -1.200600910186767578e+01 5.222243666648864746e-01 9.831673622131347656e+00 3.106169462203979492e+00 2.530005693435668945e+00
2.417000000000000000e+03 3.175049400329589844e+01 -9.876938819885253906e+00 3.269814491271972656e+00 1.027001667022705078e+01 4.061949253082275391e+00 -1.318911910057067871e+00
2.418000000000000000e+03 2.957800102233886719e+01 -3.290980815887451172e+00 2.315334320068359375e+00 1.229462528228759766e+01 4.382987976074218750e+00 1.162683606147766113e+00
2.419000000000000000e+03 2.847101974487304688e+01 8.044586181640625000e-01 -1.426308155059814453e-01 1.008436870574951172e+01 2.982521295547485352e+00 -1.050489425659179688e+00
2.420000000000000000e+03 2.683452224731445312e+01 -2.505464315414428711e+00 3.175166249275207520e-01 1.196998596191406250e+01 3.686250925064086914e+00 -2.084763526916503906e+00
2.421000000000000000e+03 2.839669609069824219e+01 -1.159384441375732422e+01 7.435013651847839355e-01 1.176817607879638672e+01 3.753503322601318359e+00 3.614430129528045654e-01
2.422000000000000000e+03 2.798641777038574219e+01 -1.600237655639648438e+01 -3.113572001457214355e-01 8.783658027648925781e+00 2.541690111160278320e+00 1.068563222885131836e+00
2.423000000000000000e+03 2.671342849731445312e+01 -1.221725463867187500e+01 3.592204153537750244e-01 1.020261192321777344e+01 3.168549776077270508e+00 2.053813695907592773e+00
2.424000000000000000e+03 3.092155456542968750e+01 -9.888236045837402344e+00 3.195548534393310547e+00 1.085724544525146484e+01 4.215838432312011719e+00 -1.367600679397583008e+00
2.425000000000000000e+03 3.098769378662109375e+01 -8.400990486145019531e+00 4.808556079864501953e+00 1.053570365905761719e+01 4.603278160095214844e+00 -1.138067007064819336e+00
2.426000000000000000e+03 2.701244163513183594e+01 -5.724053382873535156e-01 -1.128413379192352295e-01 1.026419258117675781e+01 3.045405387878417969e+00 -1.862824440002441406e+00
2.427000000000000000e+03 2.651402282714843750e+01 -5.602253675460815430e-01 -7.568114250898361206e-02 9.734708786010742188e+00 2.897708177566528320e+00 -2.265082359313964844e+00
2.428000000000000000e+03 2.797788810729980469e+01 -1.162334442138671875e+01 5.937657952308654785e-01 1.175849342346191406e+01 3.705677747726440430e+00 7.594341039657592773e-01
2.429000000000000000e+03 2.955669975280761719e+01 -2.699732780456542969e+00 1.624400258064270020e+00 1.207964420318603516e+01 4.111213684082031250e+00 8.145482540130615234e-01
2.430000000000000000e+03 3.121480369567871094e+01 -7.109095096588134766e+00 5.381222248077392578e+00 1.013319683074951172e+01 4.654325485229492188e+00 -2.381165027618408203e-01
2.431000000000000000e+03 3.112807846069335938e+01 -7.566777229309082031e+00 5.312546730041503906e+00 1.022907829284667969e+01 4.662487506866455078e+00 -6.086561083793640137e-01
2.432000000000000000e+03 2.553551101684570312e+01 -1.317191886901855469e+01 4.350781440734863281e-01 8.157223701477050781e+00 2.577690601348876953e+00 2.580493211746215820e+00
2.433000000000000000e+03 2.965315437316894531e+01 -1.088322734832763672e+01 1.845955133438110352e+00 1.175625991821289062e+01 4.080664634704589844e+00 -8.946843147277832031e-01
2.434000000000000000e+03 2.919423103332519531e+01 -1.107811260223388672e+01 1.462155818939208984e+00 1.190726375579833984e+01 4.010826110839843750e+00 -5.252436995506286621e-01
2.435000000000000000e+03 2.888561820983886719e+01 -1.675034523010253906e+00 5.724472403526306152e-01 1.177620124816894531e+01 3.704594612121582031e+00 -1.354871243238449097e-01
2.436000000000000000e+03 2.563278961181640625e+01 -1.451908111572265625e+01 1.247848868370056152e-01 7.725469589233398438e+00 2.355076313018798828e+00 2.206984043121337891e+00
2.437000000000000000e+03 2.683832168579101562e+01 -1.378891468048095703e+01 2.313907444477081299e-02 9.223683357238769531e+00 2.774046897888183594e+00 1.768251419067382812e+00
2.438000000000000000e+03 2.704698753356933594e+01 -9.673574566841125488e-01 -6.004681438207626343e-02 1.057155418395996094e+01 3.153452396392822266e+00 -1.867455840110778809e+00
2.439000000000000000e+03 2.493672752380371094e+01 -1.312096214294433594e+01 6.313555836677551270e-01 7.375980377197265625e+00 2.402200698852539062e+00 2.810249805450439453e+00
2.440000000000000000e+03 3.017552947998046875e+01 1.281910300254821777e+00 9.094303101301193237e-02 9.976699829101562500e+00 3.020292758941650391e+00 -3.161589503288269043e-01
2.441000000000000000e+03 2.919646263122558594e+01 1.188334584236145020e+00 -7.718463242053985596e-02 1.001191329956054688e+01 2.980418443679809570e+00 -7.221632599830627441e-01
2.442000000000000000e+03 3.052443504333496094e+01 2.524333477020263672e+00 -1.477794721722602844e-02 9.504218101501464844e+00 2.846832036972045898e+00 -4.029341936111450195e-01
2.443000000000000000e+03 2.633999633789062500e+01 -1.443201541900634766e+01 -2.702832920476794243e-03 8.468932151794433594e+00 2.539868831634521484e+00 1.938485503196716309e+00
2.444000000000000000e+03 2.888332176208496094e+01 7.863395810127258301e-01 -8.661448210477828979e-02 1.019831466674804688e+01 3.033509969711303711e+00 -7.928976416587829590e-01
2.445000000000000000e+03 2.773584938049316406e+01 -1.682997894287109375e+01 -3.900821805000305176e-01 8.345832824707031250e+00 2.386725187301635742e+00 1.140481472015380859e+00
2.446000000000000000e+03 3.121619415283203125e+01 4.361629486083984375e+00 -7.921404391527175903e-02 8.956119537353515625e+00 2.663071870803833008e+00 -3.991931080818176270e-01
2.447000000000000000e+03 3.195095252990722656e+01 5.119997978210449219e+00 -5.407453328371047974e-02 8.764555931091308594e+00 2.613144636154174805e+00 -2.795492410659790039e-01
2.448000000000000000e+03 2.889023971557617188e+01 -1.208157634735107422e+01 6.664465665817260742e-01 1.129253578186035156e+01 3.587694644927978516e+00 1.213511526584625244e-01
2.449000000000000000e+03 3.065752220153808594e+01 -1.954380035400390625e+01 -5.743692517280578613e-01 8.345171928405761719e+00 2.331240892410278320e+00 3.308128118515014648e-01
2.450000000000000000e+03 3.139865493774414062e+01 -1.836277008056640625e+01 -4.084949791431427002e-01 8.706613540649414062e+00 2.489435672760009766e+00 8.057802915573120117e-02
2.451000000000000000e+03 3.450591278076171875e+01 5.431489467620849609e+00 1.497359126806259155e-01 8.681775093078613281e+00 2.649453401565551758e+00 2.074560075998306274e-01
2.452000000000000000e+03 3.260460281372070312e+01 6.031908035278320312e+00 -5.222095549106597900e-02 8.569179534912109375e+00 2.555087566375732422e+00 -2.027226835489273071e-01
2.453000000000000000e+03 6.482772064208984375e+01 -1.057987213134765625e+01 2.790492475032806396e-01 7.492090702056884766e+00 2.331341981887817383e+00 -1.336570233106613159e-01
2.454000000000000000e+03 6.757278442382812500e+01 -1.006268787384033203e+01 2.006080597639083862e-01 7.459684371948242188e+00 2.298087835311889648e+00 -9.729983657598495483e-02
2.455000000000000000e+03 6.376810836791992188e+01 -2.549130916595458984e+00 3.555796742439270020e-01 7.489982128143310547e+00 2.353668689727783203e+00 1.612658798694610596e-01
2.456000000000000000e+03 6.265138244628906250e+01 -8.296920776367187500e+00 3.877669274806976318e-01 7.493180751800537109e+00 2.364284276962280273e+00 -6.345833092927932739e-02
2.457000000000000000e+03 6.257577133178710938e+01 -1.685143262147903442e-01 3.578300178050994873e-01 7.521621704101562500e+00 2.363835334777832031e+00 2.623441517353057861e-01
2.458000000000000000e+03 5.973341751098632812e+01 -1.391553592681884766e+01 3.757189214229583740e-01 7.572270393371582031e+00 2.384396791458129883e+00 -3.047217428684234619e-01
2.459000000000000000e+03 6.280748367309570312e+01 -1.160562229156494141e+01 3.337786197662353516e-01 7.517279148101806641e+00 2.355317354202270508e+00 -1.828105747699737549e-01
2.460000000000000000e+03 6.038037109375000000e+01 -1.686024284362792969e+01 2.520123720169067383e-01 7.620605945587158203e+00 2.361785411834716797e+00 -3.749311566352844238e-01
2.461000000000000000e+03 5.695873260498046875e+01 7.828407764434814453e+00 2.809243798255920410e-01 7.664822578430175781e+00 2.383723974227905273e+00 5.739487409591674805e-01
2.462000000000000000e+03 6.108353042602539062e+01 5.167146682739257812e+00 2.952745854854583740e-01 7.599729537963867188e+00 2.368501186370849609e+00 4.454109966754913330e-01
2.463000000000000000e+03 3.071958923339843750e+01 -2.581263542175292969e+01 -8.791320919990539551e-01 7.260013103485107422e+00 1.914264321327209473e+00 3.758627474308013916e-01
2.464000000000000000e+03 6.141175079345703125e+01 1.213025665283203125e+01 8.189141005277633667e-02 7.718057155609130859e+00 2.339984655380249023e+00 5.490369796752929688e-01
2.465000000000000000e+03 5.928033828735351562e+01 1.145486736297607422e+01 1.073154658079147339e-01 7.712739944458007812e+00 2.346016645431518555e+00 5.761753916740417480e-01
2.466000000000000000e+03 6.145012283325195312e+01 1.473425769805908203e+01 1.065249368548393250e-02 7.758664131164550781e+00 2.330795049667358398e+00 5.521593093872070312e-01
2.467000000000000000e+03 6.902483367919921875e+01 1.588751792907714844e+01 -5.570083390921354294e-03 7.808462619781494141e+00 2.340867757797241211e+00 4.058054089546203613e-01
2.468000000000000000e+03 2.246303939819335938e+01 -2.788731575012207031e+01 -4.797635376453399658e-01 4.694662094116210938e+00 1.264469504356384277e+00 9.094132781028747559e-01
2.469000000000000000e+03 3.037168884277343750e+01 -4.064608097076416016e+00 3.616955280303955078e+00 1.149955272674560547e+01 4.534952640533447266e+00 1.479295015335083008e+00
2.470000000000000000e+03 2.671899032592773438e+01 -1.437427043914794922e+00 3.374319896101951599e-02 1.067718982696533203e+01 3.213279962539672852e+00 -2.167764425277709961e+00
2.471000000000000000e+03 3.019992637634277344e+01 -3.609878301620483398e+00 2.913504600524902344e+00 1.169391727447509766e+01 4.382226467132568359e+00 1.368079900741577148e+00
2.472000000000000000e+03 2.795885848999023438e+01 -1.999168276786804199e+00 3.315134644508361816e-01 1.210310745239257812e+01 3.730386257171630859e+00 -8.466387391090393066e-01
2.473000000000000000e+03 2.752880287170410156e+01 -1.951272964477539062e+00 2.293695360422134399e-01 1.187261867523193359e+01 3.630596399307250977e+00 -1.293121218681335449e+00
2.474000000000000000e+03 2.808569717407226562e+01 -1.194599819183349609e+01 4.894179999828338623e-01 1.142698574066162109e+01 3.574921131134033203e+00 7.355872988700866699e-01
2.475000000000000000e+03 3.064025688171386719e+01 -4.449939727783203125e+00 4.091840744018554688e+00 1.113467407226562500e+01 4.567954540252685547e+00 1.411852002143859863e+00
2.476000000000000000e+03 3.058973312377929688e+01 7.973565459251403809e-01 2.651902437210083008e-01 1.016436672210693359e+01 3.128867149353027344e+00 -3.654567524790763855e-02
2.477000000000000000e+03 3.198946571350097656e+01 -9.517081260681152344e+00 3.530694246292114258e+00 1.007032299041748047e+01 4.080305099487304688e+00 -1.240432858467102051e+00
2.478000000000000000e+03 2.730147361755371094e+01 -1.202134799957275391e+01 3.829739987850189209e-01 1.094747257232666016e+01 3.399134159088134766e+00 1.528288125991821289e+00
2.479000000000000000e+03 2.757675933837890625e+01 -1.532461881637573242e+00 1.279742568731307983e-01 1.140776443481445312e+01 3.460721731185913086e+00 -1.276038646697998047e+00
2.480000000000000000e+03 3.201375198364257812e+01 -5.951751232147216797e+00 4.827160358428955078e+00 9.782155990600585938e+00 4.382794857025146484e+00 4.963411390781402588e-01
2.481000000000000000e+03 3.164484977722167969e+01 -6.605807304382324219e+00 5.158565998077392578e+00 9.897437095642089844e+00 4.516800880432128906e+00 8.685524016618728638e-02
2.482000000000000000e+03 2.556430244445800781e+01 -1.383925151824951172e+01 2.709074020385742188e-01 7.901486396789550781e+00 2.451718091964721680e+00 2.402024030685424805e+00
2.483000000000000000e+03 3.127700996398925781e+01 -1.095012760162353516e+01 2.270259141921997070e+00 1.056793308258056641e+01 3.851457595825195312e+00 -1.219672560691833496e+00
2.484000000000000000e+03 2.713307952880859375e+01 -1.240490913391113281e+01 2.751785516738891602e-01 1.042961120605468750e+01 3.211436986923217773e+00 1.720549464225769043e+00
2.485000000000000000e+03 2.765286636352539062e+01 -1.230231952667236328e+01 3.335253298282623291e-01 1.090116500854492188e+01 3.370407104492187500e+00 1.163460493087768555e+00
2.486000000000000000e+03 2.740961265563964844e+01 -4.138655364513397217e-01 -1.371319741010665894e-01 1.043037509918212891e+01 3.087972879409790039e+00 -1.596805095672607422e+00
2.487000000000000000e+03 3.135297966003417969e+01 -7.410948753356933594e+00 5.218035221099853516e+00 1.005851554870605469e+01 4.582965373992919922e+00 -4.741207957267761230e-01
2.488000000000000000e+03 3.156693077087402344e+01 -6.997001647949218750e+00 5.182102680206298828e+00 9.930875778198242188e+00 4.533893585205078125e+00 -1.648490875959396362e-01
2.489000000000000000e+03 2.962273788452148438e+01 7.781146168708801270e-01 6.910567730665206909e-02 1.024086761474609375e+01 3.092992067337036133e+00 -4.298879206180572510e-01
2.490000000000000000e+03 2.612174034118652344e+01 -1.321135234832763672e+01 2.677156031131744385e-01 8.827506065368652344e+00 2.728566408157348633e+00 2.296645879745483398e+00
2.491000000000000000e+03 3.148591423034667969e+01 -1.034279632568359375e+01 2.836952686309814453e+00 1.047255325317382812e+01 3.992851734161376953e+00 -1.320520639419555664e+00
2.492000000000000000e+03 2.646819877624511719e+01 -1.500563812255859375e+01 -9.444847702980041504e-02 8.320729255676269531e+00 2.467884063720703125e+00 1.817710161209106445e+00
2.493000000000000000e+03 2.868111991882324219e+01 -1.631041914224624634e-01 1.752066798508167267e-02 1.075659084320068359e+01 3.232233524322509766e+00 -7.601462602615356445e-01
2.494000000000000000e+03 3.084530639648437500e+01 1.851558804512023926e+00 1.173530966043472290e-01 9.725907325744628906e+00 2.952978134155273438e+00 -1.720106303691864014e-01
2.495000000000000000e+03 2.711680030822753906e+01 -1.576675510406494141e+01 -2.576949596405029297e-01 8.443091392517089844e+00 2.455618858337402344e+00 1.467908978462219238e+00
2.496000000000000000e+03 2.979581642150878906e+01 -1.683665847778320312e+01 -3.554964363574981689e-01 9.025193214416503906e+00 2.600908994674682617e+00 4.289841651916503906e-01
2.497000000000000000e+03 2.751773071289062500e+01 -1.263450431823730469e+01 2.243554741144180298e-01 1.052708816528320312e+01 3.225433111190795898e+00 1.327407956123352051e+00
2.498000000000000000e+03 3.184684371948242188e+01 3.613329887390136719e+00 5.278632789850234985e-02 9.149156570434570312e+00 2.760582923889160156e+00 -1.458002477884292603e-01
2.499000000000000000e+03 3.232544326782226562e+01 2.808056116104125977e+00 2.341632395982742310e-01 9.312811851501464844e+00 2.864092588424682617e+00 1.045339107513427734e-01
2.500000000000000000e+03 6.494680786132812500e+01 -3.095208644866943359e+00 3.076226711273193359e-01 7.484635353088378906e+00 2.337677478790283203e+00 1.361367553472518921e-01
2.501000000000000000e+03 3.275860214233398438e+01 -1.911683082580566406e+01 -3.901676833629608154e-01 8.599128723144531250e+00 2.462688446044921875e+00 -1.549059897661209106e-01
2.502000000000000000e+03 3.048458099365234375e+01 -1.750975227355957031e+01 -3.888540267944335938e-01 8.837797164916992188e+00 2.534682989120483398e+00 2.500318884849548340e-01
2.503000000000000000e+03 3.465232086181640625e+01 6.822896480560302734e+00 3.106021322309970856e-02 8.441576004028320312e+00 2.541790723800659180e+00 1.021060720086097717e-01
2.504000000000000000e+03 3.348421096801757812e+01 5.610750198364257812e+00 4.978429526090621948e-02 8.685194015502929688e+00 2.620493412017822266e+00 3.135012462735176086e-02
2.505000000000000000e+03 6.175543212890625000e+01 -7.226059913635253906e+00 4.307773709297180176e-01 7.491893768310546875e+00 2.376801252365112305e+00 -2.390045113861560822e-02
2.506000000000000000e+03 6.264228057861328125e+01 -2.151943206787109375e+00 3.974811136722564697e-01 7.499075412750244141e+00 2.368967056274414062e+00 1.904097497463226318e-01
2.507000000000000000e+03 6.207193756103515625e+01 -3.497980117797851562e+00 4.196611940860748291e-01 7.495810508728027344e+00 2.374641418457031250e+00 1.381058096885681152e-01
2.508000000000000000e+03 5.995285415649414062e+01 -9.685311317443847656e+00 4.783096909523010254e-01 7.516186237335205078e+00 2.398348808288574219e+00 -1.376741528511047363e-01
2.509000000000000000e+03 6.355248260498046875e+01 -1.336079359054565430e+00 3.446556031703948975e-01 7.502790451049804688e+00 2.354233741760253906e+00 2.079119682312011719e-01
2.510000000000000000e+03 6.064043045043945312e+01 -2.724076747894287109e+00 4.721726179122924805e-01 7.503985881805419922e+00 2.392847537994384766e+00 1.767330318689346313e-01
2.511000000000000000e+03 6.201180648803710938e+01 -9.376498222351074219e+00 3.994399309158325195e-01 7.503009319305419922e+00 2.370734930038452148e+00 -1.088014170527458191e-01
2.512000000000000000e+03 6.189673233032226562e+01 -1.964572143554687500e+01 1.367591470479965210e-01 7.655014514923095703e+00 2.337532043457031250e+00 -3.920140266418457031e-01
2.513000000000000000e+03 6.359511947631835938e+01 -2.004118347167968750e+01 1.087892949581146240e-01 7.637953758239746094e+00 2.324023008346557617e+00 -3.624061644077301025e-01
2.514000000000000000e+03 3.482127380371093750e+01 -2.400310897827148438e+01 -7.253225445747375488e-01 8.006400108337402344e+00 2.184323072433471680e+00 -1.700107008218765259e-01
2.515000000000000000e+03 6.185023117065429688e+01 3.445452928543090820e+00 3.126440048217773438e-01 7.573386192321777344e+00 2.365809202194213867e+00 3.911857008934020996e-01
2.516000000000000000e+03 3.172213745117187500e+01 -5.489086627960205078e+00 4.723534584045410156e+00 1.003975772857666016e+01 4.428987503051757812e+00 8.197483420372009277e-01
2.517000000000000000e+03 3.008968925476074219e+01 -3.130440473556518555e+00 2.363334894180297852e+00 1.174152660369873047e+01 4.231458663940429688e+00 1.211285233497619629e+00
2.518000000000000000e+03 2.610358619689941406e+01 -1.257789325714111328e+01 4.164415895938873291e-01 9.234666824340820312e+00 2.895332574844360352e+00 2.471497774124145508e+00
2.519000000000000000e+03 2.934823989868164062e+01 -1.159093856811523438e+01 1.151745557785034180e+00 1.153936767578125000e+01 3.807333946228027344e+00 -3.964023590087890625e-01
2.520000000000000000e+03 3.021062278747558594e+01 -1.151284885406494141e+01 1.533798336982727051e+00 1.099672222137451172e+01 3.759156227111816406e+00 -8.158524632453918457e-01
2.521000000000000000e+03 2.760259437561035156e+01 -4.425352811813354492e-02 -1.542410403490066528e-01 1.032978630065917969e+01 3.052663803100585938e+00 -1.464241862297058105e+00
2.522000000000000000e+03 2.701882171630859375e+01 -1.758900433778762817e-01 -1.625315546989440918e-01 9.934504508972167969e+00 2.931591987609863281e+00 -1.870680332183837891e+00
2.523000000000000000e+03 2.841315460205078125e+01 -1.890102863311767578e+00 4.729005098342895508e-01 1.206686115264892578e+01 3.761928558349609375e+00 -3.767439424991607666e-01
2.524000000000000000e+03 2.902730560302734375e+01 -2.198503017425537109e+00 9.350287914276123047e-01 1.207015705108642578e+01 3.901555776596069336e+00 2.319403141736984253e-01
2.525000000000000000e+03 3.166699028015136719e+01 -9.195880889892578125e+00 3.830538988113403320e+00 1.020964717864990234e+01 4.212056159973144531e+00 -1.239587187767028809e+00
2.526000000000000000e+03 3.184645080566406250e+01 -8.545482635498046875e+00 4.335924625396728516e+00 9.977065086364746094e+00 4.293896675109863281e+00 -1.012374639511108398e+00
2.527000000000000000e+03 2.711208152770996094e+01 -1.317457771301269531e+01 1.076785176992416382e-01 9.891928672790527344e+00 2.999882221221923828e+00 1.658902883529663086e+00
2.528000000000000000e+03 2.942484283447265625e+01 -1.215736198425292969e+01 8.072797656059265137e-01 1.112313747406005859e+01 3.579125165939331055e+00 -2.045922279357910156e-01
2.529000000000000000e+03 2.982479667663574219e+01 -1.159837627410888672e+01 1.351389765739440918e+00 1.133495235443115234e+01 3.805902481079101562e+00 -6.828410625457763672e-01
2.530000000000000000e+03 2.709222030639648438e+01 -1.323214411735534668e+00 -1.113846246153116226e-02 1.098162651062011719e+01 3.291146278381347656e+00 -1.859609961509704590e+00
2.531000000000000000e+03 3.173031997680664062e+01 -8.112607955932617188e+00 4.677712440490722656e+00 9.976609230041503906e+00 4.396296501159667969e+00 -8.557321429252624512e-01
2.532000000000000000e+03 2.716052055358886719e+01 -1.507448196411132812e+01 -1.830539852380752563e-01 8.750654220581054688e+00 2.570280075073242188e+00 1.502932310104370117e+00
2.533000000000000000e+03 3.214105987548828125e+01 -6.738608837127685547e+00 4.849958419799804688e+00 9.636871337890625000e+00 4.346048831939697266e+00 1.226632948964834213e-02
2.534000000000000000e+03 3.234870147705078125e+01 -8.375529289245605469e+00 4.254023551940917969e+00 9.656588554382324219e+00 4.173183917999267578e+00 -8.525301814079284668e-01
2.535000000000000000e+03 3.219221878051757812e+01 -8.006399154663085938e+00 4.500870704650878906e+00 9.685614585876464844e+00 4.255945682525634766e+00 -7.361714243888854980e-01
2.536000000000000000e+03 3.099059867858886719e+01 -4.180447578430175781e+00 3.690780639648437500e+00 1.088264560699462891e+01 4.372027873992919922e+00 1.373708009719848633e+00
2.537000000000000000e+03 3.080319213867187500e+01 -3.821263551712036133e+00 3.304203510284423828e+00 1.102962970733642578e+01 4.300149917602539062e+00 1.362284302711486816e+00
2.538000000000000000e+03 2.666813850402832031e+01 -1.322545337677001953e+01 1.548787653446197510e-01 9.451116561889648438e+00 2.881798505783081055e+00 1.939335823059082031e+00
2.539000000000000000e+03 2.956678390502929688e+01 -2.098231554031372070e+00 1.144936561584472656e+00 1.174900913238525391e+01 3.868183612823486328e+00 5.002632141113281250e-01
2.540000000000000000e+03 2.865878486633300781e+01 4.652703106403350830e-01 -9.645019471645355225e-02 1.042581367492675781e+01 3.098809003829956055e+00 -8.818405270576477051e-01
2.541000000000000000e+03 2.640750885009765625e+01 -1.552000236511230469e+01 -1.549771428108215332e-01 8.027160644531250000e+00 2.361654996871948242e+00 1.746785044670104980e+00
2.542000000000000000e+03 2.920086860656738281e+01 4.947347939014434814e-01 2.699765004217624664e-02 1.034967899322509766e+01 3.113003015518188477e+00 -5.826095342636108398e-01
2.543000000000000000e+03 2.893929481506347656e+01 2.105725705623626709e-01 1.315059885382652283e-02 1.053783226013183594e+01 3.165294885635375977e+00 -6.703026890754699707e-01
2.544000000000000000e+03 2.892481040954589844e+01 -1.636554145812988281e+01 -3.269138336181640625e-01 8.962273597717285156e+00 2.590608119964599609e+00 6.844171285629272461e-01
2.545000000000000000e+03 2.977621650695800781e+01 2.049372792243957520e-01 2.035060226917266846e-01 1.048911094665527344e+01 3.207785129547119141e+00 -2.481956630945205688e-01
2.546000000000000000e+03 3.158650779724121094e+01 2.326652050018310547e+00 1.873556524515151978e-01 9.509735107421875000e+00 2.909127235412597656e+00 -2.233630791306495667e-02
2.547000000000000000e+03 3.120037460327148438e+01 1.220242381095886230e+00 3.138610720634460449e-01 9.913770675659179688e+00 3.068289518356323242e+00 7.780284434556961060e-02
2.548000000000000000e+03 3.373624801635742188e+01 3.795470714569091797e+00 2.831169366836547852e-01 9.014760971069335938e+00 2.789363384246826172e+00 2.528127133846282959e-01
2.549000000000000000e+03 3.104949760437011719e+01 -1.673281478881835938e+01 -1.916776597499847412e-01 9.077953338623046875e+00 2.665882825851440430e+00 -1.347399875521659851e-02
2.550000000000000000e+03 6.498152923583984375e+01 2.688785314559936523e+00 2.414025813341140747e-01 7.547356128692626953e+00 2.336627483367919922e+00 3.247180879116058350e-01
2.551000000000000000e+03 3.340370178222656250e+01 6.796186923980712891e+00 -4.107104614377021790e-02 8.433780670166015625e+00 2.517812967300415039e+00 -8.510666340589523315e-02
2.552000000000000000e+03 3.340904235839843750e+01 4.592208862304687500e+00 1.255497187376022339e-01 8.856158256530761719e+00 2.694512367248535156e+00 8.599736541509628296e-02
2.553000000000000000e+03 6.048357391357421875e+01 2.604320287704467773e+00 3.743633329868316650e-01 7.565096855163574219e+00 2.381838083267211914e+00 3.902581632137298584e-01
2.554000000000000000e+03 6.150678634643554688e+01 1.113485693931579590e+00 3.782859444618225098e-01 7.539522647857666016e+00 2.375342607498168945e+00 3.224780559539794922e-01
2.555000000000000000e+03 3.432886505126953125e+01 -1.975769233703613281e+01 -3.467510044574737549e-01 8.526100158691406250e+00 2.453804731369018555e+00 -3.593907654285430908e-01
2.556000000000000000e+03 6.081715011596679688e+01 -8.325004577636718750e+00 4.620657563209533691e-01 7.500785827636718750e+00 2.388855457305908203e+00 -7.377574592828750610e-02
2.557000000000000000e+03 6.336786651611328125e+01 -3.723737955093383789e+00 3.598034083843231201e-01 7.490779399871826172e+00 2.355174779891967773e+00 1.196117997169494629e-01
2.558000000000000000e+03 6.154720687866210938e+01 -1.249927282333374023e+00 4.159767627716064453e-01 7.512589454650878906e+00 2.378569841384887695e+00 2.302495092153549194e-01
2.559000000000000000e+03 6.266340255737304688e+01 1.966684103012084961e+00 3.218397498130798340e-01 7.547631263732910156e+00 2.360841274261474609e+00 3.386473953723907471e-01
2.560000000000000000e+03 6.057693099975585938e+01 -1.226277828216552734e+01 3.984678983688354492e-01 7.540025711059570312e+00 2.381548166275024414e+00 -2.323158830404281616e-01
2.561000000000000000e+03 5.714204788208007812e+01 -4.460810184478759766e+00 6.549968719482421875e-01 7.506306171417236328e+00 2.448390960693359375e+00 1.097613275051116943e-01
2.562000000000000000e+03 5.964129257202148438e+01 -7.082152366638183594e+00 5.317379832267761230e-01 7.498793125152587891e+00 2.409159183502197266e+00 -1.981189846992492676e-02
2.563000000000000000e+03 6.450572967529296875e+01 5.902634620666503906e+00 1.937561333179473877e-01 7.600077152252197266e+00 2.338150024414062500e+00 4.077594876289367676e-01
2.564000000000000000e+03 5.730070877075195312e+01 -7.291156291961669922e+00 6.475953459739685059e-01 7.506134510040283203e+00 2.446119070053100586e+00 -4.064609482884407043e-02
2.565000000000000000e+03 3.217259216308593750e+01 -2.755773735046386719e+01 -9.418417811393737793e-01 7.292682170867919922e+00 1.905252099037170410e+00 2.170000672340393066e-01
2.566000000000000000e+03 6.285544586181640625e+01 1.969980239868164062e+01 -9.221086651086807251e-02 7.835535049438476562e+00 2.322997331619262695e+00 4.986040890216827393e-01
2.567000000000000000e+03 6.986721038818359375e+01 3.254540634155273438e+01 -1.150170415639877319e-01 8.136456489562988281e+00 2.406431913375854492e+00 2.002811431884765625e-01
2.568000000000000000e+03 7.132865905761718750e+01 3.785277557373046875e+01 -8.858717978000640869e-02 8.254645347595214844e+00 2.449817419052124023e+00 8.822052180767059326e-02
2.569000000000000000e+03 2.661861610412597656e+01 -1.269640445709228516e+01 2.657006382942199707e-01 9.791322708129882812e+00 3.017107009887695312e+00 2.068533182144165039e+00
2.570000000000000000e+03 2.740880966186523438e+01 -1.133810877799987793e+00 -2.915868535637855530e-02 1.099517917633056641e+01 3.289806127548217773e+00 -1.534015297889709473e+00
2.571000000000000000e+03 3.159123039245605469e+01 -4.974989891052246094e+00 4.382770061492919922e+00 1.021646785736083984e+01 4.379771232604980469e+00 1.037455439567565918e+00
2.572000000000000000e+03 3.237278366088867188e+01 -5.673168182373046875e+00 4.479434013366699219e+00 9.642522811889648438e+00 4.236587047576904297e+00 6.132254600524902344e-01
2.573000000000000000e+03 3.105863380432128906e+01 -4.566145896911621094e+00 4.153816699981689453e+00 1.075523567199707031e+01 4.472715854644775391e+00 1.316036224365234375e+00
2.574000000000000000e+03 3.066338157653808594e+01 -3.409686326980590820e+00 2.829213619232177734e+00 1.122839546203613281e+01 4.217282772064208984e+00 1.334030747413635254e+00
2.575000000000000000e+03 2.808391761779785156e+01 -1.220954895019531250e+01 4.227054417133331299e-01 1.115458297729492188e+01 3.473186492919921875e+00 7.818350195884704590e-01
2.576000000000000000e+03 2.793169784545898438e+01 -1.286139392852783203e+01 2.067663669586181641e-01 1.057414627075195312e+01 3.234273672103881836e+00 9.848644733428955078e-01
2.577000000000000000e+03 2.800243186950683594e+01 -6.208149343729019165e-02 -1.036817580461502075e-01 1.046464252471923828e+01 3.108288288116455078e+00 -1.197628736495971680e+00
2.578000000000000000e+03 3.030400848388671875e+01 -3.661155998706817627e-01 5.549460649490356445e-01 1.066221332550048828e+01 3.365147829055786133e+00 1.723967492580413818e-01
2.579000000000000000e+03 3.279212951660156250e+01 -8.173957824707031250e+00 4.172990322113037109e+00 9.444622039794921875e+00 4.085283756256103516e+00 -7.175123691558837891e-01
2.580000000000000000e+03 2.970631408691406250e+01 -1.336383724212646484e+01 3.654407858848571777e-01 1.046637916564941406e+01 3.249546051025390625e+00 -3.948021680116653442e-02
2.581000000000000000e+03 2.999040985107421875e+01 -1.210884189605712891e+01 1.039864778518676758e+00 1.093832492828369141e+01 3.593456983566284180e+00 -5.503816604614257812e-01
2.582000000000000000e+03 3.042074203491210938e+01 -1.119420814514160156e+01 1.839260697364807129e+00 1.112379646301269531e+01 3.888917207717895508e+00 -1.034034729003906250e+00
2.583000000000000000e+03 2.793764305114746094e+01 -1.530971169471740723e+00 1.847980767488479614e-01 1.152698135375976562e+01 3.513533830642700195e+00 -1.017368793487548828e+00
2.584000000000000000e+03 2.851318740844726562e+01 -1.420421981811523438e+01 -3.729828819632530212e-02 9.831581115722656250e+00 2.938284635543823242e+00 7.918943166732788086e-01
2.585000000000000000e+03 3.210170745849609375e+01 -7.645314216613769531e+00 4.731472015380859375e+00 9.726515769958496094e+00 4.337396144866943359e+00 -5.530620813369750977e-01
2.586000000000000000e+03 3.319927597045898438e+01 -7.937906742095947266e+00 4.059839248657226562e+00 9.253740310668945312e+00 3.994073867797851562e+00 -5.721358656883239746e-01
2.587000000000000000e+03 3.232490539550781250e+01 -9.307723999023437500e+00 3.644256591796875000e+00 9.847943305969238281e+00 4.047659873962402344e+00 -1.164460301399230957e+00
2.588000000000000000e+03 3.010133171081542969e+01 -2.073316335678100586e+00 1.370914578437805176e+00 1.142599201202392578e+01 3.839072227478027344e+00 7.233858108520507812e-01
2.589000000000000000e+03 2.798199081420898438e+01 -1.513402938842773438e+01 -2.147950381040573120e-01 9.186571121215820312e+00 2.691532850265502930e+00 1.065585136413574219e+00
2.590000000000000000e+03 2.928776931762695312e+01 1.031174734234809875e-01 1.214970946311950684e-01 1.055531883239746094e+01 3.203044891357421875e+00 -4.536369740962982178e-01
2.591000000000000000e+03 2.955430793762207031e+01 -1.276264572143554688e+01 5.452144145965576172e-01 1.075226211547851562e+01 3.389243125915527344e+00 -8.549627661705017090e-02
2.592000000000000000e+03 3.053558731079101562e+01 -1.192877769470214844e+01 1.353456258773803711e+00 1.079660129547119141e+01 3.645017147064208984e+00 -8.191278576850891113e-01
2.593000000000000000e+03 3.306574630737304688e+01 3.301724672317504883e+00 2.652623057365417480e-01 9.151930809020996094e+00 2.825157880783081055e+00 2.019601315259933472e-01
2.594000000000000000e+03 2.951391029357910156e+01 -1.485259628295898438e+01 -6.390671432018280029e-02 9.733625411987304688e+00 2.900915622711181641e+00 3.325536549091339111e-01
2.595000000000000000e+03 3.089431953430175781e+01 -2.758103013038635254e-01 6.941559314727783203e-01 1.045373821258544922e+01 3.344368219375610352e+00 3.676026463508605957e-01
2.596000000000000000e+03 3.214530563354492188e+01 8.483398556709289551e-01 6.282750964164733887e-01 9.827202796936035156e+00 3.136643171310424805e+00 4.285162389278411865e-01
2.597000000000000000e+03 3.191679763793945312e+01 1.602501630783081055e+00 3.784526884555816650e-01 9.677439689636230469e+00 3.016767740249633789e+00 2.085731923580169678e-01
2.598000000000000000e+03 3.319028854370117188e+01 -1.348622798919677734e+01 1.093287348747253418e+00 9.533497810363769531e+00 3.188035488128662109e+00 -9.603630304336547852e-01
2.599000000000000000e+03 3.358216857910156250e+01 2.456555366516113281e+00 4.801498353481292725e-01 9.240290641784667969e+00 2.916131973266601562e+00 4.081511795520782471e-01
2.600000000000000000e+03 3.600930786132812500e+01 6.257694244384765625e+00 1.886125504970550537e-01 8.438223838806152344e+00 2.588050842285156250e+00 3.385663330554962158e-01
2.601000000000000000e+03 3.201104354858398438e+01 -1.733280563354492188e+01 -1.967430114746093750e-01 8.980018615722656250e+00 2.634982824325561523e+00 -1.743427664041519165e-01
2.602000000000000000e+03 3.233994674682617188e+01 -1.631749725341796875e+01 2.283854782581329346e-02 9.197527885437011719e+00 2.766109943389892578e+00 -3.689266741275787354e-01
2.603000000000000000e+03 3.643634033203125000e+01 7.710970401763916016e+00 7.679361104965209961e-02 8.279454231262207031e+00 2.506874322891235352e+00 2.988634705543518066e-01
2.604000000000000000e+03 3.190706062316894531e+01 1.016460800170898438e+01 -1.785899698734283447e-01 7.790724754333496094e+00 2.283640384674072266e+00 -4.418923854827880859e-01
2.605000000000000000e+03 3.472705841064453125e+01 -1.681674003601074219e+01 2.209273725748062134e-01 8.891152381896972656e+00 2.733623743057250977e+00 -6.961175799369812012e-01
2.606000000000000000e+03 5.911241149902343750e+01 1.486619472503662109e+00 4.573694765567779541e-01 7.553369998931884766e+00 2.403221845626831055e+00 3.672606050968170166e-01
2.607000000000000000e+03 6.035556793212890625e+01 -4.626551643013954163e-03 4.400072395801544189e-01 7.530668735504150391e+00 2.391202688217163086e+00 2.916634082794189453e-01
2.608000000000000000e+03 5.694110488891601562e+01 -1.672361373901367188e+00 6.330776810646057129e-01 7.522423744201660156e+00 2.446650505065917969e+00 2.576006948947906494e-01
2.609000000000000000e+03 5.841108703613281250e+01 -5.771663665771484375e+00 5.932103395462036133e-01 7.500754833221435547e+00 2.428189516067504883e+00 3.973985463380813599e-02
2.610000000000000000e+03 5.479368972778320312e+01 -7.425259113311767578e+00 7.844285964965820312e-01 7.516880989074707031e+00 2.490392684936523438e+00 -6.966483592987060547e-02
2.611000000000000000e+03 5.802906799316406250e+01 3.250269651412963867e+00 4.341486096382141113e-01 7.585261344909667969e+00 2.405822992324829102e+00 4.464552700519561768e-01
2.612000000000000000e+03 5.823374176025390625e+01 -1.276551532745361328e+01 4.745977818965911865e-01 7.563194751739501953e+00 2.411337852478027344e+00 -2.870482504367828369e-01
2.613000000000000000e+03 5.914127731323242188e+01 -1.868918037414550781e+01 2.006194442510604858e-01 7.672978878021240234e+00 2.362079620361328125e+00 -4.339844584465026855e-01
2.614000000000000000e+03 6.312579727172851562e+01 -2.200378417968750000e+01 4.964881390333175659e-02 7.684788703918457031e+00 2.320331335067749023e+00 -3.888163566589355469e-01
2.615000000000000000e+03 5.928314971923828125e+01 -1.407914519309997559e+00 5.138803124427795410e-01 7.518449783325195312e+00 2.409698963165283203e+00 2.455537021160125732e-01
2.616000000000000000e+03 2.972175025939941406e+01 -4.361493587493896484e-01 4.071991145610809326e-01 1.085973167419433594e+01 3.380079269409179688e+00 -4.802828282117843628e-02
2.617000000000000000e+03 2.776374053955078125e+01 -8.047907352447509766e-01 -2.767415344715118408e-02 1.090346622467041016e+01 3.262737751007080078e+00 -1.275913357734680176e+00
2.618000000000000000e+03 2.893668746948242188e+01 -9.302261471748352051e-01 2.729494571685791016e-01 1.122610664367675781e+01 3.449716806411743164e+00 -3.782991766929626465e-01
2.619000000000000000e+03 3.244590377807617188e+01 -6.331948280334472656e+00 4.636200428009033203e+00 9.538482666015625000e+00 4.252404689788818359e+00 2.177760899066925049e-01
2.620000000000000000e+03 2.800755310058593750e+01 -1.249478626251220703e+01 3.126802742481231689e-01 1.089147758483886719e+01 3.361247301101684570e+00 8.876937031745910645e-01
2.621000000000000000e+03 2.780005836486816406e+01 -1.331295680999755859e+01 8.106756955385208130e-02 1.015751266479492188e+01 3.071573972702026367e+00 1.140920519828796387e+00
2.622000000000000000e+03 3.121216964721679688e+01 -3.609759092330932617e+00 3.110080957412719727e+00 1.077663135528564453e+01 4.166013717651367188e+00 1.310436129570007324e+00
2.623000000000000000e+03 2.703335762023925781e+01 -1.440143966674804688e+01 -6.771811842918395996e-02 9.013829231262207031e+00 2.683833360671997070e+00 1.610921025276184082e+00
2.624000000000000000e+03 2.896012496948242188e+01 -1.288348197937011719e+01 3.661307692527770996e-01 1.076292991638183594e+01 3.338718414306640625e+00 2.740010619163513184e-01
2.625000000000000000e+03 2.848130035400390625e+01 -9.147977232933044434e-01 1.298087090253829956e-01 1.116199207305908203e+01 3.387540340423583984e+00 -7.314251065254211426e-01
2.626000000000000000e+03 2.967963027954101562e+01 -1.524610757827758789e+00 8.391329050064086914e-01 1.143525123596191406e+01 3.682315111160278320e+00 3.170151412487030029e-01
2.627000000000000000e+03 2.927954673767089844e+01 -1.411809635162353516e+01 9.791634976863861084e-02 1.002880954742431641e+01 3.038017749786376953e+00 3.087574541568756104e-01
2.628000000000000000e+03 3.221143722534179688e+01 -1.057831764221191406e+01 2.671848773956298828e+00 1.003837966918945312e+01 3.813068389892578125e+00 -1.276305198669433594e+00
2.629000000000000000e+03 2.703522491455078125e+01 -1.278278064727783203e+01 2.037014961242675781e-01 1.006942462921142578e+01 3.081937789916992188e+00 1.740532875061035156e+00
2.630000000000000000e+03 3.338688278198242188e+01 -8.964149475097656250e+00 3.582685232162475586e+00 9.287214279174804688e+00 3.860969781875610352e+00 -9.191399812698364258e-01
2.631000000000000000e+03 3.100994300842285156e+01 -1.154474544525146484e+01 1.741918087005615234e+00 1.066844654083251953e+01 3.723109245300292969e+00 -1.053436517715454102e+00
2.632000000000000000e+03 3.285049438476562500e+01 -6.990274429321289062e+00 4.451136112213134766e+00 9.333661079406738281e+00 4.135439395904541016e+00 -1.370109021663665771e-01
2.633000000000000000e+03 3.269187927246093750e+01 -7.307701110839843750e+00 4.468924522399902344e+00 9.394932746887207031e+00 4.159157276153564453e+00 -3.232907354831695557e-01
2.634000000000000000e+03 2.775332832336425781e+01 -1.431359767913818359e+01 -1.060176491737365723e-01 9.548786163330078125e+00 2.832830667495727539e+00 1.205703377723693848e+00
2.635000000000000000e+03 3.157985305786132812e+01 -4.431279659271240234e+00 3.893091917037963867e+00 1.035958003997802734e+01 4.275801658630371094e+00 1.220707297325134277e+00
2.636000000000000000e+03 2.876050758361816406e+01 -1.499535655975341797e+01 -1.773616522550582886e-01 9.473520278930664062e+00 2.788847684860229492e+00 7.138782739639282227e-01
2.637000000000000000e+03 3.031464195251464844e+01 2.512634396553039551e-01 3.539864420890808105e-01 1.039198970794677734e+01 3.223793029785156250e+00 -8.946419693529605865e-03
2.638000000000000000e+03 3.270617294311523438e+01 1.998753666877746582e+00 4.470085501670837402e-01 9.474358558654785156e+00 2.976410150527954102e+00 3.294959366321563721e-01
2.639000000000000000e+03 3.242290496826171875e+01 -1.532854461669921875e+01 3.034673035144805908e-01 9.417981147766113281e+00 2.916434526443481445e+00 -5.500687360763549805e-01
2.640000000000000000e+03 3.143788528442382812e+01 5.678435564041137695e-01 5.532274246215820312e-01 1.007243251800537109e+01 3.187698125839233398e+00 3.097050487995147705e-01
2.641000000000000000e+03 3.083777999877929688e+01 3.197050094604492188e-01 4.942413866519927979e-01 1.028247261047363281e+01 3.233014106750488281e+00 1.968967318534851074e-01
2.642000000000000000e+03 2.935527992248535156e+01 -1.558718204498291016e+01 -2.182906270027160645e-01 9.398195266723632812e+00 2.753971338272094727e+00 4.938745200634002686e-01
2.643000000000000000e+03 2.999953651428222656e+01 -1.391659736633300781e+01 2.854147851467132568e-01 1.017046451568603516e+01 3.136763811111450195e+00 -6.028237938880920410e-02
2.644000000000000000e+03 3.391964721679687500e+01 5.378034114837646484e-01 1.069205880165100098e+00 9.398838996887207031e+00 3.140413284301757812e+00 7.489636540412902832e-01
2.645000000000000000e+03 3.143594551086425781e+01 -1.598077011108398438e+01 -3.371761739253997803e-02 9.296579360961914062e+00 2.778858661651611328e+00 -1.859143078327178955e-01
2.646000000000000000e+03 3.211719512939453125e+01 -1.119856548309326172e+01 2.203471183776855469e+00 1.009023189544677734e+01 3.688110828399658203e+00 -1.218566536903381348e+00
2.647000000000000000e+03 3.728058624267578125e+01 5.561334133148193359e+00 3.552369773387908936e-01 8.422441482543945312e+00 2.633303642272949219e+00 5.036241412162780762e-01
2.648000000000000000e+03 3.556390762329101562e+01 4.843308448791503906e+00 3.239910304546356201e-01 8.643140792846679688e+00 2.690139532089233398e+00 3.884532153606414795e-01
2.649000000000000000e+03 5.569284057617187500e+01 4.296558380126953125e+00 4.609791040420532227e-01 7.618425369262695312e+00 2.423821449279785156e+00 5.142495632171630859e-01
2.650000000000000000e+03 4.002754592895507812e+01 8.912745475769042969e+00 1.409352570772171021e-01 8.061311721801757812e+00 2.460674047470092773e+00 5.292220115661621094e-01
2.651000000000000000e+03 3.404740905761718750e+01 1.099176979064941406e+01 -1.795002967119216919e-01 7.812985420227050781e+00 2.290045499801635742e+00 -1.172378659248352051e-01
2.652000000000000000e+03 5.823867797851562500e+01 -2.938639163970947266e+00 5.855619907379150391e-01 7.509445190429687500e+00 2.428502321243286133e+00 1.866808533668518066e-01
2.653000000000000000e+03 5.959707641601562500e+01 -4.290794372558593750e+00 5.306216478347778320e-01 7.499240398406982422e+00 2.408958673477172852e+00 1.129629537463188171e-01
2.654000000000000000e+03 3.562837982177734375e+01 -2.212594032287597656e+01 -5.167798399925231934e-01 8.252326965332031250e+00 2.320663928985595703e+00 -3.532203137874603271e-01
2.655000000000000000e+03 3.464844894409179688e+01 -1.825312995910644531e+01 -8.548486232757568359e-02 8.720915794372558594e+00 2.590629339218139648e+00 -5.401896238327026367e-01
2.656000000000000000e+03 5.589747619628906250e+01 -3.175243377685546875e+00 7.118077874183654785e-01 7.513779640197753906e+00 2.467676162719726562e+00 1.852688789367675781e-01
2.657000000000000000e+03 6.027084350585937500e+01 7.175221920013427734e+00 2.473717331886291504e-01 7.637855529785156250e+00 2.365568161010742188e+00 5.061544179916381836e-01
2.658000000000000000e+03 6.558287811279296875e+01 -1.862077140808105469e+01 1.150629371404647827e-01 7.592240333557128906e+00 2.312191009521484375e+00 -3.121160864830017090e-01
2.659000000000000000e+03 5.621078491210937500e+01 -8.856102943420410156e+00 6.755271553993225098e-01 7.524299621582031250e+00 2.459948062896728516e+00 -1.376352161169052124e-01
2.660000000000000000e+03 3.215380477905273438e+01 -5.298694133758544922e+00 4.401727199554443359e+00 9.809079170227050781e+00 4.263241767883300781e+00 8.136660456657409668e-01
2.661000000000000000e+03 3.225833129882812500e+01 6.236671656370162964e-02 9.175426363945007324e-01 9.946084022521972656e+00 3.259088039398193359e+00 6.122257113456726074e-01
2.662000000000000000e+03 3.028511810302734375e+01 -9.529798626899719238e-01 7.756446599960327148e-01 1.091661167144775391e+01 3.507677078247070312e+00 3.533521890640258789e-01
2.663000000000000000e+03 3.304228210449218750e+01 -8.548118591308593750e+00 3.906218528747558594e+00 9.372068405151367188e+00 3.983486175537109375e+00 -8.198137879371643066e-01
2.664000000000000000e+03 2.742689323425292969e+01 -1.365797996520996094e+01 1.163434702903032303e-02 9.751962661743164062e+00 2.929079055786132812e+00 1.409316420555114746e+00
2.665000000000000000e+03 2.808769798278808594e+01 -1.162997007369995117e+00 1.130938380956649780e-01 1.126428508758544922e+01 3.413213729858398438e+00 -9.689251184463500977e-01
2.666000000000000000e+03 2.865051841735839844e+01 -1.287192583084106445e+00 3.199104070663452148e-01 1.156800270080566406e+01 3.566374063491821289e+00 -4.400882422924041748e-01
2.667000000000000000e+03 3.294539260864257812e+01 -9.612252235412597656e+00 3.328421115875244141e+00 9.586383819580078125e+00 3.874441385269165039e+00 -1.138386607170104980e+00
2.668000000000000000e+03 3.232039260864257812e+01 -1.006830310821533203e+01 3.071002244949340820e+00 9.948623657226562500e+00 3.905887842178344727e+00 -1.257248044013977051e+00
2.669000000000000000e+03 2.909489822387695312e+01 -1.347763252258300781e+01 2.422781288623809814e-01 1.036468219757080078e+01 3.182088136672973633e+00 2.865991294384002686e-01
2.670000000000000000e+03 3.005146408081054688e+01 -2.610448122024536133e+00 1.824525594711303711e+00 1.165714645385742188e+01 4.044501781463623047e+00 9.821720719337463379e-01
2.671000000000000000e+03 3.021423530578613281e+01 -1.271102619171142578e+01 8.057262897491455078e-01 1.059644031524658203e+01 3.420650005340576172e+00 -4.492546916007995605e-01
2.672000000000000000e+03 3.091676712036132812e+01 -2.330019474029541016e+00 1.886210918426513672e+00 1.093189907073974609e+01 3.845432996749877930e+00 1.015790224075317383e+00
2.673000000000000000e+03 3.021269416809082031e+01 -1.522363424301147461e+00 1.060243248939514160e+00 1.120141029357910156e+01 3.678495883941650391e+00 5.648313760757446289e-01
2.674000000000000000e+03 3.296991729736328125e+01 -1.009787178039550781e+01 2.991220712661743164e+00 9.620832443237304688e+00 3.783616065979003906e+00 -1.188117980957031250e+00
2.675000000000000000e+03 2.914591598510742188e+01 -4.083204269409179688e-01 2.097223401069641113e-01 1.088403320312500000e+01 3.328126668930053711e+00 -4.042104780673980713e-01
2.676000000000000000e+03 2.824988937377929688e+01 -4.861227869987487793e-01 -4.281415604054927826e-03 1.080305099487304688e+01 3.239630699157714844e+00 -9.719408154487609863e-01
2.677000000000000000e+03 2.929521179199218750e+01 -1.285926461219787598e+00 5.722573995590209961e-01 1.138472557067871094e+01 3.587094783782958984e+00 1.355971093289554119e-03
2.678000000000000000e+03 3.111476707458496094e+01 -3.233110904693603516e+00 2.744244337081909180e+00 1.084301280975341797e+01 4.076177120208740234e+00 1.270675301551818848e+00
2.679000000000000000e+03 3.037487792968750000e+01 -1.464696025848388672e+01 1.404549926519393921e-01 9.827071189880371094e+00 2.990257978439331055e+00 -5.174448341131210327e-02
2.680000000000000000e+03 3.154093933105468750e+01 -1.238722130656242371e-01 8.301558494567871094e-01 1.022643661499023438e+01 3.316977739334106445e+00 5.192763209342956543e-01
2.681000000000000000e+03 3.305485916137695312e+01 2.956425547599792480e-01 9.907937049865722656e-01 9.667444229125976562e+00 3.197471380233764648e+00 6.836237311363220215e-01
2.682000000000000000e+03 3.093551635742187500e+01 -1.257462501525878906e+01 1.082454800605773926e+00 1.047108173370361328e+01 3.466060876846313477e+00 -7.659019231796264648e-01
2.683000000000000000e+03 3.295103073120117188e+01 -1.124473285675048828e+01 2.248784542083740234e+00 9.701545715332031250e+00 3.585098981857299805e+00 -1.200662493705749512e+00
2.684000000000000000e+03 3.295059585571289062e+01 1.163284301757812500e+00 6.832541227340698242e-01 9.577915191650390625e+00 3.078350543975830078e+00 5.087358355522155762e-01
2.685000000000000000e+03 3.077617263793945312e+01 -1.546177673339843750e+01 -2.831232966855168343e-03 9.497266769409179688e+00 2.848330736160278320e+00 -6.162721291184425354e-02
2.686000000000000000e+03 3.155224227905273438e+01 -1.217374610900878906e+01 1.472269535064697266e+00 1.028749847412109375e+01 3.527930259704589844e+00 -9.894258379936218262e-01
2.687000000000000000e+03 3.346608734130859375e+01 -1.545300579071044922e+01 4.200777709484100342e-01 9.240541458129882812e+00 2.898185729980468750e+00 -7.152832150459289551e-01
2.688000000000000000e+03 3.430710983276367188e+01 3.134608030319213867e+00 4.558510184288024902e-01 9.054846763610839844e+00 2.853209495544433594e+00 4.336864948272705078e-01
2.689000000000000000e+03 3.612950897216796875e+01 -2.028485679626464844e+01 -2.702694833278656006e-01 8.440276145935058594e+00 2.451002120971679688e+00 -5.339403748512268066e-01
2.690000000000000000e+03 3.461435317993164062e+01 -1.550857353210449219e+01 5.662911534309387207e-01 9.034098625183105469e+00 2.880116939544677734e+00 -8.392709493637084961e-01
2.691000000000000000e+03 3.671313095092773438e+01 4.156579017639160156e+00 5.076447129249572754e-01 8.604415893554687500e+00 2.733618259429931641e+00 5.657429099082946777e-01
2.692000000000000000e+03 3.699258422851562500e+01 9.156392097473144531e+00 -1.186370011419057846e-02 8.115621566772460938e+00 2.431127309799194336e+00 2.796317040920257568e-01
2.693000000000000000e+03 3.477657318115234375e+01 1.283708286285400391e+01 -2.377962917089462280e-01 7.648373126983642578e+00 2.223173141479492188e+00 -3.712548688054084778e-02
2.694000000000000000e+03 3.344914245605468750e+01 -1.661573600769042969e+01 1.172983795404434204e-01 9.053953170776367188e+00 2.751375436782836914e+00 -5.473389625549316406e-01
2.695000000000000000e+03 3.831980895996093750e+01 8.282707214355468750e+00 1.165280416607856750e-01 8.158130645751953125e+00 2.482397794723510742e+00 4.418538212776184082e-01
2.696000000000000000e+03 3.104605484008789062e+01 1.208858776092529297e+01 -1.720012128353118896e-01 7.397970199584960938e+00 2.167790651321411133e+00 -4.945343732833862305e-01
2.697000000000000000e+03 6.743395233154296875e+01 3.240498352050781250e+01 -1.540585607290267944e-01 8.068525314331054688e+00 2.374339818954467773e+00 2.325059920549392700e-01
2.698000000000000000e+03 5.792960357666015625e+01 -1.996619626879692078e-02 5.387685894966125488e-01 7.540557861328125000e+00 2.423797845840454102e+00 3.241904675960540771e-01
2.699000000000000000e+03 3.369783401489257812e+01 -2.587340545654296875e+01 -8.549169301986694336e-01 7.679273605346679688e+00 2.047307014465332031e+00 1.881180144846439362e-02
2.700000000000000000e+03 3.575416183471679688e+01 -2.736893463134765625e+01 -8.671872615814208984e-01 7.766434192657470703e+00 2.069773912429809570e+00 -1.405362039804458618e-01
2.701000000000000000e+03 5.600187683105468750e+01 -5.963146209716796875e+00 7.198110818862915039e-01 7.507564067840576172e+00 2.468212604522705078e+00 2.694580703973770142e-02
2.702000000000000000e+03 5.478056335449218750e+01 -4.570726871490478516e+00 7.903324961662292480e-01 7.514460563659667969e+00 2.491437911987304688e+00 1.065670847892761230e-01
2.703000000000000000e+03 6.482753753662109375e+01 -2.247993087768554688e+01 3.175032138824462891e-02 7.667520999908447266e+00 2.309781312942504883e+00 -3.571003675460815430e-01
2.704000000000000000e+03 6.527025604248046875e+01 -2.043424606323242188e+01 8.097906410694122314e-02 7.624703407287597656e+00 2.311704635620117188e+00 -3.388214409351348877e-01
2.705000000000000000e+03 5.801004409790039062e+01 9.755693435668945312e+00 1.893027424812316895e-01 7.687350749969482422e+00 2.362996101379394531e+00 5.803730487823486328e-01
2.706000000000000000e+03 5.578468322753906250e+01 6.059854984283447266e+00 3.905142843723297119e-01 7.642750740051269531e+00 2.409979581832885742e+00 5.546314716339111328e-01
2.707000000000000000e+03 3.394405364990234375e+01 -5.054094791412353516e+00 3.605776309967041016e+00 9.074961662292480469e+00 3.804221391677856445e+00 6.145188808441162109e-01
2.708000000000000000e+03 3.213358688354492188e+01 -4.354576587677001953e+00 3.713306903839111328e+00 1.002931308746337891e+01 4.122786045074462891e+00 1.118552803993225098e+00
2.709000000000000000e+03 3.299078369140625000e+01 -7.580622673034667969e+00 4.245643138885498047e+00 9.307862281799316406e+00 4.066051483154296875e+00 -4.343910515308380127e-01
2.710000000000000000e+03 3.341637420654296875e+01 -8.275668144226074219e+00 3.880188226699829102e+00 9.217409133911132812e+00 3.929279327392578125e+00 -6.973272562026977539e-01
2.711000000000000000e+03 3.249766921997070312e+01 -5.168827533721923828e+00 4.182145595550537109e+00 9.660532951354980469e+00 4.152803421020507812e+00 7.945309281349182129e-01
2.712000000000000000e+03 3.227526473999023438e+01 -7.436352372169494629e-01 1.291300892829895020e+00 1.006621837615966797e+01 3.407255887985229492e+00 8.120293617248535156e-01
2.713000000000000000e+03 3.184216117858886719e+01 -3.590158224105834961e+00 3.136471033096313477e+00 1.032429409027099609e+01 4.038229465484619141e+00 1.239474773406982422e+00
2.714000000000000000e+03 3.057126617431640625e+01 -2.969128847122192383e+00 2.349344015121459961e+00 1.130105304718017578e+01 4.095118999481201172e+00 1.191130638122558594e+00
2.715000000000000000e+03 3.150193405151367188e+01 -3.288966178894042969e+00 2.835905313491821289e+00 1.061472034454345703e+01 4.035187721252441406e+00 1.264034271240234375e+00
2.716000000000000000e+03 3.368160247802734375e+01 -1.061637973785400391e+01 2.597398757934570312e+00 9.362341880798339844e+00 3.587922096252441406e+00 -1.156901240348815918e+00
2.717000000000000000e+03 2.973073387145996094e+01 -1.003023266792297363e+00 5.937318801879882812e-01 1.109566211700439453e+01 3.506818056106567383e+00 1.208740323781967163e-01
2.718000000000000000e+03 3.209761047363281250e+01 -1.514128208160400391e+00 1.662572026252746582e+00 1.019264411926269531e+01 3.556565046310424805e+00 9.586817622184753418e-01
2.719000000000000000e+03 3.033562469482421875e+01 -1.340209579467773438e+01 5.104511380195617676e-01 1.031027889251708984e+01 3.246218919754028320e+00 -2.936346530914306641e-01
2.720000000000000000e+03 3.079337310791015625e+01 -1.530767560005187988e+00 1.294231414794921875e+00 1.088354873657226562e+01 3.653334140777587891e+00 7.528287172317504883e-01
2.721000000000000000e+03 3.088076210021972656e+01 -8.998834490776062012e-01 9.681442975997924805e-01 1.066253471374511719e+01 3.489203691482543945e+00 5.636323690414428711e-01
2.722000000000000000e+03 3.142879486083984375e+01 -1.509160757064819336e+00 1.474467754364013672e+00 1.056581020355224609e+01 3.612083435058593750e+00 8.786508440971374512e-01
2.723000000000000000e+03 3.310224914550781250e+01 -5.591248869895935059e-01 1.372727155685424805e+00 9.733935356140136719e+00 3.331998586654663086e+00 8.499891757965087891e-01
2.724000000000000000e+03 3.219150543212890625e+01 -1.190375328063964844e+01 1.796281099319458008e+00 1.005781745910644531e+01 3.556229352951049805e+00 -1.142505645751953125e+00
2.725000000000000000e+03 3.295159530639648438e+01 -1.064235305786132812e+01 2.613761663436889648e+00 9.679673194885253906e+00 3.688030481338500977e+00 -1.218342900276184082e+00
2.726000000000000000e+03 3.334163284301757812e+01 -1.441050243377685547e+01 7.646583318710327148e-01 9.398410797119140625e+00 3.048920869827270508e+00 -8.533674478530883789e-01
2.727000000000000000e+03 3.232352066040039062e+01 -1.438177585601806641e+01 5.912541151046752930e-01 9.634236335754394531e+00 3.067646980285644531e+00 -6.923918128013610840e-01
2.728000000000000000e+03 3.132248115539550781e+01 -1.439470195770263672e+01 4.007608592510223389e-01 9.800139427185058594e+00 3.060270071029663086e+00 -4.420451819896697998e-01
2.729000000000000000e+03 3.151818656921386719e+01 -1.524078178405761719e+01 1.773154437541961670e-01 9.545047760009765625e+00 2.916708946228027344e+00 -3.388102948665618896e-01
2.730000000000000000e+03 3.388951492309570312e+01 1.515501499176025391e+00 7.442909479141235352e-01 9.304332733154296875e+00 3.014587163925170898e+00 5.812767744064331055e-01
2.731000000000000000e+03 3.514186096191406250e+01 2.876801013946533203e+00 5.858970880508422852e-01 8.924243927001953125e+00 2.853042364120483398e+00 5.437011718750000000e-01
2.732000000000000000e+03 3.795378494262695312e+01 3.495465517044067383e+00 7.091479301452636719e-01 8.486599922180175781e+00 2.758724451065063477e+00 6.814410686492919922e-01
2.733000000000000000e+03 3.857589340209960938e+01 4.815159320831298828e+00 5.385464429855346680e-01 8.373003959655761719e+00 2.673465251922607422e+00 6.444169282913208008e-01
2.734000000000000000e+03 5.290310668945312500e+01 5.118723392486572266e+00 5.036556720733642578e-01 7.659687995910644531e+00 2.449003219604492188e+00 5.791369080543518066e-01
2.735000000000000000e+03 5.439586639404296875e+01 4.530294537544250488e-01 6.765956878662109375e-01 7.568715572357177734e+00 2.473593235015869141e+00 3.983541131019592285e-01
2.736000000000000000e+03 3.818717193603515625e+01 -2.065198707580566406e+01 -1.690254062414169312e-01 8.344947814941406250e+00 2.452776908874511719e+00 -6.592499017715454102e-01
2.737000000000000000e+03 3.611157608032226562e+01 -1.685348129272460938e+01 3.593691289424896240e-01 8.717319488525390625e+00 2.723006725311279297e+00 -8.147014379501342773e-01
2.738000000000000000e+03 3.913529586791992188e+01 6.200961589813232422e+00 3.941663503646850586e-01 8.249314308166503906e+00 2.593044042587280273e+00 5.967321991920471191e-01
2.739000000000000000e+03 3.779447937011718750e+01 6.950016498565673828e+00 2.249641716480255127e-01 8.277820587158203125e+00 2.550835371017456055e+00 4.588993787765502930e-01
2.740000000000000000e+03 3.774274444580078125e+01 1.052420425415039062e+01 -7.149711251258850098e-02 7.977058887481689453e+00 2.371668577194213867e+00 3.022331297397613525e-01
2.741000000000000000e+03 3.639574050903320312e+01 1.171419525146484375e+01 -1.769582480192184448e-01 7.842047214508056641e+00 2.299526691436767578e+00 1.360575705766677856e-01
2.742000000000000000e+03 4.080619812011718750e+01 1.069982910156250000e+01 8.695195429027080536e-03 7.956184387207031250e+00 2.389463901519775391e+00 4.942890405654907227e-01
2.743000000000000000e+03 5.360039138793945312e+01 -5.827102661132812500e+00 8.738802671432495117e-01 7.518383979797363281e+00 2.517679214477539062e+00 3.464208170771598816e-02
2.744000000000000000e+03 3.768630599975585938e+01 -2.288552665710449219e+01 -4.792314767837524414e-01 8.204545974731445312e+00 2.317594528198242188e+00 -4.844866991043090820e-01
2.745000000000000000e+03 5.509975814819335938e+01 8.983167648315429688e+00 2.497386783361434937e-01 7.694829940795898438e+00 2.383370637893676758e+00 6.149410009384155273e-01
2.746000000000000000e+03 5.620247650146484375e+01 -2.181425094604492188e+01 7.878887653350830078e-02 7.778805255889892578e+00 2.357278108596801758e+00 -5.215927362442016602e-01
2.747000000000000000e+03 5.650584793090820312e+01 2.564298629760742188e+00 5.164965987205505371e-01 7.582112789154052734e+00 2.429582834243774414e+00 4.443302452564239502e-01
2.748000000000000000e+03 5.411880493164062500e+01 3.458362817764282227e+00 5.555043220520019531e-01 7.617369174957275391e+00 2.451862096786499023e+00 5.080925822257995605e-01
2.749000000000000000e+03 5.397164535522460938e+01 -1.035145759582519531e+01 7.453964948654174805e-01 7.555989265441894531e+00 2.490415811538696289e+00 -2.396886497735977173e-01
2.750000000000000000e+03 3.689794158935546875e+01 -2.510600662231445312e+01 -7.050709724426269531e-01 8.024630546569824219e+00 2.195867776870727539e+00 -3.085404932498931885e-01
2.751000000000000000e+03 5.406528091430664062e+01 6.943039894104003906e+00 3.748255670070648193e-01 7.673733711242675781e+00 2.414567708969116211e+00 5.982912778854370117e-01
2.752000000000000000e+03 3.320347595214843750e+01 -6.120297908782958984e+00 4.210957527160644531e+00 9.220339775085449219e+00 4.029388904571533203e+00 2.863996922969818115e-01
2.753000000000000000e+03 3.298770141601562500e+01 -6.573359489440917969e+00 4.376133441925048828e+00 9.278131484985351562e+00 4.096279621124267578e+00 5.113562196493148804e-02
2.754000000000000000e+03 3.153553390502929688e+01 -8.212084770202636719e-01 1.122544765472412109e+00 1.039050102233886719e+01 3.453913688659667969e+00 7.064442634582519531e-01
2.755000000000000000e+03 3.264932632446289062e+01 -5.443470478057861328e+00 4.248159885406494141e+00 9.557494163513183594e+00 4.141696453094482422e+00 6.737177968025207520e-01
2.756000000000000000e+03 3.382476425170898438e+01 -8.582132339477539062e+00 3.601603746414184570e+00 9.094871520996093750e+00 3.808942556381225586e+00 -7.464007139205932617e-01
2.757000000000000000e+03 3.597742843627929688e+01 -1.292879867553710938e+01 1.529952764511108398e+00 8.830201148986816406e+00 3.108046293258666992e+00 -1.062220096588134766e+00
2.758000000000000000e+03 3.250411987304687500e+01 -4.844486236572265625e+00 3.989901781082153320e+00 9.699725151062011719e+00 4.106888294219970703e+00 8.986012935638427734e-01
2.759000000000000000e+03 3.218841934204101562e+01 -2.361394643783569336e+00 2.193286895751953125e+00 1.020486640930175781e+01 3.719445943832397461e+00 1.107274770736694336e+00
2.760000000000000000e+03 3.479263305664062500e+01 -1.247410297393798828e+01 1.679666161537170410e+00 9.106462478637695312e+00 3.235838651657104492e+00 -1.099552989006042480e+00
2.761000000000000000e+03 3.060741615295410156e+01 -2.081449985504150391e+00 1.601282954216003418e+00 1.112262153625488281e+01 3.817171335220336914e+00 9.045325517654418945e-01
2.762000000000000000e+03 3.351807785034179688e+01 -6.758358001708984375e+00 4.111135005950927734e+00 9.074590682983398438e+00 3.955717563629150391e+00 -3.320517018437385559e-02
2.763000000000000000e+03 3.330522918701171875e+01 -7.216506004333496094e+00 4.189630985260009766e+00 9.152844429016113281e+00 4.002742767333984375e+00 -2.425246983766555786e-01
2.764000000000000000e+03 3.328459167480468750e+01 -1.287538051605224609e+00 1.724911928176879883e+00 9.711007118225097656e+00 3.430775880813598633e+00 9.635470509529113770e-01
2.765000000000000000e+03 3.477228164672851562e+01 -7.227550148963928223e-01 1.644181489944458008e+00 9.206269264221191406e+00 3.255135059356689453e+00 9.158628582954406738e-01
2.766000000000000000e+03 3.228689193725585938e+01 -3.820647954940795898e+00 3.301614999771118164e+00 1.004576969146728516e+01 4.004215240478515625e+00 1.168852329254150391e+00
2.767000000000000000e+03 3.218439483642578125e+01 -1.343565750122070312e+01 9.585719704627990723e-01 9.822544097900390625e+00 3.234334707260131836e+00 -8.386654853820800781e-01
2.768000000000000000e+03 3.298653411865234375e+01 -2.249855995178222656e+00 2.201777458190917969e+00 9.792225837707519531e+00 3.598201036453247070e+00 1.063809156417846680e+00
2.769000000000000000e+03 3.393563079833984375e+01 -2.931598424911499023e-01 1.372922658920288086e+00 9.440357208251953125e+00 3.243983983993530273e+00 8.543001413345336914e-01
2.770000000000000000e+03 3.439535140991210938e+01 -1.438345146179199219e+01 9.041062593460083008e-01 9.166816711425781250e+00 3.021276950836181641e+00 -9.531540274620056152e-01
2.771000000000000000e+03 3.363021087646484375e+01 -9.471714973449707031e+00 3.272066354751586914e+00 9.270456314086914062e+00 3.762756824493408203e+00 -1.012418627738952637e+00
2.772000000000000000e+03 3.117304801940917969e+01 -1.344629001617431641e+01 7.261978387832641602e-01 1.012309932708740234e+01 3.254789113998413086e+00 -6.066904067993164062e-01
2.773000000000000000e+03 3.301175308227539062e+01 -1.192181491851806641e+01 1.880412101745605469e+00 9.687389373779296875e+00 3.470340490341186523e+00 -1.161455512046813965e+00
2.774000000000000000e+03 3.309222793579101562e+01 -1.266685962677001953e+01 1.446085929870605469e+00 9.633090019226074219e+00 3.323752880096435547e+00 -1.075040459632873535e+00
2.775000000000000000e+03 3.367248153686523438e+01 -1.003866386413574219e+01 2.937651395797729492e+00 9.319687843322753906e+00 3.677201747894287109e+00 -1.101010680198669434e+00
2.776000000000000000e+03 3.571971511840820312e+01 5.237920284271240234e-01 1.279184818267822266e+00 8.943943977355957031e+00 3.066938638687133789e+00 8.170962333679199219e-01
2.777000000000000000e+03 3.623122787475585938e+01 2.786191701889038086e+00 7.206612229347229004e-01 8.759541511535644531e+00 2.844060897827148438e+00 6.431835889816284180e-01
2.778000000000000000e+03 4.250064086914062500e+01 1.855048894882202148e+00 1.053043007850646973e+00 7.993824481964111328e+00 2.714060306549072266e+00 6.906194090843200684e-01
2.779000000000000000e+03 3.878570938110351562e+01 1.166494750976562500e+01 -1.101106032729148865e-01 7.907462596893310547e+00 2.339205503463745117e+00 3.553829193115234375e-01
2.780000000000000000e+03 3.886639022827148438e+01 9.479336738586425781e+00 4.308000579476356506e-02 8.071180343627929688e+00 2.434278011322021484e+00 4.353083968162536621e-01
2.781000000000000000e+03 3.288388061523437500e+01 1.370974159240722656e+01 -2.544557452201843262e-01 7.386846542358398438e+00 2.139717340469360352e+00 -2.419060170650482178e-01
2.782000000000000000e+03 3.249126052856445312e+01 1.173102760314941406e+01 -1.972142457962036133e-01 7.604625225067138672e+00 2.222223281860351562e+00 -3.351728022098541260e-01
2.783000000000000000e+03 3.755583953857421875e+01 1.332104015350341797e+01 -2.311644256114959717e-01 7.735669136047363281e+00 2.251351356506347656e+00 2.131427824497222900e-01
2.784000000000000000e+03 5.135787963867187500e+01 6.232279777526855469e+00 4.578166306018829346e-01 7.703917026519775391e+00 2.448520183563232422e+00 6.299256086349487305e-01
2.785000000000000000e+03 5.253270339965820312e+01 2.319123268127441406e+00 6.783422827720642090e-01 7.616393566131591797e+00 2.488420724868774414e+00 5.045629739761352539e-01
2.786000000000000000e+03 5.518231964111328125e+01 1.831125617027282715e+00 5.998699665069580078e-01 7.580759525299072266e+00 2.454188823699951172e+00 4.384651482105255127e-01
2.787000000000000000e+03 5.363083267211914062e+01 -3.189354419708251953e+00 8.494039177894592285e-01 7.527114391326904297e+00 2.512955427169799805e+00 1.966329813003540039e-01
2.788000000000000000e+03 3.580623245239257812e+01 -1.541866683959960938e+01 7.162282466888427734e-01 8.850492477416992188e+00 2.870016336441040039e+00 -9.276651740074157715e-01
2.789000000000000000e+03 5.566526794433593750e+01 -5.646730661392211914e-01 6.491353511810302734e-01 7.544282436370849609e+00 2.458025217056274414e+00 3.250576555728912354e-01
2.790000000000000000e+03 5.227149200439453125e+01 8.037354469299316406e+00 3.378345072269439697e-01 7.713168621063232422e+00 2.415300846099853516e+00 6.410902142524719238e-01
2.791000000000000000e+03 5.227161407470703125e+01 -6.897803783416748047e+00 9.597977399826049805e-01 7.530222892761230469e+00 2.547006130218505859e+00 -3.882471844553947449e-02
2.792000000000000000e+03 5.338662338256835938e+01 -8.556546211242675781e+00 8.458172082901000977e-01 7.535256385803222656e+00 2.514322042465209961e+00 -1.541188955307006836e-01
2.793000000000000000e+03 5.682329940795898438e+01 -1.158753490447998047e+01 5.710938572883605957e-01 7.553448200225830078e+00 2.437362670898437500e+00 -2.549858689308166504e-01
2.794000000000000000e+03 5.911326217651367188e+01 -1.118935108184814453e+01 4.807095527648925781e-01 7.536087989807128906e+00 2.405039310455322266e+00 -2.082730829715728760e-01
2.795000000000000000e+03 5.249089050292968750e+01 -1.757724642753601074e+00 8.754997253417968750e-01 7.551914215087890625e+00 2.528224229812622070e+00 3.022640645503997803e-01
2.796000000000000000e+03 3.451638412475585938e+01 -5.868685245513916016e+00 3.635112047195434570e+00 8.832058906555175781e+00 3.740151166915893555e+00 2.930780947208404541e-01
2.797000000000000000e+03 3.263580322265625000e+01 -1.786958813667297363e+00 1.889549374580383301e+00 9.966320991516113281e+00 3.556761264801025391e+00 1.016088604927062988e+00
2.798000000000000000e+03 3.144640350341796875e+01 -3.964952468872070312e+00 3.464074373245239258e+00 1.056719970703125000e+01 4.209382534027099609e+00 1.298798203468322754e+00
2.799000000000000000e+03 3.380762100219726562e+01 -7.464944362640380859e+00 3.915883779525756836e+00 8.998092651367187500e+00 3.874193191528320312e+00 -3.256287276744842529e-01
2.800000000000000000e+03 3.396388244628906250e+01 -1.261732482910156250e+01 1.578255176544189453e+00 9.349583625793457031e+00 3.278351545333862305e+00 -1.104145169258117676e+00
2.801000000000000000e+03 3.499686050415039062e+01 -1.034562492370605469e+01 2.623178243637084961e+00 8.912379264831542969e+00 3.460667133331298828e+00 -1.011171221733093262e+00
2.802000000000000000e+03 3.360726165771484375e+01 -7.913455963134765625e+00 3.908899545669555664e+00 9.094350814819335938e+00 3.900975227355957031e+00 -5.189995169639587402e-01
2.803000000000000000e+03 3.293508148193359375e+01 -5.291438579559326172e+00 4.020084857940673828e+00 9.436580657958984375e+00 4.036999702453613281e+00 6.855421662330627441e-01
2.804000000000000000e+03 3.403615951538085938e+01 -6.959449768066406250e+00 3.894892692565917969e+00 8.912875175476074219e+00 3.842330217361450195e+00 -1.189832538366317749e-01
2.805000000000000000e+03 3.136698150634765625e+01 -2.101161003112792969e+00 1.868193387985229492e+00 1.066720581054687500e+01 3.760619640350341797e+00 1.029242992401123047e+00
2.806000000000000000e+03 3.179676628112792969e+01 -2.844907999038696289e+00 2.525707483291625977e+00 1.044543838500976562e+01 3.891343832015991211e+00 1.188444495201110840e+00
2.807000000000000000e+03 3.251183319091796875e+01 -2.672878265380859375e+00 2.435435771942138672e+00 1.000937557220458984e+01 3.733443498611450195e+00 1.123459815979003906e+00
2.808000000000000000e+03 3.415942001342773438e+01 -1.343691635131835938e+01 1.229302167892456055e+00 9.275595664978027344e+00 3.151469469070434570e+00 -1.036387681961059570e+00
2.809000000000000000e+03 3.249462890625000000e+01 -3.346689462661743164e+00 2.909043788909912109e+00 9.969783782958984375e+00 3.863648176193237305e+00 1.147911548614501953e+00
2.810000000000000000e+03 3.214720535278320312e+01 -3.116579294204711914e+00 2.754709482192993164e+00 1.020086383819580078e+01 3.886672019958496094e+00 1.182174801826477051e+00
2.811000000000000000e+03 3.500067520141601562e+01 -1.263822793960571289e+00 1.843314528465270996e+00 9.144469261169433594e+00 3.296334981918334961e+00 9.428824186325073242e-01
2.812000000000000000e+03 3.278732681274414062e+01 -3.006151914596557617e+00 2.664734840393066406e+00 9.839156150817871094e+00 3.751167297363281250e+00 1.114357233047485352e+00
2.813000000000000000e+03 3.544910049438476562e+01 -1.423051166534423828e+01 1.049814343452453613e+00 8.951433181762695312e+00 3.000374317169189453e+00 -1.007554292678833008e+00
2.814000000000000000e+03 3.373216247558593750e+01 -1.122314834594726562e+01 2.284129619598388672e+00 9.386723518371582031e+00 3.501255750656127930e+00 -1.169515848159790039e+00
2.815000000000000000e+03 3.481666564941406250e+01 6.515190601348876953e-01 1.146499872207641602e+00 9.174540519714355469e+00 3.096312046051025391e+00 7.862696647644042969e-01
2.816000000000000000e+03 3.538124847412109375e+01 -2.927660346031188965e-01 1.511852025985717773e+00 9.025466918945312500e+00 3.161195755004882812e+00 8.775931000709533691e-01
2.817000000000000000e+03 3.492596054077148438e+01 1.687423229217529297e+00 8.531187772750854492e-01 9.070262908935546875e+00 2.977014541625976562e+00 6.645334362983703613e-01
2.818000000000000000e+03 3.592555999755859375e+01 1.578023910522460938e+00 9.771564006805419922e-01 8.864171981811523438e+00 2.952398300170898438e+00 7.316898703575134277e-01
2.819000000000000000e+03 3.627207946777343750e+01 -1.850004577636718750e+01 1.212434284389019012e-02 8.587803840637207031e+00 2.579978466033935547e+00 -6.797961592674255371e-01
2.820000000000000000e+03 3.749645614624023438e+01 -1.663794898986816406e+01 5.251498222351074219e-01 8.577694892883300781e+00 2.730853319168090820e+00 -8.950695991516113281e-01
2.821000000000000000e+03 3.540725326538085938e+01 -9.246364593505859375e+00 2.960991144180297852e+00 8.691954612731933594e+00 3.495883703231811523e+00 -7.730816006660461426e-01
2.822000000000000000e+03 5.199501800537109375e+01 -9.273459434509277344e+00 9.236713051795959473e-01 7.552685260772705078e+00 2.542906999588012695e+00 -2.059645056724548340e-01
2.823000000000000000e+03 4.116498565673828125e+01 -1.920364570617675781e+01 1.909378618001937866e-01 8.233019828796386719e+00 2.527187108993530273e+00 -8.126055598258972168e-01
2.824000000000000000e+03 3.967533874511718750e+01 -1.777311897277832031e+01 3.641702234745025635e-01 8.336778640747070312e+00 2.610284566879272461e+00 -8.580597043037414551e-01
2.825000000000000000e+03 5.303842163085937500e+01 6.301036477088928223e-01 7.319183945655822754e-01 7.583981037139892578e+00 2.494769811630249023e+00 4.229723215103149414e-01
2.826000000000000000e+03 3.926733398437500000e+01 1.443918800354003906e+01 -2.537798881530761719e-01 7.712583065032958984e+00 2.237641096115112305e+00 3.118504881858825684e-01
2.827000000000000000e+03 4.208388137817382812e+01 7.791769504547119141e+00 3.218097090721130371e-01 8.026254653930664062e+00 2.504419326782226562e+00 6.396477818489074707e-01
2.828000000000000000e+03 4.380262374877929688e+01 7.158439636230468750e+00 4.151069819927215576e-01 7.960913658142089844e+00 2.512806177139282227e+00 6.872188448905944824e-01
2.829000000000000000e+03 5.362989044189453125e+01 -7.769594192504882812e-01 7.734976410865783691e-01 7.556309223175048828e+00 2.498941898345947266e+00 3.401692509651184082e-01
2.830000000000000000e+03 5.002492904663085938e+01 -5.543438911437988281e+00 1.123911976814270020e+00 7.550094604492187500e+00 2.602201938629150391e+00 5.680533871054649353e-02
2.831000000000000000e+03 5.461085128784179688e+01 -1.185660839080810547e+01 6.637052893638610840e-01 7.575391769409179688e+00 2.471729040145874023e+00 -3.130996823310852051e-01
2.832000000000000000e+03 5.542979049682617188e+01 -1.049748992919921875e+01 6.731266975402832031e-01 7.548126697540283203e+00 2.466376066207885742e+00 -2.254113852977752686e-01
2.833000000000000000e+03 5.650186538696289062e+01 9.395703673362731934e-01 5.713062286376953125e-01 7.558569431304931641e+00 2.438962697982788086e+00 3.782036602497100830e-01
2.834000000000000000e+03 5.470831298828125000e+01 -1.948365688323974609e+00 7.596639394760131836e-01 7.529690265655517578e+00 2.486806154251098633e+00 2.658638656139373779e-01
2.835000000000000000e+03 3.733051681518554688e+01 2.315718650817871094e+00 9.014474749565124512e-01 8.600113868713378906e+00 2.850468158721923828e+00 7.206161022186279297e-01
2.836000000000000000e+03 5.619647216796875000e+01 1.102476978302001953e+01 1.552880406379699707e-01 7.712376594543457031e+00 2.360299348831176758e+00 6.167836189270019531e-01
2.837000000000000000e+03 3.972063064575195312e+01 7.543062210083007812e+00 2.502266466617584229e-01 8.137804985046386719e+00 2.516409635543823242e+00 5.570397377014160156e-01
2.838000000000000000e+03 8.878999710083007812e+00 3.846977996826171875e+01 -1.509084999561309814e-01 1.609559655189514160e+00 4.375953376293182373e-01 -1.317973881959915161e-01
2.839000000000000000e+03 3.422624969482421875e+01 -6.423142433166503906e+00 3.823187828063964844e+00 8.878061294555664062e+00 3.810374736785888672e+00 9.810381382703781128e-02
2.840000000000000000e+03 3.372327804565429688e+01 -6.255493164062500000e+00 4.008992671966552734e+00 9.011936187744140625e+00 3.906278848648071289e+00 1.739286780357360840e-01
2.841000000000000000e+03 3.534434890747070312e+01 -2.475664615631103516e+00 2.327337503433227539e+00 8.942344665527343750e+00 3.380904674530029297e+00 8.908206820487976074e-01
2.842000000000000000e+03 3.445142745971679688e+01 -8.729744911193847656e+00 3.377730369567871094e+00 8.905494689941406250e+00 3.684967517852783203e+00 -7.358500957489013672e-01
2.843000000000000000e+03 3.270213317871093750e+01 -4.430756568908691406e+00 3.621673822402954102e+00 9.663217544555664062e+00 3.985467433929443359e+00 9.720855355262756348e-01
2.844000000000000000e+03 3.313965988159179688e+01 -4.714185714721679688e+00 3.674223423004150391e+00 9.424701690673828125e+00 3.929677486419677734e+00 8.246766328811645508e-01
2.845000000000000000e+03 3.149997520446777344e+01 -2.529862880706787109e+00 2.261877059936523438e+00 1.063084888458251953e+01 3.867817640304565430e+00 1.158298015594482422e+00
2.846000000000000000e+03 3.401157760620117188e+01 -8.123978614807128906e+00 3.710720062255859375e+00 8.967102050781250000e+00 3.803346633911132812e+00 -5.620066523551940918e-01
2.847000000000000000e+03 3.465883255004882812e+01 -6.608995437622070312e+00 3.696790695190429688e+00 8.758042335510253906e+00 3.736449718475341797e+00 2.696162462234497070e-02
2.848000000000000000e+03 3.405483245849609375e+01 -9.739280939102172852e-01 1.665703654289245605e+00 9.413517951965332031e+00 3.323766469955444336e+00 9.319208264350891113e-01
2.849000000000000000e+03 3.287405014038085938e+01 -3.912583112716674805e+00 3.304088354110717773e+00 9.663757324218750000e+00 3.890353679656982422e+00 1.045622587203979492e+00
2.850000000000000000e+03 3.610491180419921875e+01 -1.087943840026855469e+01 2.261373758316040039e+00 8.664992332458496094e+00 3.277909755706787109e+00 -9.614724516868591309e-01
2.851000000000000000e+03 3.448478698730468750e+01 -9.387166976928710938e+00 3.120280027389526367e+00 8.960792541503906250e+00 3.624321937561035156e+00 -8.952632546424865723e-01
2.852000000000000000e+03 3.448428344726562500e+01 -1.113806819915771484e+01 2.328510046005249023e+00 9.137759208679199219e+00 3.439880847930908203e+00 -1.122012615203857422e+00
2.853000000000000000e+03 3.509302520751953125e+01 -1.326833248138427734e+01 1.371809601783752441e+00 9.035669326782226562e+00 3.122243881225585938e+00 -1.065688848495483398e+00
2.854000000000000000e+03 3.697023391723632812e+01 -1.513788318634033203e+01 8.614513278007507324e-01 8.669910430908203125e+00 2.859408378601074219e+00 -9.729530215263366699e-01
2.855000000000000000e+03 3.806938934326171875e+01 -1.848680496215820312e+01 1.587835103273391724e-01 8.448181152343750000e+00 2.582089424133300781e+00 -7.926524281501770020e-01
2.856000000000000000e+03 3.646748733520507812e+01 -1.390462398529052734e+01 1.219444394111633301e+00 8.757144927978515625e+00 2.992976665496826172e+00 -1.022620201110839844e+00
2.857000000000000000e+03 3.682814025878906250e+01 1.325455188751220703e+00 1.100406527519226074e+00 8.715488433837890625e+00 2.944768428802490234e+00 7.752868533134460449e-01
2.858000000000000000e+03 3.919178009033203125e+01 2.645831823348999023e+00 9.266118407249450684e-01 8.340674400329589844e+00 2.780185699462890625e+00 7.398735284805297852e-01
2.859000000000000000e+03 5.328622817993164062e+01 -1.294194698333740234e+01 6.751770973205566406e-01 7.612068653106689453e+00 2.486173629760742188e+00 -3.949106633663177490e-01
2.860000000000000000e+03 5.253673553466796875e+01 -4.354366779327392578e+00 9.269788265228271484e-01 7.528084754943847656e+00 2.536519050598144531e+00 1.308138370513916016e-01
2.861000000000000000e+03 5.097762298583984375e+01 1.570586323738098145e+00 7.915908694267272949e-01 7.631717681884765625e+00 2.526992559432983398e+00 5.045531392097473145e-01
2.862000000000000000e+03 5.161492919921875000e+01 -1.171018183231353760e-01 8.473445773124694824e-01 7.592573642730712891e+00 2.531975507736206055e+00 4.107782840728759766e-01
2.863000000000000000e+03 4.514998245239257812e+01 4.173264980316162109e+00 7.296456098556518555e-01 7.864677429199218750e+00 2.578296899795532227e+00 6.759758591651916504e-01
2.864000000000000000e+03 5.583420181274414062e+01 -1.308880519866943359e+01 5.654845833778381348e-01 7.587943553924560547e+00 2.446028470993041992e+00 -3.470799028873443604e-01
2.865000000000000000e+03 4.913093566894531250e+01 5.287874221801757812e+00 5.745894908905029297e-01 7.733846664428710938e+00 2.492530822753906250e+00 6.444995403289794922e-01
2.866000000000000000e+03 4.177795028686523438e+01 1.287181186676025391e+01 -1.129458546638488770e-01 7.833451747894287109e+00 2.316151857376098633e+00 4.838052690029144287e-01
2.867000000000000000e+03 4.384769058227539062e+01 9.149603843688964844e+00 2.169833183288574219e-01 7.917773723602294922e+00 2.440427064895629883e+00 6.333080530166625977e-01
2.868000000000000000e+03 5.110979843139648438e+01 -7.975669860839843750e+00 1.014177322387695312e+00 7.549346923828125000e+00 2.569057226181030273e+00 -1.240783557295799255e-01
2.869000000000000000e+03 4.915905761718750000e+01 -8.931714057922363281e+00 1.142046093940734863e+00 7.585912704467773438e+00 2.618387699127197266e+00 -2.256689965724945068e-01
2.870000000000000000e+03 6.431069946289062500e+01 -2.481564331054687500e+01 -3.121551871299743652e-02 7.719627380371093750e+00 2.306523561477661133e+00 -3.675351440906524658e-01
2.871000000000000000e+03 5.419645309448242188e+01 1.216935253143310547e+01 1.013545319437980652e-01 7.736045360565185547e+00 2.351219892501831055e+00 6.382625699043273926e-01
2.872000000000000000e+03 3.192283439636230469e+01 -2.444679260253906250e+01 -8.380095958709716797e-01 7.604589939117431641e+00 2.029974222183227539e+00 2.217632979154586792e-01
2.873000000000000000e+03 2.432690238952636719e+01 2.437189865112304688e+01 -4.905757308006286621e-01 5.329814434051513672e+00 1.451771616935729980e+00 -4.811741411685943604e-01
2.874000000000000000e+03 2.504603958129882812e+01 2.268958282470703125e+01 -4.159318208694458008e-01 5.601071834564208984e+00 1.555541992187500000e+00 -4.944151639938354492e-01
2.875000000000000000e+03 3.393121719360351562e+01 -5.680685997009277344e+00 3.795007705688476562e+00 9.004402160644531250e+00 3.839823007583618164e+00 4.165771603584289551e-01
2.876000000000000000e+03 3.382131195068359375e+01 -2.442593097686767578e+00 2.358241796493530273e+00 9.462045669555664062e+00 3.546086311340332031e+00 1.031664490699768066e+00
2.877000000000000000e+03 3.425934219360351562e+01 -1.570237755775451660e+00 1.956060886383056641e+00 9.356027603149414062e+00 3.393626689910888672e+00 9.844592809677124023e-01
2.878000000000000000e+03 3.498383712768554688e+01 -8.011362075805664062e+00 3.414187669754028320e+00 8.713457107543945312e+00 3.638293504714965820e+00 -4.808663427829742432e-01
2.879000000000000000e+03 3.496244049072265625e+01 -6.874531269073486328e+00 3.529894113540649414e+00 8.674885749816894531e+00 3.661434173583984375e+00 -7.887538522481918335e-02
2.880000000000000000e+03 3.425265502929687500e+01 -7.760189533233642578e+00 3.692182064056396484e+00 8.875515937805175781e+00 3.770309448242187500e+00 -4.148555994033813477e-01
2.881000000000000000e+03 3.454353332519531250e+01 -7.041395187377929688e+00 3.692800283432006836e+00 8.798357009887695312e+00 3.747347116470336914e+00 -1.550277173519134521e-01
2.882000000000000000e+03 3.672581481933593750e+01 -2.865035295486450195e+00 2.338910579681396484e+00 8.562425613403320312e+00 3.270401000976562500e+00 7.429096698760986328e-01
2.883000000000000000e+03 3.471186828613281250e+01 -7.511111736297607422e+00 3.598947763442993164e+00 8.762357711791992188e+00 3.708391666412353516e+00 -3.156668841838836670e-01
2.884000000000000000e+03 3.497652816772460938e+01 -6.206903934478759766e+00 3.513279199600219727e+00 8.695561408996582031e+00 3.662652015686035156e+00 1.362575739622116089e-01
2.885000000000000000e+03 3.343431472778320312e+01 -3.256796836853027344e+00 2.829103708267211914e+00 9.525699615478515625e+00 3.706440925598144531e+00 1.047768235206604004e+00
2.886000000000000000e+03 3.532595825195312500e+01 -1.163568115234375000e+01 2.079963684082031250e+00 8.922989845275878906e+00 3.300886154174804688e+00 -1.075289368629455566e+00
2.887000000000000000e+03 3.523553848266601562e+01 -1.099203777313232422e+01 2.331347465515136719e+00 8.912451744079589844e+00 3.373139858245849609e+00 -1.060889720916748047e+00
2.888000000000000000e+03 3.688373565673828125e+01 -1.464610576629638672e+00 1.890530347824096680e+00 8.623176574707031250e+00 3.154112100601196289e+00 8.277848362922668457e-01
2.889000000000000000e+03 3.766863632202148438e+01 -1.167278385162353516e+01 1.889210224151611328e+00 8.436289787292480469e+00 3.097650051116943359e+00 -9.193398952484130859e-01
2.890000000000000000e+03 3.807000732421875000e+01 -1.465414428710937500e+01 1.025291323661804199e+00 8.505634307861328125e+00 2.859277486801147461e+00 -9.729201197624206543e-01
2.891000000000000000e+03 3.665029144287109375e+01 4.151155948638916016e-01 1.341143965721130371e+00 8.753275871276855469e+00 3.028325796127319336e+00 8.157668709754943848e-01
2.892000000000000000e+03 3.829890823364257812e+01 1.578473567962646484e+00 1.126742839813232422e+00 8.469350814819335938e+00 2.878828048706054688e+00 7.787184119224548340e-01
2.893000000000000000e+03 4.937503051757812500e+01 -3.383874177932739258e+00 1.120710492134094238e+00 7.574029445648193359e+00 2.608422040939331055e+00 2.265427559614181519e-01
2.894000000000000000e+03 5.142076492309570312e+01 -2.981834173202514648e+00 9.833671450614929199e-01 7.552596569061279297e+00 2.560789108276367188e+00 2.384767532348632812e-01
2.895000000000000000e+03 4.132597351074218750e+01 2.034520864486694336e+00 1.054361581802368164e+00 8.113043785095214844e+00 2.750221490859985352e+00 7.285190820693969727e-01
2.896000000000000000e+03 5.199316024780273438e+01 -1.439334106445312500e+01 6.390906572341918945e-01 7.666882991790771484e+00 2.491791963577270508e+00 -4.872680008411407471e-01
2.897000000000000000e+03 4.176410293579101562e+01 5.239109039306640625e+00 5.776747465133666992e-01 8.081122398376464844e+00 2.597639083862304688e+00 6.965354681015014648e-01
2.898000000000000000e+03 4.369368362426757812e+01 1.104815959930419922e+01 6.481996923685073853e-02 7.871609687805175781e+00 2.380928993225097656e+00 6.004636883735656738e-01
2.899000000000000000e+03 5.053736877441406250e+01 -4.234312057495117188e+00 1.071877837181091309e+00 7.551873207092285156e+00 2.587125301361083984e+00 1.641018837690353394e-01
2.900000000000000000e+03 4.880696868896484375e+01 2.611232280731201172e+00 7.923620939254760742e-01 7.701659202575683594e+00 2.548206567764282227e+00 5.740588307380676270e-01
2.901000000000000000e+03 3.992705154418945312e+01 -1.526090621948242188e+01 8.848795890808105469e-01 8.279517173767089844e+00 2.749318838119506836e+00 -9.209020137786865234e-01
2.902000000000000000e+03 4.087740325927734375e+01 -1.655041122436523438e+01 6.471520066261291504e-01 8.219809532165527344e+00 2.660088539123535156e+00 -8.856788873672485352e-01
2.903000000000000000e+03 5.468191146850585938e+01 -1.449633216857910156e+01 5.263270139694213867e-01 7.633796215057373047e+00 2.448036909103393555e+00 -4.313985705375671387e-01
2.904000000000000000e+03 4.953494644165039062e+01 -7.153985977172851562e+00 1.158311009407043457e+00 7.559667110443115234e+00 2.615393400192260742e+00 -7.225005328655242920e-02
2.905000000000000000e+03 4.216888046264648438e+01 1.096994972229003906e+01 3.337639570236206055e-02 7.923012256622314453e+00 2.386916637420654297e+00 5.541751980781555176e-01
2.906000000000000000e+03 5.320795440673828125e+01 1.004678440093994141e+01 2.155944257974624634e-01 7.723240375518798828e+00 2.381650447845458984e+00 6.453394889831542969e-01
2.907000000000000000e+03 4.925123596191406250e+01 1.179489898681640625e+01 9.403132647275924683e-02 7.778083324432373047e+00 2.361634492874145508e+00 6.598773598670959473e-01
2.908000000000000000e+03 3.371572113037109375e+01 -4.441244125366210938e+00 3.399458646774291992e+00 9.246342658996582031e+00 3.793740510940551758e+00 8.215001225471496582e-01
2.909000000000000000e+03 3.444923019409179688e+01 -8.184622764587402344e+00 3.541954755783081055e+00 8.851977348327636719e+00 3.718179702758789062e+00 -5.539943575859069824e-01
2.910000000000000000e+03 3.574306106567382812e+01 -1.000843715667724609e+01 2.647978544235229492e+00 8.681546211242675781e+00 3.398857593536376953e+00 -8.728865981101989746e-01
2.911000000000000000e+03 3.519826507568359375e+01 -8.580047607421875000e+00 3.215620279312133789e+00 8.689424514770507812e+00 3.571513652801513672e+00 -6.247879862785339355e-01
2.912000000000000000e+03 3.325170898437500000e+01 -2.731711149215698242e+00 2.512453794479370117e+00 9.664213180541992188e+00 3.653000116348266602e+00 1.084348559379577637e+00
2.913000000000000000e+03 3.518927001953125000e+01 -1.860100150108337402e+00 2.080787897109985352e+00 9.043206214904785156e+00 3.337198257446289062e+00 9.250249266624450684e-01
2.914000000000000000e+03 3.606282806396484375e+01 -1.170977878570556641e+01 1.988542318344116211e+00 8.731079101562500000e+00 3.215886354446411133e+00 -1.021677613258361816e+00
2.915000000000000000e+03 3.678797912597656250e+01 -1.234299850463867188e+01 1.744520306587219238e+00 8.630450248718261719e+00 3.112491130828857422e+00 -1.010977745056152344e+00
2.916000000000000000e+03 3.682194900512695312e+01 -2.215742111206054688e+00 2.154018878936767578e+00 8.592465400695800781e+00 3.223945379257202148e+00 7.914298772811889648e-01
2.917000000000000000e+03 3.743515014648437500e+01 -1.340698623657226562e+01 1.379186391830444336e+00 8.560044288635253906e+00 2.981769323348999023e+00 -1.000859498977661133e+00
2.918000000000000000e+03 3.605531692504882812e+01 -2.269548654556274414e+00 2.226597070693969727e+00 8.758344650268554688e+00 3.295482635498046875e+00 8.419008255004882812e-01
2.919000000000000000e+03 3.581725311279296875e+01 -8.617196679115295410e-01 1.704216003417968750e+00 8.918850898742675781e+00 3.186919927597045898e+00 8.906210660934448242e-01
2.920000000000000000e+03 3.912484741210937500e+01 -1.398307991027832031e+01 1.193330883979797363e+00 8.339526176452636719e+00 2.859857082366943359e+00 -9.361902475357055664e-01
2.921000000000000000e+03 3.459960937500000000e+01 -1.177666664123535156e+01 2.009721517562866211e+00 9.138525009155273438e+00 3.344474077224731445e+00 -1.115346074104309082e+00
2.922000000000000000e+03 3.553823852539062500e+01 -1.222480392456054688e+01 1.769953131675720215e+00 8.897439002990722656e+00 3.200217723846435547e+00 -1.068028211593627930e+00
2.923000000000000000e+03 3.750774765014648438e+01 7.713477015495300293e-01 1.280125021934509277e+00 8.580622673034667969e+00 2.958224296569824219e+00 8.027715086936950684e-01
2.924000000000000000e+03 3.877174377441406250e+01 -1.609222030639648438e+01 6.909048557281494141e-01 8.433312416076660156e+00 2.737265110015869141e+00 -9.279851317405700684e-01
2.925000000000000000e+03 5.349304580688476562e+01 -1.597404003143310547e+01 4.745114147663116455e-01 7.682958126068115234e+00 2.447240829467773438e+00 -4.998510777950286865e-01
2.926000000000000000e+03 5.377537155151367188e+01 -1.893978881835937500e+01 2.664516866207122803e-01 7.757988452911376953e+00 2.407331943511962891e+00 -5.641951560974121094e-01
2.927000000000000000e+03 5.023633575439453125e+01 -6.450228691101074219e-01 9.609779715538024902e-01 7.600846767425537109e+00 2.568547487258911133e+00 4.025923013687133789e-01
2.928000000000000000e+03 4.732853698730468750e+01 -3.723685026168823242e+00 1.302865266799926758e+00 7.615641593933105469e+00 2.675552129745483398e+00 2.281146198511123657e-01
2.929000000000000000e+03 4.861808013916015625e+01 -4.751244068145751953e+00 1.219411849975585938e+00 7.575670719146728516e+00 2.638524770736694336e+00 1.257307380437850952e-01
2.930000000000000000e+03 4.355329513549804688e+01 1.302721405029296875e+01 -8.043634891510009766e-02 7.820214271545410156e+00 2.321933507919311523e+00 5.505366921424865723e-01
2.931000000000000000e+03 4.272302246093750000e+01 -2.202587699890136719e+01 -1.171917766332626343e-01 8.127388000488281250e+00 2.403059005737304688e+00 -7.139812111854553223e-01
2.932000000000000000e+03 4.515343856811523438e+01 -1.854438591003417969e+01 3.582067787647247314e-01 8.001030921936035156e+00 2.507771253585815430e+00 -7.810118198394775391e-01
2.933000000000000000e+03 4.813427352905273438e+01 4.186810016632080078e+00 7.004044651985168457e-01 7.750130176544189453e+00 2.535160303115844727e+00 6.334825754165649414e-01
2.934000000000000000e+03 4.344743728637695312e+01 5.068798065185546875e+00 6.377179622650146484e-01 7.986145973205566406e+00 2.587159156799316406e+00 7.089866995811462402e-01
2.935000000000000000e+03 5.876580047607421875e+01 1.556137180328369141e+01 -2.091943100094795227e-02 7.763053894042968750e+00 2.322640419006347656e+00 5.828644037246704102e-01
2.936000000000000000e+03 6.778803253173828125e+01 -2.933263397216796875e+01 -8.578516542911529541e-02 7.744849205017089844e+00 2.297719240188598633e+00 -2.682646811008453369e-01
2.937000000000000000e+03 3.353737640380859375e+01 -3.839157104492187500e+00 3.160202026367187500e+00 9.393073081970214844e+00 3.765982389450073242e+00 9.535108804702758789e-01
2.938000000000000000e+03 3.500317764282226562e+01 -5.384954929351806641e+00 3.383600711822509766e+00 8.753151893615722656e+00 3.641025543212890625e+00 4.241688251495361328e-01
2.939000000000000000e+03 3.465761184692382812e+01 -4.825470447540283203e+00 3.345623731613159180e+00 8.885052680969238281e+00 3.669202804565429688e+00 6.016802191734313965e-01
2.940000000000000000e+03 3.442085647583007812e+01 -4.205996990203857422e+00 3.164903402328491211e+00 9.031606674194335938e+00 3.658953189849853516e+00 7.699717283248901367e-01
2.941000000000000000e+03 3.543416976928710938e+01 -5.841804981231689453e+00 3.315704345703125000e+00 8.611919403076171875e+00 3.578287124633789062e+00 2.269423604011535645e-01
2.942000000000000000e+03 3.523554229736328125e+01 -7.246715068817138672e+00 3.406625509262084961e+00 8.622483253479003906e+00 3.608732700347900391e+00 -2.085844129323959351e-01
2.943000000000000000e+03 3.591851806640625000e+01 -8.234539985656738281e+00 3.102029323577880859e+00 8.510143280029296875e+00 3.483651876449584961e+00 -4.908378720283508301e-01
2.944000000000000000e+03 3.291120910644531250e+01 -3.401910066604614258e+00 2.942358255386352539e+00 9.736263275146484375e+00 3.803586483001708984e+00 1.102501988410949707e+00
2.945000000000000000e+03 3.421504592895507812e+01 -3.607373476028442383e+00 2.924662590026855469e+00 9.172529220581054688e+00 3.629157543182373047e+00 8.956639170646667480e-01
2.946000000000000000e+03 3.403088760375976562e+01 -3.017157316207885742e+00 2.666043996810913086e+00 9.321546554565429688e+00 3.596277236938476562e+00 9.973641037940979004e-01
2.947000000000000000e+03 3.510997390747070312e+01 -3.932070732116699219e+00 2.912900686264038086e+00 8.856075286865234375e+00 3.530692815780639648e+00 7.340207695960998535e-01
2.948000000000000000e+03 3.447057723999023438e+01 -2.150581598281860352e+00 2.223237752914428711e+00 9.257038116455078125e+00 3.444082736968994141e+00 9.858970642089843750e-01
2.949000000000000000e+03 3.671715927124023438e+01 -3.796885728836059570e+00 2.611641407012939453e+00 8.505867004394531250e+00 3.335252523422241211e+00 6.268340945243835449e-01
2.950000000000000000e+03 3.537591171264648438e+01 -4.504818439483642578e+00 3.077239751815795898e+00 8.723987579345703125e+00 3.540368318557739258e+00 5.949697494506835938e-01
2.951000000000000000e+03 3.799594879150390625e+01 -1.749655157327651978e-01 1.524381995201110840e+00 8.476283073425292969e+00 3.000199556350708008e+00 7.949507832527160645e-01
2.952000000000000000e+03 3.684636688232421875e+01 -5.619591474533081055e-01 1.638571858406066895e+00 8.683873176574707031e+00 3.096733331680297852e+00 8.438013792037963867e-01
2.953000000000000000e+03 3.839048767089843750e+01 -1.278716564178466797e+01 1.522617340087890625e+00 8.385357856750488281e+00 2.972392559051513672e+00 -9.413627982139587402e-01
2.954000000000000000e+03 3.864929962158203125e+01 -1.102833175659179688e+01 1.974743604660034180e+00 8.244183540344238281e+00 3.065678119659423828e+00 -7.960932254791259766e-01
2.955000000000000000e+03 3.907096862792968750e+01 5.524117946624755859e-01 1.336138129234313965e+00 8.330554962158203125e+00 2.900007963180541992e+00 7.653826475143432617e-01
2.956000000000000000e+03 4.387778472900390625e+01 -1.684436035156250000e+01 6.071581840515136719e-01 8.023062705993652344e+00 2.589066267013549805e+00 -8.070808053016662598e-01
2.957000000000000000e+03 4.810631561279296875e+01 1.075160130858421326e-01 1.034695863723754883e+00 7.668679237365722656e+00 2.611012458801269531e+00 4.880881309509277344e-01
2.958000000000000000e+03 4.767692184448242188e+01 -8.897626876831054688e+00 1.255161404609680176e+00 7.615314006805419922e+00 2.661142587661743164e+00 -2.433005720376968384e-01
2.959000000000000000e+03 4.905193710327148438e+01 -1.072466754913330078e+01 1.060785055160522461e+00 7.628102779388427734e+00 2.606666326522827148e+00 -3.745240569114685059e-01
2.960000000000000000e+03 4.785357284545898438e+01 -6.233599662780761719e+00 1.310898900032043457e+00 7.584482192993164062e+00 2.668614387512207031e+00 -4.040797706693410873e-03
2.961000000000000000e+03 5.087750625610351562e+01 -1.602172279357910156e+01 5.561239123344421387e-01 7.736680030822753906e+00 2.487841129302978516e+00 -5.818845033645629883e-01
2.962000000000000000e+03 4.526180267333984375e+01 1.102056980133056641e+01 8.570197224617004395e-02 7.845540046691894531e+00 2.379372596740722656e+00 6.278712749481201172e-01
2.963000000000000000e+03 4.551361465454101562e+01 9.319484710693359375e+00 2.319475561380386353e-01 7.870282173156738281e+00 2.430668830871582031e+00 6.637755036354064941e-01
2.964000000000000000e+03 6.639127349853515625e+01 2.427955436706542969e+01 -1.107522621750831604e-01 7.940568923950195312e+00 2.348944902420043945e+00 3.936000764369964600e-01
2.965000000000000000e+03 6.141110610961914062e+01 2.301899337768554688e+01 -1.732202023267745972e-01 7.861075878143310547e+00 2.306356668472290039e+00 4.714178144931793213e-01
2.966000000000000000e+03 6.059288787841796875e+01 -2.318167304992675781e+01 1.499114837497472763e-02 7.738834857940673828e+00 2.326147794723510742e+00 -4.347473382949829102e-01
2.967000000000000000e+03 6.137477111816406250e+01 -2.645119857788085938e+01 -8.901748806238174438e-02 7.784492969512939453e+00 2.308642625808715820e+00 -4.099829792976379395e-01
2.968000000000000000e+03 2.704477310180664062e+01 -2.699692726135253906e+01 -7.821453809738159180e-01 6.232812404632568359e+00 1.635200023651123047e+00 7.426072359085083008e-01
2.969000000000000000e+03 6.613414764404296875e+01 -3.416635131835937500e+01 -1.721328645944595337e-01 7.824207782745361328e+00 2.295622587203979492e+00 -2.111095041036605835e-01
2.970000000000000000e+03 7.118017578125000000e+01 -3.356746292114257812e+01 -8.035360276699066162e-02 7.775325775146484375e+00 2.308491706848144531e+00 -1.667426824569702148e-01
2.971000000000000000e+03 3.022858810424804688e+01 2.033161354064941406e+01 -4.401764869689941406e-01 6.510489940643310547e+00 1.821094155311584473e+00 -2.904470264911651611e-01
2.972000000000000000e+03 3.563351821899414062e+01 -5.035767555236816406e+00 3.150395631790161133e+00 8.627955436706542969e+00 3.533505201339721680e+00 4.815748035907745361e-01
2.973000000000000000e+03 3.567762756347656250e+01 -6.836040019989013672e+00 3.283941030502319336e+00 8.527315139770507812e+00 3.543376922607421875e+00 -7.955078780651092529e-02
2.974000000000000000e+03 3.612096786499023438e+01 -4.222215175628662109e+00 2.807107925415039062e+00 8.579685211181640625e+00 3.416038036346435547e+00 5.818268656730651855e-01
2.975000000000000000e+03 3.665982055664062500e+01 -9.651213645935058594e+00 2.613975286483764648e+00 8.460144996643066406e+00 3.322236061096191406e+00 -7.423891425132751465e-01
2.976000000000000000e+03 3.661814117431640625e+01 -7.739717483520507812e+00 2.982851505279541016e+00 8.353284835815429688e+00 3.400840759277343750e+00 -3.248637020587921143e-01
2.977000000000000000e+03 3.467098236083984375e+01 -2.742120027542114258e+00 2.477518796920776367e+00 9.126995086669921875e+00 3.481354236602783203e+00 9.362596869468688965e-01
2.978000000000000000e+03 3.602696609497070312e+01 -5.473217487335205078e+00 3.117385864257812500e+00 8.499494552612304688e+00 3.485064029693603516e+00 3.173170983791351318e-01
2.979000000000000000e+03 3.598130035400390625e+01 -1.593853712081909180e+00 1.951146006584167480e+00 8.831955909729003906e+00 3.234930753707885742e+00 8.703170418739318848e-01
2.980000000000000000e+03 3.805483245849609375e+01 -1.004556369781494141e+01 2.271280050277709961e+00 8.256920814514160156e+00 3.158460140228271484e+00 -7.076740264892578125e-01
2.981000000000000000e+03 3.758668518066406250e+01 -1.906437754631042480e+00 1.985245347023010254e+00 8.469357490539550781e+00 3.136380910873413086e+00 7.635331153869628906e-01
2.982000000000000000e+03 4.014641571044921875e+01 1.441050529479980469e+00 1.159564971923828125e+00 8.217432022094726562e+00 2.813099145889282227e+00 7.462713718414306641e-01
2.983000000000000000e+03 3.626576995849609375e+01 -8.880496025085449219e+00 2.868777275085449219e+00 8.476177215576171875e+00 3.403486490249633789e+00 -6.188549399375915527e-01
2.984000000000000000e+03 3.709071350097656250e+01 -1.060357189178466797e+01 2.258946895599365234e+00 8.464671134948730469e+00 3.217085361480712891e+00 -8.609470129013061523e-01
2.985000000000000000e+03 4.016148757934570312e+01 -1.316953659057617188e+01 1.352189660072326660e+00 8.175059318542480469e+00 2.858174562454223633e+00 -8.681796789169311523e-01
2.986000000000000000e+03 3.936589813232421875e+01 -1.207687759399414062e+01 1.655098438262939453e+00 8.215201377868652344e+00 2.961089849472045898e+00 -8.502406477928161621e-01
2.987000000000000000e+03 4.354659271240234375e+01 -1.828996276855468750e+01 3.933241069316864014e-01 8.081028938293457031e+00 2.542305707931518555e+00 -8.184928894042968750e-01
2.988000000000000000e+03 4.769355392456054688e+01 -1.656933212280273438e+01 5.868322849273681641e-01 7.843855381011962891e+00 2.529206275939941406e+00 -6.946436762809753418e-01
2.989000000000000000e+03 4.819195175170898438e+01 -2.380495786666870117e+00 1.161287784576416016e+00 7.616753578186035156e+00 2.633412361145019531e+00 3.280277550220489502e-01
2.990000000000000000e+03 4.909720230102539062e+01 -1.244183301925659180e+00 1.066014170646667480e+00 7.611247539520263672e+00 2.603178501129150391e+00 3.855810165405273438e-01
2.991000000000000000e+03 4.713250732421875000e+01 1.864128232002258301e+00 9.165056347846984863e-01 7.745265007019042969e+00 2.598531246185302734e+00 5.886994600296020508e-01
2.992000000000000000e+03 4.861249160766601562e+01 -1.234107017517089844e+01 9.793780446052551270e-01 7.675879478454589844e+00 2.596577167510986328e+00 -4.826834201812744141e-01
2.993000000000000000e+03 5.071899414062500000e+01 -1.121225929260253906e+01 9.172417521476745605e-01 7.606239318847656250e+00 2.557044267654418945e+00 -3.595373928546905518e-01
2.994000000000000000e+03 5.508065795898437500e+01 -2.011564254760742188e+01 1.696102470159530640e-01 7.761289119720458984e+00 2.379269838333129883e+00 -5.336423516273498535e-01
2.995000000000000000e+03 5.031767272949218750e+01 -1.312947940826416016e+01 8.075976967811584473e-01 7.664310932159423828e+00 2.541572570800781250e+00 -4.810402691364288330e-01
2.996000000000000000e+03 4.514001846313476562e+01 -1.691653442382812500e+01 5.863271355628967285e-01 7.968980789184570312e+00 2.566592454910278320e+00 -7.806538343429565430e-01
2.997000000000000000e+03 2.566070175170898438e+01 -2.962759208679199219e+01 -7.513372302055358887e-01 5.660888671875000000e+00 1.472865462303161621e+00 6.860353946685791016e-01
2.998000000000000000e+03 4.542344284057617188e+01 1.290329742431640625e+01 -2.290038391947746277e-02 7.811622142791748047e+00 2.336616516113281250e+00 5.995935797691345215e-01
2.999000000000000000e+03 4.584713745117187500e+01 7.330044269561767578e+00 4.196673035621643066e-01 7.867601871490478516e+00 2.486180782318115234e+00 6.917058229446411133e-01
3.000000000000000000e+03 3.674258804321289062e+01 -6.608922958374023438e+00 2.996712446212768555e+00 8.329314231872558594e+00 3.397808074951171875e+00 -4.350836947560310364e-02
3.001000000000000000e+03 3.575556182861328125e+01 -6.325740337371826172e+00 3.270699977874755859e+00 8.521469116210937500e+00 3.537650585174560547e+00 7.477150112390518188e-02
3.002000000000000000e+03 3.707193374633789062e+01 -8.384657859802246094e+00 2.794249057769775391e+00 8.315736770629882812e+00 3.332995653152465820e+00 -4.630467593669891357e-01
3.003000000000000000e+03 3.575985717773437500e+01 -3.646054029464721680e+00 2.715947866439819336e+00 8.712243080139160156e+00 3.428457260131835938e+00 7.296414971351623535e-01
3.004000000000000000e+03 3.634077072143554688e+01 -4.893538951873779297e+00 2.941825628280639648e+00 8.486587524414062500e+00 3.428524017333984375e+00 4.406408965587615967e-01
3.005000000000000000e+03 3.611700820922851562e+01 -2.857312202453613281e+00 2.401310920715332031e+00 8.711278915405273438e+00 3.333776950836181641e+00 7.999560832977294922e-01
3.006000000000000000e+03 3.551300430297851562e+01 -3.075332641601562500e+00 2.544836997985839844e+00 8.831868171691894531e+00 3.413011550903320312e+00 8.196274638175964355e-01
3.007000000000000000e+03 3.897506713867187500e+01 -9.392680168151855469e+00 2.261594057083129883e+00 8.111003875732421875e+00 3.111779451370239258e+00 -5.576609969139099121e-01
3.008000000000000000e+03 3.754655456542968750e+01 -9.153223991394042969e+00 2.551910400390625000e+00 8.286607742309570312e+00 3.251555442810058594e+00 -5.955756902694702148e-01
3.009000000000000000e+03 3.959181976318359375e+01 -1.032000064849853516e+01 2.006729125976562500e+00 8.087350845336914062e+00 3.028223752975463867e+00 -6.548993587493896484e-01
3.010000000000000000e+03 4.102322006225585938e+01 -1.429026699066162109e+01 1.082000374794006348e+00 8.140942573547363281e+00 2.766882896423339844e+00 -8.704282641410827637e-01
3.011000000000000000e+03 4.379875564575195312e+01 -1.554273223876953125e+01 8.215832114219665527e-01 7.986004829406738281e+00 2.642276525497436523e+00 -7.969442605972290039e-01
3.012000000000000000e+03 4.645913314819335938e+01 -5.068008899688720703e+00 1.436032414436340332e+00 7.623238563537597656e+00 2.717781305313110352e+00 1.148452684283256531e-01
3.013000000000000000e+03 3.853314971923828125e+01 -1.274107456207275391e+00 1.780985116958618164e+00 8.347044944763183594e+00 3.038408994674682617e+00 7.467295527458190918e-01
3.014000000000000000e+03 4.845330047607421875e+01 9.633789062500000000e+00 2.432761341333389282e-01 7.792188167572021484e+00 2.410639286041259766e+00 6.752001047134399414e-01
3.015000000000000000e+03 4.867209625244140625e+01 -1.591551685333251953e+01 6.370415091514587402e-01 7.785493850708007812e+00 2.526760578155517578e+00 -6.427604556083679199e-01
3.016000000000000000e+03 5.075617980957031250e+01 -1.907938575744628906e+01 2.923750877380371094e-01 7.822685241699218750e+00 2.434518098831176758e+00 -6.389223933219909668e-01
3.017000000000000000e+03 3.974856948852539062e+01 -6.987158060073852539e-01 1.586967945098876953e+00 8.188938140869140625e+00 2.932771921157836914e+00 7.102165222167968750e-01
3.018000000000000000e+03 4.090358352661132812e+01 4.283436387777328491e-02 1.420599818229675293e+00 8.089050292968750000e+00 2.852895021438598633e+00 6.959173679351806641e-01
3.019000000000000000e+03 4.410258483886718750e+01 -3.010779619216918945e+00 1.554102063179016113e+00 7.748111248016357422e+00 2.790663957595825195e+00 3.596679866313934326e-01
3.020000000000000000e+03 4.193589401245117188e+01 -1.539326286315917969e+01 8.567216396331787109e-01 8.112771034240722656e+00 2.690847873687744141e+00 -8.642576336860656738e-01
3.021000000000000000e+03 4.395573425292968750e+01 -1.101405715942382812e+01 1.450110554695129395e+00 7.798573493957519531e+00 2.774605274200439453e+00 -5.411913990974426270e-01
3.022000000000000000e+03 4.664730453491210938e+01 3.721784353256225586e+00 7.772424817085266113e-01 7.802436828613281250e+00 2.573903799057006836e+00 6.524555087089538574e-01
3.023000000000000000e+03 5.368705368041992188e+01 1.779851531982421875e+01 -1.491034626960754395e-01 7.763143539428710938e+00 2.284212112426757812e+00 5.953961014747619629e-01
3.024000000000000000e+03 3.667530822753906250e+01 1.698334503173828125e+01 -3.896479010581970215e-01 7.413995265960693359e+00 2.107304334640502930e+00 1.022487804293632507e-01
3.025000000000000000e+03 5.226277923583984375e+01 -1.766993713378906250e+01 3.843264877796173096e-01 7.753281116485595703e+00 2.441282272338867188e+00 -5.801222920417785645e-01
3.026000000000000000e+03 5.761548614501953125e+01 -1.725981330871582031e+01 2.993685603141784668e-01 7.658230781555175781e+00 2.387279748916625977e+00 -4.411164224147796631e-01
3.027000000000000000e+03 5.636156845092773438e+01 -1.877274131774902344e+01 2.310505360364913940e-01 7.714653015136718750e+00 2.383711099624633789e+00 -4.975565075874328613e-01
3.028000000000000000e+03 4.991329193115234375e+01 1.399021530151367188e+01 -2.313543669879436493e-02 7.764607906341552734e+00 2.322441577911376953e+00 6.377033591270446777e-01
3.029000000000000000e+03 1.159705352783203125e+01 3.509681701660156250e+01 -2.165337949991226196e-01 2.222796916961669922e+00 6.018789410591125488e-01 -2.852662503719329834e-01
3.030000000000000000e+03 1.691456794738769531e+01 -2.606371688842773438e+01 4.021316766738891602e-02 2.631374835968017578e+00 8.014764189720153809e-01 9.122311472892761230e-01
3.031000000000000000e+03 3.631876754760742188e+01 -3.330943822860717773e+00 2.559237480163574219e+00 8.610486984252929688e+00 3.350917100906372070e+00 7.090110778808593750e-01
3.032000000000000000e+03 3.832111740112304688e+01 -4.784474372863769531e+00 2.502419233322143555e+00 8.162103652954101562e+00 3.199356794357299805e+00 3.333164751529693604e-01
3.033000000000000000e+03 3.786461639404296875e+01 -7.765945911407470703e+00 2.691443681716918945e+00 8.181831359863281250e+00 3.261982440948486328e+00 -2.995478212833404541e-01
3.034000000000000000e+03 3.615118408203125000e+01 -7.191047668457031250e+00 3.147468566894531250e+00 8.428003311157226562e+00 3.472641706466674805e+00 -1.841582804918289185e-01
3.035000000000000000e+03 4.032218551635742188e+01 -1.128395462036132812e+01 1.741850733757019043e+00 8.061483383178710938e+00 2.941000223159790039e+00 -7.267042994499206543e-01
3.036000000000000000e+03 3.841535949707031250e+01 -8.532535552978515625e+00 2.491668701171875000e+00 8.127984046936035156e+00 3.185895919799804688e+00 -4.357523024082183838e-01
3.037000000000000000e+03 4.495318984985351562e+01 -1.776159524917602539e+00 1.382057189941406250e+00 7.735602855682373047e+00 2.735298156738281250e+00 4.316898286342620850e-01
3.038000000000000000e+03 4.444229125976562500e+01 2.502002239227294922e+00 9.242569804191589355e-01 7.886224746704101562e+00 2.643144369125366211e+00 6.623982191085815430e-01
3.039000000000000000e+03 4.186391830444335938e+01 8.732103705406188965e-01 1.259083390235900879e+00 8.028584480285644531e+00 2.786300420761108398e+00 6.900959014892578125e-01
3.040000000000000000e+03 4.713012695312500000e+01 -1.159444332122802734e+01 1.129830121994018555e+00 7.692311763763427734e+00 2.646642684936523438e+00 -4.764584302902221680e-01
3.041000000000000000e+03 3.723013305664062500e+01 -3.281074047088623047e+00 2.369116067886352539e+00 8.442118644714355469e+00 3.243370294570922852e+00 6.489617824554443359e-01
3.042000000000000000e+03 3.932891464233398438e+01 -3.578488349914550781e+00 2.170773506164550781e+00 8.082841873168945312e+00 3.076084613800048828e+00 4.631146490573883057e-01
3.043000000000000000e+03 4.209304428100585938e+01 -1.327583885192871094e+01 1.246086478233337402e+00 8.006392478942871094e+00 2.775743484497070312e+00 -7.811611890792846680e-01
3.044000000000000000e+03 4.291139984130859375e+01 -1.018838596343994141e+01 1.645696997642517090e+00 7.820343494415283203e+00 2.839812278747558594e+00 -5.049410462379455566e-01
3.045000000000000000e+03 5.123403549194335938e+01 1.099193859100341797e+01 1.614381074905395508e-01 7.753344058990478516e+00 2.374434709548950195e+00 6.624701023101806641e-01
3.046000000000000000e+03 4.698606872558593750e+01 -1.185191392898559570e+00 1.187692165374755859e+00 7.673573017120361328e+00 2.658379554748535156e+00 4.386684298515319824e-01
3.047000000000000000e+03 4.645334243774414062e+01 -1.682269287109375000e+01 5.795267820358276367e-01 7.893984794616699219e+00 2.542053461074829102e+00 -7.387855052947998047e-01
3.048000000000000000e+03 4.896161651611328125e+01 -1.989295005798339844e+01 2.209980487823486328e-01 7.895467758178710938e+00 2.434939622879028320e+00 -6.902898550033569336e-01
3.049000000000000000e+03 4.767343902587890625e+01 -1.029425239562988281e+01 1.173187255859375000e+00 7.643573760986328125e+00 2.645028352737426758e+00 -3.732100725173950195e-01
3.050000000000000000e+03 4.549078369140625000e+01 -6.317605018615722656e+00 1.545954942703247070e+00 7.645838737487792969e+00 2.757538080215454102e+00 -2.716725692152976990e-03
3.051000000000000000e+03 4.312148284912109375e+01 -2.000539970397949219e+01 1.277590692043304443e-01 8.116869926452636719e+00 2.473388671875000000e+00 -7.828644514083862305e-01
3.052000000000000000e+03 4.970730590820312500e+01 7.017430782318115234e+00 4.243959784507751465e-01 7.746923446655273438e+00 2.451395988464355469e+00 6.616330742835998535e-01
3.053000000000000000e+03 4.776508712768554688e+01 5.657398700714111328e+00 5.609331727027893066e-01 7.794487476348876953e+00 2.506626367568969727e+00 6.808865666389465332e-01
3.054000000000000000e+03 4.296077728271484375e+01 3.251877069473266602e+00 8.784827589988708496e-01 7.990507602691650391e+00 2.660696983337402344e+00 7.047988176345825195e-01
3.055000000000000000e+03 4.238602066040039062e+01 -8.500030517578125000e+00 1.848304629325866699e+00 7.793802261352539062e+00 2.892632007598876953e+00 -3.039850592613220215e-01
3.056000000000000000e+03 3.330307388305664062e+01 2.167177200317382812e+01 -5.497055649757385254e-01 6.824337005615234375e+00 1.882389426231384277e+00 -7.252010703086853027e-02
3.057000000000000000e+03 3.460966873168945312e+01 1.818761444091796875e+01 -4.348776936531066895e-01 7.183324813842773438e+00 2.024534225463867188e+00 -3.034901432693004608e-02
3.058000000000000000e+03 6.300751876831054688e+01 -2.937575149536132812e+01 -1.690206527709960938e-01 7.816674709320068359e+00 2.294296264648437500e+00 -3.329664170742034912e-01
3.059000000000000000e+03 2.318581008911132812e+01 2.889941787719726562e+01 -6.044789552688598633e-01 4.943247318267822266e+00 1.301630616188049316e+00 -4.202935993671417236e-01
3.060000000000000000e+03 1.136625003814697266e+01 -3.431468963623046875e+01 -6.636711210012435913e-02 1.703705072402954102e+00 4.912013709545135498e-01 2.793132662773132324e-01
3.061000000000000000e+03 6.746128845214843750e+01 4.104911041259765625e+01 -1.717005223035812378e-01 8.113643646240234375e+00 2.382582902908325195e+00 3.229633346199989319e-02
3.062000000000000000e+03 6.732182312011718750e+01 3.516000747680664062e+01 -1.724129915237426758e-01 8.094158172607421875e+00 2.376523494720458984e+00 1.757504343986511230e-01
3.063000000000000000e+03 1.747840881347656250e+01 3.216746902465820312e+01 -4.317874312400817871e-01 3.543230056762695312e+00 9.334327578544616699e-01 -4.459418058395385742e-01
3.064000000000000000e+03 1.574787998199462891e+01 2.991148567199707031e+01 -3.133681416511535645e-01 3.154242277145385742e+00 8.522621989250183105e-01 -5.612649917602539062e-01
3.065000000000000000e+03 4.555795288085937500e+01 1.503197669982910156e+01 -1.512261480093002319e-01 7.758469104766845703e+00 2.282172918319702148e+00 5.636913180351257324e-01
3.066000000000000000e+03 4.131269073486328125e+01 1.495009040832519531e+01 -2.345300465822219849e-01 7.731112957000732422e+00 2.248974800109863281e+00 4.167571663856506348e-01
3.067000000000000000e+03 1.357587528228759766e+01 3.107276916503906250e+01 -2.350199818611145020e-01 2.589971780776977539e+00 7.064855098724365234e-01 -5.023744702339172363e-01
3.068000000000000000e+03 3.790623855590820312e+01 1.897630119323730469e+01 -4.638285934925079346e-01 7.355333328247070312e+00 2.067451477050781250e+00 1.687022447586059570e-01
3.069000000000000000e+03 3.637649154663085938e+01 -6.026454448699951172e+00 3.070372819900512695e+00 8.417536735534667969e+00 3.446372985839843750e+00 1.430639028549194336e-01
3.070000000000000000e+03 3.800329589843750000e+01 -2.837456941604614258e+00 2.168806552886962891e+00 8.339077949523925781e+00 3.152365446090698242e+00 6.422142386436462402e-01
3.071000000000000000e+03 3.729038238525390625e+01 -4.932708740234375000e+00 2.716858625411987305e+00 8.312943458557128906e+00 3.308940649032592773e+00 3.594335019588470459e-01
3.072000000000000000e+03 3.929219818115234375e+01 -7.823460102081298828e+00 2.402134418487548828e+00 8.018946647644042969e+00 3.126324176788330078e+00 -2.793430387973785400e-01
3.073000000000000000e+03 4.116098785400390625e+01 -1.226326084136962891e+01 1.487741351127624512e+00 8.031896591186523438e+00 2.855891227722167969e+00 -7.708248496055603027e-01
3.074000000000000000e+03 4.308586502075195312e+01 -1.434560871124267578e+01 1.015056371688842773e+00 7.983184337615966797e+00 2.699472188949584961e+00 -7.849967479705810547e-01
3.075000000000000000e+03 4.208743286132812500e+01 -1.128343391418457031e+01 1.575116395950317383e+00 7.913951396942138672e+00 2.846720218658447266e+00 -6.435010433197021484e-01
3.076000000000000000e+03 4.462564086914062500e+01 2.660620808601379395e-01 1.200199842453002930e+00 7.824176788330078125e+00 2.707313060760498047e+00 5.973511934280395508e-01
3.077000000000000000e+03 4.189834976196289062e+01 -1.101419687271118164e+00 1.537866950035095215e+00 7.966123104095458984e+00 2.851197004318237305e+00 5.986882448196411133e-01
3.078000000000000000e+03 4.360048294067382812e+01 1.159942984580993652e+00 1.145612716674804688e+00 7.904927730560302734e+00 2.715162038803100586e+00 6.521051526069641113e-01
3.079000000000000000e+03 1.298200225830078125e+01 2.897269439697265625e+01 -1.368524730205535889e-01 2.402682065963745117e+00 6.797488927841186523e-01 -6.185019612312316895e-01
3.080000000000000000e+03 1.460844898223876953e+01 -2.502840423583984375e+01 1.478010714054107666e-01 1.842711329460144043e+00 5.971537232398986816e-01 7.355258464813232422e-01
3.081000000000000000e+03 4.217712783813476562e+01 -3.152890920639038086e+00 1.756359457969665527e+00 7.859692573547363281e+00 2.884815454483032227e+00 4.075509607791900635e-01
3.082000000000000000e+03 4.640232467651367188e+01 -1.293859386444091797e+01 1.053830146789550781e+00 7.764910697937011719e+00 2.645622253417968750e+00 -5.923821330070495605e-01
3.083000000000000000e+03 4.664428329467773438e+01 -9.624094963073730469e+00 1.325638175010681152e+00 7.655411720275878906e+00 2.694314956665039062e+00 -3.279836773872375488e-01
3.084000000000000000e+03 4.523538208007812500e+01 -4.000785350799560547e+00 1.515518426895141602e+00 7.674762248992919922e+00 2.757084131240844727e+00 2.349089086055755615e-01
3.085000000000000000e+03 4.301367950439453125e+01 -2.053816556930541992e+00 1.569556355476379395e+00 7.839550971984863281e+00 2.822732210159301758e+00 4.740957319736480713e-01
3.086000000000000000e+03 4.546650314331054688e+01 -1.414933776855468750e+01 9.528685808181762695e-01 7.847754955291748047e+00 2.640187025070190430e+00 -6.869316101074218750e-01
3.087000000000000000e+03 4.502229309082031250e+01 -1.540494537353515625e+01 8.249253630638122559e-01 7.919022560119628906e+00 2.623184442520141602e+00 -7.560821175575256348e-01
3.088000000000000000e+03 4.622681808471679688e+01 -1.528824901580810547e+01 7.882637977600097656e-01 7.850234985351562500e+00 2.591549634933471680e+00 -6.936225295066833496e-01
3.089000000000000000e+03 4.706985473632812500e+01 -2.032250022888183594e+01 1.687569916248321533e-01 7.961287975311279297e+00 2.439013481140136719e+00 -7.267884612083435059e-01
3.090000000000000000e+03 4.829584884643554688e+01 -1.806667900085449219e+01 4.141781330108642578e-01 7.865593433380126953e+00 2.483931303024291992e+00 -6.983537077903747559e-01
3.091000000000000000e+03 6.380285644531250000e+01 2.742689895629882812e+01 -1.902238577604293823e-01 7.940920352935791016e+00 2.325208902359008789e+00 3.677999973297119141e-01
3.092000000000000000e+03 1.990228462219238281e+01 3.466745376586914062e+01 -5.700461864471435547e-01 4.090550422668457031e+00 1.056151390075683594e+00 -2.890606522560119629e-01
3.093000000000000000e+03 1.572309017181396484e+01 -2.625439071655273438e+01 6.586126238107681274e-02 2.390843152999877930e+00 7.370113730430603027e-01 8.462226986885070801e-01
3.094000000000000000e+03 1.753491783142089844e+01 -2.965153884887695312e+01 -2.010899335145950317e-01 3.106771230697631836e+00 8.717043399810791016e-01 6.802443861961364746e-01
3.095000000000000000e+03 4.323024368286132812e+01 1.750963211059570312e+01 -3.190597891807556152e-01 7.653205394744873047e+00 2.200243711471557617e+00 4.451020359992980957e-01
3.096000000000000000e+03 4.087141036987304688e+01 1.728474044799804688e+01 -3.454834222793579102e-01 7.625514030456542969e+00 2.184009075164794922e+00 3.507758080959320068e-01
3.097000000000000000e+03 5.289406585693359375e+01 1.542137527465820312e+01 -6.113465130329132080e-02 7.757992267608642578e+00 2.309057235717773438e+00 6.252996325492858887e-01
3.098000000000000000e+03 5.114989089965820312e+01 1.870020484924316406e+01 -2.238823026418685913e-01 7.745166778564453125e+00 2.256385326385498047e+00 5.747238397598266602e-01
3.099000000000000000e+03 4.429557037353515625e+01 -5.219895839691162109e+00 1.659263372421264648e+00 7.692023277282714844e+00 2.805386066436767578e+00 1.176771447062492371e-01
3.100000000000000000e+03 3.797172164916992188e+01 -6.339237689971923828e+00 2.705302000045776367e+00 8.157823562622070312e+00 3.258937597274780273e+00 3.246777504682540894e-02
3.101000000000000000e+03 3.826155090332031250e+01 -3.805185079574584961e+00 2.391374826431274414e+00 8.230074882507324219e+00 3.186434984207153320e+00 5.044491291046142578e-01
3.102000000000000000e+03 3.988648223876953125e+01 -8.679870605468750000e+00 2.218371629714965820e+00 7.982938766479492188e+00 3.060393095016479492e+00 -4.041238725185394287e-01
3.103000000000000000e+03 3.865909957885742188e+01 -7.044679164886474609e+00 2.550780534744262695e+00 8.065567970275878906e+00 3.184904575347900391e+00 -1.380752027034759521e-01
3.104000000000000000e+03 4.086879348754882812e+01 -7.948158264160156250e+00 2.126930952072143555e+00 7.884201526641845703e+00 3.003339767456054688e+00 -2.728290557861328125e-01
3.105000000000000000e+03 4.022433090209960938e+01 -7.035635471343994141e+00 2.254488229751586914e+00 7.927877426147460938e+00 3.054709672927856445e+00 -1.249875202775001526e-01
3.106000000000000000e+03 4.042263793945312500e+01 -3.160206317901611328e+00 1.993395328521728516e+00 8.001121520996093750e+00 2.998355150222778320e+00 4.653697907924652100e-01
3.107000000000000000e+03 4.563450241088867188e+01 1.182407736778259277e+00 1.040359735488891602e+00 7.786336421966552734e+00 2.648008823394775391e+00 6.008598804473876953e-01
3.108000000000000000e+03 4.279403686523437500e+01 -1.912270113825798035e-02 1.334212422370910645e+00 7.929618835449218750e+00 2.779149293899536133e+00 6.380841732025146484e-01
3.109000000000000000e+03 3.931061172485351562e+01 -4.712942123413085938e+00 2.299280643463134766e+00 8.040995597839355469e+00 3.102082967758178711e+00 3.037375211715698242e-01
3.110000000000000000e+03 4.308269882202148438e+01 -1.219458866119384766e+01 1.366589426994323730e+00 7.892529964447021484e+00 2.777735710144042969e+00 -6.752465367317199707e-01
3.111000000000000000e+03 3.900125122070312500e+01 -2.403653144836425781e+00 1.971357226371765137e+00 8.208913803100585938e+00 3.054081201553344727e+00 6.362743973731994629e-01
3.112000000000000000e+03 4.509688568115234375e+01 -1.195347499847412109e+01 1.252093791961669922e+00 7.777289390563964844e+00 2.708815097808837891e+00 -5.711917281150817871e-01
3.113000000000000000e+03 4.419974517822265625e+01 -1.321865272521972656e+01 1.142400264739990234e+00 7.875878334045410156e+00 2.705483436584472656e+00 -6.892842650413513184e-01
3.114000000000000000e+03 4.143529891967773438e+01 3.565652370452880859e+00 8.296346068382263184e-01 8.115123748779296875e+00 2.683427572250366211e+00 7.217875123023986816e-01
3.115000000000000000e+03 4.122897338867187500e+01 -4.188311100006103516e+00 1.991830110549926758e+00 7.899755001068115234e+00 2.967475414276123047e+00 3.170730471611022949e-01
3.116000000000000000e+03 4.749177169799804688e+01 -1.520681285858154297e+01 7.460551857948303223e-01 7.805430889129638672e+00 2.565445899963378906e+00 -6.577444672584533691e-01
3.117000000000000000e+03 4.588372039794921875e+01 -1.073570728302001953e+01 1.304248332977294922e+00 7.709795475006103516e+00 2.704213142395019531e+00 -4.489088356494903564e-01
3.118000000000000000e+03 4.476157760620117188e+01 -9.788064956665039062e+00 1.491276264190673828e+00 7.716108322143554688e+00 2.762215375900268555e+00 -3.927783370018005371e-01
3.119000000000000000e+03 1.507780933380126953e+01 -2.967755317687988281e+01 -4.669443890452384949e-02 2.381796836853027344e+00 7.005307078361511230e-01 5.668233633041381836e-01
3.120000000000000000e+03 4.951457595825195312e+01 9.249426126480102539e-01 8.805922269821166992e-01 7.652903079986572266e+00 2.560048580169677734e+00 5.037935972213745117e-01
3.121000000000000000e+03 5.875458145141601562e+01 -1.561946773529052734e+01 3.435516059398651123e-01 7.614131927490234375e+00 2.387305021286010742e+00 -3.770586550235748291e-01
3.122000000000000000e+03 4.675719451904296875e+01 -1.847140884399414062e+01 3.723274767398834229e-01 7.936936855316162109e+00 2.492779254913330078e+00 -7.438530921936035156e-01
3.123000000000000000e+03 4.325051879882812500e+01 -6.396075725555419922e+00 1.808097839355468750e+00 7.733071804046630859e+00 2.862350940704345703e+00 -2.539686486124992371e-02
3.124000000000000000e+03 4.384288787841796875e+01 -9.116095900535583496e-01 1.371794581413269043e+00 7.831866741180419922e+00 2.761098384857177734e+00 5.452952980995178223e-01
3.125000000000000000e+03 4.793231964111328125e+01 -1.380278301239013672e+01 8.735921978950500488e-01 7.744798660278320312e+00 2.585517406463623047e+00 -5.878579020500183105e-01
3.126000000000000000e+03 5.723724746704101562e+01 -1.435155773162841797e+01 4.463312029838562012e-01 7.601685523986816406e+00 2.414405107498168945e+00 -3.687064051628112793e-01
3.127000000000000000e+03 5.447667694091796875e+01 2.031567573547363281e+01 -2.236547023057937622e-01 7.771492004394531250e+00 2.264351129531860352e+00 5.557643771171569824e-01
3.128000000000000000e+03 6.045766830444335938e+01 2.066489219665527344e+01 -1.413999795913696289e-01 7.829891204833984375e+00 2.306547403335571289e+00 5.156588554382324219e-01
3.129000000000000000e+03 3.735813903808593750e+01 -4.002321243286132812e+00 2.540238380432128906e+00 8.355505943298339844e+00 3.268723249435424805e+00 5.333981513977050781e-01
3.130000000000000000e+03 3.870856475830078125e+01 -5.575555324554443359e+00 2.505501508712768555e+00 8.082377433776855469e+00 3.176363706588745117e+00 1.613293141126632690e-01
3.131000000000000000e+03 4.223571395874023438e+01 -5.221127033233642578e+00 1.930943012237548828e+00 7.795462608337402344e+00 2.917921781539916992e+00 1.467984020709991455e-01
3.132000000000000000e+03 4.198608016967773438e+01 -9.559326171875000000e+00 1.791566133499145508e+00 7.851450920104980469e+00 2.892904996871948242e+00 -4.675158262252807617e-01
3.133000000000000000e+03 3.948488235473632812e+01 -6.235816478729248047e+00 2.412077903747558594e+00 7.991833686828613281e+00 3.121173381805419922e+00 2.564647980034351349e-02
3.134000000000000000e+03 4.030652236938476562e+01 -5.244598388671875000e+00 2.208277940750122070e+00 7.939265727996826172e+00 3.044263124465942383e+00 1.990980952978134155e-01
3.135000000000000000e+03 4.621439743041992188e+01 5.373723506927490234e+00 5.905323624610900879e-01 7.843670845031738281e+00 2.530260801315307617e+00 6.856909394264221191e-01
3.136000000000000000e+03 4.358815383911132812e+01 -8.889300346374511719e+00 1.691845059394836426e+00 7.744017124176025391e+00 2.830758571624755859e+00 -3.290727138519287109e-01
3.137000000000000000e+03 4.573051834106445312e+01 -3.892731368541717529e-01 1.188027739524841309e+00 7.735263824462890625e+00 2.676987409591674805e+00 5.125619769096374512e-01
3.138000000000000000e+03 4.442726135253906250e+01 -7.545449733734130859e+00 1.642446398735046387e+00 7.691959857940673828e+00 2.800321817398071289e+00 -1.591517627239227295e-01
3.139000000000000000e+03 4.204447174072265625e+01 -7.281451225280761719e+00 1.952084779739379883e+00 7.794904708862304688e+00 2.924096822738647461e+00 -1.476611196994781494e-01
3.140000000000000000e+03 4.320444869995117188e+01 -4.157532691955566406e+00 1.745137572288513184e+00 7.764605045318603516e+00 2.852922677993774414e+00 2.616328597068786621e-01
3.141000000000000000e+03 4.118021392822265625e+01 -2.233134031295776367e+00 1.751701116561889648e+00 7.971501827239990234e+00 2.916960954666137695e+00 5.415480732917785645e-01
3.142000000000000000e+03 4.122139739990234375e+01 -6.174239635467529297e+00 2.086509227752685547e+00 7.848690032958984375e+00 2.980559825897216797e+00 2.736912295222282410e-02
3.143000000000000000e+03 5.619836807250976562e+01 1.674889373779296875e+01 -8.048561215400695801e-02 7.769099712371826172e+00 2.306584119796752930e+00 5.990938544273376465e-01
3.144000000000000000e+03 5.959319305419921875e+01 1.817244529724121094e+01 -9.282752871513366699e-02 7.796576023101806641e+00 2.311124563217163086e+00 5.543029308319091797e-01
3.145000000000000000e+03 4.774431991577148438e+01 1.462760829925537109e+01 -8.912152796983718872e-02 7.768743515014648438e+00 2.303886651992797852e+00 6.125635504722595215e-01
3.146000000000000000e+03 4.568695068359375000e+01 1.737390708923339844e+01 -2.674925029277801514e-01 7.705960750579833984e+00 2.231540441513061523e+00 5.234821438789367676e-01
3.147000000000000000e+03 4.025110626220703125e+01 1.998688888549804688e+01 -4.741776585578918457e-01 7.442710876464843750e+00 2.090559959411621094e+00 2.742262482643127441e-01
3.148000000000000000e+03 3.381302642822265625e+01 2.673969841003417969e+01 -7.099922895431518555e-01 6.621219158172607422e+00 1.773368000984191895e+00 -3.334151208400726318e-02
3.149000000000000000e+03 2.845261764526367188e+01 2.352514457702636719e+01 -5.376763343811035156e-01 6.087826251983642578e+00 1.665044903755187988e+00 -3.249952793121337891e-01
3.150000000000000000e+03 2.621626472473144531e+01 2.422387123107910156e+01 -5.237329602241516113e-01 5.718419551849365234e+00 1.558405995368957520e+00 -4.035171866416931152e-01
3.151000000000000000e+03 3.924163055419921875e+01 -2.610281562805175781e+01 -6.654855608940124512e-01 8.026574134826660156e+00 2.208326578140258789e+00 -4.124909043312072754e-01
3.152000000000000000e+03 4.188379669189453125e+01 -2.693145561218261719e+01 -6.071235537528991699e-01 8.034133911132812500e+00 2.228102922439575195e+00 -4.864176213741302490e-01
3.153000000000000000e+03 1.652851676940917969e+01 3.695825576782226562e+01 -4.599610865116119385e-01 3.375609874725341797e+00 8.746946454048156738e-01 -2.347486317157745361e-01
3.154000000000000000e+03 5.706225967407226562e+01 1.924570083618164062e+01 -1.505683213472366333e-01 7.788176536560058594e+00 2.291282415390014648e+00 5.632745623588562012e-01
3.155000000000000000e+03 5.180910491943359375e+01 2.126634407043457031e+01 -3.018084466457366943e-01 7.737209796905517578e+00 2.230620384216308594e+00 5.315691828727722168e-01
3.156000000000000000e+03 5.053339767456054688e+01 1.628629875183105469e+01 -1.312512606382369995e-01 7.754703998565673828e+00 2.287035942077636719e+00 6.109655499458312988e-01
3.157000000000000000e+03 6.614849853515625000e+01 -3.727221298217773438e+01 -1.966466903686523438e-01 7.848152637481689453e+00 2.295451641082763672e+00 -1.410416811704635620e-01
3.158000000000000000e+03 6.569981384277343750e+01 2.911778450012207031e+01 -1.761080175638198853e-01 7.992329120635986328e+00 2.344866275787353516e+00 3.175797164440155029e-01
3.159000000000000000e+03 3.228997421264648438e+01 -3.783176040649414062e+01 -1.069142580032348633e+00 6.735304832458496094e+00 1.699848651885986328e+00 6.784922629594802856e-02
3.160000000000000000e+03 1.202602291107177734e+01 2.767087936401367188e+01 -4.614264518022537231e-02 2.112171411514282227e+00 6.198086738586425781e-01 -6.388886570930480957e-01
3.161000000000000000e+03 2.604584121704101562e+01 2.958653259277343750e+01 -6.831100583076477051e-01 5.433598041534423828e+00 1.425146341323852539e+00 -3.069116473197937012e-01
3.162000000000000000e+03 2.509714317321777344e+01 3.280789566040039062e+01 -7.078781723976135254e-01 5.159421920776367188e+00 1.335463166236877441e+00 -2.686431705951690674e-01
3.163000000000000000e+03 3.408399581909179688e+01 -2.970100212097167969e+01 -9.956528544425964355e-01 7.377613067626953125e+00 1.914588093757629395e+00 4.947803169488906860e-02
3.164000000000000000e+03 3.827193832397460938e+01 -2.866373062133789062e+01 -8.533638715744018555e-01 7.851479530334472656e+00 2.099434614181518555e+00 -2.583781480789184570e-01
3.165000000000000000e+03 2.100540542602539062e+01 -2.665120887756347656e+01 -3.366653323173522949e-01 4.232118606567382812e+00 1.168636083602905273e+00 1.023335933685302734e+00
3.166000000000000000e+03 2.092909622192382812e+01 -2.980874061584472656e+01 -4.215333461761474609e-01 4.189052581787109375e+00 1.130255818367004395e+00 7.993733882904052734e-01
3.167000000000000000e+03 4.732683944702148438e+01 1.246500873565673828e+01 3.416329994797706604e-02 7.796579360961914062e+00 2.349222898483276367e+00 6.390095353126525879e-01
3.168000000000000000e+03 8.207099914550781250e+00 -4.091106414794921875e+01 -7.912625372409820557e-02 1.028582692146301270e+00 2.848369479179382324e-01 1.228777691721916199e-02
3.169000000000000000e+03 4.495207214355468750e+01 -2.483377265930175781e+01 -3.152195811271667480e-01 8.048173904418945312e+00 2.319886207580566406e+00 -6.276671290397644043e-01
3.170000000000000000e+03 5.016446304321289062e+01 -2.460226631164550781e+01 -1.573576033115386963e-01 7.946562767028808594e+00 2.336761474609375000e+00 -6.122325062751770020e-01
3.171000000000000000e+03 3.586642074584960938e+01 2.061620330810546875e+01 -5.195009112358093262e-01 7.156464576721191406e+00 1.991089105606079102e+00 5.945589765906333923e-02
3.172000000000000000e+03 4.510790252685546875e+01 -2.036617851257324219e+01 1.370692253112792969e-01 8.036394119262695312e+00 2.452039003372192383e+00 -7.565653324127197266e-01
3.173000000000000000e+03 1.882098388671875000e+01 -3.192867088317871094e+01 -3.383689224720001221e-01 3.565730571746826172e+00 9.682084918022155762e-01 6.014342904090881348e-01
3.174000000000000000e+03 2.077790260314941406e+01 2.780708694458007812e+01 -5.010248422622680664e-01 4.478195190429687500e+00 1.193151116371154785e+00 -5.286080837249755859e-01
3.175000000000000000e+03 5.246292114257812500e+01 -2.394770812988281250e+01 -8.036888390779495239e-02 7.891786575317382812e+00 2.343425273895263672e+00 -5.847287178039550781e-01
3.176000000000000000e+03 5.166150283813476562e+01 -2.137475776672363281e+01 1.044486835598945618e-01 7.856855392456054688e+00 2.388391256332397461e+00 -6.254170536994934082e-01
3.177000000000000000e+03 3.013823699951171875e+01 -2.875886726379394531e+01 -9.427835345268249512e-01 6.799376010894775391e+00 1.756977677345275879e+00 4.034563601016998291e-01
3.178000000000000000e+03 5.932804107666015625e+01 -2.530957412719726562e+01 -6.790968775749206543e-02 7.795880794525146484e+00 2.318391323089599609e+00 -4.459484219551086426e-01
3.179000000000000000e+03 5.905203247070312500e+01 -2.185456657409667969e+01 7.328736782073974609e-02 7.735927581787109375e+00 2.342764377593994141e+00 -4.619421958923339844e-01
3.180000000000000000e+03 5.355683135986328125e+01 -2.664393234252929688e+01 -2.166885286569595337e-01 7.911483287811279297e+00 2.308438301086425781e+00 -5.295872688293457031e-01
3.181000000000000000e+03 2.133876991271972656e+01 -3.364964675903320312e+01 -5.446513891220092773e-01 4.264294624328613281e+00 1.115893006324768066e+00 5.306744575500488281e-01
3.182000000000000000e+03 1.270273208618164062e+01 -3.709613037109375000e+01 -1.781744509935379028e-01 2.080237865447998047e+00 5.706190466880798340e-01 2.014703303575515747e-01
3.183000000000000000e+03 2.363007354736328125e+01 -3.766249465942382812e+01 -7.395339012145996094e-01 4.868478298187255859e+00 1.238683342933654785e+00 2.416780292987823486e-01
3.184000000000000000e+03 3.719321823120117188e+01 3.726050567626953125e+01 -8.632627129554748535e-01 6.729451179504394531e+00 1.759856581687927246e+00 3.271388262510299683e-02
3.185000000000000000e+03 4.301465606689453125e+01 -3.691866302490234375e+01 -9.641846418380737305e-01 7.822920799255371094e+00 2.057621002197265625e+00 -1.569208204746246338e-01
3.186000000000000000e+03 4.582890701293945312e+01 3.660434722900390625e+01 -7.197840213775634766e-01 7.385004997253417969e+00 1.999566316604614258e+00 1.289377957582473755e-01
3.187000000000000000e+03 6.161202621459960938e+01 -3.701662826538085938e+01 -3.212712109088897705e-01 7.904206752777099609e+00 2.274880647659301758e+00 -1.703341752290725708e-01
3.188000000000000000e+03 5.719654846191406250e+01 3.510396575927734375e+01 -4.130128026008605957e-01 7.827123165130615234e+00 2.224233150482177734e+00 2.083158493041992188e-01
3.189000000000000000e+03 6.006172561645507812e+01 3.681028366088867188e+01 -3.612421751022338867e-01 7.897809982299804688e+00 2.260970354080200195e+00 1.685540378093719482e-01
3.190000000000000000e+03 6.420133972167968750e+01 3.468019104003906250e+01 -2.373885959386825562e-01 7.997018337249755859e+00 2.327888965606689453e+00 2.083251029253005981e-01
3.191000000000000000e+03 6.351271057128906250e+01 3.773102569580078125e+01 -2.804764211177825928e-01 7.992872714996337891e+00 2.313719034194946289e+00 1.266212165355682373e-01
3.192000000000000000e+03 7.152894592285156250e+01 -4.089807510375976562e+01 -8.726329356431961060e-02 7.830177783966064453e+00 2.322874307632446289e+00 -3.249776363372802734e-02
3.193000000000000000e+03 7.027442932128906250e+01 -3.540649414062500000e+01 -1.047302335500717163e-01 7.800253868103027344e+00 2.308657169342041016e+00 -1.386051177978515625e-01
3.194000000000000000e+03 6.386134338378906250e+01 -3.211619567871093750e+01 -1.884033381938934326e-01 7.829493522644042969e+00 2.292326927185058594e+00 -2.689158618450164795e-01
3.195000000000000000e+03 6.591042327880859375e+01 -3.056652832031250000e+01 -1.188730299472808838e-01 7.778307437896728516e+00 2.297830343246459961e+00 -2.722404599189758301e-01
3.196000000000000000e+03 4.477840042114257812e+01 -2.749733352661132812e+01 -5.310543775558471680e-01 8.024998664855957031e+00 2.248183250427246094e+00 -5.302740931510925293e-01
3.197000000000000000e+03 5.796249389648437500e+01 2.178748130798339844e+01 -2.069108486175537109e-01 7.812774181365966797e+00 2.281759023666381836e+00 5.197184085845947266e-01
3.198000000000000000e+03 4.781443023681640625e+01 -2.768256759643554688e+01 -4.340802729129791260e-01 8.004047393798828125e+00 2.270990133285522461e+00 -5.368467569351196289e-01
3.199000000000000000e+03 5.082563018798828125e+01 -2.741298294067382812e+01 -3.209585249423980713e-01 7.960215568542480469e+00 2.291777133941650391e+00 -5.330593585968017578e-01
3.200000000000000000e+03 6.187142944335937500e+01 2.872469139099121094e+01 -2.459053248167037964e-01 7.917325496673583984e+00 2.301425933837890625e+00 3.551717996597290039e-01
3.201000000000000000e+03 3.680332946777343750e+01 2.352045249938964844e+01 -6.061202287673950195e-01 7.058076381683349609e+00 1.935586929321289062e+00 9.956770390272140503e-02
3.202000000000000000e+03 3.176601028442382812e+01 2.525454711914062500e+01 -6.511248946189880371e-01 6.441708087921142578e+00 1.737174987792968750e+00 -1.225071251392364502e-01
3.203000000000000000e+03 4.121505355834960938e+01 -2.968055343627929688e+01 -8.049018383026123047e-01 7.919266700744628906e+00 2.134309530258178711e+00 -3.571035265922546387e-01
3.204000000000000000e+03 5.655888748168945312e+01 3.062466812133789062e+01 -3.951492607593536377e-01 7.817502498626708984e+00 2.226706027984619141e+00 3.321975469589233398e-01
3.205000000000000000e+03 3.995367050170898438e+01 2.314058685302734375e+01 -5.796530842781066895e-01 7.300901412963867188e+00 2.016374588012695312e+00 2.313718944787979126e-01
3.206000000000000000e+03 3.142242622375488281e+01 -3.139151954650878906e+01 -1.013052701950073242e+00 6.876247406005859375e+00 1.758958458900451660e+00 2.297835350036621094e-01
3.207000000000000000e+03 3.213146972656250000e+01 -3.453445053100585938e+01 -1.050990700721740723e+00 6.836357593536376953e+00 1.735610008239746094e+00 1.325546801090240479e-01
3.208000000000000000e+03 2.640690231323242188e+01 2.671739768981933594e+01 -6.184618473052978516e-01 5.624413490295410156e+00 1.501785516738891602e+00 -3.452160954475402832e-01
3.209000000000000000e+03 6.135485458374023438e+01 3.379270553588867188e+01 -2.948264777660369873e-01 7.926661968231201172e+00 2.289550542831420898e+00 2.379028201103210449e-01
3.210000000000000000e+03 5.771232223510742188e+01 -2.779331779479980469e+01 -1.978325247764587402e-01 7.865378856658935547e+00 2.300263881683349609e+00 -4.369480609893798828e-01
3.211000000000000000e+03 2.457744407653808594e+01 -3.461096572875976562e+01 -7.675334215164184570e-01 5.131864070892333984e+00 1.309299111366271973e+00 4.187909364700317383e-01
3.212000000000000000e+03 4.392141342163085938e+01 -3.351256942749023438e+01 -8.462063670158386230e-01 7.921272277832031250e+00 2.122519731521606445e+00 -2.833428680896759033e-01
3.213000000000000000e+03 6.062865829467773438e+01 -3.296356201171875000e+01 -2.795615792274475098e-01 7.884967803955078125e+00 2.281621932983398438e+00 -2.918585836887359619e-01
3.214000000000000000e+03 5.579747009277343750e+01 -2.533899879455566406e+01 -1.228122338652610779e-01 7.860733985900878906e+00 2.321376562118530273e+00 -5.112462639808654785e-01
3.215000000000000000e+03 2.822449874877929688e+01 -3.200597000122070312e+01 -9.159905910491943359e-01 6.137052059173583984e+00 1.566318392753601074e+00 3.970200121402740479e-01
3.216000000000000000e+03 3.246211624145507812e+01 -4.096363830566406250e+01 -1.093026638031005859e+00 6.704056739807128906e+00 1.683309078216552734e+00 2.589146792888641357e-02
3.217000000000000000e+03 4.585757446289062500e+01 1.991750144958496094e+01 -3.734250664710998535e-01 7.649962425231933594e+00 2.182961225509643555e+00 4.747108817100524902e-01
3.218000000000000000e+03 5.256592559814453125e+01 2.402935600280761719e+01 -3.656906187534332275e-01 7.736897945404052734e+00 2.211362123489379883e+00 4.799149632453918457e-01
3.219000000000000000e+03 5.534618377685546875e+01 2.297786903381347656e+01 -2.840458154678344727e-01 7.782056331634521484e+00 2.249403238296508789e+00 5.063672065734863281e-01
3.220000000000000000e+03 4.854824829101562500e+01 1.942351913452148438e+01 -2.992917299270629883e-01 7.707715988159179688e+00 2.222527265548706055e+00 5.365626811981201172e-01
3.221000000000000000e+03 4.020682907104492188e+01 2.649267959594726562e+01 -6.756623387336730957e-01 7.199860572814941406e+00 1.957259416580200195e+00 2.002538740634918213e-01
3.222000000000000000e+03 5.205601882934570312e+01 -3.388992309570312500e+01 -5.742800235748291016e-01 7.991217613220214844e+00 2.225081205368041992e+00 -3.229601979255676270e-01
3.223000000000000000e+03 5.152572250366210938e+01 -3.052343177795410156e+01 -4.688756167888641357e-01 7.975138187408447266e+00 2.251878738403320312e+00 -4.354909062385559082e-01
3.224000000000000000e+03 4.963222885131835938e+01 2.487162208557128906e+01 -4.508735537528991699e-01 7.661525726318359375e+00 2.163195610046386719e+00 4.351701140403747559e-01
3.225000000000000000e+03 2.822967147827148438e+01 -3.486940765380859375e+01 -9.501191377639770508e-01 6.028857707977294922e+00 1.523621559143066406e+00 2.950296700000762939e-01
3.226000000000000000e+03 4.659276580810546875e+01 2.556206321716308594e+01 -5.410823822021484375e-01 7.560242176055908203e+00 2.105747938156127930e+00 3.761593401432037354e-01
3.227000000000000000e+03 4.344210052490234375e+01 2.610071945190429688e+01 -6.166839003562927246e-01 7.410783767700195312e+00 2.038229942321777344e+00 2.994334399700164795e-01
3.228000000000000000e+03 2.942616653442382812e+01 2.977176475524902344e+01 -7.381716966629028320e-01 5.965304851531982422e+00 1.568139910697937012e+00 -1.729670017957687378e-01
3.229000000000000000e+03 2.887537956237792969e+01 3.340029907226562500e+01 -7.977827787399291992e-01 5.752141475677490234e+00 1.486307621002197266e+00 -1.314095854759216309e-01
3.230000000000000000e+03 4.034226989746093750e+01 -3.258295440673828125e+01 -9.331904649734497070e-01 7.794079303741455078e+00 2.058266639709472656e+00 -2.389487177133560181e-01
3.231000000000000000e+03 5.500448226928710938e+01 3.280556869506835938e+01 -4.703159928321838379e-01 7.765483856201171875e+00 2.188550472259521484e+00 2.660244703292846680e-01
3.232000000000000000e+03 5.506995773315429688e+01 -2.971253776550292969e+01 -3.254377245903015137e-01 7.927495479583740234e+00 2.280617475509643555e+00 -4.304999113082885742e-01
3.233000000000000000e+03 4.053882217407226562e+01 2.987502479553222656e+01 -7.390532493591308594e-01 7.137922763824462891e+00 1.919660925865173340e+00 1.708540171384811401e-01
3.234000000000000000e+03 5.231601333618164062e+01 -3.737287139892578125e+01 -6.394369602203369141e-01 7.996228218078613281e+00 2.207037448883056641e+00 -1.940459609031677246e-01
3.235000000000000000e+03 4.312212753295898438e+01 2.301641464233398438e+01 -5.307012200355529785e-01 7.482247829437255859e+00 2.085464000701904297e+00 3.430212438106536865e-01
3.236000000000000000e+03 2.817898368835449219e+01 3.704732894897460938e+01 -8.216204643249511719e-01 5.588694572448730469e+00 1.430122256278991699e+00 -7.863300293684005737e-02
3.237000000000000000e+03 5.814288711547851562e+01 2.827106285095214844e+01 -3.243664205074310303e-01 7.840118885040283203e+00 2.254725694656372070e+00 3.818849623203277588e-01
3.238000000000000000e+03 3.692603683471679688e+01 3.012035369873046875e+01 -7.741236090660095215e-01 6.843764781951904297e+00 1.820892453193664551e+00 7.903417199850082397e-02
3.239000000000000000e+03 5.643132781982421875e+01 2.578971672058105469e+01 -3.241139054298400879e-01 7.802890777587890625e+00 2.243633031845092773e+00 4.454515278339385986e-01
3.240000000000000000e+03 5.347296905517578125e+01 2.703125000000000000e+01 -4.142190814018249512e-01 7.742817878723144531e+00 2.198579549789428711e+00 4.122593104839324951e-01
3.241000000000000000e+03 3.268930053710937500e+01 3.726326370239257812e+01 -8.696256279945373535e-01 6.223789215087890625e+00 1.606248974800109863e+00 -2.365735173225402832e-02
3.242000000000000000e+03 4.398857879638671875e+01 2.937601089477539062e+01 -6.777765750885009766e-01 7.369768619537353516e+00 2.007597684860229492e+00 2.490681856870651245e-01
3.243000000000000000e+03 4.614298629760742188e+01 2.264614295959472656e+01 -4.601432681083679199e-01 7.596197128295898438e+00 2.140816211700439453e+00 4.289423525333404541e-01
3.244000000000000000e+03 3.700927734375000000e+01 3.366232299804687500e+01 -8.312170505523681641e-01 6.766299247741699219e+00 1.780524730682373047e+00 5.391472950577735901e-02
3.245000000000000000e+03 4.816273498535156250e+01 3.207027435302734375e+01 -6.335867047309875488e-01 7.535040378570556641e+00 2.070436000823974609e+00 2.522312104701995850e-01
3.246000000000000000e+03 4.478596496582031250e+01 3.288050079345703125e+01 -7.142105102539062500e-01 7.361567497253417969e+00 1.994207143783569336e+00 1.975803226232528687e-01
3.247000000000000000e+03 5.254754638671875000e+01 3.446158599853515625e+01 -5.601170063018798828e-01 7.680701255798339844e+00 2.136175155639648438e+00 2.209426760673522949e-01
3.248000000000000000e+03 5.403553390502929688e+01 3.010507965087890625e+01 -4.571815729141235352e-01 7.741323947906494141e+00 2.185242652893066406e+00 3.436833024024963379e-01
3.249000000000000000e+03 3.986584246158599854e-01 -2.190606117248535156e+00 -3.340731200296431780e-04 -1.120262459153309464e-04 -1.338298170594498515e-04 2.134667556674685329e-05
3.250000000000000000e+03 2.422840118408203125e+01 -4.902350902557373047e+00 3.126910924911499023e+00 3.082445144653320312e+00 1.862806797027587891e+00 -3.354541540145874023e+00
3.251000000000000000e+03 2.499738121032714844e+01 -4.980126380920410156e+00 3.632710456848144531e+00 6.377902507781982422e+00 3.003183841705322266e+00 -5.197305202484130859e+00
3.252000000000000000e+03 2.519354820251464844e+01 -5.004866600036621094e+00 3.565719366073608398e+00 7.821222305297851562e+00 3.416082620620727539e+00 -5.661533355712890625e+00
3.253000000000000000e+03 2.558672332763671875e+01 -5.045290470123291016e+00 3.126272678375244141e+00 1.140667057037353516e+01 4.359882831573486328e+00 -6.216866493225097656e+00
3.254000000000000000e+03 2.578466606140136719e+01 -5.060666084289550781e+00 2.641794681549072266e+00 1.355485057830810547e+01 4.858993530273437500e+00 -5.989856243133544922e+00
3.255000000000000000e+03 2.637834930419921875e+01 -5.126121520996093750e+00 1.874357819557189941e+00 1.828219985961914062e+01 6.046967029571533203e+00 -3.469810962677001953e+00
3.256000000000000000e+03 2.646411514282226562e+01 -4.861851692199707031e+00 1.681558251380920410e+00 1.717257308959960938e+01 5.656239509582519531e+00 -3.041696071624755859e+00
3.257000000000000000e+03 2.687964248657226562e+01 -4.899459838867187500e+00 2.109573364257812500e+00 1.821040344238281250e+01 6.095993041992187500e+00 -1.012435674667358398e+00
3.258000000000000000e+03 2.735524940490722656e+01 -5.278770446777343750e+00 4.405430793762207031e+00 1.837643432617187500e+01 6.834559440612792969e+00 1.539990663528442383e+00
3.259000000000000000e+03 2.759456443786621094e+01 -5.904694080352783203e+00 8.485563278198242188e+00 1.748338890075683594e+01 7.790685176849365234e+00 2.710680961608886719e+00
3.260000000000000000e+03 2.811765480041503906e+01 -5.693684577941894531e+00 7.324453353881835938e+00 1.531708145141601562e+01 6.792460441589355469e+00 2.248779296875000000e+00
3.261000000000000000e+03 2.783495330810546875e+01 -5.670941829681396484e+00 7.244096279144287109e+00 1.655504798889160156e+01 7.139743328094482422e+00 2.464100360870361328e+00
3.262000000000000000e+03 2.810377120971679688e+01 -6.239623069763183594e+00 9.564120292663574219e+00 1.481849861145019531e+01 7.314785957336425781e+00 1.573869347572326660e+00
3.263000000000000000e+03 2.847601699829101562e+01 -6.502934455871582031e+00 9.147996902465820312e+00 1.360868263244628906e+01 6.827003955841064453e+00 7.307339906692504883e-01
3.264000000000000000e+03 2.811393928527832031e+01 -6.753392219543457031e+00 1.036632728576660156e+01 1.456522560119628906e+01 7.479465961456298828e+00 1.148236989974975586e-01
3.265000000000000000e+03 2.767252922058105469e+01 -7.383877277374267578e+00 9.796235084533691406e+00 1.670010948181152344e+01 7.948903560638427734e+00 -2.066384077072143555e+00
3.266000000000000000e+03 2.758351898193359375e+01 -7.589966297149658203e+00 8.701021194458007812e+00 1.738427162170410156e+01 7.825587749481201172e+00 -2.362799644470214844e+00
3.267000000000000000e+03 2.771369171142578125e+01 -7.967280864715576172e+00 6.576676368713378906e+00 1.697234535217285156e+01 7.064706325531005859e+00 -2.089179039001464844e+00
3.268000000000000000e+03 2.769194793701171875e+01 -8.671802520751953125e+00 3.714823961257934570e+00 1.632620620727539062e+01 6.012309074401855469e+00 -1.023195266723632812e+00
3.269000000000000000e+03 2.569152832031250000e+01 -8.411074638366699219e+00 3.520119428634643555e+00 1.253661918640136719e+01 4.817021369934082031e+00 6.387655735015869141e+00
3.270000000000000000e+03 2.569085884094238281e+01 -8.797639846801757812e+00 2.860711574554443359e+00 1.204100418090820312e+01 4.470514774322509766e+00 5.625578403472900391e+00
3.271000000000000000e+03 1.293089866638183594e+00 2.757073402404785156e+00 -8.059824904194101691e-05 -2.867934927053283900e-05 -3.278327858424745500e-05 1.807001535780727863e-04
3.272000000000000000e+03 2.262321281433105469e+01 -8.163267135620117188e+00 1.502807974815368652e+00 5.443642139434814453e-01 6.141516566276550293e-01 6.961465477943420410e-01
3.273000000000000000e+03 2.200214385986328125e+01 -8.875189781188964844e+00 1.717405438423156738e+00 7.893459796905517578e-01 7.520254254341125488e-01 9.235119223594665527e-01
3.274000000000000000e+03 2.498654365539550781e+00 2.747247934341430664e+00 8.803234959486871958e-05 4.658182151615619659e-04 1.661551650613546371e-04 -8.010819874471053481e-05
3.275000000000000000e+03 1.386095809936523438e+01 2.570801734924316406e+00 1.129552023485302925e-03 8.681667386554181576e-04 5.993156228214502335e-04 1.356078311800956726e-03
3.276000000000000000e+03 2.276090240478515625e+01 -8.591302871704101562e+00 2.185577869415283203e+00 1.088184952735900879e+00 9.821288585662841797e-01 1.296677589416503906e+00
3.277000000000000000e+03 2.306100845336914062e+01 -8.514283180236816406e+00 2.506694316864013672e+00 1.009860873222351074e+00 1.054966568946838379e+00 1.629340887069702148e+00
3.278000000000000000e+03 2.369414710998535156e+01 -3.768709897994995117e+00 2.202389478683471680e+00 3.695792198181152344e+00 1.769454479217529297e+00 -3.060731649398803711e+00
3.279000000000000000e+03 2.416799163818359375e+01 -3.975097417831420898e+00 2.438450336456298828e+00 4.761772155761718750e+00 2.160066843032836914e+00 -3.721126079559326172e+00
3.280000000000000000e+03 2.405770683288574219e+01 -3.637449026107788086e+00 2.116469383239746094e+00 4.881659030914306641e+00 2.099438667297363281e+00 -3.494301319122314453e+00
3.281000000000000000e+03 2.400165557861328125e+01 -3.208806991577148438e+00 1.796808958053588867e+00 5.043547153472900391e+00 2.052106857299804688e+00 -3.372483253479003906e+00
3.282000000000000000e+03 2.473787498474121094e+01 -3.732621908187866211e+00 2.093465566635131836e+00 6.852004528045654297e+00 2.683640956878662109e+00 -4.287580490112304688e+00
3.283000000000000000e+03 2.492404747009277344e+01 -4.252618312835693359e+00 2.526874303817749023e+00 7.255544185638427734e+00 2.934725522994995117e+00 -4.779677391052246094e+00
3.284000000000000000e+03 2.549692916870117188e+01 -4.494740962982177734e+00 2.224529266357421875e+00 1.065744781494140625e+01 3.864593029022216797e+00 -5.256425380706787109e+00
3.285000000000000000e+03 2.533176994323730469e+01 -4.447733402252197266e+00 2.389392137527465820e+00 9.369838714599609375e+00 3.527769088745117188e+00 -5.177040576934814453e+00
3.286000000000000000e+03 2.610226821899414062e+01 -4.500349044799804688e+00 1.451172947883605957e+00 1.436217975616455078e+01 4.744005680084228516e+00 -4.232293605804443359e+00
3.287000000000000000e+03 2.588407707214355469e+01 -4.501633167266845703e+00 1.714476346969604492e+00 1.303066349029541016e+01 4.423542022705078125e+00 -4.708028316497802734e+00
3.288000000000000000e+03 2.632619285583496094e+01 -4.512265205383300781e+00 1.349793195724487305e+00 1.544102096557617188e+01 5.037244319915771484e+00 -3.599637746810913086e+00
3.289000000000000000e+03 2.724923133850097656e+01 -5.080966949462890625e+00 3.363409757614135742e+00 1.827810668945312500e+01 6.492455005645751953e+00 7.954694032669067383e-01
3.290000000000000000e+03 2.400619125366210938e+01 -8.394837379455566406e+00 3.563657283782958984e+00 2.197983503341674805e+00 1.728492259979248047e+00 2.910837411880493164e+00
3.291000000000000000e+03 2.390680885314941406e+01 -8.553108215332031250e+00 3.402610540390014648e+00 2.285522937774658203e+00 1.706439971923828125e+00 2.921270847320556641e+00
3.292000000000000000e+03 2.434047889709472656e+01 -8.498961448669433594e+00 4.027337074279785156e+00 3.070593118667602539e+00 2.129379034042358398e+00 3.833961725234985352e+00
3.293000000000000000e+03 2.428208160400390625e+01 -8.747726440429687500e+00 3.835047960281372070e+00 3.592213153839111328e+00 2.228178262710571289e+00 3.953986644744873047e+00
3.294000000000000000e+03 2.490250015258789062e+01 -9.235438346862792969e+00 3.208187341690063477e+00 7.106840133666992188e+00 3.094508171081542969e+00 4.966682434082031250e+00
3.295000000000000000e+03 2.519815444946289062e+01 -9.155853271484375000e+00 3.068290472030639648e+00 8.802016258239746094e+00 3.561091899871826172e+00 5.313448905944824219e+00
3.296000000000000000e+03 2.544750213623046875e+01 -9.113420486450195312e+00 2.819561243057250977e+00 1.008966445922851562e+01 3.872767686843872070e+00 5.442329406738281250e+00
3.297000000000000000e+03 2.623050880432128906e+01 -9.207256317138671875e+00 1.755982041358947754e+00 1.398161506652832031e+01 4.721279144287109375e+00 3.819203615188598633e+00
3.298000000000000000e+03 2.651115226745605469e+01 -9.160625457763671875e+00 1.669417262077331543e+00 1.509553718566894531e+01 5.029486656188964844e+00 2.975335836410522461e+00
3.299000000000000000e+03 7.802807617187500000e+01 -3.576843261718750000e+01 -6.939152721315622330e-03 7.838140964508056641e+00 2.349360466003417969e+00 -3.221070393919944763e-02
3.300000000000000000e+03 1.989352822303771973e+00 3.718768310546875000e+01 -1.328114978969097137e-02 2.750096023082733154e-01 7.851853966712951660e-02 -6.619572639465332031e-02
3.301000000000000000e+03 7.627625274658203125e+01 3.856835937500000000e+01 -4.207780212163925171e-02 8.485790252685546875e+00 2.533113718032836914e+00 3.437820822000503540e-02
3.302000000000000000e+03 2.813724136352539062e+01 -6.492269515991210938e+00 1.003995990753173828e+01 1.456408119201660156e+01 7.381212234497070312e+00 9.369935989379882812e-01
3.303000000000000000e+03 2.814370918273925781e+01 -7.626874446868896484e+00 8.211017608642578125e+00 1.503741455078125000e+01 6.974529743194580078e+00 -1.922306060791015625e+00
3.304000000000000000e+03 2.835704612731933594e+01 -7.864990711212158203e+00 7.108472347259521484e+00 1.453842353820800781e+01 6.494068622589111328e+00 -1.888707995414733887e+00
3.305000000000000000e+03 2.811552429199218750e+01 -8.010708808898925781e+00 6.639963626861572266e+00 1.524066448211669922e+01 6.564188480377197266e+00 -2.014699697494506836e+00
3.306000000000000000e+03 2.819609260559082031e+01 -8.256717681884765625e+00 5.707117080688476562e+00 1.507461452484130859e+01 6.234519481658935547e+00 -1.862525820732116699e+00
3.307000000000000000e+03 2.756406402587890625e+01 -8.392548561096191406e+00 4.454906463623046875e+00 1.712223815917968750e+01 6.473143100738525391e+00 -1.274075388908386230e+00
3.308000000000000000e+03 2.779009437561035156e+01 -8.326868057250976562e+00 5.141171932220458984e+00 1.629273033142089844e+01 6.430170536041259766e+00 -1.684094548225402832e+00
3.309000000000000000e+03 2.747173118591308594e+01 -8.770252227783203125e+00 3.107870101928710938e+00 1.652611732482910156e+01 5.890196323394775391e+00 -4.351177215576171875e-01
3.310000000000000000e+03 2.307650947570800781e+01 -9.608884811401367188e+00 2.723856449127197266e+00 2.508994340896606445e+00 1.569855332374572754e+00 2.546639204025268555e+00
3.311000000000000000e+03 2.341188240051269531e+01 -8.970211029052734375e+00 3.020792722702026367e+00 2.075749158859252930e+00 1.528962492942810059e+00 2.508403062820434570e+00
3.312000000000000000e+03 4.635403156280517578e+00 -1.280117988586425781e+01 1.819268218241631985e-04 -7.947687059640884399e-03 -2.329727867618203163e-03 -1.639718888327479362e-03
3.313000000000000000e+03 2.372130584716796875e+01 -8.647115707397460938e+00 3.239583492279052734e+00 2.055904150009155273e+00 1.588646292686462402e+00 2.682315111160278320e+00
3.314000000000000000e+03 6.045949459075927734e+00 -3.371507883071899414e+00 8.054067438933998346e-05 -1.261560100829228759e-04 -1.368459925288334489e-05 -7.959080976434051991e-04
3.315000000000000000e+03 3.296731233596801758e+00 4.639867305755615234e+00 3.839717246592044830e-04 2.720906632021069527e-04 1.968187134480103850e-04 -1.248418237082660198e-03
3.316000000000000000e+03 2.793467903137207031e+01 -8.584044456481933594e+00 4.463950634002685547e+00 1.571982955932617188e+01 6.055134296417236328e+00 -1.527729749679565430e+00
3.317000000000000000e+03 2.864262580871582031e+01 -7.703619480133056641e+00 7.510307788848876953e+00 1.362973403930664062e+01 6.342012882232666016e+00 -1.603814125061035156e+00
3.318000000000000000e+03 2.775207519531250000e+01 -4.558642864227294922e+00 2.797814369201660156e+00 1.588846588134765625e+01 5.605884075164794922e+00 9.044265747070312500e-01
3.319000000000000000e+03 2.737295150756835938e+01 -4.332692146301269531e+00 1.787146449089050293e+00 1.597917270660400391e+01 5.329895973205566406e+00 -1.991351991891860962e-01
3.320000000000000000e+03 2.821207427978515625e+01 -8.539058685302734375e+00 4.832216262817382812e+00 1.496036338806152344e+01 5.937774181365966797e+00 -1.689136505126953125e+00
3.321000000000000000e+03 2.507833671569824219e+01 -3.858600378036499023e+00 1.944734811782836914e+00 8.267408370971679688e+00 3.063642978668212891e+00 -4.542515754699707031e+00
3.322000000000000000e+03 2.685236358642578125e+01 -4.619358062744140625e+00 1.550217390060424805e+00 1.703812599182128906e+01 5.576503276824951172e+00 -1.503548383712768555e+00
3.323000000000000000e+03 2.877482986450195312e+01 -7.923145771026611328e+00 6.775483131408691406e+00 1.344841766357421875e+01 6.067170619964599609e+00 -1.688608169555664062e+00
3.324000000000000000e+03 2.823738098144531250e+01 -7.280511856079101562e+00 9.062921524047851562e+00 1.429263019561767578e+01 7.006665706634521484e+00 -1.263792991638183594e+00
3.325000000000000000e+03 2.892234230041503906e+01 -6.047348499298095703e+00 7.558001995086669922e+00 1.288395214080810547e+01 6.132586479187011719e+00 1.339769721031188965e+00
3.326000000000000000e+03 2.869016265869140625e+01 -5.793587684631347656e+00 7.229678630828857422e+00 1.356497192382812500e+01 6.238395214080810547e+00 1.752399682998657227e+00
3.327000000000000000e+03 2.784428215026855469e+01 -5.278536796569824219e+00 5.298987388610839844e+00 1.637411499023437500e+01 6.501930713653564453e+00 2.123166561126708984e+00
3.328000000000000000e+03 2.045312118530273438e+01 1.478696918487548828e+01 5.911579132080078125e-01 5.173500537872314453e+00 1.729397535324096680e+00 -1.183306932449340820e+00
3.329000000000000000e+03 6.039575958251953125e+01 -2.929600524902343750e+01 -2.048930227756500244e-01 7.849547863006591797e+00 2.293396472930908203e+00 -3.785386681556701660e-01
3.330000000000000000e+03 1.461451244354248047e+01 -2.651992416381835938e+01 8.396982401609420776e-02 2.068372249603271484e+00 6.457026600837707520e-01 6.934926509857177734e-01
3.331000000000000000e+03 2.662417030334472656e+01 -4.683740139007568359e+00 1.509639978408813477e+00 1.702445411682128906e+01 5.560228347778320312e+00 -2.260468482971191406e+00
3.332000000000000000e+03 2.656309700012207031e+01 -4.428072929382324219e+00 1.270085096359252930e+00 1.560776805877685547e+01 5.063355922698974609e+00 -2.654225349426269531e+00
3.333000000000000000e+03 2.877199554443359375e+01 -6.466655731201171875e+00 8.486603736877441406e+00 1.294229030609130859e+01 6.428668498992919922e+00 6.862430572509765625e-01
3.334000000000000000e+03 3.186414957046508789e+00 1.871991348266601562e+01 -2.552124299108982086e-02 2.111002244055271149e-02 -1.323365839198231697e-03 7.210339605808258057e-02
3.335000000000000000e+03 9.856669425964355469e+00 -3.665094137191772461e+00 3.795830416493117809e-04 -1.344732707366347313e-03 -2.895448997151106596e-04 1.847386884037405252e-04
3.336000000000000000e+03 2.166445159912109375e+01 -1.114896678924560547e+01 1.725350856781005859e+00 2.297525644302368164e+00 1.206862926483154297e+00 1.930374503135681152e+00
3.337000000000000000e+03 2.718989753723144531e+01 -9.348776817321777344e+00 1.786200881004333496e+00 1.532143974304199219e+01 5.132292270660400391e+00 1.003814935684204102e+00
3.338000000000000000e+03 2.569760704040527344e+01 -4.228834152221679688e+00 1.654057621955871582e+00 1.142326164245605469e+01 3.923195600509643555e+00 -4.682892322540283203e+00
3.339000000000000000e+03 2.590008735656738281e+01 -4.238146781921386719e+00 1.439664244651794434e+00 1.264421463012695312e+01 4.225163459777832031e+00 -4.418109893798828125e+00
3.340000000000000000e+03 2.527409553527832031e+01 -9.463787078857421875e+00 2.566884517669677734e+00 9.127622604370117188e+00 3.508352041244506836e+00 4.965631008148193359e+00
3.341000000000000000e+03 2.613606834411621094e+01 -4.207725048065185547e+00 1.238127350807189941e+00 1.365981483459472656e+01 4.469382762908935547e+00 -3.877694368362426758e+00
3.342000000000000000e+03 2.866753768920898438e+01 -9.106888771057128906e+00 3.686539411544799805e+00 1.369125175476074219e+01 5.213337421417236328e+00 -1.445521831512451172e+00
3.343000000000000000e+03 2.927438735961914062e+01 -5.829876422882080078e+00 6.829197406768798828e+00 1.237180042266845703e+01 5.760299205780029297e+00 1.377539515495300293e+00
3.344000000000000000e+03 2.879837417602539062e+01 -8.119114875793457031e+00 6.096676826477050781e+00 1.344723987579345703e+01 5.863174915313720703e+00 -1.743351340293884277e+00
3.345000000000000000e+03 2.909276580810546875e+01 -7.882984161376953125e+00 6.602588653564453125e+00 1.270389080047607422e+01 5.791943550109863281e+00 -1.512204647064208984e+00
3.346000000000000000e+03 2.908926773071289062e+01 -8.157891273498535156e+00 6.003975391387939453e+00 1.283603858947753906e+01 5.652004241943359375e+00 -1.612280130386352539e+00
3.347000000000000000e+03 2.804032135009765625e+01 -9.108166694641113281e+00 3.097826242446899414e+00 1.488234233856201172e+01 5.394050598144531250e+00 -9.476590752601623535e-01
3.348000000000000000e+03 2.828587722778320312e+01 -8.838268280029296875e+00 4.037916183471679688e+00 1.470096492767333984e+01 5.621664524078369141e+00 -1.477658271789550781e+00
3.349000000000000000e+03 2.834141349792480469e+01 -9.157263755798339844e+00 3.280521154403686523e+00 1.430256271362304688e+01 5.274925231933593750e+00 -1.168717622756958008e+00
3.350000000000000000e+03 2.807342147827148438e+01 -4.218625068664550781e+00 2.536953210830688477e+00 1.481375885009765625e+01 5.205213546752929688e+00 9.457520246505737305e-01
3.351000000000000000e+03 2.801488685607910156e+01 -4.549771785736083984e+00 3.227990388870239258e+00 1.526692581176757812e+01 5.548474788665771484e+00 1.308953523635864258e+00
3.352000000000000000e+03 1.813423156738281250e+01 2.345629119873046875e+01 -2.205262333154678345e-01 3.962231874465942383e+00 1.122511625289916992e+00 -8.285952806472778320e-01
3.353000000000000000e+03 2.566466522216796875e+01 -1.013491916656494141e+01 1.568900465965270996e+00 1.028343296051025391e+01 3.555699825286865234e+00 4.002027034759521484e+00
3.354000000000000000e+03 2.773209190368652344e+01 -3.486721992492675781e+00 1.119667530059814453e+00 1.413303947448730469e+01 4.575812339782714844e+00 -2.977995574474334717e-01
3.355000000000000000e+03 8.021562576293945312e+00 2.874260139465332031e+01 3.476460650563240051e-02 1.190208911895751953e+00 3.674920499324798584e-01 -3.602611422538757324e-01
3.356000000000000000e+03 1.954622840881347656e+01 -2.566344833374023438e+01 -1.729449629783630371e-01 3.658196926116943359e+00 1.045575618743896484e+00 1.040717124938964844e+00
3.357000000000000000e+03 1.553751087188720703e+01 -2.759204101562500000e+01 1.065920386463403702e-02 2.373412609100341797e+00 7.152215242385864258e-01 7.433591485023498535e-01
3.358000000000000000e+03 1.660628890991210938e+01 -2.483153533935546875e+01 6.989743560552597046e-02 2.500776529312133789e+00 7.712022066116333008e-01 9.256384372711181641e-01
3.359000000000000000e+03 7.395043849945068359e+00 -2.562632179260253906e+01 1.297570168972015381e-01 3.796758949756622314e-01 1.528298705816268921e-01 4.643147066235542297e-02
3.360000000000000000e+03 5.758612442016601562e+01 -2.363995361328125000e+01 -1.733902469277381897e-02 7.795048236846923828e+00 2.333312749862670898e+00 -4.888263940811157227e-01
3.361000000000000000e+03 6.961786651611328125e+01 -3.256499481201171875e+01 -9.383655339479446411e-02 7.773749351501464844e+00 2.303973913192749023e+00 -1.958263516426086426e-01
3.362000000000000000e+03 2.875325775146484375e+01 -8.313378334045410156e+00 5.727442741394042969e+00 1.358663940429687500e+01 5.794224739074707031e+00 -1.738651156425476074e+00
3.363000000000000000e+03 2.946815872192382812e+01 -8.264778137207031250e+00 5.622921466827392578e+00 1.221069526672363281e+01 5.350084781646728516e+00 -1.516795992851257324e+00
3.364000000000000000e+03 2.649681282043457031e+01 -3.904225826263427734e+00 8.408923149108886719e-01 1.397012805938720703e+01 4.443305969238281250e+00 -2.845916271209716797e+00
3.365000000000000000e+03 7.557296752929687500e+01 2.997147750854492188e+01 -2.100981958210468292e-02 8.303075790405273438e+00 2.484619855880737305e+00 1.294210553169250488e-01
3.366000000000000000e+03 5.627178668975830078e+00 -7.060988426208496094e+00 3.531181137077510357e-04 -1.123354537412524223e-03 -2.310709242010489106e-04 -5.239330348558723927e-04
3.367000000000000000e+03 2.764721679687500000e+01 -9.506618499755859375e+00 2.012084484100341797e+00 1.479991245269775391e+01 5.043599128723144531e+00 7.862298190593719482e-02
3.368000000000000000e+03 2.919924736022949219e+01 -6.607915401458740234e+00 7.701890945434570312e+00 1.210962295532226562e+01 5.943454265594482422e+00 3.098683059215545654e-01
3.369000000000000000e+03 2.950636291503906250e+01 -6.648959159851074219e+00 7.379888534545898438e+00 1.182683849334716797e+01 5.762018203735351562e+00 2.260799854993820190e-01
3.370000000000000000e+03 2.987511825561523438e+01 -5.857378482818603516e+00 6.282528877258300781e+00 1.151438713073730469e+01 5.339075088500976562e+00 1.084636569023132324e+00
3.371000000000000000e+03 6.039283752441406250e+00 -5.033465862274169922e+00 1.929692516569048166e-04 8.521518902853131294e-04 3.135363513138145208e-04 6.636747275479137897e-04
3.372000000000000000e+03 1.818416404724121094e+01 -2.556797790527343750e+01 -1.937734149396419525e-02 3.062035083770751953e+00 9.127973318099975586e-01 1.043539524078369141e+00
3.373000000000000000e+03 2.301923370361328125e+01 6.300798892974853516e+00 3.738255202770233154e-01 5.952889919281005859e+00 1.898014664649963379e+00 -2.039389848709106445e+00
3.374000000000000000e+03 1.557576751708984375e+01 -2.504405593872070312e+01 8.240826427936553955e-02 2.303114652633666992e+00 7.156568765640258789e-01 8.633714318275451660e-01
3.375000000000000000e+03 6.866226959228515625e+01 -3.115461349487304688e+01 -9.597630053758621216e-02 7.760685920715332031e+00 2.299412965774536133e+00 -2.320454865694046021e-01
3.376000000000000000e+03 1.642778205871582031e+01 -2.371268463134765625e+01 1.254430562257766724e-01 2.334555625915527344e+00 7.379996180534362793e-01 9.885515570640563965e-01
3.377000000000000000e+03 2.840471267700195312e+01 -4.247523784637451172e+00 2.947568893432617188e+00 1.417622280120849609e+01 5.137137413024902344e+00 1.247282147407531738e+00
3.378000000000000000e+03 2.902406883239746094e+01 -7.029409885406494141e+00 8.004119873046875000e+00 1.248343849182128906e+01 6.146267414093017578e+00 -4.298051595687866211e-01
3.379000000000000000e+03 2.940901756286621094e+01 -5.324157714843750000e+00 5.699132442474365234e+00 1.240125274658203125e+01 5.430115699768066406e+00 1.664833784103393555e+00
3.380000000000000000e+03 2.993811798095703125e+01 -5.320338249206542969e+00 5.494765758514404297e+00 1.165327644348144531e+01 5.144412517547607422e+00 1.467217683792114258e+00
3.381000000000000000e+03 2.561114311218261719e+01 -3.062198638916015625e+00 9.177858233451843262e-01 1.002525711059570312e+01 3.282912731170654297e+00 -3.757019996643066406e+00
3.382000000000000000e+03 2.786565589904785156e+01 -9.766891479492187500e+00 1.887191295623779297e+00 1.422913551330566406e+01 4.834897994995117188e+00 -3.850933909416198730e-02
3.383000000000000000e+03 2.871346092224121094e+01 -4.302483558654785156e+00 3.306207418441772461e+00 1.384443187713623047e+01 5.145191669464111328e+00 1.494894385337829590e+00
3.384000000000000000e+03 8.576022148132324219e+00 2.752243804931640625e+01 6.055030599236488342e-02 1.242089152336120605e+00 3.907918334007263184e-01 -3.963878154754638672e-01
3.385000000000000000e+03 1.737597656250000000e+01 -2.112249565124511719e+01 2.288425266742706299e-01 2.359531641006469727e+00 7.765122652053833008e-01 1.170503258705139160e+00
3.386000000000000000e+03 2.884134483337402344e+01 -8.750482559204101562e+00 4.602931499481201172e+00 1.343551445007324219e+01 5.411533832550048828e+00 -1.647185087203979492e+00
3.387000000000000000e+03 2.893730163574218750e+01 -8.990250587463378906e+00 4.035168647766113281e+00 1.323881340026855469e+01 5.182194709777832031e+00 -1.552965760231018066e+00
3.388000000000000000e+03 6.037084579467773438e+01 -2.022555351257324219e+01 1.268399655818939209e-01 7.685553550720214844e+00 2.343718051910400391e+00 -4.224635958671569824e-01
3.389000000000000000e+03 5.769921112060546875e+01 -2.030874252319335938e+01 1.394781768321990967e-01 7.726747035980224609e+00 2.359867572784423828e+00 -4.789499044418334961e-01
3.390000000000000000e+03 2.591233825683593750e+01 -2.722184419631958008e+00 5.820974707603454590e-01 1.049379062652587891e+01 3.322766304016113281e+00 -3.292882442474365234e+00
3.391000000000000000e+03 2.315959548950195312e+01 -1.110119819641113281e+01 2.042568922042846680e+00 4.004699707031250000e+00 1.814180612564086914e+00 2.957089662551879883e+00
3.392000000000000000e+03 2.625174713134765625e+01 -3.386306524276733398e+00 6.924422383308410645e-01 1.247082233428955078e+01 3.948979377746582031e+00 -3.161591768264770508e+00
3.393000000000000000e+03 2.667164802551269531e+01 -3.160466432571411133e+00 5.258327722549438477e-01 1.278119373321533203e+01 3.992107868194580078e+00 -2.363872528076171875e+00
3.394000000000000000e+03 2.559861183166503906e+01 -1.055454921722412109e+01 1.361669182777404785e+00 9.662861824035644531e+00 3.307359457015991211e+00 3.738525629043579102e+00
3.395000000000000000e+03 2.812498474121093750e+01 -9.617811203002929688e+00 2.335583209991455078e+00 1.413847351074218750e+01 4.942217350006103516e+00 -5.423074960708618164e-01
3.396000000000000000e+03 4.683110713958740234e+00 7.565732002258300781e+00 3.581219425541348755e-05 1.667379983700811863e-04 6.076505815144628286e-05 -2.572790544945746660e-04
3.397000000000000000e+03 5.451346397399902344e+00 8.998718261718750000e+00 5.876238574273884296e-04 -1.496704877354204655e-03 -2.727243409026414156e-04 -1.129816868342459202e-03
3.398000000000000000e+03 2.910487556457519531e+01 -8.794855117797851562e+00 4.604438304901123047e+00 1.290852928161621094e+01 5.253890037536621094e+00 -1.646943449974060059e+00
3.399000000000000000e+03 7.010249328613281250e+01 2.856561660766601562e+01 -9.618805348873138428e-02 8.087388038635253906e+00 2.397359848022460938e+00 2.668506503105163574e-01
3.400000000000000000e+03 6.512177944183349609e+00 6.154980182647705078e+00 5.338951596058905125e-04 3.933507468900643289e-05 1.719690626487135887e-04 -1.596519839949905872e-03
3.401000000000000000e+03 2.623983764648437500e+01 -1.085991668701171875e+01 8.509771823883056641e-01 1.090656375885009766e+01 3.527262210845947266e+00 2.880335569381713867e+00
3.402000000000000000e+03 2.878066444396972656e+01 -9.440080642700195312e+00 3.168989896774291992e+00 1.336190605163574219e+01 4.959269046783447266e+00 -1.260422706604003906e+00
3.403000000000000000e+03 2.990977096557617188e+01 -4.278699398040771484e+00 3.848732471466064453e+00 1.197797584533691406e+01 4.748012542724609375e+00 1.574766993522644043e+00
3.404000000000000000e+03 2.640196228027343750e+01 -2.803928613662719727e+00 4.077260196208953857e-01 1.173587703704833984e+01 3.643080949783325195e+00 -2.692868471145629883e+00
3.405000000000000000e+03 4.735443115234375000e+01 -2.246055984497070312e+01 -3.628090023994445801e-02 7.985480785369873047e+00 2.384759902954101562e+00 -6.893056631088256836e-01
3.406000000000000000e+03 1.894235992431640625e+01 -1.737864112854003906e+01 4.719015657901763916e-01 2.543493032455444336e+00 9.046183824539184570e-01 1.508617877960205078e+00
3.407000000000000000e+03 2.917262268066406250e+01 -9.167581558227539062e+00 3.798038244247436523e+00 1.292051124572753906e+01 5.015564918518066406e+00 -1.524351000785827637e+00
3.408000000000000000e+03 2.799193000793457031e+01 -1.003283119201660156e+01 1.676713109016418457e+00 1.361705112457275391e+01 4.588129043579101562e+00 -2.191521041095256805e-02
3.409000000000000000e+03 2.984031295776367188e+01 -6.711984157562255859e+00 6.895216464996337891e+00 1.133789920806884766e+01 5.469934940338134766e+00 1.312576383352279663e-01
3.410000000000000000e+03 2.616235542297363281e+01 1.039319038391113281e+01 2.074427604675292969e-01 6.563695430755615234e+00 2.031341314315795898e+00 -1.296706914901733398e+00
3.411000000000000000e+03 2.985345268249511719e+01 -9.144619941711425781e+00 4.087833881378173828e+00 1.188289737701416016e+01 4.791219711303710938e+00 -1.536528706550598145e+00
3.412000000000000000e+03 2.851451110839843750e+01 -2.362242698669433594e+00 7.551462054252624512e-01 1.242992496490478516e+01 3.955521345138549805e+00 -1.067655310034751892e-01
3.413000000000000000e+03 2.578818511962890625e+01 -1.106866931915283203e+01 1.053148627281188965e+00 9.744216918945312500e+00 3.239209890365600586e+00 3.269674777984619141e+00
3.414000000000000000e+03 2.593121910095214844e+01 -1.074233531951904297e+01 1.055619478225708008e+00 1.041943073272705078e+01 3.442514896392822266e+00 3.354427337646484375e+00
3.415000000000000000e+03 2.626986885070800781e+01 -1.127546215057373047e+01 7.250019907951354980e-01 1.061907196044921875e+01 3.403222084045410156e+00 2.740374803543090820e+00
3.416000000000000000e+03 5.761430263519287109e+00 7.432971000671386719e+00 1.756204525008797646e-03 -3.409504424780607224e-03 -4.959899233654141426e-04 -5.890696775168180466e-04
3.417000000000000000e+03 3.002372169494628906e+01 -5.022006988525390625e+00 5.018522262573242188e+00 1.165248680114746094e+01 5.001302719116210938e+00 1.510836601257324219e+00
3.418000000000000000e+03 7.140762329101562500e+00 6.643651485443115234e+00 1.365925767458975315e-03 -3.952186089009046555e-03 -7.758780848234891891e-04 1.157682505436241627e-03
3.419000000000000000e+03 4.504236984252929688e+01 -2.244959831237792969e+01 -9.248290210962295532e-02 8.050065040588378906e+00 2.387274503707885742e+00 -7.059291601181030273e-01
3.420000000000000000e+03 2.517770195007324219e+01 2.072074636816978455e-02 9.227184951305389404e-02 7.940665721893310547e+00 2.409881353378295898e+00 -2.710480451583862305e+00
3.421000000000000000e+03 2.934520149230957031e+01 -8.976523399353027344e+00 4.336177825927734375e+00 1.255287265777587891e+01 5.066715240478515625e+00 -1.591225028038024902e+00
3.422000000000000000e+03 2.909456062316894531e+01 -1.012113761901855469e+01 2.302244186401367188e+00 1.262530040740966797e+01 4.478263378143310547e+00 -9.776554703712463379e-01
3.423000000000000000e+03 2.920607566833496094e+01 -9.685838699340820312e+00 2.943267345428466797e+00 1.268458461761474609e+01 4.688355445861816406e+00 -1.253186106681823730e+00
3.424000000000000000e+03 2.973405265808105469e+01 -9.782284736633300781e+00 3.114438295364379883e+00 1.198139095306396484e+01 4.528748512268066406e+00 -1.357205510139465332e+00
3.425000000000000000e+03 2.829147720336914062e+01 -9.962050437927246094e+00 1.982590556144714355e+00 1.350808048248291016e+01 4.647201538085937500e+00 -4.575728178024291992e-01
3.426000000000000000e+03 3.061792755126953125e+01 -8.058006286621093750e+00 5.363056659698486328e+00 1.078929996490478516e+01 4.845706939697265625e+00 -1.037916541099548340e+00
3.427000000000000000e+03 3.093252182006835938e+01 -9.099995613098144531e+00 4.061391830444335938e+00 1.075643157958984375e+01 4.445346832275390625e+00 -1.344115734100341797e+00
3.428000000000000000e+03 2.259275245666503906e+01 -1.746692848205566406e+01 1.875272691249847412e-01 4.886935234069824219e+00 1.522338747978210449e+00 1.999732375144958496e+00
3.429000000000000000e+03 3.126934051513671875e+01 -8.049736022949218750e+00 4.936060428619384766e+00 1.022932338714599609e+01 4.549615383148193359e+00 -8.883605599403381348e-01
3.430000000000000000e+03 3.021273994445800781e+01 -6.717920780181884766e+00 6.482066154479980469e+00 1.099178600311279297e+01 5.242155551910400391e+00 9.673872590065002441e-02
3.431000000000000000e+03 6.902896118164062500e+01 2.402688217163085938e+01 -7.000095397233963013e-02 7.975317001342773438e+00 2.371594905853271484e+00 3.475056886672973633e-01
3.432000000000000000e+03 3.869975662231445312e+01 1.671682167053222656e+01 -3.554137349128723145e-01 7.571965217590332031e+00 2.164965391159057617e+00 2.524303495883941650e-01
3.433000000000000000e+03 2.949377441406250000e+01 -9.235651969909667969e+00 3.823156833648681641e+00 1.232636451721191406e+01 4.844856262207031250e+00 -1.516531705856323242e+00
3.434000000000000000e+03 2.561121749877929688e+01 1.867041736841201782e-01 -2.145112492144107819e-02 8.377868652343750000e+00 2.506925344467163086e+00 -2.579082965850830078e+00
3.435000000000000000e+03 2.579366683959960938e+01 -2.350735068321228027e-01 -5.944642238318920135e-03 8.806710243225097656e+00 2.640229701995849609e+00 -2.593080043792724609e+00
3.436000000000000000e+03 2.433719635009765625e+01 -1.302924156188964844e+01 8.512431383132934570e-01 6.519834518432617188e+00 2.211323261260986328e+00 2.895575761795043945e+00
3.437000000000000000e+03 2.828491973876953125e+01 -1.118613433837890625e+01 9.309399724006652832e-01 1.218692779541015625e+01 3.935360431671142578e+00 2.969839870929718018e-01
3.438000000000000000e+03 3.094811630249023438e+01 -6.823029518127441406e+00 5.703176021575927734e+00 1.033594703674316406e+01 4.811737060546875000e+00 -1.354690268635749817e-02
3.439000000000000000e+03 2.962465286254882812e+01 -1.029558086395263672e+01 2.383302211761474609e+00 1.204534053802490234e+01 4.328592777252197266e+00 -1.119935154914855957e+00
3.440000000000000000e+03 2.694940567016601562e+01 -2.206494808197021484e+00 2.049937993288040161e-01 1.163754749298095703e+01 3.552762269973754883e+00 -1.933508992195129395e+00
3.441000000000000000e+03 2.783593368530273438e+01 1.689270853996276855e+00 -2.653374969959259033e-01 9.361334800720214844e+00 2.728799104690551758e+00 -1.457804918289184570e+00
3.442000000000000000e+03 2.829310226440429688e+01 -1.485427260398864746e+00 2.763606905937194824e-01 1.165631866455078125e+01 3.579803943634033203e+00 -6.584841609001159668e-01
3.443000000000000000e+03 2.535050582885742188e+01 -4.356675148010253906e-01 1.379984617233276367e-01 8.315701484680175781e+00 2.536109924316406250e+00 -2.803284645080566406e+00
3.444000000000000000e+03 3.075106430053710938e+01 -7.117859840393066406e+00 5.810288429260253906e+00 1.047978401184082031e+01 4.887022018432617188e+00 -2.899537384510040283e-01
3.445000000000000000e+03 3.138152122497558594e+01 -7.700780391693115234e+00 5.119614124298095703e+00 1.009069824218750000e+01 4.563093662261962891e+00 -6.487232446670532227e-01
3.446000000000000000e+03 4.207653427124023438e+01 -1.762938117980957031e+01 4.892789721488952637e-01 8.163015365600585938e+00 2.595688343048095703e+00 -8.543643951416015625e-01
3.447000000000000000e+03 2.841666412353515625e+01 3.260475158691406250e+00 -2.505579590797424316e-01 8.910695075988769531e+00 2.598041057586669922e+00 -1.263938546180725098e+00
3.448000000000000000e+03 3.173251914978027344e+01 -7.687120437622070312e+00 4.920551300048828125e+00 9.905897140502929688e+00 4.447934627532958984e+00 -6.008982062339782715e-01
3.449000000000000000e+03 2.447510147094726562e+01 -1.752571487426757812e+01 -9.422767162322998047e-02 6.196059703826904297e+00 1.830549597740173340e+00 1.907084107398986816e+00
3.450000000000000000e+03 2.885067367553710938e+01 -1.160204792022705078e+01 9.358817934989929199e-01 1.169051647186279297e+01 3.787919521331787109e+00 -4.531204327940940857e-02
3.451000000000000000e+03 2.844606971740722656e+01 -1.196793270111083984e+01 5.583103299140930176e-01 1.148621940612792969e+01 3.613358974456787109e+00 4.450227022171020508e-01
3.452000000000000000e+03 2.843012428283691406e+01 -1.032779216766357422e+01 1.703466653823852539e+00 1.298728084564208984e+01 4.407224178314208984e+00 -3.415380716323852539e-01
3.453000000000000000e+03 2.621249580383300781e+01 -1.382921600341796875e+01 1.266932785511016846e-01 8.604013442993164062e+00 2.619212150573730469e+00 2.092663764953613281e+00
3.454000000000000000e+03 3.050753211975097656e+01 -2.530455350875854492e+00 1.949306488037109375e+00 1.130529308319091797e+01 3.976379871368408203e+00 1.049338102340698242e+00
3.455000000000000000e+03 3.105126953125000000e+01 -2.784708023071289062e+00 2.347226142883300781e+00 1.088069534301757812e+01 3.968376398086547852e+00 1.184561967849731445e+00
3.456000000000000000e+03 2.724528884887695312e+01 -1.683457374572753906e+00 7.654353231191635132e-02 1.139359188079833984e+01 3.441040515899658203e+00 -1.719346523284912109e+00
3.457000000000000000e+03 7.209630584716796875e+01 1.814251327514648438e+01 -1.201978232711553574e-02 7.878293514251708984e+00 2.359882116317749023e+00 3.214991092681884766e-01
3.458000000000000000e+03 3.273247528076171875e+01 -5.949392318725585938e+00 4.395797252655029297e+00 9.433941841125488281e+00 4.148921966552734375e+00 4.195537567138671875e-01
3.459000000000000000e+03 3.190769195556640625e+01 -7.115518569946289062e+00 4.986100196838378906e+00 9.766658782958984375e+00 4.425827980041503906e+00 -2.366283088922500610e-01
3.460000000000000000e+03 3.218871688842773438e+01 -7.318454265594482422e+00 4.788455963134765625e+00 9.656318664550781250e+00 4.333432197570800781e+00 -3.190463781356811523e-01
3.461000000000000000e+03 3.292417144775390625e+01 -5.607481002807617188e+00 4.179113864898681641e+00 9.392433166503906250e+00 4.071464061737060547e+00 5.535718798637390137e-01
3.462000000000000000e+03 3.208715820312500000e+01 -4.859077930450439453e+00 4.122499465942382812e+00 9.930919647216796875e+00 4.216025829315185547e+00 9.706219434738159180e-01
3.463000000000000000e+03 3.209654235839843750e+01 -8.950382232666015625e+00 3.944954633712768555e+00 9.905998229980468750e+00 4.155285835266113281e+00 -1.116422057151794434e+00
3.464000000000000000e+03 2.969647407531738281e+01 6.682426929473876953e+00 -1.542824357748031616e-01 8.104688644409179688e+00 2.385122060775756836e+00 -9.058428406715393066e-01
3.465000000000000000e+03 6.761752319335937500e+01 -1.620909881591796875e+01 1.255600303411483765e-01 7.525651931762695312e+00 2.295363664627075195e+00 -2.428697794675827026e-01
3.466000000000000000e+03 6.648486328125000000e+01 -1.552705287933349609e+01 1.607662886381149292e-01 7.529307365417480469e+00 2.307022094726562500e+00 -2.451825290918350220e-01
3.467000000000000000e+03 3.165155792236328125e+01 -7.328798294067382812e+00 5.099228382110595703e+00 9.909658432006835938e+00 4.502665996551513672e+00 -3.805589079856872559e-01
3.468000000000000000e+03 2.897315597534179688e+01 -1.063357067108154297e+01 1.757443666458129883e+00 1.236763095855712891e+01 4.237522125244140625e+00 -6.256973743438720703e-01
3.469000000000000000e+03 2.451843070983886719e+01 -1.596631526947021484e+01 1.093987971544265747e-01 6.430489540100097656e+00 1.961966514587402344e+00 2.166419982910156250e+00
3.470000000000000000e+03 2.518554687500000000e+01 -1.613843727111816406e+01 -2.571837231516838074e-02 6.952308177947998047e+00 2.077976942062377930e+00 2.037819385528564453e+00
3.471000000000000000e+03 3.335544204711914062e+01 -5.653103828430175781e+00 4.022645950317382812e+00 9.210610389709472656e+00 3.969976902008056641e+00 4.908885955810546875e-01
3.472000000000000000e+03 3.278450775146484375e+01 -5.001142024993896484e+00 3.961407184600830078e+00 9.540635108947753906e+00 4.050612449645996094e+00 7.999675869941711426e-01
3.473000000000000000e+03 3.280813980102539062e+01 -9.173914909362792969e+00 3.614356040954589844e+00 9.585390090942382812e+00 3.959923982620239258e+00 -1.067029237747192383e+00
3.474000000000000000e+03 2.737763404846191406e+01 -1.297170543670654297e+01 1.407192349433898926e-01 1.017451667785644531e+01 3.094570875167846680e+00 1.498767852783203125e+00
3.475000000000000000e+03 6.944812011718750000e+01 -1.628983688354492188e+01 9.257030487060546875e-02 7.501863956451416016e+00 2.278330326080322266e+00 -2.181385904550552368e-01
3.476000000000000000e+03 2.596545028686523438e+01 -1.712560653686523438e+01 -2.643583416938781738e-01 7.321444034576416016e+00 2.117125749588012695e+00 1.704122781753540039e+00
3.477000000000000000e+03 2.570477294921875000e+01 -1.651783180236816406e+01 -1.765542179346084595e-01 7.290258407592773438e+00 2.134111166000366211e+00 1.841027617454528809e+00
3.478000000000000000e+03 3.241654586791992188e+01 -7.535884857177734375e+00 4.516652584075927734e+00 9.508646965026855469e+00 4.207589626312255859e+00 -4.621917009353637695e-01
3.479000000000000000e+03 3.246464157104492188e+01 -7.037865161895751953e+00 4.622752189636230469e+00 9.495832443237304688e+00 4.235575199127197266e+00 -1.616334617137908936e-01
3.480000000000000000e+03 3.259864807128906250e+01 -7.832623004913330078e+00 4.382648944854736328e+00 9.475347518920898438e+00 4.157398700714111328e+00 -5.922220349311828613e-01
3.481000000000000000e+03 2.910511207580566406e+01 3.384454011917114258e+00 -2.145608216524124146e-01 9.036114692687988281e+00 2.646466016769409180e+00 -9.970561861991882324e-01
3.482000000000000000e+03 3.334661102294921875e+01 -5.176504611968994141e+00 3.830093145370483398e+00 9.273596763610839844e+00 3.931107044219970703e+00 6.558061242103576660e-01
3.483000000000000000e+03 3.022429275512695312e+01 -1.609370231628417969e+01 -2.023017853498458862e-01 9.283922195434570312e+00 2.724486112594604492e+00 2.159304469823837280e-01
3.484000000000000000e+03 2.840221405029296875e+01 -1.227700328826904297e+01 4.640422165393829346e-01 1.121429729461669922e+01 3.503501892089843750e+00 5.383731722831726074e-01
3.485000000000000000e+03 2.872843170166015625e+01 -1.245289421081542969e+01 4.603829979896545410e-01 1.106068325042724609e+01 3.456319808959960938e+00 3.336013853549957275e-01
3.486000000000000000e+03 2.838474464416503906e+01 -1.257228469848632812e+01 3.425804078578948975e-01 1.089142227172851562e+01 3.370200634002685547e+00 6.216366291046142578e-01
3.487000000000000000e+03 3.966217803955078125e+01 1.027092075347900391e+01 8.341028355062007904e-03 7.990253925323486328e+00 2.399578571319580078e+00 4.499190449714660645e-01
3.488000000000000000e+03 3.239700317382812500e+01 -9.654742240905761719e+00 3.368707180023193359e+00 9.859963417053222656e+00 3.968601226806640625e+00 -1.213027596473693848e+00
3.489000000000000000e+03 2.996177864074707031e+01 -1.122593784332275391e+01 1.689366698265075684e+00 1.140245342254638672e+01 3.927546024322509766e+00 -8.544206619262695312e-01
3.490000000000000000e+03 3.221155548095703125e+01 -1.261226844787597656e+01 1.315750002861022949e+00 9.949332237243652344e+00 3.379524469375610352e+00 -9.925316572189331055e-01
3.491000000000000000e+03 3.181893539428710938e+01 -2.125804185867309570e+00 2.005972146987915039e+00 1.038666439056396484e+01 3.717790842056274414e+00 1.073622941970825195e+00
3.492000000000000000e+03 2.842420196533203125e+01 -1.296866798400878906e+01 2.421542257070541382e-01 1.063522052764892578e+01 3.263212442398071289e+00 6.715266704559326172e-01
3.493000000000000000e+03 2.975015449523925781e+01 2.892353534698486328e+00 -1.427049189805984497e-01 9.328593254089355469e+00 2.755766391754150391e+00 -7.146008014678955078e-01
3.494000000000000000e+03 3.357669067382812500e+01 -1.878507971763610840e+00 2.068590879440307617e+00 9.590726852416992188e+00 3.497795104980468750e+00 1.027207851409912109e+00
3.495000000000000000e+03 4.679318237304687500e+01 -7.509355068206787109e+00 1.388871431350708008e+00 7.613670825958251953e+00 2.700762748718261719e+00 -1.287365257740020752e-01
3.496000000000000000e+03 4.121247482299804688e+01 9.076667785644531250e+00 1.695449203252792358e-01 8.038753509521484375e+00 2.462489604949951172e+00 5.752337574958801270e-01
3.497000000000000000e+03 4.788006210327148438e+01 7.499832630157470703e+00 3.982611596584320068e-01 7.799875736236572266e+00 2.459441184997558594e+00 6.767738461494445801e-01
3.498000000000000000e+03 5.048670959472656250e+01 4.647602081298828125e+00 5.903860330581665039e-01 7.696233749389648438e+00 2.485985994338989258e+00 6.088554859161376953e-01
3.499000000000000000e+03 4.136294174194335938e+01 -8.862183570861816406e+00 1.975810289382934570e+00 7.873947143554687500e+00 2.954927206039428711e+00 -3.770117163658142090e-01
3.500000000000000000e+03 3.382336807250976562e+01 -1.188419628143310547e+01 1.939580321311950684e+00 9.383983612060546875e+00 3.397069215774536133e+00 -1.146686434745788574e+00
3.501000000000000000e+03 3.487356185913085938e+01 -3.340671062469482422e+00 2.728174448013305664e+00 8.992873191833496094e+00 3.516314268112182617e+00 8.604851365089416504e-01
3.502000000000000000e+03 6.363409042358398438e+01 -8.830589294433593750e+00 3.408189117908477783e-01 7.490332126617431641e+00 2.349345207214355469e+00 -7.879633456468582153e-02
3.503000000000000000e+03 4.565274047851562500e+01 -8.596055030822753906e+00 1.470019578933715820e+00 7.662505149841308594e+00 2.739757299423217773e+00 -2.660520076751708984e-01
3.504000000000000000e+03 3.437990570068359375e+01 -1.056443500518798828e+01 2.570377349853515625e+00 9.129643440246582031e+00 3.510006427764892578e+00 -1.103875994682312012e+00
3.505000000000000000e+03 3.443511199951171875e+01 -1.001630496978759766e+01 2.826914310455322266e+00 9.039581298828125000e+00 3.559948682785034180e+00 -1.003651857376098633e+00
3.506000000000000000e+03 3.557388687133789062e+01 -7.689914703369140625e+00 3.295138120651245117e+00 8.555223464965820312e+00 3.555108547210693359e+00 -3.489900231361389160e-01
3.507000000000000000e+03 3.531168746948242188e+01 -6.555369853973388672e+00 3.456550121307373047e+00 8.608370780944824219e+00 3.619476318359375000e+00 1.467716041952371597e-02
3.508000000000000000e+03 4.116727447509765625e+01 6.654550075531005859e+00 4.021475017070770264e-01 8.104760169982910156e+00 2.552072048187255859e+00 6.520250439643859863e-01
3.509000000000000000e+03 3.420316696166992188e+01 4.437425136566162109e+00 2.397348731756210327e-01 8.823436737060546875e+00 2.718951463699340820e+00 2.637310028076171875e-01
3.510000000000000000e+03 3.493700408935546875e+01 3.857920885086059570e+00 3.962646722793579102e-01 8.829595565795898438e+00 2.767758131027221680e+00 4.185201823711395264e-01
3.511000000000000000e+03 3.731085205078125000e+01 -7.117178440093994141e+00 2.871146678924560547e+00 8.251231193542480469e+00 3.336713552474975586e+00 -1.645762920379638672e-01
3.512000000000000000e+03 3.470559692382812500e+01 -1.402773857116699219e-01 1.381768465042114258e+00 9.209905624389648438e+00 3.177502155303955078e+00 8.476429581642150879e-01
3.513000000000000000e+03 3.716859054565429688e+01 -5.892511844635009766e+00 2.865149259567260742e+00 8.276522636413574219e+00 3.342501640319824219e+00 1.544846743345260620e-01
3.514000000000000000e+03 1.488040065765380859e+01 1.046121835708618164e+00 -1.015135203488171101e-03 -1.306459540501236916e-03 -6.964784115552902222e-04 -2.439461241010576487e-06
3.515000000000000000e+03 1.433596038818359375e+01 8.109902739524841309e-01 -7.206675363704562187e-04 4.525234398897737265e-04 -8.044322748901322484e-05 -7.601489196531474590e-04
3.516000000000000000e+03 1.339948463439941406e+01 9.943951964378356934e-01 -2.911640913225710392e-04 -2.939171827165409923e-05 -9.616674651624634862e-05 7.939600618556141853e-05
3.517000000000000000e+03 1.399857616424560547e+01 1.078236818313598633e+00 3.407546901144087315e-04 6.650428404100239277e-04 3.017392591573297977e-04 8.895708015188574791e-05
3.518000000000000000e+03 1.342517852783203125e+01 2.516243755817413330e-01 4.437435563886538148e-06 2.463596683810465038e-05 8.722020538698416203e-06 -1.563139994686935097e-05
3.519000000000000000e+03 1.503903388977050781e+01 3.840551078319549561e-01 6.742345431121066213e-05 1.491076836828142405e-04 6.495934212580323219e-05 1.205258740810677409e-04
3.520000000000000000e+03 1.424006271362304688e+01 2.423980534076690674e-01 9.213637531502172351e-05 -1.361236645607277751e-04 -1.319618786510545760e-05 -8.759719639783725142e-05
3.521000000000000000e+03 1.447602939605712891e+01 1.142013788223266602e+00 -3.753865312319248915e-04 1.002186108962632716e-04 -8.255037391791120172e-05 -2.954770752694457769e-05
3.522000000000000000e+03 1.113503360748291016e+01 3.384475409984588623e-01 1.583597331773489714e-04 3.096051514148712158e-04 1.403894711984321475e-04 -3.260184530518017709e-05
3.523000000000000000e+03 1.115649890899658203e+01 1.078244447708129883e+00 3.141798370052129030e-04 -1.866118836915120482e-04 3.827038744930177927e-05 3.496433491818606853e-04
3.524000000000000000e+03 1.038435840606689453e+01 3.729175329208374023e-01 3.142805362585932016e-04 -3.220379876438528299e-04 -2.327235961274709553e-06 1.394872087985277176e-04
3.525000000000000000e+03 1.188578510284423828e+01 3.038018345832824707e-01 1.009254701784811914e-04 -2.675007272046059370e-04 -4.997257929062470794e-05 9.975431748898699880e-05
3.526000000000000000e+03 1.263660717010498047e+01 2.689834535121917725e-01 -2.450278225296642631e-05 1.828277017921209335e-04 4.749747677124105394e-05 1.265054493160278071e-06
3.527000000000000000e+03 1.266393947601318359e+01 1.008509635925292969e+00 1.473049778724089265e-04 3.536542863002978265e-05 5.480112304212525487e-05 2.456972433719784021e-04
3.528000000000000000e+03 1.040289020538330078e+01 1.112849831581115723e+00 8.598881686339154840e-05 1.469694398110732436e-04 6.988747190916910768e-05 -2.572432567831128836e-04
3.529000000000000000e+03 1.191018390655517578e+01 1.043463349342346191e+00 8.370834257220849395e-05 8.260771573986858130e-05 4.989481749362312257e-05 -5.206599598750472069e-05
3.530000000000000000e+03 9.630480766296386719e+00 3.871794641017913818e-01 3.149314725305885077e-04 2.298920153407379985e-04 1.634470390854403377e-04 -1.239263801835477352e-04
3.531000000000000000e+03 8.873666763305664062e+00 3.829238712787628174e-01 4.650691407732665539e-04 -7.060851930873468518e-05 1.183381828013807535e-04 2.264903450850397348e-04
3.532000000000000000e+03 9.660673141479492188e+00 1.127179503440856934e+00 4.371236718725413084e-04 -4.834898572880774736e-05 1.166324072983115911e-04 5.822871462441980839e-04
3.533000000000000000e+03 8.116720199584960938e+00 3.805542886257171631e-01 4.339256556704640388e-04 -1.359643065370619297e-04 8.938840619521215558e-05 -2.012283221120014787e-04
3.534000000000000000e+03 7.360193252563476562e+00 3.795430362224578857e-01 5.672125262208282948e-04 3.179546329192817211e-04 2.655501593835651875e-04 2.546666655689477921e-04
3.535000000000000000e+03 5.847065925598144531e+00 3.768712580204010010e-01 5.573402158915996552e-04 5.849351291544735432e-04 3.426826151553541422e-04 2.536053070798516273e-04
3.536000000000000000e+03 5.091114044189453125e+00 3.758820295333862305e-01 3.534228017088025808e-04 -6.483257166109979153e-04 -8.847087156027555466e-05 -3.118486783932894468e-04
3.537000000000000000e+03 3.579006433486938477e+00 3.681437373161315918e-01 1.771108218235895038e-04 -5.688313394784927368e-04 -1.175161451101303101e-04 -2.922529238276183605e-04
3.538000000000000000e+03 2.823871612548828125e+00 3.614119887351989746e-01 2.125858882209286094e-04 4.622127744369208813e-04 2.024395944317802787e-04 1.714119862299412489e-04
3.539000000000000000e+03 2.070111274719238281e+00 3.578882515430450439e-01 8.668247573950793594e-06 -3.220757644157856703e-04 -9.402225987287238240e-05 -2.109369088429957628e-04
3.540000000000000000e+03 2.362852334976196289e+00 1.097888231277465820e+00 1.553428155602887273e-04 2.593565150164067745e-04 1.244098093593493104e-04 8.726518717594444752e-05
3.541000000000000000e+03 1.328713655471801758e+00 3.659794926643371582e-01 5.952396168140694499e-05 2.073694049613550305e-04 8.006800635484978557e-05 1.207763925776816905e-04
3.542000000000000000e+03 1.647709608078002930e+00 1.105979442596435547e+00 6.358625978464260697e-05 -1.059149944921955466e-04 -1.269861968467012048e-05 -2.537360705900937319e-04
3.543000000000000000e+03 6.516475677490234375e-01 3.939257264137268066e-01 6.303540430963039398e-05 -3.717447179951705039e-05 7.758280844427645206e-06 -3.712618854478932917e-05
3.544000000000000000e+03 3.489431142807006836e-01 9.570703506469726562e-01 1.255674942512996495e-05 -4.553276085061952472e-05 -9.892803063848987222e-06 -8.173033711500465870e-05
3.545000000000000000e+03 3.090358018875122070e+00 1.101411938667297363e+00 1.731845259200781584e-04 -3.218429919797927141e-04 -4.459754200070165098e-05 -3.621306968852877617e-04
3.546000000000000000e+03 3.819237709045410156e+00 1.108143687248229980e+00 3.057890280615538359e-04 3.833662194665521383e-04 2.067465829895809293e-04 1.657702669035643339e-04
3.547000000000000000e+03 4.335169315338134766e+00 3.733847737312316895e-01 4.163477860856801271e-04 6.307768635451793671e-04 3.141374036204069853e-04 2.263209171360358596e-04
3.548000000000000000e+03 6.008533000946044922e+00 1.116871237754821777e+00 3.228789137210696936e-04 -4.495426546782255173e-04 -3.799911792157217860e-05 -5.216742865741252899e-04
3.549000000000000000e+03 6.603851795196533203e+00 3.786112964153289795e-01 4.551892925519496202e-04 -4.910263232886791229e-04 -1.075110139936441556e-05 -2.670609392225742340e-04
3.550000000000000000e+03 8.930113792419433594e+00 1.122923851013183594e+00 2.263384230900555849e-04 -7.874776201788336039e-05 4.427719977684319019e-05 -4.605410504154860973e-04
3.551000000000000000e+03 8.199422836303710938e+00 1.120554327964782715e+00 5.123340524733066559e-04 1.546152489027008414e-04 2.000847889576107264e-04 6.369315669871866703e-04
3.552000000000000000e+03 7.469150543212890625e+00 1.119543075561523438e+00 3.093474661000072956e-04 -3.135874576400965452e-04 -1.271998371521476656e-06 -5.289093824103474617e-04
3.553000000000000000e+03 6.739063739776611328e+00 1.118611335754394531e+00 5.405045812949538231e-04 3.286770661361515522e-04 2.607544884085655212e-04 5.195476114749908447e-04
3.554000000000000000e+03 5.278835773468017578e+00 1.115882039070129395e+00 4.766176280099898577e-04 3.986127558164298534e-04 2.625691122375428677e-04 3.319621609989553690e-04
3.555000000000000000e+03 4.549146175384521484e+00 1.113384723663330078e+00 2.724544028751552105e-04 -4.433891444932669401e-04 -5.128042175783775747e-05 -4.748316714540123940e-04
3.556000000000000000e+03 9.968983530998229980e-01 1.133925795555114746e+00 -1.022676151478663087e-04 1.683934824541211128e-04 1.983776019187644124e-05 1.578986848471686244e-04
3.557000000000000000e+03 7.947246074676513672e+00 -3.790149092674255371e-01 -4.194230859866365790e-05 -1.054743916029110551e-04 -4.422500933287665248e-05 1.291401567868888378e-04
3.558000000000000000e+03 8.798082351684570312e+00 -1.121163964271545410e+00 -7.220671977847814560e-05 3.504523192532360554e-05 -1.114844599214848131e-05 2.879120002035051584e-04
3.559000000000000000e+03 9.582462310791015625e+00 -3.862577378749847412e-01 -3.412013757042586803e-05 9.057354327524080873e-05 1.693602098384872079e-05 9.833079093368723989e-05
3.560000000000000000e+03 7.128131389617919922e+00 -3.778152763843536377e-01 5.453474295791238546e-05 2.270889526698738337e-04 8.448711014352738857e-05 -1.630085898796096444e-04
3.561000000000000000e+03 6.302709579467773438e+00 -3.771458566188812256e-01 -4.224209988024085760e-05 -3.513449046295136213e-04 -1.180761028081178665e-04 1.814398710848763585e-04
3.562000000000000000e+03 5.439445972442626953e+00 -3.834656774997711182e-01 -4.753541361424140632e-05 4.033385775983333588e-04 1.067409539246000350e-04 -1.152037075371481478e-04
3.563000000000000000e+03 4.549984931945800781e+00 -3.402172923088073730e-01 5.578318086918443441e-05 -4.262605216354131699e-04 -1.111431993194855750e-04 2.955140189442317933e-06
3.564000000000000000e+03 4.365737915039062500e+00 -8.721476197242736816e-01 1.748275535646826029e-04 3.303235862404108047e-04 1.515453477622941136e-04 2.113611117238178849e-04
3.565000000000000000e+03 2.784216165542602539e+00 -7.810403704643249512e-01 3.513777755870250985e-06 -4.477483525988645852e-05 -1.237831656908383593e-05 1.997483923332765698e-04
3.566000000000000000e+03 1.180924773216247559e+00 -3.613742887973785400e-01 -1.964966650120913982e-04 7.614998321514576674e-05 -3.610400381148792803e-05 5.562441856454825029e-06
3.567000000000000000e+03 4.100910127162933350e-01 -5.529776215553283691e-01 -4.382744737085886300e-05 -1.265867322217673063e-04 -5.112425424158573151e-05 -8.879968663677573204e-05
3.568000000000000000e+03 7.475960254669189453e-01 -1.101374268531799316e+00 6.713551119901239872e-04 2.936908858828246593e-04 2.895137877203524113e-04 2.213719853898510337e-04
3.569000000000000000e+03 9.582078933715820312e+00 -1.126257777214050293e+00 7.101393566699698567e-05 -7.100051880115643144e-05 4.025025646114954725e-09 -2.743627119343727827e-04
3.570000000000000000e+03 8.013586997985839844e+00 -1.119014978408813477e+00 1.037726178765296936e-04 9.242571650247555226e-06 3.390455822227522731e-05 -3.148803371004760265e-04
3.571000000000000000e+03 7.227835178375244141e+00 -1.117815256118774414e+00 -1.027446851367130876e-04 -3.135135557386092842e-05 -4.022880966658703983e-05 3.022222954314202070e-04
3.572000000000000000e+03 6.435775756835937500e+00 -1.117145895957946777e+00 1.158194281742908061e-04 2.011782453337218612e-05 4.078117490280419588e-05 -2.962132566608488560e-04
3.573000000000000000e+03 5.605874538421630859e+00 -1.123465657234191895e+00 2.610252158774528652e-05 -3.946496144635602832e-05 -4.008732503280043602e-06 2.613951801322400570e-04
3.574000000000000000e+03 4.870606899261474609e+00 -1.221678614616394043e+00 -1.163507549790665507e-04 -1.909425191115587950e-04 -9.218798368237912655e-05 -5.007606814615428448e-04
3.575000000000000000e+03 4.215381145477294922e+00 -1.291930317878723145e+00 5.519088881555944681e-05 5.156867337063886225e-05 3.202787047484889627e-05 3.135904844384640455e-04
3.576000000000000000e+03 3.483533143997192383e+00 -1.264367222785949707e+00 -3.774512515519745648e-05 7.652443309780210257e-05 1.163379329227609560e-05 -5.773751581727992743e-06
3.577000000000000000e+03 2.720056772232055664e+00 -1.259521603584289551e+00 1.676004612818360329e-04 -2.130969951394945383e-04 -1.364895797451026738e-05 -8.956271631177514791e-05
3.578000000000000000e+03 1.356012225151062012e+00 -1.203287243843078613e+00 -4.604963469319045544e-04 -6.253405590541660786e-04 -3.257510543335229158e-04 -8.148163760779425502e-05
3.579000000000000000e+03 1.973117947578430176e+00 -8.476541042327880859e-01 3.763732092920690775e-04 2.143830060958862305e-04 1.772268733475357294e-04 -3.297684597782790661e-04
3.580000000000000000e+03 8.765102386474609375e+00 -3.811639845371246338e-01 1.633439205761533231e-05 -1.251897856491268612e-06 4.524748419498791918e-06 -1.150938624050468206e-04
3.581000000000000000e+03 3.694828748703002930e+00 -2.827752828598022461e-01 -1.535017872811295092e-05 3.754732315428555012e-04 1.080369111150503159e-04 8.131186768878251314e-05
3.582000000000000000e+03 2.863922595977783203e+00 -2.815187871456146240e-01 -1.040271308738738298e-04 -2.501727431081235409e-04 -1.062599694705568254e-04 -7.422622002195566893e-05
3.583000000000000000e+03 1.994147539138793945e+00 -3.323310017585754395e-01 -3.623893280746415257e-05 7.669299520784988999e-05 1.213621817441890016e-05 8.220312156481668353e-05
3.584000000000000000e+03 1.978801369667053223e+00 -1.275323033332824707e+00 -1.798471785150468349e-04 5.222163163125514984e-04 1.027107427944429219e-04 1.996339960896875709e-05
3.585000000000000000e+03 3.578665971755981445e+00 -7.871425151824951172e-01 -4.944065221934579313e-05 -1.779763260856270790e-04 -6.822509749326854944e-05 -1.013016080833040178e-04
3.586000000000000000e+03 1.511178874969482422e+01 -1.151870131492614746e+00 -8.228441402025055140e-06 -5.096901804790832102e-05 -1.775923919922206551e-05 -6.286544521572068334e-05
3.587000000000000000e+03 1.328532791137695312e+01 -1.267471551895141602e+00 1.980357774300500751e-05 3.241006197640672326e-05 1.566409264341928065e-05 9.435475658392533660e-05
3.588000000000000000e+03 1.480503654479980469e+01 -5.744030475616455078e-01 7.476231985492631793e-05 1.805421197786927223e-05 2.784495882224291563e-05 6.789525741623947397e-06
3.589000000000000000e+03 1.453040313720703125e+01 -1.313965797424316406e+00 -1.543183170724660158e-04 4.082885789102874696e-05 -3.404683957342058420e-05 1.428543619113042951e-04
3.590000000000000000e+03 1.393833351135253906e+01 -1.278923630714416504e+00 3.047642894671298563e-05 1.371895450574811548e-05 1.325861558143515140e-05 -1.369326346321031451e-04
3.591000000000000000e+03 1.336329460144042969e+01 -5.279909372329711914e-01 4.482133135752519593e-06 -7.030148117337375879e-05 -1.974580300156958401e-05 -4.931589501211419702e-05
3.592000000000000000e+03 1.411463356018066406e+01 -5.394020080566406250e-01 -2.326458798052044585e-06 4.423104110173881054e-05 1.257137500942917541e-05 5.078190952190198004e-05
3.593000000000000000e+03 1.111242771148681641e+01 -4.403275847434997559e-01 -2.624262924655340612e-05 1.843128702603280544e-04 4.742107194033451378e-05 6.157255847938358784e-05
3.594000000000000000e+03 1.260764503479003906e+01 -5.095726251602172852e-01 3.635743951235781424e-06 1.052561419783160090e-04 3.266756539233028889e-05 3.178909173584543169e-05
3.595000000000000000e+03 1.185993289947509766e+01 -4.741277396678924561e-01 2.795818181766662747e-05 -1.593334163771942258e-04 -3.941257091355510056e-05 -3.248126449761912227e-05
3.596000000000000000e+03 1.109096240997314453e+01 -1.180124521255493164e+00 1.121538443840108812e-04 -1.735048572300001979e-04 -1.840530603658407927e-05 -1.655006344662979245e-04
3.597000000000000000e+03 1.036482620239257812e+01 -4.067706167697906494e-01 1.765634806361049414e-05 -1.606259611435234547e-04 -4.289088246878236532e-05 -8.128063200274482369e-05
3.598000000000000000e+03 1.034629440307617188e+01 -1.146702885627746582e+00 -9.212712757289409637e-05 1.332970132352784276e-04 1.235096442542271689e-05 2.569193893577903509e-04
3.599000000000000000e+03 1.258031177520751953e+01 -1.249099493026733398e+00 3.555852163117378950e-05 -1.172501142718829215e-04 -2.450747706461697817e-05 -7.074213499436154962e-05
3.600000000000000000e+03 1.183553314208984375e+01 -1.213789224624633789e+00 -7.526169792981818318e-05 1.642618299229070544e-04 2.670003959792666137e-05 1.092643869924359024e-04
3.601000000000000000e+03 2.602058982849121094e+01 -6.741456985473632812e+00 3.009334754943847656e+01 4.263963222503662109e+00 1.030719375610351562e+01 9.206001281738281250e+00
3.602000000000000000e+03 2.602294921875000000e+01 -6.760782241821289062e+00 2.937273788452148438e+01 1.404528808593750000e+01 1.302540779113769531e+01 2.048518753051757812e+01
3.603000000000000000e+03 2.602902412414550781e+01 -6.779278278350830078e+00 2.806562232971191406e+01 2.462598609924316406e+01 1.580748271942138672e+01 2.490052986145019531e+01
3.604000000000000000e+03 2.603858375549316406e+01 -6.796237945556640625e+00 2.507902145385742188e+01 3.606777191162109375e+01 1.834403800964355469e+01 2.694441223144531250e+01
3.605000000000000000e+03 2.605126190185546875e+01 -6.811011791229248047e+00 2.206953620910644531e+01 4.692435073852539062e+01 2.069816589355468750e+01 2.617008590698242188e+01
3.606000000000000000e+03 2.606657409667968750e+01 -6.823034763336181641e+00 1.886367034912109375e+01 5.671292877197265625e+01 2.267297935485839844e+01 2.299364089965820312e+01
3.607000000000000000e+03 2.608393478393554688e+01 -6.831846237182617188e+00 1.686367988586425781e+01 6.435286712646484375e+01 2.436496353149414062e+01 1.783682823181152344e+01
3.608000000000000000e+03 2.610267829895019531e+01 -6.837110042572021484e+00 1.611902236938476562e+01 6.925921630859375000e+01 2.561347007751464844e+01 1.130136966705322266e+01
3.609000000000000000e+03 2.612208747863769531e+01 -6.838623523712158203e+00 1.741054534912109375e+01 7.115090179443359375e+01 2.656843376159667969e+01 4.523483753204345703e+00
3.610000000000000000e+03 2.614142036437988281e+01 -6.836329936981201172e+00 2.041218566894531250e+01 7.013190460205078125e+01 2.716322708129882812e+01 -1.769176006317138672e+00
3.611000000000000000e+03 2.615993499755859375e+01 -6.830316066741943359e+00 2.479730033874511719e+01 6.688285064697265625e+01 2.750404548645019531e+01 -6.544942855834960938e+00
3.612000000000000000e+03 2.617692756652832031e+01 -6.820812702178955078e+00 2.991259956359863281e+01 6.213586807250976562e+01 2.761454010009765625e+01 -9.448571205139160156e+00
3.613000000000000000e+03 2.619174385070800781e+01 -6.808183193206787109e+00 3.509271240234375000e+01 5.700698852539062500e+01 2.762990951538085938e+01 -1.024676036834716797e+01
3.614000000000000000e+03 2.620381736755371094e+01 -6.792911052703857422e+00 3.962403869628906250e+01 5.211978912353515625e+01 2.752314758300781250e+01 -9.194386482238769531e+00
3.615000000000000000e+03 2.621268653869628906e+01 -6.775580406188964844e+00 4.308092880249023438e+01 4.835516357421875000e+01 2.743082809448242188e+01 -6.662460803985595703e+00
3.616000000000000000e+03 2.621801185607910156e+01 -6.756854534149169922e+00 4.524548721313476562e+01 4.606011581420898438e+01 2.739168167114257812e+01 -3.106581926345825195e+00
3.617000000000000000e+03 2.621958923339843750e+01 -6.737450599670410156e+00 4.588038635253906250e+01 4.534861755371093750e+01 2.736870002746582031e+01 9.144874215126037598e-01
3.618000000000000000e+03 2.621735954284667969e+01 -6.718110084533691406e+00 4.503912734985351562e+01 4.648725509643554688e+01 2.745791625976562500e+01 4.887095451354980469e+00
3.619000000000000000e+03 2.621140861511230469e+01 -6.699573993682861328e+00 4.267241287231445312e+01 4.924539184570312500e+01 2.757534027099609375e+01 8.331823348999023438e+00
3.620000000000000000e+03 2.620196151733398438e+01 -6.682551383972167969e+00 3.897134399414062500e+01 5.346547317504882812e+01 2.773104476928710938e+01 1.068284034729003906e+01
3.621000000000000000e+03 2.618938064575195312e+01 -6.667693614959716797e+00 3.419639968872070312e+01 5.856646728515625000e+01 2.782886123657226562e+01 1.145229816436767578e+01
3.622000000000000000e+03 2.617414855957031250e+01 -6.655569553375244141e+00 2.890599632263183594e+01 6.395902633666992188e+01 2.785950660705566406e+01 1.022433757781982422e+01
3.623000000000000000e+03 2.615684700012207031e+01 -6.646642684936523438e+00 2.374251365661621094e+01 6.862619018554687500e+01 2.771061134338378906e+01 6.900387287139892578e+00
3.624000000000000000e+03 2.613813972473144531e+01 -6.641254901885986328e+00 1.944327163696289062e+01 7.170423126220703125e+01 2.734424972534179688e+01 1.611875653266906738e+00
3.625000000000000000e+03 2.611874198913574219e+01 -6.639611721038818359e+00 1.664612007141113281e+01 7.225197601318359375e+01 2.666942977905273438e+01 -4.935173988342285156e+00
3.626000000000000000e+03 2.609939384460449219e+01 -6.641777038574218750e+00 1.582850170135498047e+01 6.981882476806640625e+01 2.569419860839843750e+01 -1.205998611450195312e+01
3.627000000000000000e+03 2.608083724975585938e+01 -6.647667884826660156e+00 1.678703308105468750e+01 6.428204345703125000e+01 2.432072257995605469e+01 -1.854874038696289062e+01
3.628000000000000000e+03 2.606378364562988281e+01 -6.657058238983154297e+00 1.958060264587402344e+01 5.588927841186523438e+01 2.264096450805664062e+01 -2.367163467407226562e+01
3.629000000000000000e+03 2.604888534545898438e+01 -6.669589042663574219e+00 2.287977790832519531e+01 4.549557495117187500e+01 2.051260566711425781e+01 -2.655431747436523438e+01
3.630000000000000000e+03 2.603670883178710938e+01 -6.684780597686767578e+00 2.718805122375488281e+01 3.361604309082031250e+01 1.824122810363769531e+01 -2.661186218261718750e+01
3.631000000000000000e+03 2.602772521972656250e+01 -6.702051639556884766e+00 3.033488845825195312e+01 2.154884910583496094e+01 1.556512165069580078e+01 -2.386422920227050781e+01
3.632000000000000000e+03 2.602227592468261719e+01 -6.720741748809814453e+00 3.477022171020507812e+01 8.088988304138183594e+00 1.285776233673095703e+01 -1.428673934936523438e+01
