# el_label, x, y, sXX, sYY, sZZ, sXY
1.000000000000000000e+00 7.381797790527343750e+01 -6.422575473785400391e+00 -7.359354019165039062e+00 -2.673455238342285156e+00 -3.009842872619628906e+00 -2.855468273162841797e+00
2.000000000000000000e+00 7.362004089355468750e+01 -6.443558216094970703e+00 -3.165928840637207031e+00 1.016250491142272949e+00 -6.449035406112670898e-01 7.194803953170776367e-01
3.000000000000000000e+00 7.342211151123046875e+01 -6.464540958404541016e+00 -4.522943496704101562e+00 -4.397274553775787354e-01 -1.488801240921020508e+00 -5.191255360841751099e-02
4.000000000000000000e+00 7.322417449951171875e+01 -6.485523223876953125e+00 -4.815400123596191406e+00 2.791628837585449219e-01 -1.360871195793151855e+00 6.367865949869155884e-02
5.000000000000000000e+00 7.382978820800781250e+01 -6.479773998260498047e+00 8.245810508728027344e+00 -2.430327892303466797e+00 1.744644761085510254e+00 2.060194015502929688e+00
6.000000000000000000e+00 7.363972473144531250e+01 -6.538888931274414062e+00 8.248370289802551270e-01 3.633656799793243408e-01 3.564608097076416016e-01 1.394425988197326660e+00
7.000000000000000000e+00 7.344966125488281250e+01 -6.598003864288330078e+00 6.361529827117919922e-01 8.863266110420227051e-01 4.567438662052154541e-01 2.146910905838012695e+00
8.000000000000000000e+00 7.325960540771484375e+01 -6.657118320465087891e+00 -7.556748390197753906e-01 3.042549788951873779e-01 -1.354259550571441650e-01 1.387333273887634277e+00
9.000000000000000000e+00 7.385250091552734375e+01 -6.533578872680664062e+00 1.326604557037353516e+01 2.804461717605590820e+00 4.821152210235595703e+00 9.329587936401367188e+00
1.000000000000000000e+01 7.367758941650390625e+01 -6.628563880920410156e+00 6.791923046112060547e+00 1.751563668251037598e+00 2.563045978546142578e+00 5.363509654998779297e+00
1.100000000000000000e+01 7.350267028808593750e+01 -6.723548889160156250e+00 3.456137657165527344e+00 2.129018068313598633e+00 1.675546765327453613e+00 4.247469902038574219e+00
1.200000000000000000e+01 7.332775878906250000e+01 -6.818533897399902344e+00 2.576299190521240234e+00 2.084974288940429688e+00 1.398382067680358887e+00 4.051802158355712891e+00
1.300000000000000000e+01 7.388526153564453125e+01 -6.581932067871093750e+00 1.480451965332031250e+01 1.012405014038085938e+01 7.478570938110351562e+00 1.476905345916748047e+01
1.400000000000000000e+01 7.373218536376953125e+01 -6.709152221679687500e+00 8.299640655517578125e+00 6.241871833801269531e+00 4.362453937530517578e+00 9.623213768005371094e+00
1.500000000000000000e+01 7.357910156250000000e+01 -6.836372375488281250e+00 5.880708217620849609e+00 5.132692813873291016e+00 3.304020166397094727e+00 7.498434066772460938e+00
1.600000000000000000e+01 7.342602539062500000e+01 -6.963592529296875000e+00 3.830702543258666992e+00 4.414083480834960938e+00 2.473435878753662109e+00 6.370916843414306641e+00
1.700000000000000000e+01 7.392680358886718750e+01 -6.622982025146484375e+00 1.267912006378173828e+01 1.903535079956054688e+01 9.514341354370117188e+00 1.804616355895996094e+01
1.800000000000000000e+01 7.380142211914062500e+01 -6.777569770812988281e+00 8.274932861328125000e+00 1.236549758911132812e+01 6.192129135131835938e+00 1.263576602935791016e+01
1.900000000000000000e+01 7.367604064941406250e+01 -6.932156562805175781e+00 5.619442939758300781e+00 9.799820899963378906e+00 4.625779151916503906e+00 1.001142883300781250e+01
2.000000000000000000e+01 7.355066680908203125e+01 -7.086743831634521484e+00 4.219504833221435547e+00 8.399012565612792969e+00 3.785555362701416016e+00 8.689699172973632812e+00
2.100000000000000000e+01 7.397554779052734375e+01 -6.655158996582031250e+00 9.747467041015625000e+00 2.817868804931640625e+01 1.137784671783447266e+01 1.857808113098144531e+01
2.200000000000000000e+01 7.388265991210937500e+01 -6.831197738647460938e+00 6.358897686004638672e+00 1.923246002197265625e+01 7.677407264709472656e+00 1.371092605590820312e+01
2.300000000000000000e+01 7.378977203369140625e+01 -7.007236480712890625e+00 4.544852256774902344e+00 1.543539714813232422e+01 5.994074821472167969e+00 1.137600231170654297e+01
2.400000000000000000e+01 7.369689178466796875e+01 -7.183275222778320312e+00 3.214788675308227539e+00 1.320210647583007812e+01 4.925068378448486328e+00 9.757456779479980469e+00
2.500000000000000000e+01 7.402961730957031250e+01 -6.677231788635253906e+00 6.524410724639892578e+00 3.644734573364257812e+01 1.289152717590332031e+01 1.638146209716796875e+01
2.600000000000000000e+01 7.397278594970703125e+01 -6.867985248565673828e+00 4.391741275787353516e+00 2.587775039672851562e+01 9.080847740173339844e+00 1.294513416290283203e+01
2.700000000000000000e+01 7.391594696044921875e+01 -7.058738708496093750e+00 2.769826412200927734e+00 2.102970504760742188e+01 7.139859676361083984e+00 1.095872974395751953e+01
2.800000000000000000e+01 7.385910797119140625e+01 -7.249492168426513672e+00 1.832163453102111816e+00 1.830025482177734375e+01 6.039725780487060547e+00 9.663320541381835938e+00
2.900000000000000000e+01 7.408695220947265625e+01 -6.688354492187500000e+00 4.678299427032470703e+00 4.282955551147460938e+01 1.425235652923583984e+01 1.224380016326904297e+01
3.000000000000000000e+01 7.406833648681640625e+01 -6.886523246765136719e+00 2.731557607650756836e+00 3.143168067932128906e+01 1.024897098541259766e+01 1.040720653533935547e+01
3.100000000000000000e+01 7.404972839355468750e+01 -7.084692478179931641e+00 1.419716477394104004e+00 2.599637794494628906e+01 8.224828720092773438e+00 9.116659164428710938e+00
3.200000000000000000e+01 7.403111267089843750e+01 -7.282861232757568359e+00 5.462579131126403809e-01 2.257890701293945312e+01 6.937549591064453125e+00 8.131952285766601562e+00
3.300000000000000000e+01 7.414535522460937500e+01 -6.688102722167968750e+00 4.578400135040283203e+00 4.671308898925781250e+01 1.538744735717773438e+01 6.949547290802001953e+00
3.400000000000000000e+01 7.416567993164062500e+01 -6.886103153228759766e+00 2.252977132797241211e+00 3.539109420776367188e+01 1.129322052001953125e+01 6.839308738708496094e+00
3.500000000000000000e+01 7.418600463867187500e+01 -7.084104061126708984e+00 8.515010476112365723e-01 2.962324905395507812e+01 9.142424583435058594e+00 6.124486446380615234e+00
3.600000000000000000e+01 7.420632171630859375e+01 -7.282104969024658203e+00 -1.372493803501129150e-02 2.589664840698242188e+01 7.764876842498779297e+00 5.539560317993164062e+00
3.700000000000000000e+01 7.420259094238281250e+01 -6.676485061645507812e+00 6.427379131317138672e+00 4.806885910034179688e+01 1.634887123107910156e+01 1.756409287452697754e+00
3.800000000000000000e+01 7.426107788085937500e+01 -6.866741180419921875e+00 3.189790725708007812e+00 3.743133544921875000e+01 1.218633747100830078e+01 2.778953552246093750e+00
3.900000000000000000e+01 7.431955718994140625e+01 -7.056996822357177734e+00 1.438753604888916016e+00 3.166674232482910156e+01 9.931649208068847656e+00 2.742351770401000977e+00
4.000000000000000000e+01 7.437803649902343750e+01 -7.247252941131591797e+00 4.027129411697387695e-01 2.797213935852050781e+01 8.512455940246582031e+00 2.471947193145751953e+00
4.100000000000000000e+01 7.425647735595703125e+01 -6.653946876525878906e+00 9.963794708251953125e+00 4.724026870727539062e+01 1.716121864318847656e+01 -2.553547382354736328e+00
4.200000000000000000e+01 7.435087585449218750e+01 -6.829177379608154297e+00 5.404616355895996094e+00 3.767320632934570312e+01 1.292334651947021484e+01 -8.949439525604248047e-01
4.300000000000000000e+01 7.444528198242187500e+01 -7.004407882690429688e+00 3.316360235214233398e+00 3.209162139892578125e+01 1.062239456176757812e+01 -5.173753499984741211e-01
4.400000000000000000e+01 7.453968048095703125e+01 -7.179638385772705078e+00 1.868139863014221191e+00 2.850509071350097656e+01 9.111968994140625000e+00 -2.972812056541442871e-01
4.500000000000000000e+01 7.430493164062500000e+01 -6.621350288391113281e+00 1.433315849304199219e+01 4.501278686523437500e+01 1.780378341674804688e+01 -5.295465946197509766e+00
4.600000000000000000e+01 7.443164825439453125e+01 -6.774849891662597656e+00 8.751689910888671875e+00 3.638727951049804688e+01 1.354168987274169922e+01 -3.650569677352905273e+00
4.700000000000000000e+01 7.455835723876953125e+01 -6.928349494934082031e+00 6.030068874359130859e+00 3.123126983642578125e+01 1.117840099334716797e+01 -2.958633661270141602e+00
4.800000000000000000e+01 7.468506622314453125e+01 -7.081849098205566406e+00 4.424034118652343750e+00 2.767319107055664062e+01 9.629167556762695312e+00 -2.556512117385864258e+00
4.900000000000000000e+01 7.434612274169921875e+01 -6.579943180084228516e+00 1.894041442871093750e+01 4.209842300415039062e+01 1.831165122985839844e+01 -6.306701183319091797e+00
5.000000000000000000e+01 7.450028991699218750e+01 -6.705837726593017578e+00 1.247919845581054688e+01 3.426548385620117188e+01 1.402340412139892578e+01 -5.038773536682128906e+00
5.100000000000000000e+01 7.465445709228515625e+01 -6.831731796264648438e+00 9.340329170227050781e+00 2.939513015747070312e+01 1.162063789367675781e+01 -4.256891250610351562e+00
5.200000000000000000e+01 7.480863189697265625e+01 -6.957626342773437500e+00 7.267353534698486328e+00 2.623489570617675781e+01 1.005067443847656250e+01 -3.822877407073974609e+00
5.300000000000000000e+01 7.437846374511718750e+01 -6.531309127807617188e+00 2.291791725158691406e+01 3.934570312500000000e+01 1.867908668518066406e+01 -5.742803096771240234e+00
5.400000000000000000e+01 7.455419158935546875e+01 -6.624781131744384766e+00 1.611478805541992188e+01 3.182691001892089844e+01 1.438250923156738281e+01 -4.913358211517333984e+00
5.500000000000000000e+01 7.472991943359375000e+01 -6.718253135681152344e+00 1.244544124603271484e+01 2.738812828063964844e+01 1.195007133483886719e+01 -4.310121059417724609e+00
5.600000000000000000e+01 7.490564727783203125e+01 -6.811724662780761719e+00 1.012357997894287109e+01 2.436366462707519531e+01 1.034617328643798828e+01 -3.813157081604003906e+00
5.700000000000000000e+01 7.440071868896484375e+01 -6.477310180664062500e+00 2.583236694335937500e+01 3.720734405517578125e+01 1.891191291809082031e+01 -3.922904729843139648e+00
5.800000000000000000e+01 7.459127807617187500e+01 -6.534782409667968750e+00 1.894308090209960938e+01 2.981897926330566406e+01 1.462861824035644531e+01 -3.538439273834228516e+00
5.900000000000000000e+01 7.478184509277343750e+01 -6.592254638671875000e+00 1.490735340118408203e+01 2.563848304748535156e+01 1.216375064849853516e+01 -3.080006599426269531e+00
6.000000000000000000e+01 7.497240447998046875e+01 -6.649727344512939453e+00 1.230478858947753906e+01 2.276501846313476562e+01 1.052094268798828125e+01 -2.850298881530761719e+00
6.100000000000000000e+01 7.441202545166015625e+01 -6.420011997222900391e+00 2.739142608642578125e+01 3.612887573242187500e+01 1.905609130859375000e+01 -1.345705866813659668e+00
6.200000000000000000e+01 7.461013793945312500e+01 -6.439285278320312500e+00 2.043666076660156250e+01 2.863234901428222656e+01 1.472070312500000000e+01 -1.262139081954956055e+00
6.300000000000000000e+01 7.480824279785156250e+01 -6.458559036254882812e+00 1.633524703979492188e+01 2.466156196594238281e+01 1.229904270172119141e+01 -1.074930429458618164e+00
6.400000000000000000e+01 7.500634765625000000e+01 -6.477832794189453125e+00 1.345255184173583984e+01 2.189233398437500000e+01 1.060346508026123047e+01 -1.016468882560729980e+00
6.500000000000000000e+01 7.441197204589843750e+01 -6.361607074737548828e+00 2.734632301330566406e+01 3.603496932983398438e+01 1.901438713073730469e+01 1.461664438247680664e+00
6.600000000000000000e+01 7.461003875732421875e+01 -6.341944694519042969e+00 2.045795249938964844e+01 2.873956680297851562e+01 1.475925540924072266e+01 1.346850037574768066e+00
6.700000000000000000e+01 7.480811309814453125e+01 -6.322281837463378906e+00 1.629113960266113281e+01 2.456002807617187500e+01 1.225535011291503906e+01 1.182004570960998535e+00
6.800000000000000000e+01 7.500617980957031250e+01 -6.302619457244873047e+00 1.361205673217773438e+01 2.201392173767089844e+01 1.068779373168945312e+01 1.085137605667114258e+00
6.900000000000000000e+01 7.440054321289062500e+01 -6.304331302642822266e+00 2.583028221130371094e+01 3.726503372192382812e+01 1.892859458923339844e+01 4.007221221923828125e+00
7.000000000000000000e+01 7.459099578857421875e+01 -6.246484756469726562e+00 1.889027976989746094e+01 2.979584884643554688e+01 1.460583877563476562e+01 3.636463880538940430e+00
7.100000000000000000e+01 7.478144836425781250e+01 -6.188638210296630859e+00 1.494132614135742188e+01 2.567737579345703125e+01 1.218561077117919922e+01 3.161264896392822266e+00
7.200000000000000000e+01 7.497189331054687500e+01 -6.130791664123535156e+00 1.228323745727539062e+01 2.282371330261230469e+01 1.053208541870117188e+01 2.826889038085937500e+00
7.300000000000000000e+01 7.437818908691406250e+01 -6.250376224517822266e+00 2.286593627929687500e+01 3.937250900268554688e+01 1.867153358459472656e+01 5.823200225830078125e+00
7.400000000000000000e+01 7.455373382568359375e+01 -6.156559467315673828e+00 1.607865905761718750e+01 3.184747886657714844e+01 1.437784099578857422e+01 5.003062248229980469e+00
7.500000000000000000e+01 7.472927856445312500e+01 -6.062742710113525391e+00 1.245335865020751953e+01 2.740616989135742188e+01 1.195785903930664062e+01 4.332161426544189453e+00
7.600000000000000000e+01 7.490482330322265625e+01 -5.968925952911376953e+00 9.961701393127441406e+00 2.446469306945800781e+01 1.032791805267333984e+01 3.933142662048339844e+00
7.700000000000000000e+01 7.434575653076171875e+01 -6.201805591583251953e+00 1.884114456176757812e+01 4.211540985107421875e+01 1.828696632385253906e+01 6.392723560333251953e+00
7.800000000000000000e+01 7.449967193603515625e+01 -6.075608730316162109e+00 1.247453212738037109e+01 3.428975296020507812e+01 1.402928638458251953e+01 5.069589138031005859e+00
7.900000000000000000e+01 7.465359497070312500e+01 -5.949411869049072266e+00 9.260052680969238281e+00 2.942952537536621094e+01 1.160687351226806641e+01 4.312450408935546875e+00
8.000000000000000000e+01 7.480751800537109375e+01 -5.823215007781982422e+00 7.330272674560546875e+00 2.621723747253417969e+01 1.006425285339355469e+01 3.943208932876586914e+00
8.100000000000000000e+01 7.430448913574218750e+01 -6.160479545593261719e+00 1.429290580749511719e+01 4.503630065917968750e+01 1.779876136779785156e+01 5.338948249816894531e+00
8.200000000000000000e+01 7.443089294433593750e+01 -6.006731510162353516e+00 8.666457176208496094e+00 3.640296554565429688e+01 1.352082729339599609e+01 3.680672645568847656e+00
8.300000000000000000e+01 7.455729675292968750e+01 -5.852983474731445312e+00 6.055803775787353516e+00 3.124204826354980469e+01 1.118935585021972656e+01 2.994244575500488281e+00
8.400000000000000000e+01 7.468370819091796875e+01 -5.699235439300537109e+00 4.443878173828125000e+00 2.761735725402832031e+01 9.618370056152343750e+00 2.585472345352172852e+00
8.500000000000000000e+01 7.425595855712890625e+01 -6.127978324890136719e+00 9.862062454223632812e+00 4.723930358886718750e+01 1.713040924072265625e+01 2.570344924926757812e+00
8.600000000000000000e+01 7.435001373291015625e+01 -5.952562808990478516e+00 5.387495994567871094e+00 3.767910385131835938e+01 1.291998004913330078e+01 9.221254587173461914e-01
8.700000000000000000e+01 7.444406890869140625e+01 -5.777147293090820312e+00 3.287437915802001953e+00 3.208089065551757812e+01 1.061049842834472656e+01 5.090649724006652832e-01
8.800000000000000000e+01 7.453813171386718750e+01 -5.601731777191162109e+00 1.972291588783264160e+00 2.846982955932617188e+01 9.132636070251464844e+00 2.999816238880157471e-01
8.900000000000000000e+01 7.420203399658203125e+01 -6.105545997619628906e+00 6.370297908782958984e+00 4.807037353515625000e+01 1.633220100402832031e+01 -1.764763116836547852e+00
9.000000000000000000e+01 7.426013946533203125e+01 -5.915175437927246094e+00 3.160341501235961914e+00 3.737009429931640625e+01 1.215913105010986328e+01 -2.770747184753417969e+00
9.100000000000000000e+01 7.431824493408203125e+01 -5.724805355072021484e+00 1.430094003677368164e+00 3.167854309082031250e+01 9.932591438293457031e+00 -2.722756624221801758e+00
9.200000000000000000e+01 7.437635040283203125e+01 -5.534434795379638672e+00 4.721077680587768555e-01 2.794192886352539062e+01 8.524210929870605469e+00 -2.558659791946411133e+00
9.300000000000000000e+01 7.414477539062500000e+01 -6.094040870666503906e+00 4.495876789093017578e+00 4.664676666259765625e+01 1.534279251098632812e+01 -6.953646659851074219e+00
9.400000000000000000e+01 7.416470336914062500e+01 -5.896000862121582031e+00 2.273665428161621094e+00 3.534603500366210938e+01 1.128590965270996094e+01 -6.854008674621582031e+00
9.500000000000000000e+01 7.418463897705078125e+01 -5.697960376739501953e+00 8.507930040359497070e-01 2.952333450317382812e+01 9.112237930297851562e+00 -6.080553531646728516e+00
9.600000000000000000e+01 7.420457458496093750e+01 -5.499919891357421875e+00 -5.606609582901000977e-02 2.596600914001464844e+01 7.772983074188232422e+00 -5.579516887664794922e+00
9.700000000000000000e+01 7.408637237548828125e+01 -6.093903541564941406e+00 4.678778171539306641e+00 4.275862884521484375e+01 1.423122215270996094e+01 -1.227669906616210938e+01
9.800000000000000000e+01 7.406736755371093750e+01 -5.895771980285644531e+00 2.705778837203979492e+00 3.132955551147460938e+01 1.021059989929199219e+01 -1.038878250122070312e+01
9.900000000000000000e+01 7.404836273193359375e+01 -5.697639942169189453e+00 1.493412256240844727e+00 2.590161705017089844e+01 8.218508720397949219e+00 -9.119500160217285156e+00
1.000000000000000000e+02 7.402936553955078125e+01 -5.499507904052734375e+00 4.638659358024597168e-01 2.244804000854492188e+01 6.873571872711181641e+00 -8.029212951660156250e+00
1.010000000000000000e+02 7.402906036376953125e+01 -6.105139255523681641e+00 6.454066753387451172e+00 3.633109664916992188e+01 1.283554935455322266e+01 -1.638379669189453125e+01
1.020000000000000000e+02 7.397184753417968750e+01 -5.914497852325439453e+00 4.455821990966796875e+00 2.576944541931152344e+01 9.067580223083496094e+00 -1.294417476654052734e+01
1.030000000000000000e+02 7.391463470458984375e+01 -5.723856449127197266e+00 2.770170927047729492e+00 2.091952323913574219e+01 7.106907844543457031e+00 -1.092718410491943359e+01
1.040000000000000000e+02 7.385742187500000000e+01 -5.533214569091796875e+00 1.898209571838378906e+00 1.809958076477050781e+01 5.999337196350097656e+00 -9.665045738220214844e+00
1.050000000000000000e+02 7.397502136230468750e+01 -6.127317905426025391e+00 9.732667922973632812e+00 2.805606842041015625e+01 1.133662128448486328e+01 -1.854966545104980469e+01
1.060000000000000000e+02 7.388179779052734375e+01 -5.951461791992187500e+00 6.340605258941650391e+00 1.913871574401855469e+01 7.643796443939208984e+00 -1.370581817626953125e+01
1.070000000000000000e+02 7.378856658935546875e+01 -5.775606155395507812e+00 4.641204833984375000e+00 1.530732631683349609e+01 5.984559059143066406e+00 -1.135934543609619141e+01
1.080000000000000000e+02 7.369532775878906250e+01 -5.599750041961669922e+00 3.183040142059326172e+00 1.316478061676025391e+01 4.904345989227294922e+00 -9.772491455078125000e+00
1.090000000000000000e+02 7.392634582519531250e+01 -6.159590244293212891e+00 1.264030551910400391e+01 1.892221260070800781e+01 9.468755722045898438e+00 -1.799366950988769531e+01
1.100000000000000000e+02 7.380066680908203125e+01 -6.005249500274658203e+00 8.235728263854980469e+00 1.227433204650878906e+01 6.153017997741699219e+00 -1.260592651367187500e+01
1.110000000000000000e+02 7.367498016357421875e+01 -5.850908756256103516e+00 5.656151771545410156e+00 9.755808830261230469e+00 4.623588085174560547e+00 -1.003184509277343750e+01
1.120000000000000000e+02 7.354930114746093750e+01 -5.696568012237548828e+00 4.289167881011962891e+00 8.452488899230957031e+00 3.822496891021728516e+00 -8.643106460571289062e+00
1.130000000000000000e+02 7.388488006591796875e+01 -6.200722217559814453e+00 1.467722129821777344e+01 1.000917148590087891e+01 7.405918121337890625e+00 -1.470960617065429688e+01
1.140000000000000000e+02 7.373155975341796875e+01 -6.073802947998046875e+00 8.265928268432617188e+00 6.205452919006347656e+00 4.341414451599121094e+00 -9.571593284606933594e+00
1.150000000000000000e+02 7.357823181152343750e+01 -5.946883201599121094e+00 5.796935558319091797e+00 5.110759735107421875e+00 3.272308588027954102e+00 -7.497351169586181641e+00
1.160000000000000000e+02 7.342490386962890625e+01 -5.819963932037353516e+00 3.919164180755615234e+00 4.604413509368896484e+00 2.557073354721069336e+00 -6.327573299407958984e+00
1.170000000000000000e+02 7.385222625732421875e+01 -6.249139308929443359e+00 1.312592315673828125e+01 2.770714759826660156e+00 4.768991470336914062e+00 -9.246048927307128906e+00
1.180000000000000000e+02 7.367712402343750000e+01 -6.154498100280761719e+00 6.663880348205566406e+00 1.696422934532165527e+00 2.508090972900390625e+00 -5.327827930450439453e+00
1.190000000000000000e+02 7.350202178955078125e+01 -6.059856891632080078e+00 3.376454114913940430e+00 2.197466135025024414e+00 1.672176003456115723e+00 -4.203722953796386719e+00
1.200000000000000000e+02 7.332691955566406250e+01 -5.965215682983398438e+00 2.439481258392333984e+00 2.114392280578613281e+00 1.366162061691284180e+00 -3.918457508087158203e+00
1.210000000000000000e+02 7.382961273193359375e+01 -6.302989006042480469e+00 8.007390022277832031e+00 -2.449395179748535156e+00 1.667398333549499512e+00 -2.010414361953735352e+00
1.220000000000000000e+02 7.363943481445312500e+01 -6.244247913360595703e+00 6.882961392402648926e-01 3.467569351196289062e-01 3.105159103870391846e-01 -1.358060121536254883e+00
1.230000000000000000e+02 7.344925689697265625e+01 -6.185505867004394531e+00 4.707370996475219727e-01 9.469699263572692871e-01 4.253121018409729004e-01 -2.080012559890747070e+00
1.240000000000000000e+02 7.325908660888671875e+01 -6.126764297485351562e+00 -8.189150691032409668e-01 1.841420531272888184e-01 -1.904319077730178833e-01 -1.275839805603027344e+00
1.250000000000000000e+02 7.381791687011718750e+01 -6.360210418701171875e+00 -7.641843318939208984e+00 -2.712314605712890625e+00 -3.106247425079345703e+00 2.870238780975341797e+00
1.260000000000000000e+02 7.361994171142578125e+01 -6.339616775512695312e+00 -3.386099815368652344e+00 1.052395462989807129e+00 -7.001113295555114746e-01 -7.145584225654602051e-01
1.270000000000000000e+02 7.342196655273437500e+01 -6.319022655487060547e+00 -4.635012149810791016e+00 -4.494812786579132080e-01 -1.525347948074340820e+00 1.029327958822250366e-01
1.280000000000000000e+02 7.322399902343750000e+01 -6.298429012298583984e+00 -4.875668525695800781e+00 2.393717616796493530e-01 -1.390888929367065430e+00 -8.011316508054733276e-02
1.290000000000000000e+02 2.196186065673828125e+01 -6.700578212738037109e+00 -1.426753699779510498e-01 3.012228757143020630e-03 -4.189894348382949829e-02 -2.105898922309279442e-03
1.300000000000000000e+02 2.033289909362792969e+01 -7.179516792297363281e+00 -1.030387729406356812e-01 5.841290112584829330e-03 -2.915924601256847382e-02 -3.322487697005271912e-02
1.310000000000000000e+02 2.261169624328613281e+01 -7.556783676147460938e+00 -2.324500381946563721e-01 6.466062739491462708e-03 -6.779519468545913696e-02 -5.116709321737289429e-02
1.320000000000000000e+02 2.185197448730468750e+01 -7.432458400726318359e+00 -1.843505948781967163e-01 6.738669238984584808e-03 -5.328357964754104614e-02 -4.548492282629013062e-02
1.330000000000000000e+02 2.270871162414550781e+01 -6.822772979736328125e+00 -2.031358331441879272e-01 -9.578231838531792164e-04 -6.122809648513793945e-02 -1.133501296862959862e-03
1.340000000000000000e+02 2.121509361267089844e+01 -6.576943874359130859e+00 -9.555289149284362793e-02 1.904689590446650982e-03 -2.809445932507514954e-02 -5.883343052119016647e-03
1.350000000000000000e+02 2.046852302551269531e+01 -6.451897144317626953e+00 -5.561087653040885925e-02 4.513342864811420441e-03 -1.532926037907600403e-02 -9.355814196169376373e-03
1.360000000000000000e+02 2.109233665466308594e+01 -7.306693553924560547e+00 -1.380784958600997925e-01 8.185406215488910675e-03 -3.896792605519294739e-02 -3.888494148850440979e-02
1.370000000000000000e+02 2.421343040466308594e+01 -6.977969646453857422e+00 -3.147450089454650879e-01 7.945095421746373177e-04 -9.418515115976333618e-02 -2.155713969841599464e-03
1.380000000000000000e+02 2.414235687255859375e+01 -7.714632511138916016e+00 -3.334245085716247559e-01 4.666991531848907471e-03 -9.862725436687469482e-02 -5.188932642340660095e-02
1.390000000000000000e+02 2.337517356872558594e+01 -7.650850772857666016e+00 -2.807198464870452881e-01 3.666436299681663513e-03 -8.311601728200912476e-02 -5.097144469618797302e-02
1.400000000000000000e+02 2.490980529785156250e+01 -7.777047634124755859e+00 -3.870118558406829834e-01 2.876065904274582863e-03 -1.152407377958297729e-01 -5.687650293111801147e-02
1.410000000000000000e+02 2.496787261962890625e+01 -7.039327144622802734e+00 -3.736023306846618652e-01 1.131438068114221096e-03 -1.117412671446800232e-01 -4.177616792730987072e-04
1.420000000000000000e+02 2.567740631103515625e+01 -7.838097095489501953e+00 -4.366360902786254883e-01 -1.949474564753472805e-03 -1.315756738185882568e-01 -6.157241016626358032e-02
1.430000000000000000e+02 2.572246742248535156e+01 -7.099318504333496094e+00 -4.438236057758331299e-01 -2.957182470709085464e-03 -1.340342313051223755e-01 -2.783329458907246590e-03
1.440000000000000000e+02 2.345925331115722656e+01 -6.915245532989501953e+00 -2.626949548721313477e-01 -1.356783468509092927e-04 -7.884918898344039917e-02 -2.550098346546292305e-03
1.450000000000000000e+02 2.796761512756347656e+01 -7.914083957672119141e+00 -5.958997607231140137e-01 -3.484016982838511467e-03 -1.798151284456253052e-01 -7.042348384857177734e-02
1.460000000000000000e+02 2.720497512817382812e+01 -7.896495819091796875e+00 -5.441319942474365234e-01 -2.536093583330512047e-03 -1.640004366636276245e-01 -6.355577707290649414e-02
1.470000000000000000e+02 2.644245719909667969e+01 -7.877746582031250000e+00 -4.884038269519805908e-01 -4.755125381052494049e-03 -1.479476839303970337e-01 -6.144919991493225098e-02
1.480000000000000000e+02 2.873032188415527344e+01 -7.930514812469482422e+00 -6.446850299835205078e-01 -7.295006886124610901e-03 -1.955940127372741699e-01 -7.540361583232879639e-02
1.490000000000000000e+02 2.798519706726074219e+01 -7.174292564392089844e+00 -6.091536283493041992e-01 -9.684343240223824978e-05 -1.827751547098159790e-01 -1.491629332304000854e-02
1.500000000000000000e+02 2.723094940185546875e+01 -7.156898498535156250e+00 -5.532706379890441895e-01 -4.523647658061236143e-04 -1.661169081926345825e-01 -1.368609070777893066e-02
1.510000000000000000e+02 2.873951339721679688e+01 -7.190530300140380859e+00 -6.738186478614807129e-01 -3.681871574372053146e-03 -2.032501548528671265e-01 -1.957132667303085327e-02
1.520000000000000000e+02 2.647681999206542969e+01 -7.138342857360839844e+00 -5.050420165061950684e-01 -3.243757644668221474e-03 -1.524857431650161743e-01 -9.551672264933586121e-03
1.530000000000000000e+02 2.949276733398437500e+01 -7.195246696472167969e+00 -7.302530407905578613e-01 -3.950320184230804443e-03 -2.202610075473785400e-01 -2.751878090202808380e-02
1.540000000000000000e+02 2.948995018005371094e+01 -7.935307502746582031e+00 -6.953710317611694336e-01 -8.801836520433425903e-03 -2.112518548965454102e-01 -7.677872478961944580e-02
1.550000000000000000e+02 3.024649810791015625e+01 -7.928795814514160156e+00 -7.490659952163696289e-01 -6.512256339192390442e-03 -2.266734838485717773e-01 -8.082836866378784180e-02
1.560000000000000000e+02 3.099722290039062500e+01 -7.181584835052490234e+00 -8.293018937110900879e-01 -1.500347279943525791e-03 -2.492406666278839111e-01 -3.519373014569282532e-02
1.570000000000000000e+02 3.175983238220214844e+01 -7.913609027862548828e+00 -8.476629257202148438e-01 -8.737209253013134003e-03 -2.569200396537780762e-01 -9.218335151672363281e-02
1.580000000000000000e+02 3.174956512451171875e+01 -7.173673152923583984e+00 -8.881444334983825684e-01 -3.609649837017059326e-03 -2.675262391567230225e-01 -3.958426043391227722e-02
1.590000000000000000e+02 3.024495315551757812e+01 -7.188776493072509766e+00 -7.764134407043457031e-01 -1.687295036390423775e-03 -2.334302216768264771e-01 -3.260662034153938293e-02
1.600000000000000000e+02 3.100312805175781250e+01 -7.921562194824218750e+00 -7.989690303802490234e-01 -6.618638057261705399e-03 -2.416763007640838623e-01 -8.735571056604385376e-02
1.610000000000000000e+02 3.325168609619140625e+01 -7.142140388488769531e+00 -9.920310974121093750e-01 -2.573015866801142693e-03 -2.983812391757965088e-01 -4.982815682888031006e-02
1.620000000000000000e+02 3.401905441284179688e+01 -7.863194465637207031e+00 -1.001855969429016113e+00 -7.548392284661531448e-03 -3.028212785720825195e-01 -1.042295023798942566e-01
1.630000000000000000e+02 3.251437759399414062e+01 -7.900443077087402344e+00 -8.981698155403137207e-01 -9.287321940064430237e-03 -2.722371518611907959e-01 -9.493660181760787964e-02
1.640000000000000000e+02 3.477159881591796875e+01 -7.845397949218750000e+00 -1.053020358085632324e+00 -8.293513208627700806e-03 -3.183941543102264404e-01 -1.085486561059951782e-01
1.650000000000000000e+02 3.475299453735351562e+01 -7.105631351470947266e+00 -1.102908849716186523e+00 -3.464159555733203888e-03 -3.319118916988372803e-01 -5.574357137084007263e-02
1.660000000000000000e+02 3.400221252441406250e+01 -7.123385429382324219e+00 -1.045798301696777344e+00 -2.446009078994393349e-03 -3.144733011722564697e-01 -5.244290828704833984e-02
1.670000000000000000e+02 3.250104904174804688e+01 -7.160549640655517578e+00 -9.427134990692138672e-01 -3.848939668387174606e-03 -2.839687168598175049e-01 -4.565991088747978210e-02
1.680000000000000000e+02 3.326676940917968750e+01 -7.881991863250732422e+00 -9.509443044662475586e-01 -7.739541120827198029e-03 -2.876051366329193115e-01 -9.913323819637298584e-02
1.690000000000000000e+02 3.550323104858398438e+01 -7.085636138916015625e+00 -1.159027099609375000e+00 -3.460395848378539085e-03 -3.487462401390075684e-01 -5.968444794416427612e-02
1.700000000000000000e+02 3.627172470092773438e+01 -7.801253795623779297e+00 -1.159980654716491699e+00 -7.630823180079460144e-03 -3.502834439277648926e-01 -1.149365976452827454e-01
1.710000000000000000e+02 3.552280426025390625e+01 -7.825378894805908203e+00 -1.105622172355651855e+00 -8.205102756619453430e-03 -3.341481983661651611e-01 -1.114107817411422729e-01
1.720000000000000000e+02 3.700176620483398438e+01 -7.040159225463867188e+00 -1.270771980285644531e+00 -3.160440595820546150e-03 -3.821797370910644531e-01 -6.451606750488281250e-02
1.730000000000000000e+02 3.775260925292968750e+01 -7.021411418914794922e+00 -1.327978849411010742e+00 -2.473418833687901497e-03 -3.991356790065765381e-01 -6.641425192356109619e-02
1.740000000000000000e+02 3.777272796630859375e+01 -7.761138439178466797e+00 -1.269902348518371582e+00 -6.284418050199747086e-03 -3.828560113906860352e-01 -1.216524392366409302e-01
1.750000000000000000e+02 3.702170562744140625e+01 -7.779891967773437500e+00 -1.213963985443115234e+00 -6.761532742530107498e-03 -3.662176430225372314e-01 -1.183332055807113647e-01
1.760000000000000000e+02 3.625196838378906250e+01 -7.061516284942626953e+00 -1.213819026947021484e+00 -2.619234612211585045e-03 -3.649314641952514648e-01 -6.230435892939567566e-02
1.770000000000000000e+02 3.925203704833984375e+01 -6.983466625213623047e+00 -1.451250433921813965e+00 -2.630471251904964447e-03 -4.361642599105834961e-01 -6.925036758184432983e-02
1.780000000000000000e+02 3.850259399414062500e+01 -7.002532482147216797e+00 -1.388263106346130371e+00 -2.492867177352309227e-03 -4.172267913818359375e-01 -6.773588806390762329e-02
1.790000000000000000e+02 3.852244567871093750e+01 -7.742266178131103516e+00 -1.326389908790588379e+00 -5.952852778136730194e-03 -3.997028172016143799e-01 -1.250205188989639282e-01
1.800000000000000000e+02 4.076818847656250000e+01 -7.683057308197021484e+00 -1.505253911018371582e+00 -4.155612550675868988e-03 -4.528228640556335449e-01 -1.315483152866363525e-01
1.810000000000000000e+02 4.001962661743164062e+01 -7.703031063079833984e+00 -1.443048715591430664e+00 -5.572918802499771118e-03 -4.345864951610565186e-01 -1.293560117483139038e-01
1.820000000000000000e+02 4.075049972534179688e+01 -6.943266868591308594e+00 -1.575860023498535156e+00 -1.388531411066651344e-03 -4.731745719909667969e-01 -7.126355916261672974e-02
1.830000000000000000e+02 3.927116775512695312e+01 -7.723219394683837891e+00 -1.383748650550842285e+00 -6.255054380744695663e-03 -4.170011281967163086e-01 -1.277843564748764038e-01
1.840000000000000000e+02 4.000121688842773438e+01 -6.963259696960449219e+00 -1.514127612113952637e+00 -2.679777797311544418e-03 -4.550422132015228271e-01 -7.091902196407318115e-02
1.850000000000000000e+02 4.226616287231445312e+01 -7.653321743011474609e+00 -1.630063056945800781e+00 -4.919982515275478363e-03 -4.904949069023132324e-01 -1.375031024217605591e-01
1.860000000000000000e+02 4.225036239624023438e+01 -6.913490295410156250e+00 -1.714712262153625488e+00 -2.617268823087215424e-03 -5.151988863945007324e-01 -7.153614610433578491e-02
1.870000000000000000e+02 4.151683807373046875e+01 -7.666196823120117188e+00 -1.567870140075683594e+00 -4.133267328143119812e-03 -4.716010391712188721e-01 -1.350405961275100708e-01
1.880000000000000000e+02 4.299967193603515625e+01 -6.897992610931396484e+00 -1.785409688949584961e+00 -1.961168833076953888e-03 -5.362112522125244141e-01 -7.310473173856735229e-02
1.890000000000000000e+02 4.301445007324218750e+01 -7.637845039367675781e+00 -1.695642232894897461e+00 -4.744750913232564926e-03 -5.101161003112792969e-01 -1.382816433906555176e-01
1.900000000000000000e+02 4.376168441772460938e+01 -7.619610786437988281e+00 -1.765143513679504395e+00 -2.592637669295072556e-03 -5.303208231925964355e-01 -1.400791704654693604e-01
1.910000000000000000e+02 4.374792480468750000e+01 -6.879736900329589844e+00 -1.854820251464843750e+00 -5.361221847124397755e-04 -5.566068887710571289e-01 -7.253016531467437744e-02
1.920000000000000000e+02 4.150001907348632812e+01 -6.926386356353759766e+00 -1.642608404159545898e+00 -1.323157106526196003e-03 -4.931794703006744385e-01 -7.063311338424682617e-02
1.930000000000000000e+02 4.524763870239257812e+01 -6.857576370239257812e+00 -2.012187480926513672e+00 -2.201476600021123886e-03 -6.043167114257812500e-01 -7.110514491796493530e-02
1.940000000000000000e+02 4.600764846801757812e+01 -7.586318016052246094e+00 -1.977923750877380371e+00 -3.574888920411467552e-03 -5.944495797157287598e-01 -1.460052728652954102e-01
1.950000000000000000e+02 4.450997543334960938e+01 -7.606111049652099609e+00 -1.835116744041442871e+00 -2.723461482673883438e-03 -5.513520240783691406e-01 -1.436587423086166382e-01
1.960000000000000000e+02 4.675494384765625000e+01 -7.572458744049072266e+00 -2.055648803710937500e+00 -1.062239171005785465e-03 -6.170132756233215332e-01 -1.473744213581085205e-01
1.970000000000000000e+02 4.525932312011718750e+01 -7.597484111785888672e+00 -1.904465436935424805e+00 -3.536240896210074425e-03 -5.724005103111267090e-01 -1.458800584077835083e-01
1.980000000000000000e+02 4.674534988403320312e+01 -6.832519531250000000e+00 -2.170613050460815430e+00 1.079647990991361439e-04 -6.511515378952026367e-01 -7.126764208078384399e-02
1.990000000000000000e+02 4.449724578857421875e+01 -6.866219043731689453e+00 -1.930261731147766113e+00 -3.443027671892195940e-04 -5.791817903518676758e-01 -7.079750299453735352e-02
2.000000000000000000e+02 4.599700927734375000e+01 -6.846394062042236328e+00 -2.092197895050048828e+00 -1.236307201907038689e-03 -6.280302405357360840e-01 -7.237383723258972168e-02
2.010000000000000000e+02 4.824522781372070312e+01 -6.818868637084960938e+00 -2.348035097122192383e+00 -1.865077996626496315e-03 -7.049700617790222168e-01 -6.875215470790863037e-02
2.020000000000000000e+02 4.825285720825195312e+01 -7.558829784393310547e+00 -2.210805654525756836e+00 -2.355218864977359772e-03 -6.639482975006103516e-01 -1.532253473997116089e-01
2.030000000000000000e+02 4.750334548950195312e+01 -7.563237667083740234e+00 -2.133632421493530273e+00 -1.526877400465309620e-03 -6.405478119850158691e-01 -1.509873121976852417e-01
2.040000000000000000e+02 4.899468994140625000e+01 -6.811831474304199219e+00 -2.438446044921875000e+00 -6.667013512924313545e-04 -7.317337989807128906e-01 -6.993714720010757446e-02
2.050000000000000000e+02 4.900135803222656250e+01 -7.551801681518554688e+00 -2.292467117309570312e+00 -2.687209751456975937e-03 -6.885462999343872070e-01 -1.528651863336563110e-01
2.060000000000000000e+02 4.974884033203125000e+01 -7.541996002197265625e+00 -2.378825664520263672e+00 6.853714876342564821e-05 -7.136271595954895020e-01 -1.543248146772384644e-01
2.070000000000000000e+02 4.974313354492187500e+01 -6.802017211914062500e+00 -2.527435541152954102e+00 7.818855228833854198e-04 -7.579960823059082031e-01 -6.840048730373382568e-02
2.080000000000000000e+02 4.749475479125976562e+01 -6.823286056518554688e+00 -2.255694866180419922e+00 5.265810759738087654e-04 -6.765505075454711914e-01 -6.884653866291046143e-02
2.090000000000000000e+02 5.124328231811523438e+01 -6.795847415924072266e+00 -2.726649284362792969e+00 -1.311359112150967121e-03 -8.183882236480712891e-01 -6.528515368700027466e-02
2.100000000000000000e+02 5.199635314941406250e+01 -7.532447814941406250e+00 -2.640250682830810547e+00 -2.155797090381383896e-03 -7.927219271659851074e-01 -1.595445424318313599e-01
2.110000000000000000e+02 5.049753570556640625e+01 -7.536636352539062500e+00 -2.465297698974609375e+00 -3.016699338331818581e-04 -7.396798133850097656e-01 -1.576028019189834595e-01
2.120000000000000000e+02 5.274426269531250000e+01 -7.526317596435546875e+00 -2.733855485916137695e+00 -9.037171839736402035e-04 -8.204277753829956055e-01 -1.614640802145004272e-01
2.130000000000000000e+02 5.124744033813476562e+01 -7.535836219787597656e+00 -2.550345182418823242e+00 -1.612609019502997398e-03 -7.655873894691467285e-01 -1.599213778972625732e-01
2.140000000000000000e+02 5.274152374267578125e+01 -6.786322593688964844e+00 -2.930116176605224609e+00 7.766913040541112423e-04 -8.788018226623535156e-01 -6.557687371969223022e-02
2.150000000000000000e+02 5.049266433715820312e+01 -6.796650886535644531e+00 -2.623261451721191406e+00 9.304881677962839603e-04 -7.866992354393005371e-01 -6.564910709857940674e-02
2.160000000000000000e+02 5.199290466308593750e+01 -6.792455673217773438e+00 -2.828425407409667969e+00 -5.856166244484484196e-04 -8.487032651901245117e-01 -6.651306897401809692e-02
2.170000000000000000e+02 5.349121475219726562e+01 -6.783879280090332031e+00 -3.037074565887451172e+00 2.310242598468903452e-05 -9.111154079437255859e-01 -6.425933539867401123e-02
2.180000000000000000e+02 5.424106216430664062e+01 -6.783032417297363281e+00 -3.149913072586059570e+00 -7.422310300171375275e-04 -9.451965689659118652e-01 -6.459714472293853760e-02
2.190000000000000000e+02 5.349338912963867188e+01 -7.523876190185546875e+00 -2.827275991439819336e+00 -1.181518076919019222e-03 -8.485372662544250488e-01 -1.648378968238830566e-01
2.200000000000000000e+02 5.424282073974609375e+01 -7.523030757904052734e+00 -2.920597553253173828e+00 -2.483424730598926544e-03 -8.769242763519287109e-01 -1.672631502151489258e-01
2.210000000000000000e+02 5.499200439453125000e+01 -7.520969867706298828e+00 -3.017650365829467773e+00 -2.673567971214652061e-03 -9.060971736907958984e-01 -1.689194887876510620e-01
2.220000000000000000e+02 5.574129104614257812e+01 -7.519091606140136719e+00 -3.116978883743286133e+00 -1.344572985544800758e-03 -9.354970455169677734e-01 -1.713403314352035522e-01
2.230000000000000000e+02 5.574037551879882812e+01 -6.779091835021972656e+00 -3.377067089080810547e+00 7.017909956630319357e-05 -1.013099074363708496e+00 -6.589712947607040405e-02
2.240000000000000000e+02 5.499066925048828125e+01 -6.780971050262451172e+00 -3.263266563415527344e+00 -6.775081856176257133e-04 -9.791831970214843750e-01 -6.569261848926544189e-02
2.250000000000000000e+02 5.724125289916992188e+01 -6.781723022460937500e+00 -3.618840694427490234e+00 -1.805480453185737133e-03 -1.086193919181823730e+00 -6.661928445100784302e-02
2.260000000000000000e+02 5.799132537841796875e+01 -7.521727561950683594e+00 -3.415479421615600586e+00 -2.975733950734138489e-03 -1.025536537170410156e+00 -1.790700554847717285e-01
2.270000000000000000e+02 5.649098205566406250e+01 -7.519072055816650391e+00 -3.216950893402099609e+00 -1.851477893069386482e-03 -9.656407237052917480e-01 -1.754389107227325439e-01
2.280000000000000000e+02 5.874002075195312500e+01 -7.518932342529296875e+00 -3.519066095352172852e+00 -1.530469744466245174e-03 -1.056179046630859375e+00 -1.806671321392059326e-01
2.290000000000000000e+02 5.724164199829101562e+01 -7.521722793579101562e+00 -3.314480066299438477e+00 -2.142366953194141388e-03 -9.949867129325866699e-01 -1.780219376087188721e-01
2.300000000000000000e+02 5.874005126953125000e+01 -6.778932571411132812e+00 -3.869825601577758789e+00 -4.841084883082658052e-04 -1.161092996597290039e+00 -6.883583962917327881e-02
2.310000000000000000e+02 5.649037933349609375e+01 -6.779072284698486328e+00 -3.495371580123901367e+00 2.812253369484096766e-04 -1.048527121543884277e+00 -6.529508531093597412e-02
2.320000000000000000e+02 5.799114608764648438e+01 -6.781727790832519531e+00 -3.743150711059570312e+00 -1.578222436364740133e-04 -1.122992515563964844e+00 -6.843226402997970581e-02
2.330000000000000000e+02 5.948999786376953125e+01 -6.779025554656982422e+00 -3.998875617980957031e+00 -2.788307028822600842e-05 -1.199671030044555664e+00 -6.920416653156280518e-02
2.340000000000000000e+02 6.024008560180664062e+01 -6.779928684234619141e+00 -4.130352497100830078e+00 -1.826558727771043777e-03 -1.239653706550598145e+00 -7.086581736803054810e-02
2.350000000000000000e+02 6.098959350585937500e+01 -7.519578456878662109e+00 -3.818655252456665039e+00 -3.047065576538443565e-03 -1.146510720252990723e+00 -1.860219985246658325e-01
2.360000000000000000e+02 5.948982238769531250e+01 -7.519025802612304688e+00 -3.619856357574462891e+00 -2.644533524289727211e-03 -1.086750268936157227e+00 -1.836182326078414917e-01
2.370000000000000000e+02 6.023982620239257812e+01 -7.519928932189941406e+00 -3.719224452972412109e+00 -1.976451836526393890e-03 -1.116360306739807129e+00 -1.849056035280227661e-01
2.380000000000000000e+02 6.173945999145507812e+01 -7.519367694854736328e+00 -3.916119813919067383e+00 -6.685379776172339916e-04 -1.175036549568176270e+00 -1.868290156126022339e-01
2.390000000000000000e+02 6.173988723754882812e+01 -6.779367923736572266e+00 -4.398651599884033203e+00 -1.489752903580665588e-03 -1.320042371749877930e+00 -7.342942059040069580e-02
2.400000000000000000e+02 6.098993682861328125e+01 -6.779578208923339844e+00 -4.263824939727783203e+00 1.903926749946549535e-04 -1.279090404510498047e+00 -7.237341254949569702e-02
2.410000000000000000e+02 6.398949432373046875e+01 -6.780055046081542969e+00 -4.819119930267333984e+00 1.198281068354845047e-03 -1.445376515388488770e+00 -7.600644975900650024e-02
2.420000000000000000e+02 6.473910522460937500e+01 -7.521468162536621094e+00 -4.249843597412109375e+00 1.774993259459733963e-03 -1.274420619010925293e+00 -1.784519702196121216e-01
2.430000000000000000e+02 6.248938369750976562e+01 -7.519622325897216797e+00 -4.009765625000000000e+00 -2.007842063903808594e-03 -1.203531980514526367e+00 -1.874829381704330444e-01
2.440000000000000000e+02 6.473950958251953125e+01 -6.781468391418457031e+00 -4.961324214935302734e+00 -3.599417395889759064e-03 -1.489477038383483887e+00 -7.814992964267730713e-02
2.450000000000000000e+02 6.398907470703125000e+01 -7.520054817199707031e+00 -4.181577205657958984e+00 -8.905507856979966164e-04 -1.254740357398986816e+00 -1.837794780731201172e-01
2.460000000000000000e+02 6.323971939086914062e+01 -6.779904842376708984e+00 -4.677796363830566406e+00 -2.062456449493765831e-03 -1.403957724571228027e+00 -7.526011765003204346e-02
2.470000000000000000e+02 6.248984146118164062e+01 -6.779622554779052734e+00 -4.536617755889892578e+00 6.976918666623532772e-04 -1.360776066780090332e+00 -7.409674674272537231e-02
2.480000000000000000e+02 6.323927688598632812e+01 -7.519904613494873047e+00 -4.098065853118896484e+00 5.979688139632344246e-04 -1.229240417480468750e+00 -1.858886182308197021e-01
2.490000000000000000e+02 6.548949432373046875e+01 -6.781818389892578125e+00 -5.099072933197021484e+00 4.110595036763697863e-04 -1.529598593711853027e+00 -8.108428120613098145e-02
2.500000000000000000e+02 6.623823547363281250e+01 -7.519035339355468750e+00 -4.346588134765625000e+00 9.691478684544563293e-03 -1.301069021224975586e+00 -1.509284824132919312e-01
2.510000000000000000e+02 6.548912811279296875e+01 -7.521818161010742188e+00 -4.305107116699218750e+00 2.530668396502733231e-03 -1.290772914886474609e+00 -1.674469560384750366e-01
2.520000000000000000e+02 6.698857879638671875e+01 -6.779065132141113281e+00 -5.358505249023437500e+00 6.904562935233116150e-03 -1.605480313301086426e+00 -7.682417333126068115e-02
2.530000000000000000e+02 6.773959350585937500e+01 -6.781753540039062500e+00 -5.472860336303710938e+00 -6.788104306906461716e-03 -1.643894553184509277e+00 -7.598213851451873779e-02
2.540000000000000000e+02 6.773941040039062500e+01 -7.521753787994384766e+00 -4.312504768371582031e+00 2.143678441643714905e-02 -1.287320375442504883e+00 -9.679329395294189453e-02
2.550000000000000000e+02 6.698833465576171875e+01 -7.519065380096435547e+00 -4.354490280151367188e+00 1.682189479470252991e-02 -1.301300525665283203e+00 -1.338903009891510010e-01
2.560000000000000000e+02 6.623854827880859375e+01 -6.779035568237304688e+00 -5.232349395751953125e+00 -2.118505071848630905e-03 -1.570340394973754883e+00 -8.222211152315139771e-02
2.570000000000000000e+02 6.847201538085937500e+01 -6.776035308837890625e+00 -5.582114219665527344e+00 8.088802918791770935e-03 -1.672207593917846680e+00 -7.427564263343811035e-02
2.580000000000000000e+02 7.096942901611328125e+01 -7.576261997222900391e+00 -2.577670335769653320e+00 1.989215314388275146e-01 -7.136246562004089355e-01 6.849675178527832031e-01
2.590000000000000000e+02 6.843439483642578125e+01 -7.516016960144042969e+00 -4.246407985687255859e+00 4.141779243946075439e-02 -1.261497020721435547e+00 -4.070395603775978088e-02
2.600000000000000000e+02 7.097563934326171875e+01 -7.194945812225341797e+00 -3.887768268585205078e+00 2.047726213932037354e-01 -1.104898691177368164e+00 4.046290516853332520e-01
2.610000000000000000e+02 6.907298278808593750e+01 -7.510451793670654297e+00 -4.122245788574218750e+00 4.479372873902320862e-02 -1.223235726356506348e+00 4.763757344335317612e-03
2.620000000000000000e+02 7.098677062988281250e+01 -7.378097057342529297e+00 -3.000004053115844727e+00 2.687781751155853271e-01 -8.193677663803100586e-01 5.993710160255432129e-01
2.630000000000000000e+02 7.091868591308593750e+01 -7.003615379333496094e+00 -4.808398723602294922e+00 1.629422456026077271e-01 -1.393636941909790039e+00 9.390763007104396820e-03
2.640000000000000000e+02 7.045736694335937500e+01 -6.806253910064697266e+00 -5.513429164886474609e+00 -9.458920359611511230e-02 -1.682405471801757812e+00 -1.236532628536224365e-01
2.650000000000000000e+02 6.970763397216796875e+01 -7.521016120910644531e+00 -3.746038675308227539e+00 9.158758074045181274e-02 -1.096335291862487793e+00 1.261219382286071777e-01
2.660000000000000000e+02 7.075813293457031250e+01 -7.345573425292968750e+00 -3.442786455154418945e+00 2.260129302740097046e-01 -9.650321006774902344e-01 4.805153012275695801e-01
2.670000000000000000e+02 7.081652832031250000e+01 -6.534322261810302734e+00 -6.370765686035156250e+00 3.076425194740295410e-02 -1.902000427246093750e+00 -5.187611281871795654e-02
2.680000000000000000e+02 7.089064025878906250e+01 -6.776500225067138672e+00 -5.170372486114501953e+00 1.364968568086624146e-01 -1.510162711143493652e+00 -1.382287591695785522e-01
2.690000000000000000e+02 7.089125061035156250e+01 -7.785554885864257812e+00 -2.268444776535034180e+00 3.877564072608947754e-01 -5.642065405845642090e-01 8.777367472648620605e-01
2.700000000000000000e+02 6.989511871337890625e+01 -6.781107902526855469e+00 -5.728631496429443359e+00 4.622047126758843660e-04 -1.718450784683227539e+00 -5.031883716583251953e-02
2.710000000000000000e+02 7.027353668212890625e+01 -7.596523761749267578e+00 -3.243390560150146484e+00 1.371692121028900146e-01 -9.318664073944091797e-01 3.543310165405273438e-01
2.720000000000000000e+02 7.067366027832031250e+01 -7.619039535522460938e+00 -2.728928804397583008e+00 3.698090910911560059e-01 -7.077359557151794434e-01 6.398887634277343750e-01
2.730000000000000000e+02 7.052720642089843750e+01 -7.182026863098144531e+00 -4.411201953887939453e+00 -8.584274328313767910e-04 -1.323618054389953613e+00 2.431891560554504395e-01
2.740000000000000000e+02 6.918553924560546875e+01 -6.770506858825683594e+00 -5.671910285949707031e+00 7.451361976563930511e-03 -1.699337601661682129e+00 -5.746291950345039368e-02
2.750000000000000000e+02 7.239484405517578125e+01 -6.553996562957763672e+00 -5.691831588745117188e+00 -6.241674069315195084e-03 -1.709421992301940918e+00 1.362322568893432617e-01
2.760000000000000000e+02 7.538081359863281250e+01 -6.972565174102783203e+00 7.299238681793212891e+00 1.949205589294433594e+01 8.037388801574707031e+00 -3.136956214904785156e+00
2.770000000000000000e+02 7.508396148681640625e+01 -5.869006156921386719e+00 8.278940200805664062e+00 2.224329185485839844e+01 9.156669616699218750e+00 3.739629268646240234e+00
2.780000000000000000e+02 7.483373260498046875e+01 -5.540950775146484375e+00 3.311698198318481445e+00 2.503656959533691406e+01 8.504480361938476562e+00 2.422558307647705078e+00
2.790000000000000000e+02 7.211138916015625000e+01 -5.588947772979736328e+00 -1.779465079307556152e+00 5.416400432586669922e-01 -3.713474869728088379e-01 -1.341425418853759766e+00
2.800000000000000000e+02 7.241767883300781250e+01 -6.222955703735351562e+00 -5.608922481536865234e+00 -1.447174977511167526e-02 -1.687018275260925293e+00 -1.233031749725341797e-01
2.810000000000000000e+02 7.439663696289062500e+01 -5.305168151855468750e+00 -4.357915818691253662e-01 2.487180900573730469e+01 7.330805301666259766e+00 -2.768109083175659180e+00
2.820000000000000000e+02 7.461215972900390625e+01 -7.372451782226562500e+00 7.617418169975280762e-01 2.569359207153320312e+01 7.936600208282470703e+00 1.084560975432395935e-01
2.830000000000000000e+02 7.260836791992187500e+01 -6.560662746429443359e+00 -5.469259262084960938e+00 -1.051643341779708862e-01 -1.672327160835266113e+00 6.237591430544853210e-02
2.840000000000000000e+02 7.122180938720703125e+01 -7.787899017333984375e+00 -1.793889403343200684e+00 8.812460303306579590e-01 -2.737930119037628174e-01 1.296830773353576660e+00
2.850000000000000000e+02 7.141998291015625000e+01 -7.800103187561035156e+00 -1.622679352760314941e+00 9.063503146171569824e-01 -2.148987203836441040e-01 1.487934589385986328e+00
2.860000000000000000e+02 7.302395629882812500e+01 -6.509772300720214844e+00 -5.072968006134033203e+00 -1.603832095861434937e-01 -1.570005297660827637e+00 -2.493495820090174675e-03
2.870000000000000000e+02 7.243041229248046875e+01 -6.950089931488037109e+00 -2.263975143432617188e+00 3.282266557216644287e-01 -5.807245373725891113e-01 1.008297204971313477e+00
2.880000000000000000e+02 7.161894226074218750e+01 -7.436238765716552734e+00 -2.120936155319213867e+00 5.538268089294433594e-01 -4.701328277587890625e-01 1.139300704002380371e+00
2.890000000000000000e+02 7.148327636718750000e+01 -7.620271682739257812e+00 -1.834091901779174805e+00 6.687439680099487305e-01 -3.496043980121612549e-01 1.321559786796569824e+00
2.900000000000000000e+02 7.486447906494140625e+01 -5.241191387176513672e+00 8.906856775283813477e-01 2.275830268859863281e+01 7.094696521759033203e+00 1.195568442344665527e+00
2.910000000000000000e+02 7.545865631103515625e+01 -5.928069114685058594e+00 7.255532264709472656e+00 1.838898277282714844e+01 7.693354606628417969e+00 2.405027151107788086e+00
2.920000000000000000e+02 7.468634796142578125e+01 -7.531035900115966797e+00 1.879616826772689819e-01 2.401534843444824219e+01 7.260993003845214844e+00 1.073633804917335510e-01
2.930000000000000000e+02 7.121248626708984375e+01 -4.999899387359619141e+00 -1.846215963363647461e+00 8.567340970039367676e-01 -2.968445420265197754e-01 -1.293811678886413574e+00
2.940000000000000000e+02 7.140834808349609375e+01 -5.002449035644531250e+00 -1.718696832656860352e+00 7.661818265914916992e-01 -2.857545018196105957e-01 -1.404870867729187012e+00
2.950000000000000000e+02 7.137931060791015625e+01 -5.414242744445800781e+00 -2.646665096282958984e+00 3.340327143669128418e-01 -6.937896609306335449e-01 -7.482315897941589355e-01
2.960000000000000000e+02 7.180315399169921875e+01 -5.035496711730957031e+00 -1.036756157875061035e+00 1.127383828163146973e+00 2.718830108642578125e-02 -2.016725778579711914e+00
2.970000000000000000e+02 7.222112274169921875e+01 -5.077454090118408203e+00 -6.792373955249786377e-02 1.824830889701843262e+00 5.270721316337585449e-01 -2.816153526306152344e+00
2.980000000000000000e+02 7.325195312500000000e+01 -5.668097496032714844e+00 2.860423803329467773e+00 4.134859085083007812e+00 2.098584890365600586e+00 -5.820503711700439453e+00
2.990000000000000000e+02 7.380513000488281250e+01 -5.305983066558837891e+00 9.650163650512695312e-01 1.612633514404296875e+01 5.127405643463134766e+00 -8.411821365356445312e+00
3.000000000000000000e+02 7.121848297119140625e+01 -6.265800952911376953e+00 -6.509861469268798828e+00 -8.244221657514572144e-02 -1.977691054344177246e+00 7.890208065509796143e-02
3.010000000000000000e+02 7.122419738769531250e+01 -6.050746917724609375e+00 -5.455447196960449219e+00 -3.668490424752235413e-02 -1.647639632225036621e+00 -2.348837256431579590e-02
3.020000000000000000e+02 7.120485687255859375e+01 -5.419726371765136719e+00 -2.874105215072631836e+00 2.015326619148254395e-01 -8.017718195915222168e-01 -5.314263105392456055e-01
3.030000000000000000e+02 7.179814910888671875e+01 -6.250596046447753906e+00 -6.215624809265136719e+00 -4.470425844192504883e-02 -1.878098726272583008e+00 -2.162664756178855896e-02
3.040000000000000000e+02 7.220735168457031250e+01 -6.232487201690673828e+00 -5.878451347351074219e+00 6.273917853832244873e-02 -1.744713664054870605e+00 -9.440155327320098877e-02
3.050000000000000000e+02 7.296923828125000000e+01 -5.787120819091796875e+00 7.073226571083068848e-01 1.453242063522338867e+00 6.481694579124450684e-01 -3.008550643920898438e+00
3.060000000000000000e+02 7.307275390625000000e+01 -6.069882392883300781e+00 -1.414668798446655273e+00 5.168477296829223633e-01 -2.693463265895843506e-01 -1.299702763557434082e+00
3.070000000000000000e+02 7.302820587158203125e+01 -6.278487205505371094e+00 -5.118652343750000000e+00 -1.026511192321777344e-01 -1.566390991210937500e+00 1.675234362483024597e-02
3.080000000000000000e+02 7.532131958007812500e+01 -6.790195465087890625e+00 9.001929283142089844e+00 1.961124992370605469e+01 8.583953857421875000e+00 -2.512756824493408203e+00
3.090000000000000000e+02 7.516986846923828125e+01 -6.076391220092773438e+00 1.020520687103271484e+01 2.070051956176757812e+01 9.271718025207519531e+00 2.586041688919067383e+00
3.100000000000000000e+02 7.468444824218750000e+01 -5.425327777862548828e+00 1.292400479316711426e+00 2.556459045410156250e+01 8.057097434997558594e+00 6.218433976173400879e-01
3.110000000000000000e+02 7.401197052001953125e+01 -5.279970169067382812e+00 -3.826099634170532227e-02 2.030029678344726562e+01 6.078610897064208984e+00 -7.234181880950927734e+00
3.120000000000000000e+02 7.281963348388671875e+01 -6.535376071929931641e+00 -5.266191959381103516e+00 8.307479321956634521e-02 -1.554935216903686523e+00 4.102025181055068970e-02
3.130000000000000000e+02 7.350749206542968750e+01 -7.559310913085937500e+00 1.695915818214416504e+00 1.090968799591064453e+01 3.781681299209594727e+00 7.963518142700195312e+00
3.140000000000000000e+02 7.379602813720703125e+01 -7.454825401306152344e+00 1.043258786201477051e+00 1.616103935241699219e+01 5.161289215087890625e+00 8.580144882202148438e+00
3.150000000000000000e+02 7.421416473388671875e+01 -7.497284889221191406e+00 -6.967291831970214844e-01 2.309157562255859375e+01 6.718453884124755859e+00 5.121765613555908203e+00
3.160000000000000000e+02 7.496189117431640625e+01 -7.112281322479248047e+00 5.427616119384765625e+00 2.383100891113281250e+01 8.777587890625000000e+00 -3.281606912612915039e+00
3.170000000000000000e+02 7.508229827880859375e+01 -6.936126708984375000e+00 8.104620933532714844e+00 2.213716125488281250e+01 9.072534561157226562e+00 -3.528869390487670898e+00
3.180000000000000000e+02 7.182706451416015625e+01 -6.517330646514892578e+00 -6.258187770843505859e+00 -1.026175078004598618e-02 -1.880534887313842773e+00 -1.096281409263610840e-01
3.190000000000000000e+02 7.180333709716796875e+01 -7.759881019592285156e+00 -9.383414983749389648e-01 1.209949731826782227e+00 8.148246258497238159e-02 2.079779624938964844e+00
3.200000000000000000e+02 7.124677276611328125e+01 -7.349882125854492188e+00 -2.862112045288085938e+00 2.256269156932830811e-01 -7.909455299377441406e-01 6.817181110382080078e-01
3.210000000000000000e+02 7.162791442871093750e+01 -6.537210464477539062e+00 -6.282036781311035156e+00 -5.135700479149818420e-02 -1.900018095970153809e+00 -5.998549237847328186e-02
3.220000000000000000e+02 7.121440887451171875e+01 -6.520365715026855469e+00 -6.383512496948242188e+00 -1.071651875972747803e-01 -1.947203278541564941e+00 -4.333420470356941223e-02
3.230000000000000000e+02 7.359921264648437500e+01 -5.385456562042236328e+00 2.209773540496826172e+00 1.197431850433349609e+01 4.255227565765380859e+00 -8.642471313476562500e+00
3.240000000000000000e+02 7.497573852539062500e+01 -5.685142517089843750e+00 5.890248298645019531e+00 2.370988273620605469e+01 8.880039215087890625e+00 3.484849691390991211e+00
3.250000000000000000e+02 7.247488403320312500e+01 -5.308007240295410156e+00 1.458512693643569946e-01 1.806105136871337891e+00 5.855869054794311523e-01 -3.006103754043579102e+00
3.260000000000000000e+02 7.314894866943359375e+01 -5.868684291839599609e+00 1.242066502571105957e+00 1.410183548927307129e+00 7.956750392913818359e-01 -3.279877185821533203e+00
3.270000000000000000e+02 7.472335052490234375e+01 -5.134412288665771484e+00 -5.065998807549476624e-02 2.289759635925292969e+01 6.854080677032470703e+00 1.121456325054168701e-01
3.280000000000000000e+02 7.288916015625000000e+01 -6.015958786010742188e+00 -2.062562465667724609e+00 2.471763044595718384e-01 -5.446158647537231445e-01 -1.171970129013061523e+00
3.290000000000000000e+02 7.525100708007812500e+01 -5.810822963714599609e+00 7.325339317321777344e+00 2.072891807556152344e+01 8.416276931762695312e+00 3.483812093734741211e+00
3.300000000000000000e+02 7.532909393310546875e+01 -5.999234676361083984e+00 8.872571945190429688e+00 1.962981605529785156e+01 8.550716400146484375e+00 2.632708787918090820e+00
3.310000000000000000e+02 7.341944122314453125e+01 -4.991802215576171875e+00 9.037728905677795410e-01 9.626883506774902344e+00 3.159196853637695312e+00 -6.998817443847656250e+00
3.320000000000000000e+02 7.262840270996093750e+01 -5.025704383850097656e+00 8.164058327674865723e-01 3.365744113922119141e+00 1.254644989967346191e+00 -4.223532676696777344e+00
3.330000000000000000e+02 7.400875854492187500e+01 -5.025349140167236328e+00 -5.728841423988342285e-01 1.827330017089843750e+01 5.310124874114990234e+00 -6.440052032470703125e+00
3.340000000000000000e+02 7.439665222167968750e+01 -5.046936511993408203e+00 -1.094340562820434570e+00 2.181222724914550781e+01 6.215365886688232422e+00 -3.276696681976318359e+00
3.350000000000000000e+02 7.400537872314453125e+01 -7.503065109252929688e+00 -8.284043520689010620e-02 1.994689941406250000e+01 5.959217548370361328e+00 7.297420978546142578e+00
3.360000000000000000e+02 7.302288055419921875e+01 -7.746385574340820312e+00 1.221293449401855469e+00 5.889420986175537109e+00 2.133214235305786133e+00 5.768743515014648438e+00
3.370000000000000000e+02 7.306139373779296875e+01 -6.726876258850097656e+00 -1.330013155937194824e+00 5.199346542358398438e-01 -2.430235594511032104e-01 1.387246012687683105e+00
3.380000000000000000e+02 7.480090332031250000e+01 -7.252998828887939453e+00 2.972334384918212891e+00 2.520231246948242188e+01 8.452394485473632812e+00 -2.267299175262451172e+00
3.390000000000000000e+02 7.486093902587890625e+01 -7.428775787353515625e+00 1.760706663131713867e+00 2.374004554748535156e+01 7.650225639343261719e+00 -1.672027111053466797e+00
3.400000000000000000e+02 7.421304321289062500e+01 -7.749026298522949219e+00 -1.137385129928588867e+00 2.087211418151855469e+01 5.920418739318847656e+00 4.985948562622070312e+00
3.410000000000000000e+02 7.360269165039062500e+01 -7.365204334259033203e+00 2.386737346649169922e+00 1.171996784210205078e+01 4.232011795043945312e+00 8.767642021179199219e+00
3.420000000000000000e+02 7.515834808349609375e+01 -6.732767105102539062e+00 1.015875530242919922e+01 2.082930946350097656e+01 9.296420097351074219e+00 -2.805558919906616211e+00
3.430000000000000000e+02 7.441618347167968750e+01 -7.461501121520996094e+00 -4.023817777633666992e-01 2.504176521301269531e+01 7.391815185546875000e+00 2.651245355606079102e+00
3.440000000000000000e+02 7.520862579345703125e+01 -6.514124393463134766e+00 1.144110870361328125e+01 1.977762413024902344e+01 9.365619659423828125e+00 -1.041536569595336914e+00
3.450000000000000000e+02 7.420851898193359375e+01 -5.028833866119384766e+00 -1.021137356758117676e+00 2.051478195190429688e+01 5.848093032836914062e+00 -4.814186096191406250e+00
3.460000000000000000e+02 7.475672912597656250e+01 -7.658650875091552734e+00 2.025345899164676666e-02 2.241134071350097656e+01 6.729478359222412109e+00 -1.442656069993972778e-01
3.470000000000000000e+02 7.459929656982421875e+01 -7.700061321258544922e+00 -8.218424320220947266e-01 2.290634155273437500e+01 6.625349998474121094e+00 1.436373472213745117e+00
3.480000000000000000e+02 7.515312957763671875e+01 -5.506632328033447266e+00 4.267035484313964844e+00 2.167488479614257812e+01 7.782576084136962891e+00 3.142679691314697266e+00
3.490000000000000000e+02 7.550968933105468750e+01 -6.664072513580322266e+00 8.612980842590332031e+00 1.788764953613281250e+01 7.950189113616943359e+00 -1.580741524696350098e+00
3.500000000000000000e+02 7.550881195068359375e+01 -6.493865013122558594e+00 9.687476158142089844e+00 1.756926727294921875e+01 8.177022933959960938e+00 -5.876404047012329102e-01
3.510000000000000000e+02 7.548020935058593750e+01 -6.093889236450195312e+00 8.937192916870117188e+00 1.760489845275878906e+01 7.962627410888671875e+00 1.584936380386352539e+00
3.520000000000000000e+02 7.537401580810546875e+01 -6.593627929687500000e+00 1.000788974761962891e+01 1.862577629089355469e+01 8.590099334716796875e+00 -1.436955690383911133e+00
3.530000000000000000e+02 7.522595977783203125e+01 -6.293328762054443359e+00 1.128262615203857422e+01 1.971152496337890625e+01 9.298245429992675781e+00 7.700026035308837891e-01
3.540000000000000000e+02 7.501061248779296875e+01 -5.362164020538330078e+00 2.407571315765380859e+00 2.259029388427734375e+01 7.499359607696533203e+00 2.370116233825683594e+00
3.550000000000000000e+02 7.502662658691406250e+01 -7.451548576354980469e+00 2.266530752182006836e+00 2.244662475585937500e+01 7.413946628570556641e+00 -2.344264984130859375e+00
3.560000000000000000e+02 7.490808105468750000e+01 -7.572485446929931641e+00 5.685813426971435547e-01 2.242384719848632812e+01 6.897728443145751953e+00 -1.037808895111083984e+00
3.570000000000000000e+02 7.200862884521484375e+01 -5.076504230499267578e+00 -5.928706526756286621e-01 1.454279422760009766e+00 2.584226429462432861e-01 -2.372911453247070312e+00
3.580000000000000000e+02 7.285447692871093750e+01 -5.272428035736083984e+00 1.328579306602478027e+00 3.517024040222167969e+00 1.453680992126464844e+00 -4.607026100158691406e+00
3.590000000000000000e+02 7.282920837402343750e+01 -5.022005081176757812e+00 1.221098661422729492e+00 4.519393920898437500e+00 1.722147822380065918e+00 -5.142573833465576172e+00
3.600000000000000000e+02 7.323132324218750000e+01 -5.013674259185791016e+00 1.231813549995422363e+00 7.920186996459960938e+00 2.745599985122680664e+00 -6.610103130340576172e+00
3.610000000000000000e+02 7.242816925048828125e+01 -5.041496753692626953e+00 4.409144818782806396e-01 2.501718521118164062e+00 8.827899098396301270e-01 -3.502867460250854492e+00
3.620000000000000000e+02 7.379747772216796875e+01 -5.032734394073486328e+00 1.610111147165298462e-01 1.554293727874755859e+01 4.711184501647949219e+00 -7.334850311279296875e+00
3.630000000000000000e+02 7.199597167968750000e+01 -6.222774982452392578e+00 -6.078005790710449219e+00 3.585740923881530762e-02 -1.812644600868225098e+00 -2.792356349527835846e-02
3.640000000000000000e+02 7.161753082275390625e+01 -6.274348258972167969e+00 -6.444752216339111328e+00 5.413591489195823669e-02 -1.917184829711914062e+00 -1.800085790455341339e-02
3.650000000000000000e+02 7.283279418945312500e+01 -6.257544994354248047e+00 -5.243844032287597656e+00 7.182209193706512451e-02 -1.551606535911560059e+00 1.907900348305702209e-02
3.660000000000000000e+02 7.200500488281250000e+01 -6.501047134399414062e+00 -6.242622852325439453e+00 4.005364701151847839e-02 -1.860770821571350098e+00 -7.253855466842651367e-02
3.670000000000000000e+02 7.281638336181640625e+01 -7.769064903259277344e+00 9.684426784515380859e-01 4.526254177093505859e+00 1.648409128189086914e+00 4.997998714447021484e+00
3.680000000000000000e+02 7.121071624755859375e+01 -6.731272220611572266e+00 -5.577290058135986328e+00 -1.589320600032806396e-01 -1.720866560935974121e+00 5.765742436051368713e-02
3.690000000000000000e+02 7.201864624023437500e+01 -7.761694431304931641e+00 -3.011493980884552002e-01 1.557248950004577637e+00 3.768298625946044922e-01 2.555477857589721680e+00
3.700000000000000000e+02 7.223912811279296875e+01 -7.495138168334960938e+00 -4.724503159523010254e-01 1.338929533958435059e+00 2.599437534809112549e-01 2.404673337936401367e+00
3.710000000000000000e+02 7.380405426025390625e+01 -7.786191940307617188e+00 -5.549488961696624756e-02 1.536043739318847656e+01 4.591483116149902344e+00 7.206425666809082031e+00
3.720000000000000000e+02 7.362581634521484375e+01 -7.801656246185302734e+00 5.767719149589538574e-01 1.264780807495117188e+01 3.967374086380004883e+00 7.390548229217529297e+00
3.730000000000000000e+02 7.343807220458984375e+01 -7.775648117065429688e+00 1.107068061828613281e+00 1.063750553131103516e+01 3.523372173309326172e+00 7.205016136169433594e+00
3.740000000000000000e+02 7.295393371582031250e+01 -7.288746833801269531e+00 1.520135045051574707e+00 2.804923772811889648e+00 1.297517657279968262e+00 4.353026390075683594e+00
3.750000000000000000e+02 7.245472717285156250e+01 -7.489635944366455078e+00 1.182003319263458252e-01 1.829452991485595703e+00 5.842959880828857422e-01 2.966526508331298828e+00
3.760000000000000000e+02 7.124732208251953125e+01 -7.570547580718994141e+00 -2.363411426544189453e+00 5.267264246940612793e-01 -5.510054826736450195e-01 9.056392312049865723e-01
3.770000000000000000e+02 7.323462677001953125e+01 -7.745540142059326172e+00 1.485736966133117676e+00 7.682365417480468750e+00 2.750430822372436523e+00 6.654543876647949219e+00
3.780000000000000000e+02 7.202615356445312500e+01 -7.502480030059814453e+00 -1.052823066711425781e+00 1.071235299110412598e+00 5.523671396076679230e-03 1.923225641250610352e+00
3.790000000000000000e+02 7.400263214111328125e+01 -7.757691860198974609e+00 -6.609253883361816406e-01 1.824362564086914062e+01 5.274809837341308594e+00 6.255055427551269531e+00
3.800000000000000000e+02 7.145137023925781250e+01 -6.039223194122314453e+00 -5.169309616088867188e+00 4.713241010904312134e-02 -1.536653161048889160e+00 -5.063361674547195435e-02
3.810000000000000000e+02 7.142447662353515625e+01 -6.263694763183593750e+00 -6.513751983642578125e+00 7.197416573762893677e-02 -1.932533383369445801e+00 9.686847031116485596e-02
3.820000000000000000e+02 7.122035217285156250e+01 -5.839225769042968750e+00 -4.616456508636474609e+00 7.155781611800193787e-03 -1.382790207862854004e+00 -1.843682676553726196e-01
3.830000000000000000e+02 7.121628570556640625e+01 -7.139315128326416016e+00 -3.868206262588500977e+00 1.459125429391860962e-01 -1.116688132286071777e+00 3.759529888629913330e-01
3.840000000000000000e+02 7.141619110107421875e+01 -6.524700164794921875e+00 -6.323421955108642578e+00 6.616166979074478149e-02 -1.877178072929382324e+00 -7.784647494554519653e-02
3.850000000000000000e+02 7.120640563964843750e+01 -6.936604022979736328e+00 -4.432914733886718750e+00 1.653118804097175598e-02 -1.324915051460266113e+00 -5.926346406340599060e-02
3.860000000000000000e+02 7.340464019775390625e+01 -5.505864620208740234e+00 2.953739166259765625e+00 7.296748638153076172e+00 3.075146436691284180e+00 -7.431077480316162109e+00
3.870000000000000000e+02 7.160485839843750000e+01 -5.012334823608398438e+00 -1.367634296417236328e+00 1.157096028327941895e+00 -6.316148489713668823e-02 -1.797828555107116699e+00
3.880000000000000000e+02 7.348747253417968750e+01 -5.175453186035156250e+00 1.640084981918334961e+00 1.071533203125000000e+01 3.706625223159790039e+00 -7.696108341217041016e+00
3.890000000000000000e+02 7.270119476318359375e+01 -5.953372478485107422e+00 -2.177041769027709961e+00 3.252189159393310547e-01 -5.555468201637268066e-01 -1.099154233932495117e+00
3.900000000000000000e+02 7.182178497314453125e+01 -6.881812572479248047e+00 -4.092059612274169922e+00 1.152820512652397156e-01 -1.193033218383789062e+00 3.254777491092681885e-01
3.910000000000000000e+02 7.331082916259765625e+01 -7.479135513305664062e+00 2.173177242279052734e+00 7.608429431915283203e+00 2.934481859207153320e+00 7.067403316497802734e+00
3.920000000000000000e+02 7.313320159912109375e+01 -7.349832534790039062e+00 2.123900175094604492e+00 4.604777336120605469e+00 2.018603324890136719e+00 5.685689449310302734e+00
3.930000000000000000e+02 7.326539611816406250e+01 -7.126433849334716797e+00 2.942117452621459961e+00 4.440467357635498047e+00 2.214775562286376953e+00 5.881414890289306641e+00
3.940000000000000000e+02 7.228817749023437500e+01 -5.389122962951660156e+00 -7.078675627708435059e-01 1.268135786056518555e+00 1.680804789066314697e-01 -2.274390697479248047e+00
3.950000000000000000e+02 7.166497039794921875e+01 -5.470618247985839844e+00 -2.186766862869262695e+00 2.876162827014923096e-01 -5.697451829910278320e-01 -9.688882827758789062e-01
3.960000000000000000e+02 7.313755798339843750e+01 -6.941458225250244141e+00 1.489055752754211426e+00 1.684230446815490723e+00 9.519858360290527344e-01 3.495234966278076172e+00
3.970000000000000000e+02 7.291694641113281250e+01 -7.051618576049804688e+00 7.766175866127014160e-01 1.586387038230895996e+00 7.089014053344726562e-01 3.138873577117919922e+00
3.980000000000000000e+02 7.266027069091796875e+01 -5.272819995880126953e+00 7.905555367469787598e-01 2.573829412460327148e+00 1.009315490722656250e+00 -3.833155393600463867e+00
3.990000000000000000e+02 7.306747436523437500e+01 -5.290329933166503906e+00 1.939692616462707520e+00 5.007679462432861328e+00 2.084211587905883789e+00 -5.792137622833251953e+00
4.000000000000000000e+02 7.238208770751953125e+01 -5.948155403137207031e+00 -3.183307886123657227e+00 7.605426758527755737e-02 -9.321760535240173340e-01 -5.325812697410583496e-01
4.010000000000000000e+02 7.285089874267578125e+01 -6.797729969024658203e+00 -1.770528674125671387e+00 2.365297824144363403e-01 -4.601996839046478271e-01 1.247694969177246094e+00
4.020000000000000000e+02 7.203988647460937500e+01 -6.974719047546386719e+00 -3.025959968566894531e+00 2.246161699295043945e-01 -8.404031395912170410e-01 6.412369012832641602e-01
4.030000000000000000e+02 7.148375701904296875e+01 -7.259914875030517578e+00 -2.944157123565673828e+00 3.684080243110656738e-01 -7.727247476577758789e-01 7.631798386573791504e-01
4.040000000000000000e+02 7.139108276367187500e+01 -5.610579967498779297e+00 -3.391025304794311523e+00 1.584877520799636841e-01 -9.697612524032592773e-01 -4.553479254245758057e-01
4.050000000000000000e+02 7.120783233642578125e+01 -5.210691452026367188e+00 -2.429245948791503906e+00 5.382550954818725586e-01 -5.672972798347473145e-01 -8.829628229141235352e-01
4.060000000000000000e+02 7.303144836425781250e+01 -5.022436141967773438e+00 1.370257377624511719e+00 6.190444469451904297e+00 2.268210649490356445e+00 -5.981319904327392578e+00
4.070000000000000000e+02 7.153446960449218750e+01 -6.971879482269287109e+00 -4.108079910278320312e+00 1.112972795963287354e-01 -1.199034810066223145e+00 2.768239080905914307e-01
4.080000000000000000e+02 7.200364685058593750e+01 -5.901408195495605469e+00 -3.891031265258789062e+00 7.085037231445312500e-02 -1.146054267883300781e+00 -3.569900393486022949e-01
4.090000000000000000e+02 7.160124969482421875e+01 -7.784954547882080078e+00 -1.301451444625854492e+00 1.039685368537902832e+00 -7.852981239557266235e-02 1.803047418594360352e+00
4.100000000000000000e+02 7.181383514404296875e+01 -7.511960506439208984e+00 -1.380434036254882812e+00 8.334310650825500488e-01 -1.641008853912353516e-01 1.626872539520263672e+00
4.110000000000000000e+02 7.222367858886718750e+01 -7.760236740112304688e+00 6.878722459077835083e-02 1.950318336486816406e+00 6.057316660881042480e-01 2.953776121139526367e+00
4.120000000000000000e+02 7.242487335205078125e+01 -7.761579990386962891e+00 4.365713298320770264e-01 2.677955389022827148e+00 9.343580007553100586e-01 3.579228401184082031e+00
4.130000000000000000e+02 7.262057495117187500e+01 -7.768791675567626953e+00 7.608439326286315918e-01 3.403613805770874023e+00 1.249337315559387207e+00 4.230309009552001953e+00
4.140000000000000000e+02 7.264413452148437500e+01 -7.523744106292724609e+00 7.431510686874389648e-01 2.495767116546630859e+00 9.716754555702209473e-01 3.751121282577514648e+00
4.150000000000000000e+02 7.299060821533203125e+01 -7.500299930572509766e+00 1.801324129104614258e+00 4.710525989532470703e+00 1.953554987907409668e+00 5.457246303558349609e+00
4.160000000000000000e+02 7.342820739746093750e+01 -7.261606693267822266e+00 3.093248367309570312e+00 7.774889469146728516e+00 3.260441303253173828e+00 7.723199367523193359e+00
4.170000000000000000e+02 7.140270233154296875e+01 -7.088879585266113281e+00 -3.494244813919067383e+00 6.829804927110671997e-02 -1.027784109115600586e+00 2.919469773769378662e-01
4.180000000000000000e+02 7.138172149658203125e+01 -6.927262783050537109e+00 -4.512048721313476562e+00 -3.506979346275329590e-02 -1.364135503768920898e+00 1.701004952192306519e-01
4.190000000000000000e+02 7.140603637695312500e+01 -6.739607334136962891e+00 -5.401055335998535156e+00 -2.662901533767580986e-04 -1.620396494865417480e+00 -9.720478206872940063e-03
4.200000000000000000e+02 7.193167114257812500e+01 -6.673319339752197266e+00 -5.203129768371582031e+00 9.106029570102691650e-02 -1.533620834350585938e+00 1.388665288686752319e-01
4.210000000000000000e+02 7.212162017822265625e+01 -6.744466304779052734e+00 -4.641098499298095703e+00 1.433006972074508667e-01 -1.349339365959167480e+00 1.476664096117019653e-01
4.220000000000000000e+02 7.219138336181640625e+01 -6.523656845092773438e+00 -6.021043300628662109e+00 1.101956963539123535e-01 -1.773254275321960449e+00 8.146243542432785034e-02
4.230000000000000000e+02 7.263204956054687500e+01 -6.861054420471191406e+00 -2.075695037841796875e+00 3.501315414905548096e-01 -5.176690220832824707e-01 1.123459935188293457e+00
4.240000000000000000e+02 7.441670989990234375e+01 -7.719731807708740234e+00 -1.058302879333496094e+00 2.204368591308593750e+01 6.295615196228027344e+00 2.994564533233642578e+00
4.250000000000000000e+02 7.513963317871093750e+01 -7.290442943572998047e+00 3.929964542388916016e+00 2.177291297912597656e+01 7.710863113403320312e+00 -3.023931741714477539e+00
4.260000000000000000e+02 7.526565551757812500e+01 -7.117621421813964844e+00 6.002129077911376953e+00 2.066285896301269531e+01 7.999496459960937500e+00 -3.240664720535278320e+00
4.270000000000000000e+02 7.546317291259765625e+01 -6.832077503204345703e+00 7.915047645568847656e+00 1.829691696166992188e+01 7.863589286804199219e+00 -2.279941797256469727e+00
4.280000000000000000e+02 7.547753906250000000e+01 -6.292805194854736328e+00 9.358120918273925781e+00 1.771044158935546875e+01 8.120569229125976562e+00 6.591178774833679199e-01
4.290000000000000000e+02 7.539167022705078125e+01 -5.766710758209228516e+00 7.031350135803222656e+00 1.958635902404785156e+01 7.985312938690185547e+00 2.951448678970336914e+00
4.300000000000000000e+02 7.529010772705078125e+01 -5.635806083679199219e+00 6.061706542968750000e+00 2.091383743286132812e+01 8.092662811279296875e+00 3.371175765991210938e+00
4.310000000000000000e+02 7.457138824462890625e+01 -5.071230411529541016e+00 -8.891227245330810547e-01 2.252954673767089844e+01 6.492126941680908203e+00 -1.844865083694458008e+00
4.320000000000000000e+02 7.421013641357421875e+01 -5.280572891235351562e+00 -5.749977231025695801e-01 2.306637763977050781e+01 6.747414112091064453e+00 -5.220100402832031250e+00
4.330000000000000000e+02 7.359867095947265625e+01 -5.008507251739501953e+00 5.869541168212890625e-01 1.263697814941406250e+01 3.967179775238037109e+00 -7.502480983734130859e+00
4.340000000000000000e+02 7.285094451904296875e+01 -5.504786968231201172e+00 1.055104017257690430e+00 2.524262666702270508e+00 1.073809981346130371e+00 -3.894612073898315430e+00
4.350000000000000000e+02 7.153659820556640625e+01 -5.415193080902099609e+00 -2.293966054916381836e+00 4.000092446804046631e-01 -5.681870579719543457e-01 -1.006034493446350098e+00
4.360000000000000000e+02 7.139244079589843750e+01 -5.213792800903320312e+00 -2.020449161529541016e+00 6.184582710266113281e-01 -4.205972552299499512e-01 -1.182242155075073242e+00
4.370000000000000000e+02 7.120947265625000000e+01 -5.628931999206542969e+00 -3.565793752670288086e+00 1.050197780132293701e-01 -1.038232207298278809e+00 -4.208658933639526367e-01
4.380000000000000000e+02 7.143738555908203125e+01 -5.817962646484375000e+00 -4.238821983337402344e+00 1.138145476579666138e-01 -1.237502217292785645e+00 -3.302150368690490723e-01
4.390000000000000000e+02 7.175167846679687500e+01 -5.290555953979492188e+00 -1.678318977355957031e+00 8.473466038703918457e-01 -2.492917329072952271e-01 -1.522607207298278809e+00
4.400000000000000000e+02 7.167527770996093750e+01 -6.078511238098144531e+00 -5.348047256469726562e+00 3.920914232730865479e-02 -1.592651367187500000e+00 7.176472991704940796e-02
4.410000000000000000e+02 7.262935638427734375e+01 -6.228059291839599609e+00 -5.403318881988525391e+00 -1.234817579388618469e-01 -1.658040165901184082e+00 -4.969300329685211182e-02
4.420000000000000000e+02 7.304836273193359375e+01 -5.550835609436035156e+00 1.888289093971252441e+00 3.374939918518066406e+00 1.578968763351440430e+00 -4.803529739379882812e+00
4.430000000000000000e+02 7.369841766357421875e+01 -7.638251304626464844e+00 8.283020257949829102e-01 1.424390029907226562e+01 4.521660804748535156e+00 7.899235248565673828e+00
4.440000000000000000e+02 7.457848358154296875e+01 -5.271808147430419922e+00 7.731621712446212769e-02 2.446991348266601562e+01 7.364168643951416016e+00 -1.070606112480163574e+00
4.450000000000000000e+02 7.161099243164062500e+01 -6.777390480041503906e+00 -4.919689178466796875e+00 5.503749474883079529e-02 -1.459395527839660645e+00 6.730836629867553711e-02
4.460000000000000000e+02 7.157431030273437500e+01 -5.233212947845458984e+00 -1.858425021171569824e+00 6.058650016784667969e-01 -3.757680356502532959e-01 -1.295892477035522461e+00
4.470000000000000000e+02 7.193034362792968750e+01 -5.412667274475097656e+00 -1.625912427902221680e+00 7.253210544586181641e-01 -2.701774239540100098e-01 -1.451627850532531738e+00
4.480000000000000000e+02 7.168221282958984375e+01 -7.098729133605957031e+00 -3.087074995040893555e+00 2.469158172607421875e-01 -8.520477414131164551e-01 6.042191386222839355e-01
4.490000000000000000e+02 7.231314086914062500e+01 -6.797597885131835938e+00 -3.652962684631347656e+00 1.454672515392303467e-01 -1.052248597145080566e+00 3.330053687095642090e-01
4.500000000000000000e+02 7.268676757812500000e+01 -7.138988971710205078e+00 -6.134415045380592346e-02 1.194734096527099609e+00 3.400169909000396729e-01 2.486677646636962891e+00
4.510000000000000000e+02 7.275801849365234375e+01 -7.357736110687255859e+00 9.225463271141052246e-01 2.371437311172485352e+00 9.881951212882995605e-01 3.662696361541748047e+00
4.520000000000000000e+02 7.224397277832031250e+01 -7.235324859619140625e+00 -1.442232608795166016e+00 7.531771659851074219e-01 -2.067166268825531006e-01 1.573195219039916992e+00
4.530000000000000000e+02 7.224645996093750000e+01 -6.999593257904052734e+00 -2.387533903121948242e+00 4.925367236137390137e-01 -5.684991478919982910e-01 1.018130540847778320e+00
4.540000000000000000e+02 7.179879760742187500e+01 -7.287577152252197266e+00 -2.374955177307128906e+00 4.243759214878082275e-01 -5.851737856864929199e-01 1.054159402847290039e+00
4.550000000000000000e+02 7.328587341308593750e+01 -5.263846874237060547e+00 2.138130903244018555e+00 7.369699001312255859e+00 2.852349042892456055e+00 -7.011595726013183594e+00
4.560000000000000000e+02 7.281082916259765625e+01 -7.543302059173583984e+00 1.397478222846984863e+00 3.647621631622314453e+00 1.513529896736145020e+00 4.679000377655029297e+00
4.570000000000000000e+02 7.162220764160156250e+01 -5.728932857513427734e+00 -3.815150260925292969e+00 1.399250924587249756e-01 -1.102567553520202637e+00 -4.465074241161346436e-01
4.580000000000000000e+02 7.178162384033203125e+01 -5.841561317443847656e+00 -3.900489807128906250e+00 1.835274696350097656e-01 -1.115088701248168945e+00 -4.077066779136657715e-01
4.590000000000000000e+02 7.264748382568359375e+01 -5.649628162384033203e+00 -4.025028049945831299e-01 1.156560182571411133e+00 2.262172251939773560e-01 -2.322542905807495117e+00
4.600000000000000000e+02 7.279801940917968750e+01 -5.724774837493896484e+00 8.788152784109115601e-02 1.231334567070007324e+00 3.957648277282714844e-01 -2.565957307815551758e+00
4.610000000000000000e+02 7.253675079345703125e+01 -5.818607330322265625e+00 -1.848034262657165527e+00 4.218342006206512451e-01 -4.278600215911865234e-01 -1.286147236824035645e+00
4.620000000000000000e+02 7.154827117919921875e+01 -5.567550659179687500e+00 -3.046607017517089844e+00 2.314268350601196289e-01 -8.445540666580200195e-01 -5.409181118011474609e-01
4.630000000000000000e+02 7.177658843994140625e+01 -5.610203742980957031e+00 -2.661792278289794922e+00 2.400209307670593262e-01 -7.265313863754272461e-01 -6.987897753715515137e-01
4.640000000000000000e+02 7.254316711425781250e+01 -5.515133380889892578e+00 -3.599703311920166016e-01 1.286851882934570312e+00 2.780644893646240234e-01 -2.546424150466918945e+00
4.650000000000000000e+02 7.227217102050781250e+01 -5.758238315582275391e+00 -2.016286373138427734e+00 3.221160471439361572e-01 -5.082510709762573242e-01 -1.190961360931396484e+00
4.660000000000000000e+02 7.220315551757812500e+01 -5.961359500885009766e+00 -3.954885482788085938e+00 1.401603072881698608e-01 -1.144417524337768555e+00 -3.216903209686279297e-01
4.670000000000000000e+02 7.268444824218750000e+01 -5.479985237121582031e+00 4.630955755710601807e-01 1.880122184753417969e+00 7.029653191566467285e-01 -3.239641666412353516e+00
4.680000000000000000e+02 7.246454620361328125e+01 -7.211063861846923828e+00 -6.285060048103332520e-01 1.074919104576110840e+00 1.339239329099655151e-01 2.112955808639526367e+00
4.690000000000000000e+02 7.201748657226562500e+01 -7.238460063934326172e+00 -2.016893386840820312e+00 6.109653115272521973e-01 -4.217784404754638672e-01 1.257798075675964355e+00
4.700000000000000000e+02 7.240806579589843750e+01 -5.618160724639892578e+00 -1.287838101387023926e+00 8.217089176177978516e-01 -1.398387402296066284e-01 -1.766481637954711914e+00
4.710000000000000000e+02 6.928256988525390625e+01 -5.202419281005859375e+00 -3.863855838775634766e+00 9.376087784767150879e-02 -1.131028532981872559e+00 -8.086038380861282349e-02
4.720000000000000000e+02 7.054162597656250000e+01 -5.449204444885253906e+00 -3.730642080307006836e+00 2.208537459373474121e-01 -1.052936553955078125e+00 -2.816861867904663086e-01
4.730000000000000000e+02 7.042704010009765625e+01 -5.879664897918701172e+00 -5.146007061004638672e+00 5.145553499460220337e-02 -1.528365492820739746e+00 -6.847829092293977737e-03
4.740000000000000000e+02 6.964887237548828125e+01 -6.156711578369140625e+00 -6.016188621520996094e+00 -2.929885638877749443e-03 -1.805735588073730469e+00 1.043178960680961609e-01
4.750000000000000000e+02 6.999288177490234375e+01 -5.121584892272949219e+00 -3.301444768905639648e+00 1.713409423828125000e-01 -9.390311837196350098e-01 -3.125920891761779785e-01
4.760000000000000000e+02 7.091325378417968750e+01 -5.216167926788330078e+00 -2.724630117416381836e+00 1.701884716749191284e-01 -7.663325071334838867e-01 -6.419643163681030273e-01
4.770000000000000000e+02 7.051916503906250000e+01 -5.160460948944091797e+00 -2.959992885589599609e+00 3.930566310882568359e-01 -7.700808644294738770e-01 -5.663453340530395508e-01
4.780000000000000000e+02 6.851045227050781250e+01 -5.262010574340820312e+00 -4.221330642700195312e+00 8.636972866952419281e-03 -1.263808012008666992e+00 4.686479642987251282e-02
4.790000000000000000e+02 6.847283935546875000e+01 -6.001992225646972656e+00 -5.628737449645996094e+00 -3.325053676962852478e-02 -1.698596477508544922e+00 9.947841614484786987e-02
4.800000000000000000e+02 6.950404357910156250e+01 -5.725911617279052734e+00 -4.983334541320800781e+00 4.041023924946784973e-02 -1.482877254486083984e+00 3.092438355088233948e-02
4.810000000000000000e+02 7.095917510986328125e+01 -5.631325244903564453e+00 -3.831806659698486328e+00 1.232502236962318420e-01 -1.112566947937011719e+00 -2.624046206474304199e-01
4.820000000000000000e+02 7.095100402832031250e+01 -5.822511672973632812e+00 -4.664463043212890625e+00 5.903103575110435486e-02 -1.381629586219787598e+00 -1.655124425888061523e-01
4.830000000000000000e+02 7.083346557617187500e+01 -6.254920005798339844e+00 -6.433741569519042969e+00 2.493038214743137360e-02 -1.922643423080444336e+00 7.410749047994613647e-02
4.840000000000000000e+02 7.092449951171875000e+01 -5.424893379211425781e+00 -3.144803047180175781e+00 1.803444176912307739e-01 -8.893375992774963379e-01 -5.036182999610900879e-01
4.850000000000000000e+02 7.082770538330078125e+01 -5.004415988922119141e+00 -2.338452577590942383e+00 3.753844797611236572e-01 -5.889204144477844238e-01 -8.530545234680175781e-01
4.860000000000000000e+02 7.088700866699218750e+01 -6.025366306304931641e+00 -5.612155437469482422e+00 2.306850254535675049e-02 -1.676725983619689941e+00 1.392909884452819824e-02
4.870000000000000000e+02 6.909049987792968750e+01 -6.090452671051025391e+00 -5.755733013153076172e+00 1.521417498588562012e-02 -1.722155690193176270e+00 1.284771263599395752e-01
4.880000000000000000e+02 7.024977874755859375e+01 -6.187716960906982422e+00 -6.191688537597656250e+00 -5.360571667551994324e-03 -1.859114646911621094e+00 1.125312894582748413e-01
4.890000000000000000e+02 7.009542846679687500e+01 -5.557588100433349609e+00 -4.315976142883300781e+00 3.511115163564682007e-02 -1.284259557723999023e+00 -7.793980091810226440e-02
4.900000000000000000e+02 7.068653106689453125e+01 -5.693052768707275391e+00 -4.260642528533935547e+00 1.179476976394653320e-01 -1.242808341979980469e+00 -1.522812098264694214e-01
4.910000000000000000e+02 6.698975372314453125e+01 -6.001220226287841797e+00 -5.394437313079833984e+00 -8.578925393521785736e-03 -1.620904922485351562e+00 8.039657771587371826e-02
4.920000000000000000e+02 6.773979187011718750e+01 -6.001732349395751953e+00 -5.513112068176269531e+00 7.346154656261205673e-03 -1.651729702949523926e+00 8.124472945928573608e-02
4.930000000000000000e+02 6.773997497558593750e+01 -5.261732578277587891e+00 -4.359116077423095703e+00 5.705144722014665604e-04 -1.307563662528991699e+00 1.050846576690673828e-01
4.940000000000000000e+02 6.549041748046875000e+01 -5.262570381164550781e+00 -4.363416671752929688e+00 1.145930867642164230e-02 -1.305587172508239746e+00 1.641957461833953857e-01
4.950000000000000000e+02 6.624025726318359375e+01 -5.261963844299316406e+00 -4.393167018890380859e+00 5.374146625399589539e-03 -1.316337823867797852e+00 1.524594575166702271e-01
4.960000000000000000e+02 6.549005126953125000e+01 -6.002570629119873047e+00 -5.143710613250732422e+00 -4.547966644167900085e-03 -1.544477581977844238e+00 8.302083611488342285e-02
4.970000000000000000e+02 6.698999786376953125e+01 -5.261220455169677734e+00 -4.394809722900390625e+00 1.813313923776149750e-02 -1.313002943992614746e+00 1.269257813692092896e-01
4.980000000000000000e+02 6.623995208740234375e+01 -6.001964092254638672e+00 -5.272457599639892578e+00 7.269761990755796432e-03 -1.579556345939636230e+00 7.990904152393341064e-02
4.990000000000000000e+02 6.323952865600585938e+01 -5.256879329681396484e+00 -4.172197818756103516e+00 -4.972340539097785950e-03 -1.253151059150695801e+00 1.843394339084625244e-01
5.000000000000000000e+02 6.398902130126953125e+01 -5.997806072235107422e+00 -4.882476329803466797e+00 -4.951875191181898117e-03 -1.466228485107421875e+00 8.563395589590072632e-02
5.010000000000000000e+02 6.249014663696289062e+01 -5.998846054077148438e+00 -4.625747203826904297e+00 -4.092548973858356476e-03 -1.388951897621154785e+00 7.950009405612945557e-02
5.020000000000000000e+02 6.474034118652343750e+01 -5.261467933654785156e+00 -4.313694477081298828e+00 -7.672329229535534978e-05 -1.294131278991699219e+00 1.739822775125503540e-01
5.030000000000000000e+02 6.473993682861328125e+01 -6.001468181610107422e+00 -5.012683391571044922e+00 5.363239441066980362e-03 -1.502196073532104492e+00 8.465308696031570435e-02
5.040000000000000000e+02 6.249060440063476562e+01 -5.258846282958984375e+00 -4.096009254455566406e+00 -1.059749396517872810e-03 -1.229120731353759766e+00 1.837640702724456787e-01
5.050000000000000000e+02 6.398944091796875000e+01 -5.257805824279785156e+00 -4.244353771209716797e+00 3.114423714578151703e-03 -1.272371768951416016e+00 1.780645251274108887e-01
5.060000000000000000e+02 6.323908996582031250e+01 -5.996879577636718750e+00 -4.753037452697753906e+00 8.307870593853294849e-04 -1.425662040710449219e+00 8.227817714214324951e-02
5.070000000000000000e+02 6.024127578735351562e+01 -6.002173423767089844e+00 -4.245501518249511719e+00 1.481118961237370968e-03 -1.273206114768981934e+00 7.214047759771347046e-02
5.080000000000000000e+02 5.949018478393554688e+01 -5.999024868011474609e+00 -4.122192859649658203e+00 -3.662692150101065636e-03 -1.237756609916687012e+00 7.020549476146697998e-02
5.090000000000000000e+02 6.174050903320312500e+01 -6.000143527984619141e+00 -4.498507022857666016e+00 1.424428337486460805e-04 -1.349509358406066895e+00 7.612115889787673950e-02
5.100000000000000000e+02 6.024153518676757812e+01 -5.262173175811767578e+00 -3.834365367889404297e+00 -5.814610049128532410e-03 -1.152053952217102051e+00 1.767069101333618164e-01
5.110000000000000000e+02 6.099138641357421875e+01 -6.002598762512207031e+00 -4.371567726135253906e+00 -3.170201322063803673e-03 -1.312421321868896484e+00 7.336863130331039429e-02
5.120000000000000000e+02 6.174093246459960938e+01 -5.260143280029296875e+00 -4.011178970336914062e+00 -5.924663972109556198e-03 -1.205131173133850098e+00 1.835074275732040405e-01
5.130000000000000000e+02 5.949036026000976562e+01 -5.259025096893310547e+00 -3.738220453262329102e+00 -3.232307266443967819e-03 -1.122435808181762695e+00 1.738854497671127319e-01
5.140000000000000000e+02 6.099172973632812500e+01 -5.262598991394042969e+00 -3.925500869750976562e+00 -1.627733348868787289e-03 -1.178138613700866699e+00 1.808094084262847900e-01
5.150000000000000000e+02 5.648974227905273438e+01 -5.999071121215820312e+00 -3.656035423278808594e+00 -3.182524116709828377e-03 -1.097765445709228516e+00 5.922719836235046387e-02
5.160000000000000000e+02 5.723953247070312500e+01 -5.259526252746582031e+00 -3.459178447723388672e+00 -6.050816737115383148e-03 -1.039568781852722168e+00 1.634714007377624512e-01
5.170000000000000000e+02 5.723992156982421875e+01 -5.999526023864746094e+00 -3.767469167709350586e+00 4.950886359438300133e-04 -1.130092263221740723e+00 6.181650236248970032e-02
5.180000000000000000e+02 5.798986434936523438e+01 -5.998773574829101562e+00 -3.882429838180541992e+00 -2.898393198847770691e-03 -1.165598511695861816e+00 6.399653106927871704e-02
5.190000000000000000e+02 5.873990631103515625e+01 -5.998174190521240234e+00 -4.001060009002685547e+00 -4.930124123347923160e-05 -1.200332760810852051e+00 6.680829077959060669e-02
5.200000000000000000e+02 5.873993682861328125e+01 -5.258173942565917969e+00 -3.645076990127563477e+00 -6.753319874405860901e-03 -1.095549106597900391e+00 1.716632097959518433e-01
5.210000000000000000e+02 5.648913955688476562e+01 -5.259071350097656250e+00 -3.364554643630981445e+00 -3.902256255969405174e-03 -1.010537028312683105e+00 1.593829691410064697e-01
5.220000000000000000e+02 5.798968124389648438e+01 -5.258773326873779297e+00 -3.552214145660400391e+00 -2.811987884342670441e-03 -1.066507816314697266e+00 1.679473072290420532e-01
5.230000000000000000e+02 5.348892211914062500e+01 -6.003879547119140625e+00 -3.222007513046264648e+00 -2.955440199002623558e-03 -9.674888849258422852e-01 4.779388383030891418e-02
5.240000000000000000e+02 5.423745727539062500e+01 -5.263031959533691406e+00 -3.087362766265869141e+00 -5.248618777841329575e-03 -9.277834296226501465e-01 1.480043530464172363e-01
5.250000000000000000e+02 5.423921203613281250e+01 -6.003029823303222656e+00 -3.325224161148071289e+00 4.312512755859643221e-04 -9.974378347396850586e-01 5.043035745620727539e-02
5.260000000000000000e+02 5.498925781250000000e+01 -6.000969409942626953e+00 -3.432533502578735352e+00 -2.378250472247600555e-03 -1.030473589897155762e+00 5.242697522044181824e-02
5.270000000000000000e+02 5.573940658569335938e+01 -5.999091625213623047e+00 -3.544353246688842773e+00 -5.976154352538287640e-04 -1.063485264778137207e+00 5.551012232899665833e-02
5.280000000000000000e+02 5.573849105834960938e+01 -5.259091854095458984e+00 -3.270779609680175781e+00 -6.598046515136957169e-03 -9.832133054733276367e-01 1.567167788743972778e-01
5.290000000000000000e+02 5.348674774169921875e+01 -5.263882160186767578e+00 -2.994090318679809570e+00 -4.207814577966928482e-03 -8.994894623756408691e-01 1.438351273536682129e-01
5.300000000000000000e+02 5.498792266845703125e+01 -5.260970592498779297e+00 -3.179409503936767578e+00 -2.956998068839311600e-03 -9.547099471092224121e-01 1.528446674346923828e-01
5.310000000000000000e+02 5.048752975463867188e+01 -6.016662120819091797e+00 -2.813150167465209961e+00 -2.844525966793298721e-03 -8.447983860969543457e-01 3.556458279490470886e-02
5.320000000000000000e+02 5.123381042480468750e+01 -5.273665904998779297e+00 -2.723291873931884766e+00 -4.548215307295322418e-03 -8.183520436286926270e-01 1.323044598102569580e-01
5.330000000000000000e+02 5.123796844482421875e+01 -6.013654708862304688e+00 -2.909265756607055664e+00 1.263559388462454081e-04 -8.727418184280395508e-01 3.859259933233261108e-02
5.340000000000000000e+02 5.198816299438476562e+01 -6.009502887725830078e+00 -3.010531425476074219e+00 -1.700131571851670742e-03 -9.036694765090942383e-01 4.046665132045745850e-02
5.350000000000000000e+02 5.273845672607421875e+01 -6.005567073822021484e+00 -3.117024898529052734e+00 -1.059655332937836647e-03 -9.354254007339477539e-01 4.356762021780014038e-02
5.360000000000000000e+02 5.273571777343750000e+01 -5.265571594238281250e+00 -2.902299642562866211e+00 -6.116504780948162079e-03 -8.725247979164123535e-01 1.416142880916595459e-01
5.370000000000000000e+02 5.048266220092773438e+01 -5.276676654815673828e+00 -2.631459474563598633e+00 -4.855845123529434204e-03 -7.908945679664611816e-01 1.281519532203674316e-01
5.380000000000000000e+02 5.198471069335937500e+01 -5.269510746002197266e+00 -2.813172340393066406e+00 -2.924526343122124672e-03 -8.448290824890136719e-01 1.374475508928298950e-01
5.390000000000000000e+02 4.748569488525390625e+01 -6.043330192565917969e+00 -2.417961597442626953e+00 -2.131534274667501450e-03 -7.260279059410095215e-01 2.301603928208351135e-02
5.400000000000000000e+02 4.822861480712890625e+01 -5.296689510345458984e+00 -2.366486072540283203e+00 -3.001789096742868423e-03 -7.108463644981384277e-01 1.172162890434265137e-01
5.410000000000000000e+02 4.823624420166015625e+01 -6.036650180816650391e+00 -2.510634422302246094e+00 -1.190930015582125634e-05 -7.531939148902893066e-01 2.560496702790260315e-02
5.420000000000000000e+02 4.898653793334960938e+01 -6.028829574584960938e+00 -2.608623981475830078e+00 -9.287802968174219131e-04 -7.828658223152160645e-01 2.702228352427482605e-02
5.430000000000000000e+02 4.973693847656250000e+01 -6.021259307861328125e+00 -2.712780475616455078e+00 -1.888210768811404705e-03 -8.144005537033081055e-01 3.038401715457439423e-02
5.440000000000000000e+02 4.973123168945312500e+01 -5.281280040740966797e+00 -2.541838645935058594e+00 -5.748053546994924545e-03 -7.642760276794433594e-01 1.265426874160766602e-01
5.450000000000000000e+02 4.747710418701171875e+01 -5.303378582000732422e+00 -2.276321411132812500e+00 -3.742499509826302528e-03 -6.840192079544067383e-01 1.137983351945877075e-01
5.460000000000000000e+02 4.897986984252929688e+01 -5.288859844207763672e+00 -2.454952955245971680e+00 -2.544221002608537674e-03 -7.372491359710693359e-01 1.224465966224670410e-01
5.470000000000000000e+02 4.448383331298828125e+01 -6.086326122283935547e+00 -2.035438299179077148e+00 -1.559964497573673725e-03 -6.110994815826416016e-01 1.373752765357494354e-02
5.480000000000000000e+02 4.522269439697265625e+01 -5.335564136505126953e+00 -2.016549587249755859e+00 -1.119165564887225628e-03 -6.053006649017333984e-01 1.048732101917266846e-01
5.490000000000000000e+02 4.523437500000000000e+01 -6.075472354888916016e+00 -2.125607490539550781e+00 3.122503985650837421e-04 -6.375886201858520508e-01 1.540142949670553207e-02
5.500000000000000000e+02 4.598466110229492188e+01 -6.063519477844238281e+00 -2.220446109771728516e+00 -4.557572538033127785e-04 -6.662705540657043457e-01 1.601313240826129913e-02
5.510000000000000000e+02 4.673505020141601562e+01 -6.051823139190673828e+00 -2.321110486984252930e+00 -1.674882485531270504e-03 -6.968356370925903320e-01 1.868876069784164429e-02
5.520000000000000000e+02 4.672545623779296875e+01 -5.311883449554443359e+00 -2.188529729843139648e+00 -3.876313101500272751e-03 -6.577218174934387207e-01 1.124440580606460571e-01
5.530000000000000000e+02 4.447110748291015625e+01 -5.346434116363525391e+00 -1.928683876991271973e+00 -1.711532706394791603e-03 -5.791186094284057617e-01 1.025835499167442322e-01
5.540000000000000000e+02 4.597402191162109375e+01 -5.323595523834228516e+00 -2.103357315063476562e+00 -1.062602270394563675e-03 -6.313259601593017578e-01 1.093091070652008057e-01
5.550000000000000000e+02 4.223370742797851562e+01 -6.133643150329589844e+00 -1.752319097518920898e+00 1.105129369534552097e-03 -5.253641605377197266e-01 9.076787158846855164e-03
5.560000000000000000e+02 4.148229217529296875e+01 -6.146579742431640625e+00 -1.663854837417602539e+00 -9.017183328978717327e-04 -4.994269907474517822e-01 8.960443548858165741e-03
5.570000000000000000e+02 4.221790695190429688e+01 -5.393811225891113281e+00 -1.674619793891906738e+00 8.306301897391676903e-04 -5.021367073059082031e-01 9.641346335411071777e-02
5.580000000000000000e+02 4.298408889770507812e+01 -6.118122577667236328e+00 -1.844917535781860352e+00 -2.048915630439296365e-04 -5.535367131233215332e-01 8.539633825421333313e-03
5.590000000000000000e+02 4.373342132568359375e+01 -6.099862575531005859e+00 -1.941811919212341309e+00 -1.273472560569643974e-03 -5.829256176948547363e-01 1.045007165521383286e-02
5.600000000000000000e+02 4.371966552734375000e+01 -5.359988689422607422e+00 -1.842824220657348633e+00 -1.670092344284057617e-03 -5.533483028411865234e-01 1.020871847867965698e-01
5.610000000000000000e+02 4.146547317504882812e+01 -5.406769752502441406e+00 -1.588256716728210449e+00 5.927788442932069302e-04 -4.762991964817047119e-01 9.549771994352340698e-02
5.620000000000000000e+02 4.296931076049804688e+01 -5.378270149230957031e+00 -1.759796142578125000e+00 9.610577835701406002e-04 -5.276505351066589355e-01 9.965486079454421997e-02
5.630000000000000000e+02 3.846181488037109375e+01 -5.483074665069580078e+00 -1.259023308753967285e+00 3.009963547810912132e-03 -3.768039941787719727e-01 9.219224750995635986e-02
5.640000000000000000e+02 3.848166656494140625e+01 -6.222808361053466797e+00 -1.303330421447753906e+00 3.707699943333864212e-04 -3.908878862857818604e-01 8.740333840250968933e-03
5.650000000000000000e+02 3.923187255859375000e+01 -6.203719139099121094e+00 -1.390094637870788574e+00 9.380360133945941925e-04 -4.167469739913940430e-01 7.815830409526824951e-03
5.660000000000000000e+02 3.998181152343750000e+01 -6.183495998382568359e+00 -1.479399085044860840e+00 3.297456132713705301e-04 -4.437207877635955811e-01 6.934720091521739960e-03
5.670000000000000000e+02 4.073185729980468750e+01 -6.163486957550048828e+00 -1.572704792022705078e+00 -3.346418379805982113e-04 -4.719118475914001465e-01 7.316252682358026505e-03
5.680000000000000000e+02 4.071416854858398438e+01 -5.423696517944335938e+00 -1.504889965057373047e+00 4.934242460876703262e-04 -4.513189494609832764e-01 9.575078636407852173e-02
5.690000000000000000e+02 3.921274185180664062e+01 -5.463966846466064453e+00 -1.340743660926818848e+00 2.740954980254173279e-03 -4.014008045196533203e-01 9.277287125587463379e-02
5.700000000000000000e+02 3.996340179443359375e+01 -5.443724155426025391e+00 -1.423235774040222168e+00 2.536276821047067642e-03 -4.262098670005798340e-01 9.436310082674026489e-02
5.710000000000000000e+02 3.698171997070312500e+01 -6.262598514556884766e+00 -1.129942059516906738e+00 7.767106289975345135e-04 -3.387495875358581543e-01 1.057571265846490860e-02
5.720000000000000000e+02 3.621255493164062500e+01 -5.544963359832763672e+00 -1.022751927375793457e+00 4.266332369297742844e-03 -3.055456876754760742e-01 9.220662713050842285e-02
5.730000000000000000e+02 3.548279571533203125e+01 -6.306656837463378906e+00 -9.620412588119506836e-01 1.481223385781049728e-03 -2.881680130958557129e-01 1.406121160835027695e-02
5.740000000000000000e+02 3.771127700805664062e+01 -5.501970291137695312e+00 -1.178824186325073242e+00 2.968645654618740082e-03 -3.527566790580749512e-01 9.247200936079025269e-02
5.750000000000000000e+02 3.773139953613281250e+01 -6.241697311401367188e+00 -1.216578483581542969e+00 8.659012382850050926e-04 -3.647137880325317383e-01 9.474373422563076019e-03
5.760000000000000000e+02 3.546322250366210938e+01 -5.566914081573486328e+00 -9.471682310104370117e-01 5.091497208923101425e-03 -2.826230227947235107e-01 9.202931821346282959e-02
5.770000000000000000e+02 3.696178054809570312e+01 -5.522866249084472656e+00 -1.100492954254150391e+00 3.991871140897274017e-03 -3.289503455162048340e-01 9.225929528474807739e-02
5.780000000000000000e+02 3.623231124877929688e+01 -6.284700870513916016e+00 -1.045449256896972656e+00 1.286847982555627823e-03 -3.132487237453460693e-01 1.199414767324924469e-02
5.790000000000000000e+02 3.323463058471679688e+01 -6.359344959259033203e+00 -7.295482158660888672e-01 1.058424240909516811e-03 -2.185469418764114380e-01 2.067050337791442871e-02
5.800000000000000000e+02 3.321954727172851562e+01 -5.619493961334228516e+00 -7.293216586112976074e-01 3.863038728013634682e-03 -2.176375836133956909e-01 9.319031238555908203e-02
5.810000000000000000e+02 3.248681640625000000e+01 -6.379900932312011719e+00 -6.529759764671325684e-01 1.913315150886774063e-03 -1.953188031911849976e-01 2.263293974101543427e-02
5.820000000000000000e+02 3.398349380493164062e+01 -6.341384410858154297e+00 -8.057118654251098633e-01 1.247709151357412338e-03 -2.413392513990402222e-01 1.931806840002536774e-02
5.830000000000000000e+02 3.471478271484375000e+01 -5.586100101470947266e+00 -8.727800846099853516e-01 4.625817295163869858e-03 -2.604462802410125732e-01 9.175965189933776855e-02
5.840000000000000000e+02 3.473338699340820312e+01 -6.325866699218750000e+00 -8.823415637016296387e-01 2.054551616311073303e-03 -2.640860974788665771e-01 1.681254990398883820e-02
5.850000000000000000e+02 3.247348785400390625e+01 -5.640007495880126953e+00 -6.623815298080444336e-01 4.580340813845396042e-03 -1.973403543233871460e-01 9.230346232652664185e-02
5.860000000000000000e+02 3.396664810180664062e+01 -5.601575374603271484e+00 -7.999153733253479004e-01 4.106964915990829468e-03 -2.387425154447555542e-01 9.222625195980072021e-02
5.870000000000000000e+02 3.099083137512207031e+01 -6.399948596954345703e+00 -5.185326933860778809e-01 3.361681010574102402e-04 -1.554589569568634033e-01 2.784394100308418274e-02
5.880000000000000000e+02 3.024179267883300781e+01 -5.667771339416503906e+00 -4.712370932102203369e-01 6.342184497043490410e-04 -1.411808580160140991e-01 9.047824889421463013e-02
5.890000000000000000e+02 2.949573898315429688e+01 -6.414954185485839844e+00 -3.871008157730102539e-01 1.195978373289108276e-03 -1.157714501023292542e-01 2.921488694846630096e-02
5.900000000000000000e+02 3.172830200195312500e+01 -5.652883052825927734e+00 -5.962945222854614258e-01 3.484445624053478241e-03 -1.778430342674255371e-01 9.083878248929977417e-02
5.910000000000000000e+02 3.173856925964355469e+01 -6.392818927764892578e+00 -5.829089283943176270e-01 2.069410635158419609e-03 -1.742518544197082520e-01 2.587111480534076691e-02
5.920000000000000000e+02 2.949855422973632812e+01 -5.674893379211425781e+00 -4.144682288169860840e-01 9.383494616486132145e-04 -1.240589618682861328e-01 8.815505355596542358e-02
5.930000000000000000e+02 3.098492622375488281e+01 -5.659971237182617188e+00 -5.318782925605773926e-01 1.683909562416374683e-03 -1.590583175420761108e-01 9.049388766288757324e-02
5.940000000000000000e+02 3.024333572387695312e+01 -6.407790660858154297e+00 -4.529487788677215576e-01 4.231253988109529018e-04 -1.357576996088027954e-01 2.808317728340625763e-02
5.950000000000000000e+02 2.800358009338378906e+01 -6.392907142639160156e+00 -2.799297273159027100e-01 -1.715074293315410614e-03 -8.449344336986541748e-02 3.203991800546646118e-02
5.960000000000000000e+02 2.728431129455566406e+01 -5.636834621429443359e+00 -2.595607638359069824e-01 -6.150021683424711227e-03 -7.971323281526565552e-02 7.976098358631134033e-02
5.970000000000000000e+02 2.651304817199707031e+01 -6.358762741088867188e+00 -1.792768836021423340e-01 -1.498723984695971012e-03 -5.423268303275108337e-02 2.843644283711910248e-02
5.980000000000000000e+02 2.875823974609375000e+01 -5.669638156890869141e+00 -3.597840964794158936e-01 -1.060465583577752113e-03 -1.082533746957778931e-01 8.459661900997161865e-02
5.990000000000000000e+02 2.874904632568359375e+01 -6.409622669219970703e+00 -3.298177123069763184e-01 6.872713565826416016e-04 -9.873913228511810303e-02 3.158771991729736328e-02
6.000000000000000000e+02 2.654741096496582031e+01 -5.619358539581298828e+00 -2.157140076160430908e-01 -6.569148972630500793e-03 -6.668494641780853271e-02 7.416652888059616089e-02
6.010000000000000000e+02 2.802116203308105469e+01 -5.653115749359130859e+00 -3.073938488960266113e-01 -3.847920102998614311e-03 -9.337253123521804810e-02 8.243789523839950562e-02
6.020000000000000000e+02 2.725833702087402344e+01 -6.376431941986083984e+00 -2.289987951517105103e-01 -1.594231347553431988e-03 -6.917791068553924561e-02 3.015443682670593262e-02
6.030000000000000000e+02 2.428754043579101562e+01 -6.197861671447753906e+00 -7.253246009349822998e-02 -3.785568289458751678e-03 -2.289540879428386688e-02 2.152295224368572235e-02
6.040000000000000000e+02 2.435861396789550781e+01 -5.461198806762695312e+00 -1.074944660067558289e-01 -1.305177994072437286e-02 -3.616387397050857544e-02 5.542566999793052673e-02
6.050000000000000000e+02 2.354777717590332031e+01 -6.138960838317871094e+00 -4.378920421004295349e-02 -4.022643435746431351e-03 -1.434355415403842926e-02 1.676869764924049377e-02
6.060000000000000000e+02 2.502826499938964844e+01 -6.258197307586669922e+00 -1.049037799239158630e-01 -4.029357805848121643e-03 -3.267994150519371033e-02 2.550918050110340118e-02
6.070000000000000000e+02 2.581491851806640625e+01 -5.581003189086914062e+00 -1.752301901578903198e-01 -8.880707435309886932e-03 -5.523326992988586426e-02 6.765197962522506714e-02
6.080000000000000000e+02 2.576985549926757812e+01 -6.319781780242919922e+00 -1.383816003799438477e-01 -2.235466614365577698e-03 -4.218512028455734253e-02 2.756101824343204498e-02
6.090000000000000000e+02 2.363185691833496094e+01 -5.403356075286865234e+00 -7.928238064050674438e-02 -1.292546838521957397e-02 -2.766235545277595520e-02 4.705015197396278381e-02
6.100000000000000000e+02 2.508633232116699219e+01 -5.520476818084716797e+00 -1.387840807437896729e-01 -1.118707843124866486e-02 -4.499134793877601624e-02 6.212894991040229797e-02
6.110000000000000000e+02 2.146717453002929688e+01 -5.077126979827880859e+00 -2.369911596179008484e-02 -1.398298703134059906e-02 -1.130463089793920517e-02 1.963027939200401306e-02
6.120000000000000000e+02 2.134441947937011719e+01 -5.806876659393310547e+00 5.956644192337989807e-03 -1.500263693742454052e-03 1.336914137937128544e-03 4.105033352971076965e-03
6.130000000000000000e+02 2.061148262023925781e+01 -5.684748649597167969e+00 1.187039446085691452e-02 -3.308306215330958366e-03 2.568626543506979942e-03 -4.788416263181716204e-04
6.140000000000000000e+02 2.207760429382324219e+01 -5.928263664245605469e+00 -5.708951037377119064e-03 -4.752079956233501434e-03 -3.138309344649314880e-03 7.934813387691974640e-03
6.150000000000000000e+02 2.290797805786132812e+01 -5.314875125885009766e+00 -5.653930455446243286e-02 -1.403795275837182999e-02 -2.117317728698253632e-02 3.805056586861610413e-02
6.160000000000000000e+02 2.281096076965332031e+01 -6.048885822296142578e+00 -2.152920328080654144e-02 -3.396326676011085510e-03 -7.477658800780773163e-03 1.286587491631507874e-02
6.170000000000000000e+02 2.074710655212402344e+01 -4.957129478454589844e+00 -1.473702210932970047e-02 -9.268481284379959106e-03 -7.201651111245155334e-03 1.080096792429685593e-02
6.180000000000000000e+02 2.218749046325683594e+01 -5.196383476257324219e+00 -3.749834373593330383e-02 -1.416775770485401154e-02 -1.549983117729425430e-02 3.062446415424346924e-02
6.190000000000000000e+02 1.905580329895019531e+01 -4.613489627838134766e+00 2.617571444716304541e-04 4.020173102617263794e-03 1.284579047933220863e-03 -5.568824708461761475e-03
6.200000000000000000e+02 1.978026580810546875e+01 -5.523462295532226562e+00 9.962058626115322113e-03 2.129596687154844403e-04 3.052505664527416229e-03 -4.282037727534770966e-03
6.210000000000000000e+02 1.992511749267578125e+01 -4.797539234161376953e+00 -6.428892258554697037e-03 -9.285072796046733856e-03 -4.714189562946557999e-03 9.744550334289669991e-04
6.220000000000000000e+02 1.847771644592285156e+01 -4.667171001434326172e+00 5.031600012443959713e-04 1.056306529790163040e-02 3.319867653772234917e-03 -1.608401769772171974e-03
6.230000000000000000e+02 1.890536689758300781e+01 -5.338151454925537109e+00 2.435474423691630363e-03 1.556021510623395443e-03 1.197448815219104290e-03 -3.968907054513692856e-03
6.240000000000000000e+02 1.882146453857421875e+01 -6.111851215362548828e+00 -3.897972637787461281e-04 -6.865064497105777264e-04 -3.228911082260310650e-04 -2.073116600513458252e-03
6.250000000000000000e+02 1.800308799743652344e+01 -6.754832744598388672e+00 -2.253896091133356094e-03 -1.068040635436773300e-02 -3.880290780216455460e-03 -9.742252295836806297e-04
6.260000000000000000e+02 1.831862449645996094e+01 -6.817986488342285156e+00 -1.199727039784193039e-02 -7.637736387550830841e-03 -5.890502128750085831e-03 -7.882558740675449371e-03
6.270000000000000000e+02 1.959215354919433594e+01 -7.028707504272460938e+00 -6.998023390769958496e-02 -2.114099217578768730e-03 -2.162829972803592682e-02 -2.846276015043258667e-02
6.280000000000000000e+02 1.890554809570312500e+01 -6.889476776123046875e+00 -3.742726892232894897e-02 -1.055171247571706772e-02 -1.439369469881057739e-02 -2.024272084236145020e-02
6.290000000000000000e+02 1.965883255004882812e+01 -6.285129547119140625e+00 -1.937017403542995453e-02 -1.956234918907284737e-03 -6.397922523319721222e-03 -8.490426465868949890e-03
6.300000000000000000e+02 1.828899765014648438e+01 -6.266255378723144531e+00 -2.054865239188075066e-03 6.342097767628729343e-04 -4.261966678313910961e-04 -7.185793365351855755e-04
6.310000000000000000e+02 1.796524238586425781e+01 -6.500696659088134766e+00 -1.158261671662330627e-03 3.808698675129562616e-04 -2.332175499759614468e-04 2.449911553412675858e-03
6.320000000000000000e+02 1.870039367675781250e+01 -7.440729618072509766e+00 -5.677646771073341370e-02 -1.294634118676185608e-02 -2.091684378683567047e-02 -4.085629060864448547e-02
6.330000000000000000e+02 1.719804000854492188e+01 -9.350174903869628906e+00 -6.913836300373077393e-02 -7.978843152523040771e-02 -4.467803612351417542e-02 -8.177466690540313721e-02
6.340000000000000000e+02 2.230960083007812500e+01 -9.124403953552246094e+00 -2.705299258232116699e-01 5.268798675388097763e-03 -7.957834005355834961e-02 -1.277076005935668945e-01
6.350000000000000000e+02 2.790009880065917969e+01 -8.636852264404296875e+00 -5.734957456588745117e-01 -7.630614563822746277e-03 -1.743379086256027222e-01 -1.157976910471916199e-01
6.360000000000000000e+02 2.403216934204101562e+01 -8.457669258117675781e+00 -3.426484763622283936e-01 4.931164439767599106e-03 -1.013151928782463074e-01 -9.838867932558059692e-02
6.370000000000000000e+02 1.503100013732910156e+01 -1.272146892547607422e+01 -1.768312305212020874e-01 -2.613735496997833252e-01 -1.314614266157150269e-01 -2.103232741355895996e-01
6.380000000000000000e+02 1.241360092163085938e+01 -1.601628494262695312e+01 -2.726210355758666992e-01 -2.846183180809020996e-01 -1.671718209981918335e-01 -2.746012210845947266e-01
6.390000000000000000e+02 1.431658840179443359e+01 -1.571895599365234375e+01 -2.476185709238052368e-01 -2.370190918445587158e-01 -1.453913003206253052e-01 -2.341726869344711304e-01
6.400000000000000000e+02 1.398915767669677734e+01 -2.265945434570312500e+01 -5.836579203605651855e-02 -2.449775487184524536e-01 -9.100300073623657227e-02 -2.004381716251373291e-01
6.410000000000000000e+02 1.538920211791992188e+01 -3.116855239868164062e+01 1.142045706510543823e-01 -2.919655740261077881e-01 -5.332830175757408142e-02 -1.779550313949584961e-01
6.420000000000000000e+02 1.762472915649414062e+01 -4.094895553588867188e+01 2.206527143716812134e-01 -3.272725939750671387e-01 -3.198596462607383728e-02 -2.923504449427127838e-02
6.430000000000000000e+02 2.242413520812988281e+01 -4.083877944946289062e+01 3.219816088676452637e-01 -3.349662423133850098e-01 -3.895388217642903328e-03 -3.431660309433937073e-02
6.440000000000000000e+02 1.785647583007812500e+01 -3.772238159179687500e+01 2.165709286928176880e-01 -3.247633278369903564e-01 -3.245771676301956177e-02 -8.913063257932662964e-02
6.450000000000000000e+02 2.387694740295410156e+01 -3.009910774230957031e+01 1.932144463062286377e-01 -2.779107689857482910e-01 -2.540889568626880646e-02 -2.541851103305816650e-01
6.460000000000000000e+02 2.143697929382324219e+01 -2.332454490661621094e+01 -4.669081792235374451e-02 -1.948248296976089478e-01 -7.245469838380813599e-02 -2.879843115806579590e-01
6.470000000000000000e+02 2.392308044433593750e+01 -1.387722492218017578e+01 -3.363373875617980957e-01 -3.389497473835945129e-02 -1.110697016119956970e-01 -2.858133614063262939e-01
6.480000000000000000e+02 2.319394302368164062e+01 -1.421814250946044922e+01 -3.217601776123046875e-01 -3.717246279120445251e-02 -1.076797917485237122e-01 -2.822628915309906006e-01
6.490000000000000000e+02 1.333063793182373047e+01 -1.493886852264404297e+01 -2.538968324661254883e-01 -2.847035229206085205e-01 -1.615801006555557251e-01 -2.637108564376831055e-01
6.500000000000000000e+02 1.144888114929199219e+01 -1.714885139465332031e+01 -3.258537948131561279e-01 -2.746094763278961182e-01 -1.801389902830123901e-01 -2.703835070133209229e-01
6.510000000000000000e+02 1.025159645080566406e+01 -1.805449485778808594e+01 -3.906710147857666016e-01 -2.203448861837387085e-01 -1.833047717809677124e-01 -2.250193655490875244e-01
6.520000000000000000e+02 8.951344490051269531e+00 -1.837354660034179688e+01 -2.680550217628479004e-01 -7.237377017736434937e-02 -1.021286398172378540e-01 -1.210590079426765442e-01
6.530000000000000000e+02 7.201086997985839844e+00 -1.737227058410644531e+01 -4.108089581131935120e-02 2.329371497035026550e-02 -5.336154717952013016e-03 -1.141154486685991287e-02
6.540000000000000000e+02 6.433018207550048828e+00 -1.645569801330566406e+01 2.345421817153692245e-03 5.901288706809282303e-03 2.474013250321149826e-03 -6.714201997965574265e-03
6.550000000000000000e+02 7.061552047729492188e+00 -1.517511558532714844e+01 3.793371142819523811e-03 1.698388345539569855e-02 6.233176216483116150e-03 -5.783306434750556946e-03
6.560000000000000000e+02 8.851867675781250000e+00 -1.144801425933837891e+01 -3.706921706907451153e-04 -4.396171134430915117e-04 -2.430927852401509881e-04 2.182195457862690091e-04
6.570000000000000000e+02 9.654321670532226562e+00 -1.030848121643066406e+01 1.005162266665138304e-04 3.418684718781150877e-05 4.041092324769124389e-05 -2.996483817696571350e-04
6.580000000000000000e+02 1.214836978912353516e+01 -7.055087089538574219e+00 6.454301183111965656e-05 -6.211789877852424979e-05 7.275332905010145623e-07 -1.124598838941892609e-06
6.590000000000000000e+02 1.172642803192138672e+01 -2.757162570953369141e+00 4.756279304274357855e-05 1.303506433032453060e-04 5.337402762961573899e-05 7.710696081630885601e-06
6.600000000000000000e+02 1.225401782989501953e+01 -4.645035266876220703e+00 -9.113407577387988567e-05 -5.488230453920550644e-05 -4.380491373012773693e-05 -3.228911009500734508e-05
6.610000000000000000e+02 1.104999637603759766e+01 -1.914239406585693359e+00 1.720018371997866780e-05 1.425004156772047281e-04 4.791018000105395913e-05 3.572752757463604212e-05
6.620000000000000000e+02 4.286219120025634766e+00 -1.931374430656433105e+00 -3.019345422217156738e-05 -6.274991756072267890e-05 -2.788301026157569140e-05 -1.300274889217689633e-04
6.630000000000000000e+02 1.893188476562500000e+00 -1.460169315338134766e+01 3.138392698019742966e-03 -1.021784701151773334e-04 9.108642116189002991e-04 4.581199493259191513e-03
6.640000000000000000e+02 4.516143798828125000e+00 -1.844757652282714844e+01 -4.829090833663940430e-02 -1.842557452619075775e-02 -2.001494541764259338e-02 -1.737131178379058838e-02
6.650000000000000000e+02 6.474456191062927246e-01 -2.474660301208496094e+01 -2.332475269213318825e-03 -7.416824251413345337e-02 -2.295021712779998779e-02 -1.782387681305408478e-02
6.660000000000000000e+02 7.210920453071594238e-01 -3.177157974243164062e+01 1.499504782259464264e-03 -2.727503776550292969e-01 -8.137526363134384155e-02 -1.696485839784145355e-02
6.670000000000000000e+02 2.731432437896728516e+00 -3.793152999877929688e+01 9.904122911393642426e-03 -3.467798829078674316e-01 -1.010627225041389465e-01 -2.422622591257095337e-02
6.680000000000000000e+02 8.404185175895690918e-01 -3.733307266235351562e+01 2.554160309955477715e-03 -3.624484241008758545e-01 -1.079682782292366028e-01 -7.405207492411136627e-03
6.690000000000000000e+02 6.855642318725585938e+00 -3.760034179687500000e+01 4.626171290874481201e-02 -3.074305951595306396e-01 -7.835066318511962891e-02 -5.788414925336837769e-02
6.700000000000000000e+02 9.741986274719238281e+00 -3.760808181762695312e+01 8.292148262262344360e-02 -3.086329400539398193e-01 -6.771343946456909180e-02 -7.308430969715118408e-02
6.710000000000000000e+02 6.701110363006591797e+00 -3.183424949645996094e+01 3.356265649199485779e-02 -2.658895254135131836e-01 -6.969806551933288574e-02 -1.154721826314926147e-01
6.720000000000000000e+02 1.243018054962158203e+01 -2.107613182067871094e+01 -9.307719767093658447e-02 -2.476835548877716064e-01 -1.022282242774963379e-01 -1.893055886030197144e-01
6.730000000000000000e+02 1.130647468566894531e+01 -2.251839447021484375e+01 -5.150501430034637451e-02 -2.394830435514450073e-01 -8.729641884565353394e-02 -1.889094710350036621e-01
6.740000000000000000e+02 6.282046437263488770e-01 -2.333406066894531250e+01 -6.239680806174874306e-04 -3.822846710681915283e-02 -1.165573019534349442e-02 -1.430025510489940643e-02
6.750000000000000000e+02 1.254424953460693359e+01 -2.003278732299804688e+00 8.360293577425181866e-05 5.535176387638784945e-05 4.168640953139401972e-05 2.959097946586553007e-05
6.760000000000000000e+02 2.736480903625488281e+01 -4.046535110473632812e+01 4.522158801555633545e-01 -3.221221268177032471e-01 3.902812674641609192e-02 -5.568744614720344543e-02
6.770000000000000000e+02 2.630304336547851562e+01 -3.672560501098632812e+01 3.907376527786254883e-01 -3.157825767993927002e-01 2.248652279376983643e-02 -1.453343182802200317e-01
6.780000000000000000e+02 2.880547332763671875e+01 -2.153812408447265625e+01 -8.929859101772308350e-02 -1.532970219850540161e-01 -7.277868688106536865e-02 -4.194658994674682617e-01
6.790000000000000000e+02 3.095144844055175781e+01 -8.655011177062988281e+00 -7.607711553573608398e-01 -1.264182850718498230e-02 -2.320238947868347168e-01 -1.328544020652770996e-01
6.800000000000000000e+02 2.932614898681640625e+01 -9.384473800659179688e+00 -6.346731185913085938e-01 -1.484911050647497177e-02 -1.948566734790802002e-01 -1.659004837274551392e-01
6.810000000000000000e+02 3.759051895141601562e+01 -4.045707321166992188e+01 7.424419522285461426e-01 -1.629355400800704956e-01 1.738519221544265747e-01 -5.940666794776916504e-02
6.820000000000000000e+02 3.362936019897460938e+01 -3.226749801635742188e+01 4.657347500324249268e-01 -2.391389012336730957e-01 6.797876209020614624e-02 -2.925522327423095703e-01
6.830000000000000000e+02 3.574230575561523438e+01 -2.293012428283691406e+01 3.432983905076980591e-02 -1.597401648759841919e-01 -3.762309998273849487e-02 -4.884558916091918945e-01
6.840000000000000000e+02 3.685039520263671875e+01 -1.381216335296630859e+01 -6.885703206062316895e-01 -6.367740035057067871e-02 -2.256743162870407104e-01 -4.333866834640502930e-01
6.850000000000000000e+02 3.922832489013671875e+01 -8.452611923217773438e+00 -1.312097787857055664e+00 -1.038750540465116501e-02 -3.967455923557281494e-01 -1.806042492389678955e-01
6.860000000000000000e+02 3.763782501220703125e+01 -9.214280128479003906e+00 -1.135083436965942383e+00 -1.731030829250812531e-02 -3.457181155681610107e-01 -2.193479984998703003e-01
6.870000000000000000e+02 3.623434448242187500e+01 -8.534806251525878906e+00 -1.100660085678100586e+00 -1.264391560107469559e-02 -3.339911699295043945e-01 -1.642484664916992188e-01
6.880000000000000000e+02 4.250575256347656250e+01 -4.059246063232421875e+01 8.751724362373352051e-01 2.822997421026229858e-02 2.710207104682922363e-01 -4.699933528900146484e-02
6.890000000000000000e+02 3.791515731811523438e+01 -3.625236892700195312e+01 6.912480592727661133e-01 -1.565220355987548828e-01 1.604177951812744141e-01 -1.813099086284637451e-01
6.900000000000000000e+02 4.129339218139648438e+01 -3.062464523315429688e+01 6.109006404876708984e-01 -6.515791267156600952e-02 1.637228131294250488e-01 -3.223116397857666016e-01
6.910000000000000000e+02 4.542976760864257812e+01 -2.223743820190429688e+01 1.364345550537109375e-01 -3.229201212525367737e-02 3.124276176095008850e-02 -5.010029673576354980e-01
6.920000000000000000e+02 4.363455963134765625e+01 -1.409151077270507812e+01 -8.726309537887573242e-01 -6.220116093754768372e-02 -2.804496288299560547e-01 -5.052478909492492676e-01
6.930000000000000000e+02 4.670247650146484375e+01 -8.296652793884277344e+00 -1.930118918418884277e+00 -5.967717152088880539e-03 -5.808259844779968262e-01 -2.172830849885940552e-01
6.940000000000000000e+02 4.297122192382812500e+01 -8.364112854003906250e+00 -1.603354215621948242e+00 -7.835282944142818451e-03 -4.833568334579467773e-01 -1.991734802722930908e-01
6.950000000000000000e+02 4.362508392333984375e+01 -9.066893577575683594e+00 -1.561886310577392578e+00 -1.264042686671018600e-02 -4.723580479621887207e-01 -2.584286928176879883e-01
6.960000000000000000e+02 4.222267532348632812e+01 -8.381782531738281250e+00 -1.542084336280822754e+00 -8.622124791145324707e-03 -4.652119278907775879e-01 -1.955797821283340454e-01
6.970000000000000000e+02 4.740407180786132812e+01 -4.070830154418945312e+01 9.879452586174011230e-01 3.637839555740356445e-01 4.055187702178955078e-01 -3.463263809680938721e-02
6.980000000000000000e+02 4.658275222778320312e+01 -3.152045249938964844e+01 7.495223879814147949e-01 1.984548270702362061e-01 2.843931615352630615e-01 -2.313422411680221558e-01
6.990000000000000000e+02 5.346338272094726562e+01 -2.361036300659179688e+01 4.939954280853271484e-01 4.164704680442810059e-01 2.731397747993469238e-01 -2.117816507816314697e-01
7.000000000000000000e+02 5.134626388549804688e+01 -1.388019275665283203e+01 -1.053689002990722656e+00 -1.770747825503349304e-02 -3.214189410209655762e-01 -5.247512459754943848e-01
7.010000000000000000e+02 5.268430709838867188e+01 -8.251585006713867188e+00 -2.529516458511352539e+00 -4.507997538894414902e-03 -7.602073550224304199e-01 -2.443554699420928955e-01
7.020000000000000000e+02 5.106079483032226562e+01 -8.978978157043457031e+00 -2.186440944671630859e+00 -7.332061417400836945e-03 -6.581318974494934082e-01 -3.064885735511779785e-01
7.030000000000000000e+02 4.969085311889648438e+01 -8.267710685729980469e+00 -2.219037055969238281e+00 -4.518203437328338623e-03 -6.670666337013244629e-01 -2.315737158060073853e-01
7.040000000000000000e+02 5.757276916503906250e+01 -4.056385040283203125e+01 9.898005127906799316e-01 1.710498452186584473e+00 8.100896477699279785e-01 4.760061949491500854e-02
7.050000000000000000e+02 5.354045867919921875e+01 -3.269266128540039062e+01 9.460421204566955566e-01 8.451200723648071289e-01 5.373486876487731934e-01 -1.631347090005874634e-02
7.060000000000000000e+02 5.840909576416015625e+01 -2.314711380004882812e+01 6.261181831359863281e-01 9.986456036567687988e-01 4.874291419982910156e-01 1.658021956682205200e-01
7.070000000000000000e+02 5.832014846801757812e+01 -1.352519798278808594e+01 -1.039969325065612793e+00 1.229463070631027222e-01 -2.751069068908691406e-01 -3.394505679607391357e-01
7.080000000000000000e+02 5.792810440063476562e+01 -8.236810684204101562e+00 -3.095513820648193359e+00 -3.626177320256829262e-03 -9.297420382499694824e-01 -2.654289603233337402e-01
7.090000000000000000e+02 5.481834793090820312e+01 -8.956763267517089844e+00 -2.524120092391967773e+00 -9.171214886009693146e-03 -7.599874138832092285e-01 -3.240324258804321289e-01
7.100000000000000000e+02 5.493330001831054688e+01 -8.244350433349609375e+00 -2.770859241485595703e+00 -5.147403571754693985e-03 -8.328019976615905762e-01 -2.550946772098541260e-01
7.110000000000000000e+02 6.257873153686523438e+01 -4.087260055541992188e+01 8.172987699508666992e-01 2.779071092605590820e+00 1.078910946846008301e+00 7.247266918420791626e-02
7.120000000000000000e+02 5.839643859863281250e+01 -3.694283294677734375e+01 9.667913913726806641e-01 1.764073491096496582e+00 8.192594647407531738e-01 1.394605487585067749e-01
7.130000000000000000e+02 5.998166656494140625e+01 -3.091682624816894531e+01 8.980321288108825684e-01 1.941976428031921387e+00 8.520026206970214844e-01 3.320301771163940430e-01
7.140000000000000000e+02 6.491632843017578125e+01 -2.493936538696289062e+01 7.354884147644042969e-01 2.668840885162353516e+00 1.021298766136169434e+00 8.075904250144958496e-01
7.150000000000000000e+02 6.322862625122070312e+01 -1.509039402008056641e+01 -2.057115882635116577e-01 7.905862331390380859e-01 1.754623949527740479e-01 3.447456061840057373e-01
7.160000000000000000e+02 6.467405700683593750e+01 -8.216809272766113281e+00 -3.609050273895263672e+00 1.427804771810770035e-02 -1.078431606292724609e+00 -2.145433425903320312e-01
7.170000000000000000e+02 6.317501831054687500e+01 -8.226634025573730469e+00 -3.555704593658447266e+00 4.402690567076206207e-03 -1.065390586853027344e+00 -2.480552494525909424e-01
7.180000000000000000e+02 6.092554855346679688e+01 -8.233633995056152344e+00 -3.389082670211791992e+00 -1.503849867731332779e-03 -1.017175912857055664e+00 -2.645306289196014404e-01
7.190000000000000000e+02 6.736019134521484375e+01 -4.107275009155273438e+01 5.685116052627563477e-01 3.897066354751586914e+00 1.339673399925231934e+00 8.060791343450546265e-02
7.200000000000000000e+02 6.734938049316406250e+01 -3.807695007324218750e+01 5.779339671134948730e-01 3.899526119232177734e+00 1.343237996101379395e+00 2.707177698612213135e-01
7.210000000000000000e+02 7.109136199951171875e+01 -3.155014419555664062e+01 3.995772898197174072e-01 4.960990428924560547e+00 1.608170270919799805e+00 6.854754090309143066e-01
7.220000000000000000e+02 7.200605773925781250e+01 -2.234785842895507812e+01 3.194691240787506104e-01 5.491956710815429688e+00 1.743427753448486328e+00 1.265865445137023926e+00
7.230000000000000000e+02 7.161830902099609375e+01 -8.068386077880859375e+00 -5.864657759666442871e-01 1.510408401489257812e+00 2.771827876567840576e-01 2.210986137390136719e+00
7.240000000000000000e+02 6.953384399414062500e+01 -8.173102378845214844e+00 -2.648102760314941406e+00 2.989203035831451416e-01 -7.047547101974487305e-01 5.033856034278869629e-01
7.250000000000000000e+02 6.691260528564453125e+01 -8.192828178405761719e+00 -3.510496616363525391e+00 5.005925521254539490e-02 -1.038131237030029297e+00 -9.377083182334899902e-02
7.260000000000000000e+02 7.796428680419921875e+01 -4.165180587768554688e+01 9.911426156759262085e-02 6.355143070220947266e+00 1.936277151107788086e+00 2.777054160833358765e-02
7.270000000000000000e+02 7.766838073730468750e+01 -3.704274749755859375e+01 2.635111100971698761e-02 6.441836357116699219e+00 1.940456151962280273e+00 1.587120592594146729e-01
7.280000000000000000e+02 7.785187530517578125e+01 -3.053030586242675781e+01 3.419661149382591248e-02 7.030975818634033203e+00 2.119551658630371094e+00 2.919894754886627197e-01
7.290000000000000000e+02 7.823976898193359375e+01 -2.356632804870605469e+01 2.451761998236179352e-02 8.332518577575683594e+00 2.507110834121704102e+00 4.298022687435150146e-01
7.300000000000000000e+02 7.841800689697265625e+01 -1.672796249389648438e+01 -7.454764097929000854e-02 1.010709095001220703e+01 3.009763002395629883e+00 3.464745283126831055e-01
7.310000000000000000e+02 7.942531585693359375e+01 -8.296847343444824219e+00 1.259317249059677124e-01 6.143055915832519531e+00 1.880696296691894531e+00 -8.377996683120727539e-01
7.320000000000000000e+02 7.571781921386718750e+01 -6.110441684722900391e+00 8.016230583190917969e+00 1.635962295532226562e+01 7.312756061553955078e+00 1.594467997550964355e+00
7.330000000000000000e+02 7.946656799316406250e+01 2.860172271728515625e+00 -3.126860829070210457e-03 1.102783203125000000e+01 3.307411432266235352e+00 -7.508111000061035156e-02
7.340000000000000000e+02 7.332873535156250000e+01 9.573402404785156250e+00 2.064428180456161499e-01 6.088620662689208984e+00 1.888519048690795898e+00 -1.293669700622558594e+00
7.350000000000000000e+02 6.546330261230468750e+01 1.808458709716796875e+01 5.699653625488281250e-01 3.175907135009765625e+00 1.123761773109436035e+00 -8.667531609535217285e-01
7.360000000000000000e+02 5.954729080200195312e+01 2.382495880126953125e+01 6.400229334831237793e-01 2.262185573577880859e+00 8.706625103950500488e-01 -4.505728781223297119e-01
7.370000000000000000e+02 5.120349121093750000e+01 2.968700027465820312e+01 6.692320108413696289e-01 1.274202108383178711e+00 5.830302238464355469e-01 -8.905894309282302856e-02
7.380000000000000000e+02 4.237382507324218750e+01 4.054351425170898438e+01 7.040001749992370605e-01 5.474803447723388672e-01 3.754441440105438232e-01 1.027970574796199799e-02
7.390000000000000000e+02 3.734537124633789062e+01 4.049107742309570312e+01 6.693865656852722168e-01 1.872114539146423340e-01 2.569794058799743652e-01 2.027399092912673950e-02
7.400000000000000000e+02 3.238833999633789062e+01 4.071636199951171875e+01 6.102519631385803223e-01 -1.299862861633300781e-01 1.440797001123428345e-01 2.364633232355117798e-02
7.410000000000000000e+02 3.201088333129882812e+01 3.708486557006835938e+01 5.791797041893005371e-01 -1.443247348070144653e-01 1.304564923048019409e-01 7.376243174076080322e-02
7.420000000000000000e+02 3.112462806701660156e+01 2.997786712646484375e+01 4.371126294136047363e-01 -2.038535326719284058e-01 6.997773051261901855e-02 1.776402741670608521e-01
7.430000000000000000e+02 3.302636718750000000e+01 2.050983619689941406e+01 1.421354711055755615e-01 -1.267346739768981934e-01 4.620238672941923141e-03 3.801341950893402100e-01
7.440000000000000000e+02 3.081941032409667969e+01 1.622953224182128906e+01 -1.077410355210304260e-01 -1.792521476745605469e-01 -8.609795570373535156e-02 4.926231205463409424e-01
7.450000000000000000e+02 2.746221351623535156e+01 8.761622428894042969e+00 -3.708264231681823730e-01 -2.461438030004501343e-01 -1.850910633802413940e-01 6.153743863105773926e-01
7.460000000000000000e+02 2.496670913696289062e+01 2.610781669616699219e+00 -2.628404498100280762e-01 -2.318541705608367920e-01 -1.484083831310272217e-01 4.435909688472747803e-01
7.470000000000000000e+02 2.732299613952636719e+01 -4.910346031188964844e+00 -2.869639098644256592e-01 -1.186300627887248993e-02 -8.964807540178298950e-02 1.252824962139129639e-01
7.480000000000000000e+02 3.025879096984863281e+01 -4.945929527282714844e+00 -4.877323806285858154e-01 -7.552879396826028824e-04 -1.465463042259216309e-01 1.458145081996917725e-01
7.490000000000000000e+02 2.882822418212890625e+01 -4.237592697143554688e+00 -3.995403647422790527e-01 -1.198428403586149216e-02 -1.234574019908905029e-01 1.847176253795623779e-01
7.500000000000000000e+02 3.322675323486328125e+01 -4.902997493743896484e+00 -7.288580536842346191e-01 4.882290028035640717e-03 -2.171927392482757568e-01 1.568374037742614746e-01
7.510000000000000000e+02 3.397253036499023438e+01 -4.884760379791259766e+00 -7.940369844436645508e-01 5.132434889674186707e-03 -2.366713732481002808e-01 1.589826643466949463e-01
7.520000000000000000e+02 3.471855926513671875e+01 -4.865848064422607422e+00 -8.610868453979492188e-01 5.829039495438337326e-03 -2.565773427486419678e-01 1.604936718940734863e-01
7.530000000000000000e+02 3.696355819702148438e+01 -4.802816867828369141e+00 -1.070538282394409180e+00 4.932583309710025787e-03 -3.196817040443420410e-01 1.653092950582504272e-01
7.540000000000000000e+02 3.996282577514648438e+01 -4.722510337829589844e+00 -1.365891575813293457e+00 2.249100944027304649e-03 -4.090927541255950928e-01 1.715836077928543091e-01
7.550000000000000000e+02 4.522510910034179688e+01 -4.611683845520019531e+00 -1.906819581985473633e+00 -2.734503010287880898e-03 -5.728662610054016113e-01 1.868779659271240234e-01
7.560000000000000000e+02 4.823489379882812500e+01 -4.572775840759277344e+00 -2.221861600875854492e+00 -5.848824977874755859e-03 -6.683130860328674316e-01 2.000722140073776245e-01
7.570000000000000000e+02 5.049069595336914062e+01 -4.553264617919921875e+00 -2.459175348281860352e+00 -8.414924144744873047e-03 -7.402771115303039551e-01 2.119067013263702393e-01
7.580000000000000000e+02 5.124163436889648438e+01 -4.549999237060546875e+00 -2.538185834884643555e+00 -7.383123040199279785e-03 -7.636707425117492676e-01 2.150245755910873413e-01
7.590000000000000000e+02 5.726829910278320312e+01 -3.123943328857421875e+00 -2.578742980957031250e+00 -7.251563947647809982e-03 -7.757983803749084473e-01 3.469846844673156738e-01
7.600000000000000000e+02 6.025319290161132812e+01 -4.537837505340576172e+00 -3.432087659835815430e+00 -4.019047133624553680e-03 -1.030832052230834961e+00 2.521402239799499512e-01
7.610000000000000000e+02 6.250270462036132812e+01 -4.542399883270263672e+00 -3.591565370559692383e+00 -2.683020895346999168e-03 -1.078274488449096680e+00 2.423328906297683716e-01
7.620000000000000000e+02 6.325177764892578125e+01 -4.545543193817138672e+00 -3.629133462905883789e+00 6.528561934828758240e-03 -1.086781501770019531e+00 2.311485260725021362e-01
7.630000000000000000e+02 6.326887130737304688e+01 -3.856955528259277344e+00 -3.124228954315185547e+00 1.931978948414325714e-02 -9.314727187156677246e-01 2.393852174282073975e-01
7.640000000000000000e+02 6.921761322021484375e+01 -4.624825477600097656e+00 -2.913068056106567383e+00 2.331016957759857178e-01 -8.039898872375488281e-01 -3.750264346599578857e-01
7.650000000000000000e+02 7.163203430175781250e+01 -4.754274368286132812e+00 -6.026197075843811035e-01 1.379517436027526855e+00 2.330693155527114868e-01 -2.199811697006225586e+00
7.660000000000000000e+02 7.420302581787109375e+01 4.625167369842529297e+00 -1.895828247070312500e-01 7.249562263488769531e+00 2.117993831634521484e+00 -1.416527271270751953e+00
7.670000000000000000e+02 6.709813690185546875e+01 1.084242439270019531e+01 5.541677474975585938e-01 3.329678773880004883e+00 1.165153980255126953e+00 -1.174879431724548340e+00
7.680000000000000000e+02 5.919884490966796875e+01 1.557573223114013672e+01 6.528824567794799805e-01 1.665614843368530273e+00 6.955491900444030762e-01 -4.621823728084564209e-01
7.690000000000000000e+02 4.877706146240234375e+01 2.438116455078125000e+01 6.375830173492431641e-01 8.413577675819396973e-01 4.436822235584259033e-01 1.090224739164113998e-02
7.700000000000000000e+02 4.150222396850585938e+01 3.053915786743164062e+01 6.238369345664978027e-01 4.330260157585144043e-01 3.170588910579681396e-01 1.002024337649345398e-01
7.710000000000000000e+02 3.517565917968750000e+01 3.284067535400390625e+01 5.623974204063415527e-01 1.206032931804656982e-02 1.723373234272003174e-01 1.178282722830772400e-01
7.720000000000000000e+02 3.150641632080078125e+01 3.345347595214843750e+01 5.259007215499877930e-01 -1.699944436550140381e-01 1.067718714475631714e-01 1.256300508975982666e-01
7.730000000000000000e+02 2.758034515380859375e+01 3.358498382568359375e+01 4.652229249477386475e-01 -3.592204153537750244e-01 3.180074691772460938e-02 1.334168612957000732e-01
7.740000000000000000e+02 7.745903015136718750e+01 3.776025772094726562e+01 -1.604226045310497284e-02 5.225986957550048828e+00 1.562983393669128418e+00 -5.531613528728485107e-02
7.750000000000000000e+02 7.884607696533203125e+01 3.878747558593750000e+01 -2.051878534257411957e-02 5.308670043945312500e+00 1.586445331573486328e+00 -4.913209006190299988e-02
7.760000000000000000e+02 7.931529998779296875e+01 2.921341896057128906e+01 2.724358113482594490e-03 5.761971950531005859e+00 1.729408979415893555e+00 -4.726157337427139282e-02
7.770000000000000000e+02 7.932680511474609375e+01 2.367281723022460938e+01 4.437400959432125092e-03 6.270750999450683594e+00 1.882556438446044922e+00 -7.173476368188858032e-02
7.780000000000000000e+02 7.935044860839843750e+01 1.671895980834960938e+01 6.149074528366327286e-03 7.297581195831298828e+00 2.191119194030761719e+00 -1.161882281303405762e-01
7.790000000000000000e+02 7.940114593505859375e+01 8.386814117431640625e+00 6.227685604244470596e-03 9.406868934631347656e+00 2.823928833007812500e+00 -1.717077344655990601e-01
7.800000000000000000e+02 7.837857055664062500e+01 4.354131221771240234e+00 -5.544459074735641479e-02 9.943305015563964844e+00 2.966357946395874023e+00 -4.089302122592926025e-01
7.810000000000000000e+02 7.801802825927734375e+01 1.947562026977539062e+01 2.244000323116779327e-02 6.551881790161132812e+00 1.972296595573425293e+00 -2.861891090869903564e-01
7.820000000000000000e+02 7.661623382568359375e+01 2.218653488159179688e+01 5.033105984330177307e-02 5.943860054016113281e+00 1.798257350921630859e+00 -3.800391554832458496e-01
7.830000000000000000e+02 7.923091888427734375e+01 3.198530769348144531e+01 4.901607986539602280e-03 5.584951400756835938e+00 1.676955938339233398e+00 -3.890743106603622437e-02
7.840000000000000000e+02 7.296430969238281250e+01 3.551696395874023438e+01 1.079929247498512268e-01 4.670104980468750000e+00 1.433429360389709473e+00 -2.136394083499908447e-01
7.850000000000000000e+02 7.203142547607421875e+01 3.767580795288085938e+01 1.405675113201141357e-01 4.480588912963867188e+00 1.386346817016601562e+00 -1.385447680950164795e-01
7.860000000000000000e+02 7.199358367919921875e+01 3.280445480346679688e+01 1.431963592767715454e-01 4.611403465270996094e+00 1.426380038261413574e+00 -2.986465096473693848e-01
7.870000000000000000e+02 7.210379791259765625e+01 2.478012084960937500e+01 1.965617835521697998e-01 4.810763835906982422e+00 1.502197742462158203e+00 -5.683631896972656250e-01
7.880000000000000000e+02 7.264867401123046875e+01 1.778184890747070312e+01 2.496534436941146851e-01 5.272215366363525391e+00 1.656560659408569336e+00 -8.803823590278625488e-01
7.890000000000000000e+02 7.316664886474609375e+01 1.095526027679443359e+01 2.390801310539245605e-01 5.890188217163085938e+00 1.838780403137207031e+00 -1.230676889419555664e+00
7.900000000000000000e+02 6.204833221435546875e+01 4.026781082153320312e+01 4.578443467617034912e-01 2.946879625320434570e+00 1.021417140960693359e+00 -7.396629452705383301e-02
7.910000000000000000e+02 6.609813690185546875e+01 2.747510528564453125e+01 4.190089702606201172e-01 3.523997545242309570e+00 1.182901978492736816e+00 -5.325793623924255371e-01
7.920000000000000000e+02 6.428083801269531250e+01 2.293342781066894531e+01 5.443711876869201660e-01 3.115338325500488281e+00 1.097912907600402832e+00 -6.679286360740661621e-01
7.930000000000000000e+02 6.706973266601562500e+01 1.894572257995605469e+01 5.007758736610412598e-01 3.670801162719726562e+00 1.251473069190979004e+00 -8.919511437416076660e-01
7.940000000000000000e+02 5.697379302978515625e+01 4.031545257568359375e+01 5.890191197395324707e-01 2.240369319915771484e+00 8.488165736198425293e-01 -4.912358522415161133e-02
7.950000000000000000e+02 6.197579956054687500e+01 3.621516799926757812e+01 4.722761213779449463e-01 2.921198129653930664e+00 1.018042325973510742e+00 -1.922158747911453247e-01
7.960000000000000000e+02 5.730508422851562500e+01 2.909806251525878906e+01 6.253411769866943359e-01 2.081811904907226562e+00 8.121458888053894043e-01 -2.588600218296051025e-01
7.970000000000000000e+02 5.429993820190429688e+01 2.344015121459960938e+01 6.798025369644165039e-01 1.422254920005798340e+00 6.306172013282775879e-01 -1.959046125411987305e-01
7.980000000000000000e+02 5.209717559814453125e+01 4.067884445190429688e+01 6.820303201675415039e-01 1.546536564826965332e+00 6.685701012611389160e-01 -1.584075391292572021e-02
7.990000000000000000e+02 1.776783180236816406e+01 4.053380584716796875e+01 3.545883893966674805e-01 -5.894693732261657715e-01 -7.046429812908172607e-02 4.555164650082588196e-02
8.000000000000000000e+02 2.269286918640136719e+01 4.075378799438476562e+01 4.607373178005218506e-01 -5.037804841995239258e-01 -1.291296072304248810e-02 2.857662923634052277e-02
8.010000000000000000e+02 2.348013305664062500e+01 3.063833427429199219e+01 3.554318547248840332e-01 -5.218060016632080078e-01 -4.991225153207778931e-02 1.924226582050323486e-01
8.020000000000000000e+02 2.269161605834960938e+01 2.263403129577636719e+01 3.422936424612998962e-02 -5.719052553176879883e-01 -1.613027751445770264e-01 2.893658280372619629e-01
8.030000000000000000e+02 2.212355422973632812e+01 1.612739753723144531e+01 -3.581552207469940186e-01 -5.908939242362976074e-01 -2.847147285938262939e-01 4.313955903053283691e-01
8.040000000000000000e+02 2.027349281311035156e+01 1.010516357421875000e+01 -3.809082508087158203e-01 -8.286858797073364258e-01 -3.628782331943511963e-01 5.433067679405212402e-01
8.050000000000000000e+02 1.997597885131835938e+01 5.409904956817626953e+00 -1.239147633314132690e-01 -6.247960329055786133e-01 -2.246132344007492065e-01 3.136758804321289062e-01
8.060000000000000000e+02 2.159268379211425781e+01 -4.386746883392333984e+00 -4.341414198279380798e-02 -2.919928915798664093e-02 -2.178402990102767944e-02 4.001074284315109253e-02
8.070000000000000000e+02 2.447053909301757812e+01 -3.995980024337768555e+00 -1.572086215019226074e-01 -4.097060114145278931e-02 -5.945376679301261902e-02 1.238229945302009583e-01
8.080000000000000000e+02 2.370830535888671875e+01 -4.670106887817382812e+00 -1.069350987672805786e-01 -2.685010060667991638e-02 -4.013555869460105896e-02 7.711870968341827393e-02
8.090000000000000000e+02 1.903035163879394531e+01 3.014223480224609375e+01 2.838636338710784912e-01 -6.355165243148803711e-01 -1.054958701133728027e-01 2.306239753961563110e-01
8.100000000000000000e+02 1.611757278442382812e+01 2.321259689331054688e+01 -2.008916810154914856e-02 -7.807468175888061523e-01 -2.402507960796356201e-01 3.586072921752929688e-01
8.110000000000000000e+02 1.294765377044677734e+01 1.757570457458496094e+01 -9.386493563652038574e-01 -7.800924181938171387e-01 -5.156225562095642090e-01 7.821136713027954102e-01
8.120000000000000000e+02 1.508188915252685547e+01 1.560162925720214844e+01 -8.395669460296630859e-01 -1.278685331344604492e+00 -6.354756951332092285e-01 9.331654906272888184e-01
8.130000000000000000e+02 1.895831489562988281e+01 1.629002952575683594e+01 -4.649891555309295654e-01 -8.493680953979492188e-01 -3.943071663379669189e-01 4.701251387596130371e-01
8.140000000000000000e+02 1.593099021911621094e+01 1.443211460113525391e+01 -6.921762228012084961e-01 -1.470578551292419434e+00 -6.488264203071594238e-01 8.868261575698852539e-01
8.150000000000000000e+02 1.803134918212890625e+01 9.142650604248046875e+00 -1.890560835599899292e-01 -1.317768335342407227e+00 -4.520473182201385498e-01 4.309797883033752441e-01
8.160000000000000000e+02 1.858435058593750000e+01 6.412033081054687500e+00 -6.890065222978591919e-02 -8.651062250137329102e-01 -2.802020609378814697e-01 2.312521040439605713e-01
8.170000000000000000e+02 1.899627304077148438e+01 2.223475694656372070e+00 -1.337820105254650116e-02 -3.176561295986175537e-01 -9.931030124425888062e-02 7.493836432695388794e-02
8.180000000000000000e+02 1.891138839721679688e+01 -5.103006958961486816e-01 -7.639818824827671051e-03 -8.310737460851669312e-02 -2.722415886819362640e-02 2.970865555107593536e-02
8.190000000000000000e+02 1.969154930114746094e+01 -3.070069789886474609e+00 -1.795133948326110840e-02 -2.583664841949939728e-02 -1.313639618456363678e-02 2.093062363564968109e-02
8.200000000000000000e+02 1.277924728393554688e+01 4.064667510986328125e+01 2.439305037260055542e-01 -6.102623939514160156e-01 -1.098995655775070190e-01 4.888154938817024231e-02
8.210000000000000000e+02 8.111083030700683594e+00 4.098817825317382812e+01 1.111624464392662048e-01 -5.996807217597961426e-01 -1.465554833412170410e-01 3.571061044931411743e-02
8.220000000000000000e+02 7.831947803497314453e+00 3.196183586120605469e+01 8.906847238540649414e-02 -5.378723144531250000e-01 -1.346411556005477905e-01 2.381360828876495361e-01
8.230000000000000000e+02 5.920758247375488281e+00 2.424398422241210938e+01 -7.727344334125518799e-02 -2.666547000408172607e-01 -1.031784489750862122e-01 2.504433095455169678e-01
8.240000000000000000e+02 1.025984001159667969e+01 1.891587066650390625e+01 -7.435123920440673828e-01 -2.914708554744720459e-01 -3.104949593544006348e-01 3.536562323570251465e-01
8.250000000000000000e+02 1.169433879852294922e+01 1.845063018798828125e+01 -8.961372375488281250e-01 -5.259752869606018066e-01 -4.266337454319000244e-01 5.943168401718139648e-01
8.260000000000000000e+02 1.997490763664245605e+00 4.164738464355468750e+01 4.094976466149091721e-03 -6.821609735488891602e-01 -2.034198045730590820e-01 1.155165839008986950e-03
8.270000000000000000e+02 4.355377674102783203e+00 3.780228805541992188e+01 4.142751544713973999e-02 -6.048958897590637207e-01 -1.690405160188674927e-01 7.727553695440292358e-02
8.280000000000000000e+02 2.133431434631347656e+00 3.592567062377929688e+01 1.825330965220928192e-02 -5.934705734252929688e-01 -1.725651770830154419e-01 5.464704334735870361e-02
8.290000000000000000e+02 2.047661542892456055e+00 2.888537025451660156e+01 1.307440106756985188e-03 -3.328863978385925293e-01 -9.947368502616882324e-02 1.097902879118919373e-01
8.300000000000000000e+02 1.955181479454040527e+00 2.314032363891601562e+01 -1.931426487863063812e-02 -7.853931933641433716e-02 -2.935607545077800751e-02 6.612400710582733154e-02
8.310000000000000000e+02 4.243872165679931641e+00 1.572440338134765625e+01 4.651300609111785889e-03 -2.033076621592044830e-02 -4.703839775174856186e-03 -5.549434106796979904e-03
8.320000000000000000e+02 4.929282367229461670e-01 6.425918579101562500e+00 -3.804272273555397987e-04 -3.040222509298473597e-04 -2.053348434856161475e-04 1.542171521577984095e-04
8.330000000000000000e+02 6.064690589904785156e+00 1.858446836471557617e+00 -4.584127236739732325e-05 -1.067538833012804389e-04 -4.577854633680544794e-05 -1.614221255294978619e-04
8.340000000000000000e+02 8.104444503784179688e+00 2.578688859939575195e+00 1.035048080666456372e-05 -2.121943543897941709e-04 -6.055316043784841895e-05 -3.717219515237957239e-04
8.350000000000000000e+02 9.633569717407226562e+00 1.859795570373535156e+00 -5.440766108222305775e-05 6.854534149169921875e-05 4.241303031449206173e-06 2.208249206887558103e-04
8.360000000000000000e+02 1.392442417144775391e+01 1.747840881347656250e+00 1.271078945137560368e-04 -1.171138355857692659e-04 2.998215450134011917e-06 -2.491275154170580208e-06
8.370000000000000000e+02 1.444331741333007812e+01 6.251612186431884766e+00 -4.933897871524095535e-04 -1.963914546649903059e-04 -2.069343754556030035e-04 -1.574893394717946649e-04
8.380000000000000000e+02 1.180576229095458984e+01 9.558264732360839844e+00 -5.739936605095863342e-04 -1.220206497237086296e-03 -5.382600356824696064e-04 -8.556686225347220898e-04
8.390000000000000000e+02 1.132323741912841797e+01 1.233956432342529297e+01 1.636014785617589951e-03 1.144766341894865036e-03 8.342342916876077652e-04 1.731344149447977543e-03
8.400000000000000000e+02 1.216624355316162109e+01 1.123407077789306641e+01 -1.554406364448368549e-03 -1.183119253255426884e-03 -8.212577085942029953e-04 -8.932664059102535248e-04
8.410000000000000000e+02 9.413562774658203125e+00 1.445875740051269531e+01 2.602204214781522751e-03 3.267135703936219215e-03 1.760801882483065128e-03 2.441602293401956558e-03
8.420000000000000000e+02 7.859383583068847656e+00 1.687502670288085938e+01 1.344903744757175446e-02 7.260869443416595459e-02 2.581731975078582764e-02 1.520210225135087967e-02
8.430000000000000000e+02 1.772374749183654785e+00 2.171883201599121094e+01 -2.060941047966480255e-02 -3.177691996097564697e-02 -1.571589894592761993e-02 3.813863545656204224e-02
8.440000000000000000e+02 1.153057098388671875e+00 3.854371786117553711e+00 9.389921615365892649e-05 3.994053258793428540e-05 4.015192462247796357e-05 -1.836525043472647667e-04
8.450000000000000000e+02 1.325215816497802734e+01 2.470017433166503906e+00 -1.360147725790739059e-04 1.077433917089365423e-04 -8.481414624839089811e-06 4.711172005045227706e-05
8.460000000000000000e+02 7.951667785644531250e+01 -1.397412776947021484e+01 -3.378434851765632629e-02 1.116976356506347656e+01 3.340793848037719727e+00 -5.414083600044250488e-02
8.470000000000000000e+02 7.941138458251953125e+01 -9.759073257446289062e+00 -9.155270457267761230e-02 8.291955947875976562e+00 2.460121154785156250e+00 -8.656212687492370605e-01
8.480000000000000000e+02 2.247181129455566406e+01 -8.319685935974121094e+00 -2.553368210792541504e-01 7.990797981619834900e-03 -7.420381158590316772e-02 -8.915468305349349976e-02
8.490000000000000000e+02 7.811982727050781250e+01 1.117795562744140625e+01 2.195462025701999664e-02 8.078942298889160156e+00 2.430269002914428711e+00 -4.722035527229309082e-01
8.500000000000000000e+02 2.219493103027343750e+01 -2.590076065063476562e+01 5.355523526668548584e-02 -2.332765012979507446e-01 -5.391637980937957764e-02 -2.883076369762420654e-01
8.510000000000000000e+02 1.560634326934814453e+01 -2.275583839416503906e+01 -6.254559010267257690e-02 -2.319216132164001465e-01 -8.834015578031539917e-02 -2.114938944578170776e-01
8.520000000000000000e+02 3.067439842224121094e+01 -1.431895160675048828e+01 -4.710600972175598145e-01 -6.071455776691436768e-02 -1.595323979854583740e-01 -3.733147084712982178e-01
8.530000000000000000e+02 3.870853805541992188e+01 -1.383633518218994141e+01 -7.497779130935668945e-01 -6.344648450613021851e-02 -2.439673095941543579e-01 -4.541771113872528076e-01
8.540000000000000000e+02 4.284148788452148438e+01 -1.415071392059326172e+01 -8.409240245819091797e-01 -6.084002554416656494e-02 -2.705292105674743652e-01 -5.030236840248107910e-01
8.550000000000000000e+02 5.077527236938476562e+01 -1.436350822448730469e+01 -9.462223649024963379e-01 -2.149700187146663666e-02 -2.903158068656921387e-01 -5.334069728851318359e-01
8.560000000000000000e+02 5.735088729858398438e+01 -1.356648921966552734e+01 -1.080743908882141113e+00 9.189612418413162231e-02 -2.966543436050415039e-01 -3.966648280620574951e-01
8.570000000000000000e+02 6.087380599975585938e+01 -1.437201595306396484e+01 -6.014576554298400879e-01 3.711426854133605957e-01 -6.909448653459548950e-02 -6.079269945621490479e-02
8.580000000000000000e+02 7.399490356445312500e+01 -1.933655548095703125e+01 4.284527525305747986e-02 6.869368553161621094e+00 2.073664188385009766e+00 1.332205533981323242e+00
8.590000000000000000e+02 7.942700195312500000e+01 -2.226609039306640625e+01 9.503326728008687496e-04 9.161647796630859375e+00 2.748779296875000000e+00 1.527390331029891968e-01
8.600000000000000000e+02 5.478189468383789062e+00 -1.586005115509033203e+01 2.012897282838821411e-03 -1.133191864937543869e-02 -2.795706503093242645e-03 -4.749348852783441544e-03
8.610000000000000000e+02 1.790983557701110840e+00 -1.759925460815429688e+01 -2.823182614520192146e-03 1.129442709498107433e-03 -5.081219715066254139e-04 2.764485077932476997e-03
8.620000000000000000e+02 5.742982029914855957e-01 -1.063236236572265625e+01 1.159188686870038509e-03 2.170273364754393697e-04 4.128648142796009779e-04 4.074123862665146589e-04
8.630000000000000000e+02 1.811219596862792969e+01 -3.108466911315917969e+01 1.375540345907211304e-01 -2.905810773372650146e-01 -4.590810835361480713e-02 -1.984596401453018188e-01
8.640000000000000000e+02 3.088925933837890625e+01 -2.356624984741210938e+01 3.065521270036697388e-02 -1.834351718425750732e-01 -4.583398625254631042e-02 -4.298242628574371338e-01
8.650000000000000000e+02 3.359297943115234375e+01 -2.380509948730468750e+01 6.539537012577056885e-02 -1.773456484079360962e-01 -3.358508273959159851e-02 -4.613748490810394287e-01
8.660000000000000000e+02 4.185955047607421875e+01 -2.280864334106445312e+01 1.168427169322967529e-01 -9.689315408468246460e-02 5.984868854284286499e-03 -5.181003212928771973e-01
8.670000000000000000e+02 5.825753021240234375e+01 -2.770558547973632812e+01 8.406687974929809570e-01 1.358237266540527344e+00 6.596718430519104004e-01 2.271461188793182373e-01
8.680000000000000000e+02 6.664081573486328125e+01 -2.648055648803710938e+01 6.927969455718994141e-01 3.348797321319580078e+00 1.212478280067443848e+00 8.773880004882812500e-01
8.690000000000000000e+02 7.395773315429687500e+01 -2.514520454406738281e+01 2.399891316890716553e-01 6.268583774566650391e+00 1.952571868896484375e+00 9.870650768280029297e-01
8.700000000000000000e+02 7.936462402343750000e+01 -2.643407821655273438e+01 4.080749582499265671e-03 8.102465629577636719e+00 2.431963920593261719e+00 1.316447257995605469e-01
8.710000000000000000e+02 6.936886906623840332e-01 -3.037605857849121094e+01 -1.317477144766598940e-04 -2.373351305723190308e-01 -7.124006748199462891e-02 -1.861442811787128448e-02
8.720000000000000000e+02 7.346023559570312500e+00 -3.528557968139648438e+01 5.120859667658805847e-02 -2.980043292045593262e-01 -7.403872162103652954e-02 -8.499935269355773926e-02
8.730000000000000000e+02 2.940194511413574219e+01 -3.483602523803710938e+01 4.248652160167694092e-01 -2.902646064758300781e-01 4.038018360733985901e-02 -1.980496495962142944e-01
8.740000000000000000e+02 3.293113327026367188e+01 -2.899368286132812500e+01 3.472270667552947998e-01 -2.241200059652328491e-01 3.693211451172828674e-02 -3.640721440315246582e-01
8.750000000000000000e+02 4.268037796020507812e+01 -3.668037414550781250e+01 8.250713944435119629e-01 2.046845853328704834e-02 2.536619603633880615e-01 -1.533672660589218140e-01
8.760000000000000000e+02 5.052607345581054688e+01 -3.370727539062500000e+01 9.187412261962890625e-01 5.589733719825744629e-01 4.433143734931945801e-01 -7.082708179950714111e-02
8.770000000000000000e+02 5.713906097412109375e+01 -3.002891349792480469e+01 9.040037393569946289e-01 1.307098150253295898e+00 6.633305549621582031e-01 1.468366831541061401e-01
8.780000000000000000e+02 6.304910659790039062e+01 -3.417711639404296875e+01 8.070593476295471191e-01 2.745572566986083984e+00 1.065789580345153809e+00 3.810271620750427246e-01
8.790000000000000000e+02 7.279790496826171875e+01 -3.205642318725585938e+01 2.844160497188568115e-01 5.419609069824218750e+00 1.711207509040832520e+00 6.000869870185852051e-01
8.800000000000000000e+02 7.929933929443359375e+01 -3.337745666503906250e+01 7.057747337967157364e-03 7.017930984497070312e+00 2.107496738433837891e+00 7.136808335781097412e-02
8.810000000000000000e+02 5.650029754638671875e+01 -4.535130977630615234e+00 -3.081989288330078125e+00 -9.617097675800323486e-03 -9.274818897247314453e-01 2.416259795427322388e-01
8.820000000000000000e+02 5.634851455688476562e+01 -1.874344646930694580e-01 -1.516961455345153809e+00 3.415872901678085327e-02 -4.448408186435699463e-01 4.056607484817504883e-01
8.830000000000000000e+02 4.885943222045898438e+01 7.374627113342285156e+00 -2.321331948041915894e-01 1.309454888105392456e-01 -3.035631217062473297e-02 4.962705671787261963e-01
8.840000000000000000e+02 3.953103637695312500e+01 1.588172245025634766e+01 1.238040030002593994e-01 7.979656755924224854e-02 6.108017265796661377e-02 4.815070033073425293e-01
8.850000000000000000e+02 3.514596176147460938e+01 2.068417739868164062e+01 2.076911926269531250e-01 -3.779306635260581970e-02 5.096943676471710205e-02 3.721401691436767578e-01
8.860000000000000000e+02 3.030551528930664062e+01 2.357971382141113281e+01 1.993454098701477051e-01 -2.373472899198532104e-01 -1.140056177973747253e-02 3.016214072704315186e-01
8.870000000000000000e+02 6.172309875488281250e+01 4.549031257629394531e-01 -1.001123428344726562e+00 3.010653555393218994e-01 -2.100174278020858765e-01 2.415121160447597504e-02
8.880000000000000000e+02 6.321868515014648438e+01 -3.250156044960021973e-01 -1.135723352432250977e+00 3.530728816986083984e-01 -2.347951382398605347e-01 -8.746616542339324951e-02
8.890000000000000000e+02 5.628887176513671875e+01 5.924788713455200195e-01 -1.284862518310546875e+00 6.131120026111602783e-02 -3.670653998851776123e-01 3.912862539291381836e-01
8.900000000000000000e+02 5.546691513061523438e+01 7.294499874114990234e+00 2.826647087931632996e-02 4.488269388675689697e-01 1.431280225515365601e-01 1.317210793495178223e-01
8.910000000000000000e+02 4.314852142333984375e+01 2.212001228332519531e+01 4.688195288181304932e-01 3.697494566440582275e-01 2.515707015991210938e-01 2.333924323320388794e-01
8.920000000000000000e+02 3.550381469726562500e+01 2.294401168823242188e+01 3.004093766212463379e-01 -1.648199371993541718e-02 8.517821133136749268e-02 3.187937736511230469e-01
8.930000000000000000e+02 4.372005462646484375e+01 -4.636812686920166016e+00 -1.750452995300292969e+00 -1.020001014694571495e-03 -5.254418849945068359e-01 1.815018504858016968e-01
8.940000000000000000e+02 4.275590896606445312e+01 -4.454984664916992188e-01 -1.153551340103149414e+00 -6.009082775563001633e-03 -3.478681147098541260e-01 5.088058114051818848e-01
8.950000000000000000e+02 3.419995117187500000e+01 7.051714420318603516e+00 -4.042774140834808350e-01 -6.578620523214340210e-02 -1.410190910100936890e-01 6.663163900375366211e-01
8.960000000000000000e+02 2.610330581665039062e+01 9.972128868103027344e+00 -3.755396008491516113e-01 -3.173855841159820557e-01 -2.078775614500045776e-01 5.975669026374816895e-01
8.970000000000000000e+02 4.959194946289062500e+01 -1.024150252342224121e+00 -1.592912793159484863e+00 -1.449064351618289948e-02 -4.822210371494293213e-01 4.749989509582519531e-01
8.980000000000000000e+02 4.876125335693359375e+01 -2.938258051872253418e-01 -1.411509990692138672e+00 -1.356984209269285202e-02 -4.275239408016204834e-01 5.083767771720886230e-01
8.990000000000000000e+02 4.350045013427734375e+01 -4.084665477275848389e-01 -1.188987851142883301e+00 -6.115415133535861969e-03 -3.585309684276580811e-01 5.101087689399719238e-01
9.000000000000000000e+02 4.243369674682617188e+01 7.837974548339843750e+00 -3.043844401836395264e-01 3.532128781080245972e-02 -8.071894943714141846e-02 6.354238390922546387e-01
9.010000000000000000e+02 3.861719512939453125e+01 1.888585853576660156e+01 2.253215014934539795e-01 8.026047796010971069e-02 9.167459607124328613e-02 4.037976264953613281e-01
9.020000000000000000e+02 2.752330970764160156e+01 1.441568851470947266e+01 -2.647652626037597656e-01 -2.911416292190551758e-01 -1.667720675468444824e-01 5.166326761245727539e-01
9.030000000000000000e+02 3.549499130249023438e+01 2.465303987264633179e-02 -7.416839003562927246e-01 -1.555970963090658188e-02 -2.271730750799179077e-01 5.053449273109436035e-01
9.040000000000000000e+02 3.702457427978515625e+01 -6.774819493293762207e-01 -8.581410050392150879e-01 -6.980128120630979538e-03 -2.595363557338714600e-01 4.777464866638183594e-01
9.050000000000000000e+02 2.980932044982910156e+01 4.407649636268615723e-01 -4.603125452995300293e-01 -7.380508631467819214e-02 -1.602352857589721680e-01 4.638816416263580322e-01
9.060000000000000000e+02 6.747090911865234375e+01 2.096468508243560791e-01 -3.271765112876892090e-01 1.610049009323120117e+00 3.848617374897003174e-01 -1.213790178298950195e+00
9.070000000000000000e+02 2.027995109558105469e+01 3.936589002609252930e+00 -9.285635501146316528e-02 -4.753350317478179932e-01 -1.704574227333068848e-01 2.697502970695495605e-01
9.080000000000000000e+02 1.896174240112304688e+01 3.627341747283935547e+00 -2.872886136174201965e-02 -4.845304787158966064e-01 -1.539778113365173340e-01 1.112437769770622253e-01
9.090000000000000000e+02 5.608404541015625000e+01 8.077085494995117188e+00 1.439621150493621826e-01 5.590637326240539551e-01 2.109077572822570801e-01 4.509421437978744507e-02
9.100000000000000000e+02 5.027561187744140625e+01 8.156241416931152344e+00 -9.912372380495071411e-02 2.076936662197113037e-01 3.257098048925399780e-02 4.148819148540496826e-01
9.110000000000000000e+02 4.315667724609375000e+01 9.040581703186035156e+00 -1.988922506570816040e-01 5.965109542012214661e-02 -4.177234694361686707e-02 6.059126853942871094e-01
9.120000000000000000e+02 3.533525466918945312e+01 7.123654842376708984e+00 -4.003190100193023682e-01 -5.070367828011512756e-02 -1.353068053722381592e-01 6.673246026039123535e-01
9.130000000000000000e+02 2.000378417968750000e+01 1.155968379974365234e+01 -4.343261420726776123e-01 -8.728695511817932129e-01 -3.921587169170379639e-01 5.633364319801330566e-01
9.140000000000000000e+02 7.259754943847656250e+01 1.910581588745117188e+01 2.379124462604522705e-01 5.188055038452148438e+00 1.627790331840515137e+00 -8.114845752716064453e-01
9.150000000000000000e+02 5.200919723510742188e+01 1.631590652465820312e+01 5.224773287773132324e-01 7.786299586296081543e-01 3.903321921825408936e-01 2.932562120258808136e-02
9.160000000000000000e+02 4.366863250732421875e+01 1.537954425811767578e+01 2.234923541545867920e-01 2.216797322034835815e-01 1.335516273975372314e-01 4.163295626640319824e-01
9.170000000000000000e+02 3.307134628295898438e+01 1.608421707153320312e+01 -5.875343084335327148e-02 -1.155012398958206177e-01 -5.227640271186828613e-02 5.041157007217407227e-01
9.180000000000000000e+02 2.091249847412109375e+01 1.838909721374511719e+01 -2.801189422607421875e-01 -6.706572771072387695e-01 -2.852328717708587646e-01 3.717369735240936279e-01
9.190000000000000000e+02 2.684970378875732422e+00 2.093860244750976562e+01 -3.206999599933624268e-02 -5.017894878983497620e-02 -2.467468380928039551e-02 3.929230943322181702e-02
9.200000000000000000e+02 7.195840454101562500e+01 2.639864921569824219e+01 1.914354860782623291e-01 4.732267856597900391e+00 1.477111101150512695e+00 -5.068027973175048828e-01
9.210000000000000000e+02 6.551071166992187500e+01 2.435349464416503906e+01 4.799783825874328613e-01 3.402220487594604492e+00 1.164659619331359863e+00 -6.407580375671386719e-01
9.220000000000000000e+02 4.766760635375976562e+01 2.578944969177246094e+01 6.443472504615783691e-01 7.949818372726440430e-01 4.317987263202667236e-01 2.135803550481796265e-02
9.230000000000000000e+02 4.453237915039062500e+01 2.461305046081542969e+01 5.635551214218139648e-01 5.311742424964904785e-01 3.284187912940979004e-01 1.446184366941452026e-01
9.240000000000000000e+02 2.220832824707031250e+01 2.465334320068359375e+01 1.233124881982803345e-01 -5.926708579063415527e-01 -1.408075094223022461e-01 2.577403187751770020e-01
9.250000000000000000e+02 1.677862739562988281e+01 2.479204940795898438e+01 8.154841512441635132e-02 -7.402076125144958496e-01 -1.975977569818496704e-01 3.273990154266357422e-01
9.260000000000000000e+02 7.012474536895751953e+00 2.346206665039062500e+01 -1.231516674160957336e-01 -2.845022082328796387e-01 -1.222961694002151489e-01 2.937112152576446533e-01
9.270000000000000000e+02 7.028639984130859375e+01 3.245918655395507812e+01 1.964749544858932495e-01 4.338143348693847656e+00 1.360385417938232422e+00 -3.043465018272399902e-01
9.280000000000000000e+02 6.570127105712890625e+01 3.324041748046875000e+01 3.659510314464569092e-01 3.492137432098388672e+00 1.157426476478576660e+00 -3.233758509159088135e-01
9.290000000000000000e+02 5.808858108520507812e+01 3.411039352416992188e+01 5.916221141815185547e-01 2.318626165390014648e+00 8.730744719505310059e-01 -1.948051750659942627e-01
9.300000000000000000e+02 4.633448791503906250e+01 3.374160766601562500e+01 6.951906681060791016e-01 8.475199937820434570e-01 4.628131985664367676e-01 1.000942010432481766e-02
9.310000000000000000e+02 2.097909545898437500e+01 3.061351394653320312e+01 3.243186771869659424e-01 -5.896155238151550293e-01 -7.958905398845672607e-02 2.104997783899307251e-01
9.320000000000000000e+02 1.181706523895263672e+01 3.063085746765136719e+01 1.498419791460037231e-01 -6.162101030349731445e-01 -1.399104297161102295e-01 2.868230640888214111e-01
9.330000000000000000e+02 2.216513156890869141e+00 3.172007369995117188e+01 9.075796231627464294e-03 -4.561223089694976807e-01 -1.341139525175094604e-01 1.023064479231834412e-01
9.340000000000000000e+02 1.587362885475158691e+00 9.069334030151367188e+00 6.117795128375291824e-04 2.268110547447577119e-04 2.515771775506436825e-04 -6.614831509068608284e-04
9.350000000000000000e+02 1.805666542053222656e+01 -7.333718299865722656e+00 -2.199910115450620651e-03 -3.005967661738395691e-02 -9.677875787019729614e-03 -2.886899746954441071e-02
9.360000000000000000e+02 1.928839492797851562e+01 -7.723319530487060547e+00 -8.922308683395385742e-02 -1.028316747397184372e-02 -2.985187619924545288e-02 -5.238508060574531555e-02
9.370000000000000000e+02 1.421433925628662109e+01 -1.385333156585693359e+01 -2.283213138580322266e-01 -2.895024716854095459e-01 -1.553471386432647705e-01 -2.475904524326324463e-01
9.380000000000000000e+02 7.478259086608886719e+00 -1.387882804870605469e+01 -1.075369189493358135e-03 2.728324616327881813e-03 4.958866047672927380e-04 8.409386500716209412e-04
9.390000000000000000e+02 1.133740329742431641e+01 -8.127637863159179688e+00 -3.180904604960232973e-05 -1.158202940132468939e-05 -1.301732208958128467e-05 -8.878784137777984142e-05
9.400000000000000000e+02 1.015715026855468750e+01 -3.147271394729614258e+00 -2.187757672800216824e-06 -1.114612969104200602e-04 -3.409471901250071824e-05 -1.221458369400352240e-04
9.410000000000000000e+02 1.320831108093261719e+01 -1.964573383331298828e+00 -4.745221667690202594e-05 -8.204213372664526105e-05 -3.884830584865994751e-05 -5.602332748821936548e-05
9.420000000000000000e+02 1.491079807281494141e+01 -2.294808149337768555e+00 4.813929263036698103e-05 1.091663943952880800e-05 1.771678034856449813e-05 6.475107966252835467e-06
9.430000000000000000e+02 1.430358791351318359e+01 -2.143880605697631836e+00 -1.561365024826955050e-05 -1.514295581728219986e-05 -9.226982001564465463e-06 -2.080314334307331592e-05
9.440000000000000000e+02 1.374986457824707031e+01 -1.999667525291442871e+00 3.506420398480258882e-06 3.428866330068558455e-05 1.133852583734551445e-05 2.181688978453166783e-05
9.450000000000000000e+02 1.179558849334716797e+01 -1.973606228828430176e+00 -6.209672574186697602e-05 -1.119763473980128765e-04 -5.222192339715547860e-05 1.161729414889123291e-05
9.460000000000000000e+02 1.031372928619384766e+01 -1.857250928878784180e+00 -2.683757156773936003e-05 -1.636812958167865872e-04 -5.715565930586308241e-05 -3.887642742483876646e-05
9.470000000000000000e+02 9.573153495788574219e+00 -1.832804322242736816e+00 4.292121047910768539e-06 1.570923195686191320e-04 4.841533154831267893e-05 1.034053129842504859e-04
9.480000000000000000e+02 8.825824737548828125e+00 -1.840544342994689941e+00 -5.394979962147772312e-05 -1.433709257980808616e-04 -5.919621617067605257e-05 -8.495512156514450908e-05
9.490000000000000000e+02 7.321991920471191406e+00 -1.861843228340148926e+00 -5.209048686083406210e-05 -1.155158170149661601e-04 -5.028189116274006665e-05 -1.002226927084848285e-04
9.500000000000000000e+02 5.801985263824462891e+00 -1.878317832946777344e+00 -6.447057216973917093e-07 -1.199255711981095374e-04 -3.617108086473308504e-05 -1.418824831489473581e-04
9.510000000000000000e+02 3.524264812469482422e+00 -1.975950837135314941e+00 2.863142253772821277e-05 4.421182893565855920e-05 2.185297489631921053e-05 9.589574619894847274e-05
9.520000000000000000e+02 5.043280601501464844e+00 -1.899141550064086914e+00 -7.525056571466848254e-05 1.301956799579784274e-04 1.648353645578026772e-05 1.202313360408879817e-04
9.530000000000000000e+02 4.457392692565917969e+00 -2.784162282943725586e+00 -1.097069980460219085e-05 1.331851381110027432e-04 3.666433258331380785e-05 1.573785848449915648e-04
9.540000000000000000e+02 2.755363941192626953e+00 -2.028365612030029297e+00 -1.034015731420367956e-04 -3.474142795312218368e-05 -4.144290141994133592e-05 -1.174541321233846247e-04
9.550000000000000000e+02 1.977719902992248535e+00 -2.071738243103027344e+00 7.201998960226774216e-05 4.392987102619372308e-05 3.478495636954903603e-05 3.518120502121746540e-05
9.560000000000000000e+02 1.193992972373962402e+00 -2.131004571914672852e+00 -1.266053295694291592e-04 -6.674141332041472197e-05 -5.800402141176164150e-05 -1.016651367535814643e-04
9.570000000000000000e+02 2.066793203353881836e+00 -4.161697387695312500e+01 3.882930148392915726e-03 -3.808853924274444580e-01 -1.131007373332977295e-01 -1.103710033930838108e-03
9.580000000000000000e+02 1.022306084632873535e+00 -3.867710876464843750e+01 -4.779940063599497080e-04 -3.734037876129150391e-01 -1.121645346283912659e-01 -6.578250322490930557e-03
9.590000000000000000e+02 7.700175046920776367e-01 -3.456237792968750000e+01 2.045379718765616417e-03 -3.273783624172210693e-01 -9.759990125894546509e-02 -1.198097132146358490e-02
9.600000000000000000e+02 7.490088343620300293e-01 -3.316631317138671875e+01 8.105284650810062885e-04 -3.029650449752807617e-01 -9.064635634422302246e-02 -1.489247661083936691e-02
9.610000000000000000e+02 6.750224828720092773e-01 -2.897389221191406250e+01 1.224897918291389942e-03 -1.978988349437713623e-01 -5.900217965245246887e-02 -1.952674239873886108e-02
9.620000000000000000e+02 6.652424931526184082e-01 -2.756685829162597656e+01 -1.152996090240776539e-03 -1.561713516712188721e-01 -4.719730094075202942e-02 -1.994875632226467133e-02
9.630000000000000000e+02 6.586750745773315430e-01 -2.615785980224609375e+01 6.923047476448118687e-04 -1.142866760492324829e-01 -3.407831117510795593e-02 -1.918656937777996063e-02
9.640000000000000000e+02 6.030229926109313965e-01 -2.192322921752929688e+01 -2.462492557242512703e-03 -8.761405944824218750e-03 -3.367169527336955070e-03 -1.103843748569488525e-02
9.650000000000000000e+02 1.725864768028259277e+00 -2.037131881713867188e+01 -9.863231331110000610e-03 -1.516879722476005554e-02 -7.509608287364244461e-03 -1.849811151623725891e-02
9.660000000000000000e+02 6.315361261367797852e-01 -1.625712776184082031e+01 4.182101693004369736e-04 1.419495418667793274e-02 4.383949097245931625e-03 2.803503535687923431e-03
9.670000000000000000e+02 6.280001997947692871e-01 -1.482528686523437500e+01 -3.007925697602331638e-04 8.231750689446926117e-03 2.379287499934434891e-03 2.601447515189647675e-03
9.680000000000000000e+02 6.048736572265625000e-01 -1.341307830810546875e+01 1.590120489709079266e-03 3.376680891960859299e-03 1.490040449425578117e-03 1.414289930835366249e-03
9.690000000000000000e+02 5.022069454193115234e+00 -1.431758499145507812e+01 3.961850889027118683e-03 -5.493437405675649643e-03 -4.594759666360914707e-04 -2.190323779359459877e-03
9.700000000000000000e+02 5.546194911003112793e-01 -9.247817039489746094e+00 -8.530442719347774982e-04 -1.825126964831724763e-04 -3.106670919805765152e-04 -9.667411359259858727e-05
9.710000000000000000e+02 5.337280035018920898e-01 -7.862382888793945312e+00 7.224315777420997620e-04 -1.913223968585953116e-04 1.593327469890937209e-04 8.625922782812267542e-05
9.720000000000000000e+02 5.226441621780395508e-01 -6.473248004913330078e+00 -5.395522457547485828e-04 -1.407577947247773409e-04 -2.040930121438577771e-04 -9.978177695302292705e-05
9.730000000000000000e+02 7.185431671142578125e+01 -4.115633392333984375e+01 2.784110307693481445e-01 5.097649574279785156e+00 1.612818241119384766e+00 7.356388121843338013e-02
9.740000000000000000e+02 5.243336105346679688e+01 -4.053380966186523438e+01 1.040115833282470703e+00 9.584399461746215820e-01 5.995667576789855957e-01 -4.159972537308931351e-03
9.750000000000000000e+02 3.250589752197265625e+01 -4.030546188354492188e+01 5.873670578002929688e-01 -2.752055227756500244e-01 9.364845603704452515e-02 -6.880593299865722656e-02
9.760000000000000000e+02 1.288597869873046875e+01 -4.094559097290039062e+01 1.352578401565551758e-01 -3.179057240486145020e-01 -5.479436367750167847e-02 -2.369194664061069489e-02
9.770000000000000000e+02 7.573114013671875000e+01 4.041328811645507812e+01 4.276690632104873657e-02 5.058989048004150391e+00 1.530526757240295410e+00 7.143078371882438660e-03
9.780000000000000000e+02 7.803978729248046875e+01 4.171781539916992188e+01 8.089131116867065430e-02 5.210288524627685547e+00 1.587353944778442383e+00 -2.259225770831108093e-02
9.790000000000000000e+02 7.723246765136718750e+01 3.617625045776367188e+01 1.045873109251260757e-02 5.209744930267333984e+00 1.566061019897460938e+00 -6.389279663562774658e-02
9.800000000000000000e+02 7.911030578613281250e+01 3.478335571289062500e+01 4.861687775701284409e-03 5.470755100250244141e+00 1.642685055732727051e+00 -2.688122913241386414e-02
9.810000000000000000e+02 7.750860595703125000e+01 3.319195175170898438e+01 2.612740546464920044e-02 5.329736232757568359e+00 1.606759071350097656e+00 -1.018436998128890991e-01
9.820000000000000000e+02 7.916744232177734375e+01 3.337829208374023438e+01 2.277104416862130165e-03 5.520410537719726562e+00 1.656806349754333496e+00 -3.274280577898025513e-02
9.830000000000000000e+02 7.928360748291015625e+01 3.059886550903320312e+01 3.717966028489172459e-04 5.666358470916748047e+00 1.700019121170043945e+00 -4.419462010264396667e-02
9.840000000000000000e+02 7.661708831787109375e+01 2.896065521240234375e+01 3.646170720458030701e-02 5.435762405395507812e+00 1.641667127609252930e+00 -2.250474542379379272e-01
9.850000000000000000e+02 7.932859802246093750e+01 2.644698143005371094e+01 3.634832799434661865e-03 5.989364147186279297e+00 1.797899723052978516e+00 -5.827063694596290588e-02
9.860000000000000000e+02 7.655889129638671875e+01 2.496759796142578125e+01 4.069351404905319214e-02 5.698734283447265625e+00 1.721828341484069824e+00 -3.115775883197784424e-01
9.870000000000000000e+02 7.932703399658203125e+01 2.506175231933593750e+01 2.386164618656039238e-03 6.122809410095214844e+00 1.837558627128601074e+00 -6.453937292098999023e-02
9.880000000000000000e+02 7.933358764648437500e+01 2.089327430725097656e+01 4.551011603325605392e-03 6.617318630218505859e+00 1.986560940742492676e+00 -8.684498071670532227e-02
9.890000000000000000e+02 7.933892059326171875e+01 1.950181007385253906e+01 4.546400159597396851e-03 6.820373535156250000e+00 2.047476053237915039e+00 -9.647583216428756714e-02
9.900000000000000000e+02 7.799902343750000000e+01 2.086264610290527344e+01 2.132427319884300232e-02 6.369076728820800781e+00 1.917120337486267090e+00 -2.619590461254119873e-01
9.910000000000000000e+02 7.934477233886718750e+01 1.811028289794921875e+01 3.710854332894086838e-03 7.046535968780517578e+00 2.115074157714843750e+00 -1.055133715271949768e-01
9.920000000000000000e+02 7.935880279541015625e+01 1.393955516815185547e+01 7.505814079195261002e-03 7.881566524505615234e+00 2.366721868515014648e+00 -1.384142041206359863e-01
9.930000000000000000e+02 7.936447143554687500e+01 1.255003738403320312e+01 2.086968161165714264e-03 8.217930793762207031e+00 2.466005325317382812e+00 -1.493513286113739014e-01
9.940000000000000000e+02 7.937269592285156250e+01 1.116126155853271484e+01 7.284941617399454117e-03 8.585099220275878906e+00 2.577715158462524414e+00 -1.601542979478836060e-01
9.950000000000000000e+02 7.941986083984375000e+01 7.002050399780273438e+00 -1.137460488826036453e-02 9.849075317382812500e+00 2.951310396194458008e+00 -1.656151264905929565e-01
9.960000000000000000e+02 7.944091796875000000e+01 5.619352817535400391e+00 2.059941412881016731e-03 1.029589366912841797e+01 3.089386224746704102e+00 -1.557504981756210327e-01
9.970000000000000000e+02 7.832413482666015625e+01 5.700610637664794922e+00 -3.200041130185127258e-02 9.561845779418945312e+00 2.858953475952148438e+00 -4.659126102924346924e-01
9.980000000000000000e+02 7.945876312255859375e+01 4.239647388458251953e+00 -3.130882233381271362e-02 1.070405673980712891e+01 3.201824188232421875e+00 -1.162960380315780640e-01
9.990000000000000000e+02 7.943421936035156250e+01 7.569582760334014893e-02 -9.720812737941741943e-02 1.082739925384521484e+01 3.219057321548461914e+00 2.643378376960754395e-01
1.000000000000000000e+03 7.830655670166015625e+01 -1.258901000022888184e+00 -5.267288684844970703e-01 1.046592330932617188e+01 2.981758356094360352e+00 1.025189280509948730e+00
1.001000000000000000e+03 7.957867431640625000e+01 -4.116531372070312500e+00 2.171368896961212158e-02 6.324014186859130859e+00 1.903718352317810059e+00 7.149500250816345215e-01
1.002000000000000000e+03 7.539417266845703125e+01 -7.491748809814453125e+00 2.812925100326538086e+00 1.940076637268066406e+01 6.664107799530029297e+00 -2.837900400161743164e+00
1.003000000000000000e+03 7.950770568847656250e+01 -1.260549449920654297e+01 -7.166051119565963745e-02 1.086066246032714844e+01 3.236700534820556641e+00 -2.143310606479644775e-01
1.004000000000000000e+03 7.949737548828125000e+01 -1.534518527984619141e+01 -3.565787896513938904e-02 1.109866905212402344e+01 3.318903207778930664e+00 4.541379585862159729e-02
1.005000000000000000e+03 7.946498870849609375e+01 -1.810990142822265625e+01 -1.660750247538089752e-02 1.044453907012939453e+01 3.128379583358764648e+00 1.371943503618240356e-01
1.006000000000000000e+03 7.941027832031250000e+01 -2.365116310119628906e+01 3.977539017796516418e-03 8.776992797851562500e+00 2.634290933609008789e+00 1.463445276021957397e-01
1.007000000000000000e+03 7.939094543457031250e+01 -2.504006767272949219e+01 2.101012971252202988e-03 8.423362731933593750e+00 2.527638912200927734e+00 1.388850212097167969e-01
1.008000000000000000e+03 7.930690002441406250e+01 -2.922396850585937500e+01 2.048146910965442657e-03 7.569226264953613281e+00 2.271382331848144531e+00 1.131073459982872009e-01
1.009000000000000000e+03 7.929512023925781250e+01 -3.199835014343261719e+01 1.578898518346250057e-03 7.174690246582031250e+00 2.152880907058715820e+00 8.056252449750900269e-02
1.010000000000000000e+03 7.925071716308593750e+01 -3.609698867797851562e+01 8.612437173724174500e-03 6.743185520172119141e+00 2.025539398193359375e+00 6.310414522886276245e-02
1.011000000000000000e+03 7.918605804443359375e+01 -3.743773269653320312e+01 -8.524683304131031036e-03 6.622779369354248047e+00 1.984276413917541504e+00 6.654387712478637695e-02
1.012000000000000000e+03 7.901216125488281250e+01 -3.876243209838867188e+01 -3.956649918109178543e-03 6.502629280090332031e+00 1.949601769447326660e+00 7.558599859476089478e-02
1.013000000000000000e+03 7.865488433837890625e+01 -4.011016082763671875e+01 -1.214413065463304520e-02 6.396598339080810547e+00 1.915336251258850098e+00 8.781211078166961670e-02
1.014000000000000000e+03 1.235000038146972656e+01 3.724395751953125000e+01 2.226159125566482544e-01 -6.099261641502380371e-01 -1.161930784583091736e-01 1.326133906841278076e-01
1.015000000000000000e+03 2.753318786621093750e+01 4.078837203979492188e+01 5.396212935447692871e-01 -3.475290238857269287e-01 5.762768909335136414e-02 2.497193217277526855e-02
1.016000000000000000e+03 6.715940093994140625e+01 4.048392105102539062e+01 2.829547524452209473e-01 3.785103559494018555e+00 1.220417499542236328e+00 -6.790152192115783691e-02
1.017000000000000000e+03 6.935128569602966309e-01 3.046931266784667969e+00 -1.039941635099239647e-04 -1.988111762329936028e-04 -9.084159682970494032e-05 1.907270925585180521e-04
1.018000000000000000e+03 3.196530580520629883e+00 2.738632678985595703e+00 -1.263277226826176047e-04 4.411385452840477228e-05 -2.466416117385961115e-05 2.530219790060073137e-04
1.019000000000000000e+03 5.313440799713134766e+00 2.601666688919067383e+00 7.173206540755927563e-06 -8.294660074170678854e-05 -2.273201789648737758e-05 -1.365707430522888899e-04
1.020000000000000000e+03 1.515701055526733398e+00 6.358046531677246094e+00 2.829180739354342222e-04 -7.675744564039632678e-05 6.184818630572408438e-05 -2.407619467703625560e-04
1.021000000000000000e+03 5.267454385757446289e-01 9.210030555725097656e+00 -7.214606157504022121e-04 -1.378437154926359653e-04 -2.577912819106131792e-04 1.074661777238361537e-04
1.022000000000000000e+03 5.846953392028808594e-01 1.201097488403320312e+01 -6.759616080671548843e-04 2.761775860562920570e-03 6.257442873902618885e-04 -9.561988990753889084e-04
1.023000000000000000e+03 1.767100930213928223e+00 1.179848384857177734e+01 2.066170098260045052e-03 9.895726107060909271e-04 9.167228708975017071e-04 -2.766505815088748932e-03
1.024000000000000000e+03 6.262529492378234863e-01 1.765110206604003906e+01 -1.642253482714295387e-03 3.872150555253028870e-02 1.112377550452947617e-02 -5.054793786257505417e-03
1.025000000000000000e+03 7.689945697784423828e+00 1.839854812622070312e+01 -1.007270440459251404e-01 3.721482306718826294e-02 -1.905366778373718262e-02 2.976889349520206451e-02
1.026000000000000000e+03 5.952044129371643066e-01 2.191729736328125000e+01 -5.462150555104017258e-03 2.263786830008029938e-02 5.152715370059013367e-03 1.412839535623788834e-02
1.027000000000000000e+03 6.412288546562194824e-01 2.333616256713867188e+01 -2.586523769423365593e-03 -2.003027498722076416e-02 -6.785039789974689484e-03 2.272490225732326508e-02
1.028000000000000000e+03 6.528670787811279297e-01 2.477085494995117188e+01 -4.577323794364929199e-03 -7.862234115600585938e-02 -2.495989948511123657e-02 3.071943670511245728e-02
1.029000000000000000e+03 6.827327609062194824e-01 2.901169586181640625e+01 -1.866880629677325487e-04 -3.132619857788085938e-01 -9.403459727764129639e-02 3.870063647627830505e-02
1.030000000000000000e+03 7.099489569664001465e-01 3.042324447631835938e+01 3.164878289680927992e-04 -3.918316960334777832e-01 -1.174545586109161377e-01 3.856727853417396545e-02
1.031000000000000000e+03 2.127666950225830078e+00 3.028965568542480469e+01 6.905782967805862427e-03 -3.958227038383483887e-01 -1.166750788688659668e-01 1.064460352063179016e-01
1.032000000000000000e+03 7.365564107894897461e-01 3.184044456481933594e+01 3.110958728939294815e-03 -4.634173512458801270e-01 -1.380919218063354492e-01 3.497644886374473572e-02
1.033000000000000000e+03 7.132760286331176758e-01 3.604896545410156250e+01 -5.972989019937813282e-04 -6.194865703582763672e-01 -1.860251575708389282e-01 1.926689594984054565e-02
1.034000000000000000e+03 2.347852468490600586e+00 3.821057891845703125e+01 1.688671112060546875e-02 -6.360897421836853027e-01 -1.857609003782272339e-01 3.369527310132980347e-02
1.035000000000000000e+03 8.756940960884094238e-01 3.876112365722656250e+01 -2.427286468446254730e-03 -6.702509522438049316e-01 -2.018034756183624268e-01 9.763905778527259827e-03
1.036000000000000000e+03 1.250048518180847168e+00 4.010673141479492188e+01 5.663705058395862579e-03 -6.800265908241271973e-01 -2.023088634014129639e-01 5.484034772962331772e-03
1.037000000000000000e+03 1.037335300445556641e+01 1.848133921623229980e+00 -1.269126078113913536e-04 3.296561089882743545e-06 -3.708481381181627512e-05 -2.805147960316389799e-04
1.038000000000000000e+03 8.912957191467285156e+00 1.858687520027160645e+00 -8.047004666877910495e-05 -8.662983600515872240e-05 -5.012996552977710962e-05 -3.219581558369100094e-04
1.039000000000000000e+03 8.198325157165527344e+00 1.856260061264038086e+00 -1.339063746854662895e-04 1.564809062983840704e-04 6.772356755391228944e-06 2.506893943063914776e-04
1.040000000000000000e+03 7.486511707305908203e+00 1.854479074478149414e+00 -5.064057040726765990e-05 -1.276271796086803079e-04 -5.348032209440134466e-05 -2.642382751218974590e-04
1.041000000000000000e+03 5.351534843444824219e+00 1.866346716880798340e+00 -1.382378832204267383e-04 1.302233868045732379e-04 -2.404348833806579933e-06 1.945921976584941149e-04
1.042000000000000000e+03 4.637789726257324219e+00 1.878737568855285645e+00 -4.832556078326888382e-05 -5.950946069788187742e-05 -3.235050462535582483e-05 -8.530219201929867268e-05
1.043000000000000000e+03 3.925007343292236328e+00 1.892463564872741699e+00 -1.171218464151024818e-04 7.593561167595908046e-05 -1.235587114933878183e-05 1.955654734047129750e-04
1.044000000000000000e+03 3.215681552886962891e+00 1.900951743125915527e+00 6.569684501300798729e-06 -6.121383194113150239e-05 -1.639324545976705849e-05 -4.493859523790888488e-05
1.045000000000000000e+03 2.515785932540893555e+00 1.898879408836364746e+00 -1.050205901265144348e-04 3.757749800570309162e-05 -2.023292836383916438e-05 1.485396642237901688e-04
1.046000000000000000e+03 1.820943236351013184e+00 1.896553874015808105e+00 8.594307473686058074e-06 -2.533583392505533993e-05 -5.022458026360254735e-06 -1.116315524996025488e-05
1.047000000000000000e+03 1.263358116149902344e+01 1.760587453842163086e+00 -3.552540874807164073e-05 3.322519114590249956e-05 -6.900654057062638458e-07 -2.858847210518433712e-06
1.048000000000000000e+03 1.331454086303710938e+01 1.737743854522705078e+00 -9.610052802599966526e-05 -5.507738387677818537e-05 -4.535337211564183235e-05 -1.788406516425311565e-04
1.049000000000000000e+03 1.513074016571044922e+01 1.858825325965881348e+00 -4.298787189327413216e-06 2.192840183852240443e-04 6.449556531151756644e-05 2.114574599545449018e-04
1.050000000000000000e+03 1.339701747894287109e+01 3.110398769378662109e+00 -3.036936107037035981e-07 4.587714211083948612e-04 1.375403226120397449e-04 5.703351780539378524e-05
1.051000000000000000e+03 1.475448894500732422e+01 3.607027530670166016e+00 -7.938163616927340627e-05 4.066360634169541299e-05 -1.161540876637445763e-05 -1.258536212844774127e-04
1.052000000000000000e+03 1.405004596710205078e+01 7.553736686706542969e+00 7.167088333517313004e-04 -3.437877239775843918e-05 2.046990266535431147e-04 3.468921349849551916e-04
1.053000000000000000e+03 1.351295661926269531e+01 8.816611289978027344e+00 -9.605728555470705032e-04 -5.447909352369606495e-04 -4.516091430559754372e-04 -4.122790123801678419e-04
1.054000000000000000e+03 1.288101387023925781e+01 1.004718399047851562e+01 1.153954654000699520e-03 2.367569104535505176e-04 4.172134795226156712e-04 8.730815025046467781e-04
1.055000000000000000e+03 1.028583526611328125e+01 1.167804813385009766e+01 -5.093038780614733696e-04 -1.799569581635296345e-03 -6.926620262674987316e-04 -1.152673619799315929e-03
1.056000000000000000e+03 9.391021728515625000e+00 1.271932506561279297e+01 3.364885342307388783e-04 3.544227452948689461e-03 1.164214801974594593e-03 1.653654035180807114e-03
1.057000000000000000e+03 8.447484016418457031e+00 1.556923675537109375e+01 -3.420351538807153702e-03 1.481412257999181747e-02 3.418131498619914055e-03 -5.444619804620742798e-03
1.058000000000000000e+03 1.629321289062500000e+01 1.687731361389160156e+01 -5.790193676948547363e-01 -1.035531044006347656e+00 -4.843651354312896729e-01 5.789883136749267578e-01
1.059000000000000000e+03 1.659075927734375000e+01 1.313710880279541016e+01 -4.818101525306701660e-01 -1.462003707885742188e+00 -5.831441879272460938e-01 7.821911573410034180e-01
1.060000000000000000e+03 1.764393615722656250e+01 1.049063110351562500e+01 -2.941235005855560303e-01 -1.438128709793090820e+00 -5.196756720542907715e-01 5.815333724021911621e-01
1.061000000000000000e+03 1.832526206970214844e+01 7.781264781951904297e+00 -9.620434045791625977e-02 -1.072062373161315918e+00 -3.504800200462341309e-01 3.060527741909027100e-01
1.062000000000000000e+03 1.880813217163085938e+01 5.025982856750488281e+00 -4.825662076473236084e-02 -6.756586432456970215e-01 -2.171745896339416504e-01 1.668495982885360718e-01
1.063000000000000000e+03 1.924020195007324219e+01 -3.802177429199218750e+00 -8.017892949283123016e-03 -9.196712635457515717e-03 -5.164381582289934158e-03 4.467517603188753128e-03
1.064000000000000000e+03 2.010116767883300781e+01 -4.062354087829589844e+00 -1.913231052458286285e-02 -1.734584569931030273e-02 -1.094344723969697952e-02 1.336019299924373627e-02
1.065000000000000000e+03 2.088697433471679688e+01 -4.252861022949218750e+00 -2.929170429706573486e-02 -2.557204104959964752e-02 -1.645912416279315948e-02 2.305597253143787384e-02
1.066000000000000000e+03 2.299993705749511719e+01 -4.594480991363525391e+00 -8.183921128511428833e-02 -2.777700684964656830e-02 -3.288486599922180176e-02 6.561475247144699097e-02
1.067000000000000000e+03 2.442314147949218750e+01 -4.728246688842773438e+00 -1.350122243165969849e-01 -2.498394623398780823e-02 -4.799885302782058716e-02 8.912202715873718262e-02
1.068000000000000000e+03 2.514313125610351562e+01 -4.787255287170410156e+00 -1.681895554065704346e-01 -2.244922891259193420e-02 -5.719163641333580017e-02 9.990665316581726074e-02
1.069000000000000000e+03 2.586520195007324219e+01 -4.845106601715087891e+00 -2.038480043411254883e-01 -1.881975308060646057e-02 -6.680032610893249512e-02 1.092386320233345032e-01
1.070000000000000000e+03 2.810024070739746094e+01 -4.225759029388427734e+00 -3.528461754322052002e-01 -1.590863801538944244e-02 -1.106264442205429077e-01 1.772948801517486572e-01
1.071000000000000000e+03 2.805498123168945312e+01 -4.929213523864746094e+00 -3.330422043800354004e-01 -8.821910247206687927e-03 -1.025592312216758728e-01 1.315632760524749756e-01
1.072000000000000000e+03 2.878614044189453125e+01 -4.944444656372070312e+00 -3.816927075386047363e-01 -5.505488254129886627e-03 -1.161594539880752563e-01 1.368411481380462646e-01
1.073000000000000000e+03 3.103031158447265625e+01 -4.240658283233642578e+00 -5.531725287437438965e-01 -2.257293555885553360e-03 -1.666289418935775757e-01 2.026552259922027588e-01
1.074000000000000000e+03 3.099869537353515625e+01 -4.939957141876220703e+00 -5.445711612701416016e-01 8.083894499577581882e-04 -1.631288379430770874e-01 1.493919044733047485e-01
1.075000000000000000e+03 3.173899650573730469e+01 -4.932415962219238281e+00 -6.038139462471008301e-01 2.594053745269775391e-03 -1.803659647703170776e-01 1.520834714174270630e-01
1.076000000000000000e+03 3.325283432006835938e+01 -4.205878257751464844e+00 -7.252504825592041016e-01 3.218338359147310257e-03 -2.166096419095993042e-01 2.154766321182250977e-01
1.077000000000000000e+03 3.474287414550781250e+01 -4.165821552276611328e+00 -8.479664921760559082e-01 4.946349188685417175e-03 -2.529060542583465576e-01 2.222352176904678345e-01
1.078000000000000000e+03 3.621459960937500000e+01 -4.824289798736572266e+00 -9.996986389160156250e-01 5.887114442884922028e-03 -2.981434464454650879e-01 1.637638211250305176e-01
1.079000000000000000e+03 3.846260070800781250e+01 -4.761270046234130859e+00 -1.216600298881530762e+00 3.942120820283889771e-03 -3.637974560260772705e-01 1.681301295757293701e-01
1.080000000000000000e+03 3.771270751953125000e+01 -4.781622886657714844e+00 -1.143210291862487793e+00 4.817676264792680740e-03 -3.415178060531616211e-01 1.665205210447311401e-01
1.081000000000000000e+03 3.921281433105468750e+01 -4.741868972778320312e+00 -1.291053414344787598e+00 3.636847250163555145e-03 -3.862249851226806641e-01 1.697173267602920532e-01
1.082000000000000000e+03 4.221648406982421875e+01 -4.668224811553955078e+00 -1.595450878143310547e+00 7.726665935479104519e-04 -4.784034788608551025e-01 1.772932857275009155e-01
1.083000000000000000e+03 4.296838760375976562e+01 -4.652312278747558594e+00 -1.672348022460937500e+00 -9.011419606395065784e-04 -5.019747614860534668e-01 1.793112903833389282e-01
1.084000000000000000e+03 4.447262954711914062e+01 -4.623122692108154297e+00 -1.828425168991088867e+00 -2.593786455690860748e-03 -5.493056774139404297e-01 1.841497421264648438e-01
1.085000000000000000e+03 4.597659683227539062e+01 -4.600767612457275391e+00 -1.985228061676025391e+00 -4.277707543224096298e-03 -5.968517065048217773e-01 1.897989809513092041e-01
1.086000000000000000e+03 4.672908401489257812e+01 -4.589582920074462891e+00 -2.063883781433105469e+00 -4.527687095105648041e-03 -6.205234527587890625e-01 1.931159198284149170e-01
1.087000000000000000e+03 4.748232650756835938e+01 -4.580121040344238281e+00 -2.142928838729858398e+00 -5.985506344586610794e-03 -6.446743011474609375e-01 1.967223733663558960e-01
1.088000000000000000e+03 4.973814010620117188e+01 -4.558593273162841797e+00 -2.380116462707519531e+00 -6.980200763791799545e-03 -7.161290049552917480e-01 2.075098752975463867e-01
1.089000000000000000e+03 5.199227905273437500e+01 -4.546738147735595703e+00 -2.617314100265502930e+00 -8.668106049299240112e-03 -7.877946496009826660e-01 2.192974537611007690e-01
1.090000000000000000e+03 5.274451065063476562e+01 -4.543070793151855469e+00 -2.696039199829101562e+00 -7.332487031817436218e-03 -8.110115528106689453e-01 2.230152040719985962e-01
1.091000000000000000e+03 5.499835205078125000e+01 -4.537370681762695312e+00 -2.929764270782470703e+00 -9.210715070366859436e-03 -8.816924691200256348e-01 2.344733625650405884e-01
1.092000000000000000e+03 5.574945449829101562e+01 -4.535843849182128906e+00 -3.006625413894653320e+00 -7.243033032864332199e-03 -9.041605591773986816e-01 2.379309237003326416e-01
1.093000000000000000e+03 5.726685333251953125e+01 -3.830175399780273438e+00 -2.865435600280761719e+00 -1.150077302008867264e-02 -8.630809187889099121e-01 3.047147393226623535e-01
1.094000000000000000e+03 5.875128555297851562e+01 -4.536132335662841797e+00 -3.300012826919555664e+00 -5.940411239862442017e-03 -9.917860031127929688e-01 2.493305802345275879e-01
1.095000000000000000e+03 5.950241851806640625e+01 -4.536651611328125000e+00 -3.368705987930297852e+00 -8.662541396915912628e-03 -1.013210535049438477e+00 2.513564229011535645e-01
1.096000000000000000e+03 6.100294494628906250e+01 -4.539232730865478516e+00 -3.491937637329101562e+00 -6.636271253228187561e-03 -1.049572229385375977e+00 2.505161762237548828e-01
1.097000000000000000e+03 6.175257492065429688e+01 -4.540546417236328125e+00 -3.546644926071166992e+00 -5.865140701644122601e-04 -1.064169406890869141e+00 2.472637444734573364e-01
1.098000000000000000e+03 6.252094650268554688e+01 -3.848702430725097656e+00 -3.122505664825439453e+00 1.401398237794637680e-02 -9.325475096702575684e-01 2.600610852241516113e-01
1.099000000000000000e+03 6.475103759765625000e+01 -4.555381298065185547e+00 -3.660345554351806641e+00 1.937520503997802734e-02 -1.092291116714477539e+00 1.991177946329116821e-01
1.100000000000000000e+03 6.699739074707031250e+01 -4.585522174835205078e+00 -3.537697553634643555e+00 5.154240131378173828e-02 -1.045846462249755859e+00 7.930609583854675293e-02
1.101000000000000000e+03 6.774291229248046875e+01 -4.600502014160156250e+00 -3.392154932022094727e+00 5.971832200884819031e-02 -9.997309446334838867e-01 -8.078921586275100708e-03
1.102000000000000000e+03 6.994725799560546875e+01 -4.624309539794921875e+00 -2.472576856613159180e+00 3.781149387359619141e-01 -6.283385753631591797e-01 -6.676499843597412109e-01
1.103000000000000000e+03 7.065132141113281250e+01 -4.614037990570068359e+00 -1.807263612747192383e+00 7.625014185905456543e-01 -3.134286403656005859e-01 -1.192257881164550781e+00
1.104000000000000000e+03 7.402737426757812500e+01 -4.668781280517578125e+00 -1.267851233482360840e+00 1.646911430358886719e+01 4.560378551483154297e+00 -5.388626098632812500e+00
1.105000000000000000e+03 7.425003051757812500e+01 -4.692349910736083984e+00 -1.573938012123107910e+00 1.818709945678710938e+01 4.983948707580566406e+00 -4.223017692565917969e+00
1.106000000000000000e+03 7.572806549072265625e+01 -6.287134647369384766e+00 8.107873916625976562e+00 1.606926345825195312e+01 7.253141403198242188e+00 6.644096970558166504e-01
1.107000000000000000e+03 7.506039428710937500e+01 -7.774074554443359375e+00 3.166780769824981689e-01 2.085056495666503906e+01 6.350172996520996094e+00 -1.251254439353942871e+00
1.108000000000000000e+03 7.487652587890625000e+01 -7.886110305786132812e+00 -6.110800504684448242e-01 2.096392822265625000e+01 6.105854511260986328e+00 -1.141279861330986023e-01
1.109000000000000000e+03 7.403456878662109375e+01 -8.084959983825683594e+00 -1.264642834663391113e+00 1.688623046875000000e+01 4.686476707458496094e+00 5.328648567199707031e+00
1.110000000000000000e+03 7.302471160888671875e+01 -8.038007736206054688e+00 9.170997142791748047e-01 7.099045753479003906e+00 2.404843568801879883e+00 5.967575550079345703e+00
1.111000000000000000e+03 7.281504821777343750e+01 -8.082662582397460938e+00 8.579815626144409180e-01 5.550574779510498047e+00 1.922567009925842285e+00 5.284283638000488281e+00
1.112000000000000000e+03 7.140570068359375000e+01 -8.095231056213378906e+00 -8.417506217956542969e-01 1.303365945816040039e+00 1.384845972061157227e-01 1.943558216094970703e+00
1.113000000000000000e+03 7.072395324707031250e+01 -8.181388854980468750e+00 -1.740165948867797852e+00 7.622773647308349609e-01 -2.933665812015533447e-01 1.268711209297180176e+00
1.114000000000000000e+03 6.876849365234375000e+01 -8.746909141540527344e+00 -2.278552293777465820e+00 3.626109063625335693e-01 -5.747824311256408691e-01 4.770748615264892578e-01
1.115000000000000000e+03 6.892977905273437500e+01 -8.178240776062011719e+00 -2.903868198394775391e+00 1.780908703804016113e-01 -8.177332282066345215e-01 2.619702816009521484e-01
1.116000000000000000e+03 6.831775665283203125e+01 -8.184736251831054688e+00 -3.189084291458129883e+00 1.140200346708297729e-01 -9.225192666053771973e-01 9.066527336835861206e-02
1.117000000000000000e+03 6.542281341552734375e+01 -8.209536552429199219e+00 -3.608828306198120117e+00 2.269394695758819580e-02 -1.075840353965759277e+00 -1.874421834945678711e-01
1.118000000000000000e+03 6.616980743408203125e+01 -8.200933456420898438e+00 -3.578310966491699219e+00 3.583128750324249268e-02 -1.062743902206420898e+00 -1.487354785203933716e-01
1.119000000000000000e+03 6.229916763305664062e+01 -8.912590026855468750e+00 -3.045659065246582031e+00 1.128345169126987457e-02 -9.103126525878906250e-01 -2.875081300735473633e-01
1.120000000000000000e+03 6.242531585693359375e+01 -8.229651451110839844e+00 -3.508055686950683594e+00 2.283262088894844055e-03 -1.051731705665588379e+00 -2.559067904949188232e-01
1.121000000000000000e+03 6.167544174194335938e+01 -8.231974601745605469e+00 -3.452216386795043945e+00 -8.708865498192608356e-04 -1.035926222801208496e+00 -2.617737948894500732e-01
1.122000000000000000e+03 5.942591857910156250e+01 -8.235373497009277344e+00 -3.248206377029418945e+00 -3.003483870998024940e-03 -9.753629565238952637e-01 -2.663699090480804443e-01
1.123000000000000000e+03 6.017562103271484375e+01 -8.234752655029296875e+00 -3.321049451828002930e+00 -3.221054561436176300e-03 -9.972811341285705566e-01 -2.664944529533386230e-01
1.124000000000000000e+03 5.867670059204101562e+01 -8.235856056213378906e+00 -3.172726631164550781e+00 -3.994812723249197006e-03 -9.530164599418640137e-01 -2.668115794658660889e-01
1.125000000000000000e+03 5.643057632446289062e+01 -8.239196777343750000e+00 -2.933566808700561523e+00 -4.716972354799509048e-03 -8.814851641654968262e-01 -2.612285912036895752e-01
1.126000000000000000e+03 5.568193054199218750e+01 -8.241344451904296875e+00 -2.852905750274658203e+00 -5.245349369943141937e-03 -8.574452996253967285e-01 -2.587423920631408691e-01
1.127000000000000000e+03 5.343382263183593750e+01 -8.249130249023437500e+00 -2.608847618103027344e+00 -4.742219578474760056e-03 -7.840769290924072266e-01 -2.477766275405883789e-01
1.128000000000000000e+03 5.418386459350585938e+01 -8.247064590454101562e+00 -2.690082073211669922e+00 -5.385368131101131439e-03 -8.086402416229248047e-01 -2.516218125820159912e-01
1.129000000000000000e+03 5.193542480468750000e+01 -8.255154609680175781e+00 -2.450379371643066406e+00 -3.916424233466386795e-03 -7.362887263298034668e-01 -2.416009157896041870e-01
1.130000000000000000e+03 5.043846511840820312e+01 -8.262680053710937500e+00 -2.294681549072265625e+00 -3.612232161685824394e-03 -6.894881129264831543e-01 -2.351175546646118164e-01
1.131000000000000000e+03 4.744904708862304688e+01 -8.287616729736328125e+00 -1.999618172645568848e+00 -5.272490903735160828e-03 -6.014671921730041504e-01 -2.206926345825195312e-01
1.132000000000000000e+03 4.595619964599609375e+01 -8.307659149169921875e+00 -1.861668467521667480e+00 -5.839632824063301086e-03 -5.602524280548095703e-01 -2.133856117725372314e-01
1.133000000000000000e+03 4.520971298217773438e+01 -8.319363594055175781e+00 -1.794661879539489746e+00 -6.790799554437398911e-03 -5.404357910156250000e-01 -2.099301218986511230e-01
1.134000000000000000e+03 4.446361923217773438e+01 -8.331841468811035156e+00 -1.729173541069030762e+00 -6.910147145390510559e-03 -5.208250880241394043e-01 -2.065473496913909912e-01
1.135000000000000000e+03 4.147296142578125000e+01 -8.398785591125488281e+00 -1.482512235641479492e+00 -8.789489977061748505e-03 -4.473904967308044434e-01 -1.920547485351562500e-01
1.136000000000000000e+03 4.288082504272460938e+01 -9.089257240295410156e+00 -1.504300594329833984e+00 -1.391562633216381073e-02 -4.554648697376251221e-01 -2.539464533329010010e-01
1.137000000000000000e+03 3.997562026977539062e+01 -8.434312820434570312e+00 -1.367831110954284668e+00 -9.640986099839210510e-03 -4.132416546344757080e-01 -1.845128238201141357e-01
1.138000000000000000e+03 3.773304367065429688e+01 -8.492486953735351562e+00 -1.204383850097656250e+00 -1.131150312721729279e-02 -3.647086024284362793e-01 -1.729027479887008667e-01
1.139000000000000000e+03 3.473373413085937500e+01 -8.577527999877929688e+00 -1.000620126724243164e+00 -1.320889778435230255e-02 -3.041487336158752441e-01 -1.557454019784927368e-01
1.140000000000000000e+03 3.698379898071289062e+01 -8.513673782348632812e+00 -1.152148962020874023e+00 -1.220050733536481857e-02 -3.493048548698425293e-01 -1.686269193887710571e-01
1.141000000000000000e+03 3.848090744018554688e+01 -8.472044944763183594e+00 -1.257789015769958496e+00 -1.096188835799694061e-02 -3.806252777576446533e-01 -1.769320517778396606e-01
1.142000000000000000e+03 3.548556137084960938e+01 -8.556499481201171875e+00 -1.050465822219848633e+00 -1.319312956184148788e-02 -3.190976977348327637e-01 -1.605164855718612671e-01
1.143000000000000000e+03 3.397943878173828125e+01 -8.597162246704101562e+00 -9.519137740135192871e-01 -1.339664310216903687e-02 -2.895931303501129150e-01 -1.514468789100646973e-01
1.144000000000000000e+03 3.247026443481445312e+01 -8.634770393371582031e+00 -8.550903201103210449e-01 -1.367381121963262558e-02 -2.606292366981506348e-01 -1.425548046827316284e-01
1.145000000000000000e+03 2.943311309814453125e+01 -8.662027359008789062e+00 -6.668686270713806152e-01 -1.116658374667167664e-02 -2.034105658531188965e-01 -1.246195659041404724e-01
1.146000000000000000e+03 3.019171142578125000e+01 -8.659542083740234375e+00 -7.131487727165222168e-01 -1.218159589916467667e-02 -2.175991088151931763e-01 -1.280883252620697021e-01
1.147000000000000000e+03 2.713242912292480469e+01 -8.618954658508300781e+00 -5.257977247238159180e-01 -5.951680243015289307e-03 -1.595248132944107056e-01 -1.120514646172523499e-01
1.148000000000000000e+03 2.636451530456542969e+01 -8.601043701171875000e+00 -4.797841012477874756e-01 -3.515685908496379852e-03 -1.449899375438690186e-01 -1.091992557048797607e-01
1.149000000000000000e+03 2.325091361999511719e+01 -8.398622512817382812e+00 -2.981753349304199219e-01 6.906510796397924423e-03 -8.738064020872116089e-02 -9.505397081375122070e-02
1.150000000000000000e+03 2.085269546508789062e+01 -8.154054641723632812e+00 -1.739188134670257568e-01 4.434736911207437515e-03 -5.084522441029548645e-02 -7.762500643730163574e-02
1.151000000000000000e+03 2.001096153259277344e+01 -7.999859333038330078e+00 -1.318758577108383179e-01 -2.986007370054721832e-03 -4.045855998992919922e-02 -6.725591421127319336e-02
1.152000000000000000e+03 1.820077705383300781e+01 -7.216411113739013672e+00 -1.070383843034505844e-02 -2.341704629361629486e-02 -1.023626513779163361e-02 -1.737303286790847778e-02
1.153000000000000000e+03 7.382930755615234375e+01 -8.089917182922363281e+00 -7.824136018753051758e-01 1.493614578247070312e+01 4.246119499206542969e+00 6.181975364685058594e+00
1.154000000000000000e+03 7.447647094726562500e+01 -8.046618461608886719e+00 -1.660579204559326172e+00 1.972505950927734375e+01 5.419343948364257812e+00 2.766453742980957031e+00
1.155000000000000000e+03 7.724034118652343750e+01 -1.277174711227416992e+00 -1.109635949134826660e+00 1.110103988647460938e+01 2.997421264648437500e+00 8.871328234672546387e-01
1.156000000000000000e+03 7.505866241455078125e+01 -5.001658439636230469e+00 4.050921499729156494e-01 2.089690208435058594e+01 6.390597820281982422e+00 1.390286087989807129e+00
1.157000000000000000e+03 7.523317718505859375e+01 -7.642656803131103516e+00 1.473571062088012695e+00 2.035865783691406250e+01 6.549668788909912109e+00 -2.330026388168334961e+00
1.158000000000000000e+03 7.468206787109375000e+01 -7.976918697357177734e+00 -1.352978348731994629e+00 2.069206047058105469e+01 5.801724910736083984e+00 1.300846815109252930e+00
1.159000000000000000e+03 7.554154968261718750e+01 -7.320872783660888672e+00 3.976554393768310547e+00 1.850662422180175781e+01 6.744953632354736328e+00 -3.035200834274291992e+00
1.160000000000000000e+03 7.395701599121093750e+01 -8.361278533935546875e+00 -1.446390748023986816e+00 1.512993431091308594e+01 4.105062961578369141e+00 5.122357368469238281e+00
1.161000000000000000e+03 7.957791137695312500e+01 -5.470448970794677734e+00 1.514916568994522095e-01 4.510316371917724609e+00 1.398542404174804688e+00 3.929166197776794434e-01
1.162000000000000000e+03 7.579091644287109375e+01 -6.700472354888916016e+00 7.317803859710693359e+00 1.639176368713378906e+01 7.112870216369628906e+00 -1.556067347526550293e+00
1.163000000000000000e+03 7.576214599609375000e+01 -5.662044525146484375e+00 5.403131961822509766e+00 1.706434440612792969e+01 6.740242481231689453e+00 2.687020540237426758e+00
1.164000000000000000e+03 7.576168060302734375e+01 -5.913278102874755859e+00 6.741322517395019531e+00 1.657220840454101562e+01 6.994059562683105469e+00 2.189004182815551758e+00
1.165000000000000000e+03 7.523150634765625000e+01 -5.125809192657470703e+00 1.421412706375122070e+00 2.019895553588867188e+01 6.486110210418701172e+00 2.203346729278564453e+00
1.166000000000000000e+03 7.951248168945312500e+01 -2.744755029678344727e+00 -3.669127076864242554e-02 8.469914436340332031e+00 2.529966831207275391e+00 6.902962327003479004e-01
1.167000000000000000e+03 7.566859436035156250e+01 -7.129199504852294922e+00 5.516999721527099609e+00 1.758874511718750000e+01 6.931723594665527344e+00 -2.742372512817382812e+00
1.168000000000000000e+03 7.609303283691406250e+01 -7.307558059692382812e+00 3.683724880218505859e+00 1.538896083831787109e+01 5.721805572509765625e+00 -2.617972612380981445e+00
1.169000000000000000e+03 7.561771392822265625e+01 -5.427397727966308594e+00 4.119719028472900391e+00 1.801481437683105469e+01 6.640359878540039062e+00 3.037988185882568359e+00
1.170000000000000000e+03 7.199794769287109375e+01 -4.819071769714355469e+00 1.104432903230190277e-02 1.829934239387512207e+00 5.522935390472412109e-01 -2.914946794509887695e+00
1.171000000000000000e+03 7.115318298339843750e+01 -4.621047019958496094e+00 -1.218957662582397461e+00 9.963234066963195801e-01 -6.679026782512664795e-02 -1.675275444984436035e+00
1.172000000000000000e+03 7.208975982666015625e+01 -4.650113105773925781e+00 -2.455343157052993774e-01 2.644972562789916992e+00 7.198315262794494629e-01 -3.256626129150390625e+00
1.173000000000000000e+03 7.261051940917968750e+01 -4.728149414062500000e+00 6.700594425201416016e-01 4.356197834014892578e+00 1.507877230644226074e+00 -4.635684967041015625e+00
1.174000000000000000e+03 7.157576751708984375e+01 -4.474216461181640625e+00 -5.398694872856140137e-01 1.867178797721862793e+00 3.981927931308746338e-01 -2.495012044906616211e+00
1.175000000000000000e+03 7.240325927734375000e+01 -4.708514213562011719e+00 3.634468019008636475e-01 3.430989027023315430e+00 1.138330698013305664e+00 -4.010903358459472656e+00
1.176000000000000000e+03 7.380728912353515625e+01 -4.680478572845458984e+00 -8.064314723014831543e-01 1.453480339050292969e+01 4.118511676788330078e+00 -6.144907951354980469e+00
1.177000000000000000e+03 7.300887298583984375e+01 -4.726437568664550781e+00 6.724219322204589844e-01 6.815259933471679688e+00 2.246304512023925781e+00 -5.768625259399414062e+00
1.178000000000000000e+03 6.776203918457031250e+01 -3.388441085815429688e+00 -2.044798135757446289e+00 3.771715164184570312e-01 -5.002880096435546875e-01 -4.115316569805145264e-01
1.179000000000000000e+03 7.321538543701171875e+01 -8.017597198486328125e+00 5.933418869972229004e-01 8.323760032653808594e+00 2.675130367279052734e+00 6.358439922332763672e+00
1.180000000000000000e+03 7.238974761962890625e+01 -8.078042030334472656e+00 3.045960664749145508e-01 3.354051113128662109e+00 1.097594141960144043e+00 3.897073984146118164e+00
1.181000000000000000e+03 7.115405273437500000e+01 -8.132143974304199219e+00 -1.244948625564575195e+00 1.112348437309265137e+00 -3.978005051612854004e-02 1.690165042877197266e+00
1.182000000000000000e+03 7.200145721435546875e+01 -8.030964851379394531e+00 -2.707204222679138184e-01 1.890272855758666992e+00 4.858657121658325195e-01 2.825441598892211914e+00
1.183000000000000000e+03 7.246224212646484375e+01 -8.402146339416503906e+00 3.066011071205139160e-01 4.575656890869140625e+00 1.464677453041076660e+00 4.511924743652343750e+00
1.184000000000000000e+03 7.013364410400390625e+01 -8.173066139221191406e+00 -2.276778459548950195e+00 4.239501953125000000e-01 -5.558484792709350586e-01 7.860599160194396973e-01
1.185000000000000000e+03 7.425579833984375000e+01 -8.095844268798828125e+00 -1.569844603538513184e+00 1.824715423583984375e+01 5.003192424774169922e+00 4.161687850952148438e+00
1.186000000000000000e+03 1.452228260040283203e+01 1.738698124885559082e+00 1.289490610361099243e-04 -6.840759306214749813e-05 1.816244366636965424e-05 -1.376850414089858532e-04
1.187000000000000000e+03 1.463103008270263672e+01 2.562289953231811523e+00 -2.236406435258686543e-04 -3.365505544934421778e-04 -1.680573623161762953e-04 3.676977576105855405e-05
1.188000000000000000e+03 1.188628578186035156e+01 1.793238520622253418e+00 -1.126725474023260176e-04 3.182786895195022225e-05 -2.425340244371909648e-05 -1.408382668159902096e-04
1.189000000000000000e+03 6.764574432373046875e+01 -8.188390731811523438e+00 -3.381135702133178711e+00 8.780597150325775146e-02 -9.879989027976989746e-01 -4.887463059276342392e-03
1.190000000000000000e+03 7.051994323730468750e+01 -8.774104118347167969e+00 -1.108021974563598633e+00 1.170852899551391602e+00 1.884928531944751740e-02 1.612279653549194336e+00
1.191000000000000000e+03 7.124932098388671875e+01 -8.461967468261718750e+00 -8.184210658073425293e-01 1.485178828239440918e+00 2.000273317098617554e-01 2.178231716156005859e+00
1.192000000000000000e+03 6.937514495849609375e+01 -8.732067108154296875e+00 -1.964166760444641113e+00 5.064704418182373047e-01 -4.373089075088500977e-01 7.213747501373291016e-01
1.193000000000000000e+03 6.922787475585937500e+01 -9.286357879638671875e+00 -1.467013359069824219e+00 7.599823474884033203e-01 -2.121093124151229858e-01 9.692110419273376465e-01
1.194000000000000000e+03 1.446637058258056641e+01 -3.375799655914306641e+00 -3.612166256061755121e-05 9.225689427694305778e-05 1.684056951489765197e-05 -1.074080137186683714e-05
1.195000000000000000e+03 1.384616279602050781e+01 -2.968339920043945312e+00 9.804365981835871935e-05 -6.676819612039253116e-05 9.382639291288796812e-06 -2.525258423702325672e-05
1.196000000000000000e+03 1.868589591979980469e+01 -8.269744873046875000e+00 -9.090150147676467896e-02 -2.088674902915954590e-02 -3.353647515177726746e-02 -6.318293511867523193e-02
1.197000000000000000e+03 1.868960952758789062e+01 -9.493588447570800781e+00 -1.407545804977416992e-01 -4.471371322870254517e-02 -5.564048886299133301e-02 -1.205046400427818298e-01
1.198000000000000000e+03 3.928519010543823242e+00 3.529256820678710938e+00 -4.461453863768838346e-05 3.017450035258661956e-05 -4.332011485530529171e-06 2.629602677188813686e-04
1.199000000000000000e+03 9.535501480102539062e+00 2.594177007675170898e+00 -6.652205047430470586e-05 -1.343801413895562291e-04 -6.027065683156251907e-05 -4.178680246695876122e-04
1.200000000000000000e+03 7.405473709106445312e+00 2.572812557220458984e+00 -1.643229188630357385e-04 2.949142362922430038e-04 3.917739377357065678e-05 2.900208055507391691e-04
1.201000000000000000e+03 6.775825500488281250e+00 1.854932546615600586e+00 -1.624239084776490927e-04 1.761727326083928347e-04 4.124643965042196214e-06 2.253732527606189251e-04
1.202000000000000000e+03 6.709885120391845703e+00 2.572496891021728516e+00 3.700503293657675385e-05 -1.838769676396623254e-04 -4.406157677294686437e-05 -2.460319083184003830e-04
1.203000000000000000e+03 7.995487689971923828e+00 3.332572698593139648e+00 -1.585748977959156036e-04 4.344097396824508905e-04 8.275044820038601756e-05 3.462834865786135197e-04
1.204000000000000000e+03 5.895136356353759766e+00 4.022019386291503906e+00 -1.656425447436049581e-04 3.601855423767119646e-04 5.836289710714481771e-05 2.185308258049190044e-04
1.205000000000000000e+03 1.557179093360900879e+00 7.722815990447998047e+00 -2.260911423945799470e-04 -5.268722452456131577e-05 -8.363350934814661741e-05 2.381293888902291656e-04
1.206000000000000000e+03 3.922161459922790527e-01 3.797304630279541016e+00 -1.303332974202930927e-04 -1.459299965063109994e-04 -8.287898526759818196e-05 6.076556383050046861e-05
1.207000000000000000e+03 2.407469749450683594e+00 3.690776348114013672e+00 -2.237671724287793040e-04 7.484970410587266088e-05 -4.467524195206351578e-05 2.751589927356690168e-04
1.208000000000000000e+03 3.876350522041320801e-01 2.098874568939208984e+00 9.245077671948820353e-05 4.643292413675226271e-06 2.912821946665644646e-05 -5.530578346224501729e-05
1.209000000000000000e+03 1.124073624610900879e+00 1.944537758827209473e+00 -3.014574213011655957e-05 -9.044187027029693127e-05 -3.617628317442722619e-05 1.233497168868780136e-04
1.210000000000000000e+03 1.112980175018310547e+01 1.823007941246032715e+00 2.176641646656207740e-05 -2.500154187146108598e-05 -9.705378261060104705e-07 1.125822163885459304e-04
1.211000000000000000e+03 8.691327095031738281e+00 3.347219467163085938e+00 5.279885590425692499e-05 -2.912016934715211391e-04 -7.152085163397714496e-05 -4.682052822317928076e-04
1.212000000000000000e+03 2.659136390686035156e+01 -4.886585712432861328e+00 -2.433907091617584229e-01 -1.579468324780464172e-02 -7.775562256574630737e-02 1.176646798849105835e-01
1.213000000000000000e+03 2.601723098754882812e+01 -2.792300462722778320e+00 -2.591834366321563721e-01 -5.867846310138702393e-02 -9.535857290029525757e-02 2.231218516826629639e-01
1.214000000000000000e+03 2.306539916992187500e+01 -3.889974594116210938e+00 -1.014002189040184021e-01 -4.506896063685417175e-02 -4.394075646996498108e-02 9.177371114492416382e-02
1.215000000000000000e+03 2.519153785705566406e+01 -4.061371803283691406e+00 -1.898013502359390259e-01 -3.655811026692390442e-02 -6.790784001350402832e-02 1.371608972549438477e-01
1.216000000000000000e+03 2.376109695434570312e+01 -3.939782142639160156e+00 -1.264376938343048096e-01 -4.409512877464294434e-02 -5.115984752774238586e-02 1.086864769458770752e-01
1.217000000000000000e+03 2.307880973815917969e+01 -3.184479236602783203e+00 -1.115249693393707275e-01 -6.731554865837097168e-02 -5.365215614438056946e-02 1.198298856616020203e-01
1.218000000000000000e+03 2.229616546630859375e+01 -4.497219085693359375e+00 -6.214379146695137024e-02 -2.861046046018600464e-02 -2.722627483308315277e-02 5.263643339276313782e-02
1.219000000000000000e+03 1.913751792907714844e+01 -2.650788784027099609e+00 -5.995425861328840256e-03 -1.745804771780967712e-02 -7.036042399704456329e-03 1.639565452933311462e-02
1.220000000000000000e+03 2.238446998596191406e+01 -3.836074829101562500e+00 -7.795773446559906006e-02 -4.506473243236541748e-02 -3.690674155950546265e-02 7.585365325212478638e-02
1.221000000000000000e+03 2.952017211914062500e+01 -4.949861526489257812e+00 -4.332243502140045166e-01 -3.139451611787080765e-03 -1.309091448783874512e-01 1.413829177618026733e-01
1.222000000000000000e+03 2.664202308654785156e+01 -4.174191474914550781e+00 -2.661705613136291504e-01 -2.578816562891006470e-02 -8.758761733770370483e-02 1.598060429096221924e-01
1.223000000000000000e+03 2.888252449035644531e+01 -2.855517148971557617e+00 -4.202431738376617432e-01 -2.905217930674552917e-02 -1.347886025905609131e-01 2.722130119800567627e-01
1.224000000000000000e+03 2.737105178833007812e+01 -4.206201553344726562e+00 -3.081500828266143799e-01 -2.098141238093376160e-02 -9.873944520950317383e-02 1.688797920942306519e-01
1.225000000000000000e+03 3.248154067993164062e+01 -4.920072555541992188e+00 -6.650483012199401855e-01 3.658752422779798508e-03 -1.984168589115142822e-01 1.546697467565536499e-01
1.226000000000000000e+03 2.959005928039550781e+01 -3.546197891235351562e+00 -4.585472643375396729e-01 -1.520428434014320374e-02 -1.421254724264144897e-01 2.383653372526168823e-01
1.227000000000000000e+03 3.256450653076171875e+01 -2.207831382751464844e+00 -6.472046971321105957e-01 -1.142540108412504196e-02 -1.975890249013900757e-01 3.559431731700897217e-01
1.228000000000000000e+03 2.955808067321777344e+01 -4.243562221527099609e+00 -4.481333792209625244e-01 -8.214202709496021271e-03 -1.369042694568634033e-01 1.915516555309295654e-01
1.229000000000000000e+03 1.346427249908447266e+01 -4.838527679443359375e+00 1.377789158141240478e-04 5.991784291836665943e-06 4.313121098675765097e-05 -7.345394692492845934e-07
1.230000000000000000e+03 1.287820625305175781e+01 -5.959615707397460938e+00 -1.032820146065205336e-04 -2.281337401655036956e-05 -3.782861676882021129e-05 4.075995718721969752e-07
1.231000000000000000e+03 8.143226623535156250e+00 -2.584072828292846680e+00 -7.185056892922148108e-05 -1.080867587006650865e-04 -5.398119901656173170e-05 -1.121208406402729452e-04
1.232000000000000000e+03 3.250939941406250000e+01 -4.221855640411376953e+00 -6.662050485610961914e-01 2.102812984958291054e-03 -1.992306709289550781e-01 2.114523202180862427e-01
1.233000000000000000e+03 3.546585845947265625e+01 -4.845734119415283203e+00 -9.295163154602050781e-01 5.718294996768236160e-03 -2.771393954753875732e-01 1.620983779430389404e-01
1.234000000000000000e+03 3.403390884399414062e+01 -2.811108589172363281e+00 -7.599463462829589844e-01 -8.264166535809636116e-04 -2.282318323850631714e-01 3.248436152935028076e-01
1.235000000000000000e+03 3.399752044677734375e+01 -4.186693191528320312e+00 -7.861590981483459473e-01 4.612548742443323135e-03 -2.344639599323272705e-01 2.187860310077667236e-01
1.236000000000000000e+03 4.371802520751953125e+01 -8.346781730651855469e+00 -1.665751457214355469e+00 -7.641454227268695831e-03 -5.020178556442260742e-01 -2.030499428510665894e-01
1.237000000000000000e+03 4.510534286499023438e+01 -9.031441688537597656e+00 -1.678993701934814453e+00 -1.134220045059919357e-02 -5.071007609367370605e-01 -2.674980461597442627e-01
1.238000000000000000e+03 4.501268386840820312e+01 -9.748414993286132812e+00 -1.564037322998046875e+00 -1.724036782979965210e-02 -4.743832945823669434e-01 -3.191785216331481934e-01
1.239000000000000000e+03 4.436431121826171875e+01 -9.047022819519042969e+00 -1.620201706886291504e+00 -1.227578427642583847e-02 -4.897432625293731689e-01 -2.628621160984039307e-01
1.240000000000000000e+03 4.733209228515625000e+01 -8.999288558959960938e+00 -1.862211823463439941e+00 -1.073043327778577805e-02 -5.618826746940612793e-01 -2.821329236030578613e-01
1.241000000000000000e+03 4.281160736083984375e+01 -9.829309463500976562e+00 -1.404942989349365234e+00 -1.971872895956039429e-02 -4.273985326290130615e-01 -3.042446374893188477e-01
1.242000000000000000e+03 4.072362899780273438e+01 -8.416310310363769531e+00 -1.424708247184753418e+00 -9.132510982453823090e-03 -4.301522076129913330e-01 -1.884784549474716187e-01
1.243000000000000000e+03 4.200304412841796875e+01 -1.061484432220458984e+01 -1.255637049674987793e+00 -2.717578783631324768e-02 -3.848438560962677002e-01 -3.452199101448059082e-01
1.244000000000000000e+03 4.137243652343750000e+01 -9.131184577941894531e+00 -1.392290472984313965e+00 -1.420327369123697281e-02 -4.219481050968170166e-01 -2.447616010904312134e-01
1.245000000000000000e+03 4.943822479248046875e+01 -9.715950965881347656e+00 -1.887821555137634277e+00 -1.491330843418836594e-02 -5.708204507827758789e-01 -3.547320365905761719e-01
1.246000000000000000e+03 4.819607543945312500e+01 -8.280871391296386719e+00 -2.071102380752563477e+00 -5.593444220721721649e-03 -6.230087876319885254e-01 -2.242296189069747925e-01
1.247000000000000000e+03 4.894343185424804688e+01 -8.274553298950195312e+00 -2.144578933715820312e+00 -4.396557807922363281e-03 -6.446926593780517578e-01 -2.281106859445571899e-01
1.248000000000000000e+03 4.956761550903320312e+01 -8.985441207885742188e+00 -2.054421663284301758e+00 -8.375741541385650635e-03 -6.188392043113708496e-01 -2.974336445331573486e-01
1.249000000000000000e+03 4.807619094848632812e+01 -8.994506835937500000e+00 -1.925243616104125977e+00 -9.716898202896118164e-03 -5.804881453514099121e-01 -2.873867452144622803e-01
1.250000000000000000e+03 4.061798858642578125e+01 -9.148921012878417969e+00 -1.337987065315246582e+00 -1.461488194763660431e-02 -4.057805836200714111e-01 -2.398529946804046631e-01
1.251000000000000000e+03 4.128402709960937500e+01 -9.877114295959472656e+00 -1.299370646476745605e+00 -2.031208015978336334e-02 -3.959048092365264893e-01 -2.935615181922912598e-01
1.252000000000000000e+03 3.986967468261718750e+01 -9.164841651916503906e+00 -1.286059141159057617e+00 -1.547699142247438431e-02 -3.904608488082885742e-01 -2.347473502159118652e-01
1.253000000000000000e+03 3.838164138793945312e+01 -9.195029258728027344e+00 -1.184289336204528809e+00 -1.672303490340709686e-02 -3.603037297725677490e-01 -2.246277183294296265e-01
1.254000000000000000e+03 5.118664932250976562e+01 -8.259162902832031250e+00 -2.372000694274902344e+00 -3.944748081266880035e-03 -7.127836346626281738e-01 -2.377583235502243042e-01
1.255000000000000000e+03 5.243852996826171875e+01 -9.706801414489746094e+00 -2.112877607345581055e+00 -1.169973891228437424e-02 -6.373731493949890137e-01 -3.719418942928314209e-01
1.256000000000000000e+03 5.031336212158203125e+01 -8.981842994689941406e+00 -2.120118856430053711e+00 -8.304980583488941193e-03 -6.385271549224853516e-01 -3.015787303447723389e-01
1.257000000000000000e+03 5.331393814086914062e+01 -8.966887474060058594e+00 -2.389169931411743164e+00 -8.592546917498111725e-03 -7.193287611007690430e-01 -3.171339631080627441e-01
1.258000000000000000e+03 5.406711959838867188e+01 -8.963095664978027344e+00 -2.455972433090209961e+00 -8.916574530303478241e-03 -7.394667267799377441e-01 -3.205788731575012207e-01
1.259000000000000000e+03 5.768787384033203125e+01 -9.639089584350585938e+00 -2.479516506195068359e+00 -2.140259835869073868e-03 -7.444970011711120605e-01 -3.750130534172058105e-01
1.260000000000000000e+03 5.631248855590820312e+01 -8.942706108093261719e+00 -2.657684803009033203e+00 -7.200875785201787949e-03 -7.994656562805175781e-01 -3.286522030830383301e-01
1.261000000000000000e+03 5.780564498901367188e+01 -8.936118125915527344e+00 -2.781580209732055664e+00 -4.653446376323699951e-03 -8.358700871467590332e-01 -3.290949761867523193e-01
1.262000000000000000e+03 5.717955017089843750e+01 -8.237961769104003906e+00 -3.015434503555297852e+00 -4.444274585694074631e-03 -9.059636592864990234e-01 -2.636831700801849365e-01
1.263000000000000000e+03 5.929909515380859375e+01 -8.931906700134277344e+00 -2.891953229904174805e+00 -1.975027378648519516e-03 -8.681784868240356445e-01 -3.242677748203277588e-01
1.264000000000000000e+03 5.705952072143554688e+01 -8.939106941223144531e+00 -2.720674753189086914e+00 -5.717612337321043015e-03 -8.179177045822143555e-01 -3.293592631816864014e-01
1.265000000000000000e+03 3.548919296264648438e+01 -4.144755363464355469e+00 -9.113937020301818848e-01 5.712034646421670914e-03 -2.717044949531555176e-01 2.251690030097961426e-01
1.266000000000000000e+03 3.550854110717773438e+01 -3.448766231536865234e+00 -8.896145224571228027e-01 3.734518541023135185e-03 -2.657639980316162109e-01 2.830685377120971680e-01
1.267000000000000000e+03 3.623663330078125000e+01 -4.123369693756103516e+00 -9.755999445915222168e-01 5.294067319482564926e-03 -2.910917699337005615e-01 2.280011326074600220e-01
1.268000000000000000e+03 6.985325622558593750e+01 -4.068263053894042969e+00 -1.716776967048645020e+00 7.015172243118286133e-01 -3.045779168605804443e-01 -1.037677168846130371e+00
1.269000000000000000e+03 6.550112152099609375e+01 -4.562857627868652344e+00 -3.650810718536376953e+00 2.409193851053714752e-02 -1.088015556335449219e+00 1.738300770521163940e-01
1.270000000000000000e+03 6.848327636718750000e+01 -4.615247726440429688e+00 -3.148370265960693359e+00 1.329698264598846436e-01 -9.046201705932617188e-01 -1.718708872795104980e-01
1.271000000000000000e+03 6.916775512695312500e+01 -4.072859764099121094e+00 -2.156461954116821289e+00 4.185898900032043457e-01 -5.213616490364074707e-01 -6.208420991897583008e-01
1.272000000000000000e+03 6.625002288818359375e+01 -4.572919845581054688e+00 -3.611884593963623047e+00 4.157355800271034241e-02 -1.071093320846557617e+00 1.319130659103393555e-01
1.273000000000000000e+03 6.626962280273437500e+01 -3.931824207305908203e+00 -2.945232391357421875e+00 9.766498208045959473e-02 -8.542702198028564453e-01 4.568571597337722778e-02
1.274000000000000000e+03 6.476938629150390625e+01 -3.883167028427124023e+00 -3.079697370529174805e+00 4.702808707952499390e-02 -9.098008275032043457e-01 1.697710156440734863e-01
1.275000000000000000e+03 6.775115966796875000e+01 -4.006489753723144531e+00 -2.660337209701538086e+00 1.902615725994110107e-01 -7.410227060317993164e-01 -2.042863219976425171e-01
1.276000000000000000e+03 6.004850387573242188e+01 -8.929719924926757812e+00 -2.939889192581176758e+00 -6.830062193330377340e-05 -8.819872736930847168e-01 -3.190028965473175049e-01
1.277000000000000000e+03 6.079880905151367188e+01 -8.926129341125488281e+00 -2.982797145843505859e+00 2.275988459587097168e-03 -8.941563963890075684e-01 -3.121405243873596191e-01
1.278000000000000000e+03 6.304880142211914062e+01 -8.902388572692871094e+00 -3.061295509338378906e+00 1.868348196148872375e-02 -9.127836227416992188e-01 -2.675530612468719482e-01
1.279000000000000000e+03 6.400067138671875000e+01 -4.549883365631103516e+00 -3.654835939407348633e+00 7.193930447101593018e-03 -1.094292640686035156e+00 2.203288972377777100e-01
1.280000000000000000e+03 6.402560424804687500e+01 -3.189704418182373047e+00 -2.611186742782592773e+00 7.296751439571380615e-02 -7.614657878875732422e-01 1.631734967231750488e-01
1.281000000000000000e+03 6.401730346679687500e+01 -3.868259668350219727e+00 -3.109668016433715820e+00 3.403045237064361572e-02 -9.226912260055541992e-01 2.075354009866714478e-01
1.282000000000000000e+03 6.392462539672851562e+01 -8.222409248352050781e+00 -3.588815212249755859e+00 8.475387468934059143e-03 -1.074101924896240234e+00 -2.348160743713378906e-01
1.283000000000000000e+03 6.379835128784179688e+01 -8.888540267944335938e+00 -3.064975261688232422e+00 2.836029790341854095e-02 -9.109845161437988281e-01 -2.398458570241928101e-01
1.284000000000000000e+03 6.217454528808593750e+01 -9.605619430541992188e+00 -2.611364364624023438e+00 3.079836815595626831e-02 -7.741697430610656738e-01 -2.922585904598236084e-01
1.285000000000000000e+03 6.454740142822265625e+01 -8.870796203613281250e+00 -3.051035165786743164e+00 4.125601053237915039e-02 -9.029337167739868164e-01 -2.039741128683090210e-01
1.286000000000000000e+03 6.529418182373046875e+01 -8.849143981933593750e+00 -3.016970157623291016e+00 5.906256288290023804e-02 -8.873723149299621582e-01 -1.543787866830825806e-01
1.287000000000000000e+03 6.676479339599609375e+01 -8.801797866821289062e+00 -2.851437807083129883e+00 1.183399409055709839e-01 -8.199293613433837891e-01 -9.843967854976654053e-04
1.288000000000000000e+03 6.814154052734375000e+01 -8.767312049865722656e+00 -2.494686126708984375e+00 2.359781265258789062e-01 -6.776124238967895508e-01 2.769408524036407471e-01
1.289000000000000000e+03 6.177030563354492188e+01 -3.843668937683105469e+00 -3.108954668045043945e+00 3.281789133325219154e-03 -9.317018985748291016e-01 2.773024439811706543e-01
1.290000000000000000e+03 6.027288055419921875e+01 -3.836610794067382812e+00 -3.053113698959350586e+00 -5.047808401286602020e-03 -9.174484610557556152e-01 2.960593700408935547e-01
1.291000000000000000e+03 5.952041625976562500e+01 -3.833978652954101562e+00 -3.013068437576293945e+00 -4.403497558087110519e-03 -9.052416086196899414e-01 3.007321655750274658e-01
1.292000000000000000e+03 3.689162826538085938e+01 -9.234991073608398438e+00 -1.086622118949890137e+00 -1.781594567000865936e-02 -3.313314020633697510e-01 -2.144069820642471313e-01
1.293000000000000000e+03 3.829050064086914062e+01 -9.921090126037597656e+00 -1.111319780349731445e+00 -2.277052402496337891e-02 -3.402270972728729248e-01 -2.683065235614776611e-01
1.294000000000000000e+03 3.540104675292968750e+01 -9.279064178466796875e+00 -9.917209148406982422e-01 -1.871169358491897583e-02 -3.031297922134399414e-01 -2.042722851037979126e-01
1.295000000000000000e+03 5.651631546020507812e+01 -3.829277515411376953e+00 -2.808747053146362305e+00 -9.181054309010505676e-03 -8.453783988952636719e-01 3.034583032131195068e-01
1.296000000000000000e+03 5.800086212158203125e+01 -4.535888671875000000e+00 -3.229511976242065430e+00 -9.393178857862949371e-03 -9.716715216636657715e-01 2.471717447042465210e-01
1.297000000000000000e+03 5.349686050415039062e+01 -4.540304660797119141e+00 -2.774187564849853516e+00 -9.115488268435001373e-03 -8.349909186363220215e-01 2.274392843246459961e-01
1.298000000000000000e+03 5.725043487548828125e+01 -4.535473346710205078e+00 -3.156390428543090820e+00 -7.010358385741710663e-03 -9.490202665328979492e-01 2.443142086267471313e-01
1.299000000000000000e+03 5.876718521118164062e+01 -3.832401752471923828e+00 -2.968740940093994141e+00 -9.614532813429832458e-03 -8.935066461563110352e-01 3.036200404167175293e-01
1.300000000000000000e+03 5.424787902832031250e+01 -4.538771152496337891e+00 -2.852358818054199219e+00 -7.363623008131980896e-03 -8.579167127609252930e-01 2.307119965553283691e-01
1.301000000000000000e+03 5.426248931884765625e+01 -3.834536314010620117e+00 -2.625587701797485352e+00 -1.232926361262798309e-02 -7.913751006126403809e-01 2.979481220245361328e-01
1.302000000000000000e+03 5.501295471191406250e+01 -3.832596778869628906e+00 -2.688942670822143555e+00 -9.584371000528335571e-03 -8.095580935478210449e-01 2.999775707721710205e-01
1.303000000000000000e+03 5.576436233520507812e+01 -3.830382823944091797e+00 -2.749704837799072266e+00 -1.223511900752782822e-02 -8.285819292068481445e-01 3.023343086242675781e-01
1.304000000000000000e+03 4.824709320068359375e+01 -3.868760824203491211e+00 -2.083085060119628906e+00 -9.362320415675640106e-03 -6.277341842651367188e-01 2.715525627136230469e-01
1.305000000000000000e+03 4.898598480224609375e+01 -4.565730094909667969e+00 -2.301126718521118164e+00 -7.198153994977474213e-03 -6.924974918365478516e-01 2.040134966373443604e-01
1.306000000000000000e+03 5.125399780273437500e+01 -3.846239805221557617e+00 -2.360166072845458984e+00 -1.181344781070947647e-02 -7.115938663482666016e-01 2.855353355407714844e-01
1.307000000000000000e+03 5.200297546386718750e+01 -3.843833923339843750e+00 -2.428160429000854492e+00 -1.025703921914100647e-02 -7.315251827239990234e-01 2.881144881248474121e-01
1.308000000000000000e+03 5.275597381591796875e+01 -3.840148210525512695e+00 -2.495116949081420898e+00 -1.228882931172847748e-02 -7.522217035293579102e-01 2.920019328594207764e-01
1.309000000000000000e+03 4.071338653564453125e+01 -4.702921390533447266e+00 -1.441797018051147461e+00 2.037423430010676384e-03 -4.319278597831726074e-01 1.730260103940963745e-01
1.310000000000000000e+03 3.773249053955078125e+01 -4.082136631011962891e+00 -1.107307791709899902e+00 4.414802417159080505e-03 -3.308679163455963135e-01 2.330362796783447266e-01
1.311000000000000000e+03 4.146475219726562500e+01 -4.684641361236572266e+00 -1.518537044525146484e+00 9.190595010295510292e-04 -4.552854001522064209e-01 1.751064658164978027e-01
1.312000000000000000e+03 3.997568130493164062e+01 -4.024313926696777344e+00 -1.310982108116149902e+00 2.638434758409857750e-03 -3.925030827522277832e-01 2.398450374603271484e-01
1.313000000000000000e+03 3.848125076293945312e+01 -4.061974048614501953e+00 -1.174775123596191406e+00 4.208393860608339310e-03 -3.511700034141540527e-01 2.353112399578094482e-01
1.314000000000000000e+03 4.749361038208007812e+01 -3.876604318618774414e+00 -2.012413978576660156e+00 -7.792863529175519943e-03 -6.060620546340942383e-01 2.678372561931610107e-01
1.315000000000000000e+03 4.974907684326171875e+01 -3.854681730270385742e+00 -2.222087144851684570e+00 -1.095226686447858810e-02 -6.699118018150329590e-01 2.787517011165618896e-01
1.316000000000000000e+03 4.372760772705078125e+01 -3.933645009994506836e+00 -1.659416913986206055e+00 -2.847575815394520760e-03 -4.986793398857116699e-01 2.527550160884857178e-01
1.317000000000000000e+03 3.922904205322265625e+01 -4.042989253997802734e+00 -1.242652177810668945e+00 2.955860923975706100e-03 -3.719089031219482422e-01 2.378002703189849854e-01
1.318000000000000000e+03 4.222577667236328125e+01 -3.965922594070434570e+00 -1.519246220588684082e+00 -6.570300902239978313e-04 -4.559710025787353516e-01 2.476536184549331665e-01
1.319000000000000000e+03 4.297708129882812500e+01 -3.949097156524658203e+00 -1.589523553848266602e+00 -7.645190926268696785e-04 -4.770864248275756836e-01 2.501282989978790283e-01
1.320000000000000000e+03 4.523519515991210938e+01 -3.907390356063842773e+00 -1.800906062126159668e+00 -5.228128284215927124e-03 -5.418402552604675293e-01 2.582390904426574707e-01
1.321000000000000000e+03 4.673764801025390625e+01 -3.886658668518066406e+00 -1.942003607749938965e+00 -7.513865362852811813e-03 -5.848552584648132324e-01 2.644907534122467041e-01
1.322000000000000000e+03 4.448138809204101562e+01 -3.919197082519531250e+00 -1.730280399322509766e+00 -3.222654806450009346e-03 -5.200509428977966309e-01 2.554129362106323242e-01
1.323000000000000000e+03 3.322478103637695312e+01 -8.616089820861816406e+00 -9.026877880096435547e-01 -1.378023065626621246e-02 -2.749404013156890869e-01 -1.467019766569137573e-01
1.324000000000000000e+03 3.614499282836914062e+01 -9.256040573120117188e+00 -1.038607120513916016e+00 -1.857547461986541748e-02 -3.171547949314117432e-01 -2.096374034881591797e-01
1.325000000000000000e+03 3.171259307861328125e+01 -8.648304939270019531e+00 -8.076033592224121094e-01 -1.308193709701299667e-02 -2.462055832147598267e-01 -1.378297507762908936e-01
1.326000000000000000e+03 3.313581848144531250e+01 -9.349084854125976562e+00 -8.533318638801574707e-01 -1.915933564305305481e-02 -2.617473602294921875e-01 -1.904638856649398804e-01
1.327000000000000000e+03 3.464955902099609375e+01 -9.303083419799804688e+00 -9.453856348991394043e-01 -1.885128580033779144e-02 -2.892710864543914795e-01 -2.002301216125488281e-01
1.328000000000000000e+03 3.389248657226562500e+01 -9.326190948486328125e+00 -8.983735442161560059e-01 -1.939201541244983673e-02 -2.753296792507171631e-01 -1.950544118881225586e-01
1.329000000000000000e+03 8.811642646789550781e+00 2.587276697158813477e+00 -9.119709284277632833e-05 2.427580911898985505e-04 4.546829950413666666e-05 3.193137235939502716e-04
1.330000000000000000e+03 1.359348392486572266e+01 3.915449857711791992e+00 2.933430077973753214e-04 -3.042991447728127241e-04 -3.286843593741650693e-06 2.408759464742615819e-04
1.331000000000000000e+03 1.256985759735107422e+01 2.529463052749633789e+00 -1.169316819868981838e-04 7.476208702428266406e-05 -1.265087757928995416e-05 -9.168726683128625154e-05
1.332000000000000000e+03 1.104774570465087891e+01 2.582725524902343750e+00 -1.662727590883150697e-04 1.015096358969458379e-06 -4.957729834131896496e-05 -3.439037536736577749e-04
1.333000000000000000e+03 2.866891860961914062e+01 -8.654329299926757812e+00 -6.197413206100463867e-01 -9.560045786201953888e-03 -1.887904107570648193e-01 -1.201490238308906555e-01
1.334000000000000000e+03 3.008405494689941406e+01 -9.391549110412597656e+00 -6.772437095642089844e-01 -1.624573953449726105e-02 -2.080468386411666870e-01 -1.711142510175704956e-01
1.335000000000000000e+03 3.084713363647460938e+01 -9.392138481140136719e+00 -7.199623584747314453e-01 -1.754447072744369507e-02 -2.212520539760589600e-01 -1.756353378295898438e-01
1.336000000000000000e+03 3.161548042297363281e+01 -9.387191772460937500e+00 -7.638809084892272949e-01 -1.852009072899818420e-02 -2.347202897071838379e-01 -1.808432787656784058e-01
1.337000000000000000e+03 8.076470375061035156e+00 -1.853635191917419434e+00 1.220796821144176647e-05 1.333559339400380850e-04 4.366916982689872384e-05 1.238805853063240647e-04
1.338000000000000000e+03 1.253709793090820312e+01 -3.697746992111206055e+00 1.057573826983571053e-04 9.379645052831619978e-05 5.986614996800199151e-05 1.451904972782358527e-05
1.339000000000000000e+03 7.405238151550292969e+00 -2.598136186599731445e+00 7.606425697304075584e-06 1.318293216172605753e-04 4.183072451269254088e-05 1.439443440176546574e-04
1.340000000000000000e+03 1.176433467864990234e+01 -5.618206501007080078e+00 8.944422734202817082e-05 -8.034392521949484944e-05 2.730089818214764819e-06 5.617722126771695912e-05
1.341000000000000000e+03 7.250286102294921875e+00 -4.894004821777343750e+00 -2.299339539604261518e-04 2.789434802252799273e-04 1.470285678806249052e-05 -7.642869604751467705e-05
1.342000000000000000e+03 6.562833786010742188e+00 -1.867469310760498047e+00 -3.845648825517855585e-05 1.343964249826967716e-04 2.878198029065970331e-05 1.312579115619882941e-04
1.343000000000000000e+03 6.660085678100585938e+00 -2.602265357971191406e+00 -1.799078927433583885e-05 -1.246279716724529862e-04 -4.278562846593558788e-05 -1.337622816208750010e-04
1.344000000000000000e+03 5.185636043548583984e+00 -2.693354368209838867e+00 -6.205840463735512458e-07 -1.308352511841803789e-04 -3.943675255868583918e-05 -1.927245757542550564e-04
1.345000000000000000e+03 1.613977789878845215e+00 -7.851593017578125000e+00 -4.493586311582475901e-04 -8.110706403385847807e-05 -1.591397158335894346e-04 -2.695487928576767445e-04
1.346000000000000000e+03 3.965613365173339844e+00 -3.767759799957275391e+00 6.839921115897595882e-05 1.226714230142533779e-04 5.732119097956456244e-05 1.918663620017468929e-04
1.347000000000000000e+03 1.568332433700561523e+00 -6.541833877563476562e+00 4.291451768949627876e-04 -4.757969145430251956e-05 1.144696434494107962e-04 1.404497306793928146e-04
1.348000000000000000e+03 4.955521821975708008e-01 -3.597655534744262695e+00 -2.375133044552057981e-04 -6.236894842004403472e-05 -8.996467659017071128e-05 -8.899628301151096821e-05
1.349000000000000000e+03 4.010486602783203125e-01 -2.190397500991821289e+00 1.601323601789772511e-04 -7.369352260866435245e-06 4.582890323945321143e-05 4.235674714436754584e-05
1.350000000000000000e+03 5.467494130134582520e-01 -5.045701980590820312e+00 3.603784716688096523e-04 -1.204178042826242745e-04 7.198820094345137477e-05 5.678763045580126345e-05
1.351000000000000000e+03 2.559026908874511719e+01 -8.566831588745117188e+00 -4.335176646709442139e-01 -7.340807933360338211e-04 -1.302755177021026611e-01 -1.059421747922897339e-01
1.352000000000000000e+03 2.702321052551269531e+01 -9.330380439758300781e+00 -5.086091756820678711e-01 -7.684430573135614395e-03 -1.548880785703659058e-01 -1.529000103473663330e-01
1.353000000000000000e+03 2.856154251098632812e+01 -9.367751121520996094e+00 -5.929605364799499512e-01 -1.259602513164281845e-02 -1.816669702529907227e-01 -1.614842563867568970e-01
1.354000000000000000e+03 2.625632286071777344e+01 -9.317939758300781250e+00 -4.670242667198181152e-01 -5.060356110334396362e-03 -1.416253894567489624e-01 -1.493828147649765015e-01
1.355000000000000000e+03 2.169011878967285156e+01 -8.223775863647460938e+00 -2.159062027931213379e-01 7.964166812598705292e-03 -6.238261237740516663e-02 -8.481787890195846558e-02
1.356000000000000000e+03 2.310343360900878906e+01 -9.169791221618652344e+00 -3.084827661514282227e-01 5.326532293111085892e-03 -9.094687551259994507e-02 -1.324992328882217407e-01
1.357000000000000000e+03 2.071837043762207031e+01 -9.011124610900878906e+00 -1.968604475259780884e-01 -3.705406328663229942e-03 -6.016975641250610352e-02 -1.139719560742378235e-01
1.358000000000000000e+03 2.481136703491210938e+01 -8.514379501342773438e+00 -3.875513672828674316e-01 2.081773011013865471e-03 -1.156408786773681641e-01 -1.025282591581344604e-01
1.359000000000000000e+03 2.468651771545410156e+01 -9.262141227722167969e+00 -3.872413635253906250e-01 1.694636303000152111e-03 -1.156640201807022095e-01 -1.423169672489166260e-01
1.360000000000000000e+03 2.389695167541503906e+01 -9.214469909667968750e+00 -3.473433256149291992e-01 3.610790241509675980e-03 -1.031197607517242432e-01 -1.385041922330856323e-01
1.361000000000000000e+03 2.171679878234863281e+01 -3.754114151000976562e+00 -5.913604050874710083e-02 -4.507723078131675720e-02 -3.126398101449012756e-02 6.025208160281181335e-02
1.362000000000000000e+03 2.038703727722167969e+01 -3.344719648361206055e+00 -2.422888018190860748e-02 -3.689536452293395996e-02 -1.833727397024631500e-02 2.719567716121673584e-02
1.363000000000000000e+03 1.229874420166015625e+01 -1.953558349609375000e+01 -1.793803870677947998e-01 -2.428351789712905884e-01 -1.266646683216094971e-01 -1.788080036640167236e-01
1.364000000000000000e+03 3.701597452163696289e+00 -1.946191024780273438e+01 -2.947233058512210846e-02 -3.062955662608146667e-02 -1.803056709468364716e-02 -2.879214473068714142e-02
1.365000000000000000e+03 1.251501560211181641e+01 1.985916137695312500e+01 -4.632297158241271973e-01 -7.087308168411254883e-01 -3.515881597995758057e-01 5.083943009376525879e-01
1.366000000000000000e+03 8.725380897521972656e+00 2.022368621826171875e+01 -4.068908989429473877e-01 -1.372415274381637573e-01 -1.632397323846817017e-01 3.267020881175994873e-01
1.367000000000000000e+03 1.940678024291992188e+01 8.227500915527343750e+00 -2.245889306068420410e-01 -9.275582432746887207e-01 -3.456441462039947510e-01 4.497859477996826172e-01
1.368000000000000000e+03 1.911364364624023438e+01 9.625418663024902344e+00 -3.186679780483245850e-01 -1.024692296981811523e+00 -4.030081033706665039e-01 5.143327713012695312e-01
1.369000000000000000e+03 1.377953243255615234e+01 1.887788581848144531e+01 -5.845266580581665039e-01 -8.302285075187683105e-01 -4.244265258312225342e-01 5.717431902885437012e-01
1.370000000000000000e+03 1.406130504608154297e+01 1.663081932067871094e+01 -9.050844311714172363e-01 -1.008889555931091309e+00 -5.741921663284301758e-01 8.811521530151367188e-01
1.371000000000000000e+03 1.715391349792480469e+01 1.181844615936279297e+01 -3.793540596961975098e-01 -1.441864967346191406e+00 -5.463656783103942871e-01 6.874984502792358398e-01
1.372000000000000000e+03 1.728855323791503906e+01 1.551581954956054688e+01 -5.949895977973937988e-01 -1.045333504676818848e+00 -4.920969307422637939e-01 5.967459678649902344e-01
1.373000000000000000e+03 2.031080055236816406e+01 2.406711101531982422e+00 -6.210964545607566833e-02 -3.534208834171295166e-01 -1.246591582894325256e-01 2.114280611276626587e-01
1.374000000000000000e+03 6.273256540298461914e-01 1.622303009033203125e+01 1.523126731626689434e-03 2.664421685039997101e-02 8.450202643871307373e-03 -5.744202528148889542e-03
1.375000000000000000e+03 1.968684959411621094e+01 6.831001758575439453e+00 -1.512135863304138184e-01 -7.821990847587585449e-01 -2.800238132476806641e-01 3.677387535572052002e-01
1.376000000000000000e+03 1.836320114135742188e+01 1.246607208251953125e+01 -4.507000148296356201e-01 -1.148815155029296875e+00 -4.798545241355895996e-01 6.207743287086486816e-01
1.377000000000000000e+03 1.501408767700195312e+01 1.790933799743652344e+01 -5.903221368789672852e-01 -9.690542221069335938e-01 -4.678128957748413086e-01 6.105180978775024414e-01
1.378000000000000000e+03 1.894830703735351562e+01 8.347399830818176270e-01 -8.878373540937900543e-03 -1.782559156417846680e-01 -5.614028871059417725e-02 4.995159804821014404e-02
1.379000000000000000e+03 2.010475730895996094e+01 9.564683437347412109e-01 -3.412158042192459106e-02 -2.339018583297729492e-01 -8.040703088045120239e-02 1.348145604133605957e-01
1.380000000000000000e+03 1.788264846801757812e+01 1.393674755096435547e+01 -5.591058135032653809e-01 -1.114847183227539062e+00 -5.021859407424926758e-01 6.586899757385253906e-01
1.381000000000000000e+03 2.216428565979003906e+01 -1.857436299324035645e+00 -8.876723051071166992e-02 -1.173566430807113647e-01 -6.183716282248497009e-02 1.409654319286346436e-01
1.382000000000000000e+03 1.891562271118164062e+01 -1.768298625946044922e+00 -3.372404957190155983e-03 -2.698477357625961304e-02 -9.107153862714767456e-03 1.667140983045101166e-02
1.383000000000000000e+03 4.070332050323486328e+00 -1.642968368530273438e+01 -1.779308950062841177e-04 -1.443176157772541046e-02 -4.382907878607511520e-03 6.702092359773814678e-04
1.384000000000000000e+03 6.059503555297851562e-01 -1.769127845764160156e+01 -8.430183515883982182e-04 1.984488591551780701e-02 5.700560286641120911e-03 2.214067382737994194e-03
1.385000000000000000e+03 1.265660572052001953e+01 -1.808470344543457031e+01 -2.604310810565948486e-01 -2.300159335136413574e-01 -1.471341103315353394e-01 -2.051557749509811401e-01
1.386000000000000000e+03 1.025554370880126953e+01 -2.524773836135864258e+00 -5.917067483096616343e-06 1.603987620910629630e-04 4.634450669982470572e-05 1.222179416799917817e-04
1.387000000000000000e+03 1.649323463439941406e+01 -1.041786861419677734e+01 -9.201844036579132080e-02 -1.397939026355743408e-01 -6.954370439052581787e-02 -1.178400665521621704e-01
1.388000000000000000e+03 1.736193656921386719e+01 -1.117768096923828125e+01 -1.667993068695068359e-01 -1.012054607272148132e-01 -8.040142804384231567e-02 -1.596268117427825928e-01
1.389000000000000000e+03 1.578119945526123047e+01 -1.156259822845458984e+01 -1.282827258110046387e-01 -2.050391882658004761e-01 -9.999657422304153442e-02 -1.615638881921768188e-01
1.390000000000000000e+03 2.152311706542968750e+01 -9.061202049255371094e+00 -2.340433597564697266e-01 3.623705822974443436e-03 -6.912589818239212036e-02 -1.197204887866973877e-01
1.391000000000000000e+03 1.347407627105712891e+01 -1.685942077636718750e+01 -2.698701918125152588e-01 -2.355265766382217407e-01 -1.516190320253372192e-01 -2.383122146129608154e-01
1.392000000000000000e+03 1.666357040405273438e+01 -1.225561428070068359e+01 -1.932662874460220337e-01 -1.432105749845504761e-01 -1.009430587291717529e-01 -1.861591935157775879e-01
1.393000000000000000e+03 1.363870620727539062e+01 -3.804715871810913086e+00 -1.726851478451862931e-04 -1.122708126786164939e-04 -8.548679033992812037e-05 1.416409941157326102e-05
1.394000000000000000e+03 1.592552661895751953e+01 -1.340353965759277344e+01 -2.232450097799301147e-01 -1.822415739297866821e-01 -1.216459721326828003e-01 -2.067770659923553467e-01
1.395000000000000000e+03 1.514166259765625000e+01 -1.456943130493164062e+01 -2.390549629926681519e-01 -2.138910144567489624e-01 -1.358837932348251343e-01 -2.206419408321380615e-01
1.396000000000000000e+03 1.049239063262939453e+01 -9.204990386962890625e+00 -8.070556941675022244e-05 -2.361970691708847880e-04 -9.507079084869474173e-05 5.307485844241455197e-05
1.397000000000000000e+03 1.332777214050292969e+01 -2.567307710647583008e+00 5.155443068360909820e-05 5.889361273148097098e-05 3.313441266072914004e-05 3.226795161026529968e-05
1.398000000000000000e+03 9.543653488159179688e+00 -8.680832862854003906e+00 -1.584308483870700002e-05 2.014441415667533875e-04 5.568031701841391623e-05 -1.828204985940828919e-04
1.399000000000000000e+03 1.111608600616455078e+01 -6.618547439575195312e+00 -5.171072916709817946e-05 6.086514258640818298e-05 2.746324753388762474e-06 -9.470300574321299791e-05
1.400000000000000000e+03 1.036727046966552734e+01 -7.636902332305908203e+00 7.684449519729241729e-05 -2.603587054181843996e-04 -5.505425724550150335e-05 1.369862147839739919e-04
1.401000000000000000e+03 1.758407115936279297e+00 -1.049855995178222656e+01 -2.308060647919774055e-04 8.825184340821579099e-05 -4.276626350474543869e-05 2.314730081707239151e-04
1.402000000000000000e+03 8.107299804687500000e+00 -1.263031578063964844e+01 4.614379722625017166e-04 1.113077276386320591e-03 4.723545862361788750e-04 -7.279608398675918579e-04
1.403000000000000000e+03 1.042456150054931641e+01 -4.061477184295654297e+00 -4.453608926269225776e-05 7.225092122098430991e-05 8.314449587487615645e-06 -6.660588405793532729e-05
1.404000000000000000e+03 7.908184051513671875e+01 3.619018554687500000e+01 -7.060895208269357681e-03 5.426566600799560547e+00 1.625851750373840332e+00 -2.901860699057579041e-02
1.405000000000000000e+03 7.790747833251953125e+01 -2.913107299804687500e+01 3.559912368655204773e-02 7.216772556304931641e+00 2.175711631774902344e+00 3.191693127155303955e-01
1.406000000000000000e+03 7.933352661132812500e+01 -2.783031272888183594e+01 5.611128173768520355e-03 7.818633556365966797e+00 2.347273349761962891e+00 1.207990050315856934e-01
1.407000000000000000e+03 7.731289672851562500e+01 -3.809788131713867188e+01 2.621917519718408585e-03 6.327272891998291016e+00 1.898968458175659180e+00 1.602146774530410767e-01
1.408000000000000000e+03 7.928601074218750000e+01 -3.474640655517578125e+01 -3.983515780419111252e-03 6.873344421386718750e+00 2.060808181762695312e+00 6.946145743131637573e-02
1.409000000000000000e+03 7.944292449951171875e+01 -2.088293266296386719e+01 1.086628530174493790e-03 9.575417518615722656e+00 2.872951030731201172e+00 1.559122055768966675e-01
1.410000000000000000e+03 7.818701934814453125e+01 -2.494043922424316406e+01 2.291087433695793152e-02 8.016587257385253906e+00 2.411849260330200195e+00 4.064042866230010986e-01
1.411000000000000000e+03 7.810804748535156250e+01 -2.632972335815429688e+01 3.050494939088821411e-02 7.717813014984130859e+00 2.324495553970336914e+00 3.797111213207244873e-01
1.412000000000000000e+03 7.785639953613281250e+01 -3.190963935852050781e+01 4.261191189289093018e-02 6.866571903228759766e+00 2.072755098342895508e+00 2.498419433832168579e-01
1.413000000000000000e+03 7.929366302490234375e+01 -3.061386299133300781e+01 1.457002200186252594e-02 7.354198932647705078e+00 2.210630655288696289e+00 9.568319469690322876e-02
1.414000000000000000e+03 7.788699340820312500e+01 -3.325380325317382812e+01 1.745587401092052460e-02 6.735395431518554688e+00 2.025855302810668945e+00 2.090732604265213013e-01
1.415000000000000000e+03 7.361920928955078125e+01 -3.844207000732421875e+01 2.035345584154129028e-01 5.432003021240234375e+00 1.690661311149597168e+00 1.757971346378326416e-01
1.416000000000000000e+03 7.644895935058593750e+01 -3.914552688598632812e+01 3.733934462070465088e-02 6.287913322448730469e+00 1.897575855255126953e+00 1.192091405391693115e-01
1.417000000000000000e+03 7.932926940917968750e+01 2.228340148925781250e+01 2.651375019922852516e-03 6.435117244720458984e+00 1.931330680847167969e+00 -7.914067804813385010e-02
1.418000000000000000e+03 7.806632995605468750e+01 1.532227230072021484e+01 2.848782390356063843e-02 7.216378211975097656e+00 2.173459768295288086e+00 -3.778151571750640869e-01
1.419000000000000000e+03 7.935467529296875000e+01 1.532916069030761719e+01 3.151670796796679497e-03 7.575630664825439453e+00 2.273634672164916992e+00 -1.266000568866729736e-01
1.420000000000000000e+03 7.770446014404296875e+01 3.180466079711914062e+01 1.745056919753551483e-02 5.420036315917968750e+00 1.631245970726013184e+00 -1.170334294438362122e-01
1.421000000000000000e+03 7.797519683837890625e+01 2.774539184570312500e+01 1.530890259891748428e-02 5.706710815429687500e+00 1.716606020927429199e+00 -1.570104360580444336e-01
1.422000000000000000e+03 7.932736206054687500e+01 2.782964134216308594e+01 2.091683913022279739e-03 5.869267940521240234e+00 1.761407852172851562e+00 -5.223103612661361694e-02
1.423000000000000000e+03 7.796403503417968750e+01 2.501698303222656250e+01 1.691848784685134888e-02 5.927567005157470703e+00 1.783345580101013184e+00 -1.959223747253417969e-01
1.424000000000000000e+03 7.796813201904296875e+01 2.363405609130859375e+01 1.633290015161037445e-02 6.059044361114501953e+00 1.822613239288330078e+00 -2.155091613531112671e-01
1.425000000000000000e+03 7.803677368164062500e+01 1.808913230895996094e+01 2.539308555424213409e-02 6.753397464752197266e+00 2.033637285232543945e+00 -3.156664073467254639e-01
1.426000000000000000e+03 7.805323028564453125e+01 1.670397758483886719e+01 2.423174120485782623e-02 6.975638389587402344e+00 2.099961042404174805e+00 -3.443841338157653809e-01
1.427000000000000000e+03 7.807982635498046875e+01 1.394025993347167969e+01 2.511977776885032654e-02 7.480438232421875000e+00 2.251667499542236328e+00 -4.100253283977508545e-01
1.428000000000000000e+03 7.687505340576171875e+01 1.117090129852294922e+01 6.492438912391662598e-02 7.553512096405029297e+00 2.285531044006347656e+00 -7.333685755729675293e-01
1.429000000000000000e+03 7.815747833251953125e+01 9.798829078674316406e+00 2.333481051027774811e-02 8.422336578369140625e+00 2.533701419830322266e+00 -4.982254505157470703e-01
1.430000000000000000e+03 7.938547515869140625e+01 9.773229598999023438e+00 -2.225509379059076309e-03 8.981730461120605469e+00 2.693851470947265625e+00 -1.662714630365371704e-01
1.431000000000000000e+03 7.854316711425781250e+01 -1.277383232116699219e+01 -2.806230783462524414e-01 1.048386859893798828e+01 3.060973644256591797e+00 -4.431414902210235596e-01
1.432000000000000000e+03 7.942745971679687500e+01 -1.120414161682128906e+01 -1.740700006484985352e-01 9.819561004638671875e+00 2.893647193908691406e+00 -5.735232830047607422e-01
1.433000000000000000e+03 7.947383117675781250e+01 -6.854644775390625000e+00 3.074917495250701904e-01 4.700726032257080078e+00 1.502465367317199707e+00 -3.735375106334686279e-01
1.434000000000000000e+03 7.598181915283203125e+01 -5.080362319946289062e+00 2.494605064392089844e+00 1.633011817932128906e+01 5.647416591644287109e+00 2.918559551239013672e+00
1.435000000000000000e+03 7.945737457275390625e+01 1.474387526512145996e+00 -7.591381669044494629e-02 1.114864063262939453e+01 3.321818113327026367e+00 3.937993943691253662e-02
1.436000000000000000e+03 7.795218658447265625e+01 2.909671211242675781e+01 1.269954815506935120e-02 5.606936454772949219e+00 1.685890913009643555e+00 -1.416653394699096680e-01
1.437000000000000000e+03 7.820628356933593750e+01 8.425676345825195312e+00 6.256745662540197372e-03 8.786656379699707031e+00 2.637873888015747070e+00 -5.063839554786682129e-01
1.438000000000000000e+03 7.944337463378906250e+01 -1.339419245719909668e+00 -1.011443957686424255e-01 9.960147857666015625e+00 2.957701206207275391e+00 5.078452825546264648e-01
1.439000000000000000e+03 7.855226135253906250e+01 -1.405201148986816406e+01 -1.904393732547760010e-01 1.057154655456542969e+01 3.114332199096679688e+00 -4.711663722991943359e-02
1.440000000000000000e+03 7.945536804199218750e+01 -1.949815750122070312e+01 -3.430496144574135542e-05 1.001354694366455078e+01 3.004053831100463867e+00 1.577692627906799316e-01
1.441000000000000000e+03 7.828483581542968750e+01 -2.220249557495117188e+01 1.636040955781936646e-02 8.667390823364257812e+00 2.605125188827514648e+00 4.514258801937103271e-01
1.442000000000000000e+03 7.855321502685546875e+01 4.016561508178710938e+01 -1.665832474827766418e-02 5.250082969665527344e+00 1.570027351379394531e+00 -6.607993692159652710e-02
1.443000000000000000e+03 7.518988800048828125e+01 3.608505249023437500e+01 5.111467093229293823e-02 4.930496692657470703e+00 1.494483470916748047e+00 -1.298602074384689331e-01
1.444000000000000000e+03 7.912172698974609375e+01 3.753532028198242188e+01 3.738272236660122871e-03 5.379741191864013672e+00 1.615043878555297852e+00 -3.123954311013221741e-02
1.445000000000000000e+03 7.733490753173828125e+01 1.917572855949401855e+00 -3.959513902664184570e-01 9.908198356628417969e+00 2.853674173355102539e+00 -2.844443023204803467e-01
1.446000000000000000e+03 7.840648651123046875e+01 3.012820482254028320e+00 -1.098055467009544373e-01 1.024386501312255859e+01 3.040217876434326172e+00 -2.711496055126190186e-01
1.447000000000000000e+03 7.717755889892578125e+01 6.701075434684753418e-01 -7.199814319610595703e-01 1.026836967468261719e+01 2.864516258239746094e+00 7.734434213489294052e-03
1.448000000000000000e+03 7.876680755615234375e+01 -4.028927326202392578e+00 1.340122222900390625e-01 8.343954086303710938e+00 2.543389797210693359e+00 1.720396995544433594e+00
1.449000000000000000e+03 7.507974243164062500e+01 -8.192362785339355469e+00 -1.018714785575866699e+00 1.900621986389160156e+01 5.396251678466796875e+00 -3.199645876884460449e-01
1.450000000000000000e+03 7.837129974365234375e+01 -1.152097892761230469e+01 -4.756689369678497314e-01 1.040323543548583984e+01 2.978270053863525391e+00 -1.055025100708007812e+00
1.451000000000000000e+03 7.839391326904296875e+01 -1.810604095458984375e+01 -3.920201212167739868e-02 9.750310897827148438e+00 2.913332700729370117e+00 4.395573139190673828e-01
1.452000000000000000e+03 7.947698974609375000e+01 -1.672371482849121094e+01 -8.247509598731994629e-03 1.082304859161376953e+01 3.244440317153930664e+00 1.048375070095062256e-01
1.453000000000000000e+03 7.836710357666015625e+01 -1.948122024536132812e+01 -2.935559721663594246e-03 9.378600120544433594e+00 2.812699317932128906e+00 4.615201950073242188e-01
1.454000000000000000e+03 7.536413669586181641e+00 1.992680740356445312e+01 -2.837578356266021729e-01 -4.404961317777633667e-02 -9.834223240613937378e-02 1.457971632480621338e-01
1.455000000000000000e+03 8.854394912719726562e+00 1.871728134155273438e+01 -3.095693290233612061e-01 1.128785312175750732e-02 -8.948444575071334839e-02 1.042472571134567261e-01
1.456000000000000000e+03 1.398013710975646973e+00 -4.003540039062500000e+01 2.804337767884135246e-03 -3.793271780014038086e-01 -1.129568517208099365e-01 -4.224086180329322815e-03
1.457000000000000000e+03 7.231695055961608887e-01 3.742341232299804688e+01 6.765680853277444839e-03 -6.501843333244323730e-01 -1.930255889892578125e-01 1.197599712759256363e-02
1.458000000000000000e+03 7.396103143692016602e-01 3.465554809570312500e+01 6.413036491721868515e-03 -5.777373909950256348e-01 -1.713973134756088257e-01 2.417652867734432220e-02
1.459000000000000000e+03 7.505971193313598633e-01 3.325330734252929688e+01 8.328501717187464237e-04 -5.259184837341308594e-01 -1.575256884098052979e-01 3.144497051835060120e-02
1.460000000000000000e+03 6.627752780914306641e-01 2.760327339172363281e+01 -5.218199221417307854e-04 -2.322169542312622070e-01 -6.982163339853286743e-02 3.800223022699356079e-02
1.461000000000000000e+03 6.537942886352539062e-01 2.619240570068359375e+01 -9.464597678743302822e-04 -1.518412381410598755e-01 -4.583631083369255066e-02 3.640883788466453552e-02
1.462000000000000000e+03 7.885963320732116699e-01 -3.595451354980468750e+01 1.613635977264493704e-04 -3.473630547523498535e-01 -1.041605100035667419e-01 -1.040420494973659515e-02
1.463000000000000000e+03 2.255950689315795898e+00 -3.286344146728515625e+01 7.532309740781784058e-03 -2.834275066852569580e-01 -8.276855945587158203e-02 -4.488523304462432861e-02
1.464000000000000000e+03 3.255223751068115234e+00 2.602117729187011719e+01 -1.902508921921253204e-02 -2.394081354141235352e-01 -7.752996683120727539e-02 1.546413153409957886e-01
1.465000000000000000e+03 3.255629062652587891e+00 2.463028907775878906e+01 -2.460787445306777954e-02 -1.879408657550811768e-01 -6.376462429761886597e-02 1.399621963500976562e-01
1.466000000000000000e+03 2.259613752365112305e+00 3.455654907226562500e+01 1.306514069437980652e-02 -5.534307956695556641e-01 -1.621097028255462646e-01 7.570302486419677734e-02
1.467000000000000000e+03 2.290028810501098633e+00 3.315052795410156250e+01 1.550134643912315369e-02 -5.087440013885498047e-01 -1.479727923870086670e-01 8.889085054397583008e-02
1.468000000000000000e+03 3.252629518508911133e+00 3.919227600097656250e+01 1.824787631630897522e-02 -6.433574557304382324e-01 -1.875328719615936279e-01 4.166227206587791443e-02
1.469000000000000000e+03 2.072099685668945312e+00 -3.014620208740234375e+01 4.805123433470726013e-03 -2.296780347824096680e-01 -6.746187061071395874e-02 -5.302694439888000488e-02
1.470000000000000000e+03 1.983826994895935059e+00 -2.739305877685546875e+01 1.014598179608583450e-03 -1.632547676563262939e-01 -4.867205023765563965e-02 -5.590004101395606995e-02
1.471000000000000000e+03 2.353324890136718750e+00 -3.688163375854492188e+01 5.560039076954126358e-03 -3.405120968818664551e-01 -1.004856228828430176e-01 -2.683870308101177216e-02
1.472000000000000000e+03 5.484545707702636719e+00 -1.756610488891601562e+01 -2.952094748616218567e-02 -1.527351886034011841e-02 -1.343834027647972107e-02 -5.782255902886390686e-04
1.473000000000000000e+03 5.908530950546264648e-01 2.051386070251464844e+01 -3.303524572402238846e-03 4.540582001209259033e-02 1.263068802654743195e-02 2.745528006926178932e-03
1.474000000000000000e+03 6.235566735267639160e-01 1.908885383605957031e+01 -8.941430714912712574e-04 4.652353748679161072e-02 1.368881855159997940e-02 -2.264314796775579453e-03
1.475000000000000000e+03 6.279878616333007812e-01 1.481055164337158203e+01 -3.461172163952142000e-04 1.531044486910104752e-02 4.489297978579998016e-03 -4.077807534486055374e-03
1.476000000000000000e+03 6.148234009742736816e-01 1.341075325012207031e+01 1.865611062385141850e-03 7.346636150032281876e-03 2.763674128800630569e-03 -2.743114484474062920e-03
1.477000000000000000e+03 5.117992758750915527e-01 7.817716121673583984e+00 5.921432748436927795e-04 -2.763478260021656752e-04 9.473862883169203997e-05 -1.943476381711661816e-04
1.478000000000000000e+03 5.807920694351196289e-01 -1.910954093933105469e+01 -1.797612756490707397e-03 2.084264345467090607e-02 5.713509395718574524e-03 -1.089627738110721111e-03
1.479000000000000000e+03 1.688886880874633789e+00 -9.173453330993652344e+00 7.259057019837200642e-04 4.752887616632506251e-05 2.320303756278008223e-04 3.805374726653099060e-04
1.480000000000000000e+03 3.680021524429321289e+00 -3.891028213500976562e+01 1.245044544339179993e-02 -3.479890823364257812e-01 -1.006615906953811646e-01 -2.901455387473106384e-02
1.481000000000000000e+03 3.858715534210205078e+00 -3.540499114990234375e+01 1.787864603102207184e-02 -3.123628795146942139e-01 -8.834526687860488892e-02 -5.384916067123413086e-02
1.482000000000000000e+03 2.312573194503784180e+00 -3.424206542968750000e+01 7.061728276312351227e-03 -3.070108592510223389e-01 -8.998473733663558960e-02 -3.872091695666313171e-02
1.483000000000000000e+03 2.167632341384887695e+00 -3.149795341491699219e+01 4.163299221545457840e-03 -2.579472959041595459e-01 -7.613520324230194092e-02 -4.976281896233558655e-02
1.484000000000000000e+03 3.268187046051025391e+00 -2.724779891967773438e+01 -1.365143340080976486e-03 -1.724590510129928589e-01 -5.214725807309150696e-02 -8.546609431505203247e-02
1.485000000000000000e+03 1.945129275321960449e+00 -2.457882118225097656e+01 -3.554878989234566689e-03 -9.551654756069183350e-02 -2.972142770886421204e-02 -4.953318089246749878e-02
1.486000000000000000e+03 1.972728967666625977e+00 -2.599290466308593750e+01 -3.198459045961499214e-03 -1.287289112806320190e-01 -3.957821056246757507e-02 -5.442656576633453369e-02
1.487000000000000000e+03 5.798010230064392090e-01 -2.051644897460937500e+01 -1.919696107506752014e-03 1.195170264691114426e-02 3.009601728990674019e-03 -5.663328338414430618e-03
1.488000000000000000e+03 3.042026758193969727e+00 -2.152145576477050781e+01 -2.160904183983802795e-02 -5.211612954735755920e-02 -2.211755141615867615e-02 -4.845098033547401428e-02
1.489000000000000000e+03 1.892650604248046875e+00 -1.610342216491699219e+01 -6.440478609874844551e-04 6.964568747207522392e-04 1.572271503391675651e-05 6.432502064853906631e-03
1.490000000000000000e+03 1.797705173492431641e+00 -1.183266735076904297e+01 1.478696241974830627e-03 3.768316528294235468e-04 5.566583713516592979e-04 1.475138706155121326e-03
1.491000000000000000e+03 5.894765257835388184e-01 -1.201827239990234375e+01 -1.016984926536679268e-03 1.142619643360376358e-03 3.769040631595999002e-05 3.417588013689965010e-04
1.492000000000000000e+03 8.676774024963378906e+00 -9.763065338134765625e+00 1.007529208436608315e-04 -4.709211352746933699e-04 -1.110504599637351930e-04 2.367680717725306749e-04
1.493000000000000000e+03 5.373300552368164062e+00 -3.477319002151489258e+00 -6.385241431416943669e-05 2.352282608626410365e-04 5.141275323694571853e-05 2.215035929111763835e-04
1.494000000000000000e+03 3.712472438812255859e+00 -2.903949260711669922e+00 -8.525311568519100547e-05 -6.572790152858942747e-05 -4.529430589172989130e-05 -1.816573785617947578e-04
1.495000000000000000e+03 2.928258419036865234e+00 -3.084695339202880859e+00 1.179747196147218347e-04 4.515090404311195016e-05 4.893768709735013545e-05 1.059984788298606873e-04
1.496000000000000000e+03 2.125693798065185547e+00 -3.173459529876708984e+00 -1.547290157759562135e-04 -3.963957715313881636e-05 -5.831057569594122469e-05 -5.799594146083109081e-05
1.497000000000000000e+03 1.359813570976257324e+00 -3.362066030502319336e+00 5.796913319500163198e-05 1.193130665342323482e-04 5.318465991877019405e-05 9.787282760953530669e-05
1.498000000000000000e+03 4.511604607105255127e-01 5.054515361785888672e+00 2.361057850066572428e-04 -2.140792639693245292e-04 6.607956947846105322e-06 -6.096153447288088500e-05
1.499000000000000000e+03 1.653557777404785156e+00 1.042439270019531250e+01 2.008471201406791806e-04 6.341813714243471622e-04 2.505085431039333344e-04 -6.539451424032449722e-04
1.500000000000000000e+03 5.509480237960815430e-01 1.060789680480957031e+01 1.117139356210827827e-03 6.526091601699590683e-04 5.309245316311717033e-04 -6.615518359467387199e-04
1.501000000000000000e+03 1.878998637199401855e+00 1.317337703704833984e+01 2.288477728143334389e-03 1.886744285002350807e-03 1.252566580660641193e-03 -5.236275028437376022e-03
1.502000000000000000e+03 1.909011840820312500e+00 1.456571292877197266e+01 3.922572825103998184e-03 2.611668780446052551e-03 1.960272435098886490e-03 -8.855353109538555145e-03
1.503000000000000000e+03 1.875642776489257812e+00 1.599212741851806641e+01 1.590661355294287205e-03 4.638862796127796173e-03 1.868857303634285927e-03 -1.194652915000915527e-02
1.504000000000000000e+03 1.952681183815002441e+00 2.467043495178222656e+01 -1.498729363083839417e-02 -1.395033597946166992e-01 -4.634719714522361755e-02 8.997120708227157593e-02
1.505000000000000000e+03 9.333013534545898438e+00 1.102591228485107422e+01 -3.247762506362050772e-04 2.884251764044165611e-03 7.678426336497068405e-04 6.584133370779454708e-04
1.506000000000000000e+03 1.242998313903808594e+01 8.446799278259277344e+00 6.617863546125590801e-04 5.616071866825222969e-04 3.670180449262261391e-04 7.212400087155401707e-04
1.507000000000000000e+03 1.467375564575195312e+01 4.922105789184570312e+00 3.069705853704363108e-04 -9.790761396288871765e-05 6.271889287745580077e-05 8.623488974990323186e-05
1.508000000000000000e+03 1.181683921813964844e+01 2.563346147537231445e+00 1.386041840305551887e-04 -7.806389476172626019e-05 1.816208896343596280e-05 1.202081475639715791e-04
1.509000000000000000e+03 1.038450813293457031e+01 1.339635753631591797e+01 -2.414241433143615723e-03 -1.755198114551603794e-03 -1.250831875950098038e-03 -1.803436782211065292e-03
1.510000000000000000e+03 8.472511291503906250e+00 1.035417366027832031e+01 9.371103369630873203e-04 -9.222722728736698627e-04 4.451415861694840714e-06 7.034699665382504463e-04
1.511000000000000000e+03 8.434829711914062500e+00 1.381562709808349609e+01 -9.127661469392478466e-04 2.243256662040948868e-03 3.991471894551068544e-04 -1.821493962779641151e-03
1.512000000000000000e+03 1.176062107086181641e+01 3.345966815948486328e+00 -2.706629165913909674e-04 5.598224743152968585e-05 -6.440419383579865098e-05 -4.336381971370428801e-04
1.513000000000000000e+03 7.823133945465087891e+00 -1.090990829467773438e+01 -1.893651460704859346e-05 8.986516040749847889e-04 2.639145241118967533e-04 -4.999449010938405991e-04
1.514000000000000000e+03 7.182553100585937500e+01 -4.787382602691650391e+00 -3.557106256484985352e-01 1.660129308700561523e+00 3.913256227970123291e-01 -2.487837791442871094e+00
1.515000000000000000e+03 7.279888916015625000e+01 -4.417233467102050781e+00 3.512394726276397705e-01 6.267365932464599609e+00 1.985581517219543457e+00 -5.199949741363525391e+00
1.516000000000000000e+03 7.281034088134765625e+01 -4.732019424438476562e+00 7.563189864158630371e-01 5.524168014526367188e+00 1.884146094322204590e+00 -5.251464843750000000e+00
1.517000000000000000e+03 7.321631622314453125e+01 -4.709265708923339844e+00 5.257586240768432617e-01 8.536664962768554688e+00 2.718727111816406250e+00 -6.246088981628417969e+00
1.518000000000000000e+03 7.341827392578125000e+01 -4.725409030914306641e+00 4.030060172080993652e-01 1.032995128631591797e+01 3.219887256622314453e+00 -6.727394580841064453e+00
1.519000000000000000e+03 7.186849212646484375e+01 -4.136198043823242188e+00 -2.698022499680519104e-02 3.100037097930908203e+00 9.219170808792114258e-01 -3.361325979232788086e+00
1.520000000000000000e+03 7.448241424560546875e+01 -4.698643684387207031e+00 -1.581979632377624512e+00 1.942926025390625000e+01 5.354184150695800781e+00 -2.736142158508300781e+00
1.521000000000000000e+03 7.469557189941406250e+01 -4.767792224884033203e+00 -1.310130953788757324e+00 2.037583160400390625e+01 5.719709873199462891e+00 -1.335140585899353027e+00
1.522000000000000000e+03 7.218803405761718750e+01 -8.063309669494628906e+00 4.792742431163787842e-02 2.786342382431030273e+00 8.502809405326843262e-01 3.453243970870971680e+00
1.523000000000000000e+03 7.260323333740234375e+01 -8.083500862121582031e+00 6.160113215446472168e-01 4.578475952148437500e+00 1.558346271514892578e+00 4.667362689971923828e+00
1.524000000000000000e+03 7.360890960693359375e+01 -8.110896110534667969e+00 -2.207859009504318237e-01 1.250645637512207031e+01 3.685701131820678711e+00 6.530490875244140625e+00
1.525000000000000000e+03 7.834443664550781250e+01 -9.592974662780761719e+00 -3.453239798545837402e-01 9.742238998413085938e+00 2.819074392318725586e+00 -1.904041409492492676e+00
1.526000000000000000e+03 7.575939941406250000e+01 -6.920077323913574219e+00 6.740719795227050781e+00 1.681804656982421875e+01 7.067630290985107422e+00 -2.183501005172729492e+00
1.527000000000000000e+03 7.668943786621093750e+01 -1.223072338104248047e+01 -1.204318881034851074e+00 1.088531780242919922e+01 2.904299736022949219e+00 -2.105860561132431030e-01
1.528000000000000000e+03 7.638704681396484375e+01 -5.974354267120361328e+00 5.249895095825195312e+00 1.400086784362792969e+01 5.775228977203369141e+00 1.260110974311828613e+00
1.529000000000000000e+03 7.541019439697265625e+01 -5.262842178344726562e+00 2.731237649917602539e+00 1.922809982299804688e+01 6.587801456451416016e+00 2.742443799972534180e+00
1.530000000000000000e+03 7.855300140380859375e+01 -2.730255365371704102e+00 -3.685908615589141846e-01 9.776770591735839844e+00 2.822453975677490234e+00 1.648298740386962891e+00
1.531000000000000000e+03 7.487949371337890625e+01 -4.889276027679443359e+00 -5.337069034576416016e-01 2.102142524719238281e+01 6.146315097808837891e+00 2.202592939138412476e-01
1.532000000000000000e+03 7.548743438720703125e+01 -7.900814056396484375e+00 8.446233868598937988e-01 1.836654281616210938e+01 5.763350009918212891e+00 -2.250460147857666016e+00
1.533000000000000000e+03 7.642593383789062500e+01 -5.153738498687744141e+00 2.664071321487426758e+00 1.434972763061523438e+01 5.104139804840087891e+00 2.589771032333374023e+00
1.534000000000000000e+03 7.357476806640625000e+01 -8.554320335388183594e+00 -8.937610387802124023e-01 1.174599170684814453e+01 3.255669116973876953e+00 5.533869743347167969e+00
1.535000000000000000e+03 7.158468627929687500e+01 -8.646084785461425781e+00 -3.442161381244659424e-01 2.458233118057250977e+00 6.342051029205322266e-01 2.890073776245117188e+00
1.536000000000000000e+03 7.202354431152343750e+01 -8.295310020446777344e+00 1.478552911430597305e-02 2.797590732574462891e+00 8.437129259109497070e-01 3.342700481414794922e+00
1.537000000000000000e+03 6.847029876708984375e+01 -4.046518325805664062e+00 -2.472373485565185547e+00 2.956407070159912109e-01 -6.530198454856872559e-01 -3.836129903793334961e-01
1.538000000000000000e+03 6.851317596435546875e+01 -9.876868247985839844e+00 -1.314074277877807617e+00 7.732603549957275391e-01 -1.622441858053207397e-01 8.649201393127441406e-01
1.539000000000000000e+03 6.996504974365234375e+01 -8.737316131591796875e+00 -1.574942708015441895e+00 7.465151548385620117e-01 -2.485282719135284424e-01 1.108129382133483887e+00
1.540000000000000000e+03 6.862782287597656250e+01 -9.311809539794921875e+00 -1.724083185195922852e+00 5.426057577133178711e-01 -3.544432222843170166e-01 6.732994318008422852e-01
1.541000000000000000e+03 6.747372436523437500e+01 -8.784127235412597656e+00 -2.700544118881225586e+00 1.764896512031555176e-01 -7.572163343429565430e-01 1.160668730735778809e-01
1.542000000000000000e+03 6.799883270263671875e+01 -9.348863601684570312e+00 -1.953428268432617188e+00 4.042735099792480469e-01 -4.647464454174041748e-01 4.467691779136657715e-01
1.543000000000000000e+03 7.216260528564453125e+01 -8.594151496887207031e+00 4.408499225974082947e-02 3.984539270401000977e+00 1.208587288856506348e+00 3.864663362503051758e+00
1.544000000000000000e+03 2.136270141601562500e+01 -2.066721439361572266e+00 -5.871394276618957520e-02 -9.900720417499542236e-02 -4.731634631752967834e-02 9.980046749114990234e-02
1.545000000000000000e+03 2.075076675415039062e+01 -2.609946966171264648e+00 -3.668473288416862488e-02 -7.398329675197601318e-02 -3.320040926337242126e-02 6.093914806842803955e-02
1.546000000000000000e+03 6.603523254394531250e+01 -8.824922561645507812e+00 -2.956394910812377930e+00 8.360571414232254028e-02 -8.618367314338684082e-01 -8.994536846876144409e-02
1.547000000000000000e+03 6.733339691162109375e+01 -9.385911941528320312e+00 -2.132937908172607422e+00 2.944386005401611328e-01 -5.515497922897338867e-01 2.634535431861877441e-01
1.548000000000000000e+03 2.378054046630859375e+01 -3.206996202468872070e+00 -1.420911848545074463e-01 -6.459297239780426025e-02 -6.200524792075157166e-02 1.407114416360855103e-01
1.549000000000000000e+03 2.591638565063476562e+01 -4.124795436859130859e+00 -2.267564982175827026e-01 -3.188280388712882996e-02 -7.759179174900054932e-02 1.495391279458999634e-01
1.550000000000000000e+03 1.794716262817382812e+01 -8.670352935791015625e+00 -7.225586473941802979e-02 -3.892131894826889038e-02 -3.335315734148025513e-02 -6.691841036081314087e-02
1.551000000000000000e+03 3.029293251037597656e+01 -4.244234561920166016e+00 -4.996023774147033691e-01 -5.195127800107002258e-03 -1.514392495155334473e-01 1.974534690380096436e-01
1.552000000000000000e+03 2.668622398376464844e+01 -3.492124557495117188e+00 -2.834359109401702881e-01 -3.784777969121932983e-02 -9.638510644435882568e-02 1.990135610103607178e-01
1.553000000000000000e+03 3.904081821441650391e+00 2.696868658065795898e+00 -3.434863401707843877e-06 -1.274393798667006195e-05 -4.853640348301269114e-06 -9.572013368597254157e-05
1.554000000000000000e+03 4.609989166259765625e+00 2.643716812133789062e+00 -9.888516069622710347e-05 1.055232423823326826e-04 1.991425733649521135e-06 2.327893162146210670e-04
1.555000000000000000e+03 6.014410018920898438e+00 2.579644918441772461e+00 -1.564786653034389019e-04 2.264931827085092664e-04 2.100435449392534792e-05 2.401576930424198508e-04
1.556000000000000000e+03 5.294052124023437500e+00 3.328160047531127930e+00 -1.105153787648305297e-04 1.938335772138088942e-04 2.499545917089562863e-05 2.448445011395961046e-04
1.557000000000000000e+03 5.967523574829101562e+00 3.304320812225341797e+00 1.020227500703185797e-04 -1.668700133450329304e-04 -1.945417716342490166e-05 -1.822228077799081802e-04
1.558000000000000000e+03 1.028251552581787109e+01 2.593464136123657227e+00 3.147252209600992501e-05 9.275376214645802975e-05 3.726788418134674430e-05 2.672867558430880308e-04
1.559000000000000000e+03 7.314015865325927734e+00 3.316862821578979492e+00 1.245797466253861785e-04 -2.949731133412569761e-04 -5.111800783197395504e-05 -3.247801796533167362e-04
1.560000000000000000e+03 6.638170719146728516e+00 3.306624174118041992e+00 -1.896253525046631694e-04 3.757200902327895164e-04 5.582842277362942696e-05 2.670506073627620935e-04
1.561000000000000000e+03 4.620133399963378906e+00 3.411513328552246094e+00 2.260672590637113899e-05 2.414499931546743028e-06 7.506367637688526884e-06 -1.324354088865220547e-04
1.562000000000000000e+03 1.872619390487670898e+00 2.665884256362915039e+00 -6.853105151094496250e-05 -1.860067277448251843e-05 -2.613951619423460215e-05 1.366895739920437336e-04
1.563000000000000000e+03 1.017014312744140625e+01 3.363909959793090820e+00 -7.496254693251103163e-05 -1.727806666167452931e-04 -7.432296115439385176e-05 -5.196879501454532146e-04
1.564000000000000000e+03 2.523682022094726562e+01 -3.353520393371582031e+00 -2.075423002243041992e-01 -5.386796221137046814e-02 -7.842308282852172852e-02 1.752227693796157837e-01
1.565000000000000000e+03 2.233238601684570312e+01 -2.528088331222534180e+00 -8.808131515979766846e-02 -8.828779309988021851e-02 -5.291073024272918701e-02 1.184595748782157898e-01
1.566000000000000000e+03 2.171379470825195312e+01 -2.649415731430053711e+00 -6.908106058835983276e-02 -7.866970449686050415e-02 -4.432522878050804138e-02 9.304481744766235352e-02
1.567000000000000000e+03 2.106124496459960938e+01 -3.592553853988647461e+00 -3.894487023353576660e-02 -4.769564047455787659e-02 -2.599215321242809296e-02 4.528344422578811646e-02
1.568000000000000000e+03 9.563260078430175781e+00 -2.494716405868530273e+00 -2.242654227302409708e-05 -1.658427354414016008e-04 -5.648078149533830583e-05 -1.158694576588459313e-04
1.569000000000000000e+03 2.596412658691406250e+01 -3.435275793075561523e+00 -2.449335157871246338e-01 -4.489572346210479736e-02 -8.694877475500106812e-02 1.877790689468383789e-01
1.570000000000000000e+03 2.813495445251464844e+01 -3.533747911453247070e+00 -3.673613667488098145e-01 -2.528771571815013885e-02 -1.177947223186492920e-01 2.205141484737396240e-01
1.571000000000000000e+03 3.176881027221679688e+01 -4.233406543731689453e+00 -6.087132692337036133e-01 -1.276409893762320280e-04 -1.826522797346115112e-01 2.074949294328689575e-01
1.572000000000000000e+03 2.886101722717285156e+01 -3.539992570877075195e+00 -4.119121730327606201e-01 -1.981982402503490448e-02 -1.295195966958999634e-01 2.301505208015441895e-01
1.573000000000000000e+03 3.105901527404785156e+01 -3.548224925994873047e+00 -5.575616955757141113e-01 -7.364592514932155609e-03 -1.694778800010681152e-01 2.529256045818328857e-01
1.574000000000000000e+03 1.157044219970703125e+01 -3.561048984527587891e+00 -3.954007479478605092e-05 -1.293437380809336901e-04 -5.066514495410956442e-05 -3.161063796142116189e-05
1.575000000000000000e+03 1.096307086944580078e+01 -2.636187314987182617e+00 -1.038326990965288132e-05 -1.712882367428392172e-04 -5.450145181384868920e-05 -3.112903505098074675e-05
1.576000000000000000e+03 1.124547195434570312e+01 -4.388774394989013672e+00 7.172785990405827761e-05 -2.927939749497454613e-05 1.273453926842194051e-05 8.318002801388502121e-05
1.577000000000000000e+03 4.574726486206054688e+01 -9.730767250061035156e+00 -1.616892457008361816e+00 -1.670140214264392853e-02 -4.900781512260437012e-01 -3.240244090557098389e-01
1.578000000000000000e+03 4.658962631225585938e+01 -9.007247924804687500e+00 -1.800155758857727051e+00 -1.045168098062276840e-02 -5.431822538375854492e-01 -2.768238782882690430e-01
1.579000000000000000e+03 4.869479370117187500e+01 -9.716327667236328125e+00 -1.832962751388549805e+00 -1.491497550159692764e-02 -5.543633103370666504e-01 -3.491242527961730957e-01
1.580000000000000000e+03 1.257375717163085938e+01 -2.806464433670043945e+00 -1.210678965435363352e-04 -9.687352576293051243e-05 -6.538242450915277004e-05 2.127568586729466915e-05
1.581000000000000000e+03 4.422670364379882812e+01 -1.052001762390136719e+01 -1.398435235023498535e+00 -2.626673690974712372e-02 -4.274105727672576904e-01 -3.608816862106323242e-01
1.582000000000000000e+03 3.253448867797851562e+01 -3.532721281051635742e+00 -6.631069183349609375e-01 -1.522039645351469517e-03 -1.993886977434158325e-01 2.642971575260162354e-01
1.583000000000000000e+03 5.168139648437500000e+01 -9.713385581970214844e+00 -2.054574012756347656e+00 -1.131667848676443100e-02 -6.197672486305236816e-01 -3.695477843284606934e-01
1.584000000000000000e+03 3.179566001892089844e+01 -3.542563438415527344e+00 -6.096300482749938965e-01 -3.826476167887449265e-03 -1.840369552373886108e-01 2.585744857788085938e-01
1.585000000000000000e+03 3.401926040649414062e+01 -3.494483232498168945e+00 -7.743893265724182129e-01 2.007240429520606995e-03 -2.317146211862564087e-01 2.743972539901733398e-01
1.586000000000000000e+03 5.256145477294921875e+01 -8.971040725708007812e+00 -2.320773124694824219e+00 -7.837523706257343292e-03 -6.985831856727600098e-01 -3.135660588741302490e-01
1.587000000000000000e+03 5.319770050048828125e+01 -9.699181556701660156e+00 -2.168589353561401367e+00 -1.178960967808961868e-02 -6.541137099266052246e-01 -3.748290240764617920e-01
1.588000000000000000e+03 3.976447677612304688e+01 -9.913004875183105469e+00 -1.201286673545837402e+00 -2.205797284841537476e-02 -3.670033812522888184e-01 -2.822898030281066895e-01
1.589000000000000000e+03 4.428139114379882812e+01 -9.771244049072265625e+00 -1.510169625282287598e+00 -1.809558272361755371e-02 -4.584795534610748291e-01 -3.146245181560516357e-01
1.590000000000000000e+03 4.648088455200195312e+01 -9.718847274780273438e+00 -1.670852422714233398e+00 -1.707579381763935089e-02 -5.063784718513488770e-01 -3.301772773265838623e-01
1.591000000000000000e+03 4.584769821166992188e+01 -9.018150329589843750e+00 -1.739321231842041016e+00 -1.125864498317241669e-02 -5.251739621162414551e-01 -2.722342908382415771e-01
1.592000000000000000e+03 4.212874984741210938e+01 -9.111516952514648438e+00 -1.447548151016235352e+00 -1.366289984434843063e-02 -4.383633136749267578e-01 -2.492033839225769043e-01
1.593000000000000000e+03 4.721472167968750000e+01 -9.713732719421386719e+00 -1.724692463874816895e+00 -1.609359867870807648e-02 -5.222358107566833496e-01 -3.361515402793884277e-01
1.594000000000000000e+03 4.882173919677734375e+01 -8.990765571594238281e+00 -1.988867640495300293e+00 -1.007000170648097992e-02 -5.996812582015991211e-01 -2.924671471118927002e-01
1.595000000000000000e+03 5.556603240966796875e+01 -8.948851585388183594e+00 -2.590873479843139648e+00 -8.155481889843940735e-03 -7.797086834907531738e-01 -3.265759646892547607e-01
1.596000000000000000e+03 5.537326049804687500e+01 -1.038912391662597656e+01 -2.086174964904785156e+00 -1.226679421961307526e-02 -6.295325160026550293e-01 -4.219053089618682861e-01
1.597000000000000000e+03 3.912560653686523438e+01 -9.178750991821289062e+00 -1.234981894493103027e+00 -1.579364575445652008e-02 -3.752326667308807373e-01 -2.296971678733825684e-01
1.598000000000000000e+03 3.953376388549804688e+01 -1.152207851409912109e+01 -1.018977046012878418e+00 -3.967267274856567383e-02 -3.175949156284332275e-01 -3.688184618949890137e-01
1.599000000000000000e+03 5.181051635742187500e+01 -8.975271224975585938e+00 -2.254020452499389648e+00 -7.901919074356555939e-03 -6.785767674446105957e-01 -3.093872368335723877e-01
1.600000000000000000e+03 5.018099594116210938e+01 -9.715899467468261719e+00 -1.943432688713073730e+00 -1.250391360372304916e-02 -5.867809653282165527e-01 -3.606320023536682129e-01
1.601000000000000000e+03 6.552051544189453125e+01 -3.904161691665649414e+00 -3.023576498031616211e+00 7.061521708965301514e-02 -8.858883976936340332e-01 1.150737702846527100e-01
1.602000000000000000e+03 6.327644348144531250e+01 -3.170552968978881836e+00 -2.652120828628540039e+00 5.448688194155693054e-02 -7.792901992797851562e-01 2.104791104793548584e-01
1.603000000000000000e+03 5.471407699584960938e+01 -9.678950309753417969e+00 -2.280411481857299805e+00 -1.200848165899515152e-02 -6.877260208129882812e-01 -3.796137571334838867e-01
1.604000000000000000e+03 5.395807647705078125e+01 -9.691589355468750000e+00 -2.224894523620605469e+00 -1.258448977023363113e-02 -6.712437272071838379e-01 -3.777207732200622559e-01
1.605000000000000000e+03 5.855156326293945312e+01 -8.933610916137695312e+00 -2.839175701141357422e+00 -2.857885789126157761e-03 -8.526101112365722656e-01 -3.269239366054534912e-01
1.606000000000000000e+03 6.154911041259765625e+01 -8.920494079589843750e+00 -3.018216133117675781e+00 6.386655382812023163e-03 -9.035488367080688477e-01 -3.015782237052917480e-01
1.607000000000000000e+03 6.129631423950195312e+01 -1.033122062683105469e+01 -2.222875356674194336e+00 4.386127367615699768e-02 -6.537042260169982910e-01 -3.121401369571685791e-01
1.608000000000000000e+03 5.620292282104492188e+01 -9.651199340820312500e+00 -2.387836694717407227e+00 -8.174019865691661835e-03 -7.188032269477844238e-01 -3.805021047592163086e-01
1.609000000000000000e+03 5.842957305908203125e+01 -9.635377883911132812e+00 -2.517887353897094727e+00 7.239416590891778469e-04 -7.551490068435668945e-01 -3.693622648715972900e-01
1.610000000000000000e+03 3.698424530029296875e+01 -4.102662086486816406e+00 -1.041133165359497070e+00 5.403840448707342148e-03 -3.107188045978546143e-01 2.304424941539764404e-01
1.611000000000000000e+03 3.476346588134765625e+01 -3.470889568328857422e+00 -8.318079113960266113e-01 3.516176482662558556e-03 -2.484875172376632690e-01 2.787895798683166504e-01
1.612000000000000000e+03 3.552265548706054688e+01 -2.757316589355468750e+00 -8.654356598854064941e-01 1.667845644988119602e-03 -2.591303288936614990e-01 3.358075320720672607e-01
1.613000000000000000e+03 3.625469589233398438e+01 -3.427636384963989258e+00 -9.488372206687927246e-01 4.455525428056716919e-03 -2.833144962787628174e-01 2.867493033409118652e-01
1.614000000000000000e+03 6.908906555175781250e+01 -2.900647640228271484e+00 -1.111055135726928711e+00 1.011235952377319336e+00 -2.994577027857303619e-02 -1.183637738227844238e+00
1.615000000000000000e+03 6.701411437988281250e+01 -3.966046094894409180e+00 -2.829120159149169922e+00 1.340844780206680298e-01 -8.085106611251831055e-01 -5.288480594754219055e-02
1.616000000000000000e+03 6.553402709960937500e+01 -3.246465444564819336e+00 -2.465223312377929688e+00 1.406811475753784180e-01 -6.973626613616943359e-01 1.821622438728809357e-02
1.617000000000000000e+03 6.628603363037109375e+01 -3.286449193954467773e+00 -2.351402997970581055e+00 1.929100006818771362e-01 -6.475479006767272949e-01 -8.674033731222152710e-02
1.618000000000000000e+03 5.917415237426757812e+01 -9.632752418518066406e+00 -2.550751686096191406e+00 3.719862783327698708e-03 -7.641095519065856934e-01 -3.611839413642883301e-01
1.619000000000000000e+03 5.992324447631835938e+01 -9.630119323730468750e+00 -2.577375411987304688e+00 7.630932610481977463e-03 -7.709233164787292480e-01 -3.506747782230377197e-01
1.620000000000000000e+03 6.067396926879882812e+01 -9.625707626342773438e+00 -2.596525192260742188e+00 1.308325957506895065e-02 -7.750325798988342285e-01 -3.360252082347869873e-01
1.621000000000000000e+03 6.102181625366210938e+01 -3.839919090270996094e+00 -3.085661172866821289e+00 2.733836183324456215e-03 -9.248781800270080566e-01 2.885378897190093994e-01
1.622000000000000000e+03 6.478019714355468750e+01 -3.214182853698730469e+00 -2.547385931015014648e+00 1.039929091930389404e-01 -7.330179214477539062e-01 9.856357425451278687e-02
1.623000000000000000e+03 6.292540359497070312e+01 -9.588903427124023438e+00 -2.602084875106811523e+00 4.490449279546737671e-02 -7.671540975570678711e-01 -2.590073049068450928e-01
1.624000000000000000e+03 6.591253662109375000e+01 -9.461557388305664062e+00 -2.401319265365600586e+00 1.584282964468002319e-01 -6.728672385215759277e-01 -9.619834600016474724e-04
1.625000000000000000e+03 6.703198242187500000e+01 -3.333829879760742188e+00 -2.205718755722045898e+00 2.674241960048675537e-01 -5.814883708953857422e-01 -2.278718203306198120e-01
1.626000000000000000e+03 6.102878570556640625e+01 -3.139198780059814453e+00 -2.693110466003417969e+00 1.179267186671495438e-02 -8.043953776359558105e-01 3.003287911415100098e-01
1.627000000000000000e+03 5.952521896362304688e+01 -3.130192041397094727e+00 -2.668330669403076172e+00 -1.492672017775475979e-03 -8.009470105171203613e-01 3.286785185337066650e-01
1.628000000000000000e+03 5.801694107055664062e+01 -3.831401109695434570e+00 -2.919093847274780273e+00 -7.425464689731597900e-03 -8.779557943344116211e-01 3.042709231376647949e-01
1.629000000000000000e+03 3.749368667602539062e+01 -1.066495132446289062e+01 -9.955701828002929688e-01 -3.340560570359230042e-02 -3.086927533149719238e-01 -3.012704253196716309e-01
1.630000000000000000e+03 3.681672668457031250e+01 -9.957488059997558594e+00 -1.020710945129394531e+00 -2.516249194741249084e-02 -3.137620091438293457e-01 -2.568322718143463135e-01
1.631000000000000000e+03 3.821153640747070312e+01 -1.064854621887207031e+01 -1.035703301429748535e+00 -3.000556863844394684e-02 -3.197126686573028564e-01 -3.111593425273895264e-01
1.632000000000000000e+03 5.651545333862304688e+01 -3.123542547225952148e+00 -2.538891077041625977e+00 -1.171543542295694351e-02 -7.651818990707397461e-01 3.503446877002716064e-01
1.633000000000000000e+03 5.500841140747070312e+01 -3.129595041275024414e+00 -2.449854135513305664e+00 -1.325083244591951370e-02 -7.389314770698547363e-01 3.522940576076507568e-01
1.634000000000000000e+03 5.801831054687500000e+01 -3.125098466873168945e+00 -2.613739490509033203e+00 -8.242994546890258789e-03 -7.865947484970092773e-01 3.434344232082366943e-01
1.635000000000000000e+03 6.252856826782226562e+01 -3.156154394149780273e+00 -2.678734302520751953e+00 3.487113490700721741e-02 -7.931589484214782715e-01 2.491254359483718872e-01
1.636000000000000000e+03 6.177731704711914062e+01 -3.146365404129028320e+00 -2.691752433776855469e+00 2.556264400482177734e-02 -7.998569607734680176e-01 2.781662940979003906e-01
1.637000000000000000e+03 5.876945114135742188e+01 -3.126895189285278320e+00 -2.643576145172119141e+00 -2.362605649977922440e-03 -7.937815785408020020e-01 3.369843959808349609e-01
1.638000000000000000e+03 6.442832183837890625e+01 -9.535276412963867188e+00 -2.542511701583862305e+00 8.577708899974822998e-02 -7.370203733444213867e-01 -1.614097356796264648e-01
1.639000000000000000e+03 5.050350952148437500e+01 -3.849027872085571289e+00 -2.291326045989990234e+00 -1.028056349605321884e-02 -6.904819607734680176e-01 2.815047204494476318e-01
1.640000000000000000e+03 5.351023483276367188e+01 -3.836719512939453125e+00 -2.561231374740600586e+00 -1.027309987694025040e-02 -7.714513540267944336e-01 2.945551276206970215e-01
1.641000000000000000e+03 5.425757598876953125e+01 -3.133123397827148438e+00 -2.401508808135986328e+00 -1.144599542021751404e-02 -7.238864302635192871e-01 3.511448502540588379e-01
1.642000000000000000e+03 4.973967742919921875e+01 -3.153702735900878906e+00 -2.063585758209228516e+00 -1.219594012945890427e-02 -6.227345466613769531e-01 3.393691182136535645e-01
1.643000000000000000e+03 5.124790573120117188e+01 -3.144577980041503906e+00 -2.182166337966918945e+00 -1.281254552304744720e-02 -6.584936380386352539e-01 3.443335592746734619e-01
1.644000000000000000e+03 3.849213409423828125e+01 -3.371971368789672852e+00 -1.130636572837829590e+00 2.811293350532650948e-03 -3.383475840091705322e-01 2.962867319583892822e-01
1.645000000000000000e+03 4.072386932373046875e+01 -4.004384040832519531e+00 -1.379897713661193848e+00 1.216008095070719719e-03 -4.136044979095458984e-01 2.426672875881195068e-01
1.646000000000000000e+03 3.923687744140625000e+01 -3.352194547653198242e+00 -1.192241311073303223e+00 2.453122986480593681e-03 -3.569364845752716064e-01 2.990586459636688232e-01
1.647000000000000000e+03 4.147409439086914062e+01 -3.984383583068847656e+00 -1.449438333511352539e+00 1.000762800686061382e-03 -4.345312714576721191e-01 2.450386881828308105e-01
1.648000000000000000e+03 3.997895431518554688e+01 -3.333285331726074219e+00 -1.254186034202575684e+00 1.215850119479000568e-03 -3.758910596370697021e-01 3.022887408733367920e-01
1.649000000000000000e+03 5.576052474975585938e+01 -3.125761032104492188e+00 -2.495983123779296875e+00 -9.761311113834381104e-03 -7.517233490943908691e-01 3.513713479042053223e-01
1.650000000000000000e+03 4.899633407592773438e+01 -3.861958742141723633e+00 -2.152455329895019531e+00 -9.127178229391574860e-03 -6.484746932983398438e-01 2.746505141258239746e-01
1.651000000000000000e+03 4.748490905761718750e+01 -3.176353454589843750e+00 -1.881593227386474609e+00 -1.090520992875099182e-02 -5.677495002746582031e-01 3.310030698776245117e-01
1.652000000000000000e+03 4.598548889160156250e+01 -3.897254705429077148e+00 -1.871451735496520996e+00 -5.459207110106945038e-03 -5.630732774734497070e-01 2.612226307392120361e-01
1.653000000000000000e+03 4.898740768432617188e+01 -3.160954475402832031e+00 -2.003926992416381836e+00 -1.265734992921352386e-02 -6.049752831459045410e-01 3.371887505054473877e-01
1.654000000000000000e+03 4.297024917602539062e+01 -3.250341653823852539e+00 -1.504266738891601562e+00 -2.760069910436868668e-03 -4.521080255508422852e-01 3.140470385551452637e-01
1.655000000000000000e+03 4.146852493286132812e+01 -3.291408300399780273e+00 -1.378644585609436035e+00 -6.039232248440384865e-04 -4.137745499610900879e-01 3.082640171051025391e-01
1.656000000000000000e+03 4.222004318237304688e+01 -3.269417285919189453e+00 -1.441683053970336914e+00 -8.225612109526991844e-04 -4.327516853809356689e-01 3.110604584217071533e-01
1.657000000000000000e+03 4.522810745239257812e+01 -3.206048965454101562e+00 -1.693880319595336914e+00 -6.048651877790689468e-03 -5.099787116050720215e-01 3.220764696598052979e-01
1.658000000000000000e+03 4.447309494018554688e+01 -3.218459129333496094e+00 -1.630361557006835938e+00 -5.528866313397884369e-03 -4.907671511173248291e-01 3.194328546524047852e-01
1.659000000000000000e+03 4.371876144409179688e+01 -3.233948945999145508e+00 -1.567468643188476562e+00 -3.119626548141241074e-03 -4.711764752864837646e-01 3.165969848632812500e-01
1.660000000000000000e+03 3.774627685546875000e+01 -3.390857696533203125e+00 -1.069455862045288086e+00 3.943092655390501022e-03 -3.196538388729095459e-01 2.930630445480346680e-01
1.661000000000000000e+03 5.350312423706054688e+01 -3.136356830596923828e+00 -2.349287509918212891e+00 -1.433440018445253372e-02 -7.090865969657897949e-01 3.509036898612976074e-01
1.662000000000000000e+03 5.274717712402343750e+01 -3.140081882476806641e+00 -2.295494318008422852e+00 -1.240857969969511032e-02 -6.923708319664001465e-01 3.484877049922943115e-01
1.663000000000000000e+03 3.383370590209960938e+01 -1.006356048583984375e+01 -8.472662568092346191e-01 -2.520776353776454926e-02 -2.617422044277191162e-01 -2.364212721586227417e-01
1.664000000000000000e+03 3.237865829467773438e+01 -9.371689796447753906e+00 -8.079760670661926270e-01 -1.910950243473052979e-02 -2.481256723403930664e-01 -1.857220083475112915e-01
1.665000000000000000e+03 3.231294250488281250e+01 -1.012764644622802734e+01 -7.622036337852478027e-01 -2.495639026165008545e-02 -2.361479997634887695e-01 -2.268274873495101929e-01
1.666000000000000000e+03 5.049599075317382812e+01 -3.147442817687988281e+00 -2.123398542404174805e+00 -1.406516786664724350e-02 -6.412391066551208496e-01 3.429666161537170410e-01
1.667000000000000000e+03 4.823919296264648438e+01 -3.167819976806640625e+00 -1.942763924598693848e+00 -1.097115501761436462e-02 -5.861205458641052246e-01 3.337126970291137695e-01
1.668000000000000000e+03 3.459367752075195312e+01 -1.003442859649658203e+01 -8.899638652801513672e-01 -2.561975829303264618e-02 -2.746750712394714355e-01 -2.413577437400817871e-01
1.669000000000000000e+03 4.672764205932617188e+01 -3.186621665954589844e+00 -1.818752884864807129e+00 -8.807683363556861877e-03 -5.482681393623352051e-01 3.277592658996582031e-01
1.670000000000000000e+03 1.355138492584228516e+01 5.000121593475341797e+00 -3.240166406612843275e-04 -1.190944531117565930e-04 -1.329333317698910832e-04 -3.857853298541158438e-04
1.671000000000000000e+03 9.414421081542968750e+00 3.357653141021728516e+00 -4.276639810996130109e-05 3.157442843075841665e-04 8.189336222130805254e-05 3.829510242212563753e-04
1.672000000000000000e+03 1.260356140136718750e+01 4.101284027099609375e+00 -3.820561978500336409e-04 7.924356759758666158e-05 -9.084378689294680953e-05 -5.203666514717042446e-04
1.673000000000000000e+03 1.257881927490234375e+01 3.293309926986694336e+00 3.093431296292692423e-04 -3.056851564906537533e-04 1.097398239835456479e-06 1.357173314318060875e-04
1.674000000000000000e+03 2.998622512817382812e+01 -1.014642620086669922e+01 -6.411659121513366699e-01 -2.076364122331142426e-02 -1.985788643360137939e-01 -2.103693783283233643e-01
1.675000000000000000e+03 3.075810623168945312e+01 -1.015080165863037109e+01 -6.801438331604003906e-01 -2.253555133938789368e-02 -2.108038067817687988e-01 -2.161525934934616089e-01
1.676000000000000000e+03 2.779038429260253906e+01 -9.346906661987304688e+00 -5.496953725814819336e-01 -1.045218016952276230e-02 -1.680442690849304199e-01 -1.568349897861480713e-01
1.677000000000000000e+03 2.922571945190429688e+01 -1.012789916992187500e+01 -6.038881540298461914e-01 -1.856726035475730896e-02 -1.867366135120391846e-01 -2.055840641260147095e-01
1.678000000000000000e+03 3.153878211975097656e+01 -1.014695835113525391e+01 -7.206196784973144531e-01 -2.423995919525623322e-02 -2.234578877687454224e-01 -2.216858416795730591e-01
1.679000000000000000e+03 9.278907775878906250e+00 4.159255027770996094e+00 9.553703421261161566e-05 -3.696343628689646721e-04 -8.222919859690591693e-05 -5.578758427873253822e-04
1.680000000000000000e+03 2.000354957580566406e+01 -9.353745460510253906e+00 -1.853234022855758667e-01 -1.470270007848739624e-02 -6.000782921910285950e-02 -1.227221190929412842e-01
1.681000000000000000e+03 1.938594055175781250e+01 -8.810624122619628906e+00 -1.369683146476745605e-01 -1.953240297734737396e-02 -4.695021361112594604e-02 -9.478110074996948242e-02
1.682000000000000000e+03 6.749116420745849609e+00 -3.323138236999511719e+00 -2.652593320817686617e-05 1.780157181201502681e-04 4.544693365460261703e-05 1.825371728045865893e-04
1.683000000000000000e+03 2.600516080856323242e+00 -6.596304893493652344e+00 -2.871298347599804401e-04 -4.195899600745178759e-05 -9.872664668364450336e-05 -3.060594317503273487e-04
1.684000000000000000e+03 7.472393989562988281e+00 -4.137041568756103516e+00 8.984177111415192485e-05 4.793337939190678298e-05 4.133254333282820880e-05 2.091442001983523369e-04
1.685000000000000000e+03 8.862494468688964844e+00 -2.539536476135253906e+00 2.741448770393617451e-05 1.415858278051018715e-04 5.070009501650929451e-05 1.701605506241321564e-04
1.686000000000000000e+03 5.917737007141113281e+00 -2.630317926406860352e+00 -6.357249367283657193e-05 1.794745476217940450e-04 3.477061545709148049e-05 1.643963769311085343e-04
1.687000000000000000e+03 5.637779712677001953e+00 -4.251414775848388672e+00 6.731192115694284439e-05 -2.214337873738259077e-04 -4.623656059266068041e-05 -2.543372975196689367e-04
1.688000000000000000e+03 3.467424154281616211e+00 -4.703112125396728516e+00 1.817430020309984684e-04 9.535454591969028115e-05 8.312926365761086345e-05 3.009718784596771002e-04
1.689000000000000000e+03 1.614050388336181641e+00 -5.226114273071289062e+00 -3.717200888786464930e-04 1.148548290075268596e-05 -1.080703805200755596e-04 -1.483984815422445536e-04
1.690000000000000000e+03 2.770051002502441406e+01 -1.005918598175048828e+01 -5.290611982345581055e-01 -1.311394851654767990e-02 -1.626525521278381348e-01 -1.933567374944686890e-01
1.691000000000000000e+03 2.846526527404785156e+01 -1.009139156341552734e+01 -5.655689835548400879e-01 -1.651159115135669708e-02 -1.746241748332977295e-01 -1.990493983030319214e-01
1.692000000000000000e+03 2.618262672424316406e+01 -1.005199718475341797e+01 -4.560562968254089355e-01 -7.824931293725967407e-03 -1.391643732786178589e-01 -1.857228875160217285e-01
1.693000000000000000e+03 2.300187873840332031e+01 -9.951590538024902344e+00 -3.170095682144165039e-01 1.146281138062477112e-03 -9.475898742675781250e-02 -1.681876331567764282e-01
1.694000000000000000e+03 2.060290527343750000e+01 -9.757273674011230469e+00 -2.267031967639923096e-01 -1.016776449978351593e-02 -7.106129080057144165e-02 -1.450151503086090088e-01
1.695000000000000000e+03 2.379497909545898438e+01 -9.976157188415527344e+00 -3.533600866794586182e-01 1.701908535324037075e-03 -1.054974496364593506e-01 -1.719384640455245972e-01
1.696000000000000000e+03 2.458925819396972656e+01 -1.002994918823242188e+01 -3.852118253707885742e-01 -5.185003392398357391e-04 -1.157191023230552673e-01 -1.768821775913238525e-01
1.697000000000000000e+03 2.547592544555664062e+01 -9.297922134399414062e+00 -4.264102876186370850e-01 -1.731022377498447895e-03 -1.284423917531967163e-01 -1.458902657032012939e-01
1.698000000000000000e+03 2.539581680297851562e+01 -1.005149269104003906e+01 -4.199877381324768066e-01 -4.300153348594903946e-03 -1.272863596677780151e-01 -1.817724704742431641e-01
1.699000000000000000e+03 1.858978462219238281e+01 -1.358145809173583984e+01 -2.577401995658874512e-01 -7.865933328866958618e-02 -1.009198650717735291e-01 -2.192716896533966064e-01
1.700000000000000000e+03 2.136735916137695312e+01 -9.916651725769042969e+00 -2.542775869369506836e-01 -3.460261737927794456e-03 -7.732135802507400513e-02 -1.547243744134902954e-01
1.701000000000000000e+03 1.999861717224121094e+01 -2.363554477691650391e+00 -1.869900710880756378e-02 -6.112794950604438782e-02 -2.394808642566204071e-02 4.303093999624252319e-02
1.702000000000000000e+03 2.218351936340332031e+01 -9.967648506164550781e+00 -2.840560078620910645e-01 1.277515839319676161e-04 -8.517847210168838501e-02 -1.615596115589141846e-01
1.703000000000000000e+03 2.157698059082031250e+01 2.227090358734130859e+00 -1.102034151554107666e-01 -3.248911499977111816e-01 -1.305283755064010620e-01 2.869965136051177979e-01
1.704000000000000000e+03 2.115572357177734375e+01 5.921483993530273438e+00 -1.908415108919143677e-01 -5.723796486854553223e-01 -2.289663404226303101e-01 4.207915067672729492e-01
1.705000000000000000e+03 1.803388214111328125e+01 -1.024359703063964844e+01 -1.522900462150573730e-01 -6.648161262273788452e-02 -6.563150137662887573e-02 -1.384997814893722534e-01
1.706000000000000000e+03 1.082443809509277344e+01 9.057225227355957031e+00 1.637146779103204608e-04 1.555045833811163902e-03 5.156281404197216034e-04 6.786478334106504917e-04
1.707000000000000000e+03 1.109176445007324219e+01 1.063537597656250000e+01 7.062077056616544724e-04 1.558030955493450165e-03 6.792715867049992085e-04 1.119023771025240421e-03
1.708000000000000000e+03 1.332563781738281250e+01 6.157504081726074219e+00 4.971238668076694012e-04 9.699090878712013364e-05 1.782344334060326219e-04 4.176542570348829031e-04
1.709000000000000000e+03 6.020822525024414062e+00 -1.471179294586181641e+01 4.749558866024017334e-03 -2.919641556218266487e-03 5.489751347340643406e-04 -7.700765039771795273e-03
1.710000000000000000e+03 6.508792400360107422e+00 -1.345333194732666016e+01 1.126926872530020773e-04 4.960319027304649353e-03 1.521903555840253830e-03 -3.764606546610593796e-03
1.711000000000000000e+03 1.877134895324707031e+01 1.103883361816406250e+01 -3.925472199916839600e-01 -1.107477545738220215e+00 -4.500074386596679688e-01 5.599354505538940430e-01
1.712000000000000000e+03 2.080782127380371094e+01 7.300346374511718750e+00 -2.419724315404891968e-01 -6.795727014541625977e-01 -2.764635384082794189e-01 4.708377122879028320e-01
1.713000000000000000e+03 1.078466892242431641e+01 -3.354799985885620117e+00 1.544218321214430034e-05 8.048625750234350562e-05 2.877853148675058037e-05 1.103318936657160521e-04
1.714000000000000000e+03 8.425630569458007812e+00 -2.037644004821777344e+01 -1.561149060726165771e-01 -1.293333023786544800e-01 -8.563446253538131714e-02 -1.893174648284912109e-01
1.715000000000000000e+03 7.799513339996337891e+00 -1.884663200378417969e+01 -1.477026641368865967e-01 -2.393351495265960693e-02 -5.149085447192192078e-02 -8.975899219512939453e-02
1.716000000000000000e+03 1.004703712463378906e+01 4.155787944793701172e+00 6.195608875714242458e-06 3.816375683527439833e-04 1.163499546237289906e-04 4.821935144718736410e-04
1.717000000000000000e+03 1.012233924865722656e+01 -6.160126209259033203e+00 1.422698260284960270e-04 -2.577400300651788712e-04 -3.464106339379213750e-05 1.474357704864814878e-04
1.718000000000000000e+03 1.593489551544189453e+01 -1.858905029296875000e+01 -1.899899095296859741e-01 -1.857231259346008301e-01 -1.127139106392860413e-01 -2.104504257440567017e-01
1.719000000000000000e+03 1.616159248352050781e+01 -1.528219127655029297e+01 -2.468872666358947754e-01 -1.658605486154556274e-01 -1.238243430852890015e-01 -2.178849726915359497e-01
1.720000000000000000e+03 9.529117584228515625e+00 -1.989872741699218750e+01 -1.440017372369766235e-01 -2.070726454257965088e-01 -1.053223162889480591e-01 -2.147372812032699585e-01
1.721000000000000000e+03 2.000315093994140625e+01 -3.257848620414733887e-01 -2.625501528382301331e-02 -1.504155397415161133e-01 -5.300116539001464844e-02 9.214093536138534546e-02
1.722000000000000000e+03 3.620605468750000000e+00 2.171409034729003906e+01 -6.625633686780929565e-02 -8.151613175868988037e-02 -4.433174058794975281e-02 8.181408792734146118e-02
1.723000000000000000e+03 7.772931671142578125e+01 -3.582240676879882812e+01 1.838527247309684753e-02 6.524972438812255859e+00 1.963007330894470215e+00 1.805571317672729492e-01
1.724000000000000000e+03 7.506824493408203125e+01 -3.770172119140625000e+01 9.440706670284271240e-02 5.922285079956054688e+00 1.805007696151733398e+00 1.437911987304687500e-01
1.725000000000000000e+03 7.464491271972656250e+01 -3.209862518310546875e+01 1.693327724933624268e-01 5.972099781036376953e+00 1.842429876327514648e+00 5.013223290443420410e-01
1.726000000000000000e+03 7.597966003417968750e+01 -2.207722282409667969e+01 8.130553364753723145e-02 7.578383445739746094e+00 2.297906637191772461e+00 9.101645946502685547e-01
1.727000000000000000e+03 7.800454711914062500e+01 -2.772954750061035156e+01 3.198301047086715698e-02 7.443257808685302734e+00 2.242572307586669922e+00 3.558816015720367432e-01
1.728000000000000000e+03 7.536215209960937500e+01 1.933338356018066406e+01 1.071124374866485596e-01 5.925915718078613281e+00 1.809908390045166016e+00 -5.973324179649353027e-01
1.729000000000000000e+03 7.732288360595703125e+01 3.464431762695312500e+01 1.909032650291919708e-02 5.250211238861083984e+00 1.580790400505065918e+00 -8.557369560003280640e-02
1.730000000000000000e+03 7.586390686035156250e+01 3.285326004028320312e+01 5.130109190940856934e-02 5.140631675720214844e+00 1.557579874992370605e+00 -1.799806058406829834e-01
1.731000000000000000e+03 7.708530426025390625e+01 -2.347104072570800781e+01 5.580686032772064209e-02 7.858489990234375000e+00 2.374289035797119141e+00 6.703002452850341797e-01
1.732000000000000000e+03 7.633782196044921875e+01 -3.044767951965332031e+01 9.074328094720840454e-02 6.617237567901611328e+00 2.012394189834594727e+00 4.441650807857513428e-01
1.733000000000000000e+03 7.648374176025390625e+01 -2.898968887329101562e+01 9.424930065870285034e-02 6.795989513397216797e+00 2.067071676254272461e+00 5.060631632804870605e-01
1.734000000000000000e+03 7.784106445312500000e+01 -3.455663681030273438e+01 1.383426785469055176e-02 6.623600959777832031e+00 1.991230607032775879e+00 1.898236423730850220e-01
1.735000000000000000e+03 7.689318847656250000e+01 -2.617987632751464844e+01 6.969146430492401123e-02 7.305598258972167969e+00 2.212586879730224609e+00 5.919449329376220703e-01
1.736000000000000000e+03 7.701982116699218750e+01 -2.481609916687011719e+01 6.811948865652084351e-02 7.584524631500244141e+00 2.295793294906616211e+00 6.276965141296386719e-01
1.737000000000000000e+03 7.640340423583984375e+01 -3.432460021972656250e+01 5.348113924264907837e-02 6.273387908935546875e+00 1.898060798645019531e+00 2.798264026641845703e-01
1.738000000000000000e+03 7.475015258789062500e+01 -3.033642387390136719e+01 1.780717968940734863e-01 6.125603199005126953e+00 1.891102552413940430e+00 6.061205863952636719e-01
1.739000000000000000e+03 7.632865142822265625e+01 -3.189527511596679688e+01 8.311512321233749390e-02 6.514284610748291016e+00 1.979219913482666016e+00 3.978366553783416748e-01
1.740000000000000000e+03 7.496791839599609375e+01 -4.043176651000976562e+01 1.428322792053222656e-01 5.831398487091064453e+00 1.792269229888916016e+00 3.914785385131835938e-02
1.741000000000000000e+03 7.798093414306640625e+01 2.224866104125976562e+01 1.971562393009662628e-02 6.204370021820068359e+00 1.867225646972656250e+00 -2.368353754281997681e-01
1.742000000000000000e+03 7.665769195556640625e+01 2.080140686035156250e+01 5.434368178248405457e-02 6.090541362762451172e+00 1.843465447425842285e+00 -4.142691195011138916e-01
1.743000000000000000e+03 7.523126220703125000e+01 2.209124755859375000e+01 9.607313573360443115e-02 5.650928974151611328e+00 1.724100589752197266e+00 -5.018868446350097656e-01
1.744000000000000000e+03 7.809577178955078125e+01 1.255884838104248047e+01 2.943395264446735382e-02 7.767926216125488281e+00 2.339207887649536133e+00 -4.435586929321289062e-01
1.745000000000000000e+03 7.584008789062500000e+01 8.413131713867187500e+00 6.090229749679565430e-02 7.543418884277343750e+00 2.281296253204345703e+00 -1.015539646148681641e+00
1.746000000000000000e+03 7.680347442626953125e+01 1.392247581481933594e+01 7.032933086156845093e-02 7.045758247375488281e+00 2.134826183319091797e+00 -6.394436359405517578e-01
1.747000000000000000e+03 7.657964324951171875e+01 2.357729339599609375e+01 4.699040204286575317e-02 5.810120582580566406e+00 1.757133245468139648e+00 -3.441465198993682861e-01
1.748000000000000000e+03 7.796975708007812500e+01 2.638809394836425781e+01 1.500627771019935608e-02 5.811245441436767578e+00 1.747875452041625977e+00 -1.753112971782684326e-01
1.749000000000000000e+03 7.683158111572265625e+01 1.254765319824218750e+01 6.550788879394531250e-02 7.285375595092773438e+00 2.205265045166015625e+00 -6.874163746833801270e-01
1.750000000000000000e+03 7.786386871337890625e+01 3.044821739196777344e+01 1.556617673486471176e-02 5.512166976928710938e+00 1.658319950103759766e+00 -1.273453086614608765e-01
1.751000000000000000e+03 7.660366821289062500e+01 2.767081642150878906e+01 3.815971687436103821e-02 5.515123367309570312e+00 1.665984988212585449e+00 -2.526777684688568115e-01
1.752000000000000000e+03 7.832883453369140625e+01 -2.084364700317382812e+01 1.250263303518295288e-02 9.022782325744628906e+00 2.710585594177246094e+00 4.648048877716064453e-01
1.753000000000000000e+03 7.721087646484375000e+01 -2.080626296997070312e+01 2.399891242384910583e-02 8.444428443908691406e+00 2.540528297424316406e+00 7.194113731384277344e-01
1.754000000000000000e+03 7.624813842773437500e+01 -1.694104766845703125e+01 -2.273986935615539551e-01 8.746910095214843750e+00 2.555853366851806641e+00 8.833075761795043945e-01
1.755000000000000000e+03 7.549360656738281250e+01 3.435676956176757812e+01 5.736611410975456238e-02 5.031664848327636719e+00 1.526709318161010742e+00 -1.638909280300140381e-01
1.756000000000000000e+03 7.631169128417968750e+01 2.216318368911743164e+00 -5.655786395072937012e-01 9.340744972229003906e+00 2.632549762725830078e+00 -6.834247708320617676e-01
1.757000000000000000e+03 7.669638061523437500e+01 1.942036056518554688e+01 5.913305655121803284e-02 6.252186298370361328e+00 1.893395900726318359e+00 -4.558890461921691895e-01
1.758000000000000000e+03 7.826356506347656250e+01 7.059244155883789062e+00 8.059013634920120239e-04 9.174752235412597656e+00 2.752667427062988281e+00 -5.053189396858215332e-01
1.759000000000000000e+03 7.721768951416015625e+01 5.760538578033447266e+00 -4.973097518086433411e-02 8.884628295898437500e+00 2.650469064712524414e+00 -7.514593601226806641e-01
1.760000000000000000e+03 7.829299926757812500e+01 2.532822489738464355e-01 -4.352045357227325439e-01 1.056329822540283203e+01 3.038428306579589844e+00 3.764471113681793213e-01
1.761000000000000000e+03 7.847999572753906250e+01 -1.537173843383789062e+01 -1.211816892027854919e-01 1.039163875579833984e+01 3.081136941909790039e+00 1.961273252964019775e-01
1.762000000000000000e+03 7.732324218750000000e+01 -1.673910522460937500e+01 -1.689683496952056885e-01 9.416685104370117188e+00 2.774315118789672852e+00 6.092107892036437988e-01
1.763000000000000000e+03 7.849545288085937500e+01 -6.410449981689453125e+00 1.142396569252014160e+00 7.914517879486083984e+00 2.717074394226074219e+00 -1.332896351814270020e-01
1.764000000000000000e+03 7.838577270507812500e+01 -8.341217041015625000e+00 4.191154241561889648e-01 8.945787429809570312e+00 2.809470891952514648e+00 -1.871563076972961426e+00
1.765000000000000000e+03 7.876246643066406250e+01 -5.231799602508544922e+00 4.677770435810089111e-01 7.359045982360839844e+00 2.348047018051147461e+00 1.218594908714294434e+00
1.766000000000000000e+03 7.573227691650390625e+01 -8.166201591491699219e+00 2.905093431472778320e-01 1.700307273864746094e+01 5.188074588775634766e+00 -2.255966424942016602e+00
1.767000000000000000e+03 7.621614837646484375e+01 3.149992370605468750e+01 4.680158942937850952e-02 5.242234706878662109e+00 1.586710929870605469e+00 -1.902026236057281494e-01
1.768000000000000000e+03 7.672987365722656250e+01 1.804219818115234375e+01 6.065659224987030029e-02 6.429368972778320312e+00 1.947007656097412109e+00 -4.958613514900207520e-01
1.769000000000000000e+03 7.693692016601562500e+01 9.798037528991699219e+00 4.966983571648597717e-02 7.843856811523437500e+00 2.368057966232299805e+00 -7.649906277656555176e-01
1.770000000000000000e+03 7.701688385009765625e+01 8.436343193054199219e+00 3.444834426045417786e-02 8.167074203491210938e+00 2.460456848144531250e+00 -7.890737056732177734e-01
1.771000000000000000e+03 7.743248748779296875e+01 -1.535984897613525391e+01 -2.928254902362823486e-01 9.795671463012695312e+00 2.850853681564331055e+00 4.151119291782379150e-01
1.772000000000000000e+03 7.711495971679687500e+01 7.089183807373046875e+00 -4.651226103305816650e-03 8.510786056518554688e+00 2.551840305328369141e+00 -7.810960412025451660e-01
1.773000000000000000e+03 7.761413574218750000e+01 -1.409460353851318359e+01 -4.333980381488800049e-01 1.019375228881835938e+01 2.928106307983398438e+00 6.721033155918121338e-02
1.774000000000000000e+03 7.838687133789062500e+01 1.659449696540832520e+00 -1.982327550649642944e-01 1.042578887939453125e+01 3.068266868591308594e+00 -6.140662357211112976e-02
1.775000000000000000e+03 7.714291381835937500e+01 -2.213456535339355469e+01 4.972545057535171509e-02 8.146094322204589844e+00 2.458745956420898438e+00 7.020693421363830566e-01
1.776000000000000000e+03 7.732955169677734375e+01 -1.812794303894042969e+01 -6.517058610916137695e-02 9.081617355346679688e+00 2.704933881759643555e+00 6.903692483901977539e-01
1.777000000000000000e+03 7.474116325378417969e+00 1.310528564453125000e+01 -2.321279607713222504e-03 7.334685884416103363e-03 1.504021929576992989e-03 3.590363310649991035e-03
1.778000000000000000e+03 1.143541812896728516e+01 8.055119514465332031e+00 -1.019836781779304147e-04 -1.183200278319418430e-03 -3.855551767628639936e-04 -7.642541895620524883e-04
1.779000000000000000e+03 1.294312667846679688e+01 7.312247276306152344e+00 -5.118058179505169392e-04 -5.947505705989897251e-04 -3.319669340271502733e-04 -5.870527820661664009e-04
1.780000000000000000e+03 1.931490516662597656e+01 1.458444595336914062e+01 -5.197948217391967773e-01 -8.735409379005432129e-01 -4.180007278919219971e-01 5.341750979423522949e-01
1.781000000000000000e+03 4.837431907653808594e+00 3.637109375000000000e+01 5.192589387297630310e-02 -5.738384723663330078e-01 -1.565737724304199219e-01 1.029562428593635559e-01
1.782000000000000000e+03 1.985238909721374512e+00 2.749367523193359375e+01 -2.177562098950147629e-03 -2.661264836788177490e-01 -8.049121499061584473e-02 1.064213812351226807e-01
1.783000000000000000e+03 3.535503149032592773e+00 3.012450599670410156e+01 1.149872690439224243e-02 -4.075964689254760742e-01 -1.188293248414993286e-01 1.612898558378219604e-01
1.784000000000000000e+03 1.955665349960327148e+00 2.609843635559082031e+01 -5.265457555651664734e-03 -2.024058997631072998e-01 -6.230140477418899536e-02 9.999851137399673462e-02
1.785000000000000000e+03 3.294913291931152344e+00 2.737026977539062500e+01 -3.902740310877561569e-03 -3.046983778476715088e-01 -9.258033335208892822e-02 1.675401479005813599e-01
1.786000000000000000e+03 6.349332809448242188e+00 2.988917350769042969e+01 4.572812467813491821e-02 -4.739445149898529053e-01 -1.284649223089218140e-01 2.467866092920303345e-01
1.787000000000000000e+03 3.683264255523681641e+00 3.156243133544921875e+01 2.163913473486900330e-02 -4.567583501338958740e-01 -1.305357664823532104e-01 1.558115631341934204e-01
1.788000000000000000e+03 3.413893222808837891e+00 2.873205757141113281e+01 9.188551455736160278e-03 -3.597160875797271729e-01 -1.051582619547843933e-01 1.630605459213256836e-01
1.789000000000000000e+03 6.062650680541992188e+00 3.824198532104492188e+01 7.717793434858322144e-02 -5.878933072090148926e-01 -1.532146185636520386e-01 8.663102239370346069e-02
1.790000000000000000e+03 2.043935537338256836e+00 3.717688369750976562e+01 8.760540746152400970e-03 -6.229562163352966309e-01 -1.842586994171142578e-01 4.116520658135414124e-02
1.791000000000000000e+03 3.915607690811157227e+00 3.458026123046875000e+01 4.487987235188484192e-02 -5.488335490226745605e-01 -1.511860936880111694e-01 1.229087933897972107e-01
1.792000000000000000e+03 3.957232475280761719e+00 3.306020736694335938e+01 3.273978456854820251e-02 -5.098804831504821777e-01 -1.431422084569931030e-01 1.477751135826110840e-01
1.793000000000000000e+03 3.876948595046997070e+00 -3.395994949340820312e+01 1.851332373917102814e-02 -2.919271290302276611e-01 -8.202413469552993774e-02 -6.428351998329162598e-02
1.794000000000000000e+03 3.419234275817871094e+00 -2.987747573852539062e+01 6.877443287521600723e-03 -2.272912859916687012e-01 -6.612414866685867310e-02 -8.188529312610626221e-02
1.795000000000000000e+03 2.007440328598022461e+00 -2.878037452697753906e+01 7.937956252135336399e-04 -1.973640024662017822e-01 -5.897105857729911804e-02 -5.529477819800376892e-02
1.796000000000000000e+03 4.445725917816162109e+00 -2.844338607788085938e+01 4.728355910629034042e-03 -2.049872130155563354e-01 -6.007765606045722961e-02 -1.047595217823982239e-01
1.797000000000000000e+03 3.268125772476196289e+00 2.312821197509765625e+01 -4.891414567828178406e-02 -1.276576071977615356e-01 -5.297152325510978699e-02 1.144639179110527039e-01
1.798000000000000000e+03 1.817260742187500000e+00 -1.318988227844238281e+01 6.570093100890517235e-04 1.055860193446278572e-03 5.138608394190669060e-04 2.535240259021520615e-03
1.799000000000000000e+03 1.751528501510620117e+00 2.042031860351562500e+01 -1.277636922895908356e-02 -3.938602749258279800e-03 -5.014491267502307892e-03 1.178063265979290009e-02
1.800000000000000000e+03 1.888948559761047363e+00 1.896014404296875000e+01 -8.757127448916435242e-03 9.225208195857703686e-04 -2.350382041186094284e-03 -1.548898639157414436e-03
1.801000000000000000e+03 5.533585548400878906e+00 1.821694564819335938e+01 -4.445023834705352783e-02 -3.959481790661811829e-02 -2.521351724863052368e-02 1.522213686257600784e-02
1.802000000000000000e+03 1.718622446060180664e+00 -1.900720787048339844e+01 -8.126264438033103943e-03 -1.846500206738710403e-03 -2.991829533129930496e-03 -4.196195397526025772e-03
1.803000000000000000e+03 2.947758913040161133e+00 -1.761933708190917969e+01 -1.280277408659458160e-02 -1.033997163176536560e-02 -6.942823994904756546e-03 2.144898753613233566e-03
1.804000000000000000e+03 5.433812618255615234e+00 1.336357784271240234e+01 5.737436003983020782e-03 -7.279895711690187454e-03 -4.627380403690040112e-04 2.216300461441278458e-03
1.805000000000000000e+03 1.810787081718444824e+00 -2.175206565856933594e+01 -7.389664649963378906e-03 -3.567071259021759033e-02 -1.291811373084783554e-02 -2.916347607970237732e-02
1.806000000000000000e+03 6.692055225372314453e+00 -1.983433151245117188e+01 -9.968147426843643188e-02 -5.077053979039192200e-02 -4.513560608029365540e-02 -9.297482669353485107e-02
1.807000000000000000e+03 3.960726976394653320e+00 5.216594219207763672e+00 -1.649674522923305631e-04 3.142423811368644238e-04 4.478247865336015821e-05 1.884298108052462339e-04
1.808000000000000000e+03 2.647991180419921875e+00 7.639096736907958984e+00 4.226259188726544380e-04 5.074001819593831897e-05 1.420097833033651114e-04 -4.448453255463391542e-04
1.809000000000000000e+03 4.508627891540527344e+00 1.453139495849609375e+01 1.043767109513282776e-02 -1.237224601209163666e-02 -5.803726962767541409e-04 6.042540189810097218e-04
1.810000000000000000e+03 1.861033678054809570e+00 1.744563293457031250e+01 -2.663796767592430115e-03 5.102274008095264435e-03 7.315431721508502960e-04 -1.008795388042926788e-02
1.811000000000000000e+03 3.473285913467407227e+00 1.992321395874023438e+01 -4.192938655614852905e-02 -4.322846606373786926e-02 -2.554735541343688965e-02 2.828696742653846741e-02
1.812000000000000000e+03 2.656484842300415039e+00 8.928055763244628906e+00 3.347311576362699270e-04 1.600299146957695484e-04 1.484283275203779340e-04 -1.382442133035510778e-04
1.813000000000000000e+03 4.952987670898437500e+00 -4.464541912078857422e+00 1.067976609192555770e-05 2.221968607045710087e-04 6.986298831179738045e-05 2.567956398706883192e-04
1.814000000000000000e+03 2.756628036499023438e+00 -4.516941070556640625e+00 -3.348471364006400108e-04 1.374644052702933550e-04 -5.921481715631671250e-05 -1.186311419587582350e-04
1.815000000000000000e+03 1.941864848136901855e+00 -4.132486820220947266e+00 3.028824576176702976e-04 -2.110686764353886247e-04 2.754413253569509834e-05 -1.091848534997552633e-04
1.816000000000000000e+03 7.729808807373046875e+00 -9.168370246887207031e+00 -1.594109926372766495e-04 6.403001025319099426e-04 1.442667416995391250e-04 -8.739019540371373296e-05
1.817000000000000000e+03 3.285300970077514648e+00 -2.859170150756835938e+01 5.781981162726879120e-03 -2.008302509784698486e-01 -5.851447954773902893e-02 -8.372463285923004150e-02
1.818000000000000000e+03 2.331770896911621094e+00 -3.560561752319335938e+01 7.673073094338178635e-03 -3.255550265312194824e-01 -9.536459296941757202e-02 -3.060322254896163940e-02
1.819000000000000000e+03 3.614656686782836914e+00 -3.680329132080078125e+01 1.525997649878263474e-02 -3.289587497711181641e-01 -9.410963207483291626e-02 -4.037773609161376953e-02
1.820000000000000000e+03 2.711334705352783203e+00 -7.794854640960693359e+00 3.700235974974930286e-04 1.473478478146716952e-04 1.552114263176918030e-04 2.918834506999701262e-04
1.821000000000000000e+03 5.469193458557128906e+00 -3.537510299682617188e+01 3.186100721359252930e-02 -2.990953922271728516e-01 -8.017031848430633545e-02 -7.026477158069610596e-02
1.822000000000000000e+03 2.842377901077270508e+00 -2.018560600280761719e+01 -2.186433598399162292e-02 -2.984856441617012024e-02 -1.551386993378400803e-02 -2.857461757957935333e-02
1.823000000000000000e+03 1.886816024780273438e+00 -2.316239929199218750e+01 -8.269323967397212982e-03 -6.311456859111785889e-02 -2.141516841948032379e-02 -4.208544641733169556e-02
1.824000000000000000e+03 3.283577203750610352e+00 -2.585049819946289062e+01 -4.141606390476226807e-03 -1.433000415563583374e-01 -4.423249512910842896e-02 -8.364444226026535034e-02
1.825000000000000000e+03 4.587293148040771484e+00 -2.579154968261718750e+01 -8.644546382129192352e-03 -1.607480347156524658e-01 -5.081777274608612061e-02 -1.115974187850952148e-01
1.826000000000000000e+03 3.578585386276245117e+00 -1.503668594360351562e+01 2.570231910794973373e-03 -7.110581267625093460e-03 -1.362104783765971661e-03 2.950013149529695511e-03
1.827000000000000000e+03 3.049263477325439453e+00 -1.422945404052734375e+01 2.997053088620305061e-03 -3.490879433229565620e-03 -1.481479412177577615e-04 3.029919927939772606e-03
1.828000000000000000e+03 3.035700321197509766e+00 -1.296243858337402344e+01 3.183967201039195061e-03 -2.266793977469205856e-03 2.751519787125289440e-04 2.078739227727055550e-03
1.829000000000000000e+03 5.801854133605957031e+00 -9.431391716003417969e+00 1.155979261966422200e-04 5.191551172174513340e-04 1.904259115690365434e-04 1.538010692456737161e-04
1.830000000000000000e+03 2.739079475402832031e+00 1.020176219940185547e+01 1.282350742258131504e-03 2.371735718043055385e-05 3.918204165529459715e-04 -1.357789966277778149e-03
1.831000000000000000e+03 3.249613285064697266e+00 1.288537883758544922e+01 5.356192123144865036e-03 -4.181763157248497009e-03 3.523287887219339609e-04 -3.565408755093812943e-03
1.832000000000000000e+03 6.829821109771728516e+00 1.664284133911132812e+01 8.186300285160541534e-03 -1.136700622737407684e-02 -9.542116895318031311e-04 1.792741194367408752e-02
1.833000000000000000e+03 5.593983173370361328e+00 1.669422149658203125e+01 -4.553217440843582153e-03 -2.653752081096172333e-02 -9.327221661806106567e-03 6.374164484441280365e-03
1.834000000000000000e+03 4.308421134948730469e+00 1.699485588073730469e+01 -5.320951808243989944e-03 -3.273043781518936157e-02 -1.141541730612516403e-02 -1.560599077492952347e-03
1.835000000000000000e+03 5.331798076629638672e+00 1.534591770172119141e+01 9.730847552418708801e-03 -2.157714776694774628e-02 -3.553890157490968704e-03 4.474320914596319199e-03
1.836000000000000000e+03 7.448334217071533203e+00 1.509248828887939453e+01 -8.645906345918774605e-04 1.637014374136924744e-02 4.651665687561035156e-03 1.372362859547138214e-02
1.837000000000000000e+03 4.081454753875732422e+00 -8.808210372924804688e+00 4.166364669799804688e-04 2.024349087150767446e-04 1.857214228948578238e-04 3.520273894537240267e-04
1.838000000000000000e+03 9.423982620239257812e+00 -7.128384113311767578e+00 -9.445984323974698782e-05 2.584152680356055498e-04 4.918662307318300009e-05 -1.189377726404927671e-04
1.839000000000000000e+03 8.630990028381347656e+00 -8.129599571228027344e+00 2.140944707207381725e-04 -4.426368395797908306e-04 -6.856270920252427459e-05 1.713806996122002602e-04
1.840000000000000000e+03 1.193530750274658203e+01 7.048333644866943359e+00 3.435325634200125933e-04 7.161041721701622009e-04 3.178910119459033012e-04 6.357132806442677975e-04
1.841000000000000000e+03 2.161877822875976562e+01 4.545280456542968750e+00 -1.677058786153793335e-01 -4.531443715095520020e-01 -1.862550824880599976e-01 3.875128924846649170e-01
1.842000000000000000e+03 1.588561344146728516e+01 1.936152648925781250e+01 -3.676932752132415771e-01 -9.039826393127441406e-01 -3.815027773380279541e-01 4.510845243930816650e-01
1.843000000000000000e+03 2.222795104980468750e+01 7.055813670158386230e-01 -1.139015704393386841e-01 -2.372288554906845093e-01 -1.053391247987747192e-01 2.560338079929351807e-01
1.844000000000000000e+03 2.353224182128906250e+01 4.373605728149414062e+00 -2.431476116180419922e-01 -3.548072576522827148e-01 -1.793864667415618896e-01 4.741027057170867920e-01
1.845000000000000000e+03 1.898521041870117188e+01 1.820322227478027344e+01 -3.569518029689788818e-01 -8.078390955924987793e-01 -3.494372665882110596e-01 4.036631584167480469e-01
1.846000000000000000e+03 1.968729972839355469e+01 1.304597187042236328e+01 -4.970387816429138184e-01 -8.900099396705627441e-01 -4.161145985126495361e-01 5.692284703254699707e-01
1.847000000000000000e+03 1.689404678344726562e+01 -1.408694171905517578e+01 -2.442363351583480835e-01 -1.351427286863327026e-01 -1.138137206435203552e-01 -2.119207531213760376e-01
1.848000000000000000e+03 1.760074615478515625e+01 -1.293825531005859375e+01 -2.344205230474472046e-01 -1.025600284337997437e-01 -1.010941639542579651e-01 -2.025362253189086914e-01
1.849000000000000000e+03 1.540939903259277344e+01 -1.648303794860839844e+01 -2.440740913152694702e-01 -1.871208697557449341e-01 -1.293584853410720825e-01 -2.193807065486907959e-01
1.850000000000000000e+03 2.052849769592285156e+01 8.689392089843750000e+00 -3.104994595050811768e-01 -7.624292373657226562e-01 -3.218786120414733887e-01 5.121540427207946777e-01
1.851000000000000000e+03 2.133371162414550781e+01 1.199469375610351562e+01 -4.473709166049957275e-01 -6.879242062568664551e-01 -3.405885398387908936e-01 5.550828576087951660e-01
1.852000000000000000e+03 1.082927989959716797e+01 -1.955619812011718750e+01 -1.515191048383712769e-01 -2.466149777173995972e-01 -1.194402202963829041e-01 -1.802164316177368164e-01
1.853000000000000000e+03 1.370335006713867188e+01 -1.978653144836425781e+01 -1.570166051387786865e-01 -2.294678539037704468e-01 -1.159453392028808594e-01 -1.946716606616973877e-01
1.854000000000000000e+03 1.254669189453125000e+01 2.209515380859375000e+01 -1.823084801435470581e-01 -7.092426419258117676e-01 -2.674653530120849609e-01 4.669626057147979736e-01
1.855000000000000000e+03 1.148537445068359375e+01 2.116007995605468750e+01 -2.876089215278625488e-01 -6.065092086791992188e-01 -2.682354450225830078e-01 4.832905232906341553e-01
1.856000000000000000e+03 4.537654876708984375e+00 -1.541184806823730469e+01 4.359465092420578003e-03 -1.105277612805366516e-02 -2.007993170991539955e-03 -5.375969922170042992e-04
1.857000000000000000e+03 4.512784957885742188e+00 -1.147357082366943359e+01 2.159609226509928703e-03 -1.420309767127037048e-03 2.217898145318031311e-04 -2.723775687627494335e-04
1.858000000000000000e+03 5.242495536804199219e+00 -4.015403366088867188e+01 2.497158013284206390e-02 -3.315107524394989014e-01 -9.196174889802932739e-02 -2.795108966529369354e-02
1.859000000000000000e+03 4.880122661590576172e+00 4.037970733642578125e+01 4.234524816274642944e-02 -6.205796003341674805e-01 -1.734703034162521362e-01 4.178560897707939148e-02
1.860000000000000000e+03 7.192800903320312500e+01 -4.661684513092041016e+00 -3.162512481212615967e-01 2.158974647521972656e+00 5.528169870376586914e-01 -2.904766559600830078e+00
1.861000000000000000e+03 7.051053619384765625e+01 -4.010095596313476562e+00 -1.168335795402526855e+00 1.236215353012084961e+00 2.036386914551258087e-02 -1.637833833694458008e+00
1.862000000000000000e+03 7.261715698242187500e+01 -4.423721313476562500e+00 3.506177961826324463e-01 5.126932621002197266e+00 1.643265128135681152e+00 -4.785894870758056641e+00
1.863000000000000000e+03 7.317628479003906250e+01 -4.378798484802246094e+00 8.187028765678405762e-02 8.960579872131347656e+00 2.712734937667846680e+00 -5.985529422760009766e+00
1.864000000000000000e+03 7.336782836914062500e+01 -4.226074218750000000e+00 -3.924851715564727783e-01 1.023108291625976562e+01 2.951579332351684570e+00 -5.710704803466796875e+00
1.865000000000000000e+03 7.430567169189453125e+01 -4.331137657165527344e+00 -1.864372491836547852e+00 1.679390144348144531e+01 4.478858470916748047e+00 -3.729256391525268555e+00
1.866000000000000000e+03 7.190447235107421875e+01 -8.845832824707031250e+00 -1.043360456824302673e-01 3.435745239257812500e+00 9.994227886199951172e-01 3.437289953231811523e+00
1.867000000000000000e+03 7.288349914550781250e+01 -8.382176399230957031e+00 2.197766751050949097e-01 6.634808063507080078e+00 2.056375503540039062e+00 5.355575561523437500e+00
1.868000000000000000e+03 7.713774108886718750e+01 -1.000666618347167969e+01 -1.110192537307739258e+00 1.187856769561767578e+01 3.230512619018554688e+00 -1.810235500335693359e+00
1.869000000000000000e+03 7.426072692871093750e+01 -4.067091464996337891e+00 -2.025804996490478516e+00 1.539726448059082031e+01 4.011437892913818359e+00 -3.706360340118408203e+00
1.870000000000000000e+03 7.774681091308593750e+01 -3.014845371246337891e+00 -5.367423295974731445e-01 1.098661327362060547e+01 3.134961366653442383e+00 2.058300495147705078e+00
1.871000000000000000e+03 7.482603454589843750e+01 -8.792679786682128906e+00 -2.155326128005981445e+00 1.680761337280273438e+01 4.395686626434326172e+00 1.426466226577758789e+00
1.872000000000000000e+03 7.569055938720703125e+01 -4.943482875823974609e+00 1.575187921524047852e+00 1.751982116699218750e+01 5.728502750396728516e+00 2.541352033615112305e+00
1.873000000000000000e+03 7.735061645507812500e+01 -4.174197673797607422e+00 2.702136635780334473e-01 1.186141490936279297e+01 3.639488697052001953e+00 2.413894891738891602e+00
1.874000000000000000e+03 7.639270782470703125e+01 -5.603068828582763672e+00 3.969393253326416016e+00 1.408214473724365234e+01 5.415461540222167969e+00 2.190699577331542969e+00
1.875000000000000000e+03 7.677896881103515625e+01 -4.443140506744384766e+00 6.565152406692504883e-01 1.355511283874511719e+01 4.263488292694091797e+00 2.497193574905395508e+00
1.876000000000000000e+03 7.626692962646484375e+01 -7.016090869903564453e+00 4.656502723693847656e+00 1.439402198791503906e+01 5.715157508850097656e+00 -1.794003605842590332e+00
1.877000000000000000e+03 7.589051818847656250e+01 -7.537220001220703125e+00 2.946201324462890625e+00 1.659178733825683594e+01 5.861396312713623047e+00 -2.901507616043090820e+00
1.878000000000000000e+03 7.649436950683593750e+01 -7.575497627258300781e+00 2.662149190902709961e+00 1.397418117523193359e+01 4.990899085998535156e+00 -2.630617380142211914e+00
1.879000000000000000e+03 7.608595275878906250e+01 -6.038747787475585938e+00 6.149079322814941406e+00 1.488668918609619141e+01 6.310730457305908203e+00 1.196953177452087402e+00
1.880000000000000000e+03 7.747683715820312500e+01 -9.303302764892578125e+00 -4.977151751518249512e-01 1.161108016967773438e+01 3.334009408950805664e+00 -2.234101295471191406e+00
1.881000000000000000e+03 7.551681518554687500e+01 -8.330929756164550781e+00 -4.414170086383819580e-01 1.732164955139160156e+01 5.064069747924804688e+00 -1.557388305664062500e+00
1.882000000000000000e+03 7.730674743652343750e+01 -7.751515388488769531e+00 1.712602376937866211e+00 1.157362365722656250e+01 3.985867738723754883e+00 -2.258237600326538086e+00
1.883000000000000000e+03 7.695014190673828125e+01 -5.758118152618408203e+00 3.179689407348632812e+00 1.199929904937744141e+01 4.553696632385253906e+00 1.511636495590209961e+00
1.884000000000000000e+03 7.031854248046875000e+01 -9.348714828491210938e+00 -7.928877472877502441e-01 1.553668022155761719e+00 2.282340824604034424e-01 1.829313039779663086e+00
1.885000000000000000e+03 6.910225677490234375e+01 -9.835129737854003906e+00 -1.090550780296325684e+00 1.015274047851562500e+00 -2.258302457630634308e-02 1.158868432044982910e+00
1.886000000000000000e+03 6.965252685546875000e+01 -9.829151153564453125e+00 -8.668727874755859375e-01 1.379413962364196777e+00 1.537623405456542969e-01 1.527170658111572266e+00
1.887000000000000000e+03 6.979770660400390625e+01 -9.293277740478515625e+00 -1.130548596382141113e+00 1.069421887397766113e+00 -1.833804324269294739e-02 1.342421412467956543e+00
1.888000000000000000e+03 6.663432312011718750e+01 -9.422661781311035156e+00 -2.287090301513671875e+00 2.173204720020294189e-01 -6.209309697151184082e-01 1.164911165833473206e-01
1.889000000000000000e+03 6.788841247558593750e+01 -9.933494567871093750e+00 -1.495015501976013184e+00 5.816725492477416992e-01 -2.740028798580169678e-01 6.176053881645202637e-01
1.890000000000000000e+03 6.845864105224609375e+01 -3.446338415145874023e+00 -1.821859240531921387e+00 4.936617016792297363e-01 -3.984592556953430176e-01 -6.337188482284545898e-01
1.891000000000000000e+03 2.241231727600097656e+01 -3.178734540939331055e+00 -8.777494728565216064e-02 -6.429179012775421143e-02 -4.562002047896385193e-02 9.765388071537017822e-02
1.892000000000000000e+03 2.239494514465332031e+01 3.441215276718139648e+00 -1.689838171005249023e-01 -3.630142807960510254e-01 -1.595994234085083008e-01 3.790540099143981934e-01
1.893000000000000000e+03 2.376611137390136719e+01 -2.467670202255249023e+00 -1.503730416297912598e-01 -9.002387523651123047e-02 -7.211907207965850830e-02 1.752317100763320923e-01
1.894000000000000000e+03 2.002544975280761719e+01 -1.457614660263061523e+00 -2.520296722650527954e-02 -9.774353355169296265e-02 -3.688395023345947266e-02 6.447126716375350952e-02
1.895000000000000000e+03 2.129756546020507812e+01 -3.005567789077758789e+00 -5.326203629374504089e-02 -6.513451784849166870e-02 -3.551896661520004272e-02 6.969635933637619019e-02
1.896000000000000000e+03 2.454408645629882812e+01 -2.535880088806152344e+00 -1.866866052150726318e-01 -8.187712728977203369e-02 -8.056912571191787720e-02 1.966265588998794556e-01
1.897000000000000000e+03 2.672295570373535156e+01 -2.848437070846557617e+00 -2.965420782566070557e-01 -4.987082257866859436e-02 -1.039238721132278442e-01 2.351905852556228638e-01
1.898000000000000000e+03 8.549512863159179688e+00 4.156164169311523438e+00 -1.285112230107188225e-04 5.398371722549200058e-04 1.233977818628773093e-04 3.985189250670373440e-04
1.899000000000000000e+03 2.743399810791015625e+01 -2.864875078201293945e+00 -3.358046412467956543e-01 -4.264647141098976135e-02 -1.135353296995162964e-01 2.481945008039474487e-01
1.900000000000000000e+03 9.594678878784179688e+00 -3.128278970718383789e+00 -2.960072743007913232e-05 2.132892695954069495e-04 5.510656046681106091e-05 2.066469896817579865e-04
1.901000000000000000e+03 8.962069511413574219e+00 -3.284057140350341797e+00 -4.796294160769321024e-05 -1.539526274427771568e-04 -6.057467180653475225e-05 -1.535439514555037022e-04
1.902000000000000000e+03 7.859656333923339844e+00 4.134137153625488281e+00 2.087039756588637829e-04 -4.327794886194169521e-04 -6.722265970893204212e-05 -4.032768483739346266e-04
1.903000000000000000e+03 7.675337314605712891e+00 4.992524623870849609e+00 -2.500317350495606661e-04 8.064137655310332775e-04 1.669146004132926464e-04 3.109102253802120686e-04
1.904000000000000000e+03 3.764296770095825195e+00 6.306335449218750000e+00 3.006375918630510569e-04 -2.821148518705740571e-05 8.172783418558537960e-05 -2.415928756818175316e-04
1.905000000000000000e+03 2.457594156265258789e+00 4.885111331939697266e+00 1.276272669201716781e-04 3.844862658297643065e-05 4.982276732334867120e-05 -1.747669593896716833e-04
1.906000000000000000e+03 3.195463180541992188e+00 3.648600578308105469e+00 3.619819108280353248e-05 4.804677519132383168e-05 2.527348988223820925e-05 -1.429622643627226353e-04
1.907000000000000000e+03 1.411244034767150879e+00 4.991806983947753906e+00 -1.572164619574323297e-04 -1.682433648966252804e-04 -9.763794514583423734e-05 3.195929166395217180e-04
1.908000000000000000e+03 1.708462715148925781e+00 3.386742115020751953e+00 1.278704439755529165e-04 -2.779454516712576151e-04 -4.502250158111564815e-05 1.123703332268632948e-04
1.909000000000000000e+03 3.034988403320312500e+01 -2.870977878570556641e+00 -5.109143853187561035e-01 -1.818316243588924408e-02 -1.587292551994323730e-01 2.910931706428527832e-01
1.910000000000000000e+03 2.541566085815429688e+01 -2.085897207260131836e+00 -2.375124394893646240e-01 -8.331381529569625854e-02 -9.624787420034408569e-02 2.438173890113830566e-01
1.911000000000000000e+03 2.450448799133300781e+01 -3.264866590499877930e+00 -1.719353944063186646e-01 -6.004172563552856445e-02 -6.959313154220581055e-02 1.586174815893173218e-01
1.912000000000000000e+03 2.181172370910644531e+01 -3.174489736557006836e+00 -6.773694604635238647e-02 -6.200331449508666992e-02 -3.892207890748977661e-02 8.010974526405334473e-02
1.913000000000000000e+03 2.302385902404785156e+01 -2.491192102432250977e+00 -1.160901114344596863e-01 -9.232471138238906860e-02 -6.252444535493850708e-02 1.462903022766113281e-01
1.914000000000000000e+03 2.891396903991699219e+01 -1.509636521339416504e+00 -4.263360798358917236e-01 -5.161422863602638245e-02 -1.433850824832916260e-01 3.497325181961059570e-01
1.915000000000000000e+03 2.740983772277832031e+01 -3.521982431411743164e+00 -3.245716094970703125e-01 -3.089582547545433044e-02 -1.066402271389961243e-01 2.101762741804122925e-01
1.916000000000000000e+03 3.037262725830078125e+01 -2.214007854461669922e+00 -5.112668275833129883e-01 -2.593124285340309143e-02 -1.611594259738922119e-01 3.319067656993865967e-01
1.917000000000000000e+03 7.477996826171875000e+00 -3.359140396118164062e+00 -5.047727245255373418e-05 -9.839727135840803385e-05 -4.466236350708641112e-05 -1.102832029573619366e-04
1.918000000000000000e+03 1.074286365509033203e+01 -5.247571945190429688e+00 -7.684098090976476669e-05 1.083480092347599566e-04 9.452109225094318390e-06 -6.408883928088471293e-05
1.919000000000000000e+03 3.255469512939453125e+01 -2.858229637145996094e+00 -6.569207906723022461e-01 -5.532736890017986298e-03 -1.987360566854476929e-01 3.120790123939514160e-01
1.920000000000000000e+03 2.961600494384765625e+01 -2.862773895263671875e+00 -4.640794098377227783e-01 -2.355162426829338074e-02 -1.462893038988113403e-01 2.821759581565856934e-01
1.921000000000000000e+03 3.032357215881347656e+01 -3.549810171127319336e+00 -5.068071484565734863e-01 -1.099965069442987442e-02 -1.553420424461364746e-01 2.459212541580200195e-01
1.922000000000000000e+03 4.355241012573242188e+01 -9.800334930419921875e+00 -1.457148313522338867e+00 -1.998649351298809052e-02 -4.431404471397399902e-01 -3.092575669288635254e-01
1.923000000000000000e+03 4.560839462280273438e+01 -1.186644935607910156e+01 -1.263244867324829102e+00 -3.473386913537979126e-02 -3.893936276435852051e-01 -4.442520737648010254e-01
1.924000000000000000e+03 4.205276107788085938e+01 -9.854093551635742188e+00 -1.352005720138549805e+00 -2.052091248333454132e-02 -4.117580056190490723e-01 -2.994737029075622559e-01
1.925000000000000000e+03 4.276906585693359375e+01 -1.059598255157470703e+01 -1.302770614624023438e+00 -2.759119495749473572e-02 -3.991085290908813477e-01 -3.517293334007263184e-01
1.926000000000000000e+03 4.709645462036132812e+01 -1.043399429321289062e+01 -1.586725592613220215e+00 -2.481251209974288940e-02 -4.834614098072052002e-01 -3.837435245513916016e-01
1.927000000000000000e+03 4.826816177368164062e+01 -1.191608905792236328e+01 -1.372546911239624023e+00 -3.700938075780868530e-02 -4.228668808937072754e-01 -4.704925119876861572e-01
1.928000000000000000e+03 4.795230484008789062e+01 -9.714219093322753906e+00 -1.778298497200012207e+00 -1.649725623428821564e-02 -5.384387373924255371e-01 -3.427740335464477539e-01
1.929000000000000000e+03 4.051816558837890625e+01 -9.899514198303222656e+00 -1.249771237373352051e+00 -2.123828791081905365e-02 -3.813028633594512939e-01 -2.880592048168182373e-01
1.930000000000000000e+03 4.349650192260742188e+01 -1.137540340423583984e+01 -1.237975835800170898e+00 -3.485840559005737305e-02 -3.818502724170684814e-01 -4.010049700736999512e-01
1.931000000000000000e+03 4.930100631713867188e+01 -1.046445178985595703e+01 -1.720548272132873535e+00 -2.002513594925403595e-02 -5.221720337867736816e-01 -4.043534100055694580e-01
1.932000000000000000e+03 5.004013061523437500e+01 -1.047054958343505859e+01 -1.764015793800354004e+00 -1.985890604555606842e-02 -5.351623892784118652e-01 -4.104097485542297363e-01
1.933000000000000000e+03 3.902515029907226562e+01 -9.914601325988769531e+00 -1.155588507652282715e+00 -2.307397127151489258e-02 -3.535987436771392822e-01 -2.750520706176757812e-01
1.934000000000000000e+03 4.043157196044921875e+01 -1.067090892791748047e+01 -1.155918836593627930e+00 -2.871116809546947479e-02 -3.553890287876129150e-01 -3.335422277450561523e-01
1.935000000000000000e+03 5.129904174804687500e+01 -1.198380279541015625e+01 -1.475514173507690430e+00 -2.098880149424076080e-02 -4.489508867263793945e-01 -4.874066710472106934e-01
1.936000000000000000e+03 5.092797088623046875e+01 -9.715965270996093750e+00 -1.998929262161254883e+00 -1.238258462399244308e-02 -6.033935546875000000e-01 -3.644507825374603271e-01
1.937000000000000000e+03 3.403442764282226562e+01 -2.137688875198364258e+00 -7.419315576553344727e-01 -5.202741827815771103e-03 -2.241402864456176758e-01 3.711673021316528320e-01
1.938000000000000000e+03 3.327607345581054688e+01 -3.516456604003906250e+00 -7.183886766433715820e-01 8.974813972599804401e-04 -2.152473628520965576e-01 2.691735923290252686e-01
1.939000000000000000e+03 5.309041976928710938e+01 -1.044817447662353516e+01 -1.951324343681335449e+00 -1.443819981068372726e-02 -5.897287726402282715e-01 -4.227702021598815918e-01
1.940000000000000000e+03 3.755581665039062500e+01 -9.937619209289550781e+00 -1.066165447235107422e+00 -2.363123558461666107e-02 -3.269389867782592773e-01 -2.632683515548706055e-01
1.941000000000000000e+03 3.965776443481445312e+01 -1.068964099884033203e+01 -1.113864898681640625e+00 -3.118556179106235504e-02 -3.435151576995849609e-01 -3.249669075012207031e-01
1.942000000000000000e+03 5.546081924438476562e+01 -9.663295745849609375e+00 -2.336490154266357422e+00 -1.083743944764137268e-02 -7.041983008384704590e-01 -3.806188702583312988e-01
1.943000000000000000e+03 4.491452789306640625e+01 -1.123646450042724609e+01 -1.329687237739562988e+00 -3.270250558853149414e-02 -4.087169468402862549e-01 -4.081727564334869385e-01
1.944000000000000000e+03 4.494248962402343750e+01 -1.047922420501708984e+01 -1.446364402770996094e+00 -2.377543039619922638e-02 -4.410419762134552002e-01 -3.668996095657348633e-01
1.945000000000000000e+03 4.782129669189453125e+01 -1.044168472290039062e+01 -1.631770849227905273e+00 -2.202341705560684204e-02 -4.961382746696472168e-01 -3.916470110416412354e-01
1.946000000000000000e+03 5.610825729370117188e+01 -1.036808395385742188e+01 -2.128221273422241211e+00 -6.964921485632658005e-03 -6.405558586120605469e-01 -4.194398224353790283e-01
1.947000000000000000e+03 4.121823883056640625e+01 -1.063700675964355469e+01 -1.206787467002868652e+00 -2.777174301445484161e-02 -3.703677654266357422e-01 -3.396861255168914795e-01
1.948000000000000000e+03 5.905275726318359375e+01 -1.033751010894775391e+01 -2.227852344512939453e+00 1.494533009827136993e-02 -6.638721227645874023e-01 -3.811339139938354492e-01
1.949000000000000000e+03 5.694560623168945312e+01 -9.644090652465820312e+00 -2.436229467391967773e+00 -5.416373722255229950e-03 -7.324937582015991211e-01 -3.789706826210021973e-01
1.950000000000000000e+03 5.078845214843750000e+01 -1.047096633911132812e+01 -1.810044288635253906e+00 -1.546958275139331818e-02 -5.476541519165039062e-01 -4.163145124912261963e-01
1.951000000000000000e+03 3.607705307006835938e+01 -9.979578971862792969e+00 -9.781206250190734863e-01 -2.434520237147808075e-02 -3.007397353649139404e-01 -2.505242824554443359e-01
1.952000000000000000e+03 3.892348861694335938e+01 -1.066524696350097656e+01 -1.077901721000671387e+00 -2.864157594740390778e-02 -3.319630026817321777e-01 -3.171487152576446533e-01
1.953000000000000000e+03 5.462690734863281250e+01 -1.041256904602050781e+01 -2.042786836624145508e+00 -1.415560115128755569e-02 -6.170827150344848633e-01 -4.218996167182922363e-01
1.954000000000000000e+03 6.553658294677734375e+01 -2.585516691207885742e+00 -1.974076867103576660e+00 2.432222962379455566e-01 -5.192563533782958984e-01 -1.034600809216499329e-01
1.955000000000000000e+03 5.386289596557617188e+01 -1.043216323852539062e+01 -1.997345089912414551e+00 -1.373319327831268311e-02 -6.033235192298889160e-01 -4.225374758243560791e-01
1.956000000000000000e+03 3.700062179565429688e+01 -3.408611059188842773e+00 -1.008625507354736328e+00 3.902265103533864021e-03 -3.014169633388519287e-01 2.901658713817596436e-01
1.957000000000000000e+03 3.627735137939453125e+01 -2.052527427673339844e+00 -8.878479599952697754e-01 -5.851771566085517406e-04 -2.665299475193023682e-01 3.890069127082824707e-01
1.958000000000000000e+03 6.356211090087890625e+01 -1.025500965118408203e+01 -2.137399196624755859e+00 1.130827069282531738e-01 -6.072949767112731934e-01 -1.698370426893234253e-01
1.959000000000000000e+03 6.142425918579101562e+01 -9.617616653442382812e+00 -2.608872413635253906e+00 2.053203433752059937e-02 -7.765021324157714844e-01 -3.172878623008728027e-01
1.960000000000000000e+03 5.684249877929687500e+01 -1.035358524322509766e+01 -2.162363052368164062e+00 -1.186274108476936817e-03 -6.490648388862609863e-01 -4.132075905799865723e-01
1.961000000000000000e+03 6.367724609375000000e+01 -9.565141677856445312e+00 -2.579708814620971680e+00 6.249889731407165527e-02 -7.551630139350891113e-01 -2.169121801853179932e-01
1.962000000000000000e+03 3.534218215942382812e+01 -1.000563812255859375e+01 -9.347747564315795898e-01 -2.434773556888103485e-02 -2.877367436885833740e-01 -2.470896393060684204e-01
1.963000000000000000e+03 3.746594238281250000e+01 -1.140866374969482422e+01 -9.391359090805053711e-01 -3.896596282720565796e-02 -2.934305667877197266e-01 -3.378224372863769531e-01
1.964000000000000000e+03 6.027965545654296875e+01 -3.134196996688842773e+00 -2.684997558593750000e+00 7.784209679812192917e-03 -8.031640052795410156e-01 3.163267374038696289e-01
1.965000000000000000e+03 6.054887390136718750e+01 -1.033624553680419922e+01 -2.233185529708862305e+00 3.186765685677528381e-02 -6.603953838348388672e-01 -3.408507108688354492e-01
1.966000000000000000e+03 6.478056335449218750e+01 -2.544494628906250000e+00 -2.077656984329223633e+00 1.800111681222915649e-01 -5.692937374114990234e-01 5.227520596235990524e-03
1.967000000000000000e+03 6.402494812011718750e+01 -2.510084152221679688e+00 -2.156759500503540039e+00 1.374664008617401123e-01 -6.057879328727722168e-01 9.009285271167755127e-02
1.968000000000000000e+03 6.517505645751953125e+01 -9.500435829162597656e+00 -2.485086917877197266e+00 1.168541759252548218e-01 -7.104698419570922852e-01 -9.191492944955825806e-02
1.969000000000000000e+03 5.980007934570312500e+01 -1.033696842193603516e+01 -2.234471797943115234e+00 2.128647454082965851e-02 -6.639556288719177246e-01 -3.634153604507446289e-01
1.970000000000000000e+03 6.204765701293945312e+01 -1.031693744659423828e+01 -2.203799247741699219e+00 6.171491742134094238e-02 -6.426253318786621094e-01 -2.758600413799285889e-01
1.971000000000000000e+03 6.280371856689453125e+01 -1.029111480712890625e+01 -2.176086902618408203e+00 8.466152846813201904e-02 -6.274276375770568848e-01 -2.294479608535766602e-01
1.972000000000000000e+03 3.477760314941406250e+01 -2.781544685363769531e+00 -8.120136857032775879e-01 2.062673011096194386e-04 -2.435422241687774658e-01 3.309188485145568848e-01
1.973000000000000000e+03 6.629135131835937500e+01 -2.632242441177368164e+00 -1.843669533729553223e+00 3.219664692878723145e-01 -4.565109014511108398e-01 -2.427735924720764160e-01
1.974000000000000000e+03 6.102561950683593750e+01 -2.433719873428344727e+00 -2.320221900939941406e+00 3.833602741360664368e-02 -6.845657229423522949e-01 2.897390723228454590e-01
1.975000000000000000e+03 5.573596954345703125e+01 -2.417309284210205078e+00 -2.246241331100463867e+00 -9.511196054518222809e-03 -6.767257452011108398e-01 3.877415359020233154e-01
1.976000000000000000e+03 6.327518081665039062e+01 -2.482233762741088867e+00 -2.219280958175659180e+00 1.001928895711898804e-01 -6.357263922691345215e-01 1.583251655101776123e-01
1.977000000000000000e+03 6.252642822265625000e+01 -2.460793256759643555e+00 -2.264685392379760742e+00 7.718283683061599731e-02 -6.562507748603820801e-01 2.122607529163360596e-01
1.978000000000000000e+03 1.095553970336914062e+01 3.360222816467285156e+00 1.452023425372317433e-04 8.322110807057470083e-05 6.852703518234193325e-05 3.549592511262744665e-04
1.979000000000000000e+03 1.160361385345458984e+01 4.995666503906250000e+00 -1.960403315024450421e-04 -3.746162692550569773e-04 -1.711969816824421287e-04 -8.098822436295449734e-04
1.980000000000000000e+03 6.652960205078125000e+01 -1.004850673675537109e+01 -1.807398438453674316e+00 3.414020240306854248e-01 -4.397989213466644287e-01 2.442668080329895020e-01
1.981000000000000000e+03 5.800533676147460938e+01 -2.412777662277221680e+00 -2.316241264343261719e+00 1.765298424288630486e-03 -6.943427920341491699e-01 3.647377490997314453e-01
1.982000000000000000e+03 6.027404022216796875e+01 -2.426289796829223633e+00 -2.331743955612182617e+00 2.176290005445480347e-02 -6.929943561553955078e-01 3.164771795272827148e-01
1.983000000000000000e+03 5.951703643798828125e+01 -2.419587612152099609e+00 -2.334095716476440430e+00 1.468738168478012085e-02 -6.958224773406982422e-01 3.364509046077728271e-01
1.984000000000000000e+03 5.875907516479492188e+01 -2.414444923400878906e+00 -2.328472852706909180e+00 4.619244020432233810e-03 -6.971560716629028320e-01 3.529695868492126465e-01
1.985000000000000000e+03 6.431925201416015625e+01 -1.021128463745117188e+01 -2.083113193511962891e+00 1.484172195196151733e-01 -5.804088115692138672e-01 -9.793557226657867432e-02
1.986000000000000000e+03 5.422967910766601562e+01 -2.430633544921875000e+00 -2.179359436035156250e+00 -1.285588555037975311e-02 -6.576645970344543457e-01 3.941033184528350830e-01
1.987000000000000000e+03 6.507009124755859375e+01 -1.016149997711181641e+01 -2.011585235595703125e+00 1.955351829528808594e-01 -5.448150038719177246e-01 -7.527869194746017456e-03
1.988000000000000000e+03 5.046430206298828125e+01 -2.446311235427856445e+00 -1.955944418907165527e+00 -1.431921590119600296e-02 -5.910791158676147461e-01 3.933056592941284180e-01
1.989000000000000000e+03 3.626802444458007812e+01 -2.737910509109497070e+00 -9.191607236862182617e-01 1.799358287826180458e-03 -2.752084136009216309e-01 3.404417932033538818e-01
1.990000000000000000e+03 5.199544525146484375e+01 -3.143110036849975586e+00 -2.239529132843017578e+00 -1.440505962818861008e-02 -6.761803030967712402e-01 3.474144637584686279e-01
1.991000000000000000e+03 5.196781921386718750e+01 -2.441235303878784180e+00 -2.052624702453613281e+00 -1.389453001320362091e-02 -6.199557781219482422e-01 3.949038088321685791e-01
1.992000000000000000e+03 5.725191879272460938e+01 -2.412399768829345703e+00 -2.297814846038818359e+00 -4.302933812141418457e-03 -6.906353235244750977e-01 3.749948441982269287e-01
1.993000000000000000e+03 5.649418640136718750e+01 -2.412976980209350586e+00 -2.274161815643310547e+00 -5.290137138217687607e-03 -6.838355660438537598e-01 3.817806839942932129e-01
1.994000000000000000e+03 6.911397552490234375e+01 -3.496625423431396484e+00 -1.565632104873657227e+00 6.985949873924255371e-01 -2.601111233234405518e-01 -9.202453494071960449e-01
1.995000000000000000e+03 6.704056549072265625e+01 -2.682701826095581055e+00 -1.683320164680480957e+00 4.425489008426666260e-01 -3.722313642501831055e-01 -4.179689288139343262e-01
1.996000000000000000e+03 3.923413848876953125e+01 -2.671257734298706055e+00 -1.140643596649169922e+00 5.569415516220033169e-04 -3.420259952545166016e-01 3.546385467052459717e-01
1.997000000000000000e+03 4.820772933959960938e+01 -2.467870473861694336e+00 -1.803276896476745605e+00 -1.372409239411354065e-02 -5.451003313064575195e-01 3.886454701423645020e-01
1.998000000000000000e+03 4.444481658935546875e+01 -2.519297122955322266e+00 -1.529820084571838379e+00 -5.866091232746839523e-03 -4.607058465480804443e-01 3.763293027877807617e-01
1.999000000000000000e+03 4.219514465332031250e+01 -2.578834295272827148e+00 -1.362272024154663086e+00 -2.694837283343076706e-03 -4.094900488853454590e-01 3.682056665420532227e-01
2.000000000000000000e+03 4.597696685791015625e+01 -3.196413040161132812e+00 -1.756522655487060547e+00 -8.366942405700683594e-03 -5.294668674468994141e-01 3.247877359390258789e-01
2.001000000000000000e+03 4.594871520996093750e+01 -2.495541334152221680e+00 -1.640833973884582520e+00 -9.151007980108261108e-03 -4.949955046176910400e-01 3.811427652835845947e-01
2.002000000000000000e+03 4.072155380249023438e+01 -3.313470125198364258e+00 -1.316351056098937988e+00 9.596252348273992538e-04 -3.946174383163452148e-01 3.048281967639923096e-01
2.003000000000000000e+03 3.307489395141601562e+01 -1.009555816650390625e+01 -8.037509918212890625e-01 -2.545766718685626984e-02 -2.487626075744628906e-01 -2.314911633729934692e-01
2.004000000000000000e+03 5.347260284423828125e+01 -2.434287786483764648e+00 -2.140242338180541992e+00 -1.247989851981401443e-02 -6.458166837692260742e-01 3.945598900318145752e-01
2.005000000000000000e+03 3.701206588745117188e+01 -2.722403049468994141e+00 -9.741714000701904297e-01 2.502565272152423859e-03 -2.915006577968597412e-01 3.441796004772186279e-01
2.006000000000000000e+03 5.271685409545898438e+01 -2.438031673431396484e+00 -2.097314119338989258e+00 -1.480381377041339874e-02 -6.336354017257690430e-01 3.960591554641723633e-01
2.007000000000000000e+03 3.381939697265625000e+01 -1.081098270416259766e+01 -7.959295511245727539e-01 -3.239466995000839233e-02 -2.484972625970840454e-01 -2.750763595104217529e-01
2.008000000000000000e+03 3.457725143432617188e+01 -1.077117061614990234e+01 -8.380514979362487793e-01 -3.186663612723350525e-02 -2.609754204750061035e-01 -2.805165052413940430e-01
2.009000000000000000e+03 5.121941375732421875e+01 -2.443024635314941406e+00 -2.005106449127197266e+00 -1.558168977499008179e-02 -6.062064170837402344e-01 3.955423831939697266e-01
2.010000000000000000e+03 4.970793914794921875e+01 -2.452713966369628906e+00 -1.906289100646972656e+00 -1.494203228503465652e-02 -5.763693451881408691e-01 3.927540481090545654e-01
2.011000000000000000e+03 3.997013854980468750e+01 -2.650151252746582031e+00 -1.195862054824829102e+00 2.195204870076850057e-04 -3.586927652359008789e-01 3.576553463935852051e-01
2.012000000000000000e+03 4.144602203369140625e+01 -2.604514122009277344e+00 -1.306899905204772949e+00 -1.148174516856670380e-03 -3.924144506454467773e-01 3.643518686294555664e-01
2.013000000000000000e+03 4.745182800292968750e+01 -2.476283073425292969e+00 -1.749031424522399902e+00 -1.192053873091936111e-02 -5.282855629920959473e-01 3.858932852745056152e-01
2.014000000000000000e+03 4.669670867919921875e+01 -2.485836505889892578e+00 -1.695593833923339844e+00 -1.153604965656995773e-02 -5.121389627456665039e-01 3.834960460662841797e-01
2.015000000000000000e+03 4.364424133300781250e+01 -1.836600184440612793e+00 -1.379696249961853027e+00 -5.301591940224170685e-03 -4.154993295669555664e-01 4.247401654720306396e-01
2.016000000000000000e+03 7.031838226318359375e+01 -3.407505989074707031e+00 -8.101814389228820801e-01 1.608633399009704590e+00 2.395355850458145142e-01 -1.866320848464965820e+00
2.017000000000000000e+03 6.848965454101562500e+01 -2.094074726104736328e+00 -8.650712370872497559e-01 1.187048792839050293e+00 9.659326821565628052e-02 -1.182715654373168945e+00
2.018000000000000000e+03 4.520037841796875000e+01 -2.505829811096191406e+00 -1.585450053215026855e+00 -8.507139980792999268e-03 -4.781871736049652100e-01 3.788391053676605225e-01
2.019000000000000000e+03 3.676811981201171875e+01 -1.068173408508300781e+01 -9.604032039642333984e-01 -3.069595247507095337e-02 -2.973297536373138428e-01 -2.942552268505096436e-01
2.020000000000000000e+03 2.990415573120117188e+01 -1.093750667572021484e+01 -6.041683554649353027e-01 -2.566481940448284149e-02 -1.889499574899673462e-01 -2.486941516399383545e-01
2.021000000000000000e+03 3.069548034667968750e+01 -1.094218349456787109e+01 -6.408010721206665039e-01 -2.832879684865474701e-02 -2.007389515638351440e-01 -2.543325126171112061e-01
2.022000000000000000e+03 3.228635406494140625e+01 -1.090886402130126953e+01 -7.164683341979980469e-01 -3.178521618247032166e-02 -2.244760692119598389e-01 -2.656375765800476074e-01
2.023000000000000000e+03 1.074744415283203125e+01 4.955067157745361328e+00 5.141855581314302981e-05 5.040511605329811573e-04 1.666409079916775227e-04 6.514847627840936184e-04
2.024000000000000000e+03 2.763723754882812500e+01 -1.077375698089599609e+01 -5.062754750251770020e-01 -1.719453372061252594e-02 -1.570410132408142090e-01 -2.265382558107376099e-01
2.025000000000000000e+03 2.694226455688476562e+01 -1.004884815216064453e+01 -4.915353357791900635e-01 -1.045024767518043518e-02 -1.505956798791885376e-01 -1.892363280057907104e-01
2.026000000000000000e+03 9.818161964416503906e+00 -4.777222156524658203e+00 1.106631898437626660e-04 -2.613005926832556725e-04 -4.519122012425214052e-05 5.744980808231048286e-05
2.027000000000000000e+03 4.683692455291748047e+00 -3.619746685028076172e+00 -4.779276787303388119e-05 -1.181917177746072412e-04 -4.979534787707962096e-05 -2.535573439672589302e-04
2.028000000000000000e+03 4.203343391418457031e+00 -4.614424228668212891e+00 -1.331917010247707367e-04 -7.237544923555105925e-05 -6.167014362290501595e-05 -3.161370987072587013e-04
2.029000000000000000e+03 6.580711364746093750e+00 -4.529282569885253906e+00 2.267855888931080699e-04 -2.690304827410727739e-04 -1.267346578970318660e-05 2.744352786976378411e-05
2.030000000000000000e+03 8.233796119689941406e+00 -3.374494075775146484e+00 7.206702139228582382e-05 1.070427970262244344e-04 5.373294698074460030e-05 1.627011370146647096e-04
2.031000000000000000e+03 3.789773941040039062e+00 -7.645151138305664062e+00 -5.625929043162614107e-05 -6.372288771672174335e-05 -3.599465344450436532e-05 -3.069235826842486858e-04
2.032000000000000000e+03 3.243656873703002930e+00 -3.961577177047729492e+00 -1.119597000069916248e-04 -7.992040627868846059e-05 -5.756403334089554846e-05 -2.947532630059868097e-04
2.033000000000000000e+03 3.500907897949218750e+00 -5.565678596496582031e+00 -2.046508452622219920e-04 -5.067184974905103445e-05 -7.659680704819038510e-05 -3.545410290826112032e-04
2.034000000000000000e+03 2.595114946365356445e+00 -5.483757019042968750e+00 3.076327557209879160e-04 9.701367162051610649e-06 9.520023013465106487e-05 1.853393332567065954e-04
2.035000000000000000e+03 3.149320983886718750e+01 -1.093565940856933594e+01 -6.782025694847106934e-01 -3.011337481439113617e-02 -2.124947905540466309e-01 -2.602978944778442383e-01
2.036000000000000000e+03 2.370252609252929688e+01 -1.074054622650146484e+01 -3.528656065464019775e-01 -2.892927266657352448e-03 -1.067275553941726685e-01 -2.013328522443771362e-01
2.037000000000000000e+03 2.450227546691894531e+01 -1.084943103790283203e+01 -3.812041282653808594e-01 -4.908915609121322632e-03 -1.158339083194732666e-01 -2.096011340618133545e-01
2.038000000000000000e+03 2.912536239624023438e+01 -1.090523815155029297e+01 -5.706133842468261719e-01 -2.364886738359928131e-02 -1.782786846160888672e-01 -2.410872876644134521e-01
2.039000000000000000e+03 1.170468044281005859e+01 4.148673534393310547e+00 2.934220829047262669e-04 7.352218381129205227e-05 1.100832814699970186e-04 5.060635739937424660e-04
2.040000000000000000e+03 2.837266159057617188e+01 -1.082823467254638672e+01 -5.410432219505310059e-01 -2.014479972422122955e-02 -1.683564037084579468e-01 -2.336935698986053467e-01
2.041000000000000000e+03 1.826681900024414062e+01 -1.187950897216796875e+01 -2.185795307159423828e-01 -7.460348308086395264e-02 -8.795490115880966187e-02 -1.881027668714523315e-01
2.042000000000000000e+03 2.536533164978027344e+01 -1.082721519470214844e+01 -4.151174128055572510e-01 -8.055061101913452148e-03 -1.269517391920089722e-01 -2.146847695112228394e-01
2.043000000000000000e+03 2.213639640808105469e+01 -1.088986873626708984e+01 -3.008395135402679443e-01 -6.120739970356225967e-03 -9.208807349205017090e-02 -1.942175626754760742e-01
2.044000000000000000e+03 2.117334365844726562e+01 -1.088542747497558594e+01 -2.732989192008972168e-01 -1.244029402732849121e-02 -8.572176098823547363e-02 -1.868752539157867432e-01
2.045000000000000000e+03 2.298270606994628906e+01 -1.069720363616943359e+01 -3.265115916728973389e-01 -2.328566275537014008e-03 -9.865204244852066040e-02 -1.937016248703002930e-01
2.046000000000000000e+03 1.887982559204101562e+01 -1.093610477447509766e+01 -2.032767683267593384e-01 -5.182289704680442810e-02 -7.652989774942398071e-02 -1.678169220685958862e-01
2.047000000000000000e+03 1.943763542175292969e+01 -1.010272407531738281e+01 -1.919013708829879761e-01 -2.942986413836479187e-02 -6.639937311410903931e-02 -1.457684040069580078e-01
2.048000000000000000e+03 1.012125015258789062e+01 1.004479980468750000e+01 2.690406399779021740e-04 -1.700521912425756454e-03 -4.294443933758884668e-04 -5.883962148800492287e-04
2.049000000000000000e+03 9.952518463134765625e+00 8.544477462768554688e+00 5.094773950986564159e-04 -1.463735126890242100e-03 -2.862773253582417965e-04 -2.873246558010578156e-04
2.050000000000000000e+03 2.961951732635498047e+00 1.150890827178955078e+01 2.520142588764429092e-03 -4.804008349310606718e-04 6.119224708527326584e-04 -1.707429997622966766e-03
2.051000000000000000e+03 7.804180145263671875e+01 -4.997297286987304688e+00 9.996647238731384277e-01 9.677418708801269531e+00 3.203125000000000000e+00 1.844204187393188477e+00
2.052000000000000000e+03 7.793731689453125000e+01 -7.299849510192871094e+00 1.499510645866394043e+00 9.487599372863769531e+00 3.296133041381835938e+00 -1.306440353393554688e+00
2.053000000000000000e+03 6.634400367736816406e+00 1.825627326965332031e+01 -7.058625668287277222e-02 -2.529899403452873230e-02 -2.876557596027851105e-02 1.798448711633682251e-02
2.054000000000000000e+03 3.072457075119018555e+00 1.723258590698242188e+01 -5.197678226977586746e-03 -1.567283831536769867e-02 -6.261155009269714355e-03 -1.020802836865186691e-02
2.055000000000000000e+03 9.934838294982910156e+00 4.969036579132080078e+00 1.504412648500874639e-04 -4.749081272166222334e-04 -9.734005288919433951e-05 -7.209043251350522041e-04
2.056000000000000000e+03 7.785330200195312500e+01 -1.056429100036621094e+01 -7.423187494277954102e-01 1.072658348083496094e+01 2.995279550552368164e+00 -1.557207345962524414e+00
2.057000000000000000e+03 7.461788177490234375e+01 -9.229940414428710938e+00 -2.252618074417114258e+00 1.470088005065917969e+01 3.734478473663330078e+00 2.120547771453857422e+00
2.058000000000000000e+03 4.137251853942871094e+00 1.103988933563232422e+01 2.644739812240004539e-03 -1.730639371089637280e-03 2.742301148828119040e-04 -1.144798123277723789e-03
2.059000000000000000e+03 8.935004234313964844e+00 -2.526912879943847656e+01 -6.178088951855897903e-03 -2.215809673070907593e-01 -6.832771748304367065e-02 -1.780030429363250732e-01
2.060000000000000000e+03 7.755483150482177734e+00 -2.333473777770996094e+01 -4.771002382040023804e-02 -1.712914109230041504e-01 -6.570043414831161499e-02 -1.694142222404479980e-01
2.061000000000000000e+03 6.125319004058837891e+00 -1.849123001098632812e+01 -8.684968203306198120e-02 -1.607984490692615509e-02 -3.087885864078998566e-02 -2.971987985074520111e-02
2.062000000000000000e+03 9.207346916198730469e+00 -4.087893009185791016e+00 -3.014049980265554041e-05 2.899192913901060820e-04 7.793363329255953431e-05 1.746305788401514292e-04
2.063000000000000000e+03 7.388638973236083984e+00 -2.121758270263671875e+01 -9.973426163196563721e-02 -1.014638841152191162e-01 -6.035944446921348572e-02 -1.456841975450515747e-01
2.064000000000000000e+03 2.194307327270507812e+01 7.791176795959472656e+00 -3.065693378448486328e-01 -5.753414034843444824e-01 -2.645732164382934570e-01 5.258891582489013672e-01
2.065000000000000000e+03 2.105812072753906250e+01 -2.374097406864166260e-01 -5.776063725352287292e-02 -1.817909926176071167e-01 -7.186549156904220581e-02 1.493751704692840576e-01
2.066000000000000000e+03 9.255621910095214844e+00 9.446249008178710938e+00 -3.716540522873401642e-04 2.129458589479327202e-03 5.273413844406604767e-04 1.017446847981773317e-04
2.067000000000000000e+03 1.252734947204589844e+01 5.025438785552978516e+00 3.831409558188170195e-04 9.335076174465939403e-05 1.429475232725962996e-04 5.167609197087585926e-04
2.068000000000000000e+03 2.285616111755371094e+01 -1.114815235137939453e+00 -1.264058798551559448e-01 -1.460923552513122559e-01 -8.174946904182434082e-02 2.027085274457931519e-01
2.069000000000000000e+03 2.120853424072265625e+01 9.147279262542724609e-01 -7.023750990629196167e-02 -2.497824430465698242e-01 -9.600598365068435669e-02 2.031928896903991699e-01
2.070000000000000000e+03 8.161797523498535156e+00 -5.210258960723876953e+00 2.350865252083167434e-04 -2.060687256744131446e-04 8.705340405867900699e-06 1.785214990377426147e-04
2.071000000000000000e+03 8.449673652648925781e+00 1.202974510192871094e+01 8.760457858443260193e-04 -6.199143244884908199e-04 7.683944568270817399e-05 1.698634150670841336e-04
2.072000000000000000e+03 5.827815055847167969e+00 1.136286544799804688e+01 2.716872841119766235e-03 -2.275040373206138611e-03 1.325496996287256479e-04 1.180012011900544167e-03
2.073000000000000000e+03 1.350444889068603516e+01 2.114137268066406250e+01 -2.318461984395980835e-01 -7.747645378112792969e-01 -3.019832372665405273e-01 4.662821292877197266e-01
2.074000000000000000e+03 7.678025054931640625e+01 1.529533576965332031e+01 6.548005342483520508e-02 6.824258804321289062e+00 2.066921710968017578e+00 -5.892047882080078125e-01
2.075000000000000000e+03 7.552222442626953125e+01 1.388381576538085938e+01 1.223428398370742798e-01 6.583425998687744141e+00 2.011730670928955078e+00 -8.265896439552307129e-01
2.076000000000000000e+03 7.367277526855468750e+01 3.376303100585937500e+01 1.012698709964752197e-01 4.820432662963867188e+00 1.476510763168334961e+00 -2.373947948217391968e-01
2.077000000000000000e+03 7.478845977783203125e+01 3.101032829284667969e+01 7.385540008544921875e-02 5.079333782196044922e+00 1.545956730842590332e+00 -2.614890336990356445e-01
2.078000000000000000e+03 7.530076599121093750e+01 2.070536422729492188e+01 1.021826416254043579e-01 5.784460544586181641e+00 1.765992999076843262e+00 -5.512382388114929199e-01
2.079000000000000000e+03 7.675711059570312500e+01 1.666709518432617188e+01 6.629220396280288696e-02 6.618620872497558594e+00 2.005473852157592773e+00 -5.431475639343261719e-01
2.080000000000000000e+03 7.548472595214843750e+01 1.524887752532958984e+01 1.233995482325553894e-01 6.401407718658447266e+00 1.957442283630371094e+00 -7.673030495643615723e-01
2.081000000000000000e+03 7.410940551757812500e+01 1.653481101989746094e+01 1.841033399105072021e-01 5.815686225891113281e+00 1.799936890602111816e+00 -8.436001539230346680e-01
2.082000000000000000e+03 7.544927215576171875e+01 1.660927772521972656e+01 1.167581081390380859e-01 6.234136104583740234e+00 1.905268311500549316e+00 -7.070200443267822266e-01
2.083000000000000000e+03 7.572479248046875000e+01 9.766378402709960938e+00 9.658561646938323975e-02 7.263796329498291016e+00 2.208114624023437500e+00 -9.888448119163513184e-01
2.084000000000000000e+03 7.504114532470703125e+01 -2.875170707702636719e+01 1.716718077659606934e-01 6.365331172943115234e+00 1.961100935935974121e+00 6.642293334007263184e-01
2.085000000000000000e+03 7.669441223144531250e+01 -2.757003593444824219e+01 8.904860913753509521e-02 7.038729190826416016e+00 2.138333320617675781e+00 5.507748126983642578e-01
2.086000000000000000e+03 7.472873687744140625e+01 -2.339013671875000000e+01 1.641125530004501343e-01 6.774693489074707031e+00 2.081641912460327148e+00 1.030061721801757812e+00
2.087000000000000000e+03 7.656718444824218750e+01 2.633918571472167969e+01 4.071091115474700928e-02 5.601828575134277344e+00 1.692761778831481934e+00 -2.832392752170562744e-01
2.088000000000000000e+03 7.371870422363281250e+01 2.339115142822265625e+01 1.450285315513610840e-01 5.224500179290771484e+00 1.610858559608459473e+00 -5.532140731811523438e-01
2.089000000000000000e+03 7.563721466064453125e+01 1.113651752471923828e+01 1.120258942246437073e-01 7.007636547088623047e+00 2.135898828506469727e+00 -9.399511218070983887e-01
2.090000000000000000e+03 7.452173614501953125e+01 9.694632530212402344e+00 1.473334729671478271e-01 6.669649600982666016e+00 2.045094966888427734e+00 -1.161073446273803711e+00
2.091000000000000000e+03 7.365511322021484375e+01 2.793130874633789062e+01 1.127920076251029968e-01 5.007992267608642578e+00 1.536235213279724121e+00 -3.865726888179779053e-01
2.092000000000000000e+03 7.649365234375000000e+01 3.022477531433105469e+01 3.671801835298538208e-02 5.341494083404541016e+00 1.613463640213012695e+00 -2.072990238666534424e-01
2.093000000000000000e+03 7.534586334228515625e+01 2.887835884094238281e+01 6.247785314917564392e-02 5.251141548156738281e+00 1.594085931777954102e+00 -3.005024790763854980e-01
2.094000000000000000e+03 7.517876434326171875e+01 2.768520927429199219e+01 7.165385037660598755e-02 5.300683021545410156e+00 1.611701130867004395e+00 -3.335706889629364014e-01
2.095000000000000000e+03 7.589941406250000000e+01 -2.469062042236328125e+01 1.061159595847129822e-01 7.144802093505859375e+00 2.175275325775146484e+00 8.186111450195312500e-01
2.096000000000000000e+03 7.575148010253906250e+01 -2.598094940185546875e+01 1.416322886943817139e-01 6.887280941009521484e+00 2.108674049377441406e+00 7.582566738128662109e-01
2.097000000000000000e+03 7.593087768554687500e+01 -2.339255905151367188e+01 1.096513420343399048e-01 7.361138820648193359e+00 2.241237163543701172e+00 8.627164363861083984e-01
2.098000000000000000e+03 7.309117889404296875e+01 -3.005576896667480469e+01 2.834441363811492920e-01 5.633634090423583984e+00 1.775123476982116699e+00 7.386143803596496582e-01
2.099000000000000000e+03 7.355258178710937500e+01 -3.670717239379882812e+01 2.172584533691406250e-01 5.511921405792236328e+00 1.718754053115844727e+00 2.931529581546783447e-01
2.100000000000000000e+03 7.522249603271484375e+01 -1.533955860137939453e+01 -5.702806115150451660e-01 8.605608940124511719e+00 2.410598516464233398e+00 1.111004710197448730e+00
2.101000000000000000e+03 7.728093719482421875e+01 -1.947523689270019531e+01 -1.289910171180963516e-03 8.767480850219726562e+00 2.629857301712036133e+00 7.162798047065734863e-01
2.102000000000000000e+03 7.730826568603515625e+01 4.459851741790771484e+00 -1.229247078299522400e-01 9.243330955505371094e+00 2.736121654510498047e+00 -6.627582311630249023e-01
2.103000000000000000e+03 7.763398742675781250e+01 -1.295870590209960938e+01 -6.383647322654724121e-01 1.048799037933349609e+01 2.954887628555297852e+00 -3.666425049304962158e-01
2.104000000000000000e+03 7.586254882812500000e+01 -1.594937133789062500e+01 -3.805565536022186279e-01 8.801048278808593750e+00 2.526147365570068359e+00 9.235315918922424316e-01
2.105000000000000000e+03 7.523136138916015625e+01 2.991399192810058594e+01 6.998026371002197266e-02 5.174619197845458984e+00 1.573379874229431152e+00 -2.686720192432403564e-01
2.106000000000000000e+03 7.670563507080078125e+01 -2.236590832471847534e-01 -1.051599860191345215e+00 1.058211421966552734e+01 2.859154462814331055e+00 1.186733394861221313e-01
2.107000000000000000e+03 7.487246704101562500e+01 -4.130654811859130859e+00 -1.943554162979125977e+00 1.731275177001953125e+01 4.610759258270263672e+00 -1.065850496292114258e+00
2.108000000000000000e+03 7.747325897216796875e+01 -1.195103454589843750e+01 -9.216538071632385254e-01 1.087883377075195312e+01 2.987154006958007812e+00 -7.526848316192626953e-01
2.109000000000000000e+03 7.420727539062500000e+01 -3.495950317382812500e+01 1.696619391441345215e-01 5.718372344970703125e+00 1.766410231590270996e+00 3.588276207447052002e-01
2.110000000000000000e+03 7.606921386718750000e+01 -3.558011245727539062e+01 6.817594170570373535e-02 6.210567474365234375e+00 1.883623003959655762e+00 2.306605279445648193e-01
2.111000000000000000e+03 7.627857971191406250e+01 -1.820194435119628906e+01 -8.122994005680084229e-02 8.466473579406738281e+00 2.515573024749755859e+00 9.149325489997863770e-01
2.112000000000000000e+03 7.618775177001953125e+01 -1.947917938232421875e+01 -5.993766244500875473e-03 8.145154953002929688e+00 2.441748380661010742e+00 9.450086355209350586e-01
2.113000000000000000e+03 7.712725067138671875e+01 -2.316297054290771484e+00 -1.172244668006896973e+00 1.166909694671630859e+01 3.149055719375610352e+00 1.394220829010009766e+00
2.114000000000000000e+03 7.735839843750000000e+01 3.181615352630615234e+00 -2.304991483688354492e-01 9.592644691467285156e+00 2.808643817901611328e+00 -5.249793529510498047e-01
2.115000000000000000e+03 7.625044250488281250e+01 4.551623821258544922e+00 -1.780340373516082764e-01 8.589522361755371094e+00 2.523446559906005859e+00 -9.321615099906921387e-01
2.116000000000000000e+03 7.612751007080078125e+01 5.796358585357666016e+00 -6.989481300115585327e-02 8.219336509704589844e+00 2.444832563400268555e+00 -9.924244880676269531e-01
2.117000000000000000e+03 7.598330688476562500e+01 7.087606906890869141e+00 9.678518399596214294e-03 7.872558593750000000e+00 2.364670991897583008e+00 -1.024610042572021484e+00
2.118000000000000000e+03 7.531919097900390625e+01 3.497509241104125977e+00 -3.802010118961334229e-01 8.295254707336425781e+00 2.374516010284423828e+00 -1.138892292976379395e+00
2.119000000000000000e+03 3.097877502441406250e+00 1.581507110595703125e+01 4.682533908635377884e-03 -1.320911664515733719e-02 -2.557974774390459061e-03 -9.700280614197254181e-03
2.120000000000000000e+03 4.047254085540771484e+00 -1.406348419189453125e+01 4.900136031210422516e-03 -6.605314556509256363e-03 -5.115534877404570580e-04 -5.186925045563839376e-05
2.121000000000000000e+03 5.423898220062255859e+00 1.960728073120117188e+01 -1.002343371510505676e-01 -5.043200403451919556e-02 -4.519990086555480957e-02 4.570795223116874695e-02
2.122000000000000000e+03 3.140839338302612305e+00 1.868806076049804688e+01 -2.067387290298938751e-02 -2.944592759013175964e-02 -1.503594033420085907e-02 5.828226916491985321e-03
2.123000000000000000e+03 5.189387321472167969e+00 2.094944953918457031e+01 -1.181005984544754028e-01 -8.281226456165313721e-02 -6.027385964989662170e-02 1.049788445234298706e-01
2.124000000000000000e+03 2.811079025268554688e+00 -1.897066688537597656e+01 -1.783014461398124695e-02 -1.466801203787326813e-02 -9.749446995556354523e-03 -1.251363940536975861e-02
2.125000000000000000e+03 4.834127902984619141e+00 -1.684565544128417969e+01 -5.576311144977807999e-03 -1.660666428506374359e-02 -6.654892582446336746e-03 -2.503678435459733009e-03
2.126000000000000000e+03 3.266562938690185547e+00 1.435445976257324219e+01 6.805999670177698135e-03 -7.564278785139322281e-03 -2.274837024742737412e-04 -6.215169560164213181e-03
2.127000000000000000e+03 4.358489513397216797e+00 1.835014724731445312e+01 -3.585685417056083679e-02 -3.856234624981880188e-02 -2.232575975358486176e-02 8.691259659826755524e-03
2.128000000000000000e+03 4.629099845886230469e+00 2.463733863830566406e+01 -5.085360631346702576e-02 -2.322604358196258545e-01 -8.493421226739883423e-02 1.965495198965072632e-01
2.129000000000000000e+03 4.941327571868896484e+00 2.995405960083007812e+01 2.435688301920890808e-02 -4.322040379047393799e-01 -1.223541498184204102e-01 2.067856490612030029e-01
2.130000000000000000e+03 6.053191184997558594e+00 -2.431606101989746094e+01 -2.606682293117046356e-02 -1.510128080844879150e-01 -5.312389135360717773e-02 -1.330081075429916382e-01
2.131000000000000000e+03 4.268683433532714844e+00 -1.287992000579833984e+01 2.742123557254672050e-03 -2.852257341146469116e-03 -3.304014535387977958e-05 -2.682889462448656559e-04
2.132000000000000000e+03 2.873993158340454102e+00 -9.045407295227050781e+00 -3.971808109781704843e-05 -2.986227082146797329e-05 -2.087410575768444687e-05 -2.501771086826920509e-04
2.133000000000000000e+03 3.030217409133911133e+00 -1.032046794891357422e+01 1.225520973093807697e-03 -2.987903135363012552e-04 2.780192007776349783e-04 6.064335466362535954e-04
2.134000000000000000e+03 5.197722911834716797e+00 -1.928627204895019531e+01 -6.186854466795921326e-02 -3.066939860582351685e-02 -2.776138298213481903e-02 -4.914333298802375793e-02
2.135000000000000000e+03 3.145134687423706055e+00 -2.297359275817871094e+01 -1.730013266205787659e-02 -8.225316554307937622e-02 -2.986598946154117584e-02 -6.571180373430252075e-02
2.136000000000000000e+03 5.580851078033447266e+00 -2.038646125793457031e+01 -6.694331020116806030e-02 -6.077782437205314636e-02 -3.831633925437927246e-02 -8.041854947805404663e-02
2.137000000000000000e+03 5.458262920379638672e+00 2.291807174682617188e+01 -1.146033555269241333e-01 -1.786226332187652588e-01 -8.796779811382293701e-02 1.985804736614227295e-01
2.138000000000000000e+03 4.576859951019287109e+00 2.600732994079589844e+01 -3.113877028226852417e-02 -2.879287004470825195e-01 -9.572023898363113403e-02 2.177017480134963989e-01
2.139000000000000000e+03 3.259717464447021484e+00 -2.440415382385253906e+01 -1.159350201487541199e-02 -1.122944504022598267e-01 -3.716638684272766113e-02 -7.834389060735702515e-02
2.140000000000000000e+03 4.406291484832763672e+00 -2.274737167358398438e+01 -3.554853796958923340e-02 -9.511648118495941162e-02 -3.919950500130653381e-02 -9.485388547182083130e-02
2.141000000000000000e+03 5.341774940490722656e+00 -2.184972763061523438e+01 -5.452424287796020508e-02 -8.787170797586441040e-02 -4.271878302097320557e-02 -9.881241619586944580e-02
2.142000000000000000e+03 4.643598556518554688e+00 -2.420288276672363281e+01 -1.740131340920925140e-02 -1.296339631080627441e-01 -4.411058127880096436e-02 -1.057889536023139954e-01
2.143000000000000000e+03 3.616906881332397461e+00 -3.116817665100097656e+01 1.348389405757188797e-02 -2.505796253681182861e-01 -7.112871855497360229e-02 -7.835485041141510010e-02
2.144000000000000000e+03 4.716628074645996094e+00 -2.951066017150878906e+01 1.421449333429336548e-02 -2.267652451992034912e-01 -6.376522779464721680e-02 -1.052483320236206055e-01
2.145000000000000000e+03 4.591363430023193359e+00 9.348678588867187500e+00 1.211644266732037067e-03 -4.031473072245717049e-04 2.425490965833887458e-04 -4.688068293035030365e-04
2.146000000000000000e+03 5.492149353027343750e+00 3.258855056762695312e+01 4.985821619629859924e-02 -5.064935684204101562e-01 -1.369905918836593628e-01 1.865447014570236206e-01
2.147000000000000000e+03 6.247401714324951172e+00 3.639154815673828125e+01 7.964396476745605469e-02 -5.763082504272460938e-01 -1.489992886781692505e-01 1.252891421318054199e-01
2.148000000000000000e+03 5.909737586975097656e+00 -1.165911293029785156e+01 1.167712107417173684e-04 1.285149250179529190e-03 4.205761360935866833e-04 -1.412565470673143864e-03
2.149000000000000000e+03 4.440907478332519531e+00 -1.006505393981933594e+01 4.940982908010482788e-04 -1.171654585050418973e-04 1.130798555095680058e-04 -5.742007633671164513e-04
2.150000000000000000e+03 3.084218263626098633e+00 -1.163315010070800781e+01 1.099277054890990257e-03 -7.026481325738132000e-04 1.189886679640039802e-04 7.533128955401480198e-04
2.151000000000000000e+03 6.137499809265136719e+00 9.598270416259765625e+00 1.254152739420533180e-03 -4.864389775320887566e-04 2.303141372976824641e-04 2.048036694759503007e-04
2.152000000000000000e+03 3.594995975494384766e+00 -6.558365345001220703e+00 2.035819779848679900e-04 1.985851413337513804e-04 1.206501401611603796e-04 2.998125855810940266e-04
2.153000000000000000e+03 5.086927890777587891e+00 -3.072057914733886719e+01 1.705386862158775330e-02 -2.449527531862258911e-01 -6.836966425180435181e-02 -1.054621040821075439e-01
2.154000000000000000e+03 3.776427268981933594e+00 -3.253845596313476562e+01 1.416537445038557053e-02 -2.722353339195251465e-01 -7.742098718881607056e-02 -7.245380431413650513e-02
2.155000000000000000e+03 4.803855419158935547e+00 2.852729988098144531e+01 1.112600415945053101e-02 -3.837911188602447510e-01 -1.117995306849479675e-01 2.123424410820007324e-01
2.156000000000000000e+03 6.857177734375000000e+00 3.378671264648437500e+01 8.776530623435974121e-02 -5.496240854263305664e-01 -1.385576277971267700e-01 1.932336986064910889e-01
2.157000000000000000e+03 5.462986946105957031e+00 3.509563064575195312e+01 6.991784274578094482e-02 -5.594685673713684082e-01 -1.468652188777923584e-01 1.386040747165679932e-01
2.158000000000000000e+03 5.025688648223876953e+00 3.133301544189453125e+01 3.352380543947219849e-02 -4.723356068134307861e-01 -1.316435337066650391e-01 1.945914477109909058e-01
2.159000000000000000e+03 3.735963582992553711e+00 8.861979484558105469e+00 9.471439407207071781e-04 -2.368988498346880078e-04 2.130735229002311826e-04 -5.401818780228495598e-04
2.160000000000000000e+03 5.593197345733642578e+00 5.378487110137939453e+00 -5.973900624667294323e-05 3.257523057982325554e-04 7.980399095686152577e-05 2.167022030334919691e-04
2.161000000000000000e+03 7.789259433746337891e+00 -7.547478675842285156e+00 -1.806715445127338171e-04 4.987763823010027409e-04 9.543146006762981415e-05 1.642001552681904286e-05
2.162000000000000000e+03 1.465323638916015625e+01 -1.763945198059082031e+01 -2.334957122802734375e-01 -2.038384377956390381e-01 -1.312002390623092651e-01 -2.034810930490493774e-01
2.163000000000000000e+03 1.726758766174316406e+01 -1.596407699584960938e+01 -2.471415549516677856e-01 -1.340292394161224365e-01 -1.143512353301048279e-01 -2.239371389150619507e-01
2.164000000000000000e+03 5.224704265594482422e+00 -8.369693756103515625e+00 2.332033909624442458e-04 -1.679034321568906307e-04 1.958998291229363531e-05 -2.987140323966741562e-04
2.165000000000000000e+03 6.464340209960937500e+00 1.972863960266113281e+01 -1.438309997320175171e-01 -4.321159422397613525e-02 -5.611277744174003601e-02 6.753358989953994751e-02
2.166000000000000000e+03 4.420026302337646484e+00 1.956163597106933594e+01 -6.091519072651863098e-02 -5.172717943787574768e-02 -3.379271179437637329e-02 3.476437553763389587e-02
2.167000000000000000e+03 1.112030506134033203e+01 -2.109447669982910156e+01 -1.017221212387084961e-01 -2.336360812187194824e-01 -1.006074622273445129e-01 -1.967095285654067993e-01
2.168000000000000000e+03 2.148964691162109375e+01 1.052329730987548828e+01 -4.098283350467681885e-01 -6.705139279365539551e-01 -3.241026699542999268e-01 5.576480627059936523e-01
2.169000000000000000e+03 7.089212894439697266e+00 -1.214934158325195312e+01 4.708667256636545062e-05 1.064167445292696357e-04 4.605102731147781014e-05 -2.742815740930382162e-05
2.170000000000000000e+03 6.708454132080078125e+00 -1.030789566040039062e+01 5.862231482751667500e-04 -4.379505699034780264e-04 4.448177060112357140e-05 -1.794911222532391548e-04
2.171000000000000000e+03 8.373753547668457031e+00 2.178614807128906250e+01 -2.268683761358261108e-01 -2.799625098705291748e-01 -1.520492732524871826e-01 3.557733893394470215e-01
2.172000000000000000e+03 2.281701087951660156e+01 5.362709045410156250e+00 -2.432882189750671387e-01 -4.271427094936370850e-01 -2.011292725801467896e-01 4.829862117767333984e-01
2.173000000000000000e+03 2.230569267272949219e+01 6.521457195281982422e+00 -2.651161253452301025e-01 -5.014655590057373047e-01 -2.299745082855224609e-01 5.024529695510864258e-01
2.174000000000000000e+03 1.662205886840820312e+01 -1.724482154846191406e+01 -2.295492738485336304e-01 -1.573829799890518188e-01 -1.160796806216239929e-01 -2.172415703535079956e-01
2.175000000000000000e+03 7.522534942626953125e+01 3.810456848144531250e+01 3.079313598573207855e-02 4.949489593505859375e+00 1.494084835052490234e+00 -6.512684375047683716e-02
2.176000000000000000e+03 1.786930465698242188e+01 2.032850265502929688e+01 -2.011049836874008179e-01 -8.098509907722473145e-01 -3.032867908477783203e-01 3.588377535343170166e-01
2.177000000000000000e+03 1.728550720214843750e+01 1.853104782104492188e+01 -3.864812254905700684e-01 -8.849948048591613770e-01 -3.814428150653839111e-01 4.318126440048217773e-01
2.178000000000000000e+03 2.264499855041503906e+01 1.708903670310974121e+00 -1.528542190790176392e-01 -2.699852883815765381e-01 -1.268518418073654175e-01 3.234084546566009521e-01
2.179000000000000000e+03 2.074728775024414062e+01 1.660075378417968750e+01 -3.771936893463134766e-01 -6.899087429046630859e-01 -3.201307356357574463e-01 4.224148094654083252e-01
2.180000000000000000e+03 1.464193058013916016e+01 2.024403572082519531e+01 -3.031532764434814453e-01 -8.532069921493530273e-01 -3.469080924987792969e-01 4.588911831378936768e-01
2.181000000000000000e+03 1.395359992980957031e+01 -1.868165588378906250e+01 -1.985162794589996338e-01 -2.184385359287261963e-01 -1.250864416360855103e-01 -1.964633315801620483e-01
2.182000000000000000e+03 1.496595764160156250e+01 -1.957872962951660156e+01 -1.658569127321243286e-01 -2.087172269821166992e-01 -1.123722419142723083e-01 -2.017413824796676636e-01
2.183000000000000000e+03 2.445841026306152344e+01 7.583801269531250000e+00 -3.481962382793426514e-01 -3.802531361579895020e-01 -2.185348123311996460e-01 5.790687799453735352e-01
2.184000000000000000e+03 7.372019195556640625e+01 -4.311268329620361328e+00 -1.035448551177978516e+00 1.301952648162841797e+01 3.595223426818847656e+00 -5.533757209777832031e+00
2.185000000000000000e+03 7.308295440673828125e+01 -3.674689054489135742e+00 -7.212309241294860840e-01 8.739127159118652344e+00 2.405368804931640625e+00 -4.834312915802001953e+00
2.186000000000000000e+03 7.298545074462890625e+01 -4.403502941131591797e+00 3.035699129104614258e-01 7.386445999145507812e+00 2.307004928588867188e+00 -5.556145668029785156e+00
2.187000000000000000e+03 7.304408264160156250e+01 -4.144545555114746094e+00 -1.775844246149063110e-01 8.379737854003906250e+00 2.460645914077758789e+00 -5.474035739898681641e+00
2.188000000000000000e+03 7.339675903320312500e+01 -8.052754402160644531e+00 2.549969553947448730e-01 1.000232028961181641e+01 3.077195167541503906e+00 6.459110736846923828e+00
2.189000000000000000e+03 7.410012054443359375e+01 -4.295420169830322266e+00 -1.724833250045776367e+00 1.542356872558593750e+01 4.109620571136474609e+00 -4.596064567565917969e+00
2.190000000000000000e+03 7.412551879882812500e+01 -8.645026206970214844e+00 -1.839715719223022461e+00 1.504582881927490234e+01 3.961833953857421875e+00 4.062168598175048828e+00
2.191000000000000000e+03 7.438043212890625000e+01 -8.506074905395507812e+00 -2.024530172348022461e+00 1.683898544311523438e+01 4.444336891174316406e+00 3.168756484985351562e+00
2.192000000000000000e+03 7.520527648925781250e+01 -4.351489067077636719e+00 -1.318660140037536621e+00 1.770396995544433594e+01 4.915592670440673828e+00 3.524967133998870850e-01
2.193000000000000000e+03 7.195700836181640625e+01 -3.782448053359985352e+00 -1.228998303413391113e-01 3.898897886276245117e+00 1.132799386978149414e+00 -3.675047874450683594e+00
2.194000000000000000e+03 7.665787506103515625e+01 -1.054453468322753906e+01 -1.499799489974975586e+00 1.212497234344482422e+01 3.187551975250244141e+00 -1.071545481681823730e+00
2.195000000000000000e+03 7.561836242675781250e+01 -4.014968395233154297e+00 -1.261970639228820801e+00 1.597303867340087891e+01 4.413320541381835938e+00 9.822132587432861328e-01
2.196000000000000000e+03 7.527815246582031250e+01 -4.715251922607421875e+00 1.269399747252464294e-02 1.903677368164062500e+01 5.714840412139892578e+00 1.400000929832458496e+00
2.197000000000000000e+03 7.508370971679687500e+01 -8.661739349365234375e+00 -1.793773055076599121e+00 1.715877151489257812e+01 4.609499454498291016e+00 4.454035162925720215e-01
2.198000000000000000e+03 7.571846771240234375e+01 -4.611409187316894531e+00 3.066460788249969482e-01 1.705903244018554688e+01 5.209703445434570312e+00 2.151844739913940430e+00
2.199000000000000000e+03 7.627873229980468750e+01 -8.764027595520019531e+00 -4.649278223514556885e-01 1.460343551635742188e+01 4.241552352905273438e+00 -2.042505502700805664e+00
2.200000000000000000e+03 7.595030975341796875e+01 -7.987709522247314453e+00 1.127065777778625488e+00 1.636444664001464844e+01 5.247453689575195312e+00 -2.646352291107177734e+00
2.201000000000000000e+03 7.672301483154296875e+01 -2.961926937103271484e+00 -1.261189937591552734e+00 1.270807933807373047e+01 3.434066772460937500e+00 1.619898676872253418e+00
2.202000000000000000e+03 7.493376159667968750e+01 -4.454133510589599609e+00 -1.547789096832275391e+00 1.861450767517089844e+01 5.120015144348144531e+00 -5.802514553070068359e-01
2.203000000000000000e+03 7.079190826416015625e+01 -9.459533691406250000e+00 -5.442978739738464355e-01 2.158077716827392578e+00 4.841339886188507080e-01 2.306701660156250000e+00
2.204000000000000000e+03 7.664862823486328125e+01 -6.485044479370117188e+00 5.056111812591552734e+00 1.298843479156494141e+01 5.413363933563232422e+00 -2.186266779899597168e-01
2.205000000000000000e+03 7.681282043457031250e+01 -6.114892482757568359e+00 4.206627368927001953e+00 1.240535640716552734e+01 4.983594894409179688e+00 6.954210400581359863e-01
2.206000000000000000e+03 7.076403045654296875e+01 -3.102246761322021484e+00 -4.985643327236175537e-01 2.363965034484863281e+00 5.596202611923217773e-01 -2.397253990173339844e+00
2.207000000000000000e+03 6.973691558837890625e+01 -3.505898952484130859e+00 -1.250383973121643066e+00 1.017511367797851562e+00 -6.986176967620849609e-02 -1.287683248519897461e+00
2.208000000000000000e+03 7.625247955322265625e+01 -6.690703392028808594e+00 5.711987018585205078e+00 1.409805202484130859e+01 5.943011760711669922e+00 -8.792468309402465820e-01
2.209000000000000000e+03 7.682527923583984375e+01 -7.249484539031982422e+00 2.921532154083251953e+00 1.261273002624511719e+01 4.660278797149658203e+00 -1.949783682823181152e+00
2.210000000000000000e+03 6.900843048095703125e+01 -1.038194942474365234e+01 -8.284312486648559570e-01 1.298722386360168457e+00 1.410873234272003174e-01 1.320465922355651855e+00
2.211000000000000000e+03 6.953818511962890625e+01 -1.035896492004394531e+01 -6.699284315109252930e-01 1.651760339736938477e+00 2.945495843887329102e-01 1.633934378623962402e+00
2.212000000000000000e+03 6.722569274902343750e+01 -9.991686820983886719e+00 -1.667032957077026367e+00 4.479933977127075195e-01 -3.657118678092956543e-01 4.172309935092926025e-01
2.213000000000000000e+03 6.843161010742187500e+01 -1.044456291198730469e+01 -9.743910431861877441e-01 1.005753636360168457e+00 9.408789686858654022e-03 1.029219508171081543e+00
2.214000000000000000e+03 2.362406921386718750e+01 -1.794430971145629883e+00 -1.535251736640930176e-01 -1.134850978851318359e-01 -8.010308444499969482e-02 1.999896913766860962e-01
2.215000000000000000e+03 6.776973724365234375e+01 -2.736672163009643555e+00 -1.487805008888244629e+00 6.069565415382385254e-01 -2.642545402050018311e-01 -6.400662660598754883e-01
2.216000000000000000e+03 7.015544891357421875e+01 -9.873291969299316406e+00 -6.610087752342224121e-01 1.836219072341918945e+00 3.525630831718444824e-01 1.906872868537902832e+00
2.217000000000000000e+03 2.471914100646972656e+01 -1.862017154693603516e+00 -2.028782963752746582e-01 -1.002656295895576477e-01 -9.094318002462387085e-02 2.335049957036972046e-01
2.218000000000000000e+03 2.675432395935058594e+01 -1.658545970916748047e+00 -3.082096874713897705e-01 -7.654026895761489868e-02 -1.154249832034111023e-01 2.971971929073333740e-01
2.219000000000000000e+03 2.472019004821777344e+01 -3.621050715446472168e-01 -2.242597490549087524e-01 -1.450416594743728638e-01 -1.107904240489006042e-01 3.088463842868804932e-01
2.220000000000000000e+03 7.712334442138671875e+01 -1.114407539367675781e+01 -1.178823828697204590e+00 1.138364410400390625e+01 3.061445951461791992e+00 -9.972944259643554688e-01
2.221000000000000000e+03 7.755297851562500000e+01 -8.486132621765136719e+00 6.313835978507995605e-01 1.143062591552734375e+01 3.618602752685546875e+00 -2.340797185897827148e+00
2.222000000000000000e+03 7.802945709228515625e+01 -4.047617435455322266e+00 1.320384293794631958e-01 1.002906608581542969e+01 3.048331260681152344e+00 2.198050737380981445e+00
2.223000000000000000e+03 7.777374267578125000e+01 -5.808915615081787109e+00 2.276124715805053711e+00 1.011187553405761719e+01 3.716399908065795898e+00 8.916716575622558594e-01
2.224000000000000000e+03 7.725328826904296875e+01 -5.389093875885009766e+00 2.508650064468383789e+00 1.155813598632812500e+01 4.220036029815673828e+00 1.788172245025634766e+00
2.225000000000000000e+03 2.530009269714355469e+01 -2.688145875930786133e+00 -2.232425510883331299e-01 -6.945542246103286743e-02 -8.780939131975173950e-02 2.109468579292297363e-01
2.226000000000000000e+03 2.608145141601562500e+01 -2.200405597686767578e+00 -2.709974944591522217e-01 -7.156748324632644653e-02 -1.027694940567016602e-01 2.546705305576324463e-01
2.227000000000000000e+03 7.729096984863281250e+01 -6.193071365356445312e+00 3.087393760681152344e+00 1.090401649475097656e+01 4.197422981262207031e+00 3.975307941436767578e-01
2.228000000000000000e+03 6.781273651123046875e+01 -1.052318572998046875e+01 -1.134603977203369141e+00 7.924118041992187500e-01 -1.026576608419418335e-01 7.904847860336303711e-01
2.229000000000000000e+03 4.062559604644775391e+00 4.363714694976806641e+00 5.745717498939484358e-05 6.968451634747907519e-05 3.814250885625369847e-05 -1.120967936003580689e-04
2.230000000000000000e+03 6.732082843780517578e+00 5.679591655731201172e+00 -1.380025496473535895e-04 6.811894127167761326e-04 1.629560720175504684e-04 1.878425791801419109e-05
2.231000000000000000e+03 7.719728088378906250e+01 -6.764894962310791016e+00 3.042367696762084961e+00 1.132501316070556641e+01 4.310214519500732422e+00 -7.832606434822082520e-01
2.232000000000000000e+03 6.538235664367675781e+00 4.051804542541503906e+00 2.286334784002974629e-04 -2.962319413200020790e-04 -2.027953632932621986e-05 -1.921788934851065278e-04
2.233000000000000000e+03 5.108608245849609375e+00 4.609487533569335938e+00 -1.871613785624504089e-04 3.908808284904807806e-04 6.111583206802606583e-05 7.649846520507708192e-05
2.234000000000000000e+03 7.694979095458984375e+01 -4.973989963531494141e+00 2.066285610198974609e+00 1.261275768280029297e+01 4.403712749481201172e+00 2.447582244873046875e+00
2.235000000000000000e+03 5.286760330200195312e+00 4.001608371734619141e+00 1.241555146407335997e-04 -9.655764006311073899e-05 8.279360372398514301e-06 -1.279853313462808728e-04
2.236000000000000000e+03 2.815261650085449219e+01 -2.191097974777221680e+00 -3.836303949356079102e-01 -4.636855050921440125e-02 -1.289996802806854248e-01 2.985739111900329590e-01
2.237000000000000000e+03 2.815411376953125000e+01 -2.858556509017944336e+00 -3.774406015872955322e-01 -3.540020808577537537e-02 -1.238522455096244812e-01 2.612558305263519287e-01
2.238000000000000000e+03 2.889471435546875000e+01 -2.182316064834594727e+00 -4.238334298133850098e-01 -3.963159769773483276e-02 -1.390395164489746094e-01 3.118041753768920898e-01
2.239000000000000000e+03 8.386089324951171875e+00 5.033606529235839844e+00 2.441162796458229423e-04 -4.823443305213004351e-04 -7.146841380745172501e-05 -4.865480877924710512e-04
2.240000000000000000e+03 7.017730712890625000e+00 4.889944076538085938e+00 3.821719728875905275e-04 -4.882155917584896088e-04 -3.181309148203581572e-05 -1.563848345540463924e-04
2.241000000000000000e+03 7.193952083587646484e+00 4.093265533447265625e+00 -2.254344435641542077e-04 5.744030931964516640e-04 1.046905890689231455e-04 2.777152112685143948e-04
2.242000000000000000e+03 9.192366600036621094e+00 8.025390625000000000e+00 -3.488952934276312590e-04 1.640940434299409389e-03 3.876135451719164848e-04 -7.092065061442553997e-05
2.243000000000000000e+03 4.712357997894287109e+00 4.161822795867919922e+00 4.228498073644004762e-05 -1.737444108584895730e-05 7.473162440874148160e-06 2.796469780150800943e-04
2.244000000000000000e+03 3.181759452819824219e+01 -2.867112636566162109e+00 -6.067933440208435059e-01 -9.307936765253543854e-03 -1.848303824663162231e-01 3.060817718505859375e-01
2.245000000000000000e+03 2.967005729675292969e+01 -1.562619209289550781e+00 -4.680790603160858154e-01 -4.179770871996879578e-02 -1.529630273580551147e-01 3.606306314468383789e-01
2.246000000000000000e+03 3.108270645141601562e+01 -2.871700286865234375e+00 -5.580461621284484863e-01 -1.315471436828374863e-02 -1.713602691888809204e-01 2.985298037528991699e-01
2.247000000000000000e+03 3.329307174682617188e+01 -2.839601993560791016e+00 -7.078206539154052734e-01 -3.321354743093252182e-03 -2.133426070213317871e-01 3.188202381134033203e-01
2.248000000000000000e+03 3.183060455322265625e+01 -2.215924978256225586e+00 -6.008720397949218750e-01 -1.474796421825885773e-02 -1.846860051155090332e-01 3.476609289646148682e-01
2.249000000000000000e+03 4.629316329956054688e+01 -1.115388870239257812e+01 -1.419270753860473633e+00 -2.776771411299705505e-02 -4.341115653514862061e-01 -4.176757335662841797e-01
2.250000000000000000e+03 4.350801467895507812e+01 -1.056327819824218750e+01 -1.351297616958618164e+00 -2.661150693893432617e-02 -4.133727252483367920e-01 -3.566904962062835693e-01
2.251000000000000000e+03 4.638143157958984375e+01 -1.043325424194335938e+01 -1.543081402778625488e+00 -2.308849245309829712e-02 -4.698509573936462402e-01 -3.751622736454010010e-01
2.252000000000000000e+03 4.915487289428710938e+01 -1.123228931427001953e+01 -1.553525209426879883e+00 -2.614747360348701477e-02 -4.739018082618713379e-01 -4.475357830524444580e-01
2.253000000000000000e+03 4.496688461303710938e+01 -1.203051471710205078e+01 -1.215474963188171387e+00 -3.797966986894607544e-02 -3.760363757610321045e-01 -4.469588100910186768e-01
2.254000000000000000e+03 3.382256317138671875e+01 -1.528319865465164185e-01 -6.671489477157592773e-01 -2.220528200268745422e-02 -2.068062722682952881e-01 4.835879802703857422e-01
2.255000000000000000e+03 4.989373397827148438e+01 -1.125182247161865234e+01 -1.587446451187133789e+00 -2.400495484471321106e-02 -4.834354221820831299e-01 -4.517994225025177002e-01
2.256000000000000000e+03 5.220550537109375000e+01 -1.122688293457031250e+01 -1.699997425079345703e+00 -1.727299578487873077e-02 -5.151811242103576660e-01 -4.597920477390289307e-01
2.257000000000000000e+03 3.478091049194335938e+01 -2.096618175506591797e+00 -7.898753881454467773e-01 -3.068740712478756905e-03 -2.378832399845123291e-01 3.779977858066558838e-01
2.258000000000000000e+03 4.566342544555664062e+01 -1.044791507720947266e+01 -1.497204899787902832e+00 -2.214350178837776184e-02 -4.558045268058776855e-01 -3.711095154285430908e-01
2.259000000000000000e+03 4.193236923217773438e+01 -1.220871734619140625e+01 -1.050555467605590820e+00 -4.460502415895462036e-02 -3.285481631755828857e-01 -4.250510931015014648e-01
2.260000000000000000e+03 4.118043899536132812e+01 -1.139594841003417969e+01 -1.113922119140625000e+00 -3.497710078954696655e-02 -3.446697592735290527e-01 -3.804242312908172607e-01
2.261000000000000000e+03 4.856027984619140625e+01 -1.045310878753662109e+01 -1.676079869270324707e+00 -2.160381712019443512e-02 -5.093051195144653320e-01 -3.980233371257781982e-01
2.262000000000000000e+03 4.768337249755859375e+01 -1.117743492126464844e+01 -1.483254194259643555e+00 -3.219915926456451416e-02 -4.546360075473785400e-01 -4.316597878932952881e-01
2.263000000000000000e+03 4.197545242309570312e+01 -1.139831542968750000e+01 -1.157586216926574707e+00 -3.506812080740928650e-02 -3.577963113784790039e-01 -3.884248733520507812e-01
2.264000000000000000e+03 5.231897354125976562e+01 -1.046084117889404297e+01 -1.902315497398376465e+00 -1.498490851372480392e-02 -5.751901268959045410e-01 -4.210653305053710938e-01
2.265000000000000000e+03 5.154986953735351562e+01 -1.046809864044189453e+01 -1.856834292411804199e+00 -1.506969612091779709e-02 -5.615711808204650879e-01 -4.174008667469024658e-01
2.266000000000000000e+03 5.064894485473632812e+01 -1.124055957794189453e+01 -1.620803475379943848e+00 -2.167225256562232971e-02 -4.927427172660827637e-01 -4.544526934623718262e-01
2.267000000000000000e+03 3.915093612670898438e+01 -1.333735084533691406e+01 -8.191889524459838867e-01 -5.697772279381752014e-02 -2.628499865531921387e-01 -4.409693479537963867e-01
2.268000000000000000e+03 3.815504837036132812e+01 -1.135967636108398438e+01 -9.654777646064758301e-01 -3.977714851498603821e-02 -3.015764653682708740e-01 -3.407496213912963867e-01
2.269000000000000000e+03 5.675930404663085938e+01 -1.106653690338134766e+01 -1.901593446731567383e+00 7.656413130462169647e-03 -5.681810975074768066e-01 -4.359452724456787109e-01
2.270000000000000000e+03 5.603749084472656250e+01 -1.109709358215332031e+01 -1.873602151870727539e+00 -3.565121209248900414e-03 -5.631501674652099609e-01 -4.452196359634399414e-01
2.271000000000000000e+03 4.560886764526367188e+01 -1.116875076293945312e+01 -1.373736858367919922e+00 -2.790316194295883179e-02 -4.204919934272766113e-01 -4.132213592529296875e-01
2.272000000000000000e+03 5.378837966918945312e+01 -1.118151092529296875e+01 -1.775237679481506348e+00 -1.309413835406303406e-02 -5.364995598793029785e-01 -4.565374255180358887e-01
2.273000000000000000e+03 8.337166786193847656e+00 -4.263625621795654297e+00 -9.679089998826384544e-05 -8.472966146655380726e-05 -5.445616989163681865e-05 -1.467669644625857472e-04
2.274000000000000000e+03 6.475077056884765625e+01 -1.161290049552917480e+00 -1.292003512382507324e+00 4.041813313961029053e-01 -2.663466632366180420e-01 -2.182707190513610840e-01
2.275000000000000000e+03 5.530906677246093750e+01 -1.113097858428955078e+01 -1.844809055328369141e+00 -1.173693314194679260e-02 -5.569638013839721680e-01 -4.496287405490875244e-01
2.276000000000000000e+03 5.820294189453125000e+01 -1.104393005371093750e+01 -1.924514293670654297e+00 1.999133639037609100e-02 -5.713568925857543945e-01 -4.047680199146270752e-01
2.277000000000000000e+03 5.757830429077148438e+01 -1.034443283081054688e+01 -2.190459966659545898e+00 3.258596174418926239e-03 -6.561604142189025879e-01 -4.052312374114990234e-01
2.278000000000000000e+03 5.831351470947265625e+01 -1.033949756622314453e+01 -2.212689399719238281e+00 8.772663772106170654e-03 -6.611750125885009766e-01 -3.951282203197479248e-01
2.279000000000000000e+03 5.967438507080078125e+01 -1.105300045013427734e+01 -1.914041042327880859e+00 4.519700631499290466e-02 -5.606532096862792969e-01 -3.610728085041046143e-01
2.280000000000000000e+03 6.477077484130859375e+01 -1.864385485649108887e+00 -1.660202264785766602e+00 2.843369245529174805e-01 -4.127596020698547363e-01 -1.040203645825386047e-01
2.281000000000000000e+03 5.880588150024414062e+01 -1.175071144104003906e+01 -1.643448352813720703e+00 5.177465453743934631e-02 -4.775021076202392578e-01 -3.773283362388610840e-01
2.282000000000000000e+03 6.258154678344726562e+01 -1.174400138854980469e+01 -1.428767085075378418e+00 2.068587243556976318e-01 -3.665724992752075195e-01 -1.198829486966133118e-01
2.283000000000000000e+03 6.345715332031250000e+01 -1.095766067504882812e+01 -1.735492706298828125e+00 1.790361255407333374e-01 -4.669369757175445557e-01 -1.076126992702484131e-01
2.284000000000000000e+03 6.401650238037109375e+01 -1.820921063423156738e+00 -1.750479578971862793e+00 2.162493914365768433e-01 -4.602690637111663818e-01 1.766972709447145462e-03
2.285000000000000000e+03 5.748127365112304688e+01 -1.104936981201171875e+01 -1.919546723365783691e+00 1.506453938782215118e-02 -5.713446736335754395e-01 -4.204148054122924805e-01
2.286000000000000000e+03 5.456176376342773438e+01 -1.115847015380859375e+01 -1.811346411705017090e+00 -1.318972837179899216e-02 -5.473608374595642090e-01 -4.536317586898803711e-01
2.287000000000000000e+03 3.604185485839843750e+01 -1.070452976226806641e+01 -9.183456301689147949e-01 -2.970913797616958618e-02 -2.844164371490478516e-01 -2.919384241104125977e-01
2.288000000000000000e+03 3.879184341430664062e+01 -1.143766689300537109e+01 -9.878960847854614258e-01 -3.677053377032279968e-02 -3.073999881744384766e-01 -3.579472899436950684e-01
2.289000000000000000e+03 6.041595840454101562e+01 -1.106609439849853516e+01 -1.889627456665039062e+00 5.735237896442413330e-02 -5.496824979782104492e-01 -3.287882208824157715e-01
2.290000000000000000e+03 3.531983566284179688e+01 -1.073636722564697266e+01 -8.770786523818969727e-01 -3.197659179568290710e-02 -2.727165818214416504e-01 -2.854009270668029785e-01
2.291000000000000000e+03 3.775419998168945312e+01 -2.708489179611206055e+00 -1.029456019401550293e+00 1.780897728167474270e-03 -3.083025515079498291e-01 3.475619554519653320e-01
2.292000000000000000e+03 3.476740646362304688e+01 -1.414459466934204102e+00 -7.643601298332214355e-01 -7.592585403472185135e-03 -2.315858155488967896e-01 4.216010272502899170e-01
2.293000000000000000e+03 6.191731262207031250e+01 -1.105186271667480469e+01 -1.825300335884094238e+00 1.051702201366424561e-01 -5.160390138626098633e-01 -2.431547343730926514e-01
2.294000000000000000e+03 6.177532577514648438e+01 -2.444818735122680664e+00 -2.298414945602416992e+00 5.217690765857696533e-02 -6.738713979721069336e-01 2.558780908584594727e-01
2.295000000000000000e+03 6.627993011474609375e+01 -1.961733222007751465e+00 -1.416767120361328125e+00 4.861397445201873779e-01 -2.791882157325744629e-01 -3.997638523578643799e-01
2.296000000000000000e+03 6.026054382324218750e+01 -1.707333564758300781e+00 -1.996760845184326172e+00 5.169066414237022400e-02 -5.835210680961608887e-01 2.976697683334350586e-01
2.297000000000000000e+03 5.794568252563476562e+01 -9.454615116119384766e-01 -1.749068856239318848e+00 3.559166565537452698e-02 -5.140431523323059082e-01 3.660670816898345947e-01
2.298000000000000000e+03 6.702922821044921875e+01 -2.008514404296875000e+00 -1.251857399940490723e+00 6.399297714233398438e-01 -1.835782825946807861e-01 -6.063637137413024902e-01
2.299000000000000000e+03 3.849480819702148438e+01 -2.691906929016113281e+00 -1.085008502006530762e+00 1.637339708395302296e-03 -3.250113427639007568e-01 3.507134020328521729e-01
2.300000000000000000e+03 3.553075408935546875e+01 -2.068414926528930664e+00 -8.381196856498718262e-01 -2.192376879975199699e-03 -2.520936131477355957e-01 3.844215273857116699e-01
2.301000000000000000e+03 5.873933029174804688e+01 -1.689600348472595215e+00 -2.023616790771484375e+00 2.391176670789718628e-02 -5.999114513397216797e-01 3.518483042716979980e-01
2.302000000000000000e+03 6.115931701660156250e+01 -1.107018947601318359e+01 -1.858493804931640625e+00 7.760610431432723999e-02 -5.342662930488586426e-01 -2.919737696647644043e-01
2.303000000000000000e+03 6.326667022705078125e+01 -1.785098195075988770e+00 -1.822562098503112793e+00 1.698112487792968750e-01 -4.958252608776092529e-01 8.661712706089019775e-02
2.304000000000000000e+03 6.251840591430664062e+01 -1.757193207740783691e+00 -1.883737802505493164e+00 1.282241493463516235e-01 -5.266541242599487305e-01 1.570375412702560425e-01
2.305000000000000000e+03 5.418024444580078125e+01 -1.717970609664916992e+00 -1.961830139160156250e+00 -7.868348620831966400e-03 -5.909095406532287598e-01 4.244426786899566650e-01
2.306000000000000000e+03 5.498258972167968750e+01 -2.424640178680419922e+00 -2.215553998947143555e+00 -9.471065364778041840e-03 -6.675075292587280273e-01 3.907886743545532227e-01
2.307000000000000000e+03 5.950093460083007812e+01 -1.697504520416259766e+00 -2.014058828353881836e+00 3.314201533794403076e-02 -5.942750573158264160e-01 3.284927606582641602e-01
2.308000000000000000e+03 5.721947479248046875e+01 -1.688578963279724121e+00 -2.024711132049560547e+00 8.288769982755184174e-03 -6.049267053604125977e-01 3.877780437469482422e-01
2.309000000000000000e+03 5.674770832061767578e+00 -6.979189872741699219e+00 1.101833695429377258e-04 -1.381446636514738202e-04 -8.388390597247052938e-06 -2.008506126003339887e-04
2.310000000000000000e+03 6.645397186279296875e+01 -1.067902278900146484e+01 -1.401134848594665527e+00 4.889176487922668457e-01 -2.736651301383972168e-01 3.750562965869903564e-01
2.311000000000000000e+03 6.580883026123046875e+01 -1.010599422454833984e+01 -1.921683549880981445e+00 2.587539553642272949e-01 -4.988788962364196777e-01 1.043546423316001892e-01
2.312000000000000000e+03 5.493616104125976562e+01 -1.708591938018798828e+00 -1.983604431152343750e+00 -6.506963633000850677e-03 -5.970334410667419434e-01 4.195453822612762451e-01
2.313000000000000000e+03 4.815394973754882812e+01 -1.761751413345336914e+00 -1.662158966064453125e+00 -1.407358422875404358e-02 -5.028697848320007324e-01 4.350592792034149170e-01
2.314000000000000000e+03 4.895750427246093750e+01 -2.460291624069213867e+00 -1.854757666587829590e+00 -1.350336056202650070e-02 -5.604782700538635254e-01 3.900531828403472900e-01
2.315000000000000000e+03 4.369098663330078125e+01 -2.536301374435424805e+00 -1.473589062690734863e+00 -5.248768255114555359e-03 -4.436513483524322510e-01 3.738868832588195801e-01
2.316000000000000000e+03 4.294376754760742188e+01 -2.555766344070434570e+00 -1.418499946594238281e+00 -3.052424872294068336e-03 -4.264656901359558105e-01 3.709549903869628906e-01
2.317000000000000000e+03 5.645563888549804688e+01 -1.690599083900451660e+00 -2.014814376831054688e+00 1.330873696133494377e-03 -6.040450334548950195e-01 4.014634788036346436e-01
2.318000000000000000e+03 6.760914325714111328e+00 -5.617139339447021484e+00 2.848933800123631954e-04 -3.007250197697430849e-04 -4.749491836264496669e-06 1.762303872965276241e-05
2.319000000000000000e+03 5.266777801513671875e+01 -1.725998163223266602e+00 -1.901171922683715820e+00 -1.206917874515056610e-02 -5.739723443984985352e-01 4.324308037757873535e-01
2.320000000000000000e+03 3.305997467041015625e+01 -1.086052322387695312e+01 -7.563278675079345703e-01 -3.186120092868804932e-02 -2.364567220211029053e-01 -2.702666223049163818e-01
2.321000000000000000e+03 3.921957778930664062e+01 -1.993524074554443359e+00 -1.087070107460021973e+00 -1.156085170805454254e-03 -3.264678716659545898e-01 4.038991332054138184e-01
2.322000000000000000e+03 3.848934555053710938e+01 -2.016163349151611328e+00 -1.038150787353515625e+00 -8.546812459826469421e-04 -3.117016553878784180e-01 4.003226161003112793e-01
2.323000000000000000e+03 5.116956329345703125e+01 -1.735591769218444824e+00 -1.829970121383666992e+00 -1.427459530532360077e-02 -5.532734394073486328e-01 4.354242086410522461e-01
2.324000000000000000e+03 5.041311264038085938e+01 -1.739212870597839355e+00 -1.790323495864868164e+00 -1.542898546904325485e-02 -5.417257547378540039e-01 4.375155270099639893e-01
2.325000000000000000e+03 5.342233657836914062e+01 -1.721991658210754395e+00 -1.932612895965576172e+00 -1.158678997308015823e-02 -5.832598805427551270e-01 4.301905035972595215e-01
2.326000000000000000e+03 4.070471572875976562e+01 -2.628907680511474609e+00 -1.251152157783508301e+00 -9.312282199971377850e-04 -3.756250441074371338e-01 3.614004254341125488e-01
2.327000000000000000e+03 4.890598297119140625e+01 -1.753621578216552734e+00 -1.707098126411437988e+00 -1.517741382122039795e-02 -5.166826844215393066e-01 4.368494153022766113e-01
2.328000000000000000e+03 4.215050888061523438e+01 -1.887921810150146484e+00 -1.282362222671508789e+00 -3.229530761018395424e-03 -3.856775164604187012e-01 4.187071323394775391e-01
2.329000000000000000e+03 4.140663909912109375e+01 -1.915724515914916992e+00 -1.232894420623779297e+00 -3.208500798791646957e-03 -3.708308935165405273e-01 4.157506227493286133e-01
2.330000000000000000e+03 4.515174865722656250e+01 -1.800677657127380371e+00 -1.476858377456665039e+00 -8.604637347161769867e-03 -4.456388950347900391e-01 4.288634955883026123e-01
2.331000000000000000e+03 4.589862823486328125e+01 -1.786998152732849121e+00 -1.523992896080017090e+00 -1.143369078636169434e-02 -4.606280028820037842e-01 4.308241605758666992e-01
2.332000000000000000e+03 4.208936691284179688e+01 -1.188289284706115723e+00 -1.199946403503417969e+00 -5.103820003569126129e-03 -3.615150749683380127e-01 4.651695191860198975e-01
2.333000000000000000e+03 5.185463714599609375e+01 -1.006470441818237305e+00 -1.683510065078735352e+00 -1.077881362289190292e-02 -5.082866549491882324e-01 4.652124047279357910e-01
2.334000000000000000e+03 3.460755157470703125e+01 -1.151057529449462891e+01 -7.854288816452026367e-01 -3.899811208248138428e-02 -2.473281025886535645e-01 -3.165713548660278320e-01
2.335000000000000000e+03 3.674955749511718750e+01 -1.140484333038330078e+01 -8.956205844879150391e-01 -3.581298887729644775e-02 -2.794300615787506104e-01 -3.357619941234588623e-01
2.336000000000000000e+03 4.739739990234375000e+01 -1.768133163452148438e+00 -1.617517232894897461e+00 -1.390633732080459595e-02 -4.894270896911621094e-01 4.341764450073242188e-01
2.337000000000000000e+03 4.664458465576171875e+01 -1.775971055030822754e+00 -1.570231676101684570e+00 -1.189609616994857788e-02 -4.746383428573608398e-01 4.327242970466613770e-01
2.338000000000000000e+03 4.439788818359375000e+01 -1.816816926002502441e+00 -1.427998781204223633e+00 -7.711388636380434036e-03 -4.307130575180053711e-01 4.271062612533569336e-01
2.339000000000000000e+03 2.984538650512695312e+01 -1.175798988342285156e+01 -5.667654275894165039e-01 -3.235762566328048706e-02 -1.797369122505187988e-01 -2.842342555522918701e-01
2.340000000000000000e+03 6.422600555419921875e+01 -1.089630794525146484e+01 -1.674377202987670898e+00 2.288618683815002441e-01 -4.336546063423156738e-01 -1.844251714646816254e-02
2.341000000000000000e+03 6.498601531982421875e+01 -1.082876205444335938e+01 -1.598509550094604492e+00 2.941880822181701660e-01 -3.912964463233947754e-01 8.872388303279876709e-02
2.342000000000000000e+03 6.784706592559814453e+00 -3.987472295761108398e+00 -6.751709588570520282e-05 -3.035468034795485437e-05 -2.936153214250225574e-05 -1.633376668905839324e-04
2.343000000000000000e+03 6.218058586120605469e+00 -4.023627281188964844e+00 -1.435446611139923334e-04 3.360301489010453224e-04 5.774564488092437387e-05 2.137252740794792771e-04
2.344000000000000000e+03 2.690440750122070312e+01 -1.078327274322509766e+01 -4.759860932826995850e-01 -1.479220669716596603e-02 -1.472334861755371094e-01 -2.210176438093185425e-01
2.345000000000000000e+03 3.149055862426757812e+01 -1.176421165466308594e+01 -6.366016864776611328e-01 -3.673753514885902405e-02 -2.020017653703689575e-01 -2.965092957019805908e-01
2.346000000000000000e+03 3.231353759765625000e+01 -1.172200107574462891e+01 -6.715026497840881348e-01 -3.848903253674507141e-02 -2.129975110292434692e-01 -3.013534843921661377e-01
2.347000000000000000e+03 3.152817535400390625e+01 -1.264997291564941406e+01 -5.883926749229431152e-01 -4.484978690743446350e-02 -1.899727433919906616e-01 -3.324805200099945068e-01
2.348000000000000000e+03 2.327324104309082031e+01 -1.131859493255615234e+01 -3.405496180057525635e-01 -6.044181063771247864e-03 -1.039781346917152405e-01 -2.161522656679153442e-01
2.349000000000000000e+03 2.615844726562500000e+01 -1.080842208862304688e+01 -4.464946687221527100e-01 -1.133108604699373245e-02 -1.373477280139923096e-01 -2.175367325544357300e-01
2.350000000000000000e+03 2.824740600585937500e+01 -1.158183765411376953e+01 -5.089996457099914551e-01 -2.550362795591354370e-02 -1.603509932756423950e-01 -2.649087607860565186e-01
2.351000000000000000e+03 2.899709129333496094e+01 -1.174294185638427734e+01 -5.341001152992248535e-01 -2.917431667447090149e-02 -1.689823269844055176e-01 -2.761960029602050781e-01
2.352000000000000000e+03 6.845761871337890625e+01 -2.802706718444824219e+00 -1.297549247741699219e+00 7.950921654701232910e-01 -1.507371366024017334e-01 -9.130918383598327637e-01
2.353000000000000000e+03 6.776367187500000000e+01 -2.047928571701049805e+00 -1.068077564239501953e+00 8.765514492988586426e-01 -5.745783448219299316e-02 -8.594371080398559570e-01
2.354000000000000000e+03 1.085646820068359375e+01 4.152866840362548828e+00 -1.075196851161308587e-04 -2.435644419165328145e-04 -1.053252417477779090e-04 -6.631640135310590267e-04
2.355000000000000000e+03 1.139983940124511719e+01 5.881722927093505859e+00 1.837548479670658708e-04 6.422820733860135078e-04 2.478110836818814278e-04 6.654879543930292130e-04
2.356000000000000000e+03 2.457239913940429688e+01 -1.168715667724609375e+01 -3.773987889289855957e-01 -1.131987571716308594e-02 -1.166156008839607239e-01 -2.384758144617080688e-01
2.357000000000000000e+03 2.541786384582519531e+01 -1.162502384185791016e+01 -4.091648459434509277e-01 -1.390860509127378464e-02 -1.269220411777496338e-01 -2.429347634315490723e-01
2.358000000000000000e+03 2.414292907714843750e+01 -1.273858737945556641e+01 -3.603187799453735352e-01 -1.962842606008052826e-02 -1.139841601252555847e-01 -2.642633020877838135e-01
2.359000000000000000e+03 2.549949836730957031e+01 -1.244958591461181641e+01 -3.981590270996093750e-01 -2.110669016838073730e-02 -1.257797181606292725e-01 -2.705793380737304688e-01
2.360000000000000000e+03 1.979237937927246094e+01 -1.150070476531982422e+01 -2.457345873117446899e-01 -3.510701656341552734e-02 -8.425248414278030396e-02 -1.916713267564773560e-01
2.361000000000000000e+03 2.245205116271972656e+01 -1.173171424865722656e+01 -3.173834383487701416e-01 -1.247811596840620041e-02 -9.895846247673034668e-02 -2.216802686452865601e-01
2.362000000000000000e+03 2.108881950378417969e+01 -1.258196592330932617e+00 -5.467812344431877136e-02 -1.300556063652038574e-01 -5.542011931538581848e-02 1.153309270739555359e-01
2.363000000000000000e+03 2.168426513671875000e+01 9.126940727233886719e+00 -3.591523766517639160e-01 -6.327565908432006836e-01 -2.975726723670959473e-01 5.497049689292907715e-01
2.364000000000000000e+03 7.589856147766113281e+00 1.129093551635742188e+01 -8.245718199759721756e-04 3.017334965988993645e-03 6.578289321623742580e-04 5.531213828362524509e-04
2.365000000000000000e+03 6.587118148803710938e+00 1.228489303588867188e+01 3.000009106472134590e-03 -4.479317867662757635e-04 7.656231755390763283e-04 5.470829550176858902e-03
2.366000000000000000e+03 8.499510765075683594e+00 8.827018737792968750e+00 6.907776696607470512e-04 -7.903876248747110367e-04 -2.988298911077436060e-05 6.088626105338335037e-04
2.367000000000000000e+03 7.641588592529296875e+01 -1.376727223396301270e+00 -1.608411908149719238e+00 1.158160877227783203e+01 2.991958856582641602e+00 3.137003779411315918e-01
2.368000000000000000e+03 8.561491966247558594e+00 7.525296211242675781e+00 4.527451237663626671e-04 -6.339587853290140629e-04 -5.436409992398694158e-05 4.209179023746401072e-04
2.369000000000000000e+03 7.586894989013671875e+01 4.093063771724700928e-01 -1.111835956573486328e+00 9.975223541259765625e+00 2.659016370773315430e+00 -6.488510370254516602e-01
2.370000000000000000e+03 7.608155822753906250e+01 -6.878520846366882324e-01 -1.520912885665893555e+00 1.095360183715820312e+01 2.829806804656982422e+00 -1.339214146137237549e-01
2.371000000000000000e+03 9.150690078735351562e+00 5.014882564544677734e+00 -1.049854254233650863e-04 6.195916794240474701e-04 1.543818798381835222e-04 4.606139264069497585e-04
2.372000000000000000e+03 1.054995536804199219e+01 7.638936042785644531e+00 -1.153633784269914031e-04 1.458631712011992931e-03 4.029805131722241640e-04 4.253612132743000984e-04
2.373000000000000000e+03 7.679371643066406250e+01 -1.307427120208740234e+01 -9.441335201263427734e-01 1.040994167327880859e+01 2.839742422103881836e+00 1.994526572525501251e-02
2.374000000000000000e+03 5.443392276763916016e+00 -1.307029151916503906e+01 3.386337775737047195e-03 -2.623048610985279083e-03 2.289867406943812966e-04 -3.244580468162894249e-03
2.375000000000000000e+03 1.230638885498046875e+01 6.032626628875732422e+00 -2.770124992821365595e-04 -5.189010989852249622e-04 -2.387740678386762738e-04 -7.000663317739963531e-04
2.376000000000000000e+03 7.673397064208984375e+01 -1.403491401672363281e+01 -6.859503388404846191e-01 9.955438613891601562e+00 2.780846357345581055e+00 2.934262454509735107e-01
2.377000000000000000e+03 2.086324882507324219e+01 1.508242130279541016e+01 -4.564963877201080322e-01 -6.991692781448364258e-01 -3.466996848583221436e-01 4.805420637130737305e-01
2.378000000000000000e+03 2.120189094543457031e+01 1.357846069335937500e+01 -4.672157466411590576e-01 -6.871134042739868164e-01 -3.462987542152404785e-01 5.164885520935058594e-01
2.379000000000000000e+03 2.616513013839721680e+00 6.269226074218750000e+00 -6.259153451537713408e-05 2.584867615951225162e-05 -1.102285841625416651e-05 3.108389792032539845e-04
2.380000000000000000e+03 9.154518127441406250e+00 -5.640417575836181641e+00 -1.434433943359181285e-04 2.560460416134446859e-04 3.378079418325796723e-05 -8.329624688485637307e-05
2.381000000000000000e+03 6.419154644012451172e+00 1.432911205291748047e+01 7.885931991040706635e-03 -4.057316575199365616e-03 1.148584531620144844e-03 1.232549734413623810e-02
2.382000000000000000e+03 2.203260612487792969e+01 -1.108929157257080078e+00 -9.167475253343582153e-02 -1.477160304784774780e-01 -7.181723415851593018e-02 1.663043200969696045e-01
2.383000000000000000e+03 2.316025733947753906e+01 3.997984230518341064e-01 -1.577469557523727417e-01 -2.026414424180984497e-01 -1.081165224313735962e-01 2.867371439933776855e-01
2.384000000000000000e+03 5.196318626403808594e+00 1.035358619689941406e+01 2.313936362043023109e-03 -1.094369101338088512e-03 3.658702189568430185e-04 6.606804672628641129e-04
2.385000000000000000e+03 7.419660186767578125e+01 2.922174453735351562e+01 9.856684505939483643e-02 5.047967910766601562e+00 1.543960452079772949e+00 -3.379084467887878418e-01
2.386000000000000000e+03 7.646811676025390625e+01 -1.509879684448242188e+01 -5.006563663482666016e-01 9.395630836486816406e+00 2.668492317199707031e+00 6.479421257972717285e-01
2.387000000000000000e+03 7.443817138671875000e+01 -1.674297523498535156e+01 -2.724172770977020264e-01 7.644013404846191406e+00 2.211478710174560547e+00 1.353110432624816895e+00
2.388000000000000000e+03 7.542673492431640625e+01 -2.731881141662597656e+01 1.498122364282608032e-01 6.616949081420898438e+00 2.030028343200683594e+00 7.077335119247436523e-01
2.389000000000000000e+03 7.356574249267578125e+01 -2.831708908081054688e+01 2.593565285205841064e-01 5.867332458496093750e+00 1.838006734848022461e+00 8.176597952842712402e-01
2.390000000000000000e+03 7.383483886718750000e+01 2.196206092834472656e+01 1.526145040988922119e-01 5.339602947235107422e+00 1.647665262222290039e+00 -6.075907349586486816e-01
2.391000000000000000e+03 7.515763092041015625e+01 2.349788475036621094e+01 8.977670967578887939e-02 5.532525062561035156e+00 1.686690449714660645e+00 -4.586538076400756836e-01
2.392000000000000000e+03 7.467987060546875000e+01 8.347117424011230469e+00 1.035374850034713745e-01 6.935310363769531250e+00 2.111654281616210938e+00 -1.204552531242370605e+00
2.393000000000000000e+03 7.557027435302734375e+01 1.251203727722167969e+01 1.233566850423812866e-01 6.784704208374023438e+00 2.072418212890625000e+00 -8.867943882942199707e-01
2.394000000000000000e+03 7.405966949462890625e+01 1.787862014770507812e+01 1.748250871896743774e-01 5.693522930145263672e+00 1.760504364967346191e+00 -7.779958248138427734e-01
2.395000000000000000e+03 7.416207885742187500e+01 1.518397331237792969e+01 1.866248250007629395e-01 5.951268672943115234e+00 1.841367959976196289e+00 -9.073864221572875977e-01
2.396000000000000000e+03 7.360831451416015625e+01 2.487144851684570312e+01 1.383783966302871704e-01 5.126541137695312500e+00 1.579475879669189453e+00 -4.999921023845672607e-01
2.397000000000000000e+03 7.509584808349609375e+01 2.633561706542968750e+01 7.390692085027694702e-02 5.348265171051025391e+00 1.626651525497436523e+00 -3.693991601467132568e-01
2.398000000000000000e+03 7.355641174316406250e+01 2.638748741149902344e+01 1.272407323122024536e-01 5.042220115661621094e+00 1.550838232040405273e+00 -4.439643025398254395e-01
2.399000000000000000e+03 7.510190582275390625e+01 2.492088317871093750e+01 8.389105647802352905e-02 5.424741744995117188e+00 1.652589797973632812e+00 -4.135235249996185303e-01
2.400000000000000000e+03 7.440057373046875000e+01 1.106796360015869141e+01 1.745904833078384399e-01 6.456180095672607422e+00 1.989231109619140625e+00 -1.107241272926330566e+00
2.401000000000000000e+03 7.541095733642578125e+01 1.796990966796875000e+01 1.144879758358001709e-01 6.074385166168212891e+00 1.856661915779113770e+00 -6.533280014991760254e-01
2.402000000000000000e+03 7.616659545898437500e+01 1.199197053909301758e+00 -8.671644330024719238e-01 9.704164505004882812e+00 2.651100158691406250e+00 -6.027362346649169922e-01
2.403000000000000000e+03 7.424134826660156250e+01 -2.690120697021484375e+01 2.195658087730407715e-01 6.258714199066162109e+00 1.943483948707580566e+00 8.591929674148559570e-01
2.404000000000000000e+03 7.426194000244140625e+01 3.228646087646484375e+01 8.379938453435897827e-02 4.947252273559570312e+00 1.509315490722656250e+00 -2.571797072887420654e-01
2.405000000000000000e+03 7.525589752197265625e+01 -1.827103424072265625e+01 -8.287061750888824463e-02 7.812247753143310547e+00 2.318813085556030273e+00 1.148697972297668457e+00
2.406000000000000000e+03 7.632434844970703125e+01 3.354662418365478516e+00 -3.323547840118408203e-01 8.955532073974609375e+00 2.586953401565551758e+00 -8.214653134346008301e-01
2.407000000000000000e+03 7.534483337402343750e+01 2.466747045516967773e+00 -6.074184179306030273e-01 8.663538932800292969e+00 2.416836261749267578e+00 -1.096640110015869141e+00
2.408000000000000000e+03 7.607066345214843750e+01 -2.077400016784667969e+01 5.851263552904129028e-02 7.844335079193115234e+00 2.370854377746582031e+00 9.402510523796081543e-01
2.409000000000000000e+03 7.521115112304687500e+01 4.614576816558837891e+00 -2.028544545173645020e-01 7.920620918273925781e+00 2.315330028533935547e+00 -1.186431050300598145e+00
2.410000000000000000e+03 7.392825317382812500e+01 2.057771873474121094e+01 1.608572602272033691e-01 5.451290130615234375e+00 1.683644175529479980e+00 -6.602456569671630859e-01
2.411000000000000000e+03 7.208975982666015625e+01 -3.411957550048828125e+01 3.087741136550903320e-01 5.151787757873535156e+00 1.638168573379516602e+00 4.830237627029418945e-01
2.412000000000000000e+03 7.516784667968750000e+01 -3.360848999023437500e+01 1.302592903375625610e-01 6.017413616180419922e+00 1.844301819801330566e+00 4.077158272266387939e-01
2.413000000000000000e+03 7.422497558593750000e+01 1.382052612304687500e+01 1.916481852531433105e-01 6.097829818725585938e+00 1.886843442916870117e+00 -9.755375981330871582e-01
2.414000000000000000e+03 7.346036529541015625e+01 3.025325202941894531e+01 1.112870499491691589e-01 4.910464286804199219e+00 1.506525397300720215e+00 -3.455959260463714600e-01
2.415000000000000000e+03 7.476438140869140625e+01 -2.204245758056640625e+01 1.387546509504318237e-01 6.976389408111572266e+00 2.134543180465698242e+00 1.094399094581604004e+00
2.416000000000000000e+03 7.486895751953125000e+01 7.047276496887207031e+00 3.068907186388969421e-02 7.233002185821533203e+00 2.179107427597045898e+00 -1.220596909523010254e+00
2.417000000000000000e+03 1.027194023132324219e+01 6.413063049316406250e+00 -2.872885670512914658e-04 1.297176117077469826e-03 3.029662766493856907e-04 5.419294393504969776e-05
2.418000000000000000e+03 4.557135581970214844e+00 2.721909332275390625e+01 1.829523826017975807e-03 -3.420120477676391602e-01 -1.020547524094581604e-01 2.088036239147186279e-01
2.419000000000000000e+03 7.508116912841796875e+01 -1.945710563659667969e+01 1.510808803141117096e-02 7.494874954223632812e+00 2.252995014190673828e+00 1.140275716781616211e+00
2.420000000000000000e+03 7.488061523437500000e+01 -2.073472785949707031e+01 9.009480476379394531e-02 7.207598209381103516e+00 2.189307928085327148e+00 1.129608154296875000e+00
2.421000000000000000e+03 4.507738590240478516e+00 -2.719882965087890625e+01 3.597572213038802147e-03 -1.866214126348495483e-01 -5.490715056657791138e-02 -1.080439761281013489e-01
2.422000000000000000e+03 6.902921199798583984e+00 -8.482936859130859375e+00 3.178869374096393585e-04 -3.709695010911673307e-04 -1.592476291989441961e-05 -1.240310375578701496e-04
2.423000000000000000e+03 4.454190254211425781e+00 2.326026725769042969e+01 -7.318408787250518799e-02 -1.703719049692153931e-01 -7.306680083274841309e-02 1.668085306882858276e-01
2.424000000000000000e+03 1.086306095123291016e+01 2.272710609436035156e+01 -1.464657634496688843e-01 -5.305180549621582031e-01 -2.030951380729675293e-01 4.495984911918640137e-01
2.425000000000000000e+03 1.159553813934326172e+01 2.494460678100585938e+01 -5.352835170924663544e-03 -6.123416423797607422e-01 -1.853083372116088867e-01 4.067360460758209229e-01
2.426000000000000000e+03 4.236287593841552734e+00 -2.145750999450683594e+01 -3.548515588045120239e-02 -6.016552448272705078e-02 -2.869520336389541626e-02 -6.183423846960067749e-02
2.427000000000000000e+03 4.633992671966552734e+00 1.227025508880615234e+01 5.087356548756361008e-03 -3.454253543168306351e-03 4.899309715256094933e-04 3.238256031181663275e-04
2.428000000000000000e+03 4.545708179473876953e+00 -2.018805503845214844e+01 -4.645312577486038208e-02 -4.802322387695312500e-02 -2.834290452301502228e-02 -5.382352694869041443e-02
2.429000000000000000e+03 6.717738151550292969e+00 2.560035324096679688e+01 -4.336001351475715637e-02 -3.593249022960662842e-01 -1.208054721355438232e-01 2.926691174507141113e-01
2.430000000000000000e+03 5.879713535308837891e+00 -2.592761421203613281e+01 -4.197424743324518204e-03 -1.803081184625625610e-01 -5.535166338086128235e-02 -1.342261582612991333e-01
2.431000000000000000e+03 8.522863388061523438e+00 -6.607868194580078125e+00 2.299351472174748778e-04 -3.596725291572511196e-04 -3.892121458193287253e-05 1.424585207132622600e-04
2.432000000000000000e+03 5.703002929687500000e+00 -2.733885002136230469e+01 4.742987919598817825e-03 -2.017261236906051636e-01 -5.909493938088417053e-02 -1.291979402303695679e-01
2.433000000000000000e+03 6.266838073730468750e+00 3.142852020263671875e+01 5.753576382994651794e-02 -4.986770451068878174e-01 -1.323423832654953003e-01 2.178526371717453003e-01
2.434000000000000000e+03 4.200531005859375000e+00 2.059244537353515625e+01 -7.243195176124572754e-02 -6.861817091703414917e-02 -4.231503605842590332e-02 6.063560768961906433e-02
2.435000000000000000e+03 4.713459014892578125e+00 2.213276481628417969e+01 -1.094921603798866272e-01 -1.259824484586715698e-01 -7.064238190650939941e-02 1.416650563478469849e-01
2.436000000000000000e+03 5.468892574310302734e+00 -3.372283554077148438e+01 3.019065782427787781e-02 -2.867463827133178711e-01 -7.696671783924102783e-02 -8.446352928876876831e-02
2.437000000000000000e+03 7.125558376312255859e+00 -3.337540435791015625e+01 4.732383787631988525e-02 -2.813761234283447266e-01 -7.021568715572357178e-02 -1.061525940895080566e-01
2.438000000000000000e+03 1.087666988372802734e+01 -2.949375915527343750e+01 5.280951783061027527e-02 -2.691088020801544189e-01 -6.488978117704391479e-02 -1.668466478586196899e-01
2.439000000000000000e+03 7.244075298309326172e+00 2.134677124023437500e+01 -2.382179349660873413e-01 -1.528647541999816895e-01 -1.173248067498207092e-01 2.611168622970581055e-01
2.440000000000000000e+03 6.213711738586425781e+00 2.821345520019531250e+01 1.729517057538032532e-02 -4.215930402278900146e-01 -1.212893575429916382e-01 2.644755840301513672e-01
2.441000000000000000e+03 5.478258132934570312e+00 -2.864804458618164062e+01 1.356763765215873718e-02 -2.210338860750198364e-01 -6.223987415432929993e-02 -1.208042129874229431e-01
2.442000000000000000e+03 3.756478548049926758e+00 9.931936264038085938e+00 1.630425802432000637e-03 -4.022098437417298555e-04 3.684647963382303715e-04 -5.173592944629490376e-04
2.443000000000000000e+03 5.473158359527587891e+00 8.617236137390136719e+00 1.011781278066337109e-03 -2.606164198368787766e-04 2.253494458273053169e-04 4.582825931720435619e-04
2.444000000000000000e+03 3.825862646102905273e+00 7.633549690246582031e+00 3.328993625473231077e-04 1.544285769341513515e-04 1.461983774788677692e-04 9.867989865597337484e-05
2.445000000000000000e+03 4.537765502929687500e+00 -6.408661365509033203e+00 -7.252406066982075572e-05 -8.786741818767040968e-05 -4.811744292965158820e-05 -3.512323310133069754e-04
2.446000000000000000e+03 4.378036975860595703e+00 -5.494526386260986328e+00 9.467181371292099357e-05 2.347391273360699415e-04 9.882328595267608762e-05 3.280734526924788952e-04
2.447000000000000000e+03 1.316647243499755859e+01 2.328361892700195312e+01 -5.948709696531295776e-02 -7.240969538688659668e-01 -2.350752204656600952e-01 4.249797165393829346e-01
2.448000000000000000e+03 9.186946868896484375e+00 2.366981315612792969e+01 -1.085573509335517883e-01 -4.260769188404083252e-01 -1.603902727365493774e-01 3.897138237953186035e-01
2.449000000000000000e+03 6.220106124877929688e+00 -7.722608089447021484e+00 -3.192902659066021442e-05 4.359649901743978262e-04 1.212107890751212835e-04 1.588713639648631215e-04
2.450000000000000000e+03 1.843852233886718750e+01 -1.655339813232421875e+01 -2.415207326412200928e-01 -1.161083504557609558e-01 -1.072887256741523743e-01 -2.364422678947448730e-01
2.451000000000000000e+03 1.930891036987304688e+01 2.008714866638183594e+01 -1.898972243070602417e-01 -7.515104413032531738e-01 -2.824223041534423828e-01 3.401480615139007568e-01
2.452000000000000000e+03 1.660906791687011719e+01 2.094190597534179688e+01 -1.756353229284286499e-01 -8.389707207679748535e-01 -3.043818175792694092e-01 3.739762008190155029e-01
2.453000000000000000e+03 1.961067581176757812e+01 -1.419388580322265625e+01 -2.729357182979583740e-01 -6.513659656047821045e-02 -1.014216914772987366e-01 -2.372297048568725586e-01
2.454000000000000000e+03 1.791668319702148438e+01 -1.473611831665039062e+01 -2.561776041984558105e-01 -1.067854613065719604e-01 -1.088889241218566895e-01 -2.245080620050430298e-01
2.455000000000000000e+03 1.795041465759277344e+01 -1.788787841796875000e+01 -2.149836868047714233e-01 -1.414759457111358643e-01 -1.069378852844238281e-01 -2.303785681724548340e-01
2.456000000000000000e+03 2.385300827026367188e+01 6.080835342407226562e+00 -2.965486347675323486e-01 -3.891511857509613037e-01 -2.057099491357803345e-01 5.368437170982360840e-01
2.457000000000000000e+03 2.448118019104003906e+01 5.235834121704101562e+00 -2.932648062705993652e-01 -3.336249887943267822e-01 -1.880669295787811279e-01 5.288777947425842285e-01
2.458000000000000000e+03 2.334565734863281250e+01 2.650927782058715820e+00 -1.948309838771820068e-01 -2.872547507286071777e-01 -1.446257233619689941e-01 3.890456259250640869e-01
2.459000000000000000e+03 1.894086837768554688e+01 -1.531386756896972656e+01 -2.599290013313293457e-01 -9.124815464019775391e-02 -1.053531393408775330e-01 -2.396774142980575562e-01
2.460000000000000000e+03 1.923125839233398438e+01 -1.250755119323730469e+01 -2.539487779140472412e-01 -5.540633946657180786e-02 -9.280653297901153564e-02 -2.081711888313293457e-01
2.461000000000000000e+03 1.548533725738525391e+01 -2.105394172668457031e+01 -1.172119528055191040e-01 -2.155783772468566895e-01 -9.983709454536437988e-02 -2.075694799423217773e-01
2.462000000000000000e+03 1.743137359619140625e+01 -1.937942504882812500e+01 -1.750533729791641235e-01 -1.681827008724212646e-01 -1.029708236455917358e-01 -2.285256087779998779e-01
2.463000000000000000e+03 2.272802352905273438e+01 1.082441616058349609e+01 -4.142868816852569580e-01 -5.472447276115417480e-01 -2.884594798088073730e-01 5.672907829284667969e-01
2.464000000000000000e+03 7.200643157958984375e+01 4.069361114501953125e+01 1.367929428815841675e-01 4.482517719268798828e+00 1.385793209075927734e+00 -5.240850895643234253e-02
2.465000000000000000e+03 2.339523887634277344e+01 7.090120792388916016e+00 -3.152726292610168457e-01 -4.408536553382873535e-01 -2.268378883600234985e-01 5.491753816604614258e-01
2.466000000000000000e+03 2.416702651977539062e+01 8.617464065551757812e+00 -3.685861825942993164e-01 -4.129107892513275146e-01 -2.344490885734558105e-01 5.833821892738342285e-01
2.467000000000000000e+03 7.295661926269531250e+01 -8.805513381958007812e+00 -2.284601777791976929e-01 7.812761783599853516e+00 2.275290489196777344e+00 5.179721355438232422e+00
2.468000000000000000e+03 7.349594116210937500e+01 -8.963618278503417969e+00 -1.155347228050231934e+00 1.086181354522705078e+01 2.911940097808837891e+00 4.914826869964599609e+00
2.469000000000000000e+03 7.353690338134765625e+01 -3.443886756896972656e+00 -1.371770024299621582e+00 1.070741271972656250e+01 2.800692796707153320e+00 -4.482937335968017578e+00
2.470000000000000000e+03 7.321002960205078125e+01 -3.964143037796020508e+00 -5.693030357360839844e-01 9.135520935058593750e+00 2.569865465164184570e+00 -5.354108810424804688e+00
2.471000000000000000e+03 7.523515319824218750e+01 -4.006110668182373047e+00 -1.752355575561523438e+00 1.682376098632812500e+01 4.521421432495117188e+00 4.445685446262359619e-02
2.472000000000000000e+03 7.529096221923828125e+01 -1.193644809722900391e+01 -1.666343927383422852e+00 1.080811977386474609e+01 2.742532730102539062e+00 8.933478593826293945e-01
2.473000000000000000e+03 7.648294830322265625e+01 -9.598156929016113281e+00 -1.290747165679931641e+00 1.331898498535156250e+01 3.608471393585205078e+00 -1.530707716941833496e+00
2.474000000000000000e+03 7.561746215820312500e+01 -2.477071285247802734e+00 -2.064848184585571289e+00 1.296394157409667969e+01 3.269728183746337891e+00 -2.198931872844696045e-01
2.475000000000000000e+03 7.585536956787109375e+01 -9.316391944885253906e+00 -1.543167471885681152e+00 1.467654895782470703e+01 3.940014600753784180e+00 -9.366297721862792969e-01
2.476000000000000000e+03 7.631308746337890625e+01 -4.746119499206542969e+00 1.234299659729003906e+00 1.490599632263183594e+01 4.842088699340820312e+00 2.663981199264526367e+00
2.477000000000000000e+03 7.646511840820312500e+01 -8.433737754821777344e+00 4.053536951541900635e-01 1.425323486328125000e+01 4.397576332092285156e+00 -2.425930261611938477e+00
2.478000000000000000e+03 7.691121673583984375e+01 -8.505849838256835938e+00 4.867848157882690430e-01 1.298216819763183594e+01 4.040685653686523438e+00 -2.545609712600708008e+00
2.479000000000000000e+03 7.575369262695312500e+01 -8.601188659667968750e+00 -6.437777280807495117e-01 1.616501235961914062e+01 4.656370162963867188e+00 -1.688679337501525879e+00
2.480000000000000000e+03 7.175118255615234375e+01 -9.231818199157714844e+00 -1.810755133628845215e-01 3.534220695495605469e+00 1.005943536758422852e+00 3.392023086547851562e+00
2.481000000000000000e+03 7.680046844482421875e+01 -7.981727123260498047e+00 1.535738825798034668e+00 1.321676826477050781e+01 4.425752162933349609e+00 -2.607228040695190430e+00
2.482000000000000000e+03 7.632069396972656250e+01 -6.246156215667724609e+00 5.826241493225097656e+00 1.394008159637451172e+01 5.929896831512451172e+00 4.374088644981384277e-01
2.483000000000000000e+03 7.062912750244140625e+01 -9.965036392211914062e+00 -4.464527964591979980e-01 2.437910079956054688e+00 5.974371433258056641e-01 2.361322879791259766e+00
2.484000000000000000e+03 7.118610382080078125e+01 -3.450061321258544922e+00 -4.107961654663085938e-01 2.647454023361206055e+00 6.709973812103271484e-01 -2.730013370513916016e+00
2.485000000000000000e+03 7.160676574707031250e+01 -3.633219003677368164e+00 -3.019517362117767334e-01 3.220970869064331055e+00 8.757057189941406250e-01 -3.208417892456054688e+00
2.486000000000000000e+03 6.938616180419921875e+01 -1.147082996368408203e+01 -3.837865591049194336e-01 2.235636949539184570e+00 5.555551052093505859e-01 1.787994384765625000e+00
2.487000000000000000e+03 6.945423126220703125e+01 -1.089875221252441406e+01 -4.992522299289703369e-01 1.947171449661254883e+00 4.343757629394531250e-01 1.738310813903808594e+00
2.488000000000000000e+03 2.355718994140625000e+01 -1.207626342773437500e+00 -1.547349244356155396e-01 -1.394539028406143188e-01 -8.825664967298507690e-02 2.278957515954971313e-01
2.489000000000000000e+03 2.493413925170898438e+01 1.318017601966857910e+00 -2.485052049160003662e-01 -1.917676925659179688e-01 -1.320818662643432617e-01 3.887437880039215088e-01
2.490000000000000000e+03 7.642567443847656250e+01 -8.103291511535644531e+00 1.187704801559448242e+00 1.443051433563232422e+01 4.685465812683105469e+00 -2.658177614212036133e+00
2.491000000000000000e+03 7.676369476318359375e+01 -9.061467170715332031e+00 -4.660575985908508301e-01 1.324614524841308594e+01 3.834026336669921875e+00 -2.107132434844970703e+00
2.492000000000000000e+03 7.001844024658203125e+01 -1.038250255584716797e+01 -5.118883848190307617e-01 2.093790769577026367e+00 4.745707511901855469e-01 1.978939652442932129e+00
2.493000000000000000e+03 6.839070892333984375e+01 -1.101608180999755859e+01 -7.284946441650390625e-01 1.256483078002929688e+00 1.583965420722961426e-01 1.194540619850158691e+00
2.494000000000000000e+03 2.440549278259277344e+01 -9.303264617919921875e-01 -2.033791542053222656e-01 -1.313810348510742188e-01 -1.004280596971511841e-01 2.700817584991455078e-01
2.495000000000000000e+03 2.291527748107910156e+01 -1.812081217765808105e+00 -1.211418583989143372e-01 -1.156379356980323792e-01 -7.103393971920013428e-02 1.717471331357955933e-01
2.496000000000000000e+03 2.674847984313964844e+01 -2.243277311325073242e+00 -3.041779994964599609e-01 -6.299236416816711426e-02 -1.101511120796203613e-01 2.681988179683685303e-01
2.497000000000000000e+03 2.501836013793945312e+01 -1.277049303054809570e+00 -2.292539626359939575e-01 -1.121866330504417419e-01 -1.024321839213371277e-01 2.733813226222991943e-01
2.498000000000000000e+03 2.743537139892578125e+01 -2.232422828674316406e+00 -3.443717360496520996e-01 -5.505274236202239990e-02 -1.198273375630378723e-01 2.843688726425170898e-01
2.499000000000000000e+03 2.701700973510742188e+01 -1.147906780242919922e+00 -3.296034634113311768e-01 -8.385364711284637451e-02 -1.240371316671371460e-01 3.324635028839111328e-01
2.500000000000000000e+03 7.006140899658203125e+01 -2.916902780532836914e+00 -6.986673474311828613e-01 1.804089546203613281e+00 3.316266536712646484e-01 -1.882813811302185059e+00
2.501000000000000000e+03 6.842166900634765625e+01 -1.304345846176147461e+00 -5.872510075569152832e-01 1.528606057167053223e+00 2.824065387248992920e-01 -1.351052761077880859e+00
2.502000000000000000e+03 5.750820159912109375e+00 4.708772182464599609e+00 2.926576125901192427e-04 -2.370876609347760677e-04 1.667098877078387886e-05 -1.098598513635806739e-04
2.503000000000000000e+03 4.855000495910644531e+00 5.355679988861083984e+00 2.828435972332954407e-04 -1.041128198266960680e-04 5.361923103919252753e-05 -1.448667608201503754e-04
2.504000000000000000e+03 7.524182891845703125e+01 -3.526844263076782227e+00 -2.059998989105224609e+00 1.531439113616943359e+01 3.976317644119262695e+00 -3.754794001579284668e-01
2.505000000000000000e+03 7.429645538330078125e+01 -3.594223737716674805e+00 -2.124392747879028320e+00 1.405488681793212891e+01 3.579148292541503906e+00 -3.116824150085449219e+00
2.506000000000000000e+03 7.600673675537109375e+01 -1.310027599334716797e+01 -1.140464782714843750e+00 1.018518447875976562e+01 2.713415861129760742e+00 4.733904004096984863e-01
2.507000000000000000e+03 8.205665588378906250e+00 5.999224662780761719e+00 -2.244537608930841088e-04 9.210411808453500271e-04 2.089762274408712983e-04 4.814121930394321680e-04
2.508000000000000000e+03 2.614211082458496094e+01 -1.635300993919372559e+00 -2.816501557826995850e-01 -8.458881080150604248e-02 -1.098716929554939270e-01 2.862930595874786377e-01
2.509000000000000000e+03 9.901687622070312500e+00 5.800144672393798828e+00 4.375500066089443862e-05 3.285132697783410549e-04 1.116804778575897217e-04 8.265862707048654556e-04
2.510000000000000000e+03 2.963924026489257812e+01 -2.199676752090454102e+00 -4.678715467453002930e-01 -3.267167881131172180e-02 -1.501629650592803955e-01 3.229582011699676514e-01
2.511000000000000000e+03 3.109894561767578125e+01 -2.216220140457153320e+00 -5.560476779937744141e-01 -2.001184970140457153e-02 -1.728178709745407104e-01 3.407777249813079834e-01
2.512000000000000000e+03 7.583312225341796875e+01 -1.177592372894287109e+01 -1.629741787910461426e+00 1.117187309265136719e+01 2.862639427185058594e+00 3.556269109249114990e-01
2.513000000000000000e+03 7.639289855957031250e+01 -2.086794614791870117e+00 -1.629942774772644043e+00 1.213770103454589844e+01 3.152327537536621094e+00 6.263790130615234375e-01
2.514000000000000000e+03 6.163231849670410156e+00 5.458104610443115234e+00 4.119193763472139835e-04 -3.882918972522020340e-04 7.088240181474247947e-06 8.817235539027024060e-06
2.515000000000000000e+03 6.385083675384521484e+00 4.780147075653076172e+00 -1.928575511556118727e-04 5.544486921280622482e-04 1.084773393813520670e-04 1.564401609357446432e-04
2.516000000000000000e+03 7.508134460449218750e+01 8.041111826896667480e-01 -1.075041055679321289e+00 9.285018920898437500e+00 2.462993144989013672e+00 -1.150048136711120605e+00
2.517000000000000000e+03 7.563433074951171875e+01 -1.030382156372070312e+00 -1.723698973655700684e+00 1.116896152496337891e+01 2.833578824996948242e+00 -5.197240710258483887e-01
2.518000000000000000e+03 2.973423576354980469e+01 -9.655787348747253418e-01 -4.708340167999267578e-01 -4.982412233948707581e-02 -1.561974436044692993e-01 3.913512527942657471e-01
2.519000000000000000e+03 3.039158058166503906e+01 -1.579111218452453613e+00 -5.128982067108154297e-01 -3.326616808772087097e-02 -1.638493239879608154e-01 3.697718381881713867e-01
2.520000000000000000e+03 3.329688262939453125e+01 -2.180325746536254883e+00 -6.949051022529602051e-01 -7.433727849274873734e-03 -2.107016444206237793e-01 3.632460832595825195e-01
2.521000000000000000e+03 3.255811691284179688e+01 -1.592064499855041504e+00 -6.367554068565368652e-01 -1.627754047513008118e-02 -1.959098875522613525e-01 3.939677178859710693e-01
2.522000000000000000e+03 3.252983856201171875e+01 -1.027393698692321777e+00 -6.234591007232666016e-01 -2.183398045599460602e-02 -1.935879141092300415e-01 4.263564348220825195e-01
2.523000000000000000e+03 4.562712097167968750e+01 -1.359306907653808594e+01 -9.879465103149414062e-01 -4.675514250993728638e-02 -3.104104995727539062e-01 -5.125301480293273926e-01
2.524000000000000000e+03 4.421602249145507812e+01 -1.131396102905273438e+01 -1.283812999725341797e+00 -3.385726734995841980e-02 -3.953011035919189453e-01 -4.051884710788726807e-01
2.525000000000000000e+03 4.274888992309570312e+01 -1.140604686737060547e+01 -1.197373509407043457e+00 -3.517192974686622620e-02 -3.697636425495147705e-01 -3.953458368778228760e-01
2.526000000000000000e+03 4.352205657958984375e+01 -1.224617195129394531e+01 -1.117963910102844238e+00 -4.353521764278411865e-02 -3.484497368335723877e-01 -4.462852180004119873e-01
2.527000000000000000e+03 4.755520248413085938e+01 -1.191416645050048828e+01 -1.349893808364868164e+00 -3.724814206361770630e-02 -4.161425828933715820e-01 -4.640060961246490479e-01
2.528000000000000000e+03 4.697555160522460938e+01 -1.117012786865234375e+01 -1.453159451484680176e+00 -3.206156939268112183e-02 -4.455662965774536133e-01 -4.219736456871032715e-01
2.529000000000000000e+03 4.818866348266601562e+01 -1.305169868469238281e+01 -1.150697231292724609e+00 -4.338203743100166321e-02 -3.582237660884857178e-01 -5.126849412918090820e-01
2.530000000000000000e+03 4.841754150390625000e+01 -1.119502925872802734e+01 -1.518692612648010254e+00 -2.658180892467498779e-02 -4.635823071002960205e-01 -4.411900043487548828e-01
2.531000000000000000e+03 4.279444503784179688e+01 -1.322106075286865234e+01 -9.631487727165222168e-01 -5.600020289421081543e-02 -3.057446777820587158e-01 -4.723813831806182861e-01
2.532000000000000000e+03 4.037521743774414062e+01 -1.144449138641357422e+01 -1.068226933479309082e+00 -3.743717446923255920e-02 -3.316992521286010742e-01 -3.742523491382598877e-01
2.533000000000000000e+03 4.115547561645507812e+01 -1.211763954162597656e+01 -1.027927398681640625e+00 -4.311424121260643005e-02 -3.213124871253967285e-01 -4.107877016067504883e-01
2.534000000000000000e+03 4.975034332275390625e+01 -1.208526039123535156e+01 -1.397468090057373047e+00 -2.909434400498867035e-02 -4.279687404632568359e-01 -4.867487549781799316e-01
2.535000000000000000e+03 5.053069686889648438e+01 -1.202131748199462891e+01 -1.440386295318603516e+00 -2.453399449586868286e-02 -4.394761025905609131e-01 -4.888916015625000000e-01
2.536000000000000000e+03 5.292941284179687500e+01 -1.197984218597412109e+01 -1.524865508079528809e+00 -1.530722621828317642e-02 -4.620518386363983154e-01 -4.868980944156646729e-01
2.537000000000000000e+03 5.142025375366210938e+01 -1.122968673706054688e+01 -1.658363699913024902e+00 -1.682615280151367188e-02 -5.025569200515747070e-01 -4.600583314895629883e-01
2.538000000000000000e+03 3.401043319702148438e+01 -1.473925590515136719e+00 -7.208926677703857422e-01 -9.718114510178565979e-03 -2.191832363605499268e-01 4.124973714351654053e-01
2.539000000000000000e+03 3.701827621459960938e+01 -2.043530702590942383e+00 -9.375631809234619141e-01 -5.495230434462428093e-04 -2.814337909221649170e-01 3.930159211158752441e-01
2.540000000000000000e+03 3.553186798095703125e+01 -1.378216385841369629e+00 -8.092314600944519043e-01 -5.881992168724536896e-03 -2.445340305566787720e-01 4.279367625713348389e-01
2.541000000000000000e+03 5.374341583251953125e+01 -1.192571067810058594e+01 -1.564844250679016113e+00 -9.582593105733394623e-03 -4.723280668258666992e-01 -4.830711483955383301e-01
2.542000000000000000e+03 5.299787521362304688e+01 -1.121005249023437500e+01 -1.735849618911743164e+00 -1.484387461096048355e-02 -5.252080559730529785e-01 -4.589444696903228760e-01
2.543000000000000000e+03 4.517040252685546875e+01 -1.285884284973144531e+01 -1.083578824996948242e+00 -4.370772093534469604e-02 -3.381859362125396729e-01 -4.862303733825683594e-01
2.544000000000000000e+03 3.957316589355468750e+01 -1.233311367034912109e+01 -9.413917660713195801e-01 -4.856704548001289368e-02 -2.969876527786254883e-01 -4.014851450920104980e-01
2.545000000000000000e+03 3.871955108642578125e+01 -1.270478630065917969e+01 -8.647978305816650391e-01 -5.077133327722549438e-02 -2.746707499027252197e-01 -4.102575480937957764e-01
2.546000000000000000e+03 6.399789047241210938e+01 -1.110755681991577148e+00 -1.383005499839782715e+00 3.198275268077850342e-01 -3.189533948898315430e-01 -9.756649285554885864e-02
2.547000000000000000e+03 5.808990478515625000e+01 -1.175165939331054688e+01 -1.662964463233947754e+00 3.709314018487930298e-02 -4.877614080905914307e-01 -4.050768911838531494e-01
2.548000000000000000e+03 5.600155258178710938e+01 -1.184249305725097656e+01 -1.630183577537536621e+00 6.773142376914620399e-04 -4.888518750667572021e-01 -4.552227854728698730e-01
2.549000000000000000e+03 5.953649139404296875e+01 -1.177567005157470703e+01 -1.606532931327819824e+00 7.091408967971801758e-02 -4.606856703758239746e-01 -3.487468957901000977e-01
2.550000000000000000e+03 5.893254470825195312e+01 -1.104490470886230469e+01 -1.923553586006164551e+00 3.030626662075519562e-02 -5.679742097854614258e-01 -3.883375525474548340e-01
2.551000000000000000e+03 5.452012634277343750e+01 -1.191741371154785156e+01 -1.591436862945556641e+00 -7.337287999689579010e-03 -4.796322286128997803e-01 -4.746092855930328369e-01
2.552000000000000000e+03 5.868020248413085938e+01 -1.242931175231933594e+01 -1.394956111907958984e+00 7.811012119054794312e-02 -3.950538039207458496e-01 -3.672845661640167236e-01
2.553000000000000000e+03 3.775551605224609375e+01 -2.032994508743286133e+00 -9.879865050315856934e-01 3.780572660616599023e-05 -2.963846027851104736e-01 3.966012001037597656e-01
2.554000000000000000e+03 5.527285385131835938e+01 -1.189657592773437500e+01 -1.609532475471496582e+00 -4.022287204861640930e-03 -4.840664565563201904e-01 -4.641315937042236328e-01
2.555000000000000000e+03 7.039150238037109375e+01 -2.644323348999023438e+00 -5.418583750724792480e-01 2.292636394500732422e+00 5.252333879470825195e-01 -2.195270299911499023e+00
2.556000000000000000e+03 3.604670333862304688e+01 -1.142804813385009766e+01 -8.567668199539184570e-01 -3.824640437960624695e-02 -2.685039639472961426e-01 -3.264248073101043701e-01
2.557000000000000000e+03 3.830561447143554688e+01 -1.203215312957763672e+01 -9.107295870780944824e-01 -4.582321643829345703e-02 -2.869658470153808594e-01 -3.791519403457641602e-01
2.558000000000000000e+03 3.552361297607421875e+01 -6.792709827423095703e-01 -7.778310179710388184e-01 -1.032242365181446075e-02 -2.364460229873657227e-01 4.699659943580627441e-01
2.559000000000000000e+03 6.101517868041992188e+01 -1.718317627906799316e+00 -1.967814207077026367e+00 6.902343779802322388e-02 -5.696372389793395996e-01 2.610257863998413086e-01
2.560000000000000000e+03 5.797988510131835938e+01 -1.687671899795532227e+00 -2.027680397033691406e+00 1.329910103231668472e-02 -6.043143868446350098e-01 3.723901212215423584e-01
2.561000000000000000e+03 5.868655776977539062e+01 -1.886454671621322632e-01 -1.456663966178894043e+00 8.393175899982452393e-02 -4.118196666240692139e-01 3.121318817138671875e-01
2.562000000000000000e+03 3.534299850463867188e+01 -1.147417068481445312e+01 -8.240162730216979980e-01 -3.856359422206878662e-02 -2.587739527225494385e-01 -3.217861652374267578e-01
2.563000000000000000e+03 3.729277420043945312e+01 -1.300796604156494141e+01 -7.742981910705566406e-01 -5.620551854372024536e-02 -2.491511255502700806e-01 -4.076872467994689941e-01
2.564000000000000000e+03 6.552519989013671875e+01 -1.911587357521057129e+00 -1.550322413444519043e+00 3.667995035648345947e-01 -3.550568521022796631e-01 -2.350283861160278320e-01
2.565000000000000000e+03 6.024324798583984375e+01 -9.729988574981689453e-01 -1.678192615509033203e+00 8.530797064304351807e-02 -4.778653979301452637e-01 2.657312154769897461e-01
2.566000000000000000e+03 6.176740646362304688e+01 -1.734711885452270508e+00 -1.930569529533386230e+00 9.895277768373489380e-02 -5.494850277900695801e-01 2.147212922573089600e-01
2.567000000000000000e+03 5.948136901855468750e+01 -9.592953324317932129e-01 -1.710831761360168457e+00 6.575777381658554077e-02 -4.935221970081329346e-01 3.030680119991302490e-01
2.568000000000000000e+03 5.871439361572265625e+01 -9.493612647056579590e-01 -1.733883023262023926e+00 4.801520332694053650e-02 -5.057603716850280762e-01 3.381355404853820801e-01
2.569000000000000000e+03 6.268589401245117188e+01 -1.101145744323730469e+01 -1.785714626312255859e+00 1.400243341922760010e-01 -4.937070906162261963e-01 -1.810175776481628418e-01
2.570000000000000000e+03 6.337166976928710938e+01 -1.166516876220703125e+01 -1.379580974578857422e+00 2.591705322265625000e-01 -3.361231088638305664e-01 -3.494057431817054749e-02
2.571000000000000000e+03 6.026534271240234375e+01 -1.182373523712158203e+01 -1.567115187644958496e+00 9.489142894744873047e-02 -4.416671097278594971e-01 -3.099009096622467041e-01
2.572000000000000000e+03 6.101263046264648438e+01 -1.184376430511474609e+01 -1.524260640144348145e+00 1.223503053188323975e-01 -4.205731153488159180e-01 -2.588174939155578613e-01
2.573000000000000000e+03 5.569312667846679688e+01 -1.697062492370605469e+00 -2.001348972320556641e+00 -1.279679592698812485e-03 -6.007885932922363281e-01 4.112130403518676758e-01
2.574000000000000000e+03 6.324960327148437500e+01 -1.069868206977844238e+00 -1.464710354804992676e+00 2.509806752204895020e-01 -3.641189336776733398e-01 3.082908922806382179e-03
2.575000000000000000e+03 6.100061798095703125e+01 -9.904677271842956543e-01 -1.640293359756469727e+00 1.186874136328697205e-01 -4.564817845821380615e-01 2.171988487243652344e-01
2.576000000000000000e+03 6.175611114501953125e+01 -1.013599991798400879e+00 -1.591613888740539551e+00 1.521607637405395508e-01 -4.318359196186065674e-01 1.584916114807128906e-01
2.577000000000000000e+03 5.411485671997070312e+01 -9.848693609237670898e-01 -1.745002985000610352e+00 -2.256771549582481384e-03 -5.241779685020446777e-01 4.476060867309570312e-01
2.578000000000000000e+03 5.272087097167968750e+00 -5.336147308349609375e+00 -3.069370723096653819e-05 -1.326991914538666606e-04 -4.901786815025843680e-05 -2.990317298099398613e-04
2.579000000000000000e+03 5.717609405517578125e+01 -9.458914995193481445e-01 -1.758593559265136719e+00 2.341605350375175476e-02 -5.205532312393188477e-01 3.898273110389709473e-01
2.580000000000000000e+03 5.640546417236328125e+01 -9.494035243988037109e-01 -1.762505412101745605e+00 1.656354777514934540e-02 -5.237825512886047363e-01 4.082904160022735596e-01
2.581000000000000000e+03 3.628483963012695312e+01 -1.364488482475280762e+00 -8.537088036537170410e-01 -4.968929570168256760e-03 -2.576033174991607666e-01 4.338492155075073242e-01
2.582000000000000000e+03 5.191949081420898438e+01 -1.731335997581481934e+00 -1.866778969764709473e+00 -1.459431275725364685e-02 -5.644119977951049805e-01 4.354998767375946045e-01
2.583000000000000000e+03 5.034976577758789062e+01 -1.017629265785217285e+00 -1.625155091285705566e+00 -1.304033212363719940e-02 -4.914586246013641357e-01 4.719135463237762451e-01
2.584000000000000000e+03 6.179148483276367188e+01 -1.180984401702880859e+01 -1.476483702659606934e+00 1.656751632690429688e-01 -3.932425677776336670e-01 -1.938019096851348877e-01
2.585000000000000000e+03 4.965694427490234375e+01 -1.745085835456848145e+00 -1.748423099517822266e+00 -1.459278818219900131e-02 -5.289047360420227051e-01 4.365543425083160400e-01
2.586000000000000000e+03 3.994608688354492188e+01 -1.968335151672363281e+00 -1.136208891868591309e+00 -1.976314466446638107e-03 -3.414555490016937256e-01 4.084231257438659668e-01
2.587000000000000000e+03 3.918973159790039062e+01 -1.304174900054931641e+00 -1.032384872436523438e+00 -3.728387644514441490e-03 -3.108339905738830566e-01 4.499447345733642578e-01
2.588000000000000000e+03 4.067208480834960938e+01 -1.942487239837646484e+00 -1.184604406356811523e+00 -1.992506207898259163e-03 -3.559790551662445068e-01 4.115136861801147461e-01
2.589000000000000000e+03 3.990517807006835938e+01 -1.272225499153137207e+00 -1.073755145072937012e+00 -3.574091941118240356e-03 -3.231987655162811279e-01 4.533735811710357666e-01
2.590000000000000000e+03 5.335801315307617188e+01 -9.898141026496887207e-01 -1.728085279464721680e+00 -5.116362590342760086e-03 -5.199604630470275879e-01 4.546756148338317871e-01
2.591000000000000000e+03 4.808294296264648438e+01 -1.039293408393859863e+00 -1.522708535194396973e+00 -1.485892664641141891e-02 -4.612702429294586182e-01 4.761604964733123779e-01
2.592000000000000000e+03 4.289630889892578125e+01 -1.860556244850158691e+00 -1.330514430999755859e+00 -4.911079537123441696e-03 -4.006276726722717285e-01 4.223795235157012939e-01
2.593000000000000000e+03 4.582526779174804688e+01 -1.060950517654418945e+00 -1.405610680580139160e+00 -1.084194891154766083e-02 -4.249358177185058594e-01 4.746200144290924072e-01
2.594000000000000000e+03 4.283238220214843750e+01 -1.158780574798583984e+00 -1.242818951606750488e+00 -5.106985569000244141e-03 -3.743777871131896973e-01 4.676064252853393555e-01
2.595000000000000000e+03 3.702055740356445312e+01 -1.365550994873046875e+00 -8.998530507087707520e-01 -2.642399864271283150e-03 -2.707486450672149658e-01 4.374721348285675049e-01
2.596000000000000000e+03 3.748563385009765625e+01 -1.219469165802001953e+01 -8.616461753845214844e-01 -4.376069083809852600e-02 -2.716220617294311523e-01 -3.808667063713073730e-01
2.597000000000000000e+03 3.386085891723632812e+01 -1.156323623657226562e+01 -7.478223443031311035e-01 -3.986220806837081909e-02 -2.363053709268569946e-01 -3.116660714149475098e-01
2.598000000000000000e+03 3.467840957641601562e+01 -1.223859214782714844e+01 -7.323825955390930176e-01 -4.679000377655029297e-02 -2.337517887353897095e-01 -3.480997085571289062e-01
2.599000000000000000e+03 3.310518646240234375e+01 -1.164067459106445312e+01 -7.083126306533813477e-01 -4.047009721398353577e-02 -2.246348261833190918e-01 -3.062272071838378906e-01
2.600000000000000000e+03 3.396072387695312500e+01 -1.231071758270263672e+01 -7.019698619842529297e-01 -4.819311201572418213e-02 -2.250488996505737305e-01 -3.412850201129913330e-01
2.601000000000000000e+03 5.110515594482421875e+01 -1.013602733612060547e+00 -1.656310915946960449e+00 -1.292854361236095428e-02 -5.007718205451965332e-01 4.702646732330322266e-01
2.602000000000000000e+03 4.883741378784179688e+01 -1.033632874488830566e+00 -1.557718992233276367e+00 -1.415404770523309708e-02 -4.715619087219238281e-01 4.750206768512725830e-01
2.603000000000000000e+03 4.135113906860351562e+01 -1.215238094329833984e+00 -1.157812952995300293e+00 -4.280329681932926178e-03 -3.486279845237731934e-01 4.612249433994293213e-01
2.604000000000000000e+03 4.732500076293945312e+01 -1.040157794952392578e+00 -1.482335925102233887e+00 -1.344540342688560486e-02 -4.487344026565551758e-01 4.760479032993316650e-01
2.605000000000000000e+03 4.508097076416015625e+01 -1.080705285072326660e+00 -1.366251349449157715e+00 -9.989084675908088684e-03 -4.128721356391906738e-01 4.734740853309631348e-01
2.606000000000000000e+03 4.433179855346679688e+01 -1.103102445602416992e+00 -1.326268911361694336e+00 -7.124100811779499054e-03 -4.000179171562194824e-01 4.718154966831207275e-01
2.607000000000000000e+03 6.624881744384765625e+01 -1.264474391937255859e+00 -1.057045578956604004e+00 6.632921695709228516e-01 -1.181260272860527039e-01 -5.480275154113769531e-01
2.608000000000000000e+03 3.674327850341796875e+01 -1.209475517272949219e+01 -8.360766768455505371e-01 -4.535863921046257019e-02 -2.644306123256683350e-01 -3.672164380550384521e-01
2.609000000000000000e+03 6.573040008544921875e+01 -1.075522994995117188e+01 -1.507657170295715332e+00 3.792558014392852783e-01 -3.385204076766967773e-01 2.185544818639755249e-01
2.610000000000000000e+03 3.066662025451660156e+01 -1.176592063903808594e+01 -6.015250086784362793e-01 -3.397207707166671753e-02 -1.906491219997406006e-01 -2.912396788597106934e-01
2.611000000000000000e+03 6.715097045898437500e+01 -1.060277938842773438e+01 -1.276708126068115234e+00 6.284468770027160645e-01 -1.944783627986907959e-01 5.651038289070129395e-01
2.612000000000000000e+03 6.568009948730468750e+01 -1.141025352478027344e+01 -1.152753472328186035e+00 5.180159211158752441e-01 -1.904212832450866699e-01 3.351005017757415771e-01
2.613000000000000000e+03 5.443778038024902344e+00 -6.200547218322753906e+00 1.840038748923689127e-04 1.544596161693334579e-04 1.015390444081276655e-04 3.599687188398092985e-04
2.614000000000000000e+03 3.065676307678222656e+01 -1.260829830169677734e+01 -5.585349798202514648e-01 -4.192997515201568604e-02 -1.801394820213317871e-01 -3.215689957141876221e-01
2.615000000000000000e+03 6.415657043457031250e+01 -1.158362197875976562e+01 -1.316751241683959961e+00 3.266053497791290283e-01 -2.970437705516815186e-01 6.926513463258743286e-02
2.616000000000000000e+03 6.492835998535156250e+01 -1.149904346466064453e+01 -1.240082502365112305e+00 4.094072878360748291e-01 -2.492025643587112427e-01 1.924821436405181885e-01
2.617000000000000000e+03 1.062060546875000000e+01 5.730819225311279297e+00 1.259334967471659184e-04 -7.302698795683681965e-04 -1.813009148463606834e-04 -8.910582982935011387e-04
2.618000000000000000e+03 3.241492080688476562e+01 -1.258117103576660156e+01 -6.247556209564208984e-01 -4.744639620184898376e-02 -2.016606181859970093e-01 -3.384967744350433350e-01
2.619000000000000000e+03 6.640802001953125000e+01 -1.131873035430908203e+01 -1.054417371749877930e+00 6.585131287574768066e-01 -1.187712624669075012e-01 5.062506794929504395e-01
2.620000000000000000e+03 2.761183547973632812e+01 -1.147177982330322266e+01 -4.871380925178527832e-01 -2.275856770575046539e-02 -1.529690027236938477e-01 -2.525159120559692383e-01
2.621000000000000000e+03 2.693166542053222656e+01 -1.155324363708496094e+01 -4.630975127220153809e-01 -1.937043294310569763e-02 -1.447403877973556519e-01 -2.503666281700134277e-01
2.622000000000000000e+03 6.698607635498046875e+01 -1.302681922912597656e+00 -9.136563539505004883e-01 8.668015599250793457e-01 -1.405642647296190262e-02 -7.703287601470947266e-01
2.623000000000000000e+03 2.983403015136718750e+01 -1.257837295532226562e+01 -5.343572497367858887e-01 -3.868644684553146362e-02 -1.719131022691726685e-01 -3.132379055023193359e-01
2.624000000000000000e+03 2.814379501342773438e+01 -1.284634494781494141e+01 -4.659485518932342529e-01 -3.570675477385520935e-02 -1.504965871572494507e-01 -3.049093782901763916e-01
2.625000000000000000e+03 2.898810005187988281e+01 -1.260560512542724609e+01 -5.002409815788269043e-01 -3.686695173382759094e-02 -1.611323952674865723e-01 -3.061242103576660156e-01
2.626000000000000000e+03 2.619730377197265625e+01 -1.161063194274902344e+01 -4.360000193119049072e-01 -1.605514064431190491e-02 -1.356165409088134766e-01 -2.482659220695495605e-01
2.627000000000000000e+03 2.374527740478515625e+01 -1.197141265869140625e+01 -3.510495722293853760e-01 -1.365934964269399643e-02 -1.094126775860786438e-01 -2.391623109579086304e-01
2.628000000000000000e+03 6.710990142822265625e+01 -1.122209930419921875e+01 -9.460266828536987305e-01 8.294463157653808594e-01 -3.497409820556640625e-02 7.066741585731506348e-01
2.629000000000000000e+03 7.502912902832031250e+01 -9.225428581237792969e+00 -2.186221122741699219e+00 1.531362152099609375e+01 3.938220262527465820e+00 9.296929836273193359e-01
2.630000000000000000e+03 1.987665557861328125e+01 -1.576919937133789062e+01 -2.624881565570831299e-01 -8.142808824777603149e-02 -1.031748726963996887e-01 -2.518374323844909668e-01
2.631000000000000000e+03 2.079259109497070312e+01 -1.194953727722167969e+01 -2.793795764446258545e-01 -2.511942014098167419e-02 -9.134969860315322876e-02 -2.118327170610427856e-01
2.632000000000000000e+03 2.733955574035644531e+01 -1.320874786376953125e+01 -4.327247142791748047e-01 -3.527575731277465820e-02 -1.404001414775848389e-01 -3.073011338710784912e-01
2.633000000000000000e+03 2.480207824707031250e+01 -1.245285415649414062e+01 -3.758408725261688232e-01 -1.955736428499221802e-02 -1.186194717884063721e-01 -2.630462944507598877e-01
2.634000000000000000e+03 2.024877357482910156e+01 -1.057367992401123047e+01 -2.349390834569931030e-01 -2.155579812824726105e-02 -7.694846391677856445e-02 -1.696978360414505005e-01
2.635000000000000000e+03 2.025769233703613281e+01 -1.308093929290771484e+01 -2.786023616790771484e-01 -4.399525001645088196e-02 -9.677928686141967773e-02 -2.300474494695663452e-01
2.636000000000000000e+03 6.916862487792968750e+01 -2.282987356185913086e+00 -7.401006221771240234e-01 1.491060256958007812e+00 2.252878844738006592e-01 -1.499362587928771973e+00
2.637000000000000000e+03 6.770668792724609375e+01 -1.315844655036926270e+00 -7.535806894302368164e-01 1.121792554855346680e+00 1.104635521769523621e-01 -1.023512363433837891e+00
2.638000000000000000e+03 2.302303695678710938e+01 -1.240897846221923828e+01 -3.315454125404357910e-01 -1.810332760214805603e-02 -1.048946231603622437e-01 -2.445381134748458862e-01
2.639000000000000000e+03 2.244527435302734375e+01 -1.290354251861572266e+01 -3.203162848949432373e-01 -2.461673691868782043e-02 -1.034798994660377502e-01 -2.505511045455932617e-01
2.640000000000000000e+03 1.104215526580810547e+01 6.758502006530761719e+00 1.129492447944357991e-04 -1.103811780922114849e-03 -2.972587535623461008e-04 -6.751199834980070591e-04
2.641000000000000000e+03 7.706746578216552734e+00 9.642021179199218750e+00 -1.107782372855581343e-04 1.436287537217140198e-03 3.976527659688144922e-04 -2.076072123600170016e-04
2.642000000000000000e+03 8.197208404541015625e+00 6.895251274108886719e+00 3.702421672642230988e-04 -2.167652419302612543e-04 4.604308196576312184e-05 -7.239991682581603527e-04
2.643000000000000000e+03 7.603177642822265625e+01 -4.007857322692871094e+00 -7.705200910568237305e-01 1.514966487884521484e+01 4.313743591308593750e+00 1.765414476394653320e+00
2.644000000000000000e+03 7.712818908691406250e+01 -3.445132970809936523e+00 -6.117367148399353027e-01 1.234843063354492188e+01 3.521008014678955078e+00 2.219882965087890625e+00
2.645000000000000000e+03 7.645111846923828125e+01 -1.152383804321289062e+01 -1.483502864837646484e+00 1.142153263092041016e+01 2.981408834457397461e+00 -3.311365544795989990e-01
2.646000000000000000e+03 6.823746204376220703e+00 1.048558044433593750e+01 1.268893480300903320e-03 1.012342472677119076e-04 4.110383160877972841e-04 2.432482549920678139e-03
2.647000000000000000e+03 2.203938102722167969e+01 -2.507755756378173828e-01 -9.606128931045532227e-02 -1.874632984399795532e-01 -8.505737781524658203e-02 2.014001011848449707e-01
2.648000000000000000e+03 7.524570465087890625e+01 -1.303698730468750000e+01 -1.266498327255249023e+00 9.784054756164550781e+00 2.555266857147216797e+00 1.036102890968322754e+00
2.649000000000000000e+03 7.509304046630859375e+01 -1.643040657043457031e+01 -3.122265934944152832e-01 8.120300292968750000e+00 2.342422008514404297e+00 1.185671567916870117e+00
2.650000000000000000e+03 2.267328071594238281e+01 2.067522239685058594e+01 -1.062398776412010193e-01 -5.717534422874450684e-01 -2.033980041742324829e-01 3.207454979419708252e-01
2.651000000000000000e+03 2.288837051391601562e+01 -1.630748176574707031e+01 -2.779474854469299316e-01 -6.737879663705825806e-02 -1.035978794097900391e-01 -3.032068908214569092e-01
2.652000000000000000e+03 6.243646621704101562e+00 2.109631919860839844e+01 -1.913522481918334961e-01 -9.014827013015747070e-02 -8.445015549659729004e-02 1.528335362672805786e-01
2.653000000000000000e+03 2.428842735290527344e+01 3.456022500991821289e+00 -2.483216673135757446e-01 -2.884593605995178223e-01 -1.610343009233474731e-01 4.599666595458984375e-01
2.654000000000000000e+03 9.751365661621093750e+00 7.172642230987548828e+00 6.047819042578339577e-04 -1.337368739768862724e-03 -2.197760477429255843e-04 -2.288411924382671714e-04
2.655000000000000000e+03 6.967561340332031250e+01 -2.564640235900878906e+01 5.047066211700439453e-01 4.483656406402587891e+00 1.496508955955505371e+00 1.058544874191284180e+00
2.656000000000000000e+03 6.995478057861328125e+01 -3.324768066406250000e+01 4.546161293983459473e-01 4.574621200561523438e+00 1.508771181106567383e+00 6.129629015922546387e-01
2.657000000000000000e+03 7.529468536376953125e+01 -1.723721694946289062e+01 -2.346780896186828613e-01 8.047443389892578125e+00 2.343829631805419922e+00 1.144468665122985840e+00
2.658000000000000000e+03 7.429032135009765625e+01 -1.821609115600585938e+01 -6.643840670585632324e-02 7.226568698883056641e+00 2.148039102554321289e+00 1.315284967422485352e+00
2.659000000000000000e+03 7.435883331298828125e+01 3.580686569213867188e+00 -3.645381331443786621e-01 7.602106094360351562e+00 2.171270370483398438e+00 -1.417890429496765137e+00
2.660000000000000000e+03 7.526341247558593750e+01 1.557829618453979492e+00 -8.404726386070251465e-01 8.998082160949707031e+00 2.447283029556274414e+00 -1.097795367240905762e+00
2.661000000000000000e+03 7.244847106933593750e+01 -2.359144783020019531e+01 3.202724456787109375e-01 5.663725376129150391e+00 1.795199394226074219e+00 1.166245818138122559e+00
2.662000000000000000e+03 7.319101715087890625e+01 -2.441058731079101562e+01 2.790622413158416748e-01 6.002111911773681641e+00 1.884352207183837891e+00 1.058466434478759766e+00
2.663000000000000000e+03 8.932137489318847656e+00 2.815160179138183594e+01 5.371888726949691772e-02 -5.188727378845214844e-01 -1.395461559295654297e-01 3.218520581722259521e-01
2.664000000000000000e+03 9.876883506774902344e+00 3.182534027099609375e+01 1.248116716742515564e-01 -5.750352144241333008e-01 -1.350670605897903442e-01 2.581809163093566895e-01
2.665000000000000000e+03 7.352295684814453125e+01 8.227482795715332031e+00 1.545560956001281738e-01 6.310540676116943359e+00 1.939529061317443848e+00 -1.345768928527832031e+00
2.666000000000000000e+03 7.126352691650390625e+01 1.633826828002929688e+01 3.324042260646820068e-01 4.890696525573730469e+00 1.566930174827575684e+00 -1.013108253479003906e+00
2.667000000000000000e+03 7.271713256835937500e+01 1.644573783874511719e+01 2.555152773857116699e-01 5.370568275451660156e+00 1.687824964523315430e+00 -9.452551007270812988e-01
2.668000000000000000e+03 7.473873901367187500e+01 -2.572660827636718750e+01 1.931545734405517578e-01 6.544431209564208984e+00 2.021275758743286133e+00 8.675538897514343262e-01
2.669000000000000000e+03 7.195536041259765625e+01 2.816687774658203125e+01 1.695045083761215210e-01 4.684464931488037109e+00 1.456190824508666992e+00 -4.330222010612487793e-01
2.670000000000000000e+03 7.400067901611328125e+01 1.922114372253417969e+01 1.697029024362564087e-01 5.570584297180175781e+00 1.722086191177368164e+00 -7.219571471214294434e-01
2.671000000000000000e+03 7.231101226806640625e+01 -2.741785430908203125e+01 3.353054225444793701e-01 5.493379592895507812e+00 1.748605489730834961e+00 9.292768836021423340e-01
2.672000000000000000e+03 7.375540924072265625e+01 6.953157901763916016e+00 7.165198028087615967e-02 6.590485095977783203e+00 1.998641133308410645e+00 -1.391868233680725098e+00
2.673000000000000000e+03 7.430282592773437500e+01 1.244614028930664062e+01 1.852393746376037598e-01 6.263396263122558594e+00 1.934590697288513184e+00 -1.042359709739685059e+00
2.674000000000000000e+03 5.680375576019287109e+00 2.668494224548339844e+01 -1.236733328551054001e-02 -3.572625815868377686e-01 -1.108889728784561157e-01 2.558397054672241211e-01
2.675000000000000000e+03 1.012483024597167969e+01 2.053118515014648438e+01 -3.645847439765930176e-01 -4.022946953773498535e-01 -2.300638407468795776e-01 4.657026827335357666e-01
2.676000000000000000e+03 7.361008453369140625e+01 -2.064222908020019531e+01 1.554072052240371704e-01 6.459187030792236328e+00 1.984378337860107422e+00 1.291571736335754395e+00
2.677000000000000000e+03 7.343828582763671875e+01 -2.202721977233886719e+01 2.173591405153274536e-01 6.282098770141601562e+00 1.949837446212768555e+00 1.219235777854919434e+00
2.678000000000000000e+03 6.265309333801269531e+00 -6.368667602539062500e+00 -2.215665299445390701e-04 3.772792988456785679e-04 4.671383430832065642e-05 -4.777473805006593466e-05
2.679000000000000000e+03 4.797629356384277344e+00 -7.368391990661621094e+00 1.461740175727754831e-04 2.934189978986978531e-04 1.318779104622080922e-04 3.042866301257163286e-04
2.680000000000000000e+03 7.505313873291015625e+01 5.800534725189208984e+00 -6.868532299995422363e-02 7.568777561187744141e+00 2.250027656555175781e+00 -1.220760464668273926e+00
2.681000000000000000e+03 7.399452209472656250e+01 5.753947257995605469e+00 -4.795236513018608093e-02 6.904439449310302734e+00 2.056946039199829102e+00 -1.409537792205810547e+00
2.682000000000000000e+03 7.859984874725341797e+00 8.158573150634765625e+00 5.526096720132045448e-05 8.314676815643906593e-04 2.660185855347663164e-04 -4.075153847225010395e-04
2.683000000000000000e+03 5.709804058074951172e+00 6.025031566619873047e+00 1.182418345706537366e-04 3.823421138804405928e-04 1.501751830801367760e-04 -2.344550885027274489e-04
2.684000000000000000e+03 7.367490291595458984e+00 7.401506900787353516e+00 3.059502632822841406e-04 5.019183299737051129e-05 1.068426281563006341e-04 8.215753477998077869e-04
2.685000000000000000e+03 2.590507698059082031e+01 7.170217990875244141e+00 -3.590329885482788086e-01 -2.968775331974029541e-01 -1.967731565237045288e-01 5.972512960433959961e-01
2.686000000000000000e+03 2.306700515747070312e+01 8.240785598754882812e+00 -3.470198810100555420e-01 -4.865253865718841553e-01 -2.500635981559753418e-01 5.634407997131347656e-01
2.687000000000000000e+03 8.964366912841796875e+00 -2.152384757995605469e+01 -7.413914054632186890e-02 -1.930015236139297485e-01 -8.014219999313354492e-02 -1.870643347501754761e-01
2.688000000000000000e+03 2.172758102416992188e+01 -1.241855812072753906e+01 -3.030686676502227783e-01 -2.190294489264488220e-02 -9.749148041009902954e-02 -2.297238260507583618e-01
2.689000000000000000e+03 2.220611572265625000e+01 -1.357558345794677734e+01 -3.110289275646209717e-01 -3.243737295269966125e-02 -1.030398905277252197e-01 -2.595351338386535645e-01
2.690000000000000000e+03 1.256802082061767578e+01 -2.255899429321289062e+01 -6.236624717712402344e-02 -2.440331429243087769e-01 -9.191981703042984009e-02 -1.963383406400680542e-01
2.691000000000000000e+03 1.387162780761718750e+01 -2.113974571228027344e+01 -1.118889972567558289e-01 -2.387253046035766602e-01 -1.051842868328094482e-01 -1.897040605545043945e-01
2.692000000000000000e+03 6.797814941406250000e+01 3.033562278747558594e+01 3.167436718940734863e-01 3.892620325088500977e+00 1.262809157371520996e+00 -4.171521663665771484e-01
2.693000000000000000e+03 1.894628524780273438e+01 -1.976694488525390625e+01 -1.633293777704238892e-01 -1.557341814041137695e-01 -9.571906924247741699e-02 -2.483281046152114868e-01
2.694000000000000000e+03 8.078241348266601562e+00 2.324955177307128906e+01 -1.418850421905517578e-01 -3.273949325084686279e-01 -1.407839953899383545e-01 3.448614180088043213e-01
2.695000000000000000e+03 1.203095912933349609e+01 2.336401748657226562e+01 -8.042630553245544434e-02 -6.559134125709533691e-01 -2.209019213914871216e-01 4.412885308265686035e-01
2.696000000000000000e+03 2.270309066772460938e+01 1.224333000183105469e+01 -4.368303716182708740e-01 -5.524667501449584961e-01 -2.967891395092010498e-01 5.480400919914245605e-01
2.697000000000000000e+03 2.325994873046875000e+01 1.527349758148193359e+01 -3.627059757709503174e-01 -5.155100226402282715e-01 -2.634648084640502930e-01 4.626078605651855469e-01
2.698000000000000000e+03 2.041416549682617188e+01 -1.490900707244873047e+01 -2.770273685455322266e-01 -6.310599297285079956e-02 -1.020400077104568481e-01 -2.535086274147033691e-01
2.699000000000000000e+03 2.532076835632324219e+01 4.777261257171630859e+00 -3.073691427707672119e-01 -2.833913266658782959e-01 -1.772281527519226074e-01 5.354933738708496094e-01
2.700000000000000000e+03 6.634132385253906250e+00 -3.043626785278320312e+01 2.756321616470813751e-02 -2.487564682960510254e-01 -6.635797768831253052e-02 -1.259784400463104248e-01
2.701000000000000000e+03 1.428275966644287109e+01 2.249651718139648438e+01 -9.744984656572341919e-02 -7.835634946823120117e-01 -2.643039822578430176e-01 4.202111959457397461e-01
2.702000000000000000e+03 1.728099250793457031e+01 -2.110395431518554688e+01 -1.155750602483749390e-01 -1.965753883123397827e-01 -9.364513307809829712e-02 -2.294314056634902954e-01
2.703000000000000000e+03 2.483062744140625000e+01 6.696932792663574219e+00 -3.345203101634979248e-01 -3.462424278259277344e-01 -2.042288333177566528e-01 5.706997513771057129e-01
2.704000000000000000e+03 6.483596801757812500e+00 2.229173469543457031e+01 -1.535507589578628540e-01 -1.950038969516754150e-01 -1.045663952827453613e-01 2.460449486970901489e-01
2.705000000000000000e+03 7.254042053222656250e+01 2.044079589843750000e+01 2.279043644666671753e-01 5.103876590728759766e+00 1.599534273147583008e+00 -7.527823448181152344e-01
2.706000000000000000e+03 8.129652023315429688e+00 -2.845543289184570312e+01 2.498606778681278229e-02 -2.404892444610595703e-01 -6.465095281600952148e-02 -1.520094573497772217e-01
2.707000000000000000e+03 1.138915348052978516e+01 -2.386287498474121094e+01 -2.924217469990253448e-02 -2.422079145908355713e-01 -8.143502473831176758e-02 -1.958971470594406128e-01
2.708000000000000000e+03 7.200541687011718750e+01 3.002141952514648438e+01 1.542586982250213623e-01 4.666277408599853516e+00 1.446160793304443359e+00 -3.648252487182617188e-01
2.709000000000000000e+03 7.378647613525390625e+01 -9.091170310974121094e+00 -1.610982418060302734e+00 1.224996948242187500e+01 3.191696166992187500e+00 4.405170917510986328e+00
2.710000000000000000e+03 7.577804565429687500e+01 -1.046933078765869141e+01 -2.005715131759643555e+00 1.274579334259033203e+01 3.222023487091064453e+00 -2.207651548087596893e-02
2.711000000000000000e+03 7.612944793701171875e+01 -1.094556903839111328e+01 -1.740869283676147461e+00 1.205529689788818359e+01 3.094328403472900391e+00 -2.844204008579254150e-01
2.712000000000000000e+03 7.580041503906250000e+01 -1.966237306594848633e+00 -1.945982694625854492e+00 1.225391864776611328e+01 3.092380762100219727e+00 -1.016690358519554138e-01
2.713000000000000000e+03 7.262554168701171875e+01 -3.752117633819580078e+00 -2.369107455015182495e-01 6.483722686767578125e+00 1.874043583869934082e+00 -4.564104557037353516e+00
2.714000000000000000e+03 7.481840515136718750e+01 -9.916953086853027344e+00 -2.288143396377563477e+00 1.353378582000732422e+01 3.373692989349365234e+00 1.598596453666687012e+00
2.715000000000000000e+03 7.537542724609375000e+01 -9.028351783752441406e+00 -1.826256036758422852e+00 1.574939441680908203e+01 4.176941871643066406e+00 -1.384272575378417969e-01
2.716000000000000000e+03 7.462561035156250000e+01 -1.170460796356201172e+01 -1.745219945907592773e+00 1.041418552398681641e+01 2.600689649581909180e+00 1.641615867614746094e+00
2.717000000000000000e+03 7.485632324218750000e+01 -1.094845581054687500e+01 -2.029844760894775391e+00 1.161327552795410156e+01 2.875029087066650391e+00 1.387007713317871094e+00
2.718000000000000000e+03 7.645423889160156250e+01 -4.073940753936767578e+00 -1.510025262832641602e-01 1.404676246643066406e+01 4.168727874755859375e+00 2.235885143280029297e+00
2.719000000000000000e+03 7.435108947753906250e+01 -1.096588325500488281e+01 -1.915670871734619141e+00 1.094113922119140625e+01 2.707640409469604492e+00 2.140540122985839844e+00
2.720000000000000000e+03 7.111112976074218750e+01 -1.010910034179687500e+01 -3.734702169895172119e-01 3.349502325057983398e+00 8.928096294403076172e-01 2.824055671691894531e+00
2.721000000000000000e+03 7.326937866210937500e+01 -3.021636009216308594e+00 -1.257024884223937988e+00 9.462143898010253906e+00 2.461535692214965820e+00 -4.202087879180908203e+00
2.722000000000000000e+03 7.556328582763671875e+01 -8.778342247009277344e+00 -1.295436620712280273e+00 1.607004547119140625e+01 4.432382583618164062e+00 -8.881101012229919434e-01
2.723000000000000000e+03 7.375482940673828125e+01 -3.776565313339233398e+00 -1.459776520729064941e+00 1.214656829833984375e+01 3.206037521362304688e+00 -4.590465068817138672e+00
2.724000000000000000e+03 7.411872100830078125e+01 -3.850931644439697266e+00 -1.958994030952453613e+00 1.441149044036865234e+01 3.735749006271362305e+00 -3.867408990859985352e+00
2.725000000000000000e+03 7.410774230957031250e+01 -9.316962242126464844e+00 -2.010021924972534180e+00 1.330305290222167969e+01 3.387909173965454102e+00 3.546090364456176758e+00
2.726000000000000000e+03 7.584980773925781250e+01 -3.169364213943481445e+00 -1.742882728576660156e+00 1.414809799194335938e+01 3.721564769744873047e+00 7.314276099205017090e-01
2.727000000000000000e+03 6.991049957275390625e+01 -1.090147686004638672e+01 -4.248060882091522217e-01 2.326507091522216797e+00 5.705102682113647461e-01 2.004125356674194336e+00
2.728000000000000000e+03 7.253543090820312500e+01 -9.078623771667480469e+00 -1.821476668119430542e-01 6.103748321533203125e+00 1.776480317115783691e+00 4.502318382263183594e+00
2.729000000000000000e+03 7.585101318359375000e+01 -1.459380388259887695e+00 -1.814226031303405762e+00 1.163922405242919922e+01 2.947499513626098633e+00 -1.999751031398773193e-01
2.730000000000000000e+03 7.487650299072265625e+01 -1.217631530761718750e+01 -1.572343349456787109e+00 1.021300029754638672e+01 2.592197179794311523e+00 1.311125040054321289e+00
2.731000000000000000e+03 7.597930145263671875e+01 -1.239564895629882812e+01 -1.381228804588317871e+00 1.064133548736572266e+01 2.778032064437866211e+00 3.642512857913970947e-01
2.732000000000000000e+03 7.046914672851562500e+01 -1.044770431518554688e+01 -4.186910092830657959e-01 2.677063226699829102e+00 6.775116324424743652e-01 2.338251829147338867e+00
2.733000000000000000e+03 6.895166778564453125e+01 -1.092985630035400391e+01 -6.037261486053466797e-01 1.565600991249084473e+00 2.885624170303344727e-01 1.438643813133239746e+00
2.734000000000000000e+03 6.893579864501953125e+01 -1.146142101287841797e+01 -4.657957553863525391e-01 1.790359616279602051e+00 3.973691761493682861e-01 1.552555322647094727e+00
2.735000000000000000e+03 2.511385154724121094e+01 1.943680197000503540e-01 -2.480069249868392944e-01 -1.534027308225631714e-01 -1.204228997230529785e-01 3.460340201854705811e-01
2.736000000000000000e+03 2.536069488525390625e+01 -7.605414986610412598e-01 -2.524692416191101074e-01 -1.209659501910209656e-01 -1.120305582880973816e-01 3.092664778232574463e-01
2.737000000000000000e+03 2.591598892211914062e+01 -1.153520584106445312e+00 -2.767395973205566406e-01 -1.004375144839286804e-01 -1.131531298160552979e-01 3.055923283100128174e-01
2.738000000000000000e+03 2.558404922485351562e+01 -1.558378338813781738e+00 -2.486441284418106079e-01 -9.649357199668884277e-02 -1.035413071513175964e-01 2.726770341396331787e-01
2.739000000000000000e+03 6.997574615478515625e+01 -2.222530603408813477e+00 -5.550872087478637695e-01 2.184750556945800781e+00 4.888990521430969238e-01 -1.989935398101806641e+00
2.740000000000000000e+03 9.092104911804199219e+00 5.941218376159667969e+00 2.859270607586950064e-04 -5.784145323559641838e-04 -8.774624438956379890e-05 -7.116036140359938145e-04
2.741000000000000000e+03 7.483791351318359375e+01 1.687011122703552246e-01 -1.296269893646240234e+00 9.535689353942871094e+00 2.471825838088989258e+00 -1.307179331779479980e+00
2.742000000000000000e+03 7.565866851806640625e+01 -1.466974639892578125e+01 -7.385026216506958008e-01 9.104120254516601562e+00 2.509685277938842773e+00 9.250269532203674316e-01
2.743000000000000000e+03 7.468893432617187500e+01 -1.585518646240234375e+01 -4.195218682289123535e-01 8.055625915527343750e+00 2.290831089019775391e+00 1.289258480072021484e+00
2.744000000000000000e+03 2.738877677917480469e+01 -1.618817448616027832e+00 -3.483396172523498535e-01 -6.790174543857574463e-02 -1.248724088072776794e-01 3.180599212646484375e-01
2.745000000000000000e+03 2.638471031188964844e+01 -7.442179322242736816e-01 -2.999845445156097412e-01 -1.042441576719284058e-01 -1.212686076760292053e-01 3.367773890495300293e-01
2.746000000000000000e+03 2.864693069458007812e+01 4.403380155563354492e-01 -4.112352430820465088e-01 -9.026896953582763672e-02 -1.504512578248977661e-01 4.433179795742034912e-01
2.747000000000000000e+03 6.258706569671630859e+00 6.420466899871826172e+00 4.382615734357386827e-04 -3.368069301359355450e-04 3.043639298994094133e-05 1.230191992362961173e-04
2.748000000000000000e+03 2.815782546997070312e+01 -7.663878798484802246e-01 -3.897644579410552979e-01 -7.537256926298141479e-02 -1.395411044359207153e-01 3.773663043975830078e-01
2.749000000000000000e+03 2.811605262756347656e+01 -1.498392462730407715e+00 -3.860676884651184082e-01 -5.930782109498977661e-02 -1.336126476526260376e-01 3.348459601402282715e-01
2.750000000000000000e+03 7.447415161132812500e+01 -9.592560768127441406e+00 -2.253923416137695312e+00 1.366517734527587891e+01 3.423376083374023438e+00 2.372225284576416016e+00
2.751000000000000000e+03 6.824861145019531250e+01 -4.961654543876647949e-01 -3.807897269725799561e-01 1.778963446617126465e+00 4.194521307945251465e-01 -1.405443906784057617e+00
2.752000000000000000e+03 7.433338165283203125e+01 1.067482471466064453e+00 -9.684969782829284668e-01 8.521156311035156250e+00 2.265797615051269531e+00 -1.580947160720825195e+00
2.753000000000000000e+03 3.183420372009277344e+01 -1.595813870429992676e+00 -5.912945866584777832e-01 -2.243862487375736237e-02 -1.841199547052383423e-01 3.864193558692932129e-01
2.754000000000000000e+03 3.038625144958496094e+01 -9.508443474769592285e-01 -5.063523650169372559e-01 -4.174298793077468872e-02 -1.644285917282104492e-01 4.029711484909057617e-01
2.755000000000000000e+03 6.777587127685546875e+01 -1.111965179443359375e+01 -8.405718803405761719e-01 1.035662174224853516e+00 5.852707102894783020e-02 9.395328164100646973e-01
2.756000000000000000e+03 6.908309173583984375e+01 -1.192462730407714844e+01 -3.102087378501892090e-01 2.171946763992309570e+00 5.585213899612426758e-01 1.707972526550292969e+00
2.757000000000000000e+03 2.898970794677734375e+01 -7.918748259544372559e-01 -4.339618384838104248e-01 -5.997282266616821289e-02 -1.481803953647613525e-01 3.881707489490509033e-01
2.758000000000000000e+03 3.127001571655273438e+01 -2.684949338436126709e-01 -5.416405797004699707e-01 -4.251935333013534546e-02 -1.752479821443557739e-01 4.483200907707214355e-01
2.759000000000000000e+03 3.110627174377441406e+01 -1.576619982719421387e+00 -5.499156713485717773e-01 -2.696864493191242218e-02 -1.730652898550033569e-01 3.766481280326843262e-01
2.760000000000000000e+03 3.327660751342773438e+01 -1.543478488922119141e+00 -6.787358522415161133e-01 -1.287374366074800491e-02 -2.074828743934631348e-01 4.029708206653594971e-01
2.761000000000000000e+03 3.184400749206542969e+01 -1.020796298980712891e+00 -5.845553874969482422e-01 -2.818673104047775269e-02 -1.838226318359375000e-01 4.192342758178710938e-01
2.762000000000000000e+03 4.426760864257812500e+01 -1.216699504852294922e+01 -1.165588140487670898e+00 -4.138606041669845581e-02 -3.620922565460205078e-01 -4.486040771007537842e-01
2.763000000000000000e+03 7.013372421264648438e+00 -6.946219444274902344e+00 2.738055482041090727e-04 -3.241220547351986170e-04 -1.509494904894381762e-05 6.108429715823149309e-06
2.764000000000000000e+03 7.643419265747070312e+00 -6.107623577117919922e+00 -2.224600029876455665e-04 3.983265487477183342e-04 5.275996591080911458e-05 -4.580886525218375027e-06
2.765000000000000000e+03 4.684018325805664062e+01 -1.195040607452392578e+01 -1.311682343482971191e+00 -3.806120902299880981e-02 -4.049230813980102539e-01 -4.631062746047973633e-01
2.766000000000000000e+03 4.973627090454101562e+01 -1.293275737762451172e+01 -1.230639219284057617e+00 -2.739203535020351410e-02 -3.774093985557556152e-01 -5.141242742538452148e-01
2.767000000000000000e+03 4.440148925781250000e+01 -1.309252166748046875e+01 -1.028266906738281250e+00 -5.054025724530220032e-02 -3.236421644687652588e-01 -4.851143956184387207e-01
2.768000000000000000e+03 4.583034896850585938e+01 -1.245194244384765625e+01 -1.176064848899841309e+00 -4.029300063848495483e-02 -3.649073541164398193e-01 -4.767386019229888916e-01
2.769000000000000000e+03 5.047486114501953125e+01 -1.280429077148437500e+01 -1.276895642280578613e+00 -2.896043658256530762e-02 -3.917568325996398926e-01 -5.075132846832275391e-01
2.770000000000000000e+03 4.358609008789062500e+01 -1.316019248962402344e+01 -9.941238760948181152e-01 -5.330519005656242371e-02 -3.142287135124206543e-01 -4.777611494064331055e-01
2.771000000000000000e+03 3.394646453857421875e+01 -8.168567419052124023e-01 -6.957980394363403320e-01 -1.580943539738655090e-02 -2.134822458028793335e-01 4.493174552917480469e-01
2.772000000000000000e+03 3.472874832153320312e+01 -7.338301539421081543e-01 -7.346986532211303711e-01 -1.291611511260271072e-02 -2.242844253778457642e-01 4.606099426746368408e-01
2.773000000000000000e+03 4.619498062133789062e+01 -1.187973785400390625e+01 -1.287748456001281738e+00 -3.468640893697738647e-02 -3.967304527759552002e-01 -4.533340334892272949e-01
2.774000000000000000e+03 4.749337768554687500e+01 -1.264153385162353516e+01 -1.219865083694458008e+00 -4.395284131169319153e-02 -3.791453540325164795e-01 -4.953792095184326172e-01
2.775000000000000000e+03 4.273236465454101562e+01 -1.228931331634521484e+01 -1.075182676315307617e+00 -4.609965905547142029e-02 -3.363846838474273682e-01 -4.378942549228668213e-01
2.776000000000000000e+03 4.113234329223632812e+01 -1.275519752502441406e+01 -9.603589773178100586e-01 -4.699066653847694397e-02 -3.022048771381378174e-01 -4.393428266048431396e-01
2.777000000000000000e+03 4.128024673461914062e+01 -1.329962730407714844e+01 -8.764296770095825195e-01 -5.508880689740180969e-02 -2.794555425643920898e-01 -4.646061658859252930e-01
2.778000000000000000e+03 5.190498733520507812e+01 -1.274906539916992188e+01 -1.313498020172119141e+00 -1.709524542093276978e-02 -3.991779685020446777e-01 -5.067537426948547363e-01
2.779000000000000000e+03 4.898964309692382812e+01 -1.202723693847656250e+01 -1.380403161048889160e+00 -2.979694306850433350e-02 -4.230600297451019287e-01 -4.818749427795410156e-01
2.780000000000000000e+03 4.004246520996093750e+01 -1.386167240142822266e+01 -7.906204462051391602e-01 -6.404455006122589111e-02 -2.563994824886322021e-01 -4.679808020591735840e-01
2.781000000000000000e+03 5.298892593383789062e+01 -1.266003608703613281e+01 -1.355962991714477539e+00 -9.439147077500820160e-03 -4.096206426620483398e-01 -4.986041188240051270e-01
2.782000000000000000e+03 5.209817504882812500e+01 -1.200148773193359375e+01 -1.493585824966430664e+00 -1.528485305607318878e-02 -4.526611864566802979e-01 -4.891673028469085693e-01
2.783000000000000000e+03 5.167240524291992188e+01 -1.339105415344238281e+01 -1.159473896026611328e+00 -1.022077817469835281e-02 -3.509083986282348633e-01 -5.219395756721496582e-01
2.784000000000000000e+03 4.038878631591796875e+01 -1.217982101440429688e+01 -9.930046200752258301e-01 -4.450621455907821655e-02 -3.112532496452331543e-01 -4.046067893505096436e-01
2.785000000000000000e+03 4.813619232177734375e+01 -1.254669475555419922e+01 -1.267084002494812012e+00 -3.969826549291610718e-02 -3.920346796512603760e-01 -4.966017603874206543e-01
2.786000000000000000e+03 5.119110488891601562e+01 -1.271381378173828125e+01 -1.306656122207641602e+00 -1.951365731656551361e-02 -3.978509306907653809e-01 -5.080696344375610352e-01
2.787000000000000000e+03 3.466054153442382812e+01 -6.025515496730804443e-02 -7.057011723518371582e-01 -1.836425811052322388e-02 -2.172196209430694580e-01 4.953952431678771973e-01
2.788000000000000000e+03 5.670839691162109375e+01 -1.177650737762451172e+01 -1.649608373641967773e+00 1.989548094570636749e-02 -4.889138638973236084e-01 -4.459229409694671631e-01
2.789000000000000000e+03 5.937052917480468750e+01 -1.247855758666992188e+01 -1.362320423126220703e+00 9.734606742858886719e-02 -3.794923126697540283e-01 -3.293690681457519531e-01
2.790000000000000000e+03 5.739805221557617188e+01 -1.175129699707031250e+01 -1.662212252616882324e+00 3.418153151869773865e-02 -4.884091913700103760e-01 -4.267175793647766113e-01
2.791000000000000000e+03 5.796701049804687500e+01 -1.248112487792968750e+01 -1.395781397819519043e+00 6.388925760984420776e-02 -3.995676338672637939e-01 -3.995386064052581787e-01
2.792000000000000000e+03 6.396555709838867188e+01 -3.660621047019958496e-01 -1.055364131927490234e+00 4.352146089076995850e-01 -1.860448420047760010e-01 -1.989345997571945190e-01
2.793000000000000000e+03 5.371918487548828125e+01 -1.264969921112060547e+01 -1.373969554901123047e+00 -8.140061981976032257e-03 -4.146328568458557129e-01 -4.906159639358520508e-01
2.794000000000000000e+03 5.448484802246093750e+01 -1.269544315338134766e+01 -1.362015604972839355e+00 3.793773241341114044e-03 -4.074665606021881104e-01 -4.855393469333648682e-01
2.795000000000000000e+03 6.007620239257812500e+01 -1.261850643157958984e+01 -1.264289855957031250e+00 1.404036283493041992e-01 -3.371658623218536377e-01 -2.726823389530181885e-01
2.796000000000000000e+03 5.526689529418945312e+01 -1.270600700378417969e+01 -1.371048808097839355e+00 8.253272622823715210e-03 -4.088386595249176025e-01 -4.733884632587432861e-01
2.797000000000000000e+03 3.611369323730468750e+01 -1.214929866790771484e+01 -7.992685437202453613e-01 -4.532568156719207764e-02 -2.533782720565795898e-01 -3.617409467697143555e-01
2.798000000000000000e+03 3.774837112426757812e+01 -1.359467148780822754e+00 -9.451199173927307129e-01 -3.071009181439876556e-03 -2.844572663307189941e-01 4.406934082508087158e-01
2.799000000000000000e+03 5.790772247314453125e+01 -1.828278303146362305e-01 -1.483050465583801270e+00 6.256289780139923096e-02 -4.261462688446044922e-01 3.488621115684509277e-01
2.800000000000000000e+03 5.563632583618164062e+01 -9.585363268852233887e-01 -1.760847926139831543e+00 8.095639757812023163e-03 -5.258256793022155762e-01 4.244489371776580811e-01
2.801000000000000000e+03 6.022669219970703125e+01 -2.228530198335647583e-01 -1.385252356529235840e+00 1.345629543066024780e-01 -3.752068281173706055e-01 2.161117792129516602e-01
2.802000000000000000e+03 6.250568771362304688e+01 -1.039843797683715820e+00 -1.532943725585937500e+00 2.014751732349395752e-01 -3.994405865669250488e-01 8.823916316032409668e-02
2.803000000000000000e+03 6.174155044555664062e+01 -2.819995582103729248e-01 -1.284564256668090820e+00 2.275502234697341919e-01 -3.171042203903198242e-01 9.458090364933013916e-02
2.804000000000000000e+03 6.472090911865234375e+01 -4.240429699420928955e-01 -9.651003479957580566e-01 5.506415367126464844e-01 -1.243376433849334717e-01 -3.346002101898193359e-01
2.805000000000000000e+03 5.480199050903320312e+01 -2.156163305044174194e-01 -1.533871889114379883e+00 1.585359312593936920e-02 -4.554055035114288330e-01 4.451452493667602539e-01
2.806000000000000000e+03 5.487302780151367188e+01 -9.736210703849792480e-01 -1.756886124610900879e+00 3.520419122651219368e-03 -5.260097384452819824e-01 4.363795518875122070e-01
2.807000000000000000e+03 6.248455810546875000e+01 -3.041366636753082275e-01 -1.216988801956176758e+00 2.833264172077178955e-01 -2.800987064838409424e-01 7.624636869877576828e-03
2.808000000000000000e+03 3.847160339355468750e+01 -1.335523843765258789e+00 -9.887083172798156738e-01 -3.127008909359574318e-03 -2.975505888462066650e-01 4.451192319393157959e-01
2.809000000000000000e+03 5.712757492065429688e+01 -1.820799708366394043e-01 -1.502977967262268066e+00 4.868580028414726257e-02 -4.362876415252685547e-01 3.793217241764068604e-01
2.810000000000000000e+03 5.865727996826171875e+01 6.000143289566040039e-01 -1.193333506584167480e+00 1.267293840646743774e-01 -3.199812471866607666e-01 2.756973206996917725e-01
2.811000000000000000e+03 6.166445541381835938e+01 -1.336041831970214844e+01 -8.770580291748046875e-01 3.152925670146942139e-01 -1.685296297073364258e-01 -6.715366244316101074e-02
2.812000000000000000e+03 6.250870895385742188e+01 -1.247423744201660156e+01 -1.119793534278869629e+00 2.862938046455383301e-01 -2.500499188899993896e-01 -5.191955342888832092e-02
2.813000000000000000e+03 5.260371017456054688e+01 -9.967029690742492676e-01 -1.706418752670288086e+00 -9.495289996266365051e-03 -5.147742033004760742e-01 4.618550240993499756e-01
2.814000000000000000e+03 5.178208923339843750e+01 -2.577138841152191162e-01 -1.501402974128723145e+00 -6.145664490759372711e-03 -4.522646069526672363e-01 4.899963736534118652e-01
2.815000000000000000e+03 3.542707061767578125e+01 -1.223967361450195312e+01 -7.649869918823242188e-01 -4.772948473691940308e-02 -2.438149452209472656e-01 -3.567762374877929688e-01
2.816000000000000000e+03 3.806402206420898438e+01 -1.339822959899902344e+01 -7.702597975730895996e-01 -5.908030644059181213e-02 -2.488020360469818115e-01 -4.303214550018310547e-01
2.817000000000000000e+03 5.253013610839843750e+01 -2.441480457782745361e-01 -1.515713453292846680e+00 -1.760369399562478065e-03 -4.552421569824218750e-01 4.812524914741516113e-01
2.818000000000000000e+03 3.629605865478515625e+01 -6.559627056121826172e-01 -8.201273679733276367e-01 -8.412103168666362762e-03 -2.485618442296981812e-01 4.740934669971466064e-01
2.819000000000000000e+03 3.913851165771484375e+01 -5.855488777160644531e-01 -9.731438755989074707e-01 -5.605306476354598999e-03 -2.936247587203979492e-01 4.909714162349700928e-01
2.820000000000000000e+03 3.906071090698242188e+01 1.801041513681411743e-01 -9.090144634246826172e-01 -9.368054568767547607e-03 -2.755147516727447510e-01 5.293211936950683594e-01
2.821000000000000000e+03 4.358050918579101562e+01 -1.129444956779479980e+00 -1.284137606620788574e+00 -6.672527175396680832e-03 -3.872430324554443359e-01 4.704415202140808105e-01
2.822000000000000000e+03 5.328428649902343750e+01 -2.344793975353240967e-01 -1.525366425514221191e+00 2.648226916790008545e-03 -4.568154513835906982e-01 4.725637733936309814e-01
2.823000000000000000e+03 4.572762298583984375e+01 -3.035415112972259521e-01 -1.284898042678833008e+00 -1.129527762532234192e-02 -3.888579905033111572e-01 5.131857395172119141e-01
2.824000000000000000e+03 3.344178771972656250e+01 -1.319980049133300781e+01 -6.260856986045837402e-01 -5.678872391581535339e-02 -2.048623263835906982e-01 -3.674080371856689453e-01
2.825000000000000000e+03 6.086252593994140625e+01 -1.267564868927001953e+01 -1.190176129341125488e+00 1.852517277002334595e-01 -3.014773428440093994e-01 -2.108589857816696167e-01
2.826000000000000000e+03 6.169377517700195312e+01 -1.258566474914550781e+01 -1.152818679809570312e+00 2.380617111921310425e-01 -2.744270861148834229e-01 -1.358837187290191650e-01
2.827000000000000000e+03 5.103512573242187500e+01 -2.678582072257995605e-01 -1.483649015426635742e+00 -7.669433485716581345e-03 -4.473955333232879639e-01 4.947266280651092529e-01
2.828000000000000000e+03 4.062278366088867188e+01 -1.242035388946533203e+00 -1.115149974822998047e+00 -4.408070351928472519e-03 -3.358674049377441406e-01 4.581784307956695557e-01
2.829000000000000000e+03 3.984756469726562500e+01 -5.460149049758911133e-01 -1.008203983306884766e+00 -6.141707301139831543e-03 -3.043037056922912598e-01 4.960130751132965088e-01
2.830000000000000000e+03 5.028082656860351562e+01 -2.756412327289581299e-01 -1.462143778800964355e+00 -9.938243776559829712e-03 -4.416246116161346436e-01 5.014190673828125000e-01
2.831000000000000000e+03 4.657110977172851562e+01 -1.045930862426757812e+00 -1.444366335868835449e+00 -1.346828322857618332e-02 -4.373503625392913818e-01 4.754631221294403076e-01
2.832000000000000000e+03 4.201758575439453125e+01 -4.743278622627258301e-01 -1.117587089538574219e+00 -6.152733229100704193e-03 -3.371219336986541748e-01 5.058407187461853027e-01
2.833000000000000000e+03 4.340077972412109375e+01 3.323911130428314209e-01 -1.092251300811767578e+00 -4.370593931525945663e-03 -3.289865851402282715e-01 5.465142130851745605e-01
2.834000000000000000e+03 5.245503997802734375e+01 5.418995022773742676e-01 -1.324968695640563965e+00 8.031234145164489746e-03 -3.950812220573425293e-01 4.948365092277526855e-01
2.835000000000000000e+03 4.056128692626953125e+01 -5.183705687522888184e-01 -1.043731212615966797e+00 -6.050332449376583099e-03 -3.149344623088836670e-01 4.990324974060058594e-01
2.836000000000000000e+03 4.800342178344726562e+01 -2.921201288700103760e-01 -1.379860162734985352e+00 -1.298416685312986374e-02 -4.178532958030700684e-01 5.095363259315490723e-01
2.837000000000000000e+03 4.647985839843750000e+01 -2.879391908645629883e-01 -1.315458178520202637e+00 -1.168152783066034317e-02 -3.981419205665588379e-01 5.131407380104064941e-01
2.838000000000000000e+03 4.424437713623046875e+01 -3.675481081008911133e-01 -1.221453905105590820e+00 -7.638452108949422836e-03 -3.687277138233184814e-01 5.123014450073242188e-01
2.839000000000000000e+03 4.256880950927734375e+01 1.023016452789306641e+00 -9.762890338897705078e-01 -6.904841866344213486e-03 -2.949581444263458252e-01 5.730940699577331543e-01
2.840000000000000000e+03 6.550114440917968750e+01 -1.213064551353454590e+00 -1.183107018470764160e+00 5.206305980682373047e-01 -1.987429112195968628e-01 -3.679673671722412109e-01
2.841000000000000000e+03 3.322589492797851562e+01 -1.242246723175048828e+01 -6.694494485855102539e-01 -4.714326933026313782e-02 -2.149778157472610474e-01 -3.400202691555023193e-01
2.842000000000000000e+03 3.413567352294921875e+01 -1.305971908569335938e+01 -6.598052978515625000e-01 -5.510196462273597717e-02 -2.144721746444702148e-01 -3.721441924571990967e-01
2.843000000000000000e+03 6.691060638427734375e+01 -5.606445074081420898e-01 -6.338961124420166016e-01 1.084243178367614746e+00 1.351041197776794434e-01 -8.941452503204345703e-01
2.844000000000000000e+03 3.060990333557128906e+01 -1.348280620574951172e+01 -5.133464336395263672e-01 -5.054099112749099731e-02 -1.691662222146987915e-01 -3.492241203784942627e-01
2.845000000000000000e+03 3.147053337097167969e+01 -1.354329395294189453e+01 -5.377612709999084473e-01 -5.382757633924484253e-02 -1.774766594171524048e-01 -3.628944456577301025e-01
2.846000000000000000e+03 6.546755218505859375e+01 -4.818480610847473145e-01 -8.644102811813354492e-01 6.868776082992553711e-01 -5.325979739427566528e-02 -4.943815171718597412e-01
2.847000000000000000e+03 6.565681457519531250e+01 -1.207964801788330078e+01 -8.476440906524658203e-01 6.760849952697753906e-01 -5.146772414445877075e-02 4.560046195983886719e-01
2.848000000000000000e+03 6.331686782836914062e+01 -1.236480140686035156e+01 -1.068453311920166016e+00 3.517724275588989258e-01 -2.150042802095413208e-01 4.644938930869102478e-02
2.849000000000000000e+03 6.489741516113281250e+01 -1.217503643035888672e+01 -9.331501722335815430e-01 5.438795685768127441e-01 -1.167811900377273560e-01 2.954578399658203125e-01
2.850000000000000000e+03 2.781090736389160156e+01 -1.211375713348388672e+01 -4.800751507282257080e-01 -2.816802449524402618e-02 -1.524729579687118530e-01 -2.804506719112396240e-01
2.851000000000000000e+03 2.951567649841308594e+01 -1.401321601867675781e+01 -4.600133001804351807e-01 -5.251671373844146729e-02 -1.537590026855468750e-01 -3.529305160045623779e-01
2.852000000000000000e+03 2.914605522155761719e+01 -1.338942623138427734e+01 -4.738123416900634766e-01 -4.485889151692390442e-02 -1.556013673543930054e-01 -3.298632204532623291e-01
2.853000000000000000e+03 6.840364074707031250e+01 -1.159158420562744141e+01 -5.149589180946350098e-01 1.553660154342651367e+00 3.116104006767272949e-01 1.332403659820556641e+00
2.854000000000000000e+03 6.778334045410156250e+01 -1.172585773468017578e+01 -5.814521908760070801e-01 1.299812316894531250e+00 2.155080288648605347e-01 1.079246997833251953e+00
2.855000000000000000e+03 2.627682685852050781e+01 -1.250325870513916016e+01 -4.185365438461303711e-01 -2.496304921805858612e-02 -1.330498754978179932e-01 -2.778021991252899170e-01
2.856000000000000000e+03 6.639052581787109375e+01 -1.197365665435791016e+01 -7.563443183898925781e-01 8.442926406860351562e-01 2.638448961079120636e-02 6.321341395378112793e-01
2.857000000000000000e+03 6.710286712646484375e+01 -1.185410499572753906e+01 -6.696910858154296875e-01 1.053453564643859863e+00 1.151287332177162170e-01 8.412415385246276855e-01
2.858000000000000000e+03 2.372393226623535156e+01 -6.053497195243835449e-01 -1.721818000078201294e-01 -1.539951711893081665e-01 -9.785308688879013062e-02 2.608940899372100830e-01
2.859000000000000000e+03 2.457410812377929688e+01 -1.347373580932617188e+01 -3.562276959419250488e-01 -3.044632077217102051e-02 -1.160022020339965820e-01 -2.897545993328094482e-01
2.860000000000000000e+03 7.489079284667968750e+01 -2.775166988372802734e+00 -2.274813175201416016e+00 1.329267883300781250e+01 3.305359601974487305e+00 -1.422981619834899902e+00
2.861000000000000000e+03 7.537163543701171875e+01 -2.992934226989746094e+00 -2.184195995330810547e+00 1.396407222747802734e+01 3.533962726593017578e+00 -4.402848780155181885e-01
2.862000000000000000e+03 7.532511901855468750e+01 -1.243518257141113281e+01 -1.491013407707214355e+00 1.031651973724365234e+01 2.647651910781860352e+00 9.378144741058349609e-01
2.863000000000000000e+03 2.650927543640136719e+01 -1.352779102325439453e+01 -4.027503132820129395e-01 -3.429675847291946411e-02 -1.311141252517700195e-01 -3.092775046825408936e-01
2.864000000000000000e+03 2.706829071044921875e+01 -1.235699939727783203e+01 -4.466146230697631836e-01 -2.682885527610778809e-02 -1.420330405235290527e-01 -2.832150459289550781e-01
2.865000000000000000e+03 2.130538177490234375e+01 -1.344386482238769531e+01 -2.950690984725952148e-01 -3.753679618239402771e-02 -9.978176653385162354e-02 -2.465884387493133545e-01
2.866000000000000000e+03 2.349770355224609375e+01 -1.310288047790527344e+01 -3.405941128730773926e-01 -2.418543212115764618e-02 -1.094338670372962952e-01 -2.670635879039764404e-01
2.867000000000000000e+03 6.946500396728515625e+01 -1.781956911087036133e+00 -5.315786600112915039e-01 1.978403806686401367e+00 4.340475499629974365e-01 -1.756063699722290039e+00
2.868000000000000000e+03 6.468766021728515625e+01 3.525287508964538574e-01 -6.753586530685424805e-01 7.115381956100463867e-01 1.085386238992214203e-02 -4.506255686283111572e-01
2.869000000000000000e+03 6.897067070007324219e+00 6.752330780029296875e+00 7.034419832052662969e-05 6.181078497320413589e-04 2.065356238745152950e-04 -3.298984374850988388e-04
2.870000000000000000e+03 7.033860206604003906e+00 8.867961883544921875e+00 6.342193810269236565e-04 4.370140595710836351e-05 2.033762430073693395e-04 1.145110232755541801e-03
2.871000000000000000e+03 2.134549522399902344e+01 -1.453195381164550781e+01 -2.891732752323150635e-01 -5.095513910055160522e-02 -1.020385175943374634e-01 -2.609353959560394287e-01
2.872000000000000000e+03 7.549101257324218750e+01 -1.848298758268356323e-01 -1.353132724761962891e+00 1.021619701385498047e+01 2.658919095993041992e+00 -7.614892721176147461e-01
2.873000000000000000e+03 7.499191284179687500e+01 -1.220181226730346680e+00 -1.858048677444458008e+00 1.093810176849365234e+01 2.724015951156616211e+00 -1.249868154525756836e+00
2.874000000000000000e+03 7.515563201904296875e+01 -1.371093750000000000e+01 -1.048315167427062988e+00 9.264238357543945312e+00 2.464776992797851562e+00 1.129988431930541992e+00
2.875000000000000000e+03 7.591411590576171875e+01 -1.388173866271972656e+01 -9.076125621795654297e-01 9.646346092224121094e+00 2.621619939804077148e+00 6.914362907409667969e-01
2.876000000000000000e+03 7.616674041748046875e+01 -1.008431339263916016e+01 -1.790899157524108887e+00 1.313553714752197266e+01 3.403391599655151367e+00 -8.556537032127380371e-01
2.877000000000000000e+03 7.567139434814453125e+01 -9.746980667114257812e+00 -2.000749349594116211e+00 1.408036136627197266e+01 3.623883485794067383e+00 -2.328350692987442017e-01
2.878000000000000000e+03 7.449692535400390625e+01 -1.734974098205566406e+01 -2.117743939161300659e-01 7.483895778656005859e+00 2.181636571884155273e+00 1.322094559669494629e+00
2.879000000000000000e+03 2.404704475402832031e+01 1.229884433746337891e+01 -4.062325060367584229e-01 -4.454709589481353760e-01 -2.555110454559326172e-01 5.473508834838867188e-01
2.880000000000000000e+03 2.284676170349121094e+01 9.491880416870117188e+00 -3.843159377574920654e-01 -5.239021778106689453e-01 -2.724654376506805420e-01 5.690115690231323242e-01
2.881000000000000000e+03 2.399324417114257812e+01 3.752009570598602295e-02 -1.930024027824401855e-01 -1.724597215652465820e-01 -1.096386387944221497e-01 3.010286986827850342e-01
2.882000000000000000e+03 2.356956481933593750e+01 1.190457582473754883e+00 -1.858135908842086792e-01 -2.234301567077636719e-01 -1.227731183171272278e-01 3.365173041820526123e-01
2.883000000000000000e+03 7.302450561523437500e+01 1.234393119812011719e+01 2.624035775661468506e-01 5.729489803314208984e+00 1.797567963600158691e+00 -1.158053517341613770e+00
2.884000000000000000e+03 7.280103302001953125e+01 1.509267330169677734e+01 2.617036998271942139e-01 5.473430156707763672e+00 1.720540165901184082e+00 -1.014753580093383789e+00
2.885000000000000000e+03 6.093355655670166016e+00 7.192698478698730469e+00 3.980523033533245325e-04 1.276320108445361257e-04 1.577052898937836289e-04 5.478182574734091759e-04
2.886000000000000000e+03 4.863494396209716797e+00 6.327705383300781250e+00 1.837085146689787507e-04 9.522478649159893394e-05 8.367998816538602114e-05 2.855473721865564585e-04
2.887000000000000000e+03 7.151688385009765625e+01 -2.110854911804199219e+01 3.181287646293640137e-01 5.290080070495605469e+00 1.682462692260742188e+00 1.377730011940002441e+00
2.888000000000000000e+03 6.939925384521484375e+01 -2.434240531921386719e+01 5.285711288452148438e-01 4.284805297851562500e+00 1.444012880325317383e+00 1.141809940338134766e+00
2.889000000000000000e+03 2.701256179809570312e+01 7.763674736022949219e+00 -3.675552904605865479e-01 -2.565354108810424805e-01 -1.872272044420242310e-01 6.169362664222717285e-01
2.890000000000000000e+03 1.968202018737792969e+01 -1.697415161132812500e+01 -2.378826588392257690e-01 -1.029602140188217163e-01 -1.022528633475303650e-01 -2.566079795360565186e-01
2.891000000000000000e+03 2.087786674499511719e+01 -1.691589736938476562e+01 -2.431672215461730957e-01 -9.093771874904632568e-02 -1.002314835786819458e-01 -2.758487164974212646e-01
2.892000000000000000e+03 2.530060958862304688e+01 3.947132110595703125e+00 -2.959908843040466309e-01 -2.654449343681335449e-01 -1.684307456016540527e-01 5.104115605354309082e-01
2.893000000000000000e+03 1.938006019592285156e+01 -1.836643028259277344e+01 -2.031711786985397339e-01 -1.293977349996566772e-01 -9.977067261934280396e-02 -2.542888522148132324e-01
2.894000000000000000e+03 2.073303031921386719e+01 -1.898571777343750000e+01 -1.883861571550369263e-01 -1.252428293228149414e-01 -9.408870339393615723e-02 -2.804601490497589111e-01
2.895000000000000000e+03 7.361921691894531250e+01 -1.655990982055664062e+01 -2.330244332551956177e-01 7.027404785156250000e+00 2.038314104080200195e+00 1.524479031562805176e+00
2.896000000000000000e+03 7.219651031494140625e+01 -1.888622093200683594e+01 1.200569495558738708e-01 5.722396373748779297e+00 1.752735972404479980e+00 1.506052136421203613e+00
2.897000000000000000e+03 7.629649162292480469e+00 2.444413948059082031e+01 -7.622712850570678711e-02 -3.693014085292816162e-01 -1.336585581302642822e-01 3.321208953857421875e-01
2.898000000000000000e+03 7.082884979248046875e+01 -2.515490722656250000e+01 4.393071532249450684e-01 4.912078380584716797e+00 1.605415582656860352e+00 1.094406366348266602e+00
2.899000000000000000e+03 7.322865295410156250e+01 -2.621199798583984375e+01 2.809708118438720703e-01 5.901594161987304688e+00 1.854769468307495117e+00 9.625159502029418945e-01
2.900000000000000000e+03 7.263691711425781250e+01 6.782998561859130859e+00 1.211100071668624878e-01 5.926670551300048828e+00 1.814334154129028320e+00 -1.510048985481262207e+00
2.901000000000000000e+03 7.113891601562500000e+01 1.902366447448730469e+01 3.136975169181823730e-01 4.774616241455078125e+00 1.526494145393371582e+00 -8.817333579063415527e-01
2.902000000000000000e+03 7.115461730957031250e+01 1.769618606567382812e+01 3.292804956436157227e-01 4.826745033264160156e+00 1.546807765960693359e+00 -9.451055526733398438e-01
2.903000000000000000e+03 7.194044494628906250e+01 1.079356002807617188e+01 3.121460080146789551e-01 5.330347061157226562e+00 1.692747950553894043e+00 -1.305009126663208008e+00
2.904000000000000000e+03 7.300692749023437500e+01 -1.906545829772949219e+01 7.997342944145202637e-02 6.294684886932373047e+00 1.912397503852844238e+00 1.438851833343505859e+00
2.905000000000000000e+03 6.510773658752441406e+00 -2.259653663635253906e+01 -5.471652373671531677e-02 -1.224798634648323059e-01 -5.315891653299331665e-02 -1.357230246067047119e-01
2.906000000000000000e+03 6.759455108642578125e+01 -5.530684590339660645e-01 -4.960062205791473389e-01 1.379844784736633301e+00 2.651515603065490723e-01 -1.152826905250549316e+00
2.907000000000000000e+03 7.358728027343750000e+01 2.708085060119628906e+00 -4.810463190078735352e-01 7.231165409088134766e+00 2.025035619735717773e+00 -1.687065124511718750e+00
2.908000000000000000e+03 7.803919792175292969e+00 2.993286132812500000e+01 7.036941498517990112e-02 -5.095722675323486328e-01 -1.317608505487442017e-01 2.743332386016845703e-01
2.909000000000000000e+03 1.079027080535888672e+01 2.889885902404785156e+01 1.001038998365402222e-01 -5.867820978164672852e-01 -1.460034698247909546e-01 3.218350410461425781e-01
2.910000000000000000e+03 6.922432708740234375e+01 1.800025820732116699e+00 -1.117854099720716476e-02 3.166573047637939453e+00 9.466183781623840332e-01 -1.789988398551940918e+00
2.911000000000000000e+03 7.113065338134765625e+01 2.033848190307617188e+01 2.994797229766845703e-01 4.726706981658935547e+00 1.507856011390686035e+00 -8.076712489128112793e-01
2.912000000000000000e+03 7.155885314941406250e+01 1.358659362792968750e+01 3.467676639556884766e-01 5.075229644775390625e+00 1.626599192619323730e+00 -1.158942699432373047e+00
2.913000000000000000e+03 7.174208831787109375e+01 1.219356727600097656e+01 3.325951993465423584e-01 5.199070930480957031e+00 1.659499764442443848e+00 -1.231704711914062500e+00
2.914000000000000000e+03 7.144728088378906250e+01 -2.995013809204101562e+01 3.782649934291839600e-01 5.131727218627929688e+00 1.652997732162475586e+00 7.861571311950683594e-01
2.915000000000000000e+03 6.747663879394531250e+01 -3.002570343017578125e+01 6.121971607208251953e-01 3.806874990463256836e+00 1.325721621513366699e+00 7.148481011390686035e-01
2.916000000000000000e+03 7.010131072998046875e+01 2.816691398620605469e+01 2.488672137260437012e-01 4.321543216705322266e+00 1.371123194694519043e+00 -4.822093844413757324e-01
2.917000000000000000e+03 7.244364929199218750e+01 2.180932998657226562e+01 2.176344692707061768e-01 5.004731178283691406e+00 1.566709637641906738e+00 -6.881515383720397949e-01
2.918000000000000000e+03 2.523362350463867188e+01 5.982019424438476562e+00 -3.285135626792907715e-01 -3.175349831581115723e-01 -1.938145607709884644e-01 5.690288543701171875e-01
2.919000000000000000e+03 2.609110069274902344e+01 6.346487522125244141e+00 -3.530285656452178955e-01 -2.777261734008789062e-01 -1.892264187335968018e-01 5.861120820045471191e-01
2.920000000000000000e+03 2.279244041442871094e+01 1.377338790893554688e+01 -4.145844280719757080e-01 -5.445040464401245117e-01 -2.877265214920043945e-01 5.061168074607849121e-01
2.921000000000000000e+03 9.645950317382812500e+00 2.216896438598632812e+01 -2.084490656852722168e-01 -4.135859012603759766e-01 -1.866104900836944580e-01 4.156651198863983154e-01
2.922000000000000000e+03 1.034268951416015625e+01 2.424213027954101562e+01 -7.147657126188278198e-02 -5.227746963500976562e-01 -1.782753914594650269e-01 4.058644473552703857e-01
2.923000000000000000e+03 7.144135284423828125e+01 -2.623644828796386719e+01 3.981894850730895996e-01 5.137304782867431641e+00 1.660648226737976074e+00 1.032140254974365234e+00
2.924000000000000000e+03 1.835127639770507812e+01 2.190606880187988281e+01 -7.595404237508773804e-02 -7.648729085922241211e-01 -2.522480785846710205e-01 3.248966932296752930e-01
2.925000000000000000e+03 1.555306243896484375e+01 -2.437532806396484375e+01 -1.524954847991466522e-02 -2.468398809432983398e-01 -7.862683385610580444e-02 -2.160509526729583740e-01
2.926000000000000000e+03 1.041778850555419922e+01 -2.543954277038574219e+01 -9.442283189855515957e-04 -2.405389845371246338e-01 -7.244496047496795654e-02 -1.909157037734985352e-01
2.927000000000000000e+03 6.928863525390625000e+00 -2.766217803955078125e+01 1.027275342494249344e-02 -2.161972373723983765e-01 -6.177734583616256714e-02 -1.469821184873580933e-01
2.928000000000000000e+03 1.905075645446777344e+01 -2.124418258666992188e+01 -1.170894280076026917e-01 -1.765271425247192383e-01 -8.808496594429016113e-02 -2.589200437068939209e-01
2.929000000000000000e+03 1.949652481079101562e+01 2.173282241821289062e+01 -7.463145256042480469e-02 -7.198915481567382812e-01 -2.383569031953811646e-01 3.108485341072082520e-01
2.930000000000000000e+03 6.970467376708984375e+01 2.033558273315429688e+01 3.709963262081146240e-01 4.370654582977294922e+00 1.422495245933532715e+00 -8.287261128425598145e-01
2.931000000000000000e+03 7.123227691650390625e+01 -3.623959350585937500e+01 3.359567821025848389e-01 4.910809993743896484e+00 1.574030041694641113e+00 3.562073409557342529e-01
2.932000000000000000e+03 2.137023162841796875e+01 -1.791355705261230469e+01 -2.215468287467956543e-01 -1.039873287081718445e-01 -9.766024351119995117e-02 -2.869389653205871582e-01
2.933000000000000000e+03 1.024639797210693359e+01 -2.393600082397460938e+01 -2.791662141680717468e-02 -2.301851361989974976e-01 -7.743052393198013306e-02 -1.867827028036117554e-01
2.934000000000000000e+03 8.248029708862304688e+00 3.561009979248046875e+01 1.263660788536071777e-01 -5.789597630500793457e-01 -1.357781141996383667e-01 1.640388965606689453e-01
2.935000000000000000e+03 7.916028022766113281e+00 2.646994781494140625e+01 -1.390170422382652760e-03 -4.455737769603729248e-01 -1.340891867876052856e-01 3.231940865516662598e-01
2.936000000000000000e+03 7.094345092773437500e+01 -2.839944839477539062e+01 4.242296218872070312e-01 4.981031417846679688e+00 1.621578335762023926e+00 8.863357305526733398e-01
2.937000000000000000e+03 2.019146919250488281e+01 -2.045880126953125000e+01 -1.404938250780105591e-01 -1.567122936248779297e-01 -8.916183561086654663e-02 -2.723731696605682373e-01
2.938000000000000000e+03 9.112290382385253906e+00 -2.991229057312011719e+01 3.878803551197052002e-02 -2.595872282981872559e-01 -6.623975932598114014e-02 -1.532610505819320679e-01
2.939000000000000000e+03 2.516138076782226562e+01 -1.553493213653564453e+01 -3.167328834533691406e-01 -5.686023086309432983e-02 -1.120779290795326233e-01 -3.307623863220214844e-01
2.940000000000000000e+03 9.081798553466796875e+00 2.689776229858398438e+01 1.498919352889060974e-02 -5.016011595726013184e-01 -1.459835916757583618e-01 3.436904251575469971e-01
2.941000000000000000e+03 2.281845855712890625e+01 1.889164924621582031e+01 -2.031214684247970581e-01 -5.600619316101074219e-01 -2.289550304412841797e-01 3.581267297267913818e-01
2.942000000000000000e+03 8.799495697021484375e+00 -3.265390396118164062e+01 5.621507391333580017e-02 -2.791506946086883545e-01 -6.688068807125091553e-02 -1.298419684171676636e-01
2.943000000000000000e+03 1.072105884552001953e+01 -2.731856155395507812e+01 3.181372955441474915e-02 -2.569088935852050781e-01 -6.752854585647583008e-02 -1.808791011571884155e-01
2.944000000000000000e+03 7.237696838378906250e+01 -1.012042140960693359e+01 -6.371747255325317383e-01 6.261712551116943359e+00 1.687361359596252441e+00 3.821393489837646484e+00
2.945000000000000000e+03 7.390787506103515625e+01 -9.700356483459472656e+00 -1.845539450645446777e+00 1.170207691192626953e+01 2.956961393356323242e+00 3.469299793243408203e+00
2.946000000000000000e+03 7.072872924804687500e+01 -1.099187946319580078e+01 -3.418740034103393555e-01 3.419790744781494141e+00 9.233750104904174805e-01 2.572843313217163086e+00
2.947000000000000000e+03 7.285626220703125000e+01 -9.185188293457031250e+00 -4.880848824977874756e-01 7.632863044738769531e+00 2.143433332443237305e+00 4.785817623138427734e+00
2.948000000000000000e+03 7.481377410888671875e+01 -3.659542322158813477e+00 -2.240955829620361328e+00 1.541960239410400391e+01 3.953593969345092773e+00 -1.563794016838073730e+00
2.949000000000000000e+03 7.449014282226562500e+01 -3.893190383911132812e+00 -2.157361745834350586e+00 1.543434906005859375e+01 3.983096361160278320e+00 -2.652108907699584961e+00
2.950000000000000000e+03 7.220758819580078125e+01 -8.979143142700195312e+00 -5.799336358904838562e-02 4.886507034301757812e+00 1.448554039001464844e+00 4.083921432495117188e+00
2.951000000000000000e+03 7.543576812744140625e+01 -1.008383369445800781e+01 -2.125858068466186523e+00 1.322081089019775391e+01 3.328485965728759766e+00 3.667232394218444824e-01
2.952000000000000000e+03 7.520090484619140625e+01 -9.690151214599609375e+00 -2.181342840194702148e+00 1.424204921722412109e+01 3.618211984634399414e+00 6.941259503364562988e-01
2.953000000000000000e+03 7.145255279541015625e+01 -2.990503549575805664e+00 -3.385898470878601074e-01 3.735725879669189453e+00 1.019140839576721191e+00 -3.142416238784790039e+00
2.954000000000000000e+03 7.070339965820312500e+01 -2.292627573013305664e+00 -4.276705980300903320e-01 2.981808185577392578e+00 7.662413120269775391e-01 -2.535038709640502930e+00
2.955000000000000000e+03 7.362240600585937500e+01 -9.476531982421875000e+00 -1.466729402542114258e+00 1.094120216369628906e+01 2.842341661453247070e+00 4.130415916442871094e+00
2.956000000000000000e+03 7.226009368896484375e+01 -1.171951103210449219e+01 -7.842791080474853516e-01 6.471403121948242188e+00 1.706137299537658691e+00 2.935108900070190430e+00
2.957000000000000000e+03 7.180531311035156250e+01 -3.224834442138671875e+00 -2.993399500846862793e-01 4.253763675689697266e+00 1.186327099800109863e+00 -3.530766248703002930e+00
2.958000000000000000e+03 7.531334686279296875e+01 -1.821223974227905273e+00 -2.034710884094238281e+00 1.191464996337890625e+01 2.963981866836547852e+00 -8.674818277359008789e-01
2.959000000000000000e+03 7.027565002441406250e+01 -1.136177062988281250e+01 -3.168362677097320557e-01 3.093018293380737305e+00 8.328546285629272461e-01 2.260333061218261719e+00
2.960000000000000000e+03 7.108296203613281250e+01 -2.679300546646118164e+00 -3.669946491718292236e-01 3.339208602905273438e+00 8.916642069816589355e-01 -2.841733694076538086e+00
2.961000000000000000e+03 7.566538238525390625e+01 -3.569073677062988281e+00 -1.671794891357421875e+00 1.504358291625976562e+01 4.011536598205566406e+00 6.803119182586669922e-01
2.962000000000000000e+03 2.576861381530761719e+01 -2.798463106155395508e-01 -2.740660011768341064e-01 -1.288905739784240723e-01 -1.208869740366935730e-01 3.432443141937255859e-01
2.963000000000000000e+03 6.984789276123046875e+01 -1.147460937500000000e+01 -3.260766267776489258e-01 2.622478723526000977e+00 6.889206171035766602e-01 2.038887977600097656e+00
2.964000000000000000e+03 7.033729553222656250e+01 -1.091550731658935547e+01 -3.892414867877960205e-01 2.875147342681884766e+00 7.457717061042785645e-01 2.278120040893554688e+00
2.965000000000000000e+03 2.744553947448730469e+01 -6.354964375495910645e-01 -3.490026891231536865e-01 -8.899796009063720703e-02 -1.314001977443695068e-01 3.634145557880401611e-01
2.966000000000000000e+03 2.683638572692871094e+01 -2.441534698009490967e-01 -3.289935290813446045e-01 -1.056726053357124329e-01 -1.303998380899429321e-01 3.700616359710693359e-01
2.967000000000000000e+03 2.622137260437011719e+01 2.014557421207427979e-01 -2.993318736553192139e-01 -1.312745809555053711e-01 -1.291819363832473755e-01 3.786918222904205322e-01
2.968000000000000000e+03 7.442594909667968750e+01 1.793415188789367676e+00 -7.741569876670837402e-01 8.259071350097656250e+00 2.245474338531494141e+00 -1.481363415718078613e+00
2.969000000000000000e+03 7.514134979248046875e+01 -7.233620882034301758e-01 -1.687061309814453125e+00 1.058727073669433594e+01 2.670063018798828125e+00 -1.039332389831542969e+00
2.970000000000000000e+03 7.089941406250000000e+01 -1.057143974304199219e+01 -3.790217339992523193e-01 3.381293535232543945e+00 9.006814956665039062e-01 2.657279491424560547e+00
2.971000000000000000e+03 7.430538177490234375e+01 -1.413223266601562500e+01 -8.882241845130920410e-01 8.396836280822753906e+00 2.252583503723144531e+00 1.535151243209838867e+00
2.972000000000000000e+03 7.494364929199218750e+01 -1.435113906860351562e+01 -8.548260331153869629e-01 8.807847023010253906e+00 2.385906457901000977e+00 1.228310704231262207e+00
2.973000000000000000e+03 7.542604064941406250e+01 -1.390307664871215820e+00 -1.927443742752075195e+00 1.146209335327148438e+01 2.860394716262817383e+00 -7.060768604278564453e-01
2.974000000000000000e+03 6.849835205078125000e+01 -1.217155551910400391e+01 -3.162370920181274414e-01 1.898656249046325684e+00 4.747257530689239502e-01 1.464900612831115723e+00
2.975000000000000000e+03 6.905491638183593750e+01 -1.162538766860961914e+00 -4.410226643085479736e-01 1.990703225135803223e+00 4.649041891098022461e-01 -1.667745113372802734e+00
2.976000000000000000e+03 7.505699157714843750e+01 -1.144806957244873047e+01 -1.831804275512695312e+00 1.111236763000488281e+01 2.784168958663940430e+00 1.118826746940612793e+00
2.977000000000000000e+03 3.051658630371093750e+01 9.419312328100204468e-02 -4.997934997081756592e-01 -5.684408918023109436e-02 -1.669912785291671753e-01 4.557873904705047607e-01
2.978000000000000000e+03 3.110188674926757812e+01 -9.204256534576416016e-01 -5.408388376235961914e-01 -3.667378053069114685e-02 -1.732537895441055298e-01 4.139145314693450928e-01
2.979000000000000000e+03 2.781595611572265625e+01 2.119201898574829102e+00 -3.721993267536163330e-01 -1.422200500965118408e-01 -1.543258130550384521e-01 4.977361559867858887e-01
2.980000000000000000e+03 7.439926147460937500e+01 -1.240464496612548828e+01 -1.458047747611999512e+00 9.503601074218750000e+00 2.413666009902954102e+00 1.753641724586486816e+00
2.981000000000000000e+03 2.793751144409179688e+01 -9.876860678195953369e-02 -3.817275762557983398e-01 -9.177540242671966553e-02 -1.420508921146392822e-01 4.061125516891479492e-01
2.982000000000000000e+03 2.931923675537109375e+01 -1.075588092207908630e-01 -4.463985264301300049e-01 -6.799867004156112671e-02 -1.543191671371459961e-01 4.279298186302185059e-01
2.983000000000000000e+03 3.191317176818847656e+01 -5.277881622314453125e-01 -5.819861888885498047e-01 -3.208865225315093994e-02 -1.842224597930908203e-01 4.425466358661651611e-01
2.984000000000000000e+03 3.268040466308593750e+01 1.639412939548492432e-01 -5.991849899291992188e-01 -3.597304597496986389e-02 -1.905474215745925903e-01 4.901938140392303467e-01
2.985000000000000000e+03 3.321395492553710938e+01 -9.319072365760803223e-01 -6.603935360908508301e-01 -1.803491637110710144e-02 -2.035285234451293945e-01 4.369753301143646240e-01
2.986000000000000000e+03 4.212378311157226562e+01 -1.339721298217773438e+01 -9.212486147880554199e-01 -5.648434907197952271e-02 -2.933198809623718262e-01 -4.709934592247009277e-01
2.987000000000000000e+03 4.681723403930664062e+01 -1.271628761291503906e+01 -1.178077816963195801e+00 -4.355246573686599731e-02 -3.664890825748443604e-01 -4.909461736679077148e-01
2.988000000000000000e+03 4.171979141235351562e+01 -1.288321590423583984e+01 -9.627944827079772949e-01 -5.041389167308807373e-02 -3.039625287055969238e-01 -4.522349834442138672e-01
2.989000000000000000e+03 4.049196243286132812e+01 -1.288384056091308594e+01 -9.143958687782287598e-01 -5.397525802254676819e-02 -2.905113399028778076e-01 -4.367495775222778320e-01
2.990000000000000000e+03 3.306767654418945312e+01 -3.370270729064941406e-01 -6.342259049415588379e-01 -2.519200369715690613e-02 -1.978253722190856934e-01 4.682845473289489746e-01
2.991000000000000000e+03 5.216575622558593750e+01 -1.363032722473144531e+01 -1.121493101119995117e+00 -1.382813695818185806e-02 -3.405963778495788574e-01 -5.167050361633300781e-01
2.992000000000000000e+03 4.868252944946289062e+01 -1.269741153717041016e+01 -1.244698643684387207e+00 -3.605549782514572144e-02 -3.842262327671051025e-01 -5.051540732383728027e-01
2.993000000000000000e+03 4.877948379516601562e+01 -1.504029560089111328e+01 -8.044643998146057129e-01 -4.219216108322143555e-02 -2.539969682693481445e-01 -5.489928126335144043e-01
2.994000000000000000e+03 3.935036087036132812e+01 -1.398397445678710938e+01 -7.544941902160644531e-01 -6.375412642955780029e-02 -2.454745024442672729e-01 -4.669470191001892090e-01
2.995000000000000000e+03 4.620578002929687500e+01 -1.299541664123535156e+01 -1.114825844764709473e+00 -4.584937915205955505e-02 -3.482025861740112305e-01 -4.934199452400207520e-01
2.996000000000000000e+03 4.070684432983398438e+01 -1.361306476593017578e+01 -8.284108042716979980e-01 -6.208066269755363464e-02 -2.671474218368530273e-01 -4.649313986301422119e-01
2.997000000000000000e+03 3.980833053588867188e+01 -1.307725524902343750e+01 -8.614548444747924805e-01 -5.752442777156829834e-02 -2.756937742233276367e-01 -4.360838830471038818e-01
2.998000000000000000e+03 4.762091445922851562e+01 -1.323812484741210938e+01 -1.106155991554260254e+00 -5.227437987923622131e-02 -3.475291132926940918e-01 -5.047954916954040527e-01
2.999000000000000000e+03 5.273484420776367188e+01 -1.389164161682128906e+01 -1.064955234527587891e+00 2.002026187255978584e-03 -3.188859820365905762e-01 -5.094348192214965820e-01
3.000000000000000000e+03 5.247296524047851562e+01 -1.300520610809326172e+01 -1.274611473083496094e+00 -1.159507688134908676e-02 -3.858619630336761475e-01 -5.107201337814331055e-01
3.001000000000000000e+03 3.633335876464843750e+01 1.133861690759658813e-01 -7.799001336097717285e-01 -1.421122252941131592e-02 -2.382334172725677490e-01 5.162861347198486328e-01
3.002000000000000000e+03 5.050368118286132812e+01 -1.362926673889160156e+01 -1.087608098983764648e+00 -2.751866169273853302e-02 -3.345380127429962158e-01 -5.284153223037719727e-01
3.003000000000000000e+03 4.902754592895507812e+01 -1.322147274017333984e+01 -1.148650288581848145e+00 -3.668408095836639404e-02 -3.556002974510192871e-01 -5.171117782592773438e-01
3.004000000000000000e+03 5.297658157348632812e+01 -1.325455188751220703e+01 -1.207451701164245605e+00 -4.756836642627604306e-05 -3.622497916221618652e-01 -5.087773799896240234e-01
3.005000000000000000e+03 5.363273620605468750e+01 -1.337478351593017578e+01 -1.176159620285034180e+00 2.552523510530591011e-03 -3.520821332931518555e-01 -4.988450109958648682e-01
3.006000000000000000e+03 3.651655960083007812e+01 -1.269268608093261719e+01 -7.742163538932800293e-01 -5.272256582975387573e-02 -2.480816841125488281e-01 -3.862639069557189941e-01
3.007000000000000000e+03 5.857225036621093750e+01 -1.302207565307617188e+01 -1.213487267494201660e+00 1.005838960409164429e-01 -3.338710069656372070e-01 -3.501806557178497314e-01
3.008000000000000000e+03 5.693308258056640625e+01 -1.302440738677978516e+01 -1.238658308982849121e+00 5.710926651954650879e-02 -3.544647097587585449e-01 -4.241645634174346924e-01
3.009000000000000000e+03 5.799366378784179688e+01 -1.312393951416015625e+01 -1.193682551383972168e+00 9.209268540143966675e-02 -3.304769694805145264e-01 -3.758291602134704590e-01
3.010000000000000000e+03 5.602780532836914062e+01 -1.261815452575683594e+01 -1.399290680885314941e+00 1.733066700398921967e-02 -4.145880043506622314e-01 -4.567069709300994873e-01
3.011000000000000000e+03 5.913785171508789062e+01 -1.312611484527587891e+01 -1.153153300285339355e+00 1.272698789834976196e-01 -3.077650368213653564e-01 -3.176252841949462891e-01
3.012000000000000000e+03 3.772966384887695312e+01 -6.826083064079284668e-01 -9.003989696502685547e-01 -5.165180191397666931e-03 -2.716692388057708740e-01 4.818334877490997314e-01
3.013000000000000000e+03 3.541553878784179688e+01 7.006582021713256836e-01 -7.108307480812072754e-01 -1.922033354640007019e-02 -2.190153151750564575e-01 5.360472202301025391e-01
3.014000000000000000e+03 5.617602920532226562e+01 -1.343636989593505859e+01 -1.126821637153625488e+00 5.114072561264038086e-02 -3.227042853832244873e-01 -4.439873993396759033e-01
3.015000000000000000e+03 5.731261444091796875e+01 -1.245354652404785156e+01 -1.415818214416503906e+00 5.154087021946907043e-02 -4.092831909656524658e-01 -4.194765985012054443e-01
3.016000000000000000e+03 3.609334945678710938e+01 -1.334196853637695312e+01 -7.055657505989074707e-01 -5.968765169382095337e-02 -2.295760214328765869e-01 -4.068076312541961670e-01
3.017000000000000000e+03 3.845740890502929688e+01 -1.460912990570068359e+01 -6.609089374542236328e-01 -7.446192950010299683e-02 -2.206112593412399292e-01 -4.716142117977142334e-01
3.018000000000000000e+03 5.440479278564453125e+01 -1.349928665161132812e+01 -1.143750190734863281e+00 1.309328339993953705e-02 -3.391970694065093994e-01 -4.821496009826660156e-01
3.019000000000000000e+03 6.543148803710937500e+01 2.881141006946563721e-01 -5.838035941123962402e-01 8.705738782882690430e-01 8.603109419345855713e-02 -6.141536235809326172e-01
3.020000000000000000e+03 6.387881469726562500e+01 1.252448916435241699e+00 -4.945189356803894043e-01 7.344845533370971680e-01 7.198967784643173218e-02 -4.108009338378906250e-01
3.021000000000000000e+03 5.944116592407226562e+01 5.827391147613525391e-01 -1.152989506721496582e+00 1.607562601566314697e-01 -2.976699769496917725e-01 2.241832911968231201e-01
3.022000000000000000e+03 5.862654876708984375e+01 1.423012375831604004e+00 -9.422711133956909180e-01 1.837293952703475952e-01 -2.275625169277191162e-01 2.305125147104263306e-01
3.023000000000000000e+03 5.946012115478515625e+01 -2.006423920392990112e-01 -1.425158262252807617e+00 1.071534752845764160e-01 -3.954014480113983154e-01 2.688604891300201416e-01
3.024000000000000000e+03 6.004930877685546875e+01 -1.376903533935546875e+01 -8.787502646446228027e-01 2.311650961637496948e-01 -1.942755430936813354e-01 -2.015112489461898804e-01
3.025000000000000000e+03 3.634972000122070312e+01 -1.463053417205810547e+01 -6.020171046257019043e-01 -7.628284394741058350e-02 -2.034899890422821045e-01 -4.483774900436401367e-01
3.026000000000000000e+03 5.550607299804687500e+01 5.762000083923339844e-01 -1.304947495460510254e+00 4.559514299035072327e-02 -3.778056800365447998e-01 4.205618798732757568e-01
3.027000000000000000e+03 5.557185745239257812e+01 -2.001158744096755981e-01 -1.528485774993896484e+00 2.533924579620361328e-02 -4.509439766407012939e-01 4.261887073516845703e-01
3.028000000000000000e+03 6.316416931152343750e+01 4.663184881210327148e-01 -8.474872708320617676e-01 4.589648544788360596e-01 -1.165567263960838318e-01 -1.790982037782669067e-01
3.029000000000000000e+03 5.786729049682617188e+01 6.059976220130920410e-01 -1.228501558303833008e+00 1.016601100564002991e-01 -3.380524218082427979e-01 3.213418722152709961e-01
3.030000000000000000e+03 5.404108047485351562e+01 -2.273405641317367554e-01 -1.533656358718872070e+00 9.780839085578918457e-03 -4.571626782417297363e-01 4.591235518455505371e-01
3.031000000000000000e+03 6.392076873779296875e+01 4.230155050754547119e-01 -7.613075971603393555e-01 5.759463906288146973e-01 -5.560836195945739746e-02 -3.016259074211120605e-01
3.032000000000000000e+03 5.707639694213867188e+01 6.037508249282836914e-01 -1.257811069488525391e+00 7.700176537036895752e-02 -3.542427718639373779e-01 3.599145412445068359e-01
3.033000000000000000e+03 3.843367004394531250e+01 -6.374253630638122559e-01 -9.392735958099365234e-01 -6.249820813536643982e-03 -2.836570441722869873e-01 4.864782094955444336e-01
3.034000000000000000e+03 5.096596908569335938e+01 5.073375701904296875e-01 -1.312405109405517578e+00 -3.153839788865298033e-04 -3.938161730766296387e-01 5.145648121833801270e-01
3.035000000000000000e+03 4.868601989746093750e+01 4.703288376331329346e-01 -1.264396429061889648e+00 -9.248317219316959381e-03 -3.820934295654296875e-01 5.338605046272277832e-01
3.036000000000000000e+03 4.944821166992187500e+01 4.709027111530303955e-01 -1.285892367362976074e+00 -7.124220021069049835e-03 -3.879049718379974365e-01 5.291201472282409668e-01
3.037000000000000000e+03 4.952014160156250000e+01 -2.857588529586791992e-01 -1.437096357345581055e+00 -1.097973622381687164e-02 -4.344228208065032959e-01 5.047983527183532715e-01
3.038000000000000000e+03 4.792602539062500000e+01 4.821954369544982910e-01 -1.240613460540771484e+00 -1.253694947808980942e-02 -3.759451210498809814e-01 5.380804538726806641e-01
3.039000000000000000e+03 3.443714904785156250e+01 -1.384058284759521484e+01 -6.106196641921997070e-01 -6.516516953706741333e-02 -2.027354389429092407e-01 -4.013776481151580811e-01
3.040000000000000000e+03 3.476608276367187500e+01 -1.291544818878173828e+01 -6.913422942161560059e-01 -5.372853204607963562e-02 -2.235212475061416626e-01 -3.724162280559539795e-01
3.041000000000000000e+03 4.266743469238281250e+01 2.836408913135528564e-01 -1.064028859138488770e+00 -6.801326759159564972e-03 -3.212490379810333252e-01 5.450013279914855957e-01
3.042000000000000000e+03 4.498532867431640625e+01 -3.318615853786468506e-01 -1.254180908203125000e+00 -8.277204819023609161e-03 -3.787374198436737061e-01 5.126740336418151855e-01
3.043000000000000000e+03 4.637674713134765625e+01 5.101648569107055664e-01 -1.187385439872741699e+00 -9.855392388999462128e-03 -3.591722548007965088e-01 5.441954731941223145e-01
3.044000000000000000e+03 5.170896530151367188e+01 5.267181992530822754e-01 -1.320857167243957520e+00 2.650127513334155083e-03 -3.954621255397796631e-01 5.041613578796386719e-01
3.045000000000000000e+03 4.862012863159179688e+01 1.258076429367065430e+00 -1.122370004653930664e+00 -6.620604544878005981e-03 -3.386971950531005859e-01 5.537872910499572754e-01
3.046000000000000000e+03 3.270391845703125000e+01 -1.336189365386962891e+01 -5.911726355552673340e-01 -5.471107363700866699e-02 -1.937651187181472778e-01 -3.677855134010314941e-01
3.047000000000000000e+03 3.370280838012695312e+01 -1.403497982025146484e+01 -5.787675380706787109e-01 -6.579497456550598145e-02 -1.933687478303909302e-01 -4.010120332241058350e-01
3.048000000000000000e+03 5.021239471435546875e+01 4.868572950363159180e-01 -1.300157785415649414e+00 -2.905558561906218529e-03 -3.909189999103546143e-01 5.218352079391479492e-01
3.049000000000000000e+03 4.121760177612304688e+01 2.425436824560165405e-01 -1.003032922744750977e+00 -8.255730383098125458e-03 -3.033865988254547119e-01 5.387288928031921387e-01
3.050000000000000000e+03 4.128491592407226562e+01 -4.962230324745178223e-01 -1.079782485961914062e+00 -6.844105198979377747e-03 -3.259879648685455322e-01 5.031993985176086426e-01
3.051000000000000000e+03 4.724178695678710938e+01 -2.871927320957183838e-01 -1.349203586578369141e+00 -1.359516941010951996e-02 -4.088396430015563965e-01 5.116062760353088379e-01
3.052000000000000000e+03 4.397967147827148438e+01 1.213363766670227051e+00 -1.003784298896789551e+00 -2.702210098505020142e-03 -3.019459545612335205e-01 5.806331634521484375e-01
3.053000000000000000e+03 4.486192703247070312e+01 4.634257555007934570e-01 -1.136197566986083984e+00 -8.319449611008167267e-03 -3.433550894260406494e-01 5.484721660614013672e-01
3.054000000000000000e+03 6.172691345214843750e+01 -1.412494182586669922e+01 -6.081175208091735840e-01 4.242617785930633545e-01 -5.515671893954277039e-02 1.495580840855836868e-02
3.055000000000000000e+03 6.248657608032226562e+01 -1.318487739562988281e+01 -8.484026789665222168e-01 3.862796723842620850e-01 -1.386369019746780396e-01 2.336714789271354675e-02
3.056000000000000000e+03 6.329772567749023438e+01 -1.304752826690673828e+01 -8.042975068092346191e-01 4.483437538146972656e-01 -1.067861244082450867e-01 1.318350881338119507e-01
3.057000000000000000e+03 6.411492919921875000e+01 -1.226704216003417969e+01 -1.004240393638610840e+00 4.344021677970886230e-01 -1.709514707326889038e-01 1.594087630510330200e-01
3.058000000000000000e+03 3.293864059448242188e+01 -1.408127593994140625e+01 -5.518773794174194336e-01 -6.316344439983367920e-02 -1.845122575759887695e-01 -3.967497050762176514e-01
3.059000000000000000e+03 3.223913192749023438e+01 -1.384748172760009766e+01 -5.462688803672790527e-01 -5.894599109888076782e-02 -1.815644651651382446e-01 -3.790942430496215820e-01
3.060000000000000000e+03 7.513219451904296875e+01 -2.278624773025512695e+00 -2.178387165069580078e+00 1.253616046905517578e+01 3.107331991195678711e+00 -1.019937515258789062e+00
3.061000000000000000e+03 3.207116699218750000e+01 -1.464921379089355469e+01 -4.882628321647644043e-01 -6.941327452659606934e-02 -1.673028320074081421e-01 -3.979094326496124268e-01
3.062000000000000000e+03 2.846210861206054688e+01 -1.367978763580322266e+01 -4.507638216018676758e-01 -4.415511712431907654e-02 -1.484756767749786377e-01 -3.320768475532531738e-01
3.063000000000000000e+03 3.001615333557128906e+01 -1.470584678649902344e+01 -4.371195435523986816e-01 -6.247423961758613586e-02 -1.498781293630599976e-01 -3.732345104217529297e-01
3.064000000000000000e+03 6.619956207275390625e+01 -5.314332246780395508e-01 -7.524725794792175293e-01 8.638942241668701172e-01 3.342648968100547791e-02 -6.830835342407226562e-01
3.065000000000000000e+03 6.614484405517578125e+01 2.379538118839263916e-01 -4.946206212043762207e-01 1.068853259086608887e+00 1.722697764635086060e-01 -7.943305969238281250e-01
3.066000000000000000e+03 6.409585571289062500e+01 -1.294883823394775391e+01 -7.390484809875488281e-01 5.507305860519409180e-01 -5.649535357952117920e-02 2.480741292238235474e-01
3.067000000000000000e+03 7.559180450439453125e+01 -1.123242282867431641e+01 -1.874811291694641113e+00 1.174144268035888672e+01 2.959989547729492188e+00 4.622710645198822021e-01
3.068000000000000000e+03 6.488479614257812500e+01 -1.286890316009521484e+01 -6.576150655746459961e-01 6.955766677856445312e-01 1.138846948742866516e-02 3.985260128974914551e-01
3.069000000000000000e+03 2.983285140991210938e+01 -1.339052391052246094e+01 -4.930332303047180176e-01 -4.800042137503623962e-02 -1.623100936412811279e-01 -3.386298716068267822e-01
3.070000000000000000e+03 2.698765373229980469e+01 -1.450916957855224609e+01 -3.823106884956359863e-01 -4.860281571745872498e-02 -1.292740404605865479e-01 -3.349277675151824951e-01
3.071000000000000000e+03 6.682592773437500000e+01 2.063614130020141602e-01 -4.002358913421630859e-01 1.307477474212646484e+00 2.721724808216094971e-01 -9.999614357948303223e-01
3.072000000000000000e+03 6.565606689453125000e+01 -1.278228664398193359e+01 -5.809503793716430664e-01 8.563715815544128418e-01 8.262637257575988770e-02 5.694251656532287598e-01
3.073000000000000000e+03 2.293321228027343750e+01 -3.763789534568786621e-01 -1.352590471506118774e-01 -1.794805973768234253e-01 -9.442189335823059082e-02 2.409644126892089844e-01
3.074000000000000000e+03 2.774658584594726562e+01 -1.411640644073486328e+01 -4.133974313735961914e-01 -4.655395820736885071e-02 -1.379854232072830200e-01 -3.355812728404998779e-01
3.075000000000000000e+03 2.569718170166015625e+01 -1.380139160156250000e+01 -3.746657371520996094e-01 -3.616376593708992004e-02 -1.232488527894020081e-01 -3.073618710041046143e-01
3.076000000000000000e+03 6.719866943359375000e+01 -1.311378288269042969e+01 -2.537175118923187256e-01 1.526492595672607422e+00 3.818325102329254150e-01 1.093820095062255859e+00
3.077000000000000000e+03 2.288523292541503906e+01 -1.345590686798095703e+01 -3.239745497703552246e-01 -2.934463694691658020e-02 -1.059957519173622131e-01 -2.657668292522430420e-01
3.078000000000000000e+03 2.233440399169921875e+01 -1.442361068725585938e+01 -3.040305078029632568e-01 -4.217773675918579102e-02 -1.038624718785285950e-01 -2.742975354194641113e-01
3.079000000000000000e+03 7.363962554931640625e+01 1.926003456115722656e+00 -6.554364562034606934e-01 7.503154754638671875e+00 2.054315567016601562e+00 -1.773114681243896484e+00
3.080000000000000000e+03 7.443814849853515625e+01 2.634279489517211914e+00 -5.606520771980285645e-01 7.949728488922119141e+00 2.216722965240478516e+00 -1.436951637268066406e+00
3.081000000000000000e+03 2.521171379089355469e+01 -1.306881713867187500e+01 -3.836908638477325439e-01 -2.476354129612445831e-02 -1.225363165140151978e-01 -2.864584624767303467e-01
3.082000000000000000e+03 7.417302703857421875e+01 -1.627597427368164062e+01 -3.152342438697814941e-01 7.574129581451416016e+00 2.177668571472167969e+00 1.411696910858154297e+00
3.083000000000000000e+03 2.442132186889648438e+01 -1.474159145355224609e+01 -3.287883400917053223e-01 -4.504130780696868896e-02 -1.121488958597183228e-01 -3.071053326129913330e-01
3.084000000000000000e+03 7.407089233398437500e+00 5.921665191650390625e+00 5.539790145121514797e-04 -7.081222720444202423e-04 -4.624298526323400438e-05 -6.977875273150857538e-06
3.085000000000000000e+03 8.982420921325683594e+00 6.832105636596679688e+00 -3.424932365305721760e-04 1.420920714735984802e-03 3.235282492823898792e-04 4.421760386321693659e-04
3.086000000000000000e+03 2.165616989135742188e+01 -1.557033634185791016e+01 -2.772678434848785400e-01 -6.465259939432144165e-02 -1.025761365890502930e-01 -2.778628468513488770e-01
3.087000000000000000e+03 7.026039123535156250e+01 -1.084008693695068359e+00 -3.198373615741729736e-01 3.232620716094970703e+00 8.738349676132202148e-01 -2.289753913879394531e+00
3.088000000000000000e+03 6.945021820068359375e+01 -3.772745132446289062e-01 -2.540418505668640137e-01 2.689635038375854492e+00 7.306779026985168457e-01 -1.915516972541809082e+00
3.089000000000000000e+03 6.021597671508789062e+01 5.487242341041564941e-01 -1.116281509399414062e+00 1.980085968971252441e-01 -2.754818499088287354e-01 1.642602980136871338e-01
3.090000000000000000e+03 2.074451828002929688e+01 -1.582226467132568359e+01 -2.678335905075073242e-01 -7.332560420036315918e-02 -1.023477539420127869e-01 -2.665258049964904785e-01
3.091000000000000000e+03 5.320959854125976562e+01 5.505079627037048340e-01 -1.329306960105895996e+00 1.638831757009029388e-02 -3.938755691051483154e-01 4.801760315895080566e-01
3.092000000000000000e+03 2.615679168701171875e+01 4.439334392547607422e+00 -3.323301076889038086e-01 -2.362841665744781494e-01 -1.705842912197113037e-01 5.454449653625488281e-01
3.093000000000000000e+03 7.235410308837890625e+01 8.046058654785156250e+00 2.147827595472335815e-01 5.691785812377929688e+00 1.771970629692077637e+00 -1.457773804664611816e+00
3.094000000000000000e+03 7.296052551269531250e+01 5.627799034118652344e+00 -4.551031161099672318e-03 6.231608390808105469e+00 1.868117213249206543e+00 -1.561669826507568359e+00
3.095000000000000000e+03 7.345212554931640625e+01 3.583693742752075195e+00 -3.084597885608673096e-01 6.921903133392333984e+00 1.984032988548278809e+00 -1.641545414924621582e+00
3.096000000000000000e+03 7.361914825439453125e+01 1.235924720764160156e+00 -8.270815014839172363e-01 7.734323978424072266e+00 2.072172880172729492e+00 -1.883278131484985352e+00
3.097000000000000000e+03 4.715725708007812500e+01 4.969815313816070557e-01 -1.212751507759094238e+00 -9.937162511050701141e-03 -3.668065965175628662e-01 5.404091477394104004e-01
3.098000000000000000e+03 7.418508911132812500e+01 4.336206316947937012e-01 -1.149813771247863770e+00 8.750843048095703125e+00 2.280308961868286133e+00 -1.730267047882080078e+00
3.099000000000000000e+03 7.456444549560546875e+01 -4.306906759738922119e-01 -1.497145056724548340e+00 9.776897430419921875e+00 2.483925580978393555e+00 -1.567059159278869629e+00
3.100000000000000000e+03 7.453247070312500000e+01 -1.299653434753417969e+01 -1.278495192527770996e+00 9.231418609619140625e+00 2.385877132415771484e+00 1.543782949447631836e+00
3.101000000000000000e+03 2.192208290100097656e+01 -1.655856323242187500e+01 -2.609173655509948730e-01 -7.611433416604995728e-02 -1.011095121502876282e-01 -2.932779490947723389e-01
3.102000000000000000e+03 6.098628616333007812e+01 -2.519395053386688232e-01 -1.335376739501953125e+00 1.703977584838867188e-01 -3.494936823844909668e-01 1.637505888938903809e-01
3.103000000000000000e+03 6.470554351806640625e+00 8.037670135498046875e+00 5.206423811614513397e-04 9.157318709185346961e-05 1.836646697483956814e-04 -2.294644800713285804e-04
3.104000000000000000e+03 2.418259429931640625e+01 1.946169018745422363e+00 -2.234251946210861206e-01 -2.359097599983215332e-01 -1.378004848957061768e-01 3.931562304496765137e-01
3.105000000000000000e+03 2.438963317871093750e+01 6.869450211524963379e-01 -2.183776646852493286e-01 -1.868642717599868774e-01 -1.215725839138031006e-01 3.457300066947937012e-01
3.106000000000000000e+03 7.056196594238281250e+01 -2.281174087524414062e+01 4.244609773159027100e-01 4.765278339385986328e+00 1.556921839714050293e+00 1.249246358871459961e+00
3.107000000000000000e+03 7.251000213623046875e+01 -2.025090217590332031e+01 2.097602486610412598e-01 5.862245082855224609e+00 1.821601510047912598e+00 1.380373477935791016e+00
3.108000000000000000e+03 2.509085655212402344e+01 9.926131248474121094e+00 -3.861333131790161133e-01 -3.695109486579895020e-01 -2.266932874917984009e-01 5.909503698348999023e-01
3.109000000000000000e+03 2.585215759277343750e+01 3.170320987701416016e+00 -3.006965816020965576e-01 -2.271767556667327881e-01 -1.583620011806488037e-01 4.930301308631896973e-01
3.110000000000000000e+03 6.922683715820312500e+01 -2.311680412292480469e+01 5.133569836616516113e-01 4.181047916412353516e+00 1.408321499824523926e+00 1.203754186630249023e+00
3.111000000000000000e+03 6.961275482177734375e+01 1.905426406860351562e+01 3.892668783664703369e-01 4.335150718688964844e+00 1.417325258255004883e+00 -9.007003307342529297e-01
3.112000000000000000e+03 7.140554809570312500e+01 1.496461296081542969e+01 3.385711014270782471e-01 4.976427555084228516e+00 1.594499588012695312e+00 -1.080596804618835449e+00
3.113000000000000000e+03 7.073804473876953125e+01 1.058871173858642578e+01 3.778156638145446777e-01 4.790233612060546875e+00 1.550414800643920898e+00 -1.343907117843627930e+00
3.114000000000000000e+03 9.716235160827636719e+00 2.565058708190917969e+01 -9.652057662606239319e-03 -5.111464858055114746e-01 -1.562395691871643066e-01 3.750717937946319580e-01
3.115000000000000000e+03 7.388202667236328125e+01 -1.713300895690917969e+01 -1.990485489368438721e-01 7.094565868377685547e+00 2.068655252456665039e+00 1.467049717903137207e+00
3.116000000000000000e+03 6.983657836914062500e+01 -1.835327720642089844e+01 2.957175672054290771e-01 4.228652954101562500e+00 1.357311129570007324e+00 1.573529958724975586e+00
3.117000000000000000e+03 7.290235900878906250e+01 1.372524547576904297e+01 2.630860507488250732e-01 5.593314170837402344e+00 1.756920099258422852e+00 -1.083120107650756836e+00
3.118000000000000000e+03 7.046808624267578125e+01 1.198672771453857422e+01 4.038162231445312500e-01 4.665328502655029297e+00 1.520743370056152344e+00 -1.265352964401245117e+00
3.119000000000000000e+03 7.015190887451171875e+01 -2.153516006469726562e+01 4.411002993583679199e-01 4.541890621185302734e+00 1.494897246360778809e+00 1.316642284393310547e+00
3.120000000000000000e+03 7.324012756347656250e+01 4.558350086212158203e+00 -1.456124484539031982e-01 6.574813842773437500e+00 1.928760409355163574e+00 -1.600672245025634766e+00
3.121000000000000000e+03 7.462998867034912109e+00 -2.480858802795410156e+01 -1.790556870400905609e-02 -1.882680654525756836e-01 -6.185209006071090698e-02 -1.617001146078109741e-01
3.122000000000000000e+03 7.000290679931640625e+01 1.479060459136962891e+01 4.193439483642578125e-01 4.484591960906982422e+00 1.471180677413940430e+00 -1.125756502151489258e+00
3.123000000000000000e+03 1.370478343963623047e+01 2.463115692138671875e+01 1.856716535985469818e-02 -7.235684990882873535e-01 -2.115004062652587891e-01 3.942120373249053955e-01
3.124000000000000000e+03 1.772153282165527344e+01 3.226124954223632812e+01 3.041678071022033691e-01 -6.348313093185424805e-01 -9.919904917478561401e-02 2.114214152097702026e-01
3.125000000000000000e+03 9.332018852233886719e+00 2.972158813476562500e+01 8.296231925487518311e-02 -5.448933839797973633e-01 -1.385793089866638184e-01 3.002375364303588867e-01
3.126000000000000000e+03 6.838721466064453125e+01 -3.182289314270019531e+01 5.507572889328002930e-01 4.166572570800781250e+00 1.415198922157287598e+00 6.705219745635986328e-01
3.127000000000000000e+03 6.997525024414062500e+01 -3.058875274658203125e+01 4.810306727886199951e-01 4.579735755920410156e+00 1.518229842185974121e+00 7.701627016067504883e-01
3.128000000000000000e+03 7.107080078125000000e+01 2.166018104553222656e+01 2.864287495613098145e-01 4.683990478515625000e+00 1.491125702857971191e+00 -7.452815175056457520e-01
3.129000000000000000e+03 6.845666503906250000e+01 1.984417915344238281e+01 4.311414062976837158e-01 4.061278820037841797e+00 1.347726106643676758e+00 -8.719080090522766113e-01
3.130000000000000000e+03 7.213950347900390625e+01 9.402403831481933594e+00 2.713009417057037354e-01 5.481403827667236328e+00 1.725811362266540527e+00 -1.386708498001098633e+00
3.131000000000000000e+03 7.150080108642578125e+01 6.490810871124267578e+00 1.853187233209609985e-01 5.220808982849121094e+00 1.621838331222534180e+00 -1.596819400787353516e+00
3.132000000000000000e+03 7.030294799804687500e+01 2.626578521728515625e+01 2.538145780563354492e-01 4.403724670410156250e+00 1.397261857986450195e+00 -5.528147220611572266e-01
3.133000000000000000e+03 7.060900878906250000e+01 2.458363914489746094e+01 2.659245729446411133e-01 4.493855476379394531e+00 1.427934050559997559e+00 -6.156247854232788086e-01
3.134000000000000000e+03 2.438456344604492188e+01 1.633129882812500000e+01 -2.834283411502838135e-01 -4.523254036903381348e-01 -2.207261174917221069e-01 4.376324415206909180e-01
3.135000000000000000e+03 2.094974708557128906e+01 2.026336860656738281e+01 -1.507687717676162720e-01 -6.648862361907958984e-01 -2.446965128183364868e-01 3.283562064170837402e-01
3.136000000000000000e+03 1.917465019226074219e+01 2.316536521911621094e+01 1.714395731687545776e-02 -7.159332633018493652e-01 -2.096367925405502319e-01 2.996374070644378662e-01
3.137000000000000000e+03 2.358508491516113281e+01 -1.514421176910400391e+01 -3.085053563117980957e-01 -5.042697489261627197e-02 -1.076797023415565491e-01 -3.018974363803863525e-01
3.138000000000000000e+03 1.017060279846191406e+01 -2.256988906860351562e+01 -5.310131609439849854e-02 -2.252947092056274414e-01 -8.351880311965942383e-02 -1.946325302124023438e-01
3.139000000000000000e+03 8.234019279479980469e+00 -2.216187095642089844e+01 -6.932816654443740845e-02 -1.729920208454132080e-01 -7.269605994224548340e-02 -1.826877146959304810e-01
3.140000000000000000e+03 6.978992462158203125e+01 1.618378829956054688e+01 4.121645987033843994e-01 4.385179042816162109e+00 1.439203143119812012e+00 -1.045446991920471191e+00
3.141000000000000000e+03 6.957775878906250000e+01 1.035013389587402344e+01 4.372161626815795898e-01 4.283179759979248047e+00 1.416118860244750977e+00 -1.348631381988525391e+00
3.142000000000000000e+03 6.867625427246093750e+01 -2.764033699035644531e+01 5.682289004325866699e-01 4.150990962982177734e+00 1.415766000747680664e+00 8.956899046897888184e-01
3.143000000000000000e+03 1.727802085876464844e+01 2.253326225280761719e+01 -5.305493623018264771e-02 -7.840902209281921387e-01 -2.511435449123382568e-01 3.397996723651885986e-01
3.144000000000000000e+03 1.547061729431152344e+01 2.542107391357421875e+01 9.444598853588104248e-02 -7.343556880950927734e-01 -1.919729113578796387e-01 3.392557501792907715e-01
3.145000000000000000e+03 2.399327659606933594e+01 9.759625434875488281e+00 -3.905953466892242432e-01 -4.375886619091033936e-01 -2.484552115201950073e-01 5.832574367523193359e-01
3.146000000000000000e+03 2.429172515869140625e+01 1.367605781555175781e+01 -3.677092492580413818e-01 -4.316613376140594482e-01 -2.398111820220947266e-01 5.131855607032775879e-01
3.147000000000000000e+03 1.084278297424316406e+01 2.644329643249511719e+01 3.469822928309440613e-02 -5.797379612922668457e-01 -1.635119169950485229e-01 3.719292283058166504e-01
3.148000000000000000e+03 2.201811027526855469e+01 -1.955542182922363281e+01 -1.748456954956054688e-01 -1.280424296855926514e-01 -9.086643904447555542e-02 -3.043939769268035889e-01
3.149000000000000000e+03 2.229467964172363281e+01 -1.839054107666015625e+01 -2.073188573122024536e-01 -1.093314290046691895e-01 -9.499508887529373169e-02 -3.042758107185363770e-01
3.150000000000000000e+03 9.137728691101074219e+00 -2.256538581848144531e+01 -5.999731644988059998e-02 -2.001692801713943481e-01 -7.804998010396957397e-02 -1.826401352882385254e-01
3.151000000000000000e+03 6.861941528320312500e+01 2.594599342346191406e+01 3.334126472473144531e-01 4.037862777709960938e+00 1.311382651329040527e+00 -5.954279899597167969e-01
3.152000000000000000e+03 7.090739440917968750e+01 2.305953598022460938e+01 2.717317938804626465e-01 4.591503143310546875e+00 1.458970546722412109e+00 -6.831638216972351074e-01
3.153000000000000000e+03 6.927298736572265625e+01 -2.916124343872070312e+01 5.197092890739440918e-01 4.371968746185302734e+00 1.467503428459167480e+00 8.260169029235839844e-01
3.154000000000000000e+03 7.019554901123046875e+01 -2.699537086486816406e+01 4.745961427688598633e-01 4.694333553314208984e+00 1.550678849220275879e+00 9.787822961807250977e-01
3.155000000000000000e+03 7.446167755126953125e+01 -2.466675519943237305e+00 -2.158221721649169922e+00 1.208466815948486328e+01 2.977933883666992188e+00 -2.220654726028442383e+00
3.156000000000000000e+03 7.283773040771484375e+01 -9.644484519958496094e+00 -7.814414501190185547e-01 7.772333145141601562e+00 2.097267389297485352e+00 4.260284900665283203e+00
3.157000000000000000e+03 7.129924011230468750e+01 -1.077443504333496094e+01 -3.735836744308471680e-01 4.129529476165771484e+00 1.126783728599548340e+00 2.961016654968261719e+00
3.158000000000000000e+03 7.422342681884765625e+01 -9.954614639282226562e+00 -2.087745904922485352e+00 1.230176353454589844e+01 3.064205408096313477e+00 2.789289236068725586e+00
3.159000000000000000e+03 7.337858581542968750e+01 -9.306854248046875000e+00 -1.185040831565856934e+00 1.020872592926025391e+01 2.707105636596679688e+00 4.563313484191894531e+00
3.160000000000000000e+03 7.242349243164062500e+01 -9.580647468566894531e+00 -4.343192279338836670e-01 6.199231624603271484e+00 1.729473829269409180e+00 4.105688571929931641e+00
3.161000000000000000e+03 7.456214141845703125e+01 -3.235296249389648438e+00 -2.266525268554687500e+00 1.383258724212646484e+01 3.469818592071533203e+00 -2.214405536651611328e+00
3.162000000000000000e+03 7.404824066162109375e+01 -2.162924289703369141e+00 -1.890299320220947266e+00 1.084408473968505859e+01 2.686135768890380859e+00 -2.717655181884765625e+00
3.163000000000000000e+03 7.206463623046875000e+01 -9.404841423034667969e+00 -2.369921803474426270e-01 4.933566093444824219e+00 1.408972144126892090e+00 3.833902359008789062e+00
3.164000000000000000e+03 7.188634490966796875e+01 -1.011931324005126953e+01 -4.578663706779479980e-01 5.022282123565673828e+00 1.369324803352355957e+00 3.460208654403686523e+00
3.165000000000000000e+03 7.423143768310546875e+01 -1.187799739837646484e+01 -1.583214521408081055e+00 9.668918609619140625e+00 2.425711154937744141e+00 2.028779268264770508e+00
3.166000000000000000e+03 3.745516967773437500e+01 5.764654278755187988e-01 -8.037669658660888672e-01 -1.232720259577035904e-02 -2.448282539844512939e-01 5.431458950042724609e-01
3.167000000000000000e+03 4.049658203125000000e+01 2.353600412607192993e-01 -9.702354073524475098e-01 -8.023116737604141235e-03 -2.934775650501251221e-01 5.376868844032287598e-01
3.168000000000000000e+03 6.999001312255859375e+01 -1.205383682250976562e+01 -2.621617317199707031e-01 3.096071720123291016e+00 8.501729369163513184e-01 2.142030715942382812e+00
3.169000000000000000e+03 7.059579467773437500e+01 -1.137457752227783203e+01 -3.154112100601196289e-01 3.531055212020874023e+00 9.646931886672973633e-01 2.502068758010864258e+00
3.170000000000000000e+03 6.936193084716796875e+01 -1.247572231292724609e+01 -2.188293188810348511e-01 2.677394866943359375e+00 7.375696897506713867e-01 1.847661375999450684e+00
3.171000000000000000e+03 6.097667312622070312e+01 5.002043843269348145e-01 -1.069882035255432129e+00 2.374148815870285034e-01 -2.497401684522628784e-01 9.286339581012725830e-02
3.172000000000000000e+03 6.022189331054687500e+01 1.356202006340026855e+00 -8.497712016105651855e-01 2.756944298744201660e-01 -1.722230315208435059e-01 1.024354398250579834e-01
3.173000000000000000e+03 2.736014366149902344e+01 9.607225060462951660e-01 -3.554198443889617920e-01 -1.260074526071548462e-01 -1.444281935691833496e-01 4.413395822048187256e-01
3.174000000000000000e+03 2.729135131835937500e+01 2.998489439487457275e-01 -3.531453907489776611e-01 -1.106774955987930298e-01 -1.391468644142150879e-01 4.109156727790832520e-01
3.175000000000000000e+03 2.936342811584472656e+01 9.133236408233642578e-01 -4.430951476097106934e-01 -8.624126017093658447e-02 -1.588009148836135864e-01 4.787711203098297119e-01
3.176000000000000000e+03 3.102750778198242188e+01 1.512805938720703125e+00 -5.051444768905639648e-01 -6.865672022104263306e-02 -1.721403598785400391e-01 5.310638546943664551e-01
3.177000000000000000e+03 4.327332687377929688e+01 1.085813045501708984e+00 -9.907413125038146973e-01 -4.772941581904888153e-03 -2.986542582511901855e-01 5.757835507392883301e-01
3.178000000000000000e+03 6.988424682617187500e+01 -1.432601809501647949e+00 -3.878763914108276367e-01 2.620095252990722656e+00 6.696656346321105957e-01 -2.052321910858154297e+00
3.179000000000000000e+03 7.278797149658203125e+01 2.687197685241699219e+00 -3.851958215236663818e-01 6.542256832122802734e+00 1.847118258476257324e+00 -1.874709725379943848e+00
3.180000000000000000e+03 3.081500244140625000e+01 7.963792681694030762e-01 -5.047308802604675293e-01 -6.381747871637344360e-02 -1.705645024776458740e-01 4.962152540683746338e-01
3.181000000000000000e+03 7.379364776611328125e+01 -1.596019840240478516e+01 -3.593486547470092773e-01 7.276356220245361328e+00 2.075102329254150391e+00 1.529291749000549316e+00
3.182000000000000000e+03 7.317766571044921875e+01 -1.389571666717529297e+01 -7.675508856773376465e-01 7.293720722198486328e+00 1.957850933074951172e+00 2.031208992004394531e+00
3.183000000000000000e+03 7.469244384765625000e+01 -2.033239126205444336e+00 -2.120883703231811523e+00 1.182358551025390625e+01 2.910810708999633789e+00 -1.709009051322937012e+00
3.184000000000000000e+03 5.473093414306640625e+01 5.635279417037963867e-01 -1.318688631057739258e+00 3.486553952097892761e-02 -3.851469159126281738e-01 4.425618350505828857e-01
3.185000000000000000e+03 5.390173339843750000e+01 1.359416007995605469e+00 -1.127653717994689941e+00 4.679632186889648438e-02 -3.242572247982025146e-01 4.580065608024597168e-01
3.186000000000000000e+03 4.370890808105468750e+01 -1.505132579803466797e+01 -7.368859052658081055e-01 -6.732638180255889893e-02 -2.412636727094650269e-01 -5.356281399726867676e-01
3.187000000000000000e+03 4.512675094604492188e+01 -1.430305290222167969e+01 -8.725543022155761719e-01 -5.627717822790145874e-02 -2.786494493484497070e-01 -5.230367779731750488e-01
3.188000000000000000e+03 4.666770553588867188e+01 -1.340766716003417969e+01 -1.051349520683288574e+00 -4.968694224953651428e-02 -3.303109407424926758e-01 -5.104249715805053711e-01
3.189000000000000000e+03 4.162960815429687500e+01 -1.381250476837158203e+01 -8.416687250137329102e-01 -6.026327610015869141e-02 -2.705796062946319580e-01 -4.818801879882812500e-01
3.190000000000000000e+03 4.213668441772460938e+01 -1.411922454833984375e+01 -8.295452594757080078e-01 -6.530951708555221558e-02 -2.684564292430877686e-01 -4.996884167194366455e-01
3.191000000000000000e+03 4.853317642211914062e+01 -1.426292896270751953e+01 -9.488659501075744629e-01 -4.448663070797920227e-02 -2.980057597160339355e-01 -5.356568694114685059e-01
3.192000000000000000e+03 4.920509719848632812e+01 -1.392248153686523438e+01 -1.010172247886657715e+00 -4.188846796751022339e-02 -3.156182169914245605e-01 -5.279721021652221680e-01
3.193000000000000000e+03 5.114737701416015625e+01 -1.338007259368896484e+01 -1.153703570365905762e+00 -2.355647459626197815e-02 -3.531779944896697998e-01 -5.233640670776367188e-01
3.194000000000000000e+03 3.374505996704101562e+01 5.105061531066894531e-01 -6.413743495941162109e-01 -2.817757800221443176e-02 -2.008655816316604614e-01 5.151241421699523926e-01
3.195000000000000000e+03 4.720433807373046875e+01 -1.367564964294433594e+01 -1.022466182708740234e+00 -4.838931560516357422e-02 -3.212566375732421875e-01 -5.250949859619140625e-01
3.196000000000000000e+03 4.837482452392578125e+01 -1.358258533477783203e+01 -1.056647658348083496e+00 -4.593728855252265930e-02 -3.307754993438720703e-01 -5.153989195823669434e-01
3.197000000000000000e+03 4.454771423339843750e+01 -1.483889102935791016e+01 -7.810960412025451660e-01 -6.422113627195358276e-02 -2.535951733589172363e-01 -5.316722989082336426e-01
3.198000000000000000e+03 5.180287551879882812e+01 -1.424476432800292969e+01 -9.761001467704772949e-01 -4.789955448359251022e-03 -2.942670285701751709e-01 -5.237122774124145508e-01
3.199000000000000000e+03 3.706806182861328125e+01 3.667042404413223267e-02 -8.184145092964172363e-01 -8.848136290907859802e-03 -2.481787949800491333e-01 5.173677206039428711e-01
3.200000000000000000e+03 3.460860443115234375e+01 1.247028350830078125e+00 -6.530727148056030273e-01 -2.706794813275337219e-02 -2.040421962738037109e-01 5.514882802963256836e-01
3.201000000000000000e+03 4.775214004516601562e+01 -1.377312469482421875e+01 -1.015513062477111816e+00 -4.689158871769905090e-02 -3.187213838100433350e-01 -5.271533727645874023e-01
3.202000000000000000e+03 5.341949844360351562e+01 -1.412117576599121094e+01 -1.004378437995910645e+00 1.627502217888832092e-02 -2.964310348033905029e-01 -4.965978562831878662e-01
3.203000000000000000e+03 7.453157806396484375e+01 -1.019769001007080078e+01 -2.188594341278076172e+00 1.240641117095947266e+01 3.065345287322998047e+00 2.122238874435424805e+00
3.204000000000000000e+03 7.335729980468750000e+01 -1.128533840179443359e+01 -1.345077872276306152e+00 8.672377586364746094e+00 2.198189735412597656e+00 2.866474866867065430e+00
3.205000000000000000e+03 3.769185638427734375e+01 -1.939789205789566040e-02 -8.603263497352600098e-01 -8.263478986918926239e-03 -2.605769336223602295e-01 5.162307024002075195e-01
3.206000000000000000e+03 5.972938919067382812e+01 -1.330216217041015625e+01 -1.047778964042663574e+00 1.750072389841079712e-01 -2.618315219879150391e-01 -2.617748379707336426e-01
3.207000000000000000e+03 3.763730621337890625e+01 -1.423728370666503906e+01 -6.708412766456604004e-01 -6.977909058332443237e-02 -2.221861183643341064e-01 -4.522228538990020752e-01
3.208000000000000000e+03 3.723437881469726562e+01 -1.511532783508300781e+01 -5.815774202346801758e-01 -7.780468463897705078e-02 -1.978146284818649292e-01 -4.698697030544281006e-01
3.209000000000000000e+03 5.848598861694335938e+01 -1.443264102935791016e+01 -7.633844017982482910e-01 1.967988461256027222e-01 -1.699756681919097900e-01 -2.752699851989746094e-01
3.210000000000000000e+03 7.508721160888671875e+01 -1.032032775878906250e+01 -2.190984249114990234e+00 1.280243873596191406e+01 3.183436393737792969e+00 9.285457134246826172e-01
3.211000000000000000e+03 5.528356552124023438e+01 -1.359431457519531250e+01 -1.104704499244689941e+00 2.780916169285774231e-02 -3.230686187744140625e-01 -4.647320806980133057e-01
3.212000000000000000e+03 5.420469284057617188e+01 -1.432955646514892578e+01 -9.478957056999206543e-01 2.657357975840568542e-02 -2.763966321945190430e-01 -4.799472391605377197e-01
3.213000000000000000e+03 3.504053878784179688e+01 -1.349675178527832031e+01 -6.506369709968566895e-01 -6.058902293443679810e-02 -2.133678048849105835e-01 -4.013577401638031006e-01
3.214000000000000000e+03 3.559999847412109375e+01 -1.406644058227539062e+01 -6.249922513961791992e-01 -6.910729408264160156e-02 -2.082298696041107178e-01 -4.249415993690490723e-01
3.215000000000000000e+03 3.835205459594726562e+01 9.475158900022506714e-02 -8.831468820571899414e-01 -7.979828864336013794e-03 -2.673380076885223389e-01 5.222636461257934570e-01
3.216000000000000000e+03 3.548314666748046875e+01 2.195192098617553711e+00 -6.429142951965332031e-01 -2.855835668742656708e-02 -2.014417946338653564e-01 5.951946973800659180e-01
3.217000000000000000e+03 5.858864974975585938e+01 2.287544488906860352e+00 -7.066217660903930664e-01 2.429995536804199219e-01 -1.390866488218307495e-01 1.758681237697601318e-01
3.218000000000000000e+03 5.883417510986328125e+01 -1.374555015563964844e+01 -9.359557032585144043e-01 1.562119573354721069e-01 -2.339231222867965698e-01 -2.922563254833221436e-01
3.219000000000000000e+03 5.782192230224609375e+01 1.422576427459716797e+00 -9.872591495513916016e-01 1.447602510452270508e-01 -2.527496516704559326e-01 2.838044464588165283e-01
3.220000000000000000e+03 6.082146453857421875e+01 -1.353226089477539062e+01 -8.935577869415283203e-01 2.685877978801727295e-01 -1.874909996986389160e-01 -1.450694650411605835e-01
3.221000000000000000e+03 5.544152832031250000e+01 1.366182923316955566e+00 -1.093730449676513672e+00 7.269451767206192017e-02 -3.063107728958129883e-01 4.026561081409454346e-01
3.222000000000000000e+03 6.170530319213867188e+01 1.170848488807678223e+00 -7.922925353050231934e-01 3.740825057029724121e-01 -1.254630088806152344e-01 -4.881743341684341431e-02
3.223000000000000000e+03 6.244412612915039062e+01 4.558937847614288330e-01 -9.277456998825073242e-01 3.907507956027984619e-01 -1.610984802246093750e-01 -7.128814607858657837e-02
3.224000000000000000e+03 6.187833786010742188e+01 1.812848448753356934e+00 -5.531757473945617676e-01 4.926517903804779053e-01 -1.815719157457351685e-02 -1.447854042053222656e-01
3.225000000000000000e+03 5.701870727539062500e+01 1.410889863967895508e+00 -1.030429005622863770e+00 1.179930046200752258e-01 -2.737308144569396973e-01 3.310408592224121094e-01
3.226000000000000000e+03 3.624689865112304688e+01 9.041867256164550781e-01 -7.386763691902160645e-01 -1.890229620039463043e-02 -2.272735983133316040e-01 5.481705069541931152e-01
3.227000000000000000e+03 6.305548477172851562e+01 1.341949105262756348e+00 -5.715013742446899414e-01 5.930289030075073242e-01 6.458258256316184998e-03 -2.637002468109130859e-01
3.228000000000000000e+03 3.819245910644531250e+01 -1.553327369689941406e+01 -5.624721050262451172e-01 -8.534141629934310913e-02 -1.943440586328506470e-01 -4.891636967658996582e-01
3.229000000000000000e+03 6.783793640136718750e+01 -1.233832836151123047e+01 -3.648139238357543945e-01 1.577109575271606445e+00 3.636887073516845703e-01 1.216743469238281250e+00
3.230000000000000000e+03 7.215356445312500000e+01 -1.617758750915527344e+01 -1.374751776456832886e-01 5.851158618927001953e+00 1.714105010032653809e+00 1.787730097770690918e+00
3.231000000000000000e+03 5.014456176757812500e+01 1.260430693626403809e+00 -1.144761323928833008e+00 5.554737988859415054e-03 -3.417619764804840088e-01 5.352653861045837402e-01
3.232000000000000000e+03 4.044948959350585938e+01 1.017490029335021973e+00 -8.941835165023803711e-01 -1.002713013440370560e-02 -2.712632119655609131e-01 5.695682764053344727e-01
3.233000000000000000e+03 3.818013000488281250e+01 8.568108677864074707e-01 -8.164284229278564453e-01 -1.181604806333780289e-02 -2.484733462333679199e-01 5.586343407630920410e-01
3.234000000000000000e+03 6.887696838378906250e+01 -3.767810761928558350e-01 -2.918466329574584961e-01 2.238037586212158203e+00 5.838572978973388672e-01 -1.675186038017272949e+00
3.235000000000000000e+03 6.808602142333984375e+01 2.608162760734558105e-01 -2.541443407535552979e-01 1.942064762115478516e+00 5.063761472702026367e-01 -1.435665726661682129e+00
3.236000000000000000e+03 4.413239288330078125e+01 4.018392264842987061e-01 -1.115514397621154785e+00 -5.929974839091300964e-03 -3.364333212375640869e-01 5.460693836212158203e-01
3.237000000000000000e+03 4.186716842651367188e+01 1.005594849586486816e+00 -9.554159641265869141e-01 -1.039844378829002380e-02 -2.897443175315856934e-01 5.733011960983276367e-01
3.238000000000000000e+03 5.163414764404296875e+01 1.354141354560852051e+00 -1.140343308448791504e+00 1.620607264339923859e-02 -3.372412025928497314e-01 5.144715309143066406e-01
3.239000000000000000e+03 3.396214294433593750e+01 -1.504435443878173828e+01 -5.106334090232849121e-01 -7.809285819530487061e-02 -1.766178905963897705e-01 -4.314140677452087402e-01
3.240000000000000000e+03 4.194176101684570312e+01 2.575727403163909912e-01 -1.033029437065124512e+00 -8.889565244317054749e-03 -3.125756978988647461e-01 5.419737100601196289e-01
3.241000000000000000e+03 6.540718841552734375e+01 1.089668273925781250e+00 -3.494282960891723633e-01 1.067077636718750000e+00 2.152947932481765747e-01 -7.182764410972595215e-01
3.242000000000000000e+03 5.089377212524414062e+01 1.310055255889892578e+00 -1.142427444458007812e+00 9.493915364146232605e-03 -3.398800790309906006e-01 5.253781080245971680e-01
3.243000000000000000e+03 4.310094833374023438e+01 1.805023193359375000e+00 -9.051335453987121582e-01 -5.617144983261823654e-03 -2.732251882553100586e-01 5.981318354606628418e-01
3.244000000000000000e+03 4.560594177246093750e+01 5.013381838798522949e-01 -1.160555958747863770e+00 -7.555484771728515625e-03 -3.504334390163421631e-01 5.477485656738281250e-01
3.245000000000000000e+03 6.252720642089843750e+01 -1.385126686096191406e+01 -6.173671483993530273e-01 4.763218760490417480e-01 -4.231357574462890625e-02 1.035638675093650818e-01
3.246000000000000000e+03 5.466582489013671875e+01 1.353461861610412598e+00 -1.116023898124694824e+00 5.907389894127845764e-02 -3.170849978923797607e-01 4.335248768329620361e-01
3.247000000000000000e+03 5.396708297729492188e+01 5.559682250022888184e-01 -1.326121449470520020e+00 2.557603456079959869e-02 -3.901636302471160889e-01 4.637913107872009277e-01
3.248000000000000000e+03 3.108537673950195312e+01 -1.496961498260498047e+01 -4.415035843849182129e-01 -7.030905038118362427e-02 -1.535437852144241333e-01 -3.940798938274383545e-01
3.249000000000000000e+03 3.180642127990722656e+01 -1.548919868469238281e+01 -4.317767620086669922e-01 -7.919508963823318481e-02 -1.532915532588958740e-01 -4.139538109302520752e-01
3.250000000000000000e+03 3.895261383056640625e+01 1.004898071289062500e+00 -8.400737047195434570e-01 -1.121143903583288193e-02 -2.553855478763580322e-01 5.658836364746093750e-01
3.251000000000000000e+03 6.608644104003906250e+01 1.881796002388000488e+00 -9.597506374120712280e-02 1.504366397857666016e+00 4.225173890590667725e-01 -9.745906591415405273e-01
3.252000000000000000e+03 6.330553817749023438e+01 -1.371275901794433594e+01 -5.872331857681274414e-01 5.608131289482116699e-01 -7.926004938781261444e-03 2.025352120399475098e-01
3.253000000000000000e+03 7.205216979980468750e+01 -2.858000993728637695e+00 -4.515818357467651367e-01 5.362136363983154297e+00 1.473166346549987793e+00 -3.716522216796875000e+00
3.254000000000000000e+03 7.064393615722656250e+01 -1.512913823127746582e+00 -3.602526783943176270e-01 3.466168403625488281e+00 9.317747354507446289e-01 -2.518907785415649414e+00
3.255000000000000000e+03 2.889584922790527344e+01 -1.443085670471191406e+01 -4.250327646732330322e-01 -5.520766600966453552e-02 -1.440721303224563599e-01 -3.545777797698974609e-01
3.256000000000000000e+03 3.055622100830078125e+01 -1.555013370513916016e+01 -4.039136767387390137e-01 -7.558340579271316528e-02 -1.438491344451904297e-01 -4.002776145935058594e-01
3.257000000000000000e+03 6.487018585205078125e+01 -1.359294414520263672e+01 -4.257369339466094971e-01 8.431838750839233398e-01 1.252340674400329590e-01 4.893968105316162109e-01
3.258000000000000000e+03 7.533572387695312500e+01 -1.075236892700195312e+01 -2.014698266983032227e+00 1.218323230743408203e+01 3.050560235977172852e+00 6.442424654960632324e-01
3.259000000000000000e+03 6.099418258666992188e+01 1.273752808570861816e+00 -8.183105587959289551e-01 3.255105018615722656e-01 -1.478400081396102905e-01 2.778906188905239105e-02
3.260000000000000000e+03 2.504032135009765625e+01 -1.418527984619140625e+01 -3.488054871559143066e-01 -3.868457674980163574e-02 -1.162470206618309021e-01 -3.052814006805419922e-01
3.261000000000000000e+03 6.568181610107421875e+01 -1.355186367034912109e+01 -3.338215351104736328e-01 1.077867269515991211e+00 2.232137322425842285e-01 6.857598423957824707e-01
3.262000000000000000e+03 6.713057708740234375e+01 -1.249489212036132812e+01 -4.366076290607452393e-01 1.300740480422973633e+00 2.592398524284362793e-01 9.709600210189819336e-01
3.263000000000000000e+03 6.865090179443359375e+01 -1.281115055084228516e+01 -1.995487213134765625e-01 2.272149085998535156e+00 6.217801570892333984e-01 1.579950213432312012e+00
3.264000000000000000e+03 4.785992431640625000e+01 1.289014458656311035e+00 -1.102370738983154297e+00 -7.146791554987430573e-03 -3.328552544116973877e-01 5.584096312522888184e-01
3.265000000000000000e+03 2.562726211547851562e+01 -1.730779838562011719e+01 -2.645137310028076172e-01 -8.430489897727966309e-02 -1.046455875039100647e-01 -3.568951785564422607e-01
3.266000000000000000e+03 7.372368621826171875e+01 -1.398633575439453125e+01 -8.506056666374206543e-01 7.913833141326904297e+00 2.118968248367309570e+00 1.799005746841430664e+00
3.267000000000000000e+03 7.447191619873046875e+01 -1.358379459381103516e+01 -1.067482233047485352e+00 8.819133758544921875e+00 2.325495481491088867e+00 1.506452083587646484e+00
3.268000000000000000e+03 6.640180969238281250e+01 -1.265451812744140625e+01 -5.140661001205444336e-01 1.048970818519592285e+00 1.604713946580886841e-01 7.527256608009338379e-01
3.269000000000000000e+03 6.791516113281250000e+01 -1.295394992828369141e+01 -2.200788706541061401e-01 1.836662650108337402e+00 4.849751591682434082e-01 1.302209377288818359e+00
3.270000000000000000e+03 2.566561126708984375e+01 -1.469666004180908203e+01 -3.541245460510253906e-01 -4.597524181008338928e-02 -1.200299337506294250e-01 -3.244572579860687256e-01
3.271000000000000000e+03 2.582942581176757812e+01 5.559413433074951172e+00 -3.327072858810424805e-01 -2.794360816478729248e-01 -1.836430132389068604e-01 5.656158924102783203e-01
3.272000000000000000e+03 2.261183929443359375e+01 -1.535504055023193359e+01 -2.913421988487243652e-01 -5.557689815759658813e-02 -1.040757298469543457e-01 -2.892773151397705078e-01
3.273000000000000000e+03 7.458747863769531250e+01 -1.336726784706115723e+00 -1.860458493232727051e+00 1.070685100555419922e+01 2.653917789459228516e+00 -1.716946601867675781e+00
3.274000000000000000e+03 7.343893432617187500e+01 -1.302832031250000000e+01 -1.029115676879882812e+00 7.890690803527832031e+00 2.058472394943237305e+00 2.143346786499023438e+00
3.275000000000000000e+03 7.392465972900390625e+01 -1.302336883544921875e+01 -1.156388998031616211e+00 8.523320198059082031e+00 2.210079431533813477e+00 1.935554981231689453e+00
3.276000000000000000e+03 2.720657539367675781e+01 -1.546010684967041016e+01 -3.569615483283996582e-01 -6.055201590061187744e-02 -1.252540796995162964e-01 -3.577125966548919678e-01
3.277000000000000000e+03 4.115999603271484375e+01 9.912981390953063965e-01 -9.250871539115905762e-01 -1.030608452856540680e-02 -2.806179821491241455e-01 5.721071958541870117e-01
3.278000000000000000e+03 2.820244979858398438e+01 1.259150505065917969e+00 -3.863560557365417480e-01 -1.174119934439659119e-01 -1.511304080486297607e-01 4.708284735679626465e-01
3.279000000000000000e+03 7.179820251464843750e+01 -1.970732307434082031e+01 2.388196885585784912e-01 5.456467628479003906e+00 1.708586215972900391e+00 1.467100858688354492e+00
3.280000000000000000e+03 7.237019348144531250e+01 1.325344085693359375e+00 -5.385285019874572754e-01 6.329225540161132812e+00 1.737209081649780273e+00 -2.163465976715087891e+00
3.281000000000000000e+03 7.203453063964843750e+01 2.573177099227905273e+00 -2.916843593120574951e-01 5.846311569213867188e+00 1.666388154029846191e+00 -1.994873046875000000e+00
3.282000000000000000e+03 7.292714691162109375e+01 -1.651123619079589844e+01 -1.896377801895141602e-01 6.533118247985839844e+00 1.903044223785400391e+00 1.642420887947082520e+00
3.283000000000000000e+03 7.339690399169921875e+01 -1.792995834350585938e+01 -6.463659554719924927e-02 6.642119884490966797e+00 1.973245024681091309e+00 1.477206587791442871e+00
3.284000000000000000e+03 6.795067596435546875e+01 9.759472012519836426e-01 -1.219445094466209412e-01 2.133509159088134766e+00 6.034693717956542969e-01 -1.444603323936462402e+00
3.285000000000000000e+03 3.005959510803222656e+01 1.008057951927185059e+00 -4.691766798496246338e-01 -7.718492299318313599e-02 -1.639084815979003906e-01 4.911753535270690918e-01
3.286000000000000000e+03 2.560403251647949219e+01 7.388862967491149902e-01 -2.720077633857727051e-01 -1.622199416160583496e-01 -1.302683204412460327e-01 3.844619691371917725e-01
3.287000000000000000e+03 2.562492179870605469e+01 1.900599241256713867e+00 -2.823479771614074707e-01 -1.950062215328216553e-01 -1.432062536478042603e-01 4.347022473812103271e-01
3.288000000000000000e+03 2.671268844604492188e+01 6.708468794822692871e-01 -3.202455341815948486e-01 -1.361133158206939697e-01 -1.369076520204544067e-01 4.110116064548492432e-01
3.289000000000000000e+03 7.114421844482421875e+01 7.799670219421386719e+00 2.806875109672546387e-01 5.002241134643554688e+00 1.584878563880920410e+00 -1.509864926338195801e+00
3.290000000000000000e+03 2.223022270202636719e+01 -1.747106933593750000e+01 -2.407576143741607666e-01 -8.913747966289520264e-02 -9.896852821111679077e-02 -3.028122484683990479e-01
3.291000000000000000e+03 2.551438522338867188e+01 8.005359649658203125e+00 -3.663702011108398438e-01 -3.266020715236663818e-01 -2.078916877508163452e-01 5.982539653778076172e-01
3.292000000000000000e+03 2.513671112060546875e+01 1.102022457122802734e+01 -3.920269608497619629e-01 -3.727270662784576416e-01 -2.294262051582336426e-01 5.782603025436401367e-01
3.293000000000000000e+03 6.923173522949218750e+01 1.171106910705566406e+01 4.656078815460205078e-01 4.159920692443847656e+00 1.387658476829528809e+00 -1.274861812591552734e+00
3.294000000000000000e+03 2.665951156616210938e+01 5.282950401306152344e+00 -3.485455214977264404e-01 -2.374098598957061768e-01 -1.757866144180297852e-01 5.735899806022644043e-01
3.295000000000000000e+03 2.648973083496093750e+01 8.437226295471191406e+00 -3.760640323162078857e-01 -2.930960357189178467e-01 -2.007480114698410034e-01 6.079950332641601562e-01
3.296000000000000000e+03 6.652635192871093750e+01 -2.344350814819335938e+01 6.547281742095947266e-01 3.081439018249511719e+00 1.120850205421447754e+00 9.868679642677307129e-01
3.297000000000000000e+03 7.064705657958984375e+01 -2.405604553222656250e+01 4.399356544017791748e-01 4.864222049713134766e+00 1.591247320175170898e+00 1.173236966133117676e+00
3.298000000000000000e+03 2.342473030090332031e+01 1.743499946594238281e+01 -2.532266676425933838e-01 -5.169411301612854004e-01 -2.310503423213958740e-01 4.008585214614868164e-01
3.299000000000000000e+03 2.571853828430175781e+01 1.733378791809082031e+01 -2.112284749746322632e-01 -3.880333602428436279e-01 -1.797785460948944092e-01 4.254773855209350586e-01
3.300000000000000000e+03 7.096197509765625000e+01 9.207425117492675781e+00 3.402611613273620605e-01 4.901994228363037109e+00 1.572676539421081543e+00 -1.421364784240722656e+00
3.301000000000000000e+03 6.783673858642578125e+01 1.731316375732421875e+01 4.859218895435333252e-01 3.864674806594848633e+00 1.305178999900817871e+00 -9.624954462051391602e-01
3.302000000000000000e+03 7.019815063476562500e+01 1.339860153198242188e+01 4.205232560634613037e-01 4.572883605957031250e+00 1.498022079467773438e+00 -1.190105915069580078e+00
3.303000000000000000e+03 6.971540832519531250e+01 2.158825874328613281e+01 3.483003079891204834e-01 4.353787422180175781e+00 1.410626411437988281e+00 -7.778908014297485352e-01
3.304000000000000000e+03 7.255755615234375000e+01 -1.746479225158691406e+01 -5.800522118806838989e-02 6.137525558471679688e+00 1.823856115341186523e+00 1.621927261352539062e+00
3.305000000000000000e+03 7.109338378906250000e+01 -1.845936584472656250e+01 2.002577036619186401e-01 5.064200878143310547e+00 1.579337596893310547e+00 1.570679545402526855e+00
3.306000000000000000e+03 1.811890792846679688e+01 2.417542266845703125e+01 5.704622343182563782e-02 -7.271660566329956055e-01 -2.010359466075897217e-01 3.078627884387969971e-01
3.307000000000000000e+03 1.203627014160156250e+01 2.753772163391113281e+01 9.514938294887542725e-02 -6.308526992797851562e-01 -1.607110053300857544e-01 3.525575697422027588e-01
3.308000000000000000e+03 9.973903656005859375e+00 2.761334037780761719e+01 5.430561304092407227e-02 -5.523949861526489258e-01 -1.494268178939819336e-01 3.471893668174743652e-01
3.309000000000000000e+03 1.392042064666748047e+01 -2.429277801513671875e+01 -1.909070089459419250e-02 -2.506747245788574219e-01 -8.092962950468063354e-02 -2.043951898813247681e-01
3.310000000000000000e+03 1.541007614135742188e+01 -2.581507492065429688e+01 1.160468626767396927e-02 -2.550339102745056152e-01 -7.302876561880111694e-02 -2.151890546083450317e-01
3.311000000000000000e+03 7.103845214843750000e+01 -2.015679931640625000e+01 3.005669116973876953e-01 5.013803005218505859e+00 1.594310998916625977e+00 1.460279583930969238e+00
3.312000000000000000e+03 1.412839412689208984e+01 2.608719825744628906e+01 9.410221129655838013e-02 -7.043599486351013184e-01 -1.830773204565048218e-01 3.535003662109375000e-01
3.313000000000000000e+03 6.963820648193359375e+01 2.281704330444335938e+01 3.292834162712097168e-01 4.319073200225830078e+00 1.394507050514221191e+00 -7.154795527458190918e-01
3.314000000000000000e+03 6.987274932861328125e+01 -2.032163238525390625e+01 4.018743336200714111e-01 4.377102375030517578e+00 1.433692932128906250e+00 1.391467690467834473e+00
3.315000000000000000e+03 6.786850738525390625e+01 -2.222935295104980469e+01 5.732433795928955078e-01 3.492199659347534180e+00 1.219632863998413086e+00 1.148032426834106445e+00
3.316000000000000000e+03 1.725009536743164062e+01 -2.473852348327636719e+01 -1.279146689921617508e-02 -2.368450462818145752e-01 -7.489095628261566162e-02 -2.334867268800735474e-01
3.317000000000000000e+03 6.803615570068359375e+01 -2.466184806823730469e+01 6.093494296073913574e-01 3.754570245742797852e+00 1.309175848960876465e+00 1.052253961563110352e+00
3.318000000000000000e+03 7.013082122802734375e+01 3.029260826110839844e+01 2.230816334486007690e-01 4.305612564086914062e+00 1.358608245849609375e+00 -3.919467628002166748e-01
3.319000000000000000e+03 6.815959167480468750e+01 2.797844696044921875e+01 3.270433545112609863e-01 3.947041511535644531e+00 1.282225489616394043e+00 -5.082240104675292969e-01
3.320000000000000000e+03 7.260360717773437500e+01 -3.423417806625366211e+00 -4.773201346397399902e-01 6.608942031860351562e+00 1.839486598968505859e+00 -4.418201923370361328e+00
3.321000000000000000e+03 7.135835266113281250e+01 -1.561703205108642578e+00 -4.582195281982421875e-01 4.592913627624511719e+00 1.240408182144165039e+00 -2.914288759231567383e+00
3.322000000000000000e+03 7.285863494873046875e+01 -1.016880893707275391e+01 -9.854278564453125000e-01 7.842946529388427734e+00 2.057255744934082031e+00 3.827085256576538086e+00
3.323000000000000000e+03 7.339932250976562500e+01 -9.812373161315917969e+00 -1.366954803466796875e+00 9.689860343933105469e+00 2.496871709823608398e+00 4.009088039398193359e+00
3.324000000000000000e+03 7.302442932128906250e+01 -2.477066755294799805e+00 -1.162346124649047852e+00 8.232481956481933594e+00 2.121040821075439453e+00 -3.726676225662231445e+00
3.325000000000000000e+03 7.473384094238281250e+01 -1.050926971435546875e+01 -2.174579620361328125e+00 1.224699401855468750e+01 3.021724462509155273e+00 1.673452258110046387e+00
3.326000000000000000e+03 7.398635864257812500e+01 -1.035432815551757812e+01 -1.848569512367248535e+00 1.091941165924072266e+01 2.721252679824829102e+00 2.909841060638427734e+00
3.327000000000000000e+03 7.385427093505859375e+01 -3.196810483932495117e+00 -1.805684089660644531e+00 1.171664237976074219e+01 2.973287582397460938e+00 -3.691553354263305664e+00
3.328000000000000000e+03 7.418692779541015625e+01 -2.883476734161376953e+00 -2.084427356719970703e+00 1.216568470001220703e+01 3.024377107620239258e+00 -2.879000186920166016e+00
3.329000000000000000e+03 7.138430023193359375e+01 -2.290527105331420898e+00 -4.417350590229034424e-01 4.191005229949951172e+00 1.124781012535095215e+00 -3.049553871154785156e+00
3.330000000000000000e+03 6.974790191650390625e+01 -1.304736614227294922e+01 -1.547769457101821899e-01 3.211443424224853516e+00 9.169999361038208008e-01 1.988477826118469238e+00
3.331000000000000000e+03 7.041217041015625000e+01 -1.172246170043945312e+01 -2.956204712390899658e-01 3.459071159362792969e+00 9.490352272987365723e-01 2.343324899673461914e+00
3.332000000000000000e+03 7.317539215087890625e+01 -9.561414718627929688e+00 -1.058982968330383301e+00 9.118514060974121094e+00 2.417859315872192383e+00 4.360761642456054688e+00
3.333000000000000000e+03 7.108408355712890625e+01 -1.115313148498535156e+01 -3.624249100685119629e-01 4.056966781616210938e+00 1.108362555503845215e+00 2.758262634277343750e+00
3.334000000000000000e+03 7.237340545654296875e+01 -1.069861507415771484e+01 -7.734990119934082031e-01 6.503026485443115234e+00 1.718858242034912109e+00 3.437265396118164062e+00
3.335000000000000000e+03 7.029907226562500000e+01 -1.874548554420471191e+00 -4.332751035690307617e-01 2.764432668685913086e+00 6.993472576141357422e-01 -2.262362480163574219e+00
3.336000000000000000e+03 7.169125366210937500e+01 -1.103570938110351562e+01 -5.231372117996215820e-01 5.141837596893310547e+00 1.385610103607177734e+00 3.124929428100585938e+00
3.337000000000000000e+03 7.319407653808593750e+01 -1.231073570251464844e+01 -1.095347046852111816e+00 7.893091201782226562e+00 2.039323091506958008e+00 2.453671693801879883e+00
3.338000000000000000e+03 7.110684967041015625e+01 -1.169239807128906250e+01 -3.998166620731353760e-01 4.373503208160400391e+00 1.192105889320373535e+00 2.652156352996826172e+00
3.339000000000000000e+03 7.399822235107421875e+01 -1.423142701387405396e-01 -1.295442938804626465e+00 8.877713203430175781e+00 2.274681091308593750e+00 -1.961990594863891602e+00
3.340000000000000000e+03 3.662747955322265625e+01 2.839026927947998047e+00 -6.394083499908447266e-01 -2.592479623854160309e-02 -1.995999366044998169e-01 6.206837296485900879e-01
3.341000000000000000e+03 3.177140617370605469e+01 1.261396169662475586e+00 -5.358296632766723633e-01 -5.563374981284141541e-02 -1.774390339851379395e-01 5.269742012023925781e-01
3.342000000000000000e+03 2.915496826171875000e+01 1.687812566757202148e+00 -4.293313920497894287e-01 -1.021223515272140503e-01 -1.594361215829849243e-01 5.067616105079650879e-01
3.343000000000000000e+03 2.881064414978027344e+01 2.586373567581176758e+00 -4.097344875335693359e-01 -1.255877017974853516e-01 -1.605966538190841675e-01 5.341418981552124023e-01
3.344000000000000000e+03 7.427701568603515625e+01 -1.142771244049072266e+01 -1.756067514419555664e+00 1.029509449005126953e+01 2.561707973480224609e+00 2.080738067626953125e+00
3.345000000000000000e+03 2.732933807373046875e+01 2.948767900466918945e+00 -3.572929203510284424e-01 -1.718753725290298462e-01 -1.587504893541336060e-01 5.213992595672607422e-01
3.346000000000000000e+03 5.622488021850585938e+01 1.389471769332885742e+00 -1.063683748245239258e+00 9.035166352987289429e-02 -2.919996380805969238e-01 3.728274703025817871e-01
3.347000000000000000e+03 5.314500427246093750e+01 1.372008919715881348e+00 -1.132982134819030762e+00 3.531512990593910217e-02 -3.293001055717468262e-01 4.803985059261322021e-01
3.348000000000000000e+03 6.233792114257812500e+01 1.247786402702331543e+00 -6.739966273307800293e-01 4.879657328128814697e-01 -5.580927059054374695e-02 -1.500236093997955322e-01
3.349000000000000000e+03 5.942750549316406250e+01 1.404790163040161133e+00 -8.974455595016479492e-01 2.228025048971176147e-01 -2.023929059505462646e-01 1.691851019859313965e-01
3.350000000000000000e+03 7.386559295654296875e+01 -1.350600242614746094e+01 -1.010602712631225586e+00 8.237726211547851562e+00 2.168137073516845703e+00 1.839051961898803711e+00
3.351000000000000000e+03 4.501041412353515625e+01 -1.575005817413330078e+01 -6.587626338005065918e-01 -6.522861123085021973e-02 -2.171973735094070435e-01 -5.493484139442443848e-01
3.352000000000000000e+03 6.933281707763671875e+01 -1.370322895050048828e+01 -7.943712174892425537e-02 3.092169523239135742e+00 9.038197398185729980e-01 1.828933596611022949e+00
3.353000000000000000e+03 4.277180862426757812e+01 -1.511804771423339844e+01 -7.053965330123901367e-01 -6.878463178873062134e-02 -2.322543561458587646e-01 -5.303727388381958008e-01
3.354000000000000000e+03 7.222528839111328125e+01 1.900759458541870117e+00 -4.296588897705078125e-01 6.113230705261230469e+00 1.705071568489074707e+00 -2.086379289627075195e+00
3.355000000000000000e+03 4.698035812377929688e+01 -1.444207096099853516e+01 -8.959906101226806641e-01 -5.480710044503211975e-02 -2.852393090724945068e-01 -5.355192422866821289e-01
3.356000000000000000e+03 4.626766204833984375e+01 -1.412999248504638672e+01 -9.217122197151184082e-01 -5.024122074246406555e-02 -2.915860414505004883e-01 -5.316215157508850098e-01
3.357000000000000000e+03 4.272192382812500000e+01 -1.619968223571777344e+01 -5.689350962638854980e-01 -7.974937558174133301e-02 -1.946053504943847656e-01 -5.474089384078979492e-01
3.358000000000000000e+03 4.982672119140625000e+01 -1.376383495330810547e+01 -1.044029593467712402e+00 -2.525877021253108978e-02 -3.207865059375762939e-01 -5.311978459358215332e-01
3.359000000000000000e+03 4.953805160522460938e+01 -1.450201034545898438e+01 -9.038092494010925293e-01 -3.599274158477783203e-02 -2.819406092166900635e-01 -5.404756665229797363e-01
3.360000000000000000e+03 4.028857421875000000e+01 -1.479941654205322266e+01 -6.885086894035339355e-01 -7.370254397392272949e-02 -2.286633700132369995e-01 -4.992075264453887939e-01
3.361000000000000000e+03 4.181472015380859375e+01 -1.497084426879882812e+01 -7.059642672538757324e-01 -7.371241599321365356e-02 -2.339030206203460693e-01 -5.176675915718078613e-01
3.362000000000000000e+03 4.776209259033203125e+01 -1.447446060180664062e+01 -9.003221392631530762e-01 -4.498048126697540283e-02 -2.835907936096191406e-01 -5.376877188682556152e-01
3.363000000000000000e+03 5.131473541259765625e+01 -1.487223625183105469e+01 -8.423951268196105957e-01 -8.175615221261978149e-03 -2.551712393760681152e-01 -5.267719626426696777e-01
3.364000000000000000e+03 5.008924865722656250e+01 -1.512964630126953125e+01 -7.883265018463134766e-01 -2.305870503187179565e-02 -2.434155642986297607e-01 -5.435273051261901855e-01
3.365000000000000000e+03 3.457102966308593750e+01 6.130626797676086426e-01 -6.745429635047912598e-01 -2.415193431079387665e-02 -2.096084803342819214e-01 5.245165824890136719e-01
3.366000000000000000e+03 5.941022872924804688e+01 -1.388131427764892578e+01 -8.650007843971252441e-01 2.064977735280990601e-01 -1.975509077310562134e-01 -2.436280846595764160e-01
3.367000000000000000e+03 5.662096405029296875e+01 -1.418076992034912109e+01 -9.208257198333740234e-01 8.809420466423034668e-02 -2.498194575309753418e-01 -4.055843651294708252e-01
3.368000000000000000e+03 3.491103363037109375e+01 -1.472798728942871094e+01 -5.510843396186828613e-01 -7.647708058357238770e-02 -1.882684230804443359e-01 -4.346828162670135498e-01
3.369000000000000000e+03 3.573526382446289062e+01 -1.550729656219482422e+01 -5.159093737602233887e-01 -8.673738688230514526e-02 -1.807940304279327393e-01 -4.596960842609405518e-01
3.370000000000000000e+03 3.672278213500976562e+01 2.015806436538696289e+00 -6.929279565811157227e-01 -2.440295740962028503e-02 -2.151992768049240112e-01 5.897208452224731445e-01
3.371000000000000000e+03 5.239456558227539062e+01 -1.458554744720458984e+01 -8.979513049125671387e-01 4.019876010715961456e-03 -2.681794166564941406e-01 -5.144713521003723145e-01
3.372000000000000000e+03 5.509495162963867188e+01 -1.452987289428710938e+01 -8.809955716133117676e-01 4.697013646364212036e-02 -2.502076327800750732e-01 -4.498378336429595947e-01
3.373000000000000000e+03 5.785811614990234375e+01 -1.408743953704833984e+01 -8.878281712532043457e-01 1.478193998336791992e-01 -2.220026254653930664e-01 -3.401682674884796143e-01
3.374000000000000000e+03 5.595849227905273438e+01 -1.492079448699951172e+01 -7.650119662284851074e-01 9.609659761190414429e-02 -2.006746083498001099e-01 -4.104965627193450928e-01
3.375000000000000000e+03 5.603678512573242188e+01 3.023818016052246094e+00 -6.800830960273742676e-01 1.724347323179244995e-01 -1.522945016622543335e-01 3.099454641342163086e-01
3.376000000000000000e+03 5.670138549804687500e+01 -1.554048633575439453e+01 -5.790327787399291992e-01 1.712563782930374146e-01 -1.223329156637191772e-01 -3.413856327533721924e-01
3.377000000000000000e+03 5.614665985107421875e+01 2.199723482131958008e+00 -8.652927875518798828e-01 1.284215450286865234e-01 -2.210613638162612915e-01 3.446778953075408936e-01
3.378000000000000000e+03 5.731203460693359375e+01 -1.478798675537109375e+01 -7.187090516090393066e-01 1.596554219722747803e-01 -1.677160859107971191e-01 -3.369279801845550537e-01
3.379000000000000000e+03 3.708376312255859375e+01 1.247584939002990723e+00 -7.472363114356994629e-01 -1.705211214721202850e-02 -2.292865365743637085e-01 5.677105784416198730e-01
3.380000000000000000e+03 3.791845321655273438e+01 1.680337429046630859e+00 -7.490867972373962402e-01 -1.546060666441917419e-02 -2.293642312288284302e-01 5.901323556900024414e-01
3.381000000000000000e+03 3.524338150024414062e+01 -1.659073638916015625e+01 -4.243153929710388184e-01 -9.677823632955551147e-02 -1.563280820846557617e-01 -4.722680449485778809e-01
3.382000000000000000e+03 5.694384002685546875e+01 2.236305236816406250e+00 -8.167621493339538574e-01 1.629594266414642334e-01 -1.961408108472824097e-01 2.974853515625000000e-01
3.383000000000000000e+03 6.466629028320312500e+01 1.157764792442321777e+00 -4.178389012813568115e-01 8.775492310523986816e-01 1.379130929708480835e-01 -5.577506422996520996e-01
3.384000000000000000e+03 3.973978042602539062e+01 1.945350050926208496e+00 -7.926370501518249512e-01 -1.078009977936744690e-02 -2.410251498222351074e-01 6.036816239356994629e-01
3.385000000000000000e+03 5.238542556762695312e+01 1.373102068901062012e+00 -1.139474987983703613e+00 2.283836901187896729e-02 -3.349909782409667969e-01 4.979387223720550537e-01
3.386000000000000000e+03 4.994112777709960938e+01 2.714827775955200195e+00 -8.808472156524658203e-01 2.485225722193717957e-02 -2.567985057830810547e-01 5.441535711288452148e-01
3.387000000000000000e+03 2.936668205261230469e+01 -1.520450496673583984e+01 -4.001584053039550781e-01 -6.647503376007080078e-02 -1.399900317192077637e-01 -3.771134018898010254e-01
3.388000000000000000e+03 2.828248977661132812e+01 -1.485911655426025391e+01 -3.961285650730133057e-01 -5.783870443701744080e-02 -1.361901760101318359e-01 -3.561664223670959473e-01
3.389000000000000000e+03 3.293299865722656250e+01 -1.493707084655761719e+01 -4.939212203025817871e-01 -7.420819252729415894e-02 -1.704388260841369629e-01 -4.161534309387207031e-01
3.390000000000000000e+03 3.680299377441406250e+01 -1.605006790161132812e+01 -4.831172227859497070e-01 -9.322077780961990356e-02 -1.729014068841934204e-01 -4.837712049484252930e-01
3.391000000000000000e+03 4.858180999755859375e+01 2.066406965255737305e+00 -9.880239963531494141e-01 3.875535679981112480e-03 -2.952445447444915771e-01 5.617600083351135254e-01
3.392000000000000000e+03 4.938230895996093750e+01 1.239076733589172363e+00 -1.137869596481323242e+00 2.068579196929931641e-03 -3.407403230667114258e-01 5.457088947296142578e-01
3.393000000000000000e+03 4.111990356445312500e+01 1.708032488822937012e+00 -8.620482087135314941e-01 -1.178765948861837387e-02 -2.621507644653320312e-01 5.961036086082458496e-01
3.394000000000000000e+03 4.470086288452148438e+01 1.331900000572204590e+00 -1.017532587051391602e+00 -3.961471375077962875e-03 -3.064482212066650391e-01 5.786101222038269043e-01
3.395000000000000000e+03 5.006728744506835938e+01 2.021655321121215820e+00 -9.969156980514526367e-01 1.880720071494579315e-02 -2.934325635433197021e-01 5.439138412475585938e-01
3.396000000000000000e+03 4.933345031738281250e+01 1.994162678718566895e+00 -9.984508156776428223e-01 7.270517759025096893e-03 -2.973540723323822021e-01 5.530889034271240234e-01
3.397000000000000000e+03 4.546636199951171875e+01 1.377021074295043945e+00 -1.030925154685974121e+00 -4.715387709438800812e-03 -3.106921613216400146e-01 5.762717723846435547e-01
3.398000000000000000e+03 4.373026657104492188e+01 2.057752609252929688e+00 -8.895912170410156250e-01 -3.003493649885058403e-03 -2.677784264087677002e-01 6.021827459335327148e-01
3.399000000000000000e+03 6.255201339721679688e+01 -1.501139259338378906e+01 -2.723728418350219727e-01 6.692810058593750000e-01 1.190724447369575500e-01 2.190698832273483276e-01
3.400000000000000000e+03 6.230487442016601562e+01 -1.567764282226562500e+01 -1.465528011322021484e-01 7.270786166191101074e-01 1.741577386856079102e-01 2.355231493711471558e-01
3.401000000000000000e+03 4.627688217163085938e+01 1.354462862014770508e+00 -1.051855921745300293e+00 -2.193148015066981316e-03 -3.162147402763366699e-01 5.705237388610839844e-01
3.402000000000000000e+03 4.447595596313476562e+01 2.324974060058593750e+00 -8.733950853347778320e-01 1.696327235549688339e-03 -2.615096271038055420e-01 6.065641045570373535e-01
3.403000000000000000e+03 6.481184387207031250e+01 -1.435456657409667969e+01 -2.375175505876541138e-01 9.766651988029479980e-01 2.217442840337753296e-01 5.761517286300659180e-01
3.404000000000000000e+03 2.987433052062988281e+01 -1.614176368713378906e+01 -3.641306757926940918e-01 -8.005800098180770874e-02 -1.332565993070602417e-01 -3.996164798736572266e-01
3.405000000000000000e+03 3.281679153442382812e+01 1.478868007659912109e+00 -5.748986601829528809e-01 -4.461167007684707642e-02 -1.858530938625335693e-01 5.468634366989135742e-01
3.406000000000000000e+03 3.219505691528320312e+01 -1.669184267520904541e-01 -5.847772955894470215e-01 -3.522717207670211792e-02 -1.860013455152511597e-01 4.623843729496002197e-01
3.407000000000000000e+03 7.385100555419921875e+01 -1.082919692993164062e+01 -1.706524848937988281e+00 1.008256244659423828e+01 2.512811183929443359e+00 2.805969238281250000e+00
3.408000000000000000e+03 6.330480575561523438e+01 -1.438395404815673828e+01 -3.892611265182495117e-01 6.731799244880676270e-01 8.517564088106155396e-02 2.812032401561737061e-01
3.409000000000000000e+03 5.461072158813476562e+01 2.138553619384765625e+00 -9.250354170799255371e-01 8.840685337781906128e-02 -2.509885728359222412e-01 4.138052165508270264e-01
3.410000000000000000e+03 5.079384994506835938e+01 2.141526460647583008e+00 -9.811019301414489746e-01 2.223827876150608063e-02 -2.876590788364410400e-01 5.294483900070190430e-01
3.411000000000000000e+03 2.409392738342285156e+01 -1.702848815917968750e+01 -2.675399184226989746e-01 -7.761660963296890259e-02 -1.035469546914100647e-01 -3.284274637699127197e-01
3.412000000000000000e+03 6.408181762695312500e+01 -1.364011573791503906e+01 -5.163925290107727051e-01 6.761879324913024902e-01 4.793862625956535339e-02 3.443265557289123535e-01
3.413000000000000000e+03 6.404351806640625000e+01 -1.436121749877929688e+01 -3.193272054195404053e-01 8.186065554618835449e-01 1.497838050127029419e-01 4.146076440811157227e-01
3.414000000000000000e+03 6.737623596191406250e+01 9.762551188468933105e-01 -1.648753434419631958e-01 1.813122153282165527e+00 4.944740235805511475e-01 -1.257550835609436035e+00
3.415000000000000000e+03 6.676128387451171875e+01 1.002687335014343262e+00 -2.216263562440872192e-01 1.534895062446594238e+00 3.939805924892425537e-01 -1.073595881462097168e+00
3.416000000000000000e+03 7.423385620117187500e+01 -9.652777314186096191e-01 -1.661097764968872070e+00 9.860906600952148438e+00 2.459942579269409180e+00 -1.976662516593933105e+00
3.417000000000000000e+03 7.359465789794921875e+01 -1.894637942314147949e+00 -1.583983659744262695e+00 9.420848846435546875e+00 2.351059436798095703e+00 -3.046417713165283203e+00
3.418000000000000000e+03 7.287547302246093750e+01 -1.130452442169189453e+01 -1.085631132125854492e+00 7.640867710113525391e+00 1.966570973396301270e+00 3.110551834106445312e+00
3.419000000000000000e+03 7.172422027587890625e+01 -1.703932571411132812e+01 -1.412643492221832275e-02 5.464613437652587891e+00 1.635146021842956543e+00 1.727647066116333008e+00
3.420000000000000000e+03 2.871266555786132812e+01 -1.556680202484130859e+01 -3.749411404132843018e-01 -6.820818036794662476e-02 -1.329447925090789795e-01 -3.776474297046661377e-01
3.421000000000000000e+03 2.342769241333007812e+01 -1.841390800476074219e+01 -2.091246098279953003e-01 -1.061806380748748779e-01 -9.459157288074493408e-02 -3.265759944915771484e-01
3.422000000000000000e+03 7.290538787841796875e+01 1.964421510696411133e+00 -5.337014198303222656e-01 6.781458854675292969e+00 1.874327182769775391e+00 -1.954097270965576172e+00
3.423000000000000000e+03 6.542515563964843750e+01 -1.516931247711181641e+01 1.010232046246528625e-02 1.348063468933105469e+00 4.074497520923614502e-01 7.864546775817871094e-01
3.424000000000000000e+03 4.048827743530273438e+01 1.821378350257873535e+00 -8.266416788101196289e-01 -1.203273143619298935e-02 -2.516023218631744385e-01 6.000955104827880859e-01
3.425000000000000000e+03 3.972204971313476562e+01 1.046788692474365234e+00 -8.672401309013366699e-01 -1.142672635614871979e-02 -2.636000514030456543e-01 5.688342452049255371e-01
3.426000000000000000e+03 6.729547119140625000e+01 -1.367589187622070312e+01 -1.564959436655044556e-01 1.736315011978149414e+00 4.739457070827484131e-01 1.161783933639526367e+00
3.427000000000000000e+03 6.673114776611328125e+01 -1.395817470550537109e+01 -1.325371712446212769e-01 1.554421782493591309e+00 4.265653789043426514e-01 1.015643835067749023e+00
3.428000000000000000e+03 4.248696136474609375e+01 1.760727882385253906e+00 -8.894410133361816406e-01 -6.307291332632303238e-03 -2.687245011329650879e-01 5.964475274085998535e-01
3.429000000000000000e+03 4.159584045410156250e+01 2.515541315078735352e+00 -7.918058633804321289e-01 -9.358600713312625885e-03 -2.403493374586105347e-01 6.169943809509277344e-01
3.430000000000000000e+03 6.646792602539062500e+01 -1.337002944946289062e+01 -2.863555550575256348e-01 1.306553959846496582e+00 3.060595393180847168e-01 8.759927749633789062e-01
3.431000000000000000e+03 6.722994995117187500e+01 -1.422882652282714844e+01 -2.811133489012718201e-02 1.895882606506347656e+00 5.603314042091369629e-01 1.192748188972473145e+00
3.432000000000000000e+03 2.799833679199218750e+01 -1.559259319305419922e+01 -3.625595569610595703e-01 -6.540501862764358521e-02 -1.283893734216690063e-01 -3.676822781562805176e-01
3.433000000000000000e+03 2.642950630187988281e+01 -1.514627075195312500e+01 -3.510100841522216797e-01 -5.346060544252395630e-02 -1.213412061333656311e-01 -3.409169316291809082e-01
3.434000000000000000e+03 6.610463714599609375e+01 1.041869997978210449e+00 -2.770988643169403076e-01 1.280225634574890137e+00 3.009380400180816650e-01 -8.951960802078247070e-01
3.435000000000000000e+03 7.260449981689453125e+01 3.496153593063354492e+00 -2.369722127914428711e-01 6.249694347381591797e+00 1.803816556930541992e+00 -1.797146320343017578e+00
3.436000000000000000e+03 3.014328956604003906e+01 1.762108206748962402e+00 -4.650125503540039062e-01 -8.710435032844543457e-02 -1.656350791454315186e-01 5.257924199104309082e-01
3.437000000000000000e+03 3.171869087219238281e+01 1.797573715448379517e-01 -5.531480908393859863e-01 -4.567250981926918030e-02 -1.796461790800094604e-01 4.799752831459045410e-01
3.438000000000000000e+03 2.643158340454101562e+01 2.429218530654907227e+00 -3.191417455673217773e-01 -1.868622303009033203e-01 -1.518011838197708130e-01 4.794625937938690186e-01
3.439000000000000000e+03 3.276496124267578125e+01 -1.593852901458740234e+01 -4.248872995376586914e-01 -8.666503429412841797e-02 -1.534657031297683716e-01 -4.346668124198913574e-01
3.440000000000000000e+03 3.934198379516601562e+01 -1.481399631500244141e+01 -6.632932424545288086e-01 -7.430601865053176880e-02 -2.212797701358795166e-01 -4.885838329792022705e-01
3.441000000000000000e+03 4.533641052246093750e+01 2.355061054229736328e+00 -8.845729231834411621e-01 3.899141214787960052e-03 -2.642021477222442627e-01 6.010078787803649902e-01
3.442000000000000000e+03 4.708413314819335938e+01 1.317362904548645020e+00 -1.080947160720825195e+00 -7.924677804112434387e-03 -3.266615271568298340e-01 5.641106367111206055e-01
3.443000000000000000e+03 2.621494483947753906e+01 1.251044869422912598e+00 -3.033007085323333740e-01 -1.595945805311203003e-01 -1.388685852289199829e-01 4.225564599037170410e-01
3.444000000000000000e+03 7.234644317626953125e+01 4.396035671234130859e+00 -8.864281326532363892e-02 5.944515705108642578e+00 1.756761908531188965e+00 -1.734241008758544922e+00
3.445000000000000000e+03 3.305548095703125000e+01 6.115615963935852051e-01 -6.095527410507202148e-01 -3.399218618869781494e-02 -1.930634826421737671e-01 5.104786157608032227e-01
3.446000000000000000e+03 3.393804550170898438e+01 1.569524407386779785e+00 -6.153088212013244629e-01 -3.441355749964714050e-02 -1.949167102575302124e-01 5.593726634979248047e-01
3.447000000000000000e+03 3.396212387084960938e+01 -1.623559188842773438e+01 -4.322793483734130859e-01 -9.065113216638565063e-02 -1.568791419267654419e-01 -4.541769921779632568e-01
3.448000000000000000e+03 7.158360290527343750e+01 -1.463754177093505859e+01 -2.734139859676361084e-01 5.422505855560302734e+00 1.544727563858032227e+00 2.062133550643920898e+00
3.449000000000000000e+03 7.203207397460937500e+01 -1.818874549865722656e+01 1.196923106908798218e-01 5.681906700134277344e+00 1.740479707717895508e+00 1.551763415336608887e+00
3.450000000000000000e+03 6.809365844726562500e+01 1.132559967041015625e+01 5.197604894638061523e-01 3.714049577713012695e+00 1.270143032073974609e+00 -1.235931754112243652e+00
3.451000000000000000e+03 6.980920410156250000e+01 9.045570373535156250e+00 4.015373587608337402e-01 4.364871501922607422e+00 1.429922580718994141e+00 -1.426621198654174805e+00
3.452000000000000000e+03 7.198561096191406250e+01 5.384809970855712891e+00 4.668964818120002747e-02 5.590047836303710938e+00 1.691021323204040527e+00 -1.675593376159667969e+00
3.453000000000000000e+03 7.153631591796875000e+01 4.133812427520751953e+00 -4.314719513058662415e-02 5.341160297393798828e+00 1.589403867721557617e+00 -1.816388964653015137e+00
3.454000000000000000e+03 6.109039306640625000e+01 2.060655117034912109e+00 -5.636920928955078125e-01 4.444994330406188965e-01 -3.575780242681503296e-02 -5.763173475861549377e-02
3.455000000000000000e+03 5.776193237304687500e+01 2.268468618392944336e+00 -7.655178308486938477e-01 2.023544162511825562e-01 -1.689490228891372681e-01 2.381967157125473022e-01
3.456000000000000000e+03 7.072056579589843750e+01 -1.767073440551757812e+01 1.669574230909347534e-01 4.766750812530517578e+00 1.480112433433532715e+00 1.632451772689819336e+00
3.457000000000000000e+03 2.093731689453125000e+01 2.208234024047851562e+01 -3.398520126938819885e-02 -6.687425374984741211e-01 -2.108183205127716064e-01 2.986736297607421875e-01
3.458000000000000000e+03 6.850087738037109375e+01 -1.435088348388671875e+01 3.164556249976158142e-02 2.674669265747070312e+00 8.118944168090820312e-01 1.563814878463745117e+00
3.459000000000000000e+03 5.154161834716796875e+01 2.235619544982910156e+00 -9.616135358810424805e-01 3.138558566570281982e-02 -2.790683805942535400e-01 5.152814984321594238e-01
3.460000000000000000e+03 6.356896591186523438e+01 -2.320042419433593750e+01 7.142162322998046875e-01 2.096894502639770508e+00 8.433332443237304688e-01 7.086580395698547363e-01
3.461000000000000000e+03 6.860329437255859375e+01 1.461163425445556641e+01 4.852327406406402588e-01 3.994010686874389648e+00 1.343773007392883301e+00 -1.115766763687133789e+00
3.462000000000000000e+03 6.762535095214843750e+01 2.129290008544921875e+01 4.461277723312377930e-01 3.834645986557006836e+00 1.284232139587402344e+00 -8.178431391716003418e-01
3.463000000000000000e+03 6.456412506103515625e+01 1.932188415527343750e+01 5.868315696716308594e-01 3.059574842453002930e+00 1.093921899795532227e+00 -7.643241286277770996e-01
3.464000000000000000e+03 2.758569145202636719e+01 5.223979949951171875e+00 -3.695181310176849365e-01 -2.038381099700927734e-01 -1.720068752765655518e-01 5.893168449401855469e-01
3.465000000000000000e+03 2.694581222534179688e+01 6.229155063629150391e+00 -3.626962304115295410e-01 -2.499372661113739014e-01 -1.837900429964065552e-01 6.035491228103637695e-01
3.466000000000000000e+03 6.894503784179687500e+01 -2.197123718261718750e+01 5.100357532501220703e-01 3.991064310073852539e+00 1.350329995155334473e+00 1.263133764266967773e+00
3.467000000000000000e+03 2.158658409118652344e+01 -2.112363052368164062e+01 -1.233080103993415833e-01 -1.568444520235061646e-01 -8.404573798179626465e-02 -2.943617403507232666e-01
3.468000000000000000e+03 2.469263458251953125e+01 -1.814635658264160156e+01 -2.291965186595916748e-01 -9.761454910039901733e-02 -9.804332256317138672e-02 -3.479802608489990234e-01
3.469000000000000000e+03 6.877362823486328125e+01 1.318207168579101562e+01 5.002384781837463379e-01 4.024589061737060547e+00 1.357448220252990723e+00 -1.183632016181945801e+00
3.470000000000000000e+03 2.522103691101074219e+01 8.923754692077636719e+00 -3.776802718639373779e-01 -3.530462086200714111e-01 -2.192179411649703979e-01 5.979027748107910156e-01
3.471000000000000000e+03 6.792348480224609375e+01 -2.336177062988281250e+01 5.966241955757141113e-01 3.591173171997070312e+00 1.256339192390441895e+00 1.113668799400329590e+00
3.472000000000000000e+03 1.256367206573486328e+01 -2.672037124633789062e+01 2.919262647628784180e-02 -2.622126638889312744e-01 -6.990601122379302979e-02 -1.958606988191604614e-01
3.473000000000000000e+03 6.782846069335937500e+01 2.362147903442382812e+01 4.057936072349548340e-01 3.871976613998413086e+00 1.283331036567687988e+00 -7.124981880187988281e-01
3.474000000000000000e+03 6.863458251953125000e+01 2.220822906494140625e+01 3.854924738407135010e-01 4.089360713958740234e+00 1.342455983161926270e+00 -7.761546969413757324e-01
3.475000000000000000e+03 6.652468109130859375e+01 -2.487841796875000000e+01 6.831448078155517578e-01 3.185391187667846680e+00 1.160560846328735352e+00 9.382325410842895508e-01
3.476000000000000000e+03 6.826073455810546875e+01 -2.611190414428710938e+01 6.038438677787780762e-01 3.905570030212402344e+00 1.352824211120605469e+00 9.773970842361450195e-01
3.477000000000000000e+03 2.070653152465820312e+01 2.574188613891601562e+01 1.559623777866363525e-01 -6.372259855270385742e-01 -1.443790942430496216e-01 2.616595029830932617e-01
3.478000000000000000e+03 1.252789306640625000e+01 -2.405589675903320312e+01 -1.745407842099666595e-02 -2.512886524200439453e-01 -8.062282204627990723e-02 -1.978869289159774780e-01
3.479000000000000000e+03 6.693952178955078125e+01 -2.821059036254882812e+01 6.734176874160766602e-01 3.517763853073120117e+00 1.257354497909545898e+00 7.979440689086914062e-01
3.480000000000000000e+03 1.597637748718261719e+01 2.685949325561523438e+01 1.440833061933517456e-01 -7.175070047378540039e-01 -1.720271110534667969e-01 3.161826431751251221e-01
3.481000000000000000e+03 1.284622097015380859e+01 2.586310768127441406e+01 5.851083621382713318e-02 -6.759435534477233887e-01 -1.852298080921173096e-01 3.813605606555938721e-01
3.482000000000000000e+03 6.535240936279296875e+01 -3.083521080017089844e+01 7.366480827331542969e-01 3.130804300308227539e+00 1.160235643386840820e+00 6.003327369689941406e-01
3.483000000000000000e+03 8.614603996276855469e+00 2.505719566345214844e+01 -5.732186138629913330e-02 -4.267483949661254883e-01 -1.452210843563079834e-01 3.523327410221099854e-01
3.484000000000000000e+03 6.879834747314453125e+01 7.783018112182617188e+00 4.002600908279418945e-01 3.765178442001342773e+00 1.249631524085998535e+00 -1.437324523925781250e+00
3.485000000000000000e+03 6.699064636230468750e+01 2.535715103149414062e+01 4.161225855350494385e-01 3.698175907135009766e+00 1.234289526939392090e+00 -6.294838786125183105e-01
3.486000000000000000e+03 7.274329376220703125e+01 3.143998718261718750e+01 1.300780177116394043e-01 4.732430458068847656e+00 1.458752512931823730e+00 -3.190863430500030518e-01
3.487000000000000000e+03 7.110030364990234375e+01 3.428678131103515625e+01 1.642377078533172607e-01 4.445960521697998047e+00 1.383059501647949219e+00 -2.518437504768371582e-01
3.488000000000000000e+03 7.359291839599609375e+01 -2.817335844039916992e+00 -1.603676080703735352e+00 1.023513889312744141e+01 2.589438676834106445e+00 -3.684994935989379883e+00
3.489000000000000000e+03 7.276786041259765625e+01 -1.082964897155761719e+00 -1.023845314979553223e+00 7.325347900390625000e+00 1.890450835227966309e+00 -2.933573961257934570e+00
3.490000000000000000e+03 7.102387237548828125e+01 -1.920407414436340332e+00 -4.115586280822753906e-01 3.806582212448120117e+00 1.018507122993469238e+00 -2.789172410964965820e+00
3.491000000000000000e+03 7.295494842529296875e+01 1.320129156112670898e+00 -6.643345355987548828e-01 6.950691223144531250e+00 1.885906934738159180e+00 -2.077851295471191406e+00
3.492000000000000000e+03 7.212464141845703125e+01 -3.431192636489868164e+00 -2.968660295009613037e-01 4.920655250549316406e+00 1.387136816978454590e+00 -3.936298370361328125e+00
3.493000000000000000e+03 7.331553649902343750e+01 -1.021469974517822266e+01 -1.351462483406066895e+00 9.237218856811523438e+00 2.365726709365844727e+00 3.660172224044799805e+00
3.494000000000000000e+03 7.190734863281250000e+01 -1.060675144195556641e+01 -5.404976010322570801e-01 5.491223335266113281e+00 1.485217690467834473e+00 3.339140415191650391e+00
3.495000000000000000e+03 7.381774139404296875e+01 -1.133264350891113281e+01 -1.603141427040100098e+00 9.609080314636230469e+00 2.401781558990478516e+00 2.568800449371337891e+00
3.496000000000000000e+03 7.172289276123046875e+01 -2.604190587997436523e+00 -4.185603559017181396e-01 4.686336040496826172e+00 1.280332803726196289e+00 -3.363214015960693359e+00
3.497000000000000000e+03 7.169905853271484375e+01 -1.942189931869506836e+00 -5.287868380546569824e-01 5.041216850280761719e+00 1.353729009628295898e+00 -3.194640159606933594e+00
3.498000000000000000e+03 7.384003448486328125e+01 -1.253678321838378906e+01 -1.263311624526977539e+00 8.655285835266113281e+00 2.217592239379882812e+00 2.087276458740234375e+00
3.499000000000000000e+03 7.384482574462890625e+01 -2.553238868713378906e+00 -1.825983285903930664e+00 1.076320648193359375e+01 2.681166887283325195e+00 -3.137049674987792969e+00
3.500000000000000000e+03 7.070784759521484375e+01 -1.611082839965820312e+01 3.161964938044548035e-02 4.666556835174560547e+00 1.409452915191650391e+00 1.828662872314453125e+00
3.501000000000000000e+03 7.265165710449218750e+01 -2.781778812408447266e+00 -8.229984641075134277e-01 7.140454769134521484e+00 1.895236849784851074e+00 -3.938789606094360352e+00
3.502000000000000000e+03 7.428928375244140625e+01 -1.739838123321533203e+00 -1.911228775978088379e+00 1.067996597290039062e+01 2.630621194839477539e+00 -2.228049516677856445e+00
3.503000000000000000e+03 7.389055633544921875e+01 -1.430595397949218750e+00 -1.651451706886291504e+00 9.677082061767578125e+00 2.407689094543457031e+00 -2.519579410552978516e+00
3.504000000000000000e+03 7.332921600341796875e+01 -1.343237781524658203e+01 -9.016019701957702637e-01 7.655756950378417969e+00 2.026246547698974609e+00 2.082995653152465820e+00
3.505000000000000000e+03 6.914741516113281250e+01 -1.444768905639648438e+01 2.857035584747791290e-02 3.155275106430053711e+00 9.551536440849304199e-01 1.710573911666870117e+00
3.506000000000000000e+03 7.376697540283203125e+01 -6.578025221824645996e-01 -1.367597579956054688e+00 8.889358520507812500e+00 2.256528377532958984e+00 -2.244124889373779297e+00
3.507000000000000000e+03 2.695553779602050781e+01 1.693669676780700684e+00 -3.385934233665466309e-01 -1.539776176214218140e-01 -1.477713137865066528e-01 4.637764692306518555e-01
3.508000000000000000e+03 7.108421325683593750e+01 1.424447178840637207e+00 -2.488552331924438477e-01 4.867630958557128906e+00 1.385632753372192383e+00 -2.174865007400512695e+00
3.509000000000000000e+03 7.083850860595703125e+01 -1.226200866699218750e+01 -3.312026560306549072e-01 4.136562824249267578e+00 1.141607999801635742e+00 2.450613498687744141e+00
3.510000000000000000e+03 7.075846099853515625e+01 -1.184629249572753906e+01 -3.240261077880859375e-01 3.872572660446166992e+00 1.064563989639282227e+00 2.469000339508056641e+00
3.511000000000000000e+03 7.318964385986328125e+01 -1.486606693267822266e+01 -5.366715192794799805e-01 7.062563419342041016e+00 1.957767486572265625e+00 1.842730879783630371e+00
3.512000000000000000e+03 7.030880737304687500e+01 -1.257526206970214844e+01 -2.492317855358123779e-01 3.635285377502441406e+00 1.015816092491149902e+00 2.219044208526611328e+00
3.513000000000000000e+03 7.088343048095703125e+01 -1.149220275878906250e+01 -3.466190695762634277e-01 3.849765062332153320e+00 1.050943851470947266e+00 2.596281051635742188e+00
3.514000000000000000e+03 7.139355468750000000e+01 -1.139194679260253906e+01 -4.555329084396362305e-01 4.690578460693359375e+00 1.270513653755187988e+00 2.840682744979858398e+00
3.515000000000000000e+03 7.335453796386718750e+01 -1.074628639221191406e+01 -1.421083331108093262e+00 9.006293296813964844e+00 2.275563001632690430e+00 3.234298944473266602e+00
3.516000000000000000e+03 4.109298324584960938e+01 -1.440937805175781250e+01 -7.476468086242675781e-01 -6.753793358802795410e-02 -2.445554286241531372e-01 -4.976538717746734619e-01
3.517000000000000000e+03 5.537186813354492188e+01 2.160777091979980469e+00 -8.994842767715454102e-01 1.009986326098442078e-01 -2.395456880331039429e-01 3.852460384368896484e-01
3.518000000000000000e+03 3.053423309326171875e+01 2.598950862884521484e+00 -4.666509032249450684e-01 -9.203427284955978394e-02 -1.676055490970611572e-01 5.597152709960937500e-01
3.519000000000000000e+03 3.139308357238769531e+01 2.205545425415039062e+00 -5.048798918724060059e-01 -7.024690508842468262e-02 -1.725380420684814453e-01 5.568203330039978027e-01
3.520000000000000000e+03 6.989205932617187500e+01 -6.595359444618225098e-01 -2.697945237159729004e-01 3.079794168472290039e+00 8.429998755455017090e-01 -2.110639810562133789e+00
3.521000000000000000e+03 7.019863891601562500e+01 -2.538732588291168213e-01 -2.525259852409362793e-01 3.519426345825195312e+00 9.800700545310974121e-01 -2.231623172760009766e+00
3.522000000000000000e+03 7.340644836425781250e+01 -1.175640201568603516e+01 -1.315247774124145508e+00 8.517400741577148438e+00 2.160645961761474609e+00 2.673744916915893555e+00
3.523000000000000000e+03 4.676554489135742188e+01 -1.543064498901367188e+01 -7.218480110168457031e-01 -5.449533835053443909e-02 -2.329030036926269531e-01 -5.519586801528930664e-01
3.524000000000000000e+03 4.143178558349609375e+01 -1.746034622192382812e+01 -4.111027717590332031e-01 -9.434939175844192505e-02 -1.516356468200683594e-01 -5.483183264732360840e-01
3.525000000000000000e+03 5.298519897460937500e+01 -1.716262626647949219e+01 -3.633831441402435303e-01 8.570815622806549072e-02 -8.330249786376953125e-02 -4.576585590839385986e-01
3.526000000000000000e+03 5.195548629760742188e+01 -1.530563354492187500e+01 -7.324427962303161621e-01 1.044774986803531647e-02 -2.165985107421875000e-01 -5.161628723144531250e-01
3.527000000000000000e+03 3.263809204101562500e+01 2.463870763778686523e+00 -5.388112068176269531e-01 -5.704670399427413940e-02 -1.787573844194412231e-01 5.786666274070739746e-01
3.528000000000000000e+03 3.922695159912109375e+01 -1.583663082122802734e+01 -5.542079210281372070e-01 -8.824481815099716187e-02 -1.927358210086822510e-01 -5.076592564582824707e-01
3.529000000000000000e+03 6.002555465698242188e+01 -1.450969791412353516e+01 -6.367402076721191406e-01 3.085967302322387695e-01 -9.844305366277694702e-02 -1.448015421628952026e-01
3.530000000000000000e+03 6.793899536132812500e+01 -1.360549259185791016e+01 -1.151322200894355774e-01 2.046228647232055664e+00 5.793289542198181152e-01 1.366216063499450684e+00
3.531000000000000000e+03 6.471678924560546875e+01 -1.514850234985351562e+01 -4.972309619188308716e-02 1.147665143013000488e+00 3.293826282024383545e-01 6.381262540817260742e-01
3.532000000000000000e+03 3.573906707763671875e+01 2.855707406997680664e+00 -6.168440580368041992e-01 -3.153570741415023804e-02 -1.945139318704605103e-01 6.144995689392089844e-01
3.533000000000000000e+03 5.811789703369140625e+01 -1.702175140380859375e+01 -1.766997575759887695e-01 3.712549209594726562e-01 5.836655199527740479e-02 -1.633969694375991821e-01
3.534000000000000000e+03 5.309534072875976562e+01 -1.490543651580810547e+01 -8.233129382133483887e-01 2.892687730491161346e-02 -2.383158057928085327e-01 -4.971902370452880859e-01
3.535000000000000000e+03 5.650392532348632812e+01 -1.701286888122558594e+01 -2.491183429956436157e-01 2.620144188404083252e-01 3.868819447234272957e-03 -2.822013497352600098e-01
3.536000000000000000e+03 5.683608245849609375e+01 3.075828552246093750e+00 -6.240773200988769531e-01 2.083860933780670166e-01 -1.247073709964752197e-01 2.580815553665161133e-01
3.537000000000000000e+03 5.546467590332031250e+01 -1.572356605529785156e+01 -5.967159271240234375e-01 1.048928052186965942e-01 -1.475469470024108887e-01 -4.052903354167938232e-01
3.538000000000000000e+03 3.882369613647460938e+01 1.904826164245605469e+00 -7.616549134254455566e-01 -1.410089805722236633e-02 -2.327267378568649292e-01 6.012538075447082520e-01
3.539000000000000000e+03 6.467005920410156250e+01 1.966138124465942383e+00 -2.227544188499450684e-01 1.053021550178527832e+00 2.490801364183425903e-01 -6.556968688964843750e-01
3.540000000000000000e+03 6.304256439208984375e+01 2.260407924652099609e+00 -3.357264697551727295e-01 7.516866922378540039e-01 1.247880682349205017e-01 -3.679789602756500244e-01
3.541000000000000000e+03 3.733014678955078125e+01 -1.764290237426757812e+01 -3.550524413585662842e-01 -1.083789765834808350e-01 -1.390294283628463745e-01 -5.126149058341979980e-01
3.542000000000000000e+03 4.894128799438476562e+01 3.592510223388671875e+00 -7.441255450248718262e-01 3.574179112911224365e-02 -2.125151157379150391e-01 5.633928775787353516e-01
3.543000000000000000e+03 5.942076873779296875e+01 2.271819829940795898e+00 -6.491878032684326172e-01 3.036299645900726318e-01 -1.036673560738563538e-01 1.067666113376617432e-01
3.544000000000000000e+03 5.767109298706054688e+01 3.138181924819946289e+00 -5.589086413383483887e-01 2.651477158069610596e-01 -8.812827616930007935e-02 1.951751410961151123e-01
3.545000000000000000e+03 7.165402221679687500e+01 -1.170354080200195312e+01 -5.209861397743225098e-01 5.251414775848388672e+00 1.419128537178039551e+00 2.882136583328247070e+00
3.546000000000000000e+03 5.232653427124023438e+01 2.256555318832397461e+00 -9.485117197036743164e-01 4.926646500825881958e-02 -2.697735726833343506e-01 4.942430853843688965e-01
3.547000000000000000e+03 5.059200668334960938e+01 3.025230407714843750e+00 -8.174952268600463867e-01 4.331052675843238831e-02 -2.322554141283035278e-01 5.246291160583496094e-01
3.548000000000000000e+03 4.327498245239257812e+01 2.848068714141845703e+00 -7.888329625129699707e-01 -2.511271275579929352e-03 -2.374032586812973022e-01 6.207100749015808105e-01
3.549000000000000000e+03 2.829687309265136719e+01 3.468301773071289062e+00 -3.888264000415802002e-01 -1.541850715875625610e-01 -1.629034429788589478e-01 5.564504265785217285e-01
3.550000000000000000e+03 5.311002731323242188e+01 2.232712984085083008e+00 -9.445815682411193848e-01 5.764148756861686707e-02 -2.660820186138153076e-01 4.688286781311035156e-01
3.551000000000000000e+03 5.140483093261718750e+01 3.207617759704589844e+00 -7.755762338638305664e-01 5.232911929488182068e-02 -2.169741243124008179e-01 5.026262402534484863e-01
3.552000000000000000e+03 4.397174835205078125e+01 3.343689680099487305e+00 -7.456195354461669922e-01 2.377105411142110825e-03 -2.229727357625961304e-01 6.261777281761169434e-01
3.553000000000000000e+03 4.179853057861328125e+01 1.787303566932678223e+00 -8.725215792655944824e-01 -1.010509114712476730e-02 -2.647880017757415771e-01 5.968819856643676758e-01
3.554000000000000000e+03 6.388742446899414062e+01 2.081770658493041992e+00 -2.776336669921875000e-01 8.890226483345031738e-01 1.834167093038558960e-01 -5.093652606010437012e-01
3.555000000000000000e+03 6.396897506713867188e+01 2.861756086349487305e+00 -1.146014183759689331e-01 1.049364805221557617e+00 2.804290354251861572e-01 -6.116599440574645996e-01
3.556000000000000000e+03 5.387853622436523438e+01 -1.519853973388671875e+01 -7.453761696815490723e-01 4.314409568905830383e-02 -2.106696218252182007e-01 -4.753562510013580322e-01
3.557000000000000000e+03 5.348020553588867188e+01 -1.614010429382324219e+01 -5.434027910232543945e-01 7.528875023126602173e-02 -1.404342055320739746e-01 -4.695648252964019775e-01
3.558000000000000000e+03 7.178052520751953125e+01 -1.269629669189453125e+01 -5.533535480499267578e-01 5.623811244964599609e+00 1.521137356758117676e+00 2.553574323654174805e+00
3.559000000000000000e+03 6.200691223144531250e+01 -1.473255252838134766e+01 -4.121121466159820557e-01 5.322292447090148926e-01 3.603513911366462708e-02 1.017024591565132141e-01
3.560000000000000000e+03 6.158124160766601562e+01 -1.538938236236572266e+01 -2.853353917598724365e-01 5.610145330429077148e-01 8.270373940467834473e-02 1.007599607110023499e-01
3.561000000000000000e+03 6.539720916748046875e+01 1.910129308700561523e+00 -1.519631743431091309e-01 1.255974411964416504e+00 3.312033712863922119e-01 -8.101961612701416016e-01
3.562000000000000000e+03 6.321442031860351562e+01 3.114759206771850586e+00 -1.206550449132919312e-01 9.502966403961181641e-01 2.488924860954284668e-01 -4.795605540275573730e-01
3.563000000000000000e+03 2.807060050964355469e+01 -1.670972442626953125e+01 -3.191361725330352783e-01 -7.882326096296310425e-02 -1.193878278136253357e-01 -3.853111267089843750e-01
3.564000000000000000e+03 3.236703872680664062e+01 -1.706539726257324219e+01 -3.516293764114379883e-01 -9.986276924610137939e-02 -1.354476362466812134e-01 -4.458853602409362793e-01
3.565000000000000000e+03 6.865450286865234375e+01 -1.356936073303222656e+01 -8.363292366266250610e-02 2.536416053771972656e+00 7.358349561691284180e-01 1.605727672576904297e+00
3.566000000000000000e+03 6.306814956665039062e+01 -1.585759830474853516e+01 -4.254011437296867371e-02 9.061035513877868652e-01 2.590690255165100098e-01 3.740697503089904785e-01
3.567000000000000000e+03 4.063954544067382812e+01 4.321372509002685547e+00 -6.071826219558715820e-01 -9.925303980708122253e-03 -1.851323843002319336e-01 6.535578966140747070e-01
3.568000000000000000e+03 6.396405410766601562e+01 -1.513010692596435547e+01 -1.247841641306877136e-01 9.453970193862915039e-01 2.461838573217391968e-01 4.778523147106170654e-01
3.569000000000000000e+03 6.869334411621093750e+01 3.839960396289825439e-01 -1.797684431076049805e-01 2.394887447357177734e+00 6.645357012748718262e-01 -1.658119797706604004e+00
3.570000000000000000e+03 7.158583068847656250e+01 -1.873945236206054688e+01 1.652589738368988037e-01 5.238196849822998047e+00 1.621036767959594727e+00 1.560035824775695801e+00
3.571000000000000000e+03 7.140592956542968750e+01 -1.781753540039062500e+01 1.291219890117645264e-01 5.240849018096923828e+00 1.610991358757019043e+00 1.621198058128356934e+00
3.572000000000000000e+03 6.560495758056640625e+01 -1.438402748107910156e+01 -1.394287496805191040e-01 1.247225522994995117e+00 3.323390185832977295e-01 7.516619563102722168e-01
3.573000000000000000e+03 6.735880279541015625e+01 1.765932440757751465e+00 -4.376375675201416016e-02 2.049156665802001953e+00 6.016179323196411133e-01 -1.291063308715820312e+00
3.574000000000000000e+03 5.922058486938476562e+01 -1.456997776031494141e+01 -6.977303028106689453e-01 2.342288345098495483e-01 -1.390504390001296997e-01 -2.219552397727966309e-01
3.575000000000000000e+03 2.843286132812500000e+01 -1.969191360473632812e+01 -1.810884326696395874e-01 -1.257282942533493042e-01 -9.204501658678054810e-02 -4.126500189304351807e-01
3.576000000000000000e+03 2.469772529602050781e+01 -1.640761756896972656e+01 -2.885918617248535156e-01 -6.881350278854370117e-02 -1.072216108441352844e-01 -3.299806416034698486e-01
3.577000000000000000e+03 4.621138381958007812e+01 3.028564691543579102e+00 -8.220564723014831543e-01 6.406306289136409760e-03 -2.446950525045394897e-01 6.007363796234130859e-01
3.578000000000000000e+03 4.781587600708007812e+01 2.138912439346313477e+00 -9.726096391677856445e-01 7.045448001008480787e-05 -2.917617559432983398e-01 5.742518305778503418e-01
3.579000000000000000e+03 6.784400177001953125e+01 -1.430054950714111328e+01 1.829033531248569489e-02 2.235666751861572266e+00 6.761870980262756348e-01 1.382616877555847168e+00
3.580000000000000000e+03 6.026135635375976562e+01 2.199722051620483398e+00 -6.049715876579284668e-01 3.619661331176757812e-01 -7.290164381265640259e-02 2.851248346269130707e-02
3.581000000000000000e+03 3.213508224487304688e+01 5.240136384963989258e-01 -5.703293681144714355e-01 -4.232054948806762695e-02 -1.837949752807617188e-01 5.018423199653625488e-01
3.582000000000000000e+03 3.344635391235351562e+01 1.062370896339416504e+00 -6.138944625854492188e-01 -3.500520437955856323e-02 -1.946699023246765137e-01 5.371903777122497559e-01
3.583000000000000000e+03 5.386240386962890625e+01 2.174311637878417969e+00 -9.398390054702758789e-01 7.482345402240753174e-02 -2.595046758651733398e-01 4.461615979671478271e-01
3.584000000000000000e+03 5.315019607543945312e+01 3.152996540069580078e+00 -7.448565959930419922e-01 9.399192035198211670e-02 -1.952594071626663208e-01 4.499019384384155273e-01
3.585000000000000000e+03 6.640382385253906250e+01 -1.677481842041015625e+01 2.896498739719390869e-01 2.150137901306152344e+00 7.319362759590148926e-01 1.093506336212158203e+00
3.586000000000000000e+03 5.808697128295898438e+01 -1.529229354858398438e+01 -5.500781536102294922e-01 2.396455407142639160e-01 -9.312979131937026978e-02 -2.610048353672027588e-01
3.587000000000000000e+03 4.581600570678710938e+01 -1.501375961303710938e+01 -7.698995471000671387e-01 -5.787746235728263855e-02 -2.483330965042114258e-01 -5.430988669395446777e-01
3.588000000000000000e+03 5.267147827148437500e+01 -1.573866271972656250e+01 -6.365191936492919922e-01 3.084951452910900116e-02 -1.817009001970291138e-01 -5.060716867446899414e-01
3.589000000000000000e+03 5.144766616821289062e+01 -1.602056884765625000e+01 -5.992762446403503418e-01 1.217227056622505188e-02 -1.761311888694763184e-01 -5.259711742401123047e-01
3.590000000000000000e+03 4.780097961425781250e+01 3.078339576721191406e+00 -8.215203881263732910e-01 1.551363337785005569e-02 -2.418020218610763550e-01 5.823331475257873535e-01
3.591000000000000000e+03 6.079500961303710938e+01 -1.521240234375000000e+01 -3.872032165527343750e-01 4.555529952049255371e-01 2.050493285059928894e-02 -5.446799099445343018e-03
3.592000000000000000e+03 7.268714141845703125e+01 -1.539838314056396484e+01 -3.489992320537567139e-01 6.517801284790039062e+00 1.850640654563903809e+00 1.826920270919799805e+00
3.593000000000000000e+03 5.900652694702148438e+01 -1.544118022918701172e+01 -4.609564840793609619e-01 3.052586019039154053e-01 -4.670936614274978638e-02 -1.812008917331695557e-01
3.594000000000000000e+03 7.181002807617187500e+01 3.322144269943237305e+00 -1.484202146530151367e-01 5.611404418945312500e+00 1.638895273208618164e+00 -1.897087693214416504e+00
3.595000000000000000e+03 7.051720428466796875e+01 5.852431774139404297e+00 2.173454612493515015e-01 4.623667240142822266e+00 1.452303886413574219e+00 -1.636512398719787598e+00
3.596000000000000000e+03 6.986438751220703125e+01 -1.643772506713867188e+01 1.570554673671722412e-01 4.051099777221679688e+00 1.262446641921997070e+00 1.717692613601684570e+00
3.597000000000000000e+03 2.679328727722167969e+01 3.771334886550903320e+00 -3.446435928344726562e-01 -2.054821401834487915e-01 -1.650377213954925537e-01 5.398259162902832031e-01
3.598000000000000000e+03 5.456546020507812500e+01 2.882515192031860352e+00 -7.695056796073913574e-01 1.169031336903572083e-01 -1.957807689905166626e-01 4.007166922092437744e-01
3.599000000000000000e+03 5.229152679443359375e+01 3.174829721450805664e+00 -7.541772127151489258e-01 7.610936462879180908e-02 -2.034203559160232544e-01 4.789663255214691162e-01
3.600000000000000000e+03 3.885728454589843750e+01 2.781059026718139648e+00 -7.049953937530517578e-01 -1.712880469858646393e-02 -2.166372537612915039e-01 6.186186075210571289e-01
3.601000000000000000e+03 6.124863052368164062e+01 2.896593332290649414e+00 -3.483580946922302246e-01 5.620785355567932129e-01 6.411613523960113525e-02 -1.566273868083953857e-01
3.602000000000000000e+03 5.853228759765625000e+01 3.200433254241943359e+00 -4.913441836833953857e-01 3.215507268905639648e-01 -5.093804001808166504e-02 1.129000112414360046e-01
3.603000000000000000e+03 7.116269683837890625e+01 -1.939453506469726562e+01 2.467714399099349976e-01 5.018147468566894531e+00 1.579475641250610352e+00 1.497558236122131348e+00
3.604000000000000000e+03 2.615456008911132812e+01 1.497955608367919922e+01 -2.886457741260528564e-01 -3.516189455986022949e-01 -1.920794099569320679e-01 4.910435676574707031e-01
3.605000000000000000e+03 3.387025451660156250e+01 2.644447803497314453e+00 -5.684730410575866699e-01 -4.653403162956237793e-02 -1.845021098852157593e-01 5.952386260032653809e-01
3.606000000000000000e+03 3.213990402221679688e+01 1.849015474319458008e+00 -5.388669967651367188e-01 -5.702811107039451599e-02 -1.787685304880142212e-01 5.539616346359252930e-01
3.607000000000000000e+03 6.966304779052734375e+01 6.512273311614990234e+00 3.073532581329345703e-01 4.195675373077392578e+00 1.350908517837524414e+00 -1.547963500022888184e+00
3.608000000000000000e+03 6.980410766601562500e+01 -1.923841094970703125e+01 3.360671997070312500e-01 4.282250881195068359e+00 1.385495305061340332e+00 1.494281768798828125e+00
3.609000000000000000e+03 2.768015289306640625e+01 7.010173797607421875e+00 -3.740340471267700195e-01 -2.219433039426803589e-01 -1.787932068109512329e-01 6.163119077682495117e-01
3.610000000000000000e+03 2.876603698730468750e+01 9.027420997619628906e+00 -3.596177399158477783e-01 -2.041728198528289795e-01 -1.691371649503707886e-01 6.282144188880920410e-01
3.611000000000000000e+03 2.782489776611328125e+01 4.344157218933105469e+00 -3.733128905296325684e-01 -1.845445930957794189e-01 -1.673572510480880737e-01 5.727012753486633301e-01
3.612000000000000000e+03 2.628167915344238281e+01 1.090673255920410156e+01 -3.739859759807586670e-01 -3.146936297416687012e-01 -2.066038846969604492e-01 5.842304825782775879e-01
3.613000000000000000e+03 6.395062255859375000e+01 1.090590572357177734e+01 5.942760705947875977e-01 2.267047405242919922e+00 8.583970665931701660e-01 -8.852389454841613770e-01
3.614000000000000000e+03 6.663511657714843750e+01 -2.214275550842285156e+01 6.251177191734313965e-01 3.012550354003906250e+00 1.091300368309020996e+00 1.059444785118103027e+00
3.615000000000000000e+03 6.992763519287109375e+01 7.726630687713623047e+00 3.449997007846832275e-01 4.386333942413330078e+00 1.419399976730346680e+00 -1.506532669067382812e+00
3.616000000000000000e+03 6.506754302978515625e+01 -2.338699913024902344e+01 6.999078392982482910e-01 2.571802377700805664e+00 9.815130233764648438e-01 8.667667508125305176e-01
3.617000000000000000e+03 6.853369903564453125e+01 -2.021568107604980469e+01 4.845718443393707275e-01 3.656494140625000000e+00 1.242319822311401367e+00 1.319111466407775879e+00
3.618000000000000000e+03 6.814655303955078125e+01 -2.124842071533203125e+01 5.383816361427307129e-01 3.585598707199096680e+00 1.237194061279296875e+00 1.235567092895507812e+00
3.619000000000000000e+03 6.486657714843750000e+01 -2.668812751770019531e+01 7.585926055908203125e-01 2.781266927719116211e+00 1.061957955360412598e+00 7.581983208656311035e-01
3.620000000000000000e+03 6.845800781250000000e+01 1.007903861999511719e+01 4.851684272289276123e-01 3.787858009338378906e+00 1.281907916069030762e+00 -1.328550934791564941e+00
3.621000000000000000e+03 6.866786956787109375e+01 8.898054122924804688e+00 4.577650725841522217e-01 3.821726799011230469e+00 1.283847570419311523e+00 -1.386484742164611816e+00
3.622000000000000000e+03 3.132063674926757812e+01 -1.635129356384277344e+01 -3.744658827781677246e-01 -8.708132803440093994e-02 -1.384641677141189575e-01 -4.233790636062622070e-01
3.623000000000000000e+03 1.386135673522949219e+01 -2.829224205017089844e+01 6.242414563894271851e-02 -2.745926976203918457e-01 -6.365056335926055908e-02 -1.941228806972503662e-01
3.624000000000000000e+03 2.321892166137695312e+01 -2.296014976501464844e+01 -4.392413049936294556e-02 -1.837204396724700928e-01 -6.829337030649185181e-02 -3.217509090900421143e-01
3.625000000000000000e+03 2.322712516784667969e+01 -2.123891067504882812e+01 -1.158330067992210388e-01 -1.529849022626876831e-01 -8.064537495374679565e-02 -3.247330188751220703e-01
3.626000000000000000e+03 2.705965805053710938e+01 -1.658336257934570312e+01 -3.101514875888824463e-01 -7.520047575235366821e-02 -1.156055927276611328e-01 -3.720429837703704834e-01
3.627000000000000000e+03 6.639948272705078125e+01 2.053077888488769531e+01 5.060705542564392090e-01 3.502895593643188477e+00 1.202689886093139648e+00 -8.122524619102478027e-01
3.628000000000000000e+03 6.841134643554687500e+01 1.589332389831542969e+01 4.862473309040069580e-01 3.983999252319335938e+00 1.341073989868164062e+00 -1.035973668098449707e+00
3.629000000000000000e+03 6.736195373535156250e+01 1.512798881530761719e+01 5.410070419311523438e-01 3.630476713180541992e+00 1.251445174217224121e+00 -1.052034258842468262e+00
3.630000000000000000e+03 2.496219444274902344e+01 1.834404754638671875e+01 -1.735409945249557495e-01 -4.418838024139404297e-01 -1.846274435520172119e-01 3.824479281902313232e-01
3.631000000000000000e+03 6.826216888427734375e+01 3.295165634155273438e+01 2.772263288497924805e-01 3.917022943496704102e+00 1.258274793624877930e+00 -3.134913444519042969e-01
3.632000000000000000e+03 2.427465629577636719e+01 2.104123115539550781e+01 -4.732521623373031616e-02 -5.039169788360595703e-01 -1.653726547956466675e-01 3.149387836456298828e-01
3.633000000000000000e+03 2.057870674133300781e+01 2.384897041320800781e+01 5.478677153587341309e-02 -6.663408875465393066e-01 -1.834662407636642456e-01 2.797820866107940674e-01
3.634000000000000000e+03 1.683003425598144531e+01 2.792255592346191406e+01 1.860017329454421997e-01 -6.917362213134765625e-01 -1.517203450202941895e-01 2.890404760837554932e-01
3.635000000000000000e+03 6.915444183349609375e+01 2.422884368896484375e+01 3.329226374626159668e-01 4.192739963531494141e+00 1.357698798179626465e+00 -6.683579087257385254e-01
3.636000000000000000e+03 2.318172264099121094e+01 -1.729271507263183594e+01 -2.526734769344329834e-01 -8.316332846879959106e-02 -1.007510423660278320e-01 -3.186575472354888916e-01
3.637000000000000000e+03 7.286271667480468750e+01 -1.072868633270263672e+01 -1.074070453643798828e+00 7.716867446899414062e+00 1.992839217185974121e+00 3.454566001892089844e+00
3.638000000000000000e+03 7.346025085449218750e+01 -2.379733324050903320e+00 -1.506574511528015137e+00 9.457864761352539062e+00 2.385387182235717773e+00 -3.428222417831420898e+00
3.639000000000000000e+03 7.339308929443359375e+01 -1.267571830749511719e+01 -1.106135368347167969e+00 7.974388122558593750e+00 2.060475826263427734e+00 2.281557798385620117e+00
3.640000000000000000e+03 7.354047393798828125e+01 6.205689907073974609e-01 -9.679508805274963379e-01 7.888092517852783203e+00 2.076042413711547852e+00 -2.043799400329589844e+00
3.641000000000000000e+03 7.255594635009765625e+01 -1.208189868927001953e+01 -8.777892589569091797e-01 6.887302398681640625e+00 1.802853941917419434e+00 2.760740518569946289e+00
3.642000000000000000e+03 7.128964233398437500e+01 -1.200712490081787109e+01 -4.173392951488494873e-01 4.768198966979980469e+00 1.305257916450500488e+00 2.666467905044555664e+00
3.643000000000000000e+03 7.347913360595703125e+01 -1.114496231079101562e+00 -1.400061964988708496e+00 8.753960609436035156e+00 2.206169605255126953e+00 -2.631937980651855469e+00
3.644000000000000000e+03 7.199064636230468750e+01 -2.277984142303466797e+00 -5.972574949264526367e-01 5.443750858306884766e+00 1.453948020935058594e+00 -3.413337707519531250e+00
3.645000000000000000e+03 7.292400360107421875e+01 7.362206578254699707e-01 -7.879326343536376953e-01 7.086115360260009766e+00 1.889454841613769531e+00 -2.231198310852050781e+00
3.646000000000000000e+03 7.206243896484375000e+01 -9.135640263557434082e-01 -7.098400592803955078e-01 6.013511657714843750e+00 1.591101527214050293e+00 -2.892158269882202148e+00
3.647000000000000000e+03 7.204330444335937500e+01 -1.647875547409057617e+00 -6.873847246170043945e-01 5.938431739807128906e+00 1.575314164161682129e+00 -3.199604034423828125e+00
3.648000000000000000e+03 7.178162384033203125e+01 -1.337229919433593750e+01 -4.778560996055603027e-01 5.654594898223876953e+00 1.553021550178527832e+00 2.362958669662475586e+00
3.649000000000000000e+03 7.246840667724609375e+01 -1.435999107360839844e+01 -5.100984573364257812e-01 6.453675746917724609e+00 1.783073186874389648e+00 2.057221412658691406e+00
3.650000000000000000e+03 7.099075317382812500e+01 -1.147333145141601562e+00 -3.923219144344329834e-01 4.185199737548828125e+00 1.137863397598266602e+00 -2.670281887054443359e+00
3.651000000000000000e+03 3.121654891967773438e+01 3.366216421127319336e+00 -4.728597402572631836e-01 -8.893036842346191406e-02 -1.685370355844497681e-01 5.934536457061767578e-01
3.652000000000000000e+03 3.544650650024414062e+01 4.846532344818115234e+00 -5.081149339675903320e-01 -4.445045068860054016e-02 -1.657696068286895752e-01 6.523364782333374023e-01
3.653000000000000000e+03 7.109634399414062500e+01 -1.267753601074218750e+01 -3.637916445732116699e-01 4.619426250457763672e+00 1.276690363883972168e+00 2.445619583129882812e+00
3.654000000000000000e+03 6.238396453857421875e+01 3.541067123413085938e+00 -1.002078130841255188e-01 8.410621285438537598e-01 2.222562879323959351e-01 -3.803424835205078125e-01
3.655000000000000000e+03 6.215377807617187500e+01 2.575019359588623047e+00 -3.562496900558471680e-01 6.453723907470703125e-01 8.673680573701858521e-02 -2.464572489261627197e-01
3.656000000000000000e+03 7.211245727539062500e+01 -1.501403808593750000e+01 -3.104746341705322266e-01 6.026025295257568359e+00 1.714665174484252930e+00 1.963093638420104980e+00
3.657000000000000000e+03 6.988095092773437500e+01 -1.397846984863281250e+01 -8.348777890205383301e-02 3.647459506988525391e+00 1.069191455841064453e+00 1.988502740859985352e+00
3.658000000000000000e+03 5.469910430908203125e+01 -1.545560169219970703e+01 -6.651840806007385254e-01 7.501152902841567993e-02 -1.770517528057098389e-01 -4.418122470378875732e-01
3.659000000000000000e+03 7.267024993896484375e+01 -1.379159259796142578e+01 -6.631587743759155273e-01 6.758586883544921875e+00 1.828628420829772949e+00 2.181902647018432617e+00
3.660000000000000000e+03 7.285114288330078125e+01 -1.329708003997802734e+01 -8.098875880241394043e-01 7.058343410491943359e+00 1.874536752700805664e+00 2.273215532302856445e+00
3.661000000000000000e+03 7.298450469970703125e+01 -1.185524368286132812e+01 -1.089697718620300293e+00 7.683729648590087891e+00 1.978209495544433594e+00 2.752705335617065430e+00
3.662000000000000000e+03 3.329829788208007812e+01 2.031798601150512695e+00 -5.738328099250793457e-01 -4.627987369894981384e-02 -1.860338151454925537e-01 5.719267725944519043e-01
3.663000000000000000e+03 3.501346206665039062e+01 2.660935401916503906e+00 -6.005848050117492676e-01 -3.406243026256561279e-02 -1.903941631317138672e-01 6.077445745468139648e-01
3.664000000000000000e+03 7.151703643798828125e+01 -1.235544300079345703e+01 -4.835335910320281982e-01 5.160700321197509766e+00 1.403149962425231934e+00 2.632194042205810547e+00
3.665000000000000000e+03 7.199064636230468750e+01 -1.138414573669433594e+01 -6.602841615676879883e-01 5.831616878509521484e+00 1.551399827003479004e+00 3.094299554824829102e+00
3.666000000000000000e+03 5.668943405151367188e+01 3.914605379104614258e+00 -4.622644484043121338e-01 2.588856518268585205e-01 -6.101364642381668091e-02 2.220311611890792847e-01
3.667000000000000000e+03 5.486304092407226562e+01 4.581466674804687500e+00 -4.085640013217926025e-01 2.286749780178070068e-01 -5.396670848131179810e-02 3.159093856811523438e-01
3.668000000000000000e+03 5.743632507324218750e+01 -1.621269226074218750e+01 -3.775524795055389404e-01 2.576878964900970459e-01 -3.595937788486480713e-02 -2.542826533317565918e-01
3.669000000000000000e+03 3.668935012817382812e+01 3.844471216201782227e+00 -5.824890732765197754e-01 -2.932996861636638641e-02 -1.835457086563110352e-01 6.413016319274902344e-01
3.670000000000000000e+03 3.557083511352539062e+01 3.760795831680297852e+00 -5.636632442474365234e-01 -3.777519986033439636e-02 -1.804315298795700073e-01 6.373302340507507324e-01
3.671000000000000000e+03 6.202410125732421875e+01 -1.646800041198730469e+01 -1.514404825866222382e-02 7.873100042343139648e-01 2.316498011350631714e-01 2.622143328189849854e-01
3.672000000000000000e+03 4.931018829345703125e+01 4.177666187286376953e+00 -6.269885897636413574e-01 6.092901155352592468e-02 -1.698178797960281372e-01 5.491386651992797852e-01
3.673000000000000000e+03 5.752601623535156250e+01 3.999889612197875977e+00 -3.869874775409698486e-01 3.195728063583374023e-01 -2.022439613938331604e-02 1.487034559249877930e-01
3.674000000000000000e+03 5.047066497802734375e+01 4.570242404937744141e+00 -5.638349652290344238e-01 7.948619127273559570e-02 -1.453046351671218872e-01 5.123049020767211914e-01
3.675000000000000000e+03 4.315849304199218750e+01 4.226006507873535156e+00 -6.387531161308288574e-01 6.475380621850490570e-03 -1.896833181381225586e-01 6.428312659263610840e-01
3.676000000000000000e+03 4.259283447265625000e+01 3.516914844512939453e+00 -7.102718949317932129e-01 -2.452928805723786354e-03 -2.138174474239349365e-01 6.384370326995849609e-01
3.677000000000000000e+03 6.970219421386718750e+01 1.228706002235412598e+00 -9.166013449430465698e-02 3.510296583175659180e+00 1.025591015815734863e+00 -1.951375842094421387e+00
3.678000000000000000e+03 7.161777496337890625e+01 1.711075782775878906e+00 -3.287649750709533691e-01 5.423476696014404297e+00 1.528413534164428711e+00 -2.170251846313476562e+00
3.679000000000000000e+03 6.633128356933593750e+01 -1.460901260375976562e+01 -3.074873425066471100e-02 1.602411389350891113e+00 4.714987874031066895e-01 9.574115276336669922e-01
3.680000000000000000e+03 6.767514801025390625e+01 -1.503552627563476562e+01 1.021335795521736145e-01 2.348057985305786133e+00 7.350574135780334473e-01 1.334965944290161133e+00
3.681000000000000000e+03 4.171155929565429688e+01 4.021542072296142578e+00 -6.488879919052124023e-01 -3.362955292686820030e-03 -1.956752836704254150e-01 6.480412483215332031e-01
3.682000000000000000e+03 4.214619445800781250e+01 2.871476173400878906e+00 -7.678201794624328613e-01 -5.709814839065074921e-03 -2.320590019226074219e-01 6.240675449371337891e-01
3.683000000000000000e+03 7.060851287841796875e+01 -7.086802721023559570e-01 -3.049267232418060303e-01 3.840849637985229492e+00 1.060776948928833008e+00 -2.431054592132568359e+00
3.684000000000000000e+03 4.546411132812500000e+01 3.246341705322265625e+00 -7.780308127403259277e-01 7.754077669233083725e-03 -2.310830205678939819e-01 6.092425584793090820e-01
3.685000000000000000e+03 4.862619400024414062e+01 2.911650896072387695e+00 -8.496849536895751953e-01 1.596607826650142670e-02 -2.501156628131866455e-01 5.704496502876281738e-01
3.686000000000000000e+03 6.888676452636718750e+01 3.036788463592529297e+00 1.095564439892768860e-01 3.230240583419799805e+00 1.001939177513122559e+00 -1.674682617187500000e+00
3.687000000000000000e+03 6.530301666259765625e+01 3.566920757293701172e+00 1.004128232598304749e-01 1.611638665199279785e+00 5.136154294013977051e-01 -9.233030676841735840e-01
3.688000000000000000e+03 4.621506500244140625e+01 2.221942663192749023e+00 -9.230065941810607910e-01 6.345118745230138302e-04 -2.767116129398345947e-01 5.930774807929992676e-01
3.689000000000000000e+03 6.538067626953125000e+01 2.734024047851562500e+00 -1.363542675971984863e-02 1.431647539138793945e+00 4.254036545753479004e-01 -8.781775832176208496e-01
3.690000000000000000e+03 6.285795974731445312e+01 -1.670510101318359375e+01 9.932034462690353394e-02 9.965341687202453613e-01 3.287563621997833252e-01 4.090061485767364502e-01
3.691000000000000000e+03 5.390477371215820312e+01 2.999536514282226562e+00 -7.572438120841979980e-01 1.053944677114486694e-01 -1.955548077821731567e-01 4.253319203853607178e-01
3.692000000000000000e+03 5.006731033325195312e+01 3.754137277603149414e+00 -6.976576447486877441e-01 5.189510434865951538e-02 -1.937287598848342896e-01 5.305404067039489746e-01
3.693000000000000000e+03 6.546788024902343750e+01 -1.588181209564208984e+01 1.439400166273117065e-01 1.552069425582885742e+00 5.088028311729431152e-01 8.509977459907531738e-01
3.694000000000000000e+03 5.941804122924804688e+01 3.189913988113403320e+00 -4.318320453166961670e-01 3.805038928985595703e-01 -1.539843901991844177e-02 3.861252218484878540e-02
3.695000000000000000e+03 5.842979431152343750e+01 4.185647487640380859e+00 -2.907078266143798828e-01 4.063469767570495605e-01 3.469174727797508240e-02 5.936283990740776062e-02
3.696000000000000000e+03 6.033188247680664062e+01 3.080017089843750000e+00 -3.792241215705871582e-01 4.862960577011108398e-01 3.212158009409904480e-02 -5.561611801385879517e-02
3.697000000000000000e+03 7.134254455566406250e+01 -7.988710999488830566e-01 -4.607726037502288818e-01 4.854638576507568359e+00 1.318159699440002441e+00 -2.711369037628173828e+00
3.698000000000000000e+03 7.135008239746093750e+01 -4.930408671498298645e-03 -4.363833367824554443e-01 5.019302845001220703e+00 1.374875783920288086e+00 -2.495661258697509766e+00
3.699000000000000000e+03 5.436581039428710938e+01 -1.645270729064941406e+01 -4.657543003559112549e-01 1.050418689846992493e-01 -1.082137301564216614e-01 -4.238771498203277588e-01
3.700000000000000000e+03 6.680703735351562500e+01 2.760915756225585938e+00 7.586867362260818481e-02 2.037924289703369141e+00 6.341379284858703613e-01 -1.214861154556274414e+00
3.701000000000000000e+03 7.133095550537109375e+01 2.365120887756347656e+00 -2.029701322317123413e-01 5.161725044250488281e+00 1.487626552581787109e+00 -2.038681507110595703e+00
3.702000000000000000e+03 6.904257965087890625e+01 5.532256603240966797e+00 2.859484851360321045e-01 3.748248577117919922e+00 1.210259199142456055e+00 -1.590020418167114258e+00
3.703000000000000000e+03 7.112434387207031250e+01 4.973414897918701172e+00 9.020940959453582764e-02 5.030518531799316406e+00 1.536218404769897461e+00 -1.732848286628723145e+00
3.704000000000000000e+03 2.844595718383789062e+01 5.716112136840820312e+00 -3.850185573101043701e-01 -1.793556809425354004e-01 -1.693122684955596924e-01 6.072507500648498535e-01
3.705000000000000000e+03 2.777161216735839844e+01 6.103583812713623047e+00 -3.736917376518249512e-01 -2.051008194684982300e-01 -1.736377626657485962e-01 6.097405552864074707e-01
3.706000000000000000e+03 6.835801696777343750e+01 -1.507517051696777344e+01 1.013947501778602600e-01 2.789067029953002930e+00 8.671385645866394043e-01 1.526277780532836914e+00
3.707000000000000000e+03 5.309508514404296875e+01 4.122115612030029297e+00 -5.705638527870178223e-01 1.330969035625457764e-01 -1.312400847673416138e-01 4.218859672546386719e-01
3.708000000000000000e+03 6.873594665527343750e+01 -1.912580871582031250e+01 4.218164980411529541e-01 3.672618389129638672e+00 1.228330492973327637e+00 1.393470406532287598e+00
3.709000000000000000e+03 6.699205780029296875e+01 -1.490858554840087891e+01 7.814395427703857422e-02 1.974260091781616211e+00 6.157212257385253906e-01 1.179256319999694824e+00
3.710000000000000000e+03 6.088033676147460938e+01 -1.695969200134277344e+01 -1.526811975054442883e-03 6.743315458297729492e-01 2.018414139747619629e-01 1.379152387380599976e-01
3.711000000000000000e+03 5.527083206176757812e+01 2.959462642669677734e+00 -7.360861897468566895e-01 1.395142376422882080e-01 -1.789715886116027832e-01 3.586610853672027588e-01
3.712000000000000000e+03 5.395942687988281250e+01 4.371837615966796875e+00 -4.971378743648529053e-01 1.688083112239837646e-01 -9.849887341260910034e-02 3.786892294883728027e-01
3.713000000000000000e+03 7.086007690429687500e+01 -1.690807533264160156e+01 7.652503252029418945e-02 4.838733196258544922e+00 1.474577546119689941e+00 1.730025529861450195e+00
3.714000000000000000e+03 6.674417114257812500e+01 1.844038009643554688e+00 -5.109514296054840088e-02 1.757865667343139648e+00 5.120311379432678223e-01 -1.139506936073303223e+00
3.715000000000000000e+03 7.070386505126953125e+01 2.079769372940063477e+00 -1.449331939220428467e-01 4.538416385650634766e+00 1.318044900894165039e+00 -2.046951055526733398e+00
3.716000000000000000e+03 3.784535980224609375e+01 -1.656417655944824219e+01 -4.578931033611297607e-01 -9.371365606784820557e-02 -1.654820293188095093e-01 -5.082374811172485352e-01
3.717000000000000000e+03 4.035642242431640625e+01 -1.597022342681884766e+01 -5.685960650444030762e-01 -8.581776916980743408e-02 -1.963241547346115112e-01 -5.235441923141479492e-01
3.718000000000000000e+03 6.846324157714843750e+01 1.024470567703247070e+00 -1.041096970438957214e-01 2.464986801147460938e+00 7.082631587982177734e-01 -1.611933827400207520e+00
3.719000000000000000e+03 6.970717620849609375e+01 1.876832544803619385e-01 -2.054656445980072021e-01 3.139267444610595703e+00 8.801405429840087891e-01 -2.010122776031494141e+00
3.720000000000000000e+03 5.994033813476562500e+01 -1.600990104675292969e+01 -2.647225558757781982e-01 4.368622899055480957e-01 5.164191871881484985e-02 -4.920198395848274231e-02
3.721000000000000000e+03 3.323404312133789062e+01 3.111251115798950195e+00 -5.380654931068420410e-01 -5.665463581681251526e-02 -1.784160286188125610e-01 6.026565432548522949e-01
3.722000000000000000e+03 6.258957672119140625e+01 -1.763316345214843750e+01 2.281561791896820068e-01 1.079403877258300781e+00 3.922680020332336426e-01 4.337669909000396729e-01
3.723000000000000000e+03 6.900567626953125000e+01 -1.815231704711914062e+01 3.383677005767822266e-01 3.695832252502441406e+00 1.210260033607482910e+00 1.500106453895568848e+00
3.724000000000000000e+03 5.909505844116210938e+01 -1.636048507690429688e+01 -2.540208399295806885e-01 3.909785151481628418e-01 4.108730331063270569e-02 -1.141023188829421997e-01
3.725000000000000000e+03 7.003386688232421875e+01 -1.764440345764160156e+01 2.334506958723068237e-01 4.269991874694824219e+00 1.351032853126525879e+00 1.636848807334899902e+00
3.726000000000000000e+03 6.827926635742187500e+01 -1.576715850830078125e+01 2.104338109493255615e-01 2.913861274719238281e+00 9.372885227203369141e-01 1.500108838081359863e+00
3.727000000000000000e+03 6.749935150146484375e+01 8.698683738708496094e+00 4.926423430442810059e-01 3.243827581405639648e+00 1.120940923690795898e+00 -1.282129049301147461e+00
3.728000000000000000e+03 5.142004013061523438e+01 4.236146450042724609e+00 -6.046623587608337402e-01 8.745525777339935303e-02 -1.551621258258819580e-01 4.868921339511871338e-01
3.729000000000000000e+03 2.684043502807617188e+01 -1.795812225341796875e+01 -2.502150535583496094e-01 -9.654925018548965454e-02 -1.040292903780937195e-01 -3.770373463630676270e-01
3.730000000000000000e+03 3.958405303955078125e+01 4.422519207000732422e+00 -5.872557759284973145e-01 -1.072175614535808563e-02 -1.793932616710662842e-01 6.568275690078735352e-01
3.731000000000000000e+03 4.089324569702148438e+01 2.347664833068847656e+00 -7.959315180778503418e-01 -1.299692224711179733e-02 -2.426785230636596680e-01 6.120673418045043945e-01
3.732000000000000000e+03 5.077297973632812500e+01 -1.562819385528564453e+01 -6.887292861938476562e-01 -2.318651182577013969e-03 -2.073143720626831055e-01 -5.340695977210998535e-01
3.733000000000000000e+03 4.388185119628906250e+01 -1.609380531311035156e+01 -5.919926762580871582e-01 -6.825551390647888184e-02 -1.980744451284408569e-01 -5.525357723236083984e-01
3.734000000000000000e+03 3.058128356933593750e+01 -1.724583244323730469e+01 -3.193636238574981689e-01 -9.669614583253860474e-02 -1.248179301619529724e-01 -4.257221519947052002e-01
3.735000000000000000e+03 3.970986175537109375e+01 2.901190280914306641e+00 -7.153618335723876953e-01 -1.400517951697111130e-02 -2.188100963830947876e-01 6.274111270904541016e-01
3.736000000000000000e+03 6.466992187500000000e+01 -1.596784210205078125e+01 1.055316627025604248e-01 1.309217333793640137e+00 4.244247078895568848e-01 6.929240226745605469e-01
3.737000000000000000e+03 2.505355453491210938e+01 -1.973957633972167969e+01 -1.691661328077316284e-01 -1.253627091646194458e-01 -8.835865557193756104e-02 -3.553195893764495850e-01
3.738000000000000000e+03 2.977307319641113281e+01 3.202581167221069336e+00 -4.367190897464752197e-01 -1.127577945590019226e-01 -1.648430675268173218e-01 5.673337578773498535e-01
3.739000000000000000e+03 6.875543212890625000e+01 6.813783168792724609e+00 3.774321973323822021e-01 3.701689243316650391e+00 1.223736405372619629e+00 -1.484283328056335449e+00
3.740000000000000000e+03 6.352774810791015625e+01 1.260801601409912109e+01 6.297103166580200195e-01 2.304508686065673828e+00 8.802657127380371094e-01 -8.420005440711975098e-01
3.741000000000000000e+03 6.689263916015625000e+01 -2.094714927673339844e+01 5.832528471946716309e-01 2.964894533157348633e+00 1.064444184303283691e+00 1.127529621124267578e+00
3.742000000000000000e+03 5.588599777221679688e+01 3.863218069076538086e+00 -5.113391280174255371e-01 2.168084830045700073e-01 -8.835919201374053955e-02 2.774105072021484375e-01
3.743000000000000000e+03 6.746401214599609375e+01 1.268321228027343750e+01 5.431451201438903809e-01 3.574019432067871094e+00 1.235149264335632324e+00 -1.141453862190246582e+00
3.744000000000000000e+03 4.783580398559570312e+01 -1.536464977264404297e+01 -7.399565577507019043e-01 -4.768725857138633728e-02 -2.362931370735168457e-01 -5.521759986877441406e-01
3.745000000000000000e+03 2.839942932128906250e+01 1.585118103027343750e+01 -1.958405226469039917e-01 -2.695122659206390381e-01 -1.396058350801467896e-01 4.863238036632537842e-01
3.746000000000000000e+03 2.724434471130371094e+01 2.170553016662597656e+01 5.163357779383659363e-02 -3.589001595973968506e-01 -9.217997640371322632e-02 3.247882127761840820e-01
3.747000000000000000e+03 4.703442382812500000e+01 2.174196243286132812e+00 -9.509796500205993652e-01 1.880232593975961208e-03 -2.847298383712768555e-01 5.852783918380737305e-01
3.748000000000000000e+03 4.678319549560546875e+01 4.023733139038085938e+00 -6.797038912773132324e-01 2.050745859742164612e-02 -1.977589279413223267e-01 5.985714197158813477e-01
3.749000000000000000e+03 2.743578529357910156e+01 1.060339641571044922e+01 -3.564813137054443359e-01 -2.629046440124511719e-01 -1.858157813549041748e-01 6.006484627723693848e-01
3.750000000000000000e+03 2.650699234008789062e+01 1.199781799316406250e+01 -3.536763787269592285e-01 -3.142394423484802246e-01 -2.003747522830963135e-01 5.706782937049865723e-01
3.751000000000000000e+03 3.367627334594726562e+01 -1.752101707458496094e+01 -3.268939256668090820e-01 -1.080742701888084412e-01 -1.304904669523239136e-01 -4.669208228588104248e-01
3.752000000000000000e+03 6.386319351196289062e+01 -1.595333003997802734e+01 3.909734636545181274e-02 1.087830901145935059e+00 3.380784690380096436e-01 5.403763651847839355e-01
3.753000000000000000e+03 4.543614959716796875e+01 -1.695184516906738281e+01 -4.969789385795593262e-01 -6.158028170466423035e-02 -1.675677746534347534e-01 -5.582147240638732910e-01
3.754000000000000000e+03 4.971018600463867188e+01 -1.702970504760742188e+01 -4.641221165657043457e-01 -5.488599650561809540e-03 -1.408832222223281860e-01 -5.348387956619262695e-01
3.755000000000000000e+03 4.920285797119140625e+01 -1.592306041717529297e+01 -6.468013525009155273e-01 -3.373222425580024719e-02 -2.041600644588470459e-01 -5.491179823875427246e-01
3.756000000000000000e+03 5.226353454589843750e+01 -1.821600723266601562e+01 -2.165748327970504761e-01 8.085349202156066895e-02 -4.071640223264694214e-02 -4.498937726020812988e-01
3.757000000000000000e+03 3.895602416992187500e+01 -1.702616310119628906e+01 -4.411887824535369873e-01 -1.000495329499244690e-01 -1.623715013265609741e-01 -5.247156023979187012e-01
3.758000000000000000e+03 2.903688049316406250e+01 -1.656925010681152344e+01 -3.374837338924407959e-01 -8.128276467323303223e-02 -1.256299465894699097e-01 -3.934135735034942627e-01
3.759000000000000000e+03 2.532338905334472656e+01 1.221480178833007812e+01 -3.737454712390899658e-01 -3.690808415412902832e-01 -2.228478938341140747e-01 5.544434189796447754e-01
3.760000000000000000e+03 2.566559410095214844e+01 1.351425743103027344e+01 -3.412067592144012451e-01 -3.672147393226623535e-01 -2.125264555215835571e-01 5.274408459663391113e-01
3.761000000000000000e+03 6.297945022583007812e+01 -2.666287803649902344e+01 7.981646060943603516e-01 2.267467260360717773e+00 9.196895956993103027e-01 6.176542639732360840e-01
3.762000000000000000e+03 6.498374176025390625e+01 -2.863441848754882812e+01 7.651793360710144043e-01 2.945865392684936523e+00 1.113313436508178711e+00 7.024402618408203125e-01
3.763000000000000000e+03 3.362170410156250000e+01 -1.886682510375976562e+01 -2.439400255680084229e-01 -1.237921714782714844e-01 -1.103196591138839722e-01 -4.756324589252471924e-01
3.764000000000000000e+03 6.265536880493164062e+01 1.467433643341064453e+01 6.534777283668518066e-01 2.282842874526977539e+00 8.808962106704711914e-01 -7.578369379043579102e-01
3.765000000000000000e+03 6.502311706542968750e+01 1.527789497375488281e+01 6.138866543769836426e-01 2.948254346847534180e+00 1.068642377853393555e+00 -9.132310748100280762e-01
3.766000000000000000e+03 2.900537300109863281e+01 7.571753501892089844e+00 -3.779391646385192871e-01 -1.850147545337677002e-01 -1.688861697912216187e-01 6.314743161201477051e-01
3.767000000000000000e+03 6.642346954345703125e+01 1.401290130615234375e+01 5.757257342338562012e-01 3.307563781738281250e+00 1.164986848831176758e+00 -1.049798130989074707e+00
3.768000000000000000e+03 1.782446289062500000e+01 2.907182693481445312e+01 2.358992099761962891e-01 -6.609411835670471191e-01 -1.275125890970230103e-01 2.563321292400360107e-01
3.769000000000000000e+03 1.463116359710693359e+01 2.773686790466308594e+01 1.503456383943557739e-01 -6.928194165229797363e-01 -1.627421379089355469e-01 3.236240744590759277e-01
3.770000000000000000e+03 2.114011955261230469e+01 2.803086090087890625e+01 2.380742877721786499e-01 -6.048374772071838379e-01 -1.100289449095726013e-01 2.379880100488662720e-01
3.771000000000000000e+03 1.725790977478027344e+01 2.644584465026855469e+01 1.525604873895645142e-01 -7.065527439117431641e-01 -1.661976873874664307e-01 2.987313270568847656e-01
3.772000000000000000e+03 6.621697235107421875e+01 -3.335047149658203125e+01 6.643514037132263184e-01 3.530832767486572266e+00 1.258555293083190918e+00 4.980243444442749023e-01
3.773000000000000000e+03 1.883061408996582031e+01 2.613595771789550781e+01 1.559326052665710449e-01 -6.824216842651367188e-01 -1.579467207193374634e-01 2.804908752441406250e-01
3.774000000000000000e+03 1.924173164367675781e+01 2.819705772399902344e+01 2.296742349863052368e-01 -6.510795354843139648e-01 -1.264216005802154541e-01 2.528507709503173828e-01
3.775000000000000000e+03 2.480425643920898438e+01 -2.131829833984375000e+01 -1.039498820900917053e-01 -1.529757976531982422e-01 -7.707770168781280518e-02 -3.560464680194854736e-01
3.776000000000000000e+03 6.941099548339843750e+01 3.576082229614257812e+01 2.189711481332778931e-01 4.143989086151123047e+00 1.308887958526611328e+00 -2.056624740362167358e-01
3.777000000000000000e+03 7.274429321289062500e+01 -1.900098681449890137e+00 -1.060063719749450684e+00 7.480415344238281250e+00 1.926105499267578125e+00 -3.367333173751831055e+00
3.778000000000000000e+03 7.193672180175781250e+01 -1.411146259307861328e+01 -4.125230312347412109e-01 5.847577095031738281e+00 1.630516171455383301e+00 2.156039237976074219e+00
3.779000000000000000e+03 7.023083496093750000e+01 -1.347520542144775391e+01 -1.563911437988281250e-01 3.856794357299804688e+00 1.110121011734008789e+00 2.090293645858764648e+00
3.780000000000000000e+03 7.170533752441406250e+01 -1.228942394256591797e+00 -5.783807039260864258e-01 5.350773334503173828e+00 1.431717753410339355e+00 -2.953655004501342773e+00
3.781000000000000000e+03 7.141373443603515625e+01 -1.304862785339355469e+01 -4.133121669292449951e-01 5.102914810180664062e+00 1.406880736351013184e+00 2.419189453125000000e+00
3.782000000000000000e+03 7.279265594482421875e+01 -1.254316997528076172e+01 -9.224863052368164062e-01 7.196920394897460938e+00 1.882330298423767090e+00 2.520582914352416992e+00
3.783000000000000000e+03 7.190418243408203125e+01 -1.204135227203369141e+01 -6.226284503936767578e-01 5.828314304351806641e+00 1.561705708503723145e+00 2.798629045486450195e+00
3.784000000000000000e+03 7.310124206542968750e+01 -7.835541963577270508e-01 -1.134028792381286621e+00 7.839691638946533203e+00 2.011698961257934570e+00 -2.716448307037353516e+00
3.785000000000000000e+03 7.190869903564453125e+01 1.141992926597595215e+00 -4.519202411174774170e-01 5.794730186462402344e+00 1.602843046188354492e+00 -2.283043622970581055e+00
3.786000000000000000e+03 7.306493377685546875e+01 -1.289399814605712891e+01 -9.415233135223388672e-01 7.430621623992919922e+00 1.946729421615600586e+00 2.326375722885131836e+00
3.787000000000000000e+03 7.096656799316406250e+01 -3.419795334339141846e-01 -3.535017371177673340e-01 4.432346343994140625e+00 1.223653316497802734e+00 -2.495348930358886719e+00
3.788000000000000000e+03 6.903373718261718750e+01 -1.513818073272705078e+01 1.105982586741447449e-01 3.187417507171630859e+00 9.894047379493713379e-01 1.675687074661254883e+00
3.789000000000000000e+03 7.342900085449218750e+01 6.360833346843719482e-02 -1.079280734062194824e+00 8.040611267089843750e+00 2.088399171829223633e+00 -2.231554508209228516e+00
3.790000000000000000e+03 7.065660858154296875e+01 -1.303894805908203125e+01 -2.578215599060058594e-01 4.174110412597656250e+00 1.174886584281921387e+00 2.265033721923828125e+00
3.791000000000000000e+03 6.287655258178710938e+01 4.407335758209228516e+00 7.160831987857818604e-02 1.060167431831359863e+00 3.395327329635620117e-01 -5.209287405014038086e-01
3.792000000000000000e+03 6.142054748535156250e+01 3.846220731735229492e+00 -1.326861381530761719e-01 7.281273603439331055e-01 1.786323785781860352e-01 -2.661075890064239502e-01
3.793000000000000000e+03 3.845069503784179688e+01 3.826977252960205078e+00 -6.090381145477294922e-01 -1.618182472884654999e-02 -1.875659823417663574e-01 6.512471437454223633e-01
3.794000000000000000e+03 3.389702987670898438e+01 3.872964620590209961e+00 -5.254283547401428223e-01 -5.449305847287178040e-02 -1.739764362573623657e-01 6.276544928550720215e-01
3.795000000000000000e+03 6.301044464111328125e+01 -2.013736534118652344e+01 5.333315134048461914e-01 1.556849956512451172e+00 6.270543932914733887e-01 6.100362539291381836e-01
3.796000000000000000e+03 6.223492431640625000e+01 -1.864462661743164062e+01 3.419971168041229248e-01 1.157003521919250488e+00 4.497002065181732178e-01 4.343966543674468994e-01
3.797000000000000000e+03 5.655392074584960938e+01 4.767347335815429688e+00 -3.030294775962829590e-01 3.238631188869476318e-01 6.250085309147834778e-03 1.852904111146926880e-01
3.798000000000000000e+03 4.600445938110351562e+01 3.778917074203491211e+00 -7.058449387550354004e-01 1.388790924102067947e-02 -2.075871080160140991e-01 6.059708595275878906e-01
3.799000000000000000e+03 4.854278182983398438e+01 4.239529609680175781e+00 -6.427699327468872070e-01 4.204802215099334717e-02 -1.802165806293487549e-01 5.666995048522949219e-01
3.800000000000000000e+03 4.172286224365234375e+01 6.679335594177246094e+00 -4.045329988002777100e-01 1.232753135263919830e-02 -1.176616400480270386e-01 6.534278392791748047e-01
3.801000000000000000e+03 4.218386077880859375e+01 4.941627502441406250e+00 -5.667353272438049316e-01 1.400057575665414333e-03 -1.696005761623382568e-01 6.497759819030761719e-01
3.802000000000000000e+03 6.976729583740234375e+01 -1.456044483184814453e+01 -9.045366197824478149e-03 3.717294692993164062e+00 1.112474799156188965e+00 1.896131992340087891e+00
3.803000000000000000e+03 7.146771240234375000e+01 -1.380027484893798828e+01 -3.337124884128570557e-01 5.257747173309326172e+00 1.477210402488708496e+00 2.238623380661010742e+00
3.804000000000000000e+03 7.284379577636718750e+01 1.689161062240600586e-01 -8.590737581253051758e-01 7.121193408966064453e+00 1.878635883331298828e+00 -2.414912939071655273e+00
3.805000000000000000e+03 6.469422912597656250e+01 2.748649597167968750e+00 -5.662491917610168457e-02 1.218677639961242676e+00 3.486158251762390137e-01 -7.358440756797790527e-01
3.806000000000000000e+03 6.375524139404296875e+01 -1.685291862487792969e+01 1.851156204938888550e-01 1.250961661338806152e+00 4.308231770992279053e-01 5.767691731452941895e-01
3.807000000000000000e+03 5.941658782958984375e+01 4.195253372192382812e+00 -2.299003899097442627e-01 4.933569133281707764e-01 7.903695106506347656e-02 -3.945943713188171387e-02
3.808000000000000000e+03 5.729639434814453125e+01 4.791245937347412109e+00 -2.609268128871917725e-01 3.521782457828521729e-01 2.737543545663356781e-02 1.284068226814270020e-01
3.809000000000000000e+03 5.805801010131835938e+01 5.111932754516601562e+00 -1.641102284193038940e-01 4.562544226646423340e-01 8.764325827360153198e-02 3.941245004534721375e-02
3.810000000000000000e+03 3.459553909301757812e+01 3.319427967071533203e+00 -5.603893399238586426e-01 -4.439962282776832581e-02 -1.814366877079010010e-01 6.206398606300354004e-01
3.811000000000000000e+03 5.211718368530273438e+01 -1.659559249877929688e+01 -4.933615028858184814e-01 3.601028397679328918e-02 -1.372053623199462891e-01 -4.998488724231719971e-01
3.812000000000000000e+03 5.880015945434570312e+01 -1.789530563354492188e+01 3.082606568932533264e-02 5.253847837448120117e-01 1.668632477521896362e-01 -4.148920997977256775e-02
3.813000000000000000e+03 6.602927398681640625e+01 -1.541780948638916016e+01 9.889845550060272217e-02 1.666920661926269531e+00 5.297457575798034668e-01 9.312295317649841309e-01
3.814000000000000000e+03 6.947216796875000000e+01 -1.593271923065185547e+01 1.435403823852539062e-01 3.737492322921752930e+00 1.164309859275817871e+00 1.693495273590087891e+00
3.815000000000000000e+03 5.230021286010742188e+01 4.061802387237548828e+00 -6.209973096847534180e-01 9.354442358016967773e-02 -1.582358628511428833e-01 4.588833749294281006e-01
3.816000000000000000e+03 6.687061309814453125e+01 5.031346321105957031e+00 3.017802536487579346e-01 2.523196220397949219e+00 8.474929332733154297e-01 -1.249006271362304688e+00
3.817000000000000000e+03 6.793180847167968750e+01 1.680593490600585938e+00 -3.992453590035438538e-02 2.380585193634033203e+00 7.021982073783874512e-01 -1.476454734802246094e+00
3.818000000000000000e+03 7.104803466796875000e+01 3.088341712951660156e+00 -7.463119924068450928e-02 4.956339836120605469e+00 1.464512586593627930e+00 -1.924078941345214844e+00
3.819000000000000000e+03 6.978604125976562500e+01 4.953339099884033203e+00 2.050036191940307617e-01 4.090903282165527344e+00 1.288772106170654297e+00 -1.656918168067932129e+00
3.820000000000000000e+03 3.330023193359375000e+01 4.939883232116699219e+00 -4.754348695278167725e-01 -6.946965306997299194e-02 -1.634713560342788696e-01 6.416864395141601562e-01
3.821000000000000000e+03 6.808252716064453125e+01 -1.780405235290527344e+01 3.473381996154785156e-01 3.155286550521850586e+00 1.050787448883056641e+00 1.374193668365478516e+00
3.822000000000000000e+03 6.606719970703125000e+01 2.749120950698852539e+00 3.366500884294509888e-02 1.696404099464416504e+00 5.190207362174987793e-01 -1.026782631874084473e+00
3.823000000000000000e+03 6.596691131591796875e+01 3.634995460510253906e+00 1.433926820755004883e-01 1.816327452659606934e+00 5.879160165786743164e-01 -1.048604488372802734e+00
3.824000000000000000e+03 7.152165985107421875e+01 -1.568091392517089844e+01 -1.159662529826164246e-01 5.372828483581542969e+00 1.577058672904968262e+00 1.889901638031005859e+00
3.825000000000000000e+03 6.025766372680664062e+01 -1.654699134826660156e+01 -1.346997618675231934e-01 5.450542569160461426e-01 1.231063529849052429e-01 3.413617610931396484e-02
3.826000000000000000e+03 7.057132720947265625e+01 1.484707742929458618e-01 -2.870366871356964111e-01 4.063850879669189453e+00 1.133044242858886719e+00 -2.305958747863769531e+00
3.827000000000000000e+03 7.170384216308593750e+01 -4.708652794361114502e-01 -5.558568239212036133e-01 5.507227420806884766e+00 1.485411167144775391e+00 -2.690796136856079102e+00
3.828000000000000000e+03 7.059842681884765625e+01 1.079338669776916504e+00 -2.068182826042175293e-01 4.318528175354003906e+00 1.233512997627258301e+00 -2.176523447036743164e+00
3.829000000000000000e+03 6.923681640625000000e+01 7.203479409217834473e-01 -1.216204315423965454e-01 2.905392885208129883e+00 8.351317048072814941e-01 -1.833077907562255859e+00
3.830000000000000000e+03 6.041737747192382812e+01 3.992108106613159180e+00 -1.884101033210754395e-01 5.974287986755371094e-01 1.227056160569190979e-01 -1.369092464447021484e-01
3.831000000000000000e+03 6.137416458129882812e+01 4.817597389221191406e+00 2.633792906999588013e-02 8.535729646682739258e-01 2.639732658863067627e-01 -3.291092813014984131e-01
3.832000000000000000e+03 6.128121948242187500e+01 -1.619159317016601562e+01 -1.295355409383773804e-01 6.275652050971984863e-01 1.494089066982269287e-01 1.284825503826141357e-01
3.833000000000000000e+03 7.111125946044921875e+01 -1.426099967956542969e+01 -2.190502285957336426e-01 4.896897792816162109e+00 1.403354287147521973e+00 2.129683971405029297e+00
3.834000000000000000e+03 7.027798461914062500e+01 -1.435534763336181641e+01 -8.913700282573699951e-02 4.124886989593505859e+00 1.210724949836730957e+00 2.018636226654052734e+00
3.835000000000000000e+03 5.432533645629882812e+01 3.550104856491088867e+00 -6.406028270721435547e-01 1.402080655097961426e-01 -1.501184254884719849e-01 3.851459920406341553e-01
3.836000000000000000e+03 5.136116409301757812e+01 -1.741691589355468750e+01 -3.621215820312500000e-01 3.020212054252624512e-02 -9.957583248615264893e-02 -4.896230697631835938e-01
3.837000000000000000e+03 6.965509033203125000e+01 2.421640872955322266e+00 7.544349413365125656e-03 3.713917970657348633e+00 1.116438746452331543e+00 -1.850093126296997070e+00
3.838000000000000000e+03 7.007454681396484375e+01 -1.704967689514160156e+01 1.726660579442977905e-01 4.223526954650878906e+00 1.318857908248901367e+00 1.700356602668762207e+00
3.839000000000000000e+03 6.912478637695312500e+01 -1.686923408508300781e+01 2.267087101936340332e-01 3.563330411911010742e+00 1.137011766433715820e+00 1.568259239196777344e+00
3.840000000000000000e+03 3.207604598999023438e+01 5.391851902008056641e+00 -4.433220326900482178e-01 -9.188748151063919067e-02 -1.605628579854965210e-01 6.403421163558959961e-01
3.841000000000000000e+03 4.679315185546875000e+01 -1.666815567016601562e+01 -5.391371846199035645e-01 -5.650946870446205139e-02 -1.786939948797225952e-01 -5.543598532676696777e-01
3.842000000000000000e+03 4.154106903076171875e+01 -1.609758377075195312e+01 -5.712482929229736328e-01 -8.162579685449600220e-02 -1.958622187376022339e-01 -5.359901785850524902e-01
3.843000000000000000e+03 2.950724220275878906e+01 -1.787020492553710938e+01 -2.752888798713684082e-01 -1.017043218016624451e-01 -1.130979582667350769e-01 -4.213411211967468262e-01
3.844000000000000000e+03 6.670442962646484375e+01 3.696515560150146484e+00 1.922724545001983643e-01 2.213790416717529297e+00 7.218188643455505371e-01 -1.234148859977722168e+00
3.845000000000000000e+03 5.960469818115234375e+01 -1.713304519653320312e+01 -4.818810895085334778e-02 5.321207642555236816e-01 1.451797932386398315e-01 -3.287315601482987404e-03
3.846000000000000000e+03 6.032629013061523438e+01 -1.775019454956054688e+01 1.032433062791824341e-01 6.993248462677001953e-01 2.407704442739486694e-01 1.195871680974960327e-01
3.847000000000000000e+03 5.509147262573242188e+01 3.755648136138916016e+00 -5.617243051528930664e-01 1.896544992923736572e-01 -1.116209477186203003e-01 3.321235775947570801e-01
3.848000000000000000e+03 4.105914306640625000e+01 5.527442932128906250e+00 -5.100967288017272949e-01 -9.673419408500194550e-04 -1.533192098140716553e-01 6.600520610809326172e-01
3.849000000000000000e+03 6.466197204589843750e+01 -1.913245773315429688e+01 4.828877449035644531e-01 1.899533987045288086e+00 7.147265076637268066e-01 8.322541117668151855e-01
3.850000000000000000e+03 6.672942352294921875e+01 -1.579551506042480469e+01 1.913560926914215088e-01 2.065073251724243164e+00 6.769288182258605957e-01 1.137206196784973145e+00
3.851000000000000000e+03 6.835147857666015625e+01 -1.639304351806640625e+01 2.406307011842727661e-01 3.060248374938964844e+00 9.902637004852294922e-01 1.511300444602966309e+00
3.852000000000000000e+03 7.010585784912109375e+01 3.701245784759521484e+00 8.011912554502487183e-02 4.154691696166992188e+00 1.270443320274353027e+00 -1.809517502784729004e+00
3.853000000000000000e+03 5.073901367187500000e+01 -1.652811813354492188e+01 -5.316437482833862305e-01 5.494147771969437599e-04 -1.593283116817474365e-01 -5.226224064826965332e-01
3.854000000000000000e+03 5.572584533691406250e+01 4.775322914123535156e+00 -3.397355079650878906e-01 2.797849178314208984e-01 -1.798517256975173950e-02 2.493843436241149902e-01
3.855000000000000000e+03 5.462709426879882812e+01 5.404557704925537109e+00 -3.057903945446014404e-01 2.537931799888610840e-01 -1.559915859252214432e-02 2.885838747024536133e-01
3.856000000000000000e+03 6.645270538330078125e+01 8.250096321105957031e+00 5.039431452751159668e-01 2.807226181030273438e+00 9.933508038520812988e-01 -1.179877281188964844e+00
3.857000000000000000e+03 6.798478698730468750e+01 6.758686065673828125e+00 4.073677361011505127e-01 3.261729955673217773e+00 1.100729346275329590e+00 -1.400452733039855957e+00
3.858000000000000000e+03 4.446318435668945312e+01 -1.998447799682617188e+01 -1.178260818123817444e-01 -6.577950716018676758e-02 -5.508167669177055359e-02 -5.413372516632080078e-01
3.859000000000000000e+03 6.308329010009765625e+01 1.144042110443115234e+01 6.008296608924865723e-01 2.074734449386596680e+00 8.026692271232604980e-01 -7.974300384521484375e-01
3.860000000000000000e+03 6.637171936035156250e+01 1.008706855773925781e+01 5.624113082885742188e-01 2.957174301147460938e+00 1.055875658988952637e+00 -1.136887311935424805e+00
3.861000000000000000e+03 3.847462081909179688e+01 -1.837968063354492188e+01 -2.976003885269165039e-01 -1.140495762228965759e-01 -1.234949901700019836e-01 -5.330172181129455566e-01
3.862000000000000000e+03 3.503222274780273438e+01 -1.785221862792968750e+01 -3.153191208839416504e-01 -1.124039292335510254e-01 -1.283169239759445190e-01 -4.918874800205230713e-01
3.863000000000000000e+03 3.639537811279296875e+01 -1.702128028869628906e+01 -4.093087911605834961e-01 -1.070706024765968323e-01 -1.549138128757476807e-01 -4.941374361515045166e-01
3.864000000000000000e+03 4.407591629028320312e+01 -1.728536033630371094e+01 -4.441541135311126709e-01 -7.183540612459182739e-02 -1.547968536615371704e-01 -5.574582815170288086e-01
3.865000000000000000e+03 6.467697906494140625e+01 -1.686593818664550781e+01 2.311836779117584229e-01 1.476381421089172363e+00 5.122695565223693848e-01 7.541888952255249023e-01
3.866000000000000000e+03 3.779849624633789062e+01 4.926881790161132812e+00 -5.356599688529968262e-01 -2.439590170979499817e-02 -1.680167615413665771e-01 6.611807346343994141e-01
3.867000000000000000e+03 3.189380073547363281e+01 4.062364578247070312e+00 -4.726891815662384033e-01 -8.417614549398422241e-02 -1.670596003532409668e-01 6.177963614463806152e-01
3.868000000000000000e+03 3.193075942993164062e+01 2.891665935516357422e+00 -5.048428177833557129e-01 -7.163131237030029297e-02 -1.729422360658645630e-01 5.854578614234924316e-01
3.869000000000000000e+03 3.803816223144531250e+01 3.139552831649780273e+00 -6.630116105079650879e-01 -1.814487017691135406e-02 -2.043469548225402832e-01 6.330712437629699707e-01
3.870000000000000000e+03 3.923166275024414062e+01 3.527330398559570312e+00 -6.487571001052856445e-01 -1.508620101958513260e-02 -1.991529911756515503e-01 6.495760679244995117e-01
3.871000000000000000e+03 6.723820495605468750e+01 -1.984023666381835938e+01 5.201898813247680664e-01 2.979059934616088867e+00 1.049775004386901855e+00 1.194613695144653320e+00
3.872000000000000000e+03 5.962008285522460938e+01 5.208768844604492188e+00 -4.256834834814071655e-02 6.267780065536499023e-01 1.752628833055496216e-01 -1.246540695428848267e-01
3.873000000000000000e+03 5.603546142578125000e+01 -1.622216796875000000e+01 -4.551224112510681152e-01 1.763401925563812256e-01 -8.363466709852218628e-02 -3.546094298362731934e-01
3.874000000000000000e+03 5.238775253295898438e+01 -2.020738029479980469e+01 8.126436173915863037e-02 1.729299873113632202e-01 7.625830918550491333e-02 -3.786476254463195801e-01
3.875000000000000000e+03 6.544419860839843750e+01 1.291735553741455078e+01 6.023395061492919922e-01 2.911444187164306641e+00 1.054135084152221680e+00 -1.010070323944091797e+00
3.876000000000000000e+03 5.343917465209960938e+01 -1.896847915649414062e+01 -5.870299786329269409e-02 1.773449182510375977e-01 3.559257462620735168e-02 -3.762736916542053223e-01
3.877000000000000000e+03 3.486964416503906250e+01 -1.916902732849121094e+01 -2.255847901105880737e-01 -1.288830339908599854e-01 -1.063403487205505371e-01 -4.919194579124450684e-01
3.878000000000000000e+03 3.163275527954101562e+01 -1.814632225036621094e+01 -2.742069363594055176e-01 -1.116620153188705444e-01 -1.157606840133666992e-01 -4.478723108768463135e-01
3.879000000000000000e+03 4.547868347167968750e+01 4.697643756866455078e+00 -5.957654118537902832e-01 3.134560957551002502e-02 -1.693259328603744507e-01 6.182433366775512695e-01
3.880000000000000000e+03 4.469861221313476562e+01 4.003238201141357422e+00 -6.798840165138244629e-01 1.884352788329124451e-02 -1.983121335506439209e-01 6.273840665817260742e-01
3.881000000000000000e+03 3.244822692871093750e+01 -1.918179321289062500e+01 -2.277289479970932007e-01 -1.238984093070030212e-01 -1.054882034659385681e-01 -4.660480320453643799e-01
3.882000000000000000e+03 6.923653411865234375e+01 4.002676010131835938e+00 1.640021055936813354e-01 3.627852201461791992e+00 1.137556314468383789e+00 -1.683632731437683105e+00
3.883000000000000000e+03 7.081895446777343750e+01 3.821765184402465820e+00 6.591472309082746506e-03 4.822990417480468750e+00 1.448874473571777344e+00 -1.842889428138732910e+00
3.884000000000000000e+03 2.794293785095214844e+01 1.264027118682861328e+01 -3.046921789646148682e-01 -2.589660286903381348e-01 -1.690974533557891846e-01 5.682600140571594238e-01
3.885000000000000000e+03 2.689552879333496094e+01 1.316202068328857422e+01 -3.170705437660217285e-01 -3.041093349456787109e-01 -1.863539516925811768e-01 5.468946099281311035e-01
3.886000000000000000e+03 6.206890869140625000e+01 -2.286891937255859375e+01 6.931824684143066406e-01 1.670825600624084473e+00 7.092024087905883789e-01 5.445416569709777832e-01
3.887000000000000000e+03 6.324758148193359375e+01 -2.481651878356933594e+01 7.659695744514465332e-01 2.169625282287597656e+00 8.806784749031066895e-01 6.676762700080871582e-01
3.888000000000000000e+03 2.856660652160644531e+01 1.180046463012695312e+01 -3.146320283412933350e-01 -2.298472970724105835e-01 -1.633438020944595337e-01 5.910854339599609375e-01
3.889000000000000000e+03 2.698393440246582031e+01 9.661313056945800781e+00 -3.686638772487640381e-01 -2.684984505176544189e-01 -1.911486983299255371e-01 6.078776717185974121e-01
3.890000000000000000e+03 6.735275268554687500e+01 9.815706253051757812e+00 5.212951898574829102e-01 3.304329395294189453e+00 1.147687435150146484e+00 -1.236013531684875488e+00
3.891000000000000000e+03 2.466199302673339844e+01 1.510459613800048828e+01 -3.222627043724060059e-01 -4.271483123302459717e-01 -2.248232960700988770e-01 4.773973524570465088e-01
3.892000000000000000e+03 2.820991516113281250e+01 -1.806263732910156250e+01 -2.485253512859344482e-01 -1.027073338627815247e-01 -1.053698062896728516e-01 -4.011033177375793457e-01
3.893000000000000000e+03 2.679542922973632812e+01 -1.973104858398437500e+01 -1.715203821659088135e-01 -1.247369796037673950e-01 -8.887720853090286255e-02 -3.866061270236968994e-01
3.894000000000000000e+03 2.946067619323730469e+01 6.336543083190917969e+00 -3.930227160453796387e-01 -1.591634154319763184e-01 -1.656558364629745483e-01 6.282116770744323730e-01
3.895000000000000000e+03 2.951955986022949219e+01 1.752422332763671875e+01 -9.548543393611907959e-02 -2.408633679151535034e-01 -1.009046360850334167e-01 4.456048607826232910e-01
3.896000000000000000e+03 2.454932022094726562e+01 1.960855102539062500e+01 -1.200705319643020630e-01 -4.680103659629821777e-01 -1.764242649078369141e-01 3.626753687858581543e-01
3.897000000000000000e+03 6.664959716796875000e+01 2.276902389526367188e+01 4.686854481697082520e-01 3.594437122344970703e+00 1.218936800956726074e+00 -7.251181006431579590e-01
3.898000000000000000e+03 6.255846023559570312e+01 1.898599815368652344e+01 6.411070823669433594e-01 2.579258918762207031e+00 9.661097526550292969e-01 -7.139780521392822266e-01
3.899000000000000000e+03 2.377073478698730469e+01 -2.473116111755371094e+01 9.684224613010883331e-03 -2.052894681692123413e-01 -5.868156999349594116e-02 -3.240544497966766357e-01
3.900000000000000000e+03 2.510730361938476562e+01 -2.400415229797363281e+01 -9.818488731980323792e-03 -1.926407665014266968e-01 -6.073777750134468079e-02 -3.444595038890838623e-01
3.901000000000000000e+03 3.127289772033691406e+01 -1.941533279418945312e+01 -2.057931125164031982e-01 -1.245813295245170593e-01 -9.911233186721801758e-02 -4.529359042644500732e-01
3.902000000000000000e+03 2.586947441101074219e+01 2.673649215698242188e+01 2.653913795948028564e-01 -4.263144731521606445e-01 -4.827692359685897827e-02 2.395153194665908813e-01
3.903000000000000000e+03 2.552452850341796875e+01 2.459074020385742188e+01 1.449053138494491577e-01 -4.516441822052001953e-01 -9.202165901660919189e-02 2.656795978546142578e-01
3.904000000000000000e+03 6.280982971191406250e+01 -2.876891899108886719e+01 8.257041573524475098e-01 2.384680509567260742e+00 9.631153941154479980e-01 5.682486295700073242e-01
3.905000000000000000e+03 6.836524200439453125e+01 -3.533802795410156250e+01 5.390542149543762207e-01 4.116989135742187500e+00 1.396812915802001953e+00 4.549724161624908447e-01
3.906000000000000000e+03 8.710710525512695312e+00 3.815225982666015625e+01 1.379061639308929443e-01 -5.982212424278259277e-01 -1.380945146083831787e-01 1.058739349246025085e-01
3.907000000000000000e+03 7.216032409667968750e+01 -1.238849163055419922e+01 -7.121055126190185547e-01 6.217838764190673828e+00 1.651719927787780762e+00 2.664867162704467773e+00
3.908000000000000000e+03 7.314718627929687500e+01 -1.546045541763305664e+00 -1.263132572174072266e+00 8.277699470520019531e+00 2.104370117187500000e+00 -3.085499048233032227e+00
3.909000000000000000e+03 7.240790557861328125e+01 -1.378353595733642578e+00 -8.591057658195495605e-01 6.656423091888427734e+00 1.739195108413696289e+00 -3.063035726547241211e+00
3.910000000000000000e+03 7.241561889648437500e+01 -1.317244911193847656e+01 -7.146289944648742676e-01 6.566717147827148438e+00 1.755626440048217773e+00 2.407015085220336914e+00
3.911000000000000000e+03 7.331460571289062500e+01 -4.203639924526214600e-01 -1.175520300865173340e+00 8.110085487365722656e+00 2.080369472503662109e+00 -2.426306247711181641e+00
3.912000000000000000e+03 7.231893920898437500e+01 -2.083473443984985352e+00 -7.845593690872192383e-01 6.436172008514404297e+00 1.695483803749084473e+00 -3.511681556701660156e+00
3.913000000000000000e+03 7.286470794677734375e+01 -3.680452704429626465e-01 -9.484518170356750488e-01 7.242088317871093750e+00 1.888090968132019043e+00 -2.592302799224853516e+00
3.914000000000000000e+03 7.067161560058593750e+01 -1.387837123870849609e+01 -1.759730577468872070e-01 4.414064407348632812e+00 1.271427392959594727e+00 2.144079208374023438e+00
3.915000000000000000e+03 7.176273345947265625e+01 2.827916741371154785e-01 -5.058032870292663574e-01 5.593071937561035156e+00 1.526180505752563477e+00 -2.454256057739257812e+00
3.916000000000000000e+03 6.891569519042968750e+01 -1.574846363067626953e+01 1.818912327289581299e-01 3.256598234176635742e+00 1.031546831130981445e+00 1.642325282096862793e+00
3.917000000000000000e+03 7.069327545166015625e+01 -1.474232006072998047e+01 -1.092394888401031494e-01 4.510748386383056641e+00 1.320452570915222168e+00 2.019139766693115234e+00
3.918000000000000000e+03 6.220009994506835938e+01 5.271033287048339844e+00 1.472557783126831055e-01 1.064019560813903809e+00 3.633826076984405518e-01 -4.869174659252166748e-01
3.919000000000000000e+03 6.166897964477539062e+01 -1.732740783691406250e+01 1.194146424531936646e-01 8.509585857391357422e-01 2.911119759082794189e-01 2.701391577720642090e-01
3.920000000000000000e+03 6.484179687500000000e+01 4.167907714843750000e+00 1.822577118873596191e-01 1.556519389152526855e+00 5.216331481933593750e-01 -8.706585764884948730e-01
3.921000000000000000e+03 7.099160766601562500e+01 5.145569443702697754e-01 -3.263863027095794678e-01 4.645722389221191406e+00 1.295800805091857910e+00 -2.344842195510864258e+00
3.922000000000000000e+03 6.338340377807617188e+01 -1.894331741333007812e+01 4.292389750480651855e-01 1.467931747436523438e+00 5.691512227058410645e-01 6.201444268226623535e-01
3.923000000000000000e+03 5.072969055175781250e+01 5.585316181182861328e+00 -4.033397436141967773e-01 1.212628185749053955e-01 -8.462307602167129517e-02 4.790409803390502930e-01
3.924000000000000000e+03 5.167531585693359375e+01 5.220859527587890625e+00 -4.218204617500305176e-01 1.328395307064056396e-01 -8.669427782297134399e-02 4.547659158706665039e-01
3.925000000000000000e+03 3.309771728515625000e+01 4.209870338439941406e+00 -4.945164024829864502e-01 -6.719714403152465820e-02 -1.685140728950500488e-01 6.295347213745117188e-01
3.926000000000000000e+03 3.668474197387695312e+01 5.000552654266357422e+00 -5.148981213569641113e-01 -3.227353468537330627e-02 -1.641514897346496582e-01 6.625275611877441406e-01
3.927000000000000000e+03 7.111840820312500000e+01 -1.512886714935302734e+01 -1.208155080676078796e-01 5.009654045104980469e+00 1.466651558876037598e+00 1.968034744262695312e+00
3.928000000000000000e+03 6.362055587768554688e+01 -1.784956359863281250e+01 3.160507082939147949e-01 1.374687790870666504e+00 5.072215795516967773e-01 6.042941808700561523e-01
3.929000000000000000e+03 5.792610168457031250e+01 6.360640525817871094e+00 3.824495896697044373e-02 5.798083543777465820e-01 1.854159981012344360e-01 -2.906445041298866272e-02
3.930000000000000000e+03 7.028417205810546875e+01 2.852313518524169922e+00 -1.974548446014523506e-03 4.243866920471191406e+00 1.272567749023437500e+00 -1.896520137786865234e+00
3.931000000000000000e+03 6.886689758300781250e+01 1.282232284545898438e+00 -4.754519835114479065e-02 2.773264884948730469e+00 8.177158832550048828e-01 -1.735625505447387695e+00
3.932000000000000000e+03 3.063032341003417969e+01 5.231652736663818359e+00 -4.262805581092834473e-01 -1.201976239681243896e-01 -1.639434546232223511e-01 6.248559951782226562e-01
3.933000000000000000e+03 6.475743865966796875e+01 -1.791940689086914062e+01 3.817735314369201660e-01 1.736156344413757324e+00 6.353789567947387695e-01 8.199456930160522461e-01
3.934000000000000000e+03 7.017190551757812500e+01 1.703568339347839355e+00 -1.004442125558853149e-01 4.037775993347167969e+00 1.181199550628662109e+00 -2.017269849777221680e+00
3.935000000000000000e+03 3.427667236328125000e+01 4.850091934204101562e+00 -4.948461949825286865e-01 -5.728769302368164062e-02 -1.656401604413986206e-01 6.472234725952148438e-01
3.936000000000000000e+03 6.755055236816406250e+01 -1.586561012268066406e+01 2.102276086807250977e-01 2.517327547073364258e+00 8.182665705680847168e-01 1.316563010215759277e+00
3.937000000000000000e+03 5.408854675292968750e+01 -1.766019058227539062e+01 -2.328587174415588379e-01 1.576751023530960083e-01 -2.255508303642272949e-02 -3.930449485778808594e-01
3.938000000000000000e+03 7.146350860595703125e+01 8.299703001976013184e-01 -4.025922715663909912e-01 5.251123428344726562e+00 1.454559326171875000e+00 -2.337748527526855469e+00
3.939000000000000000e+03 6.719500732421875000e+01 -1.731146621704101562e+01 3.479216396808624268e-01 2.569476604461669922e+00 8.752194643020629883e-01 1.253239989280700684e+00
3.940000000000000000e+03 5.256404876708984375e+01 4.829816818237304688e+00 -4.635851085186004639e-01 1.389307528734207153e-01 -9.739630669355392456e-02 4.248448908329010010e-01
3.941000000000000000e+03 5.200733566284179688e+01 6.188525676727294922e+00 -2.798500955104827881e-01 1.862976253032684326e-01 -2.806574292480945587e-02 4.090773761272430420e-01
3.942000000000000000e+03 6.470737457275390625e+01 3.481178522109985352e+00 3.458847105503082275e-02 1.313662528991699219e+00 4.044753015041351318e-01 -7.879832983016967773e-01
3.943000000000000000e+03 6.430117797851562500e+01 -2.042501258850097656e+01 5.804485082626342773e-01 1.978593587875366211e+00 7.677126526832580566e-01 7.950343489646911621e-01
3.944000000000000000e+03 4.386452102661132812e+01 5.019340515136718750e+00 -5.597926974296569824e-01 1.507476344704627991e-02 -1.634153872728347778e-01 6.381884813308715820e-01
3.945000000000000000e+03 5.964880752563476562e+01 -1.864500045776367188e+01 1.960098892450332642e-01 7.086211442947387695e-01 2.713893055915832520e-01 9.596824645996093750e-02
3.946000000000000000e+03 6.747080993652343750e+01 2.589642763137817383e+00 8.647491037845611572e-02 2.348736524581909180e+00 7.305634021759033203e-01 -1.344771265983581543e+00
3.947000000000000000e+03 6.974806976318359375e+01 -1.527404785156250000e+01 6.340969353914260864e-02 3.830832719802856445e+00 1.168272733688354492e+00 1.800802469253540039e+00
3.948000000000000000e+03 3.254064178466796875e+01 3.556274652481079102e+00 -5.046005845069885254e-01 -6.791239231824874878e-02 -1.717538833618164062e-01 6.116992235183715820e-01
3.949000000000000000e+03 6.578606414794921875e+01 -1.758406066894531250e+01 3.750050365924835205e-01 2.050622463226318359e+00 7.276882529258728027e-01 9.856457710266113281e-01
3.950000000000000000e+03 6.557263183593750000e+01 -1.669574546813964844e+01 2.484889328479766846e-01 1.725782036781311035e+00 5.922812819480895996e-01 8.998455405235290527e-01
3.951000000000000000e+03 5.539858627319335938e+01 5.753736495971679688e+00 -1.998797953128814697e-01 3.249434828758239746e-01 3.751910477876663208e-02 2.212688028812408447e-01
3.952000000000000000e+03 3.766084671020507812e+01 3.913098096847534180e+00 -5.953954458236694336e-01 -2.981757372617721558e-02 -1.875638961791992188e-01 6.424514055252075195e-01
3.953000000000000000e+03 3.660800170898437500e+01 6.174130916595458984e+00 -4.490661919116973877e-01 -3.800372779369354248e-02 -1.461209803819656372e-01 6.673100590705871582e-01
3.954000000000000000e+03 4.570745086669921875e+01 -1.833189392089843750e+01 -3.017347753047943115e-01 -5.586220324039459229e-02 -1.072790920734405518e-01 -5.534378886222839355e-01
3.955000000000000000e+03 4.273228454589843750e+01 -1.744778251647949219e+01 -4.233168065547943115e-01 -8.390088379383087158e-02 -1.521653085947036743e-01 -5.537462830543518066e-01
3.956000000000000000e+03 2.882353973388671875e+01 4.846949100494384766e+00 -3.971914649009704590e-01 -1.581491678953170776e-01 -1.666021943092346191e-01 6.022208929061889648e-01
3.957000000000000000e+03 2.923100852966308594e+01 4.004595279693603516e+00 -4.124020636081695557e-01 -1.370555162429809570e-01 -1.648372709751129150e-01 5.844684839248657227e-01
3.958000000000000000e+03 3.870259857177734375e+01 4.601855278015136719e+00 -5.686663985252380371e-01 -2.278196066617965698e-02 -1.774345040321350098e-01 6.542702317237854004e-01
3.959000000000000000e+03 5.535723876953125000e+01 -1.762901878356933594e+01 -1.959657073020935059e-01 2.157153040170669556e-01 5.924877710640430450e-03 -3.290483355522155762e-01
3.960000000000000000e+03 5.788759613037109375e+01 -1.883989524841308594e+01 1.216983348131179810e-01 5.074504017829895020e-01 1.887446194887161255e-01 -7.406017184257507324e-02
3.961000000000000000e+03 5.335989379882812500e+01 6.612443923950195312e+00 -1.607526540756225586e-01 2.747102975845336914e-01 3.418728709220886230e-02 3.187296986579895020e-01
3.962000000000000000e+03 5.385230255126953125e+01 5.318665504455566406e+00 -3.516320884227752686e-01 2.133803814649581909e-01 -4.147551581263542175e-02 3.439318835735321045e-01
3.963000000000000000e+03 6.654869842529296875e+01 -1.829518318176269531e+01 4.336269795894622803e-01 2.422483921051025391e+00 8.568332195281982422e-01 1.108750939369201660e+00
3.964000000000000000e+03 6.763388824462890625e+01 -1.878619003295898438e+01 4.537789821624755859e-01 3.054003000259399414e+00 1.052334666252136230e+00 1.277057766914367676e+00
3.965000000000000000e+03 5.525662612915039062e+01 -1.654959106445312500e+01 -4.149981141090393066e-01 1.410069912672042847e-01 -8.219733089208602905e-02 -3.874242901802062988e-01
3.966000000000000000e+03 3.293006515502929688e+01 -2.064982414245605469e+01 -1.257759481668472290e-01 -1.422320753335952759e-01 -8.040240406990051270e-02 -4.781343936920166016e-01
3.967000000000000000e+03 5.125942230224609375e+01 -1.929515647888183594e+01 -8.066894114017486572e-02 7.761532068252563477e-02 -9.160853223875164986e-04 -4.532486796379089355e-01
3.968000000000000000e+03 4.806714248657226562e+01 -1.641465759277343750e+01 -5.687366724014282227e-01 -4.330020770430564880e-02 -1.836110502481460571e-01 -5.548236966133117676e-01
3.969000000000000000e+03 5.034302139282226562e+01 -1.823346328735351562e+01 -2.494561672210693359e-01 3.323348611593246460e-02 -6.486680358648300171e-02 -4.986294507980346680e-01
3.970000000000000000e+03 3.992693328857421875e+01 6.180086135864257812e+00 -4.540185034275054932e-01 -5.696835462003946304e-03 -1.379145979881286621e-01 6.641599535942077637e-01
3.971000000000000000e+03 4.148010635375976562e+01 3.206039190292358398e+00 -7.172122597694396973e-01 -5.589093547314405441e-03 -2.168404012918472290e-01 6.365464925765991211e-01
3.972000000000000000e+03 6.529558563232421875e+01 -2.198808288574218750e+01 6.567883491516113281e-01 2.492170095443725586e+00 9.446874856948852539e-01 9.103016257286071777e-01
3.973000000000000000e+03 6.768945312500000000e+01 5.534901142120361328e+00 3.500165641307830811e-01 2.985288619995117188e+00 1.000591516494750977e+00 -1.392821907997131348e+00
3.974000000000000000e+03 6.845068359375000000e+01 1.584958553314208984e+00 -1.543779578059911728e-02 2.623290777206420898e+00 7.823558449745178223e-01 -1.631489515304565430e+00
3.975000000000000000e+03 6.156138992309570312e+01 -2.448608016967773438e+01 7.569680213928222656e-01 1.725373387336730957e+00 7.447024583816528320e-01 5.059294700622558594e-01
3.976000000000000000e+03 6.641102600097656250e+01 1.185859775543212891e+01 5.754836201667785645e-01 3.147670745849609375e+00 1.116946339607238770e+00 -1.107785463333129883e+00
3.977000000000000000e+03 4.475890731811523438e+01 5.881694793701171875e+00 -4.590019881725311279e-01 4.085598513484001160e-02 -1.254438012838363647e-01 6.213775873184204102e-01
3.978000000000000000e+03 6.837159729003906250e+01 6.091256141662597656e+00 3.695679903030395508e-01 3.422343254089355469e+00 1.137573361396789551e+00 -1.473477005958557129e+00
3.979000000000000000e+03 6.525634765625000000e+01 4.926795959472656250e+00 2.808352112770080566e-01 1.855950355529785156e+00 6.410356760025024414e-01 -9.706870913505554199e-01
3.980000000000000000e+03 5.886508941650390625e+01 -1.968620872497558594e+01 3.013787269592285156e-01 7.166674733161926270e-01 3.054138720035552979e-01 7.093489915132522583e-02
3.981000000000000000e+03 5.709788513183593750e+01 -1.792146301269531250e+01 -7.028804719448089600e-02 3.547534644603729248e-01 8.533962815999984741e-02 -1.949433833360671997e-01
3.982000000000000000e+03 5.004459381103515625e+01 -2.054536628723144531e+01 6.665699928998947144e-02 6.972609460353851318e-02 4.091492667794227600e-02 -4.496168196201324463e-01
3.983000000000000000e+03 2.757370376586914062e+01 1.171865558624267578e+01 -3.384133279323577881e-01 -2.630986273288726807e-01 -1.804535835981369019e-01 5.829330682754516602e-01
3.984000000000000000e+03 2.970165252685546875e+01 1.481045436859130859e+01 -1.934971511363983154e-01 -2.146614044904708862e-01 -1.224475651979446411e-01 5.236113071441650391e-01
3.985000000000000000e+03 3.058180999755859375e+01 3.929254293441772461e+00 -4.471180140972137451e-01 -1.079014167189598083e-01 -1.665058284997940063e-01 5.996322035789489746e-01
3.986000000000000000e+03 2.872587966918945312e+01 1.358534240722656250e+01 -2.559261023998260498e-01 -2.384664416313171387e-01 -1.483177691698074341e-01 5.503814816474914551e-01
3.987000000000000000e+03 3.832035446166992188e+01 5.850458621978759766e+00 -4.762550890445709229e-01 -2.426898479461669922e-02 -1.501572281122207642e-01 6.703428030014038086e-01
3.988000000000000000e+03 2.992123413085937500e+01 -1.950474357604980469e+01 -1.906491219997406006e-01 -1.262238025665283203e-01 -9.506187587976455688e-02 -4.335860908031463623e-01
3.989000000000000000e+03 4.851123809814453125e+01 5.210345268249511719e+00 -4.997841715812683105e-01 6.967722624540328979e-02 -1.290320903062820435e-01 5.494037866592407227e-01
3.990000000000000000e+03 4.951229095458984375e+01 4.978373527526855469e+00 -5.195426940917968750e-01 7.788582891225814819e-02 -1.324970573186874390e-01 5.281162858009338379e-01
3.991000000000000000e+03 4.642577362060546875e+01 5.126929283142089844e+00 -5.439853668212890625e-01 3.646980598568916321e-02 -1.522546708583831787e-01 6.013553738594055176e-01
3.992000000000000000e+03 4.905076217651367188e+01 -1.908986282348632812e+01 -1.567228138446807861e-01 6.323045585304498672e-03 -4.511993005871772766e-02 -5.078557729721069336e-01
3.993000000000000000e+03 4.847538757324218750e+01 -1.764510726928710938e+01 -3.873486816883087158e-01 -3.293945640325546265e-02 -1.260864436626434326e-01 -5.393054485321044922e-01
3.994000000000000000e+03 6.309512329101562500e+01 1.037117290496826172e+01 5.777146220207214355e-01 1.971481084823608398e+00 7.647587060928344727e-01 -7.927246689796447754e-01
3.995000000000000000e+03 4.017377090454101562e+01 -1.732502555847167969e+01 -4.170053601264953613e-01 -9.940980374813079834e-02 -1.549245566129684448e-01 -5.375003218650817871e-01
3.996000000000000000e+03 6.561798095703125000e+01 9.113151550292968750e+00 5.391305088996887207e-01 2.601274967193603516e+00 9.421216249465942383e-01 -1.069000124931335449e+00
3.997000000000000000e+03 6.336478042602539062e+01 2.010288619995117188e+01 6.134549975395202637e-01 2.825953483581542969e+00 1.031822562217712402e+00 -7.420059442520141602e-01
3.998000000000000000e+03 3.041227340698242188e+01 7.991308212280273438e+00 -3.735223114490509033e-01 -1.464395821094512939e-01 -1.559885740280151367e-01 6.432061195373535156e-01
3.999000000000000000e+03 6.563623809814453125e+01 2.182706451416015625e+01 5.122334361076354980e-01 3.407651424407958984e+00 1.175965547561645508e+00 -7.325618267059326172e-01
4.000000000000000000e+03 1.940274810791015625e+01 -2.331408882141113281e+01 -5.229314416646957397e-02 -2.061811983585357666e-01 -7.754230499267578125e-02 -2.577811777591705322e-01
4.001000000000000000e+03 2.563876152038574219e+01 -2.744145584106445312e+01 1.386036723852157593e-01 -2.450205832719802856e-01 -3.192507103085517883e-02 -3.082160651683807373e-01
4.002000000000000000e+03 6.417987060546875000e+01 1.389376354217529297e+01 6.363287568092346191e-01 2.598134994506835938e+00 9.703391194343566895e-01 -8.819456696510314941e-01
4.003000000000000000e+03 6.103936386108398438e+01 -2.634216499328613281e+01 8.151066899299621582e-01 1.780276179313659668e+00 7.786148786544799805e-01 4.585303068161010742e-01
4.004000000000000000e+03 7.243914031982421875e+01 -5.863723158836364746e-01 -8.092027306556701660e-01 6.624437808990478516e+00 1.744570493698120117e+00 -2.730423688888549805e+00
4.005000000000000000e+03 7.207641601562500000e+01 -1.506657153367996216e-01 -6.763415336608886719e-01 6.087209701538085938e+00 1.623260498046875000e+00 -2.620955228805541992e+00
4.006000000000000000e+03 7.104544067382812500e+01 -1.344244480133056641e+01 -2.849151194095611572e-01 4.727470397949218750e+00 1.332766652107238770e+00 2.275778532028198242e+00
4.007000000000000000e+03 7.226133728027343750e+01 3.012838661670684814e-01 -6.640502810478210449e-01 6.300234794616699219e+00 1.690855383872985840e+00 -2.472455739974975586e+00
4.008000000000000000e+03 6.121147155761718750e+01 -1.824862480163574219e+01 2.335133999586105347e-01 8.991010189056396484e-01 3.397843241691589355e-01 2.668586969375610352e-01
4.009000000000000000e+03 6.721962738037109375e+01 6.392973423004150391e+00 4.131628870964050293e-01 2.900970220565795898e+00 9.942399263381958008e-01 -1.308457255363464355e+00
4.010000000000000000e+03 6.636366271972656250e+01 5.990982532501220703e+00 3.882206082344055176e-01 2.482866764068603516e+00 8.613262176513671875e-01 -1.171552062034606934e+00
4.011000000000000000e+03 5.101457977294921875e+01 6.629010677337646484e+00 -2.513664662837982178e-01 1.686212569475173950e-01 -2.482356317341327667e-02 4.360949993133544922e-01
4.012000000000000000e+03 7.049260711669921875e+01 -1.535855960845947266e+01 -3.469661111012101173e-03 4.422222614288330078e+00 1.325625896453857422e+00 1.919674038887023926e+00
4.013000000000000000e+03 3.065018653869628906e+01 6.825312614440917969e+00 -3.968063592910766602e-01 -1.333282589912414551e-01 -1.590403914451599121e-01 6.418281793594360352e-01
4.014000000000000000e+03 6.255839920043945312e+01 -2.144072914123535156e+01 6.195130944252014160e-01 1.621026277542114258e+00 6.721618175506591797e-01 5.794301629066467285e-01
4.015000000000000000e+03 3.541389846801757812e+01 6.000351905822753906e+00 -4.545707702636718750e-01 -4.993411898612976074e-02 -1.513514667749404907e-01 6.645588278770446777e-01
4.016000000000000000e+03 7.014303588867187500e+01 6.664694547653198242e-01 -1.871289610862731934e-01 3.760178089141845703e+00 1.071914792060852051e+00 -2.122592449188232422e+00
4.017000000000000000e+03 3.775050354003906250e+01 6.666412830352783203e+00 -4.197053909301757812e-01 -2.531771734356880188e-02 -1.335069388151168823e-01 6.714141368865966797e-01
4.018000000000000000e+03 6.895256805419921875e+01 -1.627996826171875000e+01 2.202919721603393555e-01 3.378546714782714844e+00 1.079651594161987305e+00 1.587092638015747070e+00
4.019000000000000000e+03 2.976237869262695312e+01 5.314577579498291016e+00 -4.109445214271545410e-01 -1.360106021165847778e-01 -1.640865355730056763e-01 6.175222396850585938e-01
4.020000000000000000e+03 3.130145072937011719e+01 4.651726722717285156e+00 -4.480588138103485107e-01 -1.002446860074996948e-01 -1.644910424947738647e-01 6.228409409523010254e-01
4.021000000000000000e+03 6.497649383544921875e+01 8.143478393554687500e+00 4.937183558940887451e-01 2.280814886093139648e+00 8.323599696159362793e-01 -9.985244274139404297e-01
4.022000000000000000e+03 6.367374801635742188e+01 5.032741546630859375e+00 2.224762141704559326e-01 1.400319337844848633e+00 4.868386685848236084e-01 -7.139536738395690918e-01
4.023000000000000000e+03 5.415684127807617188e+01 6.055690765380859375e+00 -2.046534568071365356e-01 2.750943899154663086e-01 2.113227732479572296e-02 2.910250723361968994e-01
4.024000000000000000e+03 5.240328216552734375e+01 7.199649333953857422e+00 -1.241168156266212463e-01 2.539431452751159668e-01 3.894790261983871460e-02 3.472296595573425293e-01
4.025000000000000000e+03 6.775388336181640625e+01 -1.662736320495605469e+01 2.903798520565032959e-01 2.752355337142944336e+00 9.128205776214599609e-01 1.350260496139526367e+00
4.026000000000000000e+03 6.008599090576171875e+01 6.142110824584960938e+00 1.430156379938125610e-01 8.125391006469726562e-01 2.866664230823516846e-01 -2.575436830520629883e-01
4.027000000000000000e+03 5.872032928466796875e+01 5.761812210083007812e+00 -1.550266239792108536e-02 5.869771838188171387e-01 1.714423596858978271e-01 -7.405406981706619263e-02
4.028000000000000000e+03 3.254651641845703125e+01 4.670698165893554688e+00 -4.704903960227966309e-01 -7.775476574897766113e-02 -1.644735485315322876e-01 6.339458227157592773e-01
4.029000000000000000e+03 5.686935806274414062e+01 -1.990156555175781250e+01 2.316335141658782959e-01 5.031378269195556641e-01 2.204314023256301880e-01 -1.116508543491363525e-01
4.030000000000000000e+03 5.998895263671875000e+01 -2.040473365783691406e+01 4.398247301578521729e-01 9.620732069015502930e-01 4.205693900585174561e-01 2.271127104759216309e-01
4.031000000000000000e+03 6.177930450439453125e+01 -1.975836753845214844e+01 4.504194557666778564e-01 1.213314056396484375e+00 4.991200566291809082e-01 4.205914437770843506e-01
4.032000000000000000e+03 6.064958572387695312e+01 -1.926654815673828125e+01 3.409382700920104980e-01 9.385201334953308105e-01 3.838375210762023926e-01 2.528619468212127686e-01
4.033000000000000000e+03 5.823618698120117188e+01 7.198436737060546875e+00 1.565275490283966064e-01 6.820188164710998535e-01 2.515639066696166992e-01 -1.065879836678504944e-01
4.034000000000000000e+03 5.475544738769531250e+01 6.658489704132080078e+00 -8.984234929084777832e-02 3.483785688877105713e-01 7.756087183952331543e-02 2.183484882116317749e-01
4.035000000000000000e+03 4.971662139892578125e+01 5.952403545379638672e+00 -3.790288567543029785e-01 1.034765839576721191e-01 -8.266568183898925781e-02 5.049052238464355469e-01
4.036000000000000000e+03 4.285899353027343750e+01 5.916054248809814453e+00 -4.757837355136871338e-01 1.535562053322792053e-02 -1.381284296512603760e-01 6.456055045127868652e-01
4.037000000000000000e+03 3.922988128662109375e+01 5.298022270202636719e+00 -5.278247594833374023e-01 -1.683896221220493317e-02 -1.633991152048110962e-01 6.667919754981994629e-01
4.038000000000000000e+03 5.589212036132812500e+01 -1.882100486755371094e+01 2.113256044685840607e-02 3.269224464893341064e-01 1.044164970517158508e-01 -2.437332868576049805e-01
4.039000000000000000e+03 5.799215316772460938e+01 -2.087116241455078125e+01 4.057097434997558594e-01 7.183777093887329102e-01 3.372262418270111084e-01 3.938810899853706360e-02
4.040000000000000000e+03 3.633237075805664062e+01 -1.953570365905761719e+01 -2.031267732381820679e-01 -1.328311562538146973e-01 -1.007873788475990295e-01 -5.090749263763427734e-01
4.041000000000000000e+03 4.368791961669921875e+01 6.971686363220214844e+00 -3.650903999805450439e-01 3.869646415114402771e-02 -9.791818261146545410e-02 6.265315413475036621e-01
4.042000000000000000e+03 5.137065887451171875e+01 -2.148180389404296875e+01 2.069416940212249756e-01 1.729610413312911987e-01 1.139708235859870911e-01 -3.763985633850097656e-01
4.043000000000000000e+03 4.598052597045898438e+01 6.508310317993164062e+00 -3.759417831897735596e-01 6.507402658462524414e-02 -9.326032549142837524e-02 5.919196009635925293e-01
4.044000000000000000e+03 6.560206604003906250e+01 -2.068187904357910156e+01 5.884316563606262207e-01 2.435162067413330078e+00 9.070781469345092773e-01 9.630041122436523438e-01
4.045000000000000000e+03 6.597220611572265625e+01 -1.942490959167480469e+01 5.156667232513427734e-01 2.395068168640136719e+00 8.732204437255859375e-01 1.024484395980834961e+00
4.046000000000000000e+03 3.028075027465820312e+01 9.364141464233398438e+00 -3.426344692707061768e-01 -1.566131561994552612e-01 -1.497742831707000732e-01 6.350998878479003906e-01
4.047000000000000000e+03 6.151624679565429688e+01 6.228931427001953125e+00 2.267988324165344238e-01 1.086871027946472168e+00 3.941009640693664551e-01 -4.385208189487457275e-01
4.048000000000000000e+03 6.538304138183593750e+01 5.877183914184570312e+00 3.731170594692230225e-01 2.062163352966308594e+00 7.305841445922851562e-01 -1.022385001182556152e+00
4.049000000000000000e+03 5.919454193115234375e+01 6.698711395263671875e+00 1.591601669788360596e-01 7.546480298042297363e-01 2.741424739360809326e-01 -1.846738755702972412e-01
4.050000000000000000e+03 3.799555587768554688e+01 -1.991947555541992188e+01 -1.710373014211654663e-01 -1.320622861385345459e-01 -9.092987328767776489e-02 -5.255782008171081543e-01
4.051000000000000000e+03 3.992536544799804688e+01 -1.883864593505859375e+01 -2.673339545726776123e-01 -1.099704056978225708e-01 -1.131913140416145325e-01 -5.446785092353820801e-01
4.052000000000000000e+03 4.594221878051757812e+01 -1.971882057189941406e+01 -1.317402273416519165e-01 -4.279240965843200684e-02 -5.235978960990905762e-02 -5.353504419326782227e-01
4.053000000000000000e+03 4.751031875610351562e+01 -1.958741950988769531e+01 -1.264889836311340332e-01 -2.375346794724464417e-02 -4.507273435592651367e-02 -5.202465057373046875e-01
4.054000000000000000e+03 2.721428489685058594e+01 -2.167320632934570312e+01 -8.483705669641494751e-02 -1.567729711532592773e-01 -7.248301059007644653e-02 -3.905920684337615967e-01
4.055000000000000000e+03 4.860904312133789062e+01 6.278676033020019531e+00 -3.557567894458770752e-01 9.910305589437484741e-02 -7.699611783027648926e-02 5.289173722267150879e-01
4.056000000000000000e+03 6.383010482788085938e+01 6.602910518646240234e+00 3.803769946098327637e-01 1.678063273429870605e+00 6.175320744514465332e-01 -8.135609626770019531e-01
4.057000000000000000e+03 3.626900482177734375e+01 -2.104320907592773438e+01 -1.029567047953605652e-01 -1.447758823633193970e-01 -7.431977242231369019e-02 -5.091261267662048340e-01
4.058000000000000000e+03 4.746424102783203125e+01 5.271594524383544922e+00 -5.089427232742309570e-01 5.524459853768348694e-02 -1.361094266176223755e-01 5.769501924514770508e-01
4.059000000000000000e+03 6.392498779296875000e+01 -2.176243782043457031e+01 6.502786278724670410e-01 2.034203529357910156e+00 8.053446412086486816e-01 7.539833188056945801e-01
4.060000000000000000e+03 5.707611846923828125e+01 6.594510555267333984e+00 2.597309276461601257e-02 5.193041563034057617e-01 1.635831743478775024e-01 3.642861917614936829e-02
4.061000000000000000e+03 5.716703796386718750e+01 7.554988384246826172e+00 1.365536153316497803e-01 6.085047125816345215e-01 2.235175073146820068e-01 -1.541635580360889435e-02
4.062000000000000000e+03 6.463944244384765625e+01 1.185008621215820312e+01 6.110421419143676758e-01 2.547585010528564453e+00 9.475880861282348633e-01 -9.540773630142211914e-01
4.063000000000000000e+03 6.236063766479492188e+01 8.812712669372558594e+00 4.856963157653808594e-01 1.570782661437988281e+00 6.169437170028686523e-01 -6.620176434516906738e-01
4.064000000000000000e+03 3.491219711303710938e+01 -2.157535171508789062e+01 -6.661686301231384277e-02 -1.533950269222259521e-01 -6.600356847047805786e-02 -4.964672327041625977e-01
4.065000000000000000e+03 3.172461128234863281e+01 8.184544563293457031e+00 -3.647912740707397461e-01 -1.161724776029586792e-01 -1.442891210317611694e-01 6.510294079780578613e-01
4.066000000000000000e+03 2.872206497192382812e+01 1.053941726684570312e+01 -3.380451500415802002e-01 -2.156583368778228760e-01 -1.661110520362854004e-01 6.102309823036193848e-01
4.067000000000000000e+03 4.278929901123046875e+01 -1.887093353271484375e+01 -2.579080462455749512e-01 -8.666504919528961182e-02 -1.033719256520271301e-01 -5.541163086891174316e-01
4.068000000000000000e+03 5.621123504638671875e+01 6.266157627105712891e+00 -7.285353541374206543e-02 4.284584820270538330e-01 1.066814884543418884e-01 1.294549554586410522e-01
4.069000000000000000e+03 6.190596008300781250e+01 1.169503307342529297e+01 5.993244647979736328e-01 1.836095452308654785e+00 7.306259870529174805e-01 -6.752699017524719238e-01
4.070000000000000000e+03 5.354014205932617188e+01 -2.118483352661132812e+01 2.581548690795898438e-01 2.969020307064056396e-01 1.665170788764953613e-01 -2.855231165885925293e-01
4.071000000000000000e+03 6.130636215209960938e+01 1.857212448120117188e+01 6.644931435585021973e-01 2.288750648498535156e+00 8.859730958938598633e-01 -6.165966987609863281e-01
4.072000000000000000e+03 6.326033020019531250e+01 1.632829093933105469e+01 6.395648121833801270e-01 2.566416501998901367e+00 9.617943763732910156e-01 -7.878651022911071777e-01
4.073000000000000000e+03 4.712616348266601562e+01 -1.805511093139648438e+01 -3.323988914489746094e-01 -4.495945572853088379e-02 -1.132075116038322449e-01 -5.471037030220031738e-01
4.074000000000000000e+03 4.475370407104492188e+01 -2.126591110229492188e+01 1.024899352341890335e-02 -5.256229266524314880e-02 -1.269399002194404602e-02 -5.225728750228881836e-01
4.075000000000000000e+03 6.218831253051757812e+01 1.316114521026611328e+01 6.400601267814636230e-01 2.046637058258056641e+00 8.060091733932495117e-01 -7.147467136383056641e-01
4.076000000000000000e+03 2.596146583557128906e+01 -2.508715629577636719e+01 4.092932119965553284e-02 -2.071226388216018677e-01 -4.985799267888069153e-02 -3.556603193283081055e-01
4.077000000000000000e+03 1.847699546813964844e+01 -2.719088745117187500e+01 7.001196593046188354e-02 -2.621551454067230225e-01 -5.764295905828475952e-02 -2.311347126960754395e-01
4.078000000000000000e+03 6.050837326049804688e+01 -2.846266365051269531e+01 8.479238152503967285e-01 1.847546696662902832e+00 8.086411356925964355e-01 4.056754410266876221e-01
4.079000000000000000e+03 3.130100631713867188e+01 6.044576644897460938e+00 -4.185671806335449219e-01 -1.119878217577934265e-01 -1.591664999723434448e-01 6.425046324729919434e-01
4.080000000000000000e+03 3.310592651367187500e+01 5.843266963958740234e+00 -4.443851709365844727e-01 -7.837524265050888062e-02 -1.568281203508377075e-01 6.528986692428588867e-01
4.081000000000000000e+03 6.300143432617187500e+01 5.952584266662597656e+00 2.797893881797790527e-01 1.356851458549499512e+00 4.909922480583190918e-01 -6.506739854812622070e-01
4.082000000000000000e+03 5.178061294555664062e+01 8.894309997558593750e+00 4.235666617751121521e-02 3.142975568771362305e-01 1.069962680339813232e-01 3.100917637348175049e-01
4.083000000000000000e+03 5.231350326538085938e+01 1.010517215728759766e+01 1.733613163232803345e-01 4.187931120395660400e-01 1.776463240385055542e-01 2.313752919435501099e-01
4.084000000000000000e+03 6.123194885253906250e+01 -2.098999214172363281e+01 5.498991012573242188e-01 1.260739564895629883e+00 5.431916117668151855e-01 4.019728302955627441e-01
4.085000000000000000e+03 4.425442504882812500e+01 -1.861322212219238281e+01 -2.810948491096496582e-01 -7.081481814384460449e-02 -1.055729016661643982e-01 -5.552840828895568848e-01
4.086000000000000000e+03 3.637828826904296875e+01 7.221021175384521484e+00 -3.942894935607910156e-01 -4.390321299433708191e-02 -1.314578056335449219e-01 6.704581975936889648e-01
4.087000000000000000e+03 6.798858642578125000e+01 3.137953519821166992e+00 1.474718749523162842e-01 2.736458778381347656e+00 8.651792407035827637e-01 -1.493793845176696777e+00
4.088000000000000000e+03 5.596502304077148438e+01 -2.358879089355468750e+01 5.763720273971557617e-01 7.035142779350280762e-01 3.839658796787261963e-01 -3.825720027089118958e-02
4.089000000000000000e+03 4.996863937377929688e+01 7.011843204498291016e+00 -2.373294532299041748e-01 1.519051343202590942e-01 -2.562729641795158386e-02 4.664026200771331787e-01
4.090000000000000000e+03 5.465616607666015625e+01 -1.992855834960937500e+01 1.252831667661666870e-01 3.086325228214263916e-01 1.301747113466262817e-01 -2.750340700149536133e-01
4.091000000000000000e+03 5.579851150512695312e+01 -2.108177947998046875e+01 3.343677222728729248e-01 4.924808740615844727e-01 2.480545789003372192e-01 -1.417689919471740723e-01
4.092000000000000000e+03 4.884980773925781250e+01 -2.185851287841796875e+01 1.665992438793182373e-01 6.338070333003997803e-02 6.899398565292358398e-02 -4.412785768508911133e-01
4.093000000000000000e+03 4.134921264648437500e+01 -1.899407577514648438e+01 -2.553562223911285400e-01 -1.023550480604171753e-01 -1.073133796453475952e-01 -5.497952103614807129e-01
4.094000000000000000e+03 4.295679092407226562e+01 -2.041988945007324219e+01 -9.134113043546676636e-02 -8.096248656511306763e-02 -5.169108510017395020e-02 -5.439501404762268066e-01
4.095000000000000000e+03 6.066246414184570312e+01 7.066489696502685547e+00 2.799294292926788330e-01 1.021504163742065430e+00 3.904300928115844727e-01 -3.757529556751251221e-01
4.096000000000000000e+03 6.225904846191406250e+01 6.958234310150146484e+00 3.562062978744506836e-01 1.326746344566345215e+00 5.048857927322387695e-01 -5.940601229667663574e-01
4.097000000000000000e+03 4.557014846801757812e+01 7.989035129547119141e+00 -2.435928732156753540e-01 9.333780407905578613e-02 -4.507651925086975098e-02 5.743910670280456543e-01
4.098000000000000000e+03 4.199317550659179688e+01 9.959652900695800781e+00 -1.522419303655624390e-01 5.408395081758499146e-02 -2.944739349186420441e-02 6.038041710853576660e-01
4.099000000000000000e+03 2.969684791564941406e+01 1.243166351318359375e+01 -2.711094319820404053e-01 -1.953514367341995239e-01 -1.399382650852203369e-01 5.860937237739562988e-01
4.100000000000000000e+03 4.736231994628906250e+01 6.562013149261474609e+00 -3.470714688301086426e-01 8.859659731388092041e-02 -7.754246890544891357e-02 5.588819384574890137e-01
4.101000000000000000e+03 6.136380767822265625e+01 8.055953025817871094e+00 4.006669223308563232e-01 1.298475742340087891e+00 5.097427964210510254e-01 -5.174267292022705078e-01
4.102000000000000000e+03 3.017469978332519531e+01 1.093834114074707031e+01 -3.049705028533935547e-01 -1.714155524969100952e-01 -1.429158151149749756e-01 6.152542233467102051e-01
4.103000000000000000e+03 5.574811172485351562e+01 9.584163665771484375e+00 2.792702019214630127e-01 6.449787616729736328e-01 2.772746980190277100e-01 7.522151339799165726e-03
4.104000000000000000e+03 4.054852294921875000e+01 7.393996238708496094e+00 -3.594113290309906006e-01 5.331646651029586792e-03 -1.062239035964012146e-01 6.592050194740295410e-01
4.105000000000000000e+03 3.200264358520507812e+01 1.492197227478027344e+01 -1.211946234107017517e-01 -1.360555589199066162e-01 -7.717505842447280884e-02 5.313866734504699707e-01
4.106000000000000000e+03 6.061189270019531250e+01 -2.236478042602539062e+01 6.347100138664245605e-01 1.300138115882873535e+00 5.804544091224670410e-01 3.704492449760437012e-01
4.107000000000000000e+03 3.089004898071289062e+01 1.356425666809082031e+01 -2.048589140176773071e-01 -1.628282815217971802e-01 -1.103061586618423462e-01 5.675422549247741699e-01
4.108000000000000000e+03 6.069329833984375000e+01 1.356418895721435547e+01 6.322148442268371582e-01 1.777226924896240234e+00 7.228325009346008301e-01 -5.791866183280944824e-01
4.109000000000000000e+03 6.125986099243164062e+01 1.691106796264648438e+01 6.565521359443664551e-01 2.169763088226318359e+00 8.478945493698120117e-01 -6.222729086875915527e-01
4.110000000000000000e+03 6.095891571044921875e+01 1.520016574859619141e+01 6.606505513191223145e-01 1.982337713241577148e+00 7.928964495658874512e-01 -6.125335097312927246e-01
4.111000000000000000e+03 5.288874816894531250e+01 8.213592529296875000e+00 1.825497858226299286e-02 3.445327877998352051e-01 1.088363304734230042e-01 2.759574353694915771e-01
4.112000000000000000e+03 3.883188247680664062e+01 6.801108360290527344e+00 -4.075763225555419922e-01 -1.460693683475255966e-02 -1.266549825668334961e-01 6.669418215751647949e-01
4.113000000000000000e+03 3.929479980468750000e+01 8.055202484130859375e+00 -3.270032107830047607e-01 -7.071371655911207199e-03 -1.002223715186119080e-01 6.599741578102111816e-01
4.114000000000000000e+03 4.133430480957031250e+01 -2.082645034790039062e+01 -7.132489979267120361e-02 -1.070165336132049561e-01 -5.350242927670478821e-02 -5.429407954216003418e-01
4.115000000000000000e+03 5.745195007324218750e+01 -2.475704956054687500e+01 7.005977630615234375e-01 9.985440373420715332e-01 5.097425580024719238e-01 1.218062341213226318e-01
4.116000000000000000e+03 2.768260002136230469e+01 -2.354299354553222656e+01 -9.038557764142751694e-04 -1.844921261072158813e-01 -5.561879277229309082e-02 -3.857752084732055664e-01
4.117000000000000000e+03 3.164886283874511719e+01 -2.106542205810546875e+01 -1.040875688195228577e-01 -1.492133885622024536e-01 -7.599028199911117554e-02 -4.550769627094268799e-01
4.118000000000000000e+03 6.265430831909179688e+01 2.428396224975585938e+01 5.745344758033752441e-01 2.809048652648925781e+00 1.015074968338012695e+00 -5.765157341957092285e-01
4.119000000000000000e+03 6.247426986694335938e+01 2.118105316162109375e+01 6.256685853004455566e-01 2.652931451797485352e+00 9.835799932479858398e-01 -6.529241204261779785e-01
4.120000000000000000e+03 4.602358245849609375e+01 -2.109327507019042969e+01 1.804512366652488708e-02 -3.233610093593597412e-02 -4.287293180823326111e-03 -5.137069821357727051e-01
4.121000000000000000e+03 4.748294448852539062e+01 -2.117320823669433594e+01 6.065224856138229370e-02 -4.697190597653388977e-03 1.678651757538318634e-02 -4.953527450561523438e-01
4.122000000000000000e+03 3.231980514526367188e+01 -2.284516525268554688e+01 1.220943499356508255e-02 -1.716549396514892578e-01 -4.783365130424499512e-02 -4.565804600715637207e-01
4.123000000000000000e+03 3.774330902099609375e+01 -2.352155494689941406e+01 1.111218705773353577e-01 -1.608129292726516724e-01 -1.490731723606586456e-02 -4.931556880474090576e-01
4.124000000000000000e+03 5.992813873291015625e+01 -2.392977905273437500e+01 7.105419039726257324e-01 1.332644581794738770e+00 6.129559278488159180e-01 3.337746560573577881e-01
4.125000000000000000e+03 5.703327941894531250e+01 -2.217335128784179688e+01 4.978919029235839844e-01 7.169052362442016602e-01 3.644391298294067383e-01 -4.964513354934751987e-04
4.126000000000000000e+03 5.468807220458984375e+01 -2.235346412658691406e+01 4.284538924694061279e-01 4.654542505741119385e-01 2.681724429130554199e-01 -1.793922632932662964e-01
4.127000000000000000e+03 6.453894805908203125e+01 7.286077499389648438e+00 4.425926804542541504e-01 1.949526786804199219e+00 7.176358103752136230e-01 -9.361101984977722168e-01
4.128000000000000000e+03 6.448669433593750000e+01 5.623063087463378906e+00 3.206378221511840820e-01 1.680288791656494141e+00 6.002780199050903320e-01 -8.652838468551635742e-01
4.129000000000000000e+03 3.730248260498046875e+01 7.676159381866455078e+00 -3.631421923637390137e-01 -3.091777302324771881e-02 -1.182179823517799377e-01 6.665505766868591309e-01
4.130000000000000000e+03 5.135986328125000000e+01 7.731382846832275391e+00 -1.044158339500427246e-01 2.348790168762207031e-01 3.913895413279533386e-02 3.816244900226593018e-01
4.131000000000000000e+03 4.759838104248046875e+01 -2.265270042419433594e+01 2.291244864463806152e-01 3.993158042430877686e-02 8.071681857109069824e-02 -4.452212154865264893e-01
4.132000000000000000e+03 5.247227096557617188e+01 -2.231667518615722656e+01 3.504519462585449219e-01 2.805587351322174072e-01 1.893032044172286987e-01 -3.001013994216918945e-01
4.133000000000000000e+03 6.018116760253906250e+01 8.917625427246093750e+00 4.175767898559570312e-01 1.180544853210449219e+00 4.794364869594573975e-01 -4.152227640151977539e-01
4.134000000000000000e+03 5.747299957275390625e+01 8.594549179077148438e+00 2.704134881496429443e-01 7.388035058975219727e-01 3.027651011943817139e-01 -1.004624292254447937e-01
4.135000000000000000e+03 6.309690856933593750e+01 7.631822586059570312e+00 4.273617565631866455e-01 1.621831178665161133e+00 6.147578954696655273e-01 -7.187506556510925293e-01
4.136000000000000000e+03 3.175576972961425781e+01 6.994625091552734375e+00 -4.003824889659881592e-01 -1.092210635542869568e-01 -1.528810709714889526e-01 6.525335311889648438e-01
4.137000000000000000e+03 3.174991607666015625e+01 9.575795173645019531e+00 -3.252271115779876709e-01 -1.245684921741485596e-01 -1.349386721849441528e-01 6.407508254051208496e-01
4.138000000000000000e+03 4.919786834716796875e+01 8.500669479370117188e+00 -9.747385978698730469e-02 1.862329989671707153e-01 2.662774361670017242e-02 4.464974105358123779e-01
4.139000000000000000e+03 4.766209030151367188e+01 7.824160575866699219e+00 -2.096696496009826660e-01 1.279051154851913452e-01 -2.452936023473739624e-02 5.232880711555480957e-01
4.140000000000000000e+03 3.805300140380859375e+01 8.773898124694824219e+00 -2.958861589431762695e-01 -1.805493608117103577e-02 -9.418232738971710205e-02 6.569547653198242188e-01
4.141000000000000000e+03 3.296271896362304688e+01 6.965240001678466797e+00 -4.017669558525085449e-01 -8.602895587682723999e-02 -1.463387757539749146e-01 6.594617366790771484e-01
4.142000000000000000e+03 4.821116256713867188e+01 8.852631568908691406e+00 -9.228263795375823975e-02 1.769302785396575928e-01 2.539429441094398499e-02 4.711699783802032471e-01
4.143000000000000000e+03 3.964543151855468750e+01 -2.063586616516113281e+01 -9.584225714206695557e-02 -1.231813356280326843e-01 -6.570708006620407104e-02 -5.374959111213684082e-01
4.144000000000000000e+03 3.371462631225585938e+01 1.043958663940429688e+01 -2.650829255580902100e-01 -8.533934503793716431e-02 -1.051266863942146301e-01 6.355702280998229980e-01
4.145000000000000000e+03 3.208437728881835938e+01 1.255113792419433594e+01 -2.171603441238403320e-01 -1.294438242912292480e-01 -1.039812490344047546e-01 5.934625864028930664e-01
4.146000000000000000e+03 4.666596984863281250e+01 8.730895996093750000e+00 -1.507754027843475342e-01 1.271304190158843994e-01 -7.093492895364761353e-03 5.267096161842346191e-01
4.147000000000000000e+03 4.287227249145507812e+01 1.129856491088867188e+01 -3.810346126556396484e-02 9.826555848121643066e-02 1.804863102734088898e-02 5.551734566688537598e-01
4.148000000000000000e+03 6.404093933105468750e+01 8.178283691406250000e+00 4.976235926151275635e-01 1.950832009315490723e+00 7.345366477966308594e-01 -8.776803612709045410e-01
4.149000000000000000e+03 3.873665618896484375e+01 1.019233417510986328e+01 -2.017518132925033569e-01 -3.078304696828126907e-03 -6.144903600215911865e-02 6.337608695030212402e-01
4.150000000000000000e+03 4.123175430297851562e+01 8.657377243041992188e+00 -2.613073885440826416e-01 2.511528320610523224e-02 -7.085763663053512573e-02 6.362076997756958008e-01
4.151000000000000000e+03 4.432097244262695312e+01 8.163693428039550781e+00 -2.534769475460052490e-01 6.529256701469421387e-02 -5.645531788468360901e-02 6.024320125579833984e-01
4.152000000000000000e+03 6.359160995483398438e+01 9.291185379028320312e+00 5.439767241477966309e-01 1.990975022315979004e+00 7.604855298995971680e-01 -8.396633863449096680e-01
4.153000000000000000e+03 6.189210510253906250e+01 1.020253658294677734e+01 5.506506562232971191e-01 1.653825402259826660e+00 6.613427996635437012e-01 -6.505328416824340820e-01
4.154000000000000000e+03 5.748304748535156250e+01 1.248904418945312500e+01 5.364462137222290039e-01 1.117964506149291992e+00 4.963232278823852539e-01 -2.555153369903564453e-01
4.155000000000000000e+03 5.966521835327148438e+01 7.733924865722656250e+00 2.903970181941986084e-01 9.441180825233459473e-01 3.703545331954956055e-01 -2.981869280338287354e-01
4.156000000000000000e+03 5.389226150512695312e+01 7.458932876586914062e+00 -2.296718209981918335e-02 3.640667796134948730e-01 1.023298725485801697e-01 2.422153949737548828e-01
4.157000000000000000e+03 5.060982513427734375e+01 9.416553497314453125e+00 4.457344114780426025e-02 2.854268252849578857e-01 9.900007396936416626e-02 3.498028516769409180e-01
4.158000000000000000e+03 3.515846252441406250e+01 -2.412005996704101562e+01 1.159596368670463562e-01 -1.726118326187133789e-01 -1.699565723538398743e-02 -4.655877947807312012e-01
4.159000000000000000e+03 3.355585861206054688e+01 -2.218195533752441406e+01 -2.924880385398864746e-02 -1.613881140947341919e-01 -5.719107389450073242e-02 -4.774026572704315186e-01
4.160000000000000000e+03 4.399120330810546875e+01 1.023638725280761719e+01 -8.001887053251266479e-02 1.031866222620010376e-01 6.950327195227146149e-03 5.569338202476501465e-01
4.161000000000000000e+03 5.649384689331054688e+01 8.931459426879882812e+00 2.538030445575714111e-01 6.736865639686584473e-01 2.782468795776367188e-01 -3.112650103867053986e-02
4.162000000000000000e+03 4.341921997070312500e+01 -2.195989418029785156e+01 6.019781902432441711e-02 -6.707625091075897217e-02 -2.063529798761010170e-03 -5.262451767921447754e-01
4.163000000000000000e+03 5.380935287475585938e+01 1.618654060363769531e+01 5.628376603126525879e-01 9.427326321601867676e-01 4.516710638999938965e-01 -7.210703939199447632e-02
4.164000000000000000e+03 5.857005310058593750e+01 8.226531028747558594e+00 2.843662202358245850e-01 8.440604805946350098e-01 3.385280072689056396e-01 -1.976648569107055664e-01
4.165000000000000000e+03 5.885386276245117188e+01 9.409837722778320312e+00 4.010479152202606201e-01 1.018055558204650879e+00 4.257310330867767334e-01 -2.819263339042663574e-01
4.166000000000000000e+03 2.918650436401367188e+01 -2.354873847961425781e+01 1.917776465415954590e-02 -1.829818338155746460e-01 -4.914122447371482849e-02 -4.076470732688903809e-01
4.167000000000000000e+03 4.590440750122070312e+01 1.003398418426513672e+01 -4.695542529225349426e-02 1.583840548992156982e-01 3.342859074473381042e-02 5.185297131538391113e-01
4.168000000000000000e+03 5.899890136718750000e+01 1.076433277130126953e+01 4.912293851375579834e-01 1.171660304069519043e+00 4.988669157028198242e-01 -3.451788425445556641e-01
4.169000000000000000e+03 4.000019073486328125e+01 9.435915946960449219e+00 -2.256524115800857544e-01 1.442117989063262939e-02 -6.336937099695205688e-02 6.368855237960815430e-01
4.170000000000000000e+03 3.300785446166992188e+01 1.154884529113769531e+01 -2.335381656885147095e-01 -1.010791435837745667e-01 -1.003851890563964844e-01 6.197329163551330566e-01
4.171000000000000000e+03 5.449558639526367188e+01 8.236332893371582031e+00 9.624376893043518066e-02 4.562627673149108887e-01 1.657519638538360596e-01 1.598221510648727417e-01
4.172000000000000000e+03 4.076411437988281250e+01 1.084568786621093750e+01 -1.204269379377365112e-01 4.277881234884262085e-02 -2.329443767666816711e-02 6.006491184234619141e-01
4.173000000000000000e+03 4.426892852783203125e+01 -2.328337860107421875e+01 2.141452133655548096e-01 -3.856273740530014038e-02 5.267474427819252014e-02 -4.807837009429931641e-01
4.174000000000000000e+03 4.629158401489257812e+01 -2.321838951110839844e+01 2.424074709415435791e-01 9.640968404710292816e-03 7.561453431844711304e-02 -4.539408087730407715e-01
4.175000000000000000e+03 5.511657333374023438e+01 8.962239265441894531e+00 1.926922351121902466e-01 5.466233491897583008e-01 2.217946648597717285e-01 8.569666743278503418e-02
4.176000000000000000e+03 5.655717086791992188e+01 9.848921775817871094e+00 3.375080227851867676e-01 7.614482045173645020e-01 3.296868801116943359e-01 -7.472648471593856812e-02
4.177000000000000000e+03 5.924350738525390625e+01 -2.169480323791503906e+01 5.383077263832092285e-01 9.827690720558166504e-01 4.563230276107788086e-01 1.987280249595642090e-01
4.178000000000000000e+03 5.122264480590820312e+01 -2.298779869079589844e+01 3.621388077735900879e-01 2.164380550384521484e-01 1.735730618238449097e-01 -3.334312140941619873e-01
4.179000000000000000e+03 6.053030014038085938e+01 1.197329711914062500e+01 5.965893268585205078e-01 1.591227293014526367e+00 6.563449501991271973e-01 -5.463765859603881836e-01
4.180000000000000000e+03 5.908389663696289062e+01 1.388675785064697266e+01 6.240720748901367188e-01 1.506004214286804199e+00 6.390228867530822754e-01 -4.371283054351806641e-01
4.181000000000000000e+03 5.762576675415039062e+01 9.728012084960937500e+00 3.704946339130401611e-01 8.732333779335021973e-01 3.731184005737304688e-01 -1.678266376256942749e-01
4.182000000000000000e+03 3.029816246032714844e+01 -2.138138008117675781e+01 -9.791711717844009399e-02 -1.510045677423477173e-01 -7.467650622129440308e-02 -4.396746158599853516e-01
4.183000000000000000e+03 3.648505020141601562e+01 -2.417068290710449219e+01 1.474217772483825684e-01 -1.698930710554122925e-01 -6.741389632225036621e-03 -4.759725630283355713e-01
4.184000000000000000e+03 6.020441055297851562e+01 2.084465408325195312e+01 6.559397578239440918e-01 2.212721347808837891e+00 8.605983853340148926e-01 -5.311065316200256348e-01
4.185000000000000000e+03 2.478186798095703125e+01 -2.608093070983886719e+01 7.137463241815567017e-02 -2.274108529090881348e-01 -4.681086912751197815e-02 -3.236170411109924316e-01
4.186000000000000000e+03 4.813545989990234375e+01 -2.426459121704101562e+01 3.806211650371551514e-01 9.193649888038635254e-02 1.417672932147979736e-01 -3.912529051303863525e-01
4.187000000000000000e+03 6.046609115600585938e+01 1.036596584320068359e+01 5.182467103004455566e-01 1.391275763511657715e+00 5.728567242622375488e-01 -4.964284896850585938e-01
4.188000000000000000e+03 3.417860412597656250e+01 8.227980613708496094e+00 -3.474262952804565430e-01 -6.831697374582290649e-02 -1.247229799628257751e-01 6.609973907470703125e-01
4.189000000000000000e+03 5.626467132568359375e+01 1.103049182891845703e+01 4.041476547718048096e-01 8.278921246528625488e-01 3.696119487285614014e-01 -9.578806906938552856e-02
4.190000000000000000e+03 4.944830322265625000e+01 9.748032569885253906e+00 3.311716392636299133e-02 2.517049014568328857e-01 8.544661849737167358e-02 3.944078087806701660e-01
4.191000000000000000e+03 4.502709960937500000e+01 1.135905265808105469e+01 2.668038383126258850e-02 1.657897382974624634e-01 5.774103850126266479e-02 5.047203898429870605e-01
4.192000000000000000e+03 4.161743545532226562e+01 1.231846904754638672e+01 -8.314177393913269043e-03 8.421251922845840454e-02 2.276950329542160034e-02 5.513168573379516602e-01
4.193000000000000000e+03 3.643144989013671875e+01 8.207633018493652344e+00 -3.383249342441558838e-01 -4.073084890842437744e-02 -1.137167364358901978e-01 6.654789447784423828e-01
4.194000000000000000e+03 3.622441482543945312e+01 1.181376552581787109e+01 -1.699324846267700195e-01 -4.041782394051551819e-02 -6.310509145259857178e-02 6.170034408569335938e-01
4.195000000000000000e+03 3.324256134033203125e+01 1.378412818908691406e+01 -1.373887360095977783e-01 -1.004693582653999329e-01 -7.135742902755737305e-02 5.662175416946411133e-01
4.196000000000000000e+03 3.167045402526855469e+01 1.113029193878173828e+01 -2.753569483757019043e-01 -1.315842717885971069e-01 -1.220823675394058228e-01 6.203551292419433594e-01
4.197000000000000000e+03 5.151239395141601562e+01 1.237796306610107422e+01 3.249855339527130127e-01 5.104674696922302246e-01 2.506358921527862549e-01 1.839264780282974243e-01
4.198000000000000000e+03 5.099331665039062500e+01 1.080849552154541016e+01 1.822708249092102051e-01 3.770374357700347900e-01 1.677924841642379761e-01 2.777708768844604492e-01
4.199000000000000000e+03 4.158400344848632812e+01 -2.614383697509765625e+01 3.686597943305969238e-01 -8.738049864768981934e-02 8.438379317522048950e-02 -4.457454085350036621e-01
4.200000000000000000e+03 4.850780487060546875e+01 -2.622082328796386719e+01 5.479028224945068359e-01 1.726744025945663452e-01 2.161731719970703125e-01 -3.221852183341979980e-01
4.201000000000000000e+03 5.305929565429687500e+01 1.136470699310302734e+01 3.133150637149810791e-01 5.604695081710815430e-01 2.621353566646575928e-01 1.293821185827255249e-01
4.202000000000000000e+03 3.297034072875976562e+01 8.197833061218261719e+00 -3.593808114528656006e-01 -9.320241212844848633e-02 -1.357749551534652710e-01 6.591265201568603516e-01
4.203000000000000000e+03 5.204541778564453125e+01 -2.469151306152343750e+01 5.419099330902099609e-01 3.482232689857482910e-01 2.670399546623229980e-01 -2.362119704484939575e-01
4.204000000000000000e+03 5.589747238159179688e+01 1.250311374664306641e+01 4.898209273815155029e-01 9.156724214553833008e-01 4.216479957103729248e-01 -1.227961927652359009e-01
4.205000000000000000e+03 2.989505004882812500e+01 -2.694630050659179688e+01 1.834801584482192993e-01 -2.208920121192932129e-01 -1.122355833649635315e-02 -3.830128908157348633e-01
4.206000000000000000e+03 5.903669738769531250e+01 1.227939796447753906e+01 5.740377306938171387e-01 1.339291095733642578e+00 5.739986896514892578e-01 -4.009608924388885498e-01
4.207000000000000000e+03 5.915901184082031250e+01 -2.570539474487304688e+01 7.822539210319519043e-01 1.357504606246948242e+00 6.419275403022766113e-01 2.914985716342926025e-01
4.208000000000000000e+03 3.678260040283203125e+01 9.460938453674316406e+00 -2.688845992088317871e-01 -3.535149618983268738e-02 -9.127082675695419312e-02 6.513272523880004883e-01
4.209000000000000000e+03 3.894219589233398438e+01 -2.235929107666015625e+01 3.136638179421424866e-02 -1.425401568412780762e-01 -3.335213288664817810e-02 -5.148718357086181641e-01
4.210000000000000000e+03 4.025821304321289062e+01 -2.403190422058105469e+01 1.779474020004272461e-01 -1.314398050308227539e-01 1.395227853208780289e-02 -4.944148063659667969e-01
4.211000000000000000e+03 5.759423828125000000e+01 1.101471042633056641e+01 4.588296413421630859e-01 1.001904368400573730e+00 4.382202029228210449e-01 -2.195111811161041260e-01
4.212000000000000000e+03 5.740242767333984375e+01 1.411909198760986328e+01 5.992481112480163574e-01 1.246139407157897949e+00 5.536162257194519043e-01 -2.928528487682342529e-01
4.213000000000000000e+03 3.540638351440429688e+01 9.632542610168457031e+00 -2.760472297668457031e-01 -5.434138700366020203e-02 -9.911658614873886108e-02 6.488133668899536133e-01
4.214000000000000000e+03 3.415485763549804688e+01 9.401906013488769531e+00 -2.980884611606597900e-01 -7.302835583686828613e-02 -1.113350465893745422e-01 6.521490812301635742e-01
4.215000000000000000e+03 5.509547805786132812e+01 1.071189022064208984e+01 3.364728093147277832e-01 6.684999465942382812e-01 3.014918267726898193e-01 1.460395846515893936e-02
4.216000000000000000e+03 5.430117034912109375e+01 1.222977924346923828e+01 4.121004045009613037e-01 7.153216004371643066e-01 3.382266163825988770e-01 1.638563536107540131e-02
4.217000000000000000e+03 4.516158294677734375e+01 1.397932720184326172e+01 2.003035098314285278e-01 2.476854920387268066e-01 1.343967020511627197e-01 4.146098196506500244e-01
4.218000000000000000e+03 3.816165542602539062e+01 1.240506267547607422e+01 -8.650587499141693115e-02 2.295124577358365059e-03 -2.526322379708290100e-02 5.909559130668640137e-01
4.219000000000000000e+03 4.821018600463867188e+01 1.121163940429687500e+01 1.148953437805175781e-01 2.665179371833801270e-01 1.144239827990531921e-01 3.983190953731536865e-01
4.220000000000000000e+03 4.838903808593750000e+01 9.882789611816406250e+00 1.632208749651908875e-02 2.236304283142089844e-01 7.198575884103775024e-02 4.339824318885803223e-01
4.221000000000000000e+03 3.947545242309570312e+01 1.166924476623535156e+01 -1.021637097001075745e-01 2.602759003639221191e-02 -2.284083515405654907e-02 5.962922573089599609e-01
4.222000000000000000e+03 4.750427627563476562e+01 9.564971923828125000e+00 -4.083577543497085571e-02 1.837632656097412109e-01 4.287824779748916626e-02 4.768427312374114990e-01
4.223000000000000000e+03 4.697259140014648438e+01 1.080349731445312500e+01 4.335795342922210693e-02 2.050929069519042969e-01 7.453525811433792114e-02 4.546827673912048340e-01
4.224000000000000000e+03 3.568737030029296875e+01 1.486470413208007812e+01 -3.737436607480049133e-02 -4.296993836760520935e-02 -2.410329133272171021e-02 5.421106219291687012e-01
4.225000000000000000e+03 5.741785049438476562e+01 1.587909793853759766e+01 6.351149082183837891e-01 1.387951970100402832e+00 6.069200634956359863e-01 -3.278047144412994385e-01
4.226000000000000000e+03 5.937595748901367188e+01 1.731937789916992188e+01 6.649954319000244141e-01 1.821836948394775391e+00 7.460497021675109863e-01 -4.849321842193603516e-01
4.227000000000000000e+03 5.471984863281250000e+01 -2.508026313781738281e+01 6.504974365234375000e-01 6.531227827072143555e-01 3.910860717296600342e-01 -8.693160116672515869e-02
4.228000000000000000e+03 5.629660415649414062e+01 -2.652913284301757812e+01 7.763660550117492676e-01 9.714945554733276367e-01 5.243582129478454590e-01 6.401741504669189453e-02
4.229000000000000000e+03 5.381966400146484375e+01 1.411628723144531250e+01 4.922163486480712891e-01 7.976557016372680664e-01 3.869616091251373291e-01 -1.381437852978706360e-02
4.230000000000000000e+03 5.320298004150390625e+01 -2.649471282958984375e+01 7.003102898597717285e-01 5.412655472755432129e-01 3.724727630615234375e-01 -1.370051950216293335e-01
4.231000000000000000e+03 3.429575729370117188e+01 1.670592498779296875e+01 9.202152490615844727e-03 -7.940373569726943970e-02 -2.106047421693801880e-02 4.880180060863494873e-01
4.232000000000000000e+03 3.214736175537109375e+01 1.754821777343750000e+01 -1.335865538567304611e-02 -1.410328745841979980e-01 -4.631745815277099609e-02 4.651629030704498291e-01
4.233000000000000000e+03 3.690146636962890625e+01 -2.598035240173339844e+01 2.372974306344985962e-01 -1.778755635023117065e-01 1.782655902206897736e-02 -4.503478407859802246e-01
4.234000000000000000e+03 3.357269668579101562e+01 -2.575780487060546875e+01 1.803800612688064575e-01 -1.951182782649993896e-01 -4.421463701874017715e-03 -4.297255575656890869e-01
4.235000000000000000e+03 3.502042388916015625e+01 1.105669975280761719e+01 -2.160038501024246216e-01 -5.973083153367042542e-02 -8.272040635347366333e-02 6.291737556457519531e-01
4.236000000000000000e+03 4.792192840576171875e+01 1.291915035247802734e+01 2.303197383880615234e-01 3.269317150115966797e-01 1.671754270792007446e-01 3.488233387470245361e-01
4.237000000000000000e+03 5.187032318115234375e+01 1.425998306274414062e+01 4.373649060726165771e-01 6.458672881126403809e-01 3.249696493148803711e-01 1.024659499526023865e-01
4.238000000000000000e+03 4.258599090576171875e+01 1.384130954742431641e+01 1.151825040578842163e-01 1.434106826782226562e-01 7.757795602083206177e-02 4.884470403194427490e-01
4.239000000000000000e+03 4.025691223144531250e+01 1.324629402160644531e+01 1.281495857983827591e-02 6.356645375490188599e-02 2.291442267596721649e-02 5.472109317779541016e-01
4.240000000000000000e+03 4.391687774658203125e+01 1.264589214324951172e+01 7.884059101343154907e-02 1.554725319147109985e-01 7.029394060373306274e-02 4.939599037170410156e-01
4.241000000000000000e+03 3.416964721679687500e+01 1.514758300781250000e+01 -6.181947886943817139e-02 -7.887616753578186035e-02 -4.220869392156600952e-02 5.366543531417846680e-01
4.242000000000000000e+03 3.778318405151367188e+01 1.667093276977539062e+01 1.029511764645576477e-01 2.898382768034934998e-02 3.958050161600112915e-02 4.742799997329711914e-01
4.243000000000000000e+03 3.100289154052734375e+01 1.935920333862304688e+01 4.069444537162780762e-02 -1.946090161800384521e-01 -4.617436975240707397e-02 4.046056866645812988e-01
4.244000000000000000e+03 4.971288681030273438e+01 -2.356665802001953125e+01 3.624844551086425781e-01 1.487298607826232910e-01 1.533643007278442383e-01 -3.669350147247314453e-01
4.245000000000000000e+03 5.039901733398437500e+01 -2.556568145751953125e+01 5.633134245872497559e-01 2.749127745628356934e-01 2.514678537845611572e-01 -2.730304598808288574e-01
4.246000000000000000e+03 5.755279541015625000e+01 1.775447273254394531e+01 6.579990983009338379e-01 1.547448754310607910e+00 6.616343855857849121e-01 -3.583820164203643799e-01
4.247000000000000000e+03 5.565446472167968750e+01 1.420251750946044922e+01 5.537319183349609375e-01 1.016631126403808594e+00 4.711089134216308594e-01 -1.541624963283538818e-01
4.248000000000000000e+03 3.739991760253906250e+01 1.091587352752685547e+01 -1.889202445745468140e-01 -2.136639133095741272e-02 -6.308598816394805908e-02 6.278153657913208008e-01
4.249000000000000000e+03 3.690292739868164062e+01 1.301712894439697266e+01 -8.521925657987594604e-02 -1.874881424009799957e-02 -3.119042143225669861e-02 5.809865593910217285e-01
4.250000000000000000e+03 4.627772903442382812e+01 1.544814682006835938e+01 3.052165210247039795e-01 3.361597359180450439e-01 1.924128830432891846e-01 3.340814709663391113e-01
4.251000000000000000e+03 4.111944198608398438e+01 1.492627239227294922e+01 1.240622699260711670e-01 1.155816540122032166e-01 7.189317792654037476e-02 4.840106666088104248e-01
4.252000000000000000e+03 4.486203384399414062e+01 1.693859863281250000e+01 3.324278891086578369e-01 3.193599283695220947e-01 1.955363601446151733e-01 3.376960456371307373e-01
4.253000000000000000e+03 4.985532760620117188e+01 1.471535110473632812e+01 3.896775841712951660e-01 5.154079794883728027e-01 2.715256810188293457e-01 2.002169042825698853e-01
4.254000000000000000e+03 3.561368560791015625e+01 1.313678359985351562e+01 -1.160500720143318176e-01 -4.912158846855163574e-02 -4.955149814486503601e-02 5.832623839378356934e-01
4.255000000000000000e+03 3.730120468139648438e+01 1.464582061767578125e+01 -5.450103897601366043e-03 -3.673559520393610001e-03 -2.737099071964621544e-03 5.424621105194091797e-01
4.256000000000000000e+03 5.963718795776367188e+01 1.907710075378417969e+01 6.719662547111511230e-01 1.992170453071594238e+00 7.992410063743591309e-01 -5.080634951591491699e-01
4.257000000000000000e+03 4.958752059936523438e+01 1.118208503723144531e+01 1.652433723211288452e-01 3.342650234699249268e-01 1.498525142669677734e-01 3.364715576171875000e-01
4.258000000000000000e+03 4.630130386352539062e+01 1.238735485076904297e+01 1.454694271087646484e-01 2.461264580488204956e-01 1.174787655472755432e-01 4.308951497077941895e-01
4.259000000000000000e+03 2.803024482727050781e+01 1.853125000000000000e+01 -9.042178094387054443e-02 -3.067820370197296143e-01 -1.191611513495445251e-01 4.073273837566375732e-01
4.260000000000000000e+03 5.129706192016601562e+01 -2.765810585021972656e+01 7.201600074768066406e-01 4.176204502582550049e-01 3.413341343402862549e-01 -1.834583282470703125e-01
4.261000000000000000e+03 3.881494903564453125e+01 1.405135631561279297e+01 1.135277096182107925e-02 3.529689833521842957e-02 1.399490144103765488e-02 5.425983667373657227e-01
4.262000000000000000e+03 4.990831375122070312e+01 2.027438545227050781e+01 5.850453972816467285e-01 8.095691204071044922e-01 4.183843433856964111e-01 4.329652339220046997e-02
4.263000000000000000e+03 5.022280502319335938e+01 1.656724548339843750e+01 4.760619699954986572e-01 6.333148479461669922e-01 3.328130543231964111e-01 1.230292692780494690e-01
4.264000000000000000e+03 4.971496582031250000e+01 1.282465171813964844e+01 2.868128120899200439e-01 4.242920875549316406e-01 2.133314758539199829e-01 2.707149982452392578e-01
4.265000000000000000e+03 2.698841476440429688e+01 1.661311531066894531e+01 -2.114006578922271729e-01 -3.341821730136871338e-01 -1.636748462915420532e-01 4.496107399463653564e-01
4.266000000000000000e+03 4.748256683349609375e+01 1.663906478881835938e+01 4.089554548263549805e-01 4.633451998233795166e-01 2.616901993751525879e-01 2.426862865686416626e-01
4.267000000000000000e+03 3.552327346801757812e+01 1.884190177917480469e+01 1.334448456764221191e-01 -3.352736309170722961e-02 2.997524477541446686e-02 4.290758669376373291e-01
4.268000000000000000e+03 4.887644577026367188e+01 1.761441230773925781e+01 4.817345440387725830e-01 5.871359109878540039e-01 3.206611275672912598e-01 1.708021610975265503e-01
4.269000000000000000e+03 3.593414688110351562e+01 1.690827941894531250e+01 6.331272423267364502e-02 -2.744133584201335907e-02 1.076141651719808578e-02 4.790114164352416992e-01
4.270000000000000000e+03 4.212988662719726562e+01 1.667524909973144531e+01 2.378703504800796509e-01 1.852004379034042358e-01 1.269212365150451660e-01 4.137903153896331787e-01
4.271000000000000000e+03 4.046052169799804688e+01 1.784306335449218750e+01 2.342203557491302490e-01 1.410012692213058472e-01 1.125664860010147095e-01 4.087943732738494873e-01
4.272000000000000000e+03 4.627527236938476562e+01 1.837503814697265625e+01 4.407888650894165039e-01 4.522779881954193115e-01 2.679200470447540283e-01 2.381209135055541992e-01
4.273000000000000000e+03 4.494458007812500000e+01 2.033162307739257812e+01 4.615396559238433838e-01 4.296305477619171143e-01 2.673510611057281494e-01 2.290631532669067383e-01
4.274000000000000000e+03 4.791553115844726562e+01 1.484158706665039062e+01 3.337219059467315674e-01 4.144875109195709229e-01 2.244628220796585083e-01 2.901297807693481445e-01
4.275000000000000000e+03 5.786655044555664062e+01 1.972508621215820312e+01 6.727585792541503906e-01 1.733449220657348633e+00 7.218623757362365723e-01 -3.897677063941955566e-01
4.276000000000000000e+03 5.388253021240234375e+01 1.834015655517578125e+01 6.231527924537658691e-01 1.093507289886474609e+00 5.149980187416076660e-01 -1.317980289459228516e-01
4.277000000000000000e+03 3.775165939331054688e+01 2.218966293334960938e+01 3.364488780498504639e-01 7.960808277130126953e-02 1.248170882463455200e-01 3.222429752349853516e-01
4.278000000000000000e+03 4.336174392700195312e+01 1.848529624938964844e+01 3.484184443950653076e-01 2.825135886669158936e-01 1.892796158790588379e-01 3.321552574634552002e-01
4.279000000000000000e+03 4.166132354736328125e+01 1.990684509277343750e+01 3.523042500019073486e-01 2.290022373199462891e-01 1.743919551372528076e-01 3.257403969764709473e-01
4.280000000000000000e+03 4.796578598022460938e+01 1.949440956115722656e+01 5.124833583831787109e-01 5.883793234825134277e-01 3.302587866783142090e-01 1.515588462352752686e-01
4.281000000000000000e+03 5.207243347167968750e+01 1.841375923156738281e+01 5.832728147506713867e-01 9.067258834838867188e-01 4.469996094703674316e-01 -2.598528005182743073e-02
4.282000000000000000e+03 4.703493118286132812e+01 2.160824775695800781e+01 5.480047464370727539e-01 6.077905893325805664e-01 3.467385768890380859e-01 1.279523372650146484e-01
4.283000000000000000e+03 2.781056976318359375e+01 2.409967231750488281e+01 1.661492437124252319e-01 -3.498470485210418701e-01 -5.510934069752693176e-02 2.799410820007324219e-01
4.284000000000000000e+03 2.926236724853515625e+01 2.082652473449707031e+01 6.341979652643203735e-02 -2.685216665267944336e-01 -6.153056025505065918e-02 3.600938618183135986e-01
4.285000000000000000e+03 5.198527526855468750e+01 2.070228385925292969e+01 6.426085829734802246e-01 1.035538673400878906e+00 5.034441947937011719e-01 -7.234410941600799561e-02
4.286000000000000000e+03 3.687963867187500000e+01 2.001281166076660156e+01 2.216420024633407593e-01 2.706820704042911530e-02 7.461306452751159668e-02 3.863058388233184814e-01
4.287000000000000000e+03 7.104618835449218750e+01 -3.857234191894531250e+01 3.420540094375610352e-01 4.915865421295166016e+00 1.577375888824462891e+00 2.336374819278717041e-01
4.288000000000000000e+03 4.894808959960937500e+01 -2.846410179138183594e+01 7.139893174171447754e-01 2.851884067058563232e-01 2.997533082962036133e-01 -2.440315634012222290e-01
4.289000000000000000e+03 2.526797866821289062e+01 2.918398475646972656e+01 3.253886103630065918e-01 -4.581012129783630371e-01 -3.981379047036170959e-02 2.012835144996643066e-01
4.290000000000000000e+03 2.394072723388671875e+01 2.595082473754882812e+01 1.930426806211471558e-01 -5.332117080688476562e-01 -1.020506992936134338e-01 2.484453171491622925e-01
4.291000000000000000e+03 3.710393524169921875e+01 -2.852077102661132812e+01 3.823443949222564697e-01 -1.785164922475814819e-01 6.114836782217025757e-02 -3.943741023540496826e-01
4.292000000000000000e+03 1.090142631530761719e+01 3.436418533325195312e+01 1.734805703163146973e-01 -6.015612483024597168e-01 -1.284241974353790283e-01 2.080042511224746704e-01
4.293000000000000000e+03 6.279561996459960938e+01 -3.122620773315429688e+01 8.396967053413391113e-01 2.530993938446044922e+00 1.011207103729248047e+00 5.105563402175903320e-01
4.294000000000000000e+03 4.671168518066406250e+01 2.384929084777832031e+01 5.855058431625366211e-01 6.528608202934265137e-01 3.715099990367889404e-01 9.317049384117126465e-02
4.295000000000000000e+03 5.631385803222656250e+01 -3.270169830322265625e+01 9.470651745796203613e-01 1.336047410964965820e+00 6.849337816238403320e-01 1.035678759217262268e-01
4.296000000000000000e+03 3.519140243530273438e+01 -2.587923240661621094e+01 2.212990820407867432e-01 -1.796005368232727051e-01 1.250956393778324127e-02 -4.445013403892517090e-01
4.297000000000000000e+03 3.475773620605468750e+01 -2.775792884826660156e+01 3.172507286071777344e-01 -1.969453841447830200e-01 3.609160333871841431e-02 -3.993572592735290527e-01
4.298000000000000000e+03 2.858115005493164062e+01 -2.514250564575195312e+01 7.729716598987579346e-02 -2.018245309591293335e-01 -3.735820949077606201e-02 -3.894108235836029053e-01
4.299000000000000000e+03 5.850139999389648438e+01 2.178281402587890625e+01 6.700434684753417969e-01 1.972437024116516113e+00 7.927441596984863281e-01 -4.236246347427368164e-01
4.300000000000000000e+03 5.571293258666992188e+01 1.811223602294921875e+01 6.479176878929138184e-01 1.295994877815246582e+00 5.831737518310546875e-01 -2.364460974931716919e-01
4.301000000000000000e+03 6.092995834350585938e+01 2.578279304504394531e+01 5.953854918479919434e-01 2.576609373092651367e+00 9.515984654426574707e-01 -4.764965176582336426e-01
4.302000000000000000e+03 6.129345703125000000e+01 2.253109550476074219e+01 6.210286021232604980e-01 2.511011362075805664e+00 9.396120309829711914e-01 -5.618332028388977051e-01
4.303000000000000000e+03 9.751176834106445312e+00 -3.473337173461914062e+01 7.839304953813552856e-02 -2.956340909004211426e-01 -6.517230719327926636e-02 -1.081769615411758423e-01
4.304000000000000000e+03 4.978266239166259766e+00 -3.718727493286132812e+01 2.517269179224967957e-02 -3.188788592815399170e-01 -8.811184763908386230e-02 -5.232525989413261414e-02
4.305000000000000000e+03 1.403806877136230469e+01 -2.587991905212402344e+01 1.773482188582420349e-02 -2.606202363967895508e-01 -7.286562025547027588e-02 -2.052224129438400269e-01
4.306000000000000000e+03 4.345848846435546875e+01 -2.808343315124511719e+01 5.502303242683410645e-01 1.991157187148928642e-03 1.656664311885833740e-01 -3.754773139953613281e-01
4.307000000000000000e+03 4.455244064331054688e+01 -2.586902999877929688e+01 4.211842715740203857e-01 2.980859251692891121e-03 1.272495388984680176e-01 -4.144463241100311279e-01
4.308000000000000000e+03 4.661874008178710938e+01 -2.459936141967773438e+01 3.763624131679534912e-01 5.070618912577629089e-02 1.281205713748931885e-01 -4.091640710830688477e-01
4.309000000000000000e+03 4.645420074462890625e+01 -2.642514038085937500e+01 5.010446310043334961e-01 7.437823712825775146e-02 1.726268678903579712e-01 -3.700930178165435791e-01
4.310000000000000000e+03 7.626868438720703125e+01 -3.699045181274414062e+01 4.301620647311210632e-02 6.219544410705566406e+00 1.878768205642700195e+00 2.057004123926162720e-01
4.311000000000000000e+03 1.339073562622070312e+01 3.261490249633789062e+01 2.096622139215469360e-01 -6.343693137168884277e-01 -1.274121403694152832e-01 2.405944913625717163e-01
4.312000000000000000e+03 1.641095733642578125e+01 3.053699302673339844e+01 2.416684627532958984e-01 -6.576507687568664551e-01 -1.247946843504905701e-01 2.510174810886383057e-01
4.313000000000000000e+03 3.374224090576171875e+01 1.840684318542480469e+01 5.793096125125885010e-02 -9.872565418481826782e-02 -1.223840657621622086e-02 4.470016062259674072e-01
4.314000000000000000e+03 2.714180755615234375e+01 -2.636562538146972656e+01 1.222308278083801270e-01 -2.267311364412307739e-01 -3.135009109973907471e-02 -3.489322364330291748e-01
4.315000000000000000e+03 8.376732826232910156e+00 -4.089600753784179688e+01 6.473660469055175781e-02 -3.172860443592071533e-01 -7.576482743024826050e-02 -2.124489098787307739e-02
4.316000000000000000e+03 1.190501785278320312e+01 -3.291154861450195312e+01 9.167119860649108887e-02 -2.924186885356903076e-01 -6.022424250841140747e-02 -1.366814672946929932e-01
4.317000000000000000e+03 1.299729442596435547e+01 -3.030801582336425781e+01 8.383022993803024292e-02 -2.841972410678863525e-01 -6.011009961366653442e-02 -1.747085303068161011e-01
4.318000000000000000e+03 5.479252243041992188e+01 -2.845173072814941406e+01 8.365870118141174316e-01 8.644830584526062012e-01 5.103210210800170898e-01 -4.916022066026926041e-03
4.319000000000000000e+03 2.324941062927246094e+01 2.820133972167968750e+01 2.514606118202209473e-01 -5.549958348274230957e-01 -9.106056392192840576e-02 2.188074439764022827e-01
4.320000000000000000e+03 6.315812683105468750e+01 2.998905944824218750e+01 4.809098839759826660e-01 3.069620132446289062e+00 1.065159082412719727e+00 -4.342976808547973633e-01
4.321000000000000000e+03 4.937868499755859375e+01 2.241484832763671875e+01 6.236659884452819824e-01 8.361430764198303223e-01 4.379427134990692139e-01 2.213600091636180878e-02
4.322000000000000000e+03 1.362779712677001953e+01 -3.759132766723632812e+01 1.382078677415847778e-01 -3.137703239917755127e-01 -5.266873911023139954e-02 -8.258331567049026489e-02
4.323000000000000000e+03 2.155224418640136719e+01 -3.404854965209960938e+01 2.488076239824295044e-01 -3.106296360492706299e-01 -1.854660175740718842e-02 -1.766152083873748779e-01
4.324000000000000000e+03 3.309466171264648438e+01 -3.612277221679687500e+01 5.441029071807861328e-01 -2.623906433582305908e-01 8.451367169618606567e-02 -1.817530989646911621e-01
4.325000000000000000e+03 4.390649795532226562e+01 -3.320327377319335938e+01 7.805221080780029297e-01 5.363633111119270325e-02 2.502475380897521973e-01 -2.448408752679824829e-01
4.326000000000000000e+03 5.498557662963867188e+01 -3.529204559326171875e+01 9.881349205970764160e-01 1.210419774055480957e+00 6.595664024353027344e-01 4.778847098350524902e-02
4.327000000000000000e+03 5.164391708374023438e+01 -3.687551498413085938e+01 1.009732604026794434e+00 8.130604028701782227e-01 5.468379259109497070e-01 -1.531495992094278336e-02
4.328000000000000000e+03 5.943393707275390625e+01 -3.374771499633789062e+01 9.331252574920654297e-01 1.912685513496398926e+00 8.537432551383972168e-01 2.482802718877792358e-01
4.329000000000000000e+03 6.296103286743164062e+01 -3.751990509033203125e+01 8.016448616981506348e-01 2.832209587097167969e+00 1.090156316757202148e+00 2.317336201667785645e-01
4.330000000000000000e+03 3.643475723266601562e+01 3.653406143188476562e+01 6.302646994590759277e-01 1.170695573091506958e-01 2.242002636194229126e-01 6.290755420923233032e-02
4.331000000000000000e+03 6.631655120849609375e+01 3.664431762695312500e+01 3.149283528327941895e-01 3.663391828536987305e+00 1.193495988845825195e+00 -1.913202702999114990e-01
4.332000000000000000e+03 5.518454360961914062e+01 3.616230392456054688e+01 6.297075152397155762e-01 1.967384219169616699e+00 7.791274785995483398e-01 -1.173230111598968506e-01
4.333000000000000000e+03 4.275259780883789062e+01 3.704629135131835938e+01 6.943205595016479492e-01 5.712981820106506348e-01 3.796856403350830078e-01 1.999847404658794403e-02
4.334000000000000000e+03 4.686595916748046875e+01 3.728530120849609375e+01 7.023768424987792969e-01 9.455727338790893555e-01 4.943848848342895508e-01 -3.037865040823817253e-03
4.335000000000000000e+03 1.891831016540527344e+01 3.673212814331054688e+01 3.634374737739562988e-01 -5.902094244956970215e-01 -6.803157925605773926e-02 1.188645288348197937e-01
4.336000000000000000e+03 2.320336151123046875e+01 3.720602035522460938e+01 4.491807520389556885e-01 -4.952389299869537354e-01 -1.381745561957359314e-02 8.920781314373016357e-02
4.337000000000000000e+03 1.559229564666748047e+01 3.497951126098632812e+01 2.816332280635833740e-01 -6.236537694931030273e-01 -1.026061549782752991e-01 1.714063733816146851e-01
4.338000000000000000e+03 5.597898483276367188e+01 2.031214714050292969e+01 6.678206324577331543e-01 1.481787800788879395e+00 6.448825597763061523e-01 -2.704750895500183105e-01
4.339000000000000000e+03 3.977067184448242188e+01 2.112883377075195312e+01 3.515557944774627686e-01 1.673934012651443481e-01 1.556847542524337769e-01 3.244074583053588867e-01
4.340000000000000000e+03 1.457974147796630859e+01 -3.413242721557617188e+01 1.325803995132446289e-01 -3.052320778369903564e-01 -5.179550126194953918e-02 -1.377347111701965332e-01
4.341000000000000000e+03 3.762863540649414062e+01 -3.204122924804687500e+01 5.697501897811889648e-01 -1.649600565433502197e-01 1.214370504021644592e-01 -3.043621182441711426e-01
4.342000000000000000e+03 2.033343505859375000e+01 -2.717583465576171875e+01 7.117277383804321289e-02 -2.531227469444274902e-01 -5.458499118685722351e-02 -2.523290514945983887e-01
4.343000000000000000e+03 2.654006385803222656e+01 -2.958565521240234375e+01 2.263725697994232178e-01 -2.667567133903503418e-01 -1.211524195969104767e-02 -2.924942672252655029e-01
4.344000000000000000e+03 3.175968551635742188e+01 -2.618507957458496094e+01 1.545988470315933228e-01 -2.088076770305633545e-01 -1.626264862716197968e-02 -4.105334579944610596e-01
4.345000000000000000e+03 3.865352249145507812e+01 -2.532176780700683594e+01 2.403755635023117065e-01 -1.575189977884292603e-01 2.485696785151958466e-02 -4.662880599498748779e-01
4.346000000000000000e+03 3.966395950317382812e+01 -2.770878410339355469e+01 3.938200175762176514e-01 -1.408393979072570801e-01 7.589418441057205200e-02 -4.118727147579193115e-01
4.347000000000000000e+03 1.569296836853027344e+01 -2.907375144958496094e+01 9.385037422180175781e-02 -2.821699678897857666e-01 -5.649587884545326233e-02 -2.027462273836135864e-01
4.348000000000000000e+03 1.179491233825683594e+01 -2.511372756958007812e+01 -3.927298355847597122e-03 -2.496230900287628174e-01 -7.606511563062667847e-02 -1.925694048404693604e-01
4.349000000000000000e+03 4.593655395507812500e+01 2.704340362548828125e+01 6.417419910430908203e-01 7.211417555809020996e-01 4.088651239871978760e-01 5.026698485016822815e-02
4.350000000000000000e+03 6.561560058593750000e+01 3.015408706665039062e+01 4.063099622726440430e-01 3.460158586502075195e+00 1.159940600395202637e+00 -4.383594095706939697e-01
4.351000000000000000e+03 6.418265533447265625e+01 2.618062210083007812e+01 4.988928735256195068e-01 3.172385692596435547e+00 1.101383566856384277e+00 -5.623156428337097168e-01
4.352000000000000000e+03 2.100494766235351562e+01 -3.045149803161621094e+01 1.567563414573669434e-01 -2.814789712429046631e-01 -3.741678595542907715e-02 -2.289088368415832520e-01
4.353000000000000000e+03 5.033653259277343750e+01 1.830720901489257812e+01 5.513721704483032227e-01 7.564337849617004395e-01 3.923417925834655762e-01 6.411745399236679077e-02
4.354000000000000000e+03 5.181744003295898438e+01 2.331543350219726562e+01 6.659774184226989746e-01 1.133695363998413086e+00 5.399017930030822754e-01 -9.323348104953765869e-02
4.355000000000000000e+03 6.251720046997070312e+01 2.769711875915527344e+01 5.252583622932434082e-01 2.922389030456542969e+00 1.034294247627258301e+00 -4.776683747768402100e-01
4.356000000000000000e+03 2.460417175292968750e+01 2.269089126586914062e+01 5.375934392213821411e-02 -4.855351746082305908e-01 -1.295327544212341309e-01 2.859206795692443848e-01
4.357000000000000000e+03 2.031190872192382812e+01 3.341130447387695312e+01 3.522284924983978271e-01 -5.851218700408935547e-01 -6.986801326274871826e-02 1.740272939205169678e-01
4.358000000000000000e+03 5.253717041015625000e+01 -3.001123237609863281e+01 8.560426235198974609e-01 6.613231897354125977e-01 4.552097320556640625e-01 -8.194068819284439087e-02
4.359000000000000000e+03 4.232074356079101562e+01 2.609765243530273438e+01 5.470918416976928711e-01 3.915874063968658447e-01 2.816037833690643311e-01 1.713091284036636353e-01
4.360000000000000000e+03 4.098348617553710938e+01 2.350531578063964844e+01 4.596173465251922607e-01 2.669113576412200928e-01 2.179586142301559448e-01 2.472173571586608887e-01
4.361000000000000000e+03 2.370608901977539062e+01 3.364021301269531250e+01 4.063904583454132080e-01 -4.975183308124542236e-01 -2.733836136758327484e-02 1.461518108844757080e-01
4.362000000000000000e+03 1.807409667968750000e+01 -3.435850143432617188e+01 1.905914247035980225e-01 -3.127934634685516357e-01 -3.666061162948608398e-02 -1.505205780267715454e-01
4.363000000000000000e+03 2.208541679382324219e+01 -3.748243713378906250e+01 3.017954826354980469e-01 -3.280429244041442871e-01 -7.874233648180961609e-03 -1.066602244973182678e-01
4.364000000000000000e+03 6.266151809692382812e+01 3.286191940307617188e+01 4.720799028873443604e-01 3.033746719360351562e+00 1.051747918128967285e+00 -3.258017897605895996e-01
4.365000000000000000e+03 5.298435211181640625e+01 3.258149719238281250e+01 6.804012656211853027e-01 1.566528677940368652e+00 6.740789413452148438e-01 -1.372241675853729248e-01
4.366000000000000000e+03 5.535259246826171875e+01 3.095254516601562500e+01 6.551730632781982422e-01 1.823102712631225586e+00 7.434827089309692383e-01 -1.911942958831787109e-01
4.367000000000000000e+03 3.623002243041992188e+01 2.562919044494628906e+01 4.027931690216064453e-01 3.219729661941528320e-02 1.304971426725387573e-01 2.487722784280776978e-01
4.368000000000000000e+03 3.872036743164062500e+01 2.469180679321289062e+01 4.356307089328765869e-01 1.584523320198059082e-01 1.782249212265014648e-01 2.492297440767288208e-01
4.369000000000000000e+03 5.098719787597656250e+01 2.574689865112304688e+01 6.730266809463500977e-01 1.127957582473754883e+00 5.402953028678894043e-01 -7.959571480751037598e-02
4.370000000000000000e+03 4.769056701660156250e+01 2.889562225341796875e+01 6.624652147293090820e-01 8.891274333000183105e-01 4.654777944087982178e-01 -7.968272082507610321e-03
4.371000000000000000e+03 3.079030990600585938e+01 2.669867515563964844e+01 3.328440189361572266e-01 -2.256211042404174805e-01 3.216687589883804321e-02 2.362964153289794922e-01
4.372000000000000000e+03 5.653794479370117188e+01 2.268566131591796875e+01 6.812151670455932617e-01 1.709923863410949707e+00 7.173417210578918457e-01 -3.090394735336303711e-01
4.373000000000000000e+03 5.401768112182617188e+01 2.069891929626464844e+01 6.625041365623474121e-01 1.232140779495239258e+00 5.683934688568115234e-01 -1.667098999023437500e-01
4.374000000000000000e+03 2.815057945251464844e+01 2.687613677978515625e+01 2.916461825370788574e-01 -3.422290086746215820e-01 -1.517485547810792923e-02 2.309966385364532471e-01
4.375000000000000000e+03 5.108264923095703125e+01 3.703319168090820312e+01 6.854032874107360840e-01 1.426350951194763184e+00 6.335262656211853027e-01 -4.346313327550888062e-02
4.376000000000000000e+03 4.897867584228515625e+01 3.082403564453125000e+01 6.780800819396972656e-01 1.077978253364562988e+00 5.268175005912780762e-01 -3.870949521660804749e-02
4.377000000000000000e+03 2.481279754638671875e+01 -3.338355636596679688e+01 2.762305140495300293e-01 -2.979188561439514160e-01 -6.506503093987703323e-03 -2.102288156747817993e-01
4.378000000000000000e+03 4.716506195068359375e+01 -3.415562438964843750e+01 8.908371925354003906e-01 3.175492882728576660e-01 3.625159561634063721e-01 -1.572048664093017578e-01
4.379000000000000000e+03 3.035863685607910156e+01 -2.929747009277343750e+01 2.988509237766265869e-01 -2.501308023929595947e-01 1.461603492498397827e-02 -3.367771506309509277e-01
4.380000000000000000e+03 1.748493385314941406e+01 -2.875591850280761719e+01 9.120634198188781738e-02 -2.745610177516937256e-01 -5.500639975070953369e-02 -2.157975435256958008e-01
4.381000000000000000e+03 1.487676334381103516e+01 -2.699735450744628906e+01 4.319868236780166626e-02 -2.661302089691162109e-01 -6.687945872545242310e-02 -2.122201323509216309e-01
4.382000000000000000e+03 6.098625183105468750e+01 2.919761085510253906e+01 5.456480979919433594e-01 2.672777652740478516e+00 9.655277132987976074e-01 -3.870852589607238770e-01
4.383000000000000000e+03 2.757921981811523438e+01 3.726396942138671875e+01 5.190014839172363281e-01 -3.521384596824645996e-01 5.005889385938644409e-02 7.454676181077957153e-02
4.384000000000000000e+03 4.728166580200195312e+01 4.076719665527343750e+01 7.125490307807922363e-01 1.019849538803100586e+00 5.197196006774902344e-01 -3.651457838714122772e-03
4.385000000000000000e+03 5.758766174316406250e+01 2.509528923034667969e+01 6.620974540710449219e-01 1.983714580535888672e+00 7.937436103820800781e-01 -3.373872935771942139e-01
4.386000000000000000e+03 3.353897476196289062e+01 2.626997375488281250e+01 3.705799281597137451e-01 -9.862438589334487915e-02 8.158666640520095825e-02 2.448416799306869507e-01
4.387000000000000000e+03 3.294094848632812500e+01 2.322221565246582031e+01 2.427221238613128662e-01 -1.303133666515350342e-01 3.372262790799140930e-02 3.148734569549560547e-01
4.388000000000000000e+03 4.940940856933593750e+01 2.750543594360351562e+01 6.723840832710266113e-01 1.014891028404235840e+00 5.061825513839721680e-01 -4.166277870535850525e-02
4.389000000000000000e+03 5.321935272216796875e+01 2.798529052734375000e+01 6.762398481369018555e-01 1.460988044738769531e+00 6.411683559417724609e-01 -1.601523905992507935e-01
4.390000000000000000e+03 5.971553421020507812e+01 3.142746925354003906e+01 5.686331987380981445e-01 2.540596008300781250e+00 9.327687621116638184e-01 -2.983425557613372803e-01
4.391000000000000000e+03 5.537234497070312500e+01 2.637160682678222656e+01 6.788032054901123047e-01 1.676146864891052246e+00 7.064850330352783203e-01 -2.343140691518783569e-01
4.392000000000000000e+03 4.720633316040039062e+01 -3.722659683227539062e+01 9.660972356796264648e-01 3.443786501884460449e-01 3.931427597999572754e-01 -1.083468794822692871e-01
4.393000000000000000e+03 2.787142181396484375e+01 3.003463935852050781e+01 3.923454284667968750e-01 -3.514540493488311768e-01 1.226741261780261993e-02 1.851904243230819702e-01
4.394000000000000000e+03 4.641188049316406250e+01 3.074812507629394531e+01 6.758636236190795898e-01 8.240668773651123047e-01 4.499791562557220459e-01 1.521864254027605057e-02
4.395000000000000000e+03 4.402214813232421875e+01 2.885662651062011719e+01 6.392008066177368164e-01 5.976753830909729004e-01 3.710628747940063477e-01 7.722928375005722046e-02
4.396000000000000000e+03 4.613007736206054688e+01 -2.887112045288085938e+01 6.571391820907592773e-01 1.117002293467521667e-01 2.306518107652664185e-01 -3.087547123432159424e-01
4.397000000000000000e+03 1.621787261962890625e+01 -2.769317245483398438e+01 5.705474317073822021e-02 -2.677840888500213623e-01 -6.321880966424942017e-02 -2.120898067951202393e-01
4.398000000000000000e+03 1.687167549133300781e+01 -2.632724380493164062e+01 3.538421168923377991e-02 -2.588017284870147705e-01 -6.702525168657302856e-02 -2.265808582305908203e-01
4.399000000000000000e+03 2.761541366577148438e+01 -3.231443786621093750e+01 3.107631802558898926e-01 -2.875451445579528809e-01 6.965408101677894592e-03 -2.474305331707000732e-01
4.400000000000000000e+03 4.991405487060546875e+01 3.359704971313476562e+01 6.974909305572509766e-01 1.257095336914062500e+00 5.863758921623229980e-01 -5.183953046798706055e-02
4.401000000000000000e+03 3.722811126708984375e+01 2.859089469909667969e+01 5.181073546409606934e-01 1.092303097248077393e-01 1.882012933492660522e-01 1.800178587436676025e-01
4.402000000000000000e+03 4.283032226562500000e+01 3.383019256591796875e+01 6.781097054481506348e-01 5.726226568222045898e-01 3.752197027206420898e-01 4.093351960182189941e-02
4.403000000000000000e+03 3.427505493164062500e+01 2.945060729980468750e+01 4.803425967693328857e-01 -5.121217668056488037e-02 1.287391334772109985e-01 1.772050857543945312e-01
4.404000000000000000e+03 3.844095611572265625e+01 3.178055953979492188e+01 5.923662185668945312e-01 2.040328830480575562e-01 2.389197349548339844e-01 1.220825836062431335e-01
4.405000000000000000e+03 3.991220855712890625e+01 3.512141036987304688e+01 6.613796353340148926e-01 3.270328938961029053e-01 2.965237498283386230e-01 7.077673077583312988e-02
4.406000000000000000e+03 3.992898559570312500e+01 2.747169113159179688e+01 5.350600481033325195e-01 2.598542571067810059e-01 2.384742945432662964e-01 1.782570183277130127e-01
4.407000000000000000e+03 1.770194625854492188e+01 -7.692781925201416016e+00 -2.433562092483043671e-02 -2.625301480293273926e-02 -1.517659053206443787e-02 -2.663448639214038849e-02
4.408000000000000000e+03 1.858938598632812500e+01 -3.516919612884521484e+00 -1.129351439885795116e-03 1.426355540752410889e-02 3.940260969102382660e-03 2.020113635808229446e-03
4.409000000000000000e+03 7.107288360595703125e+01 -4.024586200714111328e+00 -7.097558975219726562e-01 1.735795617103576660e+00 3.078119158744812012e-01 -2.221709728240966797e+00
4.410000000000000000e+03 7.142085266113281250e+01 -4.696173667907714844e+00 -9.304693341255187988e-01 1.395098686218261719e+00 1.393888145685195923e-01 -1.924297928810119629e+00
4.411000000000000000e+03 7.216018676757812500e+01 -4.812702655792236328e+00 1.158125102519989014e-01 2.501270532608032227e+00 7.851248979568481445e-01 -3.331193923950195312e+00
4.412000000000000000e+03 7.222888183593750000e+01 -4.676968574523925781e+00 5.336030945181846619e-02 3.013710260391235352e+00 9.201211929321289062e-01 -3.604235649108886719e+00
4.413000000000000000e+03 7.360578918457031250e+01 -4.733984470367431641e+00 -1.002379506826400757e-01 1.264364433288574219e+01 3.763021945953369141e+00 -6.822557926177978516e+00
4.414000000000000000e+03 7.351874542236328125e+01 -4.475372791290283203e+00 -4.522924125194549561e-01 1.150302791595458984e+01 3.315220832824707031e+00 -6.164410591125488281e+00
4.415000000000000000e+03 7.455602264404296875e+01 -4.273097991943359375e+00 -2.002283811569213867e+00 1.740443992614746094e+01 4.620646476745605469e+00 -2.436183452606201172e+00
4.416000000000000000e+03 7.508278656005859375e+01 -4.609920024871826172e+00 -7.879253625869750977e-01 1.915299606323242188e+01 5.509521007537841797e+00 3.978450894355773926e-01
4.417000000000000000e+03 7.546323394775390625e+01 -4.846728801727294922e+00 7.654474973678588867e-01 1.864575958251953125e+01 5.823362350463867188e+00 2.022390365600585938e+00
4.418000000000000000e+03 7.592636108398437500e+01 -6.212028026580810547e+00 7.204167366027832031e+00 1.568790626525878906e+01 6.867622375488281250e+00 8.103190064430236816e-01
4.419000000000000000e+03 7.577032470703125000e+01 -6.483010292053222656e+00 7.886678695678710938e+00 1.612359237670898438e+01 7.203081130981445312e+00 -3.398828506469726562e-01
4.420000000000000000e+03 7.568701934814453125e+01 -7.730957508087158203e+00 1.816981196403503418e+00 1.762496185302734375e+01 5.832582950592041016e+00 -2.755749225616455078e+00
4.421000000000000000e+03 7.528652954101562500e+01 -8.053447723388671875e+00 -1.634233295917510986e-01 1.886507606506347656e+01 5.610496044158935547e+00 -1.468748569488525391e+00
4.422000000000000000e+03 7.486497497558593750e+01 -8.315107345581054688e+00 -1.632003068923950195e+00 1.876913833618164062e+01 5.141140460968017578e+00 8.505664467811584473e-01
4.423000000000000000e+03 7.326987457275390625e+01 -8.245768547058105469e+00 2.996214628219604492e-01 9.303366661071777344e+00 2.880896568298339844e+00 6.102013111114501953e+00
4.424000000000000000e+03 7.181172180175781250e+01 -8.031240463256835938e+00 -2.817971408367156982e-01 1.746781587600708008e+00 4.394953250885009766e-01 2.654042720794677734e+00
4.425000000000000000e+03 1.297266840934753418e+00 2.746396541595458984e+00 -2.933197538368403912e-05 7.655449735466390848e-05 1.416675604559713975e-05 -4.203753633191809058e-05
4.426000000000000000e+03 1.792036819458007812e+01 -7.131654739379882812e+00 -7.579249213449656963e-04 2.918123733252286911e-03 6.480596493929624557e-04 -4.065092653036117554e-03
4.427000000000000000e+03 1.824490547180175781e+01 -7.697794914245605469e+00 -5.326700955629348755e-02 -2.630805782973766327e-02 -2.387252077460289001e-02 -4.182082787156105042e-02
4.428000000000000000e+03 2.509531497955322266e+00 2.735204219818115234e+00 9.151666017714887857e-05 -8.326355600729584694e-05 2.475931751177995466e-06 -2.817248241626657546e-05
4.429000000000000000e+03 1.385194778442382812e+01 2.566807985305786133e+00 -2.997111878357827663e-04 -2.581449516583234072e-04 -1.673568476689979434e-04 -3.942183393519371748e-04
4.430000000000000000e+03 1.785075759887695312e+01 -7.169735431671142578e+00 6.304273847490549088e-03 6.098230835050344467e-03 3.720751265063881874e-03 -6.908946204930543900e-03
4.431000000000000000e+03 7.151296997070312500e+01 -4.090573787689208984e+00 -3.255861401557922363e-01 2.383524417877197266e+00 6.173814535140991211e-01 -2.811497688293457031e+00
4.432000000000000000e+03 9.957915306091308594e+00 -2.125546836853027344e+01 -9.474257379770278931e-02 -2.122130393981933594e-01 -9.208668023347854614e-02 -1.826701760292053223e-01
4.433000000000000000e+03 7.355566406250000000e+01 -4.007029533386230469e+00 -1.077565670013427734e+00 1.150415039062500000e+01 3.127975225448608398e+00 -5.113926410675048828e+00
4.434000000000000000e+03 7.210704803466796875e+01 -4.490666866302490234e+00 2.151198834180831909e-01 3.018923044204711914e+00 9.702128767967224121e-01 -3.558852672576904297e+00
4.435000000000000000e+03 7.216844940185546875e+01 -4.251577377319335938e+00 1.878718286752700806e-01 3.771146297454833984e+00 1.187705397605895996e+00 -3.874411821365356445e+00
4.436000000000000000e+03 7.185977935791015625e+01 -4.444067955017089844e+00 -1.448582559823989868e-01 2.563429117202758789e+00 7.255712151527404785e-01 -3.063353300094604492e+00
4.437000000000000000e+03 7.385919189453125000e+01 -8.665778160095214844e+00 -1.482491970062255859e+00 1.348230266571044922e+01 3.599943399429321289e+00 4.835135459899902344e+00
4.438000000000000000e+03 7.330208587646484375e+01 -8.530364990234375000e+00 -4.124337732791900635e-01 9.778750419616699219e+00 2.809895038604736328e+00 5.734543800354003906e+00
4.439000000000000000e+03 7.430535888671875000e+01 -9.014094352722167969e+00 -2.112009525299072266e+00 1.459838485717773438e+01 3.745912551879882812e+00 3.262751817703247070e+00
4.440000000000000000e+03 7.454780578613281250e+01 -8.873374938964843750e+00 -2.153404951095581055e+00 1.596560382843017578e+01 4.143659591674804688e+00 2.335281372070312500e+00
4.441000000000000000e+03 7.463474273681640625e+01 -8.418078422546386719e+00 -1.971958637237548828e+00 1.815447998046875000e+01 4.854756355285644531e+00 1.997547388076782227e+00
4.442000000000000000e+03 7.530265045166015625e+01 -8.496911048889160156e+00 -1.200199842453002930e+00 1.732575798034667969e+01 4.837667465209960938e+00 -5.954176187515258789e-01
4.443000000000000000e+03 7.619821929931640625e+01 -7.797903537750244141e+00 1.915953755378723145e+00 1.520001411437988281e+01 5.134790420532226562e+00 -2.746343612670898438e+00
4.444000000000000000e+03 7.241626739501953125e+01 -4.362194538116455078e+00 3.273792564868927002e-01 4.445020675659179688e+00 1.431720018386840820e+00 -4.380729198455810547e+00
4.445000000000000000e+03 7.225196838378906250e+01 -3.930528640747070312e+00 4.495900124311447144e-02 4.706608295440673828e+00 1.425470113754272461e+00 -4.137967109680175781e+00
4.446000000000000000e+03 7.098683166503906250e+01 -8.913484573364257812e+00 -6.467393040657043457e-01 1.821818351745605469e+00 3.525237143039703369e-01 2.214999914169311523e+00
4.447000000000000000e+03 7.306072998046875000e+01 -8.516449928283691406e+00 -1.471347212791442871e-01 7.905772686004638672e+00 2.327591419219970703e+00 5.459342479705810547e+00
4.448000000000000000e+03 7.306717681884765625e+01 -8.289922714233398438e+00 3.123436272144317627e-01 7.771503448486328125e+00 2.425154209136962891e+00 5.683428287506103516e+00
4.449000000000000000e+03 7.269048309326171875e+01 -8.648332595825195312e+00 4.084314778447151184e-02 6.094620704650878906e+00 1.840639233589172363e+00 4.877488613128662109e+00
4.450000000000000000e+03 7.391965484619140625e+01 -4.088812351226806641e+00 -1.594252705574035645e+00 1.401828289031982422e+01 3.727208852767944336e+00 -4.676227092742919922e+00
4.451000000000000000e+03 7.138562774658203125e+01 -9.104942321777343750e+00 -3.240225911140441895e-01 2.766721010208129883e+00 7.328094840049743652e-01 2.903409719467163086e+00
4.452000000000000000e+03 7.175392913818359375e+01 -8.300091743469238281e+00 -3.191690742969512939e-01 2.203103065490722656e+00 5.651801824569702148e-01 2.775525331497192383e+00
4.453000000000000000e+03 3.154775142669677734e+00 3.728445816040039062e+01 2.522079832851886749e-02 -6.123995780944824219e-01 -1.761536300182342529e-01 5.939650163054466248e-02
4.454000000000000000e+03 3.032293319702148438e+01 -3.200275039672851562e+01 3.818465769290924072e-01 -2.651564478874206543e-01 3.500703722238540649e-02 -2.764137983322143555e-01
4.455000000000000000e+03 7.648522949218750000e+01 -3.319335174560546875e+01 7.120939344167709351e-02 6.414479732513427734e+00 1.945706844329833984e+00 3.466402888298034668e-01
4.456000000000000000e+03 7.608158874511718750e+01 -6.415743827819824219e+00 6.648413181304931641e+00 1.462104225158691406e+01 6.380836486816406250e+00 -9.121544659137725830e-02
4.457000000000000000e+03 5.277909278869628906e+00 -3.219064712524414062e+01 2.822834998369216919e-02 -2.682532370090484619e-01 -7.200746238231658936e-02 -9.792883694171905518e-02
4.458000000000000000e+03 4.015584468841552734e+00 -1.747384834289550781e+01 -1.310493331402540207e-02 -1.861411891877651215e-02 -9.515715762972831726e-03 1.372385770082473755e-03
4.459000000000000000e+03 3.072358608245849609e+00 -1.619097137451171875e+01 2.833777805790305138e-03 -9.028233587741851807e-03 -1.858336618170142174e-03 4.503102973103523254e-03
4.460000000000000000e+03 9.010814666748046875e+00 -2.379170227050781250e+01 -3.156070783734321594e-02 -2.112309634685516357e-01 -7.283750176429748535e-02 -1.848259419202804565e-01
4.461000000000000000e+03 1.542214679718017578e+01 2.169763755798339844e+01 -1.377213597297668457e-01 -8.266462087631225586e-01 -2.893102765083312988e-01 4.022917449474334717e-01
4.462000000000000000e+03 4.967332458496093750e+01 -3.094061279296875000e+01 8.188053369522094727e-01 3.977361917495727539e-01 3.649624586105346680e-01 -1.635081171989440918e-01
4.463000000000000000e+03 5.913678359985351562e+01 2.733543968200683594e+01 6.078261733055114746e-01 2.333139896392822266e+00 8.822898864746093750e-01 -3.648048639297485352e-01
4.464000000000000000e+03 1.327107334136962891e+01 2.904424095153808594e+01 1.563371419906616211e-01 -6.549745202064514160e-01 -1.495912075042724609e-01 3.142794668674468994e-01
4.465000000000000000e+03 7.269853973388671875e+01 -4.184703826904296875e+00 2.358500808477401733e-01 6.148029804229736328e+00 1.915163874626159668e+00 -5.008130073547363281e+00
4.466000000000000000e+03 7.285430145263671875e+01 -3.917931079864501953e+00 -2.467579096555709839e-01 7.368751049041748047e+00 2.136597871780395508e+00 -4.934284687042236328e+00
4.467000000000000000e+03 7.126551055908203125e+01 -9.607242584228515625e+00 -3.249273896217346191e-01 3.161591291427612305e+00 8.509991765022277832e-01 2.906824588775634766e+00
4.468000000000000000e+03 6.052264690399169922e+00 -3.359531879425048828e+00 3.117027517873793840e-05 -1.691272336756810546e-04 -4.138708754908293486e-05 -1.938134373631328344e-04
4.469000000000000000e+03 3.345666646957397461e+00 4.628151893615722656e+00 1.291900844080373645e-04 -1.896059111459180713e-04 -1.812474874895997345e-05 2.656847645994275808e-04
4.470000000000000000e+03 7.548825836181640625e+01 -4.407730579376220703e+00 -6.240469813346862793e-01 1.722684288024902344e+01 4.980838775634765625e+00 1.305833458900451660e+00
4.471000000000000000e+03 7.401453399658203125e+01 -3.565128803253173828e+00 -1.922348976135253906e+00 1.313356876373291016e+01 3.363365888595581055e+00 -3.759827136993408203e+00
4.472000000000000000e+03 7.618328857421875000e+01 -8.249374389648437500e+00 5.652891397476196289e-01 1.531609725952148438e+01 4.764415740966796875e+00 -2.453082799911499023e+00
4.473000000000000000e+03 3.527678728103637695e+00 3.601909255981445312e+01 3.572384640574455261e-02 -5.873066186904907227e-01 -1.654748320579528809e-01 8.643888682126998901e-02
4.474000000000000000e+03 7.322795104980468750e+01 -8.883893013000488281e+00 -6.660860180854797363e-01 9.428131103515625000e+00 2.628613710403442383e+00 5.180311679840087891e+00
4.475000000000000000e+03 7.257247447967529297e+00 -2.632207679748535156e+01 -5.740454653277993202e-04 -2.036296874284744263e-01 -6.126112118363380432e-02 -1.517068445682525635e-01
4.476000000000000000e+03 6.971452331542968750e+01 -2.574623823165893555e+00 -6.993291974067687988e-01 1.748492121696472168e+00 3.147488832473754883e-01 -1.747760295867919922e+00
4.477000000000000000e+03 6.963808441162109375e+01 -2.992565870285034180e+00 -8.932672142982482910e-01 1.372728705406188965e+00 1.438384503126144409e-01 -1.530782461166381836e+00
4.478000000000000000e+03 7.238553619384765625e+01 -3.629815578460693359e+00 -2.460801154375076294e-01 5.498971462249755859e+00 1.575867295265197754e+00 -4.240119934082031250e+00
4.479000000000000000e+03 7.236232757568359375e+01 -3.111651897430419922e+00 -4.755602478981018066e-01 6.033324718475341797e+00 1.667329311370849609e+00 -4.079701900482177734e+00
4.480000000000000000e+03 7.744657135009765625e+01 -4.866764068603515625e+00 1.406357884407043457e+00 1.140465068817138672e+01 3.843302488327026367e+00 2.131711483001708984e+00
4.481000000000000000e+03 1.491975212097167969e+01 2.392883682250976562e+01 6.266234442591667175e-03 -7.619079947471618652e-01 -2.266925275325775146e-01 3.802167177200317383e-01
4.482000000000000000e+03 8.828691482543945312e+00 -2.695088577270507812e+01 1.689968630671501160e-02 -2.359749972820281982e-01 -6.572259217500686646e-02 -1.679912805557250977e-01
4.483000000000000000e+03 7.314063262939453125e+01 -9.223425865173339844e+00 -8.332008123397827148e-01 8.889355659484863281e+00 2.416846513748168945e+00 4.713965415954589844e+00
4.484000000000000000e+03 2.841526222229003906e+01 -2.826134109497070312e+01 2.225119322538375854e-01 -2.472794950008392334e-01 -7.430267520248889923e-03 -3.312894403934478760e-01
4.485000000000000000e+03 1.472310733795166016e+01 3.057121658325195312e+01 2.196523100137710571e-01 -6.585795283317565918e-01 -1.316781640052795410e-01 2.667065560817718506e-01
4.486000000000000000e+03 1.562614631652832031e+01 2.907946968078613281e+01 2.021699547767639160e-01 -6.795152425765991211e-01 -1.432035863399505615e-01 2.887424230575561523e-01
4.487000000000000000e+03 1.024276638031005859e+01 -3.137619972229003906e+01 6.303836405277252197e-02 -2.790192067623138428e-01 -6.479424983263015747e-02 -1.468080431222915649e-01
4.488000000000000000e+03 7.334957885742187500e+01 -3.730143547058105469e+00 -9.896041750907897949e-01 9.919626235961914062e+00 2.679006576538085938e+00 -4.948690414428710938e+00
4.489000000000000000e+03 9.846520423889160156e+00 -3.654937505722045898e+00 9.069491352420300245e-05 -2.570190408732742071e-04 -4.989724038750864565e-05 4.701920624938793480e-05
4.490000000000000000e+03 7.292503356933593750e+01 -3.250551223754882812e+00 -8.399832248687744141e-01 8.103863716125488281e+00 2.179164171218872070e+00 -4.401591300964355469e+00
4.491000000000000000e+03 7.249602508544921875e+01 -4.055466175079345703e+00 1.399472802877426147e-01 5.494037151336669922e+00 1.690195322036743164e+00 -4.576904773712158203e+00
4.492000000000000000e+03 7.598541259765625000e+01 -8.445219039916992188e+00 -6.026010960340499878e-02 1.596367454528808594e+01 4.771024227142333984e+00 -2.182977914810180664e+00
4.493000000000000000e+03 6.748208999633789062e+00 -2.899012374877929688e+01 2.031638845801353455e-02 -2.345686554908752441e-01 -6.427568197250366211e-02 -1.347343474626541138e-01
4.494000000000000000e+03 7.174493408203125000e+01 -9.651501655578613281e+00 -2.703227400779724121e-01 4.275911331176757812e+00 1.201676487922668457e+00 3.474490642547607422e+00
4.495000000000000000e+03 7.609075927734375000e+01 -4.406341075897216797e+00 2.819613516330718994e-01 1.532250785827636719e+01 4.681340694427490234e+00 2.265696287155151367e+00
4.496000000000000000e+03 1.739905166625976562e+01 -2.297701263427734375e+01 -5.799063295125961304e-02 -2.192839682102203369e-01 -8.318237960338592529e-02 -2.295601963996887207e-01
4.497000000000000000e+03 7.607415771484375000e+01 -3.533143997192382812e+00 -1.316639065742492676e+00 1.442100334167480469e+01 3.931309223175048828e+00 1.334860205650329590e+00
4.498000000000000000e+03 7.366677856445312500e+01 -1.007018470764160156e+01 -1.642035961151123047e+00 1.042723083496093750e+01 2.635558366775512695e+00 3.429647445678710938e+00
4.499000000000000000e+03 7.437590026855468750e+01 -1.052319049835205078e+01 -2.039810180664062500e+00 1.156944179534912109e+01 2.858889579772949219e+00 2.231412649154663086e+00
4.500000000000000000e+03 7.656761169433593750e+01 -3.538941383361816406e+00 -8.843973875045776367e-01 1.353572750091552734e+01 3.795399188995361328e+00 1.932327866554260254e+00
4.501000000000000000e+03 7.615682220458984375e+01 -2.699007749557495117e+00 -1.741495609283447266e+00 1.304999923706054688e+01 3.392550945281982422e+00 7.968019247055053711e-01
4.502000000000000000e+03 7.230812835693359375e+01 -2.497272968292236328e+00 -6.941465735435485840e-01 6.275443077087402344e+00 1.674389004707336426e+00 -3.658002614974975586e+00
4.503000000000000000e+03 2.395338439941406250e+01 1.098842811584472656e+01 -4.072360694408416748e-01 -4.488233923912048340e-01 -2.568178474903106689e-01 5.726896524429321289e-01
4.504000000000000000e+03 7.881143569946289062e+00 -3.109181976318359375e+01 3.729775920510292053e-02 -2.589059174060821533e-01 -6.648244708776473999e-02 -1.345452517271041870e-01
4.505000000000000000e+03 6.057090282440185547e+00 -5.001348972320556641e+00 -1.983642141567543149e-04 4.403877828735858202e-04 7.260706479428336024e-05 1.980202359845861793e-04
4.506000000000000000e+03 7.592310333251953125e+01 -8.916872978210449219e+00 -1.055670619010925293e+00 1.519211578369140625e+01 4.240933418273925781e+00 -1.531945228576660156e+00
4.507000000000000000e+03 1.902812194824218750e+01 -2.537484169006347656e+01 1.333545707166194916e-02 -2.353938370943069458e-01 -6.661751866340637207e-02 -2.596445083618164062e-01
4.508000000000000000e+03 7.631578445434570312e+00 2.811176300048828125e+01 2.822438068687915802e-02 -4.685256183147430420e-01 -1.320903748273849487e-01 3.004119098186492920e-01
4.509000000000000000e+03 7.152403259277343750e+01 -1.036537361145019531e+01 -3.677805066108703613e-01 4.229343891143798828e+00 1.158469080924987793e+00 3.170890569686889648e+00
4.510000000000000000e+03 6.954373168945312500e+01 -9.460086226463317871e-01 -3.374288082122802734e-01 2.511008262634277344e+00 6.520738601684570312e-01 -1.915814518928527832e+00
4.511000000000000000e+03 2.382955551147460938e+01 -2.750238037109375000e+01 1.130266338586807251e-01 -2.470948845148086548e-01 -4.022047296166419983e-02 -2.910470962524414062e-01
4.512000000000000000e+03 4.534237289428710938e+01 -2.427023506164550781e+01 3.161256909370422363e-01 -2.286555478349328041e-03 9.415174275636672974e-02 -4.445563554763793945e-01
4.513000000000000000e+03 4.302978515625000000e+01 -2.456908607482910156e+01 2.934843897819519043e-01 -4.870777577161788940e-02 7.343298196792602539e-02 -4.668695032596588135e-01
4.514000000000000000e+03 6.156361770629882812e+01 1.999588012695312500e+01 6.389869451522827148e-01 2.427551507949829102e+00 9.199615716934204102e-01 -5.948937535285949707e-01
4.515000000000000000e+03 3.681690979003906250e+01 -2.225950050354003906e+01 -1.468936330638825893e-03 -1.532076597213745117e-01 -4.640297964215278625e-02 -5.022839307785034180e-01
4.516000000000000000e+03 3.758300399780273438e+01 -2.135467720031738281e+01 -7.104788720607757568e-02 -1.455416679382324219e-01 -6.497687101364135742e-02 -5.155526399612426758e-01
4.517000000000000000e+03 2.644670486450195312e+01 1.884306907653808594e+01 -1.019027829170227051e-01 -3.667946755886077881e-01 -1.406092345714569092e-01 3.850698173046112061e-01
4.518000000000000000e+03 5.042929172515869141e+00 7.474089145660400391e+00 5.634329863823950291e-04 -1.045466196956112981e-04 1.376659201923757792e-04 -3.179749473929405212e-04
4.519000000000000000e+03 7.229111480712890625e+01 2.325088691711425781e+01 2.086273282766342163e-01 4.911543369293212891e+00 1.536051273345947266e+00 -6.262262463569641113e-01
4.520000000000000000e+03 7.489921569824218750e+01 -1.635116577148437500e+00 -2.064452648162841797e+00 1.148684787750244141e+01 2.826718568801879883e+00 -1.390368461608886719e+00
4.521000000000000000e+03 7.238912200927734375e+01 -2.533284378051757812e+01 3.273442983627319336e-01 5.632048130035400391e+00 1.787817716598510742e+00 1.049626350402832031e+00
4.522000000000000000e+03 2.617578315734863281e+01 2.027759552001953125e+01 -3.295082226395606995e-02 -3.853241801261901855e-01 -1.254824995994567871e-01 3.554670810699462891e-01
4.523000000000000000e+03 7.482769775390625000e+01 -2.463864898681640625e+01 1.774778962135314941e-01 6.667394161224365234e+00 2.053461790084838867e+00 9.448131322860717773e-01
4.524000000000000000e+03 7.460914611816406250e+01 -1.493513488769531250e+01 -6.883921027183532715e-01 8.307601928710937500e+00 2.285762786865234375e+00 1.343806266784667969e+00
4.525000000000000000e+03 7.403973388671875000e+01 -1.466214084625244141e+01 -7.133221626281738281e-01 7.947766780853271484e+00 2.170333385467529297e+00 1.585316538810729980e+00
4.526000000000000000e+03 2.618003463745117188e+01 9.192837715148925781e+00 -3.771885335445404053e-01 -3.062724769115447998e-01 -2.050382941961288452e-01 6.060521006584167480e-01
4.527000000000000000e+03 2.635222816467285156e+01 -2.374279594421386719e+01 -8.558725006878376007e-03 -1.869342774152755737e-01 -5.864790081977844238e-02 -3.682232499122619629e-01
4.528000000000000000e+03 2.566838645935058594e+01 2.163568496704101562e+01 3.450428321957588196e-02 -4.204308092594146729e-01 -1.157779619097709656e-01 3.175342679023742676e-01
4.529000000000000000e+03 3.416386795043945312e+01 -2.013849258422851562e+01 -1.638036817312240601e-01 -1.385561525821685791e-01 -9.070795029401779175e-02 -4.883292913436889648e-01
4.530000000000000000e+03 5.561230087280273438e+01 1.607765197753906250e+01 6.035440564155578613e-01 1.145436048507690430e+00 5.246940255165100098e-01 -1.984814703464508057e-01
4.531000000000000000e+03 6.374113464355468750e+01 2.138323402404785156e+01 5.711981058120727539e-01 2.928383350372314453e+00 1.049874424934387207e+00 -6.786348223686218262e-01
4.532000000000000000e+03 6.511399841308593750e+01 2.062018013000488281e+01 5.456860065460205078e-01 3.229989528656005859e+00 1.132702708244323730e+00 -7.520683407783508301e-01
4.533000000000000000e+03 2.588273048400878906e+01 -2.216082191467285156e+01 -7.062475383281707764e-02 -1.649411767721176147e-01 -7.066977769136428833e-02 -3.696076273918151855e-01
4.534000000000000000e+03 2.343239021301269531e+01 -1.973862266540527344e+01 -1.677143871784210205e-01 -1.269902437925338745e-01 -8.841139078140258789e-02 -3.238851428031921387e-01
4.535000000000000000e+03 7.162712860107421875e+01 -2.441276741027832031e+01 3.799096941947937012e-01 5.283931732177734375e+00 1.699152469635009766e+00 1.154373645782470703e+00
4.536000000000000000e+03 2.411745834350585938e+01 -1.496819496154785156e+00 -1.808234155178070068e-01 -1.169267296791076660e-01 -8.932504057884216309e-02 2.323217093944549561e-01
4.537000000000000000e+03 7.419507598876953125e+01 -1.546000385284423828e+01 -5.136283636093139648e-01 7.787646293640136719e+00 2.182205438613891602e+00 1.447535395622253418e+00
4.538000000000000000e+03 7.367388916015625000e+01 -1.516857719421386719e+01 -5.362780690193176270e-01 7.408696174621582031e+00 2.061725378036499023e+00 1.650743365287780762e+00
4.539000000000000000e+03 6.952027893066406250e+01 1.765915489196777344e+01 4.180024862289428711e-01 4.324195861816406250e+00 1.422659516334533691e+00 -9.672975540161132812e-01
4.540000000000000000e+03 6.384229660034179688e+01 1.797773742675781250e+01 6.290398240089416504e-01 2.794613361358642578e+00 1.027095913887023926e+00 -7.930299043655395508e-01
4.541000000000000000e+03 7.239324951171875000e+01 -1.127369213104248047e+01 -8.321220278739929199e-01 6.625169754028320312e+00 1.737914323806762695e+00 3.121778726577758789e+00
4.542000000000000000e+03 3.634717559814453125e+01 -1.812046813964843750e+01 -3.161248862743377686e-01 -1.187419965863227844e-01 -1.304600685834884644e-01 -5.074500441551208496e-01
4.543000000000000000e+03 2.381844329833984375e+01 -1.611164093017578125e+01 -2.900119721889495850e-01 -6.345310062170028687e-02 -1.060395240783691406e-01 -3.154430985450744629e-01
4.544000000000000000e+03 2.469349288940429688e+01 -2.265236282348632812e+01 -4.931626096367835999e-02 -1.768418401479721069e-01 -6.784743070602416992e-02 -3.444844186305999756e-01
4.545000000000000000e+03 6.625702667236328125e+01 1.647841072082519531e+01 5.764594078063964844e-01 3.325163125991821289e+00 1.170486807823181152e+00 -9.525901675224304199e-01
4.546000000000000000e+03 7.354202270507812500e+01 -2.334389305114746094e+01 2.336422204971313477e-01 6.204118728637695312e+00 1.931328296661376953e+00 1.125562787055969238e+00
4.547000000000000000e+03 7.234423065185546875e+01 8.289366960525512695e-01 -6.106002926826477051e-01 6.335188388824462891e+00 1.717376470565795898e+00 -2.313264846801757812e+00
4.548000000000000000e+03 7.353801727294921875e+01 -1.446043109893798828e+01 -6.985197663307189941e-01 7.582839012145996094e+00 2.065295696258544922e+00 1.789566636085510254e+00
4.549000000000000000e+03 7.380130004882812500e+01 -1.180569553375244141e+01 -1.453848600387573242e+00 9.174353599548339844e+00 2.316151380538940430e+00 2.305535078048706055e+00
4.550000000000000000e+03 7.326256561279296875e+01 -1.573376464843750000e+01 -3.644157350063323975e-01 6.941808700561523438e+00 1.973217964172363281e+00 1.674583435058593750e+00
4.551000000000000000e+03 7.303023529052734375e+01 -1.442005157470703125e+01 -6.066455245018005371e-01 7.014155387878417969e+00 1.922252893447875977e+00 1.947654008865356445e+00
4.552000000000000000e+03 3.004670524597167969e+01 4.547155380249023438e+00 -4.289023578166961670e-01 -1.222766041755676270e-01 -1.653536856174468994e-01 6.040349602699279785e-01
4.553000000000000000e+03 3.977964782714843750e+01 2.234963029623031616e-01 -9.377390742301940918e-01 -8.692929521203041077e-03 -2.839296162128448486e-01 5.342122316360473633e-01
4.554000000000000000e+03 3.004045486450195312e+01 -4.589764177799224854e-01 -4.873883426189422607e-01 -5.136468261480331421e-02 -1.616259068250656128e-01 4.206542968750000000e-01
4.555000000000000000e+03 7.359950256347656250e+01 -1.213189506530761719e+01 -1.309078812599182129e+00 8.616402626037597656e+00 2.192197084426879883e+00 2.339404821395874023e+00
4.556000000000000000e+03 2.608620452880859375e+01 -1.616468048095703125e+01 -3.115418851375579834e-01 -6.803929805755615234e-02 -1.138743534684181213e-01 -3.525992631912231445e-01
4.557000000000000000e+03 5.347124862670898438e+01 9.186897277832031250e+00 1.445066481828689575e-01 4.556363821029663086e-01 1.800429075956344604e-01 1.920212209224700928e-01
4.558000000000000000e+03 4.495510864257812500e+01 9.198671340942382812e+00 -1.285366863012313843e-01 1.149643585085868835e-01 -4.071696195751428604e-03 5.616615414619445801e-01
4.559000000000000000e+03 7.206264495849609375e+01 -1.300207614898681641e+01 -6.086710691452026367e-01 5.991803169250488281e+00 1.614939689636230469e+00 2.469392061233520508e+00
4.560000000000000000e+03 7.239614868164062500e+01 -1.276244163513183594e+01 -7.544113993644714355e-01 6.559400081634521484e+00 1.741496562957763672e+00 2.529600143432617188e+00
4.561000000000000000e+03 6.864610290527343750e+01 2.219093084335327148e+00 4.251855611801147461e-02 2.840850830078125000e+00 8.650107979774475098e-01 -1.667866706848144531e+00
4.562000000000000000e+03 3.154316139221191406e+01 6.731581091880798340e-01 -5.392977595329284668e-01 -5.164610967040061951e-02 -1.772831529378890991e-01 4.992357194423675537e-01
4.563000000000000000e+03 3.243490600585937500e+01 9.759449362754821777e-01 -5.733342766761779785e-01 -4.386734589934349060e-02 -1.851604878902435303e-01 5.211629867553710938e-01
4.564000000000000000e+03 6.467633056640625000e+01 1.000098896026611328e+01 5.714199542999267578e-01 2.379132032394409180e+00 8.851655721664428711e-01 -9.609454870223999023e-01
4.565000000000000000e+03 5.417822647094726562e+01 1.005781841278076172e+01 2.527347505092620850e-01 5.615290999412536621e-01 2.442791461944580078e-01 1.026961579918861389e-01
4.566000000000000000e+03 4.443220138549804688e+01 -1.400841808319091797e+01 -9.015878438949584961e-01 -5.932256579399108887e-02 -2.882731258869171143e-01 -5.119220614433288574e-01
4.567000000000000000e+03 6.553406524658203125e+01 1.094802570343017578e+01 5.907921195030212402e-01 2.758470296859741211e+00 1.004778742790222168e+00 -1.051953554153442383e+00
4.568000000000000000e+03 3.246292495727539062e+01 -5.411685109138488770e-01 -6.067431569099426270e-01 -2.848280966281890869e-02 -1.905677914619445801e-01 4.491703510284423828e-01
4.569000000000000000e+03 7.043917846679687500e+01 4.421581268310546875e+00 1.019310578703880310e-01 4.467419147491455078e+00 1.370805144309997559e+00 -1.755656361579895020e+00
4.570000000000000000e+03 3.539604187011718750e+01 -1.296528148651123047e+01 -7.115294337272644043e-01 -5.426719412207603455e-02 -2.297389954328536987e-01 -3.836720585823059082e-01
4.571000000000000000e+03 3.426447677612304688e+01 1.250862407684326172e+01 -1.651287525892257690e-01 -7.441066950559616089e-02 -7.186182588338851929e-02 5.989140272140502930e-01
4.572000000000000000e+03 3.442554092407226562e+01 2.158702135086059570e+00 -6.072768568992614746e-01 -3.504574671387672424e-02 -1.926967799663543701e-01 5.898137092590332031e-01
4.573000000000000000e+03 6.778382110595703125e+01 7.645056724548339844e+00 4.448457062244415283e-01 3.267661333084106445e+00 1.113752126693725586e+00 -1.353983163833618164e+00
4.574000000000000000e+03 6.689084625244140625e+01 7.303569793701171875e+00 4.448746442794799805e-01 2.859750032424926758e+00 9.913873672485351562e-01 -1.251528024673461914e+00
4.575000000000000000e+03 7.220388031005859375e+01 -1.362136554718017578e+01 -5.672205686569213867e-01 6.226457595825195312e+00 1.697771191596984863e+00 2.269399166107177734e+00
4.576000000000000000e+03 5.993500900268554688e+01 -1.528997230529785156e+01 -4.333553314208984375e-01 3.722619116306304932e-01 -1.832802593708038330e-02 -9.735687077045440674e-02
4.577000000000000000e+03 3.303931808471679688e+01 9.452735900878906250e+00 -3.109951913356781006e-01 -9.411679208278656006e-02 -1.215335950255393982e-01 6.469251513481140137e-01
4.578000000000000000e+03 6.803765106201171875e+01 2.386418819427490234e+00 7.431396842002868652e-02 2.645566463470458984e+00 8.159641027450561523e-01 -1.532458662986755371e+00
4.579000000000000000e+03 5.671001052856445312e+01 -1.245680522918701172e+01 -1.431204199790954590e+00 3.670835122466087341e-02 -4.183487594127655029e-01 -4.370912313461303711e-01
4.580000000000000000e+03 6.061523437500000000e+01 -1.596063899993896484e+01 -2.170496433973312378e-01 5.263813138008117676e-01 9.279949963092803955e-02 3.010137006640434265e-02
4.581000000000000000e+03 3.134811019897460938e+01 -1.433828830718994141e+01 -4.882522523403167725e-01 -6.282081454992294312e-02 -1.653219163417816162e-01 -3.821663856506347656e-01
4.582000000000000000e+03 6.836747741699218750e+01 4.696185111999511719e+00 2.540673017501831055e-01 3.203646183013916016e+00 1.037314057350158691e+00 -1.532229900360107422e+00
4.583000000000000000e+03 7.063730621337890625e+01 -1.899232864379882812e+01 2.601360976696014404e-01 4.727140426635742188e+00 1.496183037757873535e+00 1.521256566047668457e+00
4.584000000000000000e+03 4.933567428588867188e+01 2.677511215209960938e+00 -8.924588561058044434e-01 1.706168800592422485e-02 -2.626191675662994385e-01 5.551787018775939941e-01
4.585000000000000000e+03 4.697412109375000000e+01 3.069867849349975586e+00 -8.185051679611206055e-01 1.115378364920616150e-02 -2.422054111957550049e-01 5.930499434471130371e-01
4.586000000000000000e+03 4.271056747436523438e+01 2.368406772613525391e+00 -8.280071020126342773e-01 -6.944056134670972824e-03 -2.504853606224060059e-01 6.122724413871765137e-01
4.587000000000000000e+03 6.615501403808593750e+01 4.438892364501953125e+00 2.633819580078125000e-01 2.092002153396606445e+00 7.066152095794677734e-01 -1.137111902236938477e+00
4.588000000000000000e+03 6.754512786865234375e+01 4.059919834136962891e+00 2.188997417688369751e-01 2.674408197402954102e+00 8.679924011230468750e-01 -1.393496155738830566e+00
4.589000000000000000e+03 6.409278869628906250e+01 3.561513900756835938e+00 2.047559246420860291e-02 1.235758543014526367e+00 3.768702149391174316e-01 -6.968699693679809570e-01
4.590000000000000000e+03 6.352029800415039062e+01 3.826069355010986328e+00 3.915337845683097839e-02 1.131187677383422852e+00 3.511023223400115967e-01 -5.771023631095886230e-01
4.591000000000000000e+03 6.407995605468750000e+01 4.240707874298095703e+00 1.529376208782196045e-01 1.383989930152893066e+00 4.610782861709594727e-01 -7.300743460655212402e-01
4.592000000000000000e+03 6.571847534179687500e+01 7.597105503082275391e+00 4.631309509277343750e-01 2.449742317199707031e+00 8.738619685173034668e-01 -1.066302537918090820e+00
4.593000000000000000e+03 6.837346649169921875e+01 -1.700827980041503906e+01 2.861098349094390869e-01 3.184872865676879883e+00 1.041294813156127930e+00 1.460986614227294922e+00
4.594000000000000000e+03 6.945049285888671875e+01 -1.741970443725585938e+01 2.620048820972442627e-01 3.819452762603759766e+00 1.224437355995178223e+00 1.595089077949523926e+00
4.595000000000000000e+03 3.743810272216796875e+01 2.486985445022583008e+00 -6.835973858833312988e-01 -2.157730609178543091e-02 -2.115524113178253174e-01 6.115388274192810059e-01
4.596000000000000000e+03 6.087915802001953125e+01 5.571217060089111328e+00 1.227730661630630493e-01 8.681752085685729980e-01 2.972844839096069336e-01 -3.226902484893798828e-01
4.597000000000000000e+03 7.054709625244140625e+01 -1.835011100769042969e+01 2.492347210645675659e-01 4.634902477264404297e+00 1.465241193771362305e+00 1.568936228752136230e+00
4.598000000000000000e+03 5.296377182006835938e+01 5.671009063720703125e+00 -3.236474394798278809e-01 1.984449774026870728e-01 -3.756074234843254089e-02 3.777175843715667725e-01
4.599000000000000000e+03 3.426755905151367188e+01 5.935682773590087891e+00 -4.483222067356109619e-01 -6.054573506116867065e-02 -1.526603847742080688e-01 6.597554087638854980e-01
4.600000000000000000e+03 3.534710311889648438e+01 8.292551994323730469e+00 -3.388545811176300049e-01 -5.483990535140037537e-02 -1.181083470582962036e-01 6.655517816543579102e-01
4.601000000000000000e+03 6.261755371093750000e+01 -1.444432258605957031e+01 -4.568191468715667725e-01 5.712767243385314941e-01 3.433726727962493896e-02 1.751536279916763306e-01
4.602000000000000000e+03 3.527813339233398438e+01 1.300013780593872070e+00 -6.801788210868835449e-01 -2.518539316952228546e-02 -2.116092592477798462e-01 5.559177398681640625e-01
4.603000000000000000e+03 3.494492721557617188e+01 1.745298624038696289e+00 -6.460209488868713379e-01 -2.808576636016368866e-02 -2.022320181131362915e-01 5.758563876152038574e-01
4.604000000000000000e+03 4.767690658569335938e+01 4.127904891967773438e+00 -6.655402779579162598e-01 3.135985881090164185e-02 -1.902541220188140869e-01 5.850024819374084473e-01
4.605000000000000000e+03 6.611729431152343750e+01 6.913815021514892578e+00 4.301247596740722656e-01 2.517909049987792969e+00 8.844101428985595703e-01 -1.140473604202270508e+00
4.606000000000000000e+03 6.533285522460937500e+01 6.840423107147216797e+00 4.333758652210235596e-01 2.170404672622680664e+00 7.811341881752014160e-01 -1.014999747276306152e+00
4.607000000000000000e+03 4.060805511474609375e+01 3.170517444610595703e+00 -7.118766903877258301e-01 -1.162682007998228073e-02 -2.170510441064834595e-01 6.356989741325378418e-01
4.608000000000000000e+03 6.052757644653320312e+01 4.863879680633544922e+00 -4.218222200870513916e-02 6.902158260345458984e-01 1.944100707769393921e-01 -2.095652520656585693e-01
4.609000000000000000e+03 3.595764160156250000e+01 1.655376911163330078e+00 -6.862198710441589355e-01 -2.371652238070964813e-02 -2.129809260368347168e-01 5.771756768226623535e-01
4.610000000000000000e+03 4.957472991943359375e+01 3.216907501220703125e+00 -8.105512261390686035e-01 2.928651496767997742e-02 -2.343794107437133789e-01 5.473825931549072266e-01
4.611000000000000000e+03 5.745639038085937500e+01 5.830251216888427734e+00 -7.713944464921951294e-02 4.762245714664459229e-01 1.197255328297615051e-01 4.701099544763565063e-02
4.612000000000000000e+03 5.681539916992187500e+01 5.434664249420166016e+00 -1.726996600627899170e-01 3.794144690036773682e-01 6.201444193720817566e-02 1.267557442188262939e-01
4.613000000000000000e+03 1.488040065765380859e+01 1.046121835708618164e+00 2.558024716563522816e-04 3.266366256866604090e-04 1.747317292029038072e-04 -9.311919711763039231e-06
4.614000000000000000e+03 1.433596038818359375e+01 8.109902739524841309e-01 1.839205506257712841e-04 -1.127492942032404244e-04 2.135137765435501933e-05 1.948050776263698936e-04
4.615000000000000000e+03 1.339948463439941406e+01 9.943951964378356934e-01 6.743585254298523068e-05 -3.662088784039951861e-05 9.244489774573594332e-06 -2.193533873651176691e-05
4.616000000000000000e+03 1.399857616424560547e+01 1.078236818313598633e+00 -9.038655844051390886e-05 -1.330033701378852129e-04 -6.701697566313669086e-05 -4.653292489820159972e-05
4.617000000000000000e+03 1.342517852783203125e+01 2.516243755817413330e-01 -1.082212475012056530e-05 3.426320108701474965e-05 7.032322628219844773e-06 1.799240976652072277e-06
4.618000000000000000e+03 1.503903388977050781e+01 3.840551078319549561e-01 -1.568572588439565152e-05 -2.909811519202776253e-05 -1.343515214102808386e-05 -2.830320590874180198e-05
4.619000000000000000e+03 1.424006271362304688e+01 2.423980534076690674e-01 -2.593449971755035222e-05 5.033618890593061224e-06 -6.270264293561922386e-06 1.693187732598744333e-05
4.620000000000000000e+03 1.447602939605712891e+01 1.142013788223266602e+00 1.049618877004832029e-04 -5.250091271591372788e-05 1.573829104017931968e-05 1.522154980193590745e-05
4.621000000000000000e+03 1.113503360748291016e+01 3.384475409984588623e-01 -8.498597890138626099e-05 -1.382331975037232041e-04 -6.696575292153283954e-05 1.047513251251075417e-05
4.622000000000000000e+03 1.115649890899658203e+01 1.078244447708129883e+00 -1.130797245423309505e-04 9.392149513587355614e-05 -5.747469003836158663e-06 -1.254152884939685464e-04
4.623000000000000000e+03 1.038435840606689453e+01 3.729175329208374023e-01 -1.384073839290067554e-04 1.386361109325662255e-04 6.861457535478621139e-08 -4.806560173165053129e-05
4.624000000000000000e+03 1.188578510284423828e+01 3.038018345832824707e-01 -5.848438740940764546e-05 1.286566985072568059e-04 2.105169369315262884e-05 -3.479332372080534697e-05
4.625000000000000000e+03 1.263660717010498047e+01 2.689834535121917725e-01 -1.181382322101853788e-05 -1.021733623929321766e-04 -3.419615313760004938e-05 -4.051647920277900994e-06
4.626000000000000000e+03 1.266393947601318359e+01 1.008509635925292969e+00 -5.845533087267540395e-05 3.095330976066179574e-05 -8.250606697401963174e-06 -8.927079034037888050e-05
4.627000000000000000e+03 1.040289020538330078e+01 1.112849831581115723e+00 -5.019256786908954382e-05 -7.614945207023993134e-05 -3.790260598179884255e-05 8.331068966072052717e-05
4.628000000000000000e+03 1.191018390655517578e+01 1.043463349342346191e+00 -4.092932067578658462e-05 -6.202641816344112158e-05 -3.088672019657678902e-05 1.442899701942224056e-05
4.629000000000000000e+03 9.630480766296386719e+00 3.871794641017913818e-01 -1.467306428821757436e-04 -1.046459292410872877e-04 -7.541297236457467079e-05 4.010619886685162783e-05
4.630000000000000000e+03 8.873666763305664062e+00 3.829238712787628174e-01 -1.888108090497553349e-04 5.242945189820602536e-05 -4.091440860065631568e-05 -7.170911703724414110e-05
4.631000000000000000e+03 9.660673141479492188e+00 1.127179503440856934e+00 -1.481512736063450575e-04 4.969828296452760696e-05 -2.953589500975795090e-05 -1.915471220854669809e-04
4.632000000000000000e+03 8.116720199584960938e+00 3.805542886257171631e-01 -1.847931707743555307e-04 1.452382093702908605e-05 -5.108080586069263518e-05 6.252620369195938110e-05
4.633000000000000000e+03 7.360193252563476562e+00 3.795430362224578857e-01 -2.175586560042575002e-04 -7.176417420851066709e-05 -8.679684833623468876e-05 -7.672174979234114289e-05
4.634000000000000000e+03 5.847065925598144531e+00 3.768712580204010010e-01 -2.109631896018981934e-04 -1.534866751171648502e-04 -1.093349565053358674e-04 -7.382090552709996700e-05
4.635000000000000000e+03 5.091114044189453125e+00 3.758820295333862305e-01 -1.524324179627001286e-04 1.751196687109768391e-04 6.806173587392549962e-06 9.525824862066656351e-05
4.636000000000000000e+03 3.579006433486938477e+00 3.681437373161315918e-01 -8.651995449326932430e-05 1.719723950373008847e-04 2.563573434599675238e-05 1.022213691612705588e-04
4.637000000000000000e+03 2.823871612548828125e+00 3.614119887351989746e-01 -9.270134614780545235e-05 -1.516400079708546400e-04 -7.330240623559802771e-05 -6.263651448534801602e-05
4.638000000000000000e+03 2.070111274719238281e+00 3.578882515430450439e-01 -1.753320066200103611e-05 1.184140055556781590e-04 3.026424019481055439e-05 8.466128201689571142e-05
4.639000000000000000e+03 2.362852334976196289e+00 1.097888231277465820e+00 -4.378360972623340786e-05 -6.801509880460798740e-05 -3.353961437824182212e-05 -2.832967220456339419e-05
4.640000000000000000e+03 1.328713655471801758e+00 3.659794926643371582e-01 -3.323264536447823048e-05 -9.001285070553421974e-05 -3.697364809340797365e-05 -5.306711682351306081e-05
4.641000000000000000e+03 1.647709608078002930e+00 1.105979442596435547e+00 -3.451525481068529189e-05 1.726079426589421928e-05 -5.176338163437321782e-06 9.450611105421558022e-05
4.642000000000000000e+03 6.516475677490234375e-01 3.939257264137268066e-01 1.944617361004929990e-05 5.324279482010751963e-05 2.180669071094598621e-05 5.679367677657864988e-05
4.643000000000000000e+03 3.489431142807006836e-01 9.570703506469726562e-01 -5.110500569571740925e-05 -2.432499604765325785e-05 -2.262900125060696155e-05 1.146560771303484216e-05
4.644000000000000000e+03 3.090358018875122070e+00 1.101411938667297363e+00 -7.205139263533055782e-05 8.668038208270445466e-05 4.388697107060579583e-06 1.382322661811485887e-04
4.645000000000000000e+03 3.819237709045410156e+00 1.108143687248229980e+00 -1.076021580956876278e-04 -9.257722558686509728e-05 -6.005381510476581752e-05 -6.390680937329307199e-05
4.646000000000000000e+03 4.335169315338134766e+00 3.733847737312316895e-01 -1.671180798439309001e-04 -1.769803784554824233e-04 -1.032295331242494285e-04 -7.185398862930014729e-05
4.647000000000000000e+03 6.008533000946044922e+00 1.116871237754821777e+00 -1.214600706589408219e-04 1.164485947811044753e-04 -1.503444082118221559e-06 1.642118295421823859e-04
4.648000000000000000e+03 6.603851795196533203e+00 3.786112964153289795e-01 -1.898654591059312224e-04 1.251788344234228134e-04 -1.940598849614616483e-05 7.990340236574411392e-05
4.649000000000000000e+03 8.930113792419433594e+00 1.122923851013183594e+00 -9.814212535275146365e-05 -3.815505351667525247e-06 -3.058728907490149140e-05 1.507933920947834849e-04
4.650000000000000000e+03 8.199422836303710938e+00 1.120554327964782715e+00 -1.684210292296484113e-04 -2.051117917289957404e-05 -5.667966252076439559e-05 -2.014344790950417519e-04
4.651000000000000000e+03 7.469150543212890625e+00 1.119543075561523438e+00 -1.227490720339119434e-04 7.370705134235322475e-05 -1.471260475227609277e-05 1.700236316537484527e-04
4.652000000000000000e+03 6.739063739776611328e+00 1.118611335754394531e+00 -1.701698201941326261e-04 -7.949928112793713808e-05 -7.490073039662092924e-05 -1.594012719579041004e-04
4.653000000000000000e+03 5.278835773468017578e+00 1.115882039070129395e+00 -1.556036149850115180e-04 -9.864244930213317275e-05 -7.627382001373916864e-05 -1.039403650793246925e-04
4.654000000000000000e+03 4.549146175384521484e+00 1.113384723663330078e+00 -9.385893645230680704e-05 1.122977992054075003e-04 5.531660463020671159e-06 1.600047398824244738e-04
4.655000000000000000e+03 9.968983530998229980e-01 1.133925795555114746e+00 1.053178948495769873e-05 -1.834846443671267480e-05 -2.345002712900168262e-06 -5.017712464905343950e-05
4.656000000000000000e+03 7.947246074676513672e+00 -3.790149092674255371e-01 -3.772491618292406201e-05 1.671528589213266969e-04 3.882838427671231329e-05 1.380715821142075583e-05
4.657000000000000000e+03 8.798082351684570312e+00 -1.121163964271545410e+00 -7.316852588701294735e-06 1.398170134052634239e-04 3.975004801759496331e-05 5.963118019280955195e-05
4.658000000000000000e+03 9.582462310791015625e+00 -3.862577378749847412e-01 -1.965865703823510557e-05 1.732749369693920016e-04 4.608488598023541272e-05 1.388821783621096984e-05
4.659000000000000000e+03 7.128131389617919922e+00 -3.778152763843536377e-01 -6.310240860329940915e-05 -1.470551214879378676e-04 -6.304725684458389878e-05 -8.308162250614259392e-06
4.660000000000000000e+03 6.302709579467773438e+00 -3.771458566188812256e-01 -6.051225864212028682e-05 1.172635747934691608e-04 1.702539520920254290e-05 2.182132629968691617e-05
4.661000000000000000e+03 5.439445972442626953e+00 -3.834656774997711182e-01 -4.891839125775732100e-05 -6.714627670589834452e-05 -3.481940075289458036e-05 -4.477841503103263676e-05
4.662000000000000000e+03 4.549984931945800781e+00 -3.402172923088073730e-01 -1.000017073238268495e-05 2.933540417870972306e-05 5.800569851999171078e-06 3.373312574694864452e-05
4.663000000000000000e+03 4.365737915039062500e+00 -8.721476197242736816e-01 -2.253470156574621797e-04 1.434188197890762240e-05 -6.330154428724199533e-05 -9.090561070479452610e-05
4.664000000000000000e+03 2.784216165542602539e+00 -7.810403704643249512e-01 -9.806877642404288054e-05 2.689062603167258203e-05 -2.135344402631744742e-05 -1.261002907995134592e-04
4.665000000000000000e+03 1.180924773216247559e+00 -3.613742887973785400e-01 5.443539339466951787e-05 -9.934654372045770288e-06 1.335022079729242250e-05 2.332971234864089638e-05
4.666000000000000000e+03 4.100910127162933350e-01 -5.529776215553283691e-01 -8.517857168044429272e-06 -2.265148395963478833e-06 -3.234901669202372432e-06 -6.652197043877094984e-06
4.667000000000000000e+03 7.475960254669189453e-01 -1.101374268531799316e+00 -1.811952388379722834e-04 3.698607179103419185e-05 -4.326274574850685894e-05 -2.377695273025892675e-05
4.668000000000000000e+03 9.582078933715820312e+00 -1.126257777214050293e+00 -3.911785097443498671e-05 -1.450296695111319423e-04 -5.524425432668067515e-05 -2.184751610911916941e-05
4.669000000000000000e+03 8.013586997985839844e+00 -1.119014978408813477e+00 -5.736675666412338614e-05 -1.271730143344029784e-04 -5.536193202715367079e-05 -4.483654993236996233e-05
4.670000000000000000e+03 7.227835178375244141e+00 -1.117815256118774414e+00 -2.702208621485624462e-05 1.166102592833340168e-04 2.687645246624015272e-05 7.134069164749234915e-05
4.671000000000000000e+03 6.435775756835937500e+00 -1.117145895957946777e+00 -3.258712604292668402e-05 -9.022632002597674727e-05 -3.684403418446891010e-05 -7.309485954465344548e-05
4.672000000000000000e+03 5.605874538421630859e+00 -1.123465657234191895e+00 -9.512034012004733086e-05 7.412064587697386742e-05 -6.299908363871509209e-06 8.723372593522071838e-05
4.673000000000000000e+03 4.870606899261474609e+00 -1.221678614616394043e+00 1.020188719849102199e-04 -4.813659325009211898e-05 1.616468216525390744e-05 -8.399177022511139512e-05
4.674000000000000000e+03 4.215381145477294922e+00 -1.291930317878723145e+00 5.174558464204892516e-05 -1.041413815983105451e-05 1.239943412656430155e-05 1.269350032089278102e-04
4.675000000000000000e+03 3.483533143997192383e+00 -1.264367222785949707e+00 -1.705620234133675694e-04 1.213964696944458410e-05 -4.752671156893484294e-05 -2.054194483207538724e-04
4.676000000000000000e+03 2.720056772232055664e+00 -1.259521603584289551e+00 1.143812551163136959e-04 7.826361979823559523e-06 3.666228440124541521e-05 1.692215446382761002e-04
4.677000000000000000e+03 1.356012225151062012e+00 -1.203287243843078613e+00 2.578115381766110659e-04 -2.933160067186690867e-05 6.854398088762536645e-05 3.045198172912932932e-05
4.678000000000000000e+03 1.973117947578430176e+00 -8.476541042327880859e-01 -5.390433580032549798e-05 -1.850157059379853308e-05 -2.172177119064144790e-05 1.121254535974003375e-04
4.679000000000000000e+03 8.765102386474609375e+00 -3.811639845371246338e-01 -4.785084092873148620e-05 -1.762349711498245597e-04 -6.722574471496045589e-05 -6.063826276658801362e-06
4.680000000000000000e+03 3.694828748703002930e+00 -2.827752828598022461e-01 -6.348915485432371497e-05 -2.717237475735601038e-05 -2.719845724641345441e-05 -3.493319672998040915e-05
4.681000000000000000e+03 2.863922595977783203e+00 -2.815187871456146240e-01 3.040279807464685291e-06 2.878464147215709090e-05 9.547476111038122326e-06 2.867745206458494067e-05
4.682000000000000000e+03 1.994147539138793945e+00 -3.323310017585754395e-01 -2.690637666091788560e-05 -2.125213177350815386e-05 -1.444755253032781184e-05 -4.855168663198128343e-05
4.683000000000000000e+03 1.978801369667053223e+00 -1.275323033332824707e+00 -1.673465303611010313e-04 -3.696205021697096527e-05 -6.129257235443219543e-05 -1.688540360191836953e-04
4.684000000000000000e+03 3.578665971755981445e+00 -7.871425151824951172e-01 5.834911280544474721e-05 1.870227265499124769e-06 1.806580257834866643e-05 9.728204167913645506e-05
4.685000000000000000e+03 1.511178874969482422e+01 -1.151870131492614746e+00 -3.927510624635033309e-05 -3.447100607445463538e-05 -2.212383333244360983e-05 -9.111376130022108555e-06
4.686000000000000000e+03 1.328532791137695312e+01 -1.267471551895141602e+00 2.746641257544979453e-05 6.642495281994342804e-05 2.816740925482008606e-05 2.923542342614382505e-05
4.687000000000000000e+03 1.480503654479980469e+01 -5.744030475616455078e-01 2.473045788065064698e-05 -1.419378531863912940e-05 3.161001586704514921e-06 1.634902582736685872e-05
4.688000000000000000e+03 1.453040313720703125e+01 -1.313965797424316406e+00 -1.987741234188433737e-05 7.918698247522115707e-05 1.779287049430422485e-05 -1.093049650080502033e-05
4.689000000000000000e+03 1.393833351135253906e+01 -1.278923630714416504e+00 -6.143033260741503909e-06 -6.043230678187683225e-05 -1.997260187636129558e-05 -1.287856593989999965e-05
4.690000000000000000e+03 1.336329460144042969e+01 -5.279909372329711914e-01 -9.631228749640285969e-06 -9.290646266890689731e-05 -3.076130451518110931e-05 -1.788494046195410192e-05
4.691000000000000000e+03 1.411463356018066406e+01 -5.394020080566406250e-01 7.841204023861791939e-06 6.914047844475135207e-05 2.309450610482599586e-05 1.216084729094291106e-05
4.692000000000000000e+03 1.111242771148681641e+01 -4.403275847434997559e-01 -1.051059484780125786e-06 1.445140223950147629e-04 4.303888636059127748e-05 9.131691513175610453e-06
4.693000000000000000e+03 1.260764503479003906e+01 -5.095726251602172852e-01 1.398110816808184609e-05 1.027746766339987516e-04 3.502673644106835127e-05 1.437044284102739766e-05
4.694000000000000000e+03 1.185993289947509766e+01 -4.741277396678924561e-01 -1.579487070557661355e-05 -1.211201088153757155e-04 -4.107449422008357942e-05 -4.052643362228991464e-06
4.695000000000000000e+03 1.109096240997314453e+01 -1.180124521255493164e+00 -3.341589035699144006e-05 -1.388053933624178171e-04 -5.166638584341853857e-05 2.300373807884170674e-06
4.696000000000000000e+03 1.036482620239257812e+01 -4.067706167697906494e-01 -2.624273474793881178e-05 -1.713166275294497609e-04 -5.926780795562081039e-05 -1.860193833636003546e-06
4.697000000000000000e+03 1.034629440307617188e+01 -1.146702885627746582e+00 2.471299467288190499e-06 1.493811432737857103e-04 4.555573468678630888e-05 3.193333031958900392e-05
4.698000000000000000e+03 1.258031177520751953e+01 -1.249099493026733398e+00 -4.337408245191909373e-05 -8.670043462188914418e-05 -3.902235403074882925e-05 -1.718191924737766385e-05
4.699000000000000000e+03 1.183553314208984375e+01 -1.213789224624633789e+00 3.400696732569485903e-05 1.075953186955302954e-04 4.248068580636754632e-05 1.769207301549613476e-05
4.700000000000000000e+03 7.401590728759765625e+01 -6.401592731475830078e+00 3.207377243041992188e+01 6.536306381225585938e+00 1.158302402496337891e+01 1.255798721313476562e+01
4.701000000000000000e+03 7.401984405517578125e+01 -6.420659065246582031e+00 2.911163330078125000e+01 1.930189895629882812e+01 1.452406024932861328e+01 2.408551597595214844e+01
4.702000000000000000e+03 7.402742004394531250e+01 -6.438593864440917969e+00 2.658039855957031250e+01 3.177153968811035156e+01 1.750558090209960938e+01 2.806717491149902344e+01
4.703000000000000000e+03 7.403833770751953125e+01 -6.454711437225341797e+00 2.239524269104003906e+01 4.449364852905273438e+01 2.006666755676269531e+01 2.921297454833984375e+01
4.704000000000000000e+03 7.405218505859375000e+01 -6.468394756317138672e+00 1.886267662048339844e+01 5.616413116455078125e+01 2.250804328918457031e+01 2.719479370117187500e+01
4.705000000000000000e+03 7.406842803955078125e+01 -6.479120731353759766e+00 1.544532966613769531e+01 6.607659149169921875e+01 2.445657730102539062e+01 2.264092445373535156e+01
4.706000000000000000e+03 7.408645629882812500e+01 -6.486477851867675781e+00 1.376223564147949219e+01 7.326605224609375000e+01 2.610848617553710938e+01 1.622575569152832031e+01
4.707000000000000000e+03 7.410556793212890625e+01 -6.490185737609863281e+00 1.378484344482421875e+01 7.723616027832031250e+01 2.730630111694335938e+01 8.727136611938476562e+00
4.708000000000000000e+03 7.412503814697265625e+01 -6.490101814270019531e+00 1.598027515411376953e+01 7.790602874755859375e+01 2.816589164733886719e+01 1.394054770469665527e+00
4.709000000000000000e+03 7.414411926269531250e+01 -6.486229419708251953e+00 2.002444648742675781e+01 7.562849426269531250e+01 2.869588279724121094e+01 -4.945146560668945312e+00
4.710000000000000000e+03 7.416207122802734375e+01 -6.478716373443603516e+00 2.524384689331054688e+01 7.122928619384765625e+01 2.894194030761718750e+01 -9.385569572448730469e+00
4.711000000000000000e+03 7.417823028564453125e+01 -6.467851161956787109e+00 3.104651641845703125e+01 6.564300537109375000e+01 2.900685691833496094e+01 -1.162805843353271484e+01
4.712000000000000000e+03 7.419195556640625000e+01 -6.454048633575439453e+00 3.648349380493164062e+01 5.997322082519531250e+01 2.893701362609863281e+01 -1.163471508026123047e+01
4.713000000000000000e+03 7.420273590087890625e+01 -6.437837123870849609e+00 4.108103179931640625e+01 5.498158645629882812e+01 2.881878662109375000e+01 -9.706920623779296875e+00
4.714000000000000000e+03 7.421015167236328125e+01 -6.419837474822998047e+00 4.431699371337890625e+01 5.137939071655273438e+01 2.870891571044921875e+01 -6.369090080261230469e+00
4.715000000000000000e+03 7.421392822265625000e+01 -6.400738239288330078e+00 4.594627761840820312e+01 4.943089675903320312e+01 2.861315155029296875e+01 -2.189045906066894531e+00
4.716000000000000000e+03 7.421390533447265625e+01 -6.381269931793212891e+00 4.598004150390625000e+01 4.953603744506835938e+01 2.865482330322265625e+01 2.296952247619628906e+00
4.717000000000000000e+03 7.421009826660156250e+01 -6.362178325653076172e+00 4.426171112060546875e+01 5.135905838012695312e+01 2.868622970581054688e+01 6.503227710723876953e+00
4.718000000000000000e+03 7.420264434814453125e+01 -6.344192981719970703e+00 4.103902053833007812e+01 5.501146697998046875e+01 2.881514549255371094e+01 9.817777633666992188e+00
4.719000000000000000e+03 7.419183349609375000e+01 -6.328002929687500000e+00 3.645479965209960938e+01 6.003041458129882812e+01 2.894556427001953125e+01 1.172003364562988281e+01
4.720000000000000000e+03 7.417807769775390625e+01 -6.314227104187011719e+00 3.093135643005371094e+01 6.568769836425781250e+01 2.898571586608886719e+01 1.171415615081787109e+01
4.721000000000000000e+03 7.416190338134765625e+01 -6.303393840789794922e+00 2.517155075073242188e+01 7.127713012695312500e+01 2.893460464477539062e+01 9.447370529174804688e+00
4.722000000000000000e+03 7.414392852783203125e+01 -6.295916080474853516e+00 1.989913368225097656e+01 7.563761901855468750e+01 2.866102600097656250e+01 4.994017601013183594e+00
4.723000000000000000e+03 7.412483978271484375e+01 -6.292081356048583984e+00 1.588932418823242188e+01 7.791377258300781250e+01 2.814092826843261719e+01 -1.380365848541259766e+00
4.724000000000000000e+03 7.410537719726562500e+01 -6.292035579681396484e+00 1.361760234832763672e+01 7.717455291748046875e+01 2.723764801025390625e+01 -8.691493034362792969e+00
4.725000000000000000e+03 7.408627319335937500e+01 -6.295780658721923828e+00 1.366050529479980469e+01 7.318780517578125000e+01 2.605449295043945312e+01 -1.619821166992187500e+01
4.726000000000000000e+03 7.406826019287109375e+01 -6.303173542022705078e+00 1.526573467254638672e+01 6.594513702392578125e+01 2.436326026916503906e+01 -2.260007286071777344e+01
4.727000000000000000e+03 7.405203247070312500e+01 -6.313930988311767578e+00 1.864326477050781250e+01 5.601925277709960938e+01 2.239875602722167969e+01 -2.712978363037109375e+01
4.728000000000000000e+03 7.403821563720703125e+01 -6.327641487121582031e+00 2.217489814758300781e+01 4.437386322021484375e+01 1.996462821960449219e+01 -2.911652946472167969e+01
4.729000000000000000e+03 7.402732086181640625e+01 -6.343780517578125000e+00 2.626057243347167969e+01 3.162273788452148438e+01 1.736499214172363281e+01 -2.797995948791503906e+01
4.730000000000000000e+03 7.401978302001953125e+01 -6.361730575561523438e+00 2.877065277099609375e+01 1.921263504028320312e+01 1.439498615264892578e+01 -2.398571586608886719e+01
4.731000000000000000e+03 7.401588439941406250e+01 -6.380804538726806641e+00 3.168133354187011719e+01 6.540353298187255859e+00 1.146650600433349609e+01 -1.247691345214843750e+01
