# el_label, x, y, sXX, sYY, sZZ, sXY
1.000000000000000000e+00 6.781794738769531250e+01 -6.423776626586914062e+00 -5.794966697692871094e+00 -2.634553194046020508e+00 -2.528856039047241211e+00 -2.749148130416870117e+00
2.000000000000000000e+00 6.761999511718750000e+01 -6.444577217102050781e+00 -1.632321953773498535e+00 1.025468230247497559e+00 -1.820561289787292480e-01 7.329389452934265137e-01
3.000000000000000000e+00 6.742204284667968750e+01 -6.465377807617187500e+00 -2.942289590835571289e+00 -4.627945721149444580e-01 -1.021525263786315918e+00 -1.360350288450717926e-02
4.000000000000000000e+00 6.722409057617187500e+01 -6.486178874969482422e+00 -3.324684381484985352e+00 2.564957737922668457e-01 -9.204565882682800293e-01 1.657390147447586060e-01
5.000000000000000000e+00 6.782970428466796875e+01 -6.480985641479492188e+00 9.495918273925781250e+00 -2.435667514801025391e+00 2.118075132369995117e+00 2.017738819122314453e+00
6.000000000000000000e+00 6.763958740234375000e+01 -6.539925575256347656e+00 2.283295154571533203e+00 3.959436118602752686e-01 8.037716150283813477e-01 1.368792772293090820e+00
7.000000000000000000e+00 6.744947052001953125e+01 -6.598865985870361328e+00 2.039718151092529297e+00 8.096855878829956055e-01 8.548210859298706055e-01 2.149240970611572266e+00
8.000000000000000000e+00 6.725936126708984375e+01 -6.657806396484375000e+00 8.283777236938476562e-01 2.346837520599365234e-01 3.189184367656707764e-01 1.411788582801818848e+00
9.000000000000000000e+00 6.785237121582031250e+01 -6.534811496734619141e+00 1.451119327545166016e+01 2.719357490539550781e+00 5.169165134429931641e+00 9.075993537902832031e+00
1.000000000000000000e+01 6.767736816406250000e+01 -6.629635810852050781e+00 8.095377922058105469e+00 1.649785399436950684e+00 2.923549175262451172e+00 5.300823211669921875e+00
1.100000000000000000e+01 6.750236511230468750e+01 -6.724460124969482422e+00 4.896491527557373047e+00 2.110769033432006836e+00 2.102178096771240234e+00 4.170764446258544922e+00
1.200000000000000000e+01 6.732736206054687500e+01 -6.819283962249755859e+00 3.875166654586791992e+00 1.910117983818054199e+00 1.735585451126098633e+00 3.982965469360351562e+00
1.300000000000000000e+01 6.788508605957031250e+01 -6.583194732666015625e+00 1.598681259155273438e+01 9.817298889160156250e+00 7.741233348846435547e+00 1.444785690307617188e+01
1.400000000000000000e+01 6.773189544677734375e+01 -6.710274219512939453e+00 9.691836357116699219e+00 6.040019989013671875e+00 4.719556808471679688e+00 9.440352439880371094e+00
1.500000000000000000e+01 6.757869720458984375e+01 -6.837353706359863281e+00 7.213878631591796875e+00 4.998926639556884766e+00 3.663841724395751953e+00 7.417984008789062500e+00
1.600000000000000000e+01 6.742550659179687500e+01 -6.964433193206787109e+00 5.237761974334716797e+00 4.350272178649902344e+00 2.876410245895385742e+00 6.329557418823242188e+00
1.700000000000000000e+01 6.792658996582031250e+01 -6.624283313751220703e+00 1.398062515258789062e+01 1.849828529357910156e+01 9.743673324584960938e+00 1.769084548950195312e+01
1.800000000000000000e+01 6.780107116699218750e+01 -6.778755187988281250e+00 9.672910690307617188e+00 1.203086853027343750e+01 6.511133670806884766e+00 1.239115047454833984e+01
1.900000000000000000e+01 6.767554473876953125e+01 -6.933227062225341797e+00 7.047797203063964844e+00 9.500441551208496094e+00 4.964471817016601562e+00 9.940616607666015625e+00
2.000000000000000000e+01 6.755002593994140625e+01 -7.087699413299560547e+00 5.741972923278808594e+00 8.252230644226074219e+00 4.198260784149169922e+00 8.657759666442871094e+00
2.100000000000000000e+01 6.797530364990234375e+01 -6.656505107879638672e+00 1.116053581237792969e+01 2.745273208618164062e+01 1.158398056030273438e+01 1.822850608825683594e+01
2.200000000000000000e+01 6.788225555419921875e+01 -6.832458019256591797e+00 7.796856403350830078e+00 1.874967193603515625e+01 7.963958740234375000e+00 1.350383186340332031e+01
2.300000000000000000e+01 6.778920745849609375e+01 -7.008411407470703125e+00 6.108566761016845703e+00 1.499319839477539062e+01 6.330529689788818359e+00 1.124341106414794922e+01
2.400000000000000000e+01 6.769615936279296875e+01 -7.184364795684814453e+00 4.711002826690673828e+00 1.278202629089355469e+01 5.247908592224121094e+00 9.734580993652343750e+00
2.500000000000000000e+01 6.802935791015625000e+01 -6.678627014160156250e+00 7.991677284240722656e+00 3.556570434570312500e+01 1.306721401214599609e+01 1.610408210754394531e+01
2.600000000000000000e+01 6.797234344482421875e+01 -6.869328498840332031e+00 5.925960063934326172e+00 2.524542236328125000e+01 9.351414680480957031e+00 1.279071044921875000e+01
2.700000000000000000e+01 6.791533660888671875e+01 -7.060029506683349609e+00 4.351706981658935547e+00 2.052661132812500000e+01 7.463495254516601562e+00 1.082944774627685547e+01
2.800000000000000000e+01 6.785831451416015625e+01 -7.250730991363525391e+00 3.379785060882568359e+00 1.773653602600097656e+01 6.334896564483642578e+00 9.591147422790527344e+00
2.900000000000000000e+01 6.808668518066406250e+01 -6.689802646636962891e+00 6.181889057159423828e+00 4.183350753784179688e+01 1.440461921691894531e+01 1.209026145935058594e+01
3.000000000000000000e+01 6.806788635253906250e+01 -6.887954235076904297e+00 4.325462818145751953e+00 3.070176887512207031e+01 1.050816917419433594e+01 1.030891513824462891e+01
3.100000000000000000e+01 6.804909515380859375e+01 -7.086106300354003906e+00 3.014284372329711914e+00 2.541893768310546875e+01 8.529966354370117188e+00 9.076916694641113281e+00
3.200000000000000000e+01 6.803029632568359375e+01 -7.284257888793945312e+00 2.142707586288452148e+00 2.218239593505859375e+01 7.297531127929687500e+00 8.104063987731933594e+00
3.300000000000000000e+01 6.814508819580078125e+01 -6.689604282379150391e+00 6.072962760925292969e+00 4.565062332153320312e+01 1.551707649230957031e+01 6.916399478912353516e+00
3.400000000000000000e+01 6.816522216796875000e+01 -6.887623786926269531e+00 3.868725299835205078e+00 3.461931228637695312e+01 1.154641151428222656e+01 6.835966587066650391e+00
3.500000000000000000e+01 6.818536376953125000e+01 -7.085643291473388672e+00 2.471414089202880859e+00 2.900386810302734375e+01 9.442584991455078125e+00 6.168202400207519531e+00
3.600000000000000000e+01 6.820551300048828125e+01 -7.283662319183349609e+00 1.658965110778808594e+00 2.549308013916015625e+01 8.145613670349121094e+00 5.725954532623291016e+00
3.700000000000000000e+01 6.820233154296875000e+01 -6.678039550781250000e+00 7.933248996734619141e+00 4.702063369750976562e+01 1.648616409301757812e+01 1.834122419357299805e+00
3.800000000000000000e+01 6.826063537597656250e+01 -6.868349075317382812e+00 4.742693901062011719e+00 3.662468719482421875e+01 1.241021442413330078e+01 2.866266489028930664e+00
3.900000000000000000e+01 6.831894683837890625e+01 -7.058658599853515625e+00 3.110283613204956055e+00 3.107325363159179688e+01 1.025506114959716797e+01 2.890964031219482422e+00
4.000000000000000000e+01 6.837725067138671875e+01 -7.248968124389648438e+00 2.141420125961303711e+00 2.736519622802734375e+01 8.851984977722167969e+00 2.712592840194702148e+00
4.100000000000000000e+01 6.825623321533203125e+01 -6.655550956726074219e+00 1.133473205566406250e+01 4.619877243041992188e+01 1.726005172729492188e+01 -2.410873651504516602e+00
4.200000000000000000e+01 6.835047149658203125e+01 -6.830868244171142578e+00 6.983035564422607422e+00 3.691500473022460938e+01 1.316941165924072266e+01 -7.120339274406433105e-01
4.300000000000000000e+01 6.844471740722656250e+01 -7.006185054779052734e+00 4.910533905029296875e+00 3.146022605895996094e+01 1.091122817993164062e+01 -2.992423772811889648e-01
4.400000000000000000e+01 6.853895568847656250e+01 -7.181502342224121094e+00 3.635257005691528320e+00 2.797590255737304688e+01 9.483347892761230469e+00 -9.882438182830810547e-02
4.500000000000000000e+01 6.830472564697265625e+01 -6.622999191284179688e+00 1.564468574523925781e+01 4.406165313720703125e+01 1.791190147399902344e+01 -5.098852157592773438e+00
4.600000000000000000e+01 6.843129730224609375e+01 -6.776615142822265625e+00 1.024034786224365234e+01 3.565015029907226562e+01 1.376714992523193359e+01 -3.430523633956909180e+00
4.700000000000000000e+01 6.855786132812500000e+01 -6.930230617523193359e+00 7.636105060577392578e+00 3.065284156799316406e+01 1.148668384552001953e+01 -2.701386213302612305e+00
4.800000000000000000e+01 6.868443298339843750e+01 -7.083846569061279297e+00 6.017081260681152344e+00 2.719377899169921875e+01 9.963257789611816406e+00 -2.305475711822509766e+00
4.900000000000000000e+01 6.834595489501953125e+01 -6.581629753112792969e+00 2.014763069152832031e+01 4.122470855712890625e+01 1.841170120239257812e+01 -6.106629848480224609e+00
5.000000000000000000e+01 6.850000762939453125e+01 -6.707665443420410156e+00 1.391524887084960938e+01 3.358214569091796875e+01 1.424921798706054688e+01 -4.824720859527587891e+00
5.100000000000000000e+01 6.865406036376953125e+01 -6.833701610565185547e+00 1.089614200592041016e+01 2.888713836669921875e+01 1.193498420715332031e+01 -3.990852832794189453e+00
5.200000000000000000e+01 6.880811309814453125e+01 -6.959737777709960938e+00 8.854783058166503906e+00 2.576880073547363281e+01 1.038707542419433594e+01 -3.557102203369140625e+00
5.300000000000000000e+01 6.837833404541015625e+01 -6.533025264739990234e+00 2.404276847839355469e+01 3.852398300170898438e+01 1.877002525329589844e+01 -5.579737186431884766e+00
5.400000000000000000e+01 6.855397796630859375e+01 -6.626658916473388672e+00 1.747687530517578125e+01 3.123665618896484375e+01 1.461405944824218750e+01 -4.745930194854736328e+00
5.500000000000000000e+01 6.872962188720703125e+01 -6.720292091369628906e+00 1.399006462097167969e+01 2.687846565246582031e+01 1.226055908203125000e+01 -4.087523460388183594e+00
5.600000000000000000e+01 6.890526580810546875e+01 -6.813925266265869141e+00 1.173306655883789062e+01 2.409297943115234375e+01 1.074781322479248047e+01 -3.600199937820434570e+00
5.700000000000000000e+01 6.840064239501953125e+01 -6.479046821594238281e+00 2.691578102111816406e+01 3.645841979980468750e+01 1.901226043701171875e+01 -3.828340768814086914e+00
5.800000000000000000e+01 6.859114837646484375e+01 -6.536694049835205078e+00 2.023262214660644531e+01 2.926408004760742188e+01 1.484901046752929688e+01 -3.434746742248535156e+00
5.900000000000000000e+01 6.878166198730468750e+01 -6.594341754913330078e+00 1.643138122558593750e+01 2.519298171997070312e+01 1.248730850219726562e+01 -2.995392084121704102e+00
6.000000000000000000e+01 6.897216796875000000e+01 -6.651989459991455078e+00 1.395801353454589844e+01 2.253560256958007812e+01 1.094808483123779297e+01 -2.642567396163940430e+00
6.100000000000000000e+01 6.841200256347656250e+01 -6.421758651733398438e+00 2.841222381591796875e+01 3.536549758911132812e+01 1.913331604003906250e+01 -1.361379265785217285e+00
6.200000000000000000e+01 6.861009216308593750e+01 -6.441214561462402344e+00 2.174836540222167969e+01 2.813258552551269531e+01 1.496428489685058594e+01 -1.238938093185424805e+00
6.300000000000000000e+01 6.880818176269531250e+01 -6.460670471191406250e+00 1.775940704345703125e+01 2.426134872436523438e+01 1.260622692108154297e+01 -1.108863115310668945e+00
6.400000000000000000e+01 6.900627136230468750e+01 -6.480125904083251953e+00 1.514654159545898438e+01 2.155434799194335938e+01 1.101026630401611328e+01 -9.629479646682739258e-01
6.500000000000000000e+01 6.841200256347656250e+01 -6.363354682922363281e+00 2.841068077087402344e+01 3.535361099243164062e+01 1.912928771972656250e+01 1.376560568809509277e+00
6.600000000000000000e+01 6.861009216308593750e+01 -6.343873500823974609e+00 2.174542236328125000e+01 2.814786148071289062e+01 1.496798515319824219e+01 1.236818909645080566e+00
6.700000000000000000e+01 6.880817413330078125e+01 -6.324393272399902344e+00 1.775749778747558594e+01 2.424833869934082031e+01 1.260175132751464844e+01 1.102227330207824707e+00
6.800000000000000000e+01 6.900625610351562500e+01 -6.304912567138671875e+00 1.514486885070800781e+01 2.158279991149902344e+01 1.101830101013183594e+01 9.303072690963745117e-01
6.900000000000000000e+01 6.840062713623046875e+01 -6.306067943572998047e+00 2.691768455505371094e+01 3.645146560668945312e+01 1.901074600219726562e+01 3.836088657379150391e+00
7.000000000000000000e+01 6.859113311767578125e+01 -6.248396396636962891e+00 2.022674369812011719e+01 2.927394485473632812e+01 1.485020637512207031e+01 3.445250272750854492e+00
7.100000000000000000e+01 6.878163146972656250e+01 -6.190724849700927734e+00 1.642470550537109375e+01 2.520172119140625000e+01 1.248792839050292969e+01 2.980199337005615234e+00
7.200000000000000000e+01 6.897213745117187500e+01 -6.133053779602050781e+00 1.393141746520996094e+01 2.255430412292480469e+01 1.094571685791015625e+01 2.630070447921752930e+00
7.300000000000000000e+01 6.837831878662109375e+01 -6.252091884613037109e+00 2.404557609558105469e+01 3.854106521606445312e+01 1.877599334716796875e+01 5.590843677520751953e+00
7.400000000000000000e+01 6.855394744873046875e+01 -6.158436775207519531e+00 1.747031211853027344e+01 3.122303199768066406e+01 1.460800361633300781e+01 4.761223316192626953e+00
7.500000000000000000e+01 6.872958374023437500e+01 -6.064781665802001953e+00 1.397411918640136719e+01 2.692344665527343750e+01 1.226926994323730469e+01 4.082154273986816406e+00
7.600000000000000000e+01 6.890521240234375000e+01 -5.971126079559326172e+00 1.171102714538574219e+01 2.409197235107421875e+01 1.074090003967285156e+01 3.597232341766357422e+00
7.700000000000000000e+01 6.834593200683593750e+01 -6.203492164611816406e+00 2.012860107421875000e+01 4.120757675170898438e+01 1.840085411071777344e+01 6.136282444000244141e+00
7.800000000000000000e+01 6.849996948242187500e+01 -6.077436447143554688e+00 1.391990947723388672e+01 3.360459518432617188e+01 1.425735092163085938e+01 4.822065353393554688e+00
7.900000000000000000e+01 6.865399932861328125e+01 -5.951381206512451172e+00 1.087377834320068359e+01 2.888916969299316406e+01 1.192888450622558594e+01 4.022521018981933594e+00
8.000000000000000000e+01 6.880803680419921875e+01 -5.825325965881347656e+00 8.858544349670410156e+00 2.583764839172363281e+01 1.040885829925537109e+01 3.544131517410278320e+00
8.100000000000000000e+01 6.830470275878906250e+01 -6.162127494812011719e+00 1.565971469879150391e+01 4.404891967773437500e+01 1.791259002685546875e+01 5.113973140716552734e+00
8.200000000000000000e+01 6.843125152587890625e+01 -6.008495807647705078e+00 1.021330928802490234e+01 3.566560745239257812e+01 1.376367473602294922e+01 3.460232496261596680e+00
8.300000000000000000e+01 6.855779266357421875e+01 -5.854864120483398438e+00 7.645754814147949219e+00 3.066625595092773438e+01 1.149360275268554688e+01 2.703352689743041992e+00
8.400000000000000000e+01 6.868434906005859375e+01 -5.701232910156250000e+00 5.993824005126953125e+00 2.722229385375976562e+01 9.964835166931152344e+00 2.337912559509277344e+00
8.500000000000000000e+01 6.825620269775390625e+01 -6.129581928253173828e+00 1.132554626464843750e+01 4.622122192382812500e+01 1.726403045654296875e+01 2.415107011795043945e+00
8.600000000000000000e+01 6.835041809082031250e+01 -5.954253196716308594e+00 6.980284690856933594e+00 3.688679885864257812e+01 1.316012477874755859e+01 7.497206330299377441e-01
8.700000000000000000e+01 6.844464111328125000e+01 -5.778923988342285156e+00 4.891185760498046875e+00 3.151032829284667969e+01 1.092045402526855469e+01 3.171346485614776611e-01
8.800000000000000000e+01 6.853885650634765625e+01 -5.603595256805419922e+00 3.639340162277221680e+00 2.797780990600585938e+01 9.485145568847656250e+00 1.092166677117347717e-01
8.900000000000000000e+01 6.820230102539062500e+01 -6.107100009918212891e+00 7.892859458923339844e+00 4.700321960449218750e+01 1.646882438659667969e+01 -1.798414587974548340e+00
9.000000000000000000e+01 6.826057434082031250e+01 -5.916783332824707031e+00 4.767936229705810547e+00 3.663101959228515625e+01 1.241968727111816406e+01 -2.870218515396118164e+00
9.100000000000000000e+01 6.831886291503906250e+01 -5.726466178894042969e+00 3.077792167663574219e+00 3.104164695739746094e+01 1.023583221435546875e+01 -2.823087692260742188e+00
9.200000000000000000e+01 6.837714385986328125e+01 -5.536149501800537109e+00 2.148424625396728516e+00 2.746048736572265625e+01 8.882673263549804688e+00 -2.698675632476806641e+00
9.300000000000000000e+01 6.814505004882812500e+01 -6.095542430877685547e+00 6.078315258026123047e+00 4.565051651000976562e+01 1.551865005493164062e+01 -6.902860641479492188e+00
9.400000000000000000e+01 6.816516113281250000e+01 -5.897520542144775391e+00 3.838464498519897461e+00 3.461577987670898438e+01 1.153627300262451172e+01 -6.814220905303955078e+00
9.500000000000000000e+01 6.818527984619140625e+01 -5.699498653411865234e+00 2.512246370315551758e+00 2.896947479248046875e+01 9.444516181945800781e+00 -6.158097743988037109e+00
9.600000000000000000e+01 6.820539855957031250e+01 -5.501476764678955078e+00 1.612310647964477539e+00 2.541075325012207031e+01 8.106919288635253906e+00 -5.640261173248291016e+00
9.700000000000000000e+01 6.808664703369140625e+01 -6.095351219177246094e+00 6.184089183807373047e+00 4.183835601806640625e+01 1.440673351287841797e+01 -1.208379650115966797e+01
9.800000000000000000e+01 6.806782531738281250e+01 -5.897202491760253906e+00 4.299901962280273438e+00 3.068451881408691406e+01 1.049532604217529297e+01 -1.029331016540527344e+01
9.900000000000000000e+01 6.804900360107421875e+01 -5.699053287506103516e+00 3.033494949340820312e+00 2.540795326232910156e+01 8.532434463500976562e+00 -9.077353477478027344e+00
1.000000000000000000e+02 6.803018188476562500e+01 -5.500903606414794922e+00 2.141445159912109375e+00 2.204677009582519531e+01 7.256464481353759766e+00 -8.136013984680175781e+00
1.010000000000000000e+02 6.802931976318359375e+01 -6.106534481048583984e+00 7.933856010437011719e+00 3.555533599853515625e+01 1.304675674438476562e+01 -1.610830497741699219e+01
1.020000000000000000e+02 6.797228240966796875e+01 -5.915840625762939453e+00 5.961120128631591797e+00 2.524348640441894531e+01 9.361381530761718750e+00 -1.277602481842041016e+01
1.030000000000000000e+02 6.791524505615234375e+01 -5.725146293640136719e+00 4.296845912933349609e+00 2.048631095886230469e+01 7.434947013854980469e+00 -1.084301376342773438e+01
1.040000000000000000e+02 6.785820770263671875e+01 -5.534452438354492188e+00 3.392276048660278320e+00 1.782746315002441406e+01 6.365921974182128906e+00 -9.639003753662109375e+00
1.050000000000000000e+02 6.797527313232421875e+01 -6.128663063049316406e+00 1.113157272338867188e+01 2.746932792663574219e+01 1.158027076721191406e+01 -1.821629714965820312e+01
1.060000000000000000e+02 6.788220214843750000e+01 -5.952721595764160156e+00 7.789020538330078125e+00 1.872937393188476562e+01 7.955518245697021484e+00 -1.352127170562744141e+01
1.070000000000000000e+02 6.778913116455078125e+01 -5.776780605316162109e+00 6.108335018157958984e+00 1.501386356353759766e+01 6.336659908294677734e+00 -1.124585247039794922e+01
1.080000000000000000e+02 6.769606018066406250e+01 -5.600838661193847656e+00 4.639553070068359375e+00 1.276341342926025391e+01 5.220890045166015625e+00 -9.705844879150390625e+00
1.090000000000000000e+02 6.792656707763671875e+01 -6.160891056060791016e+00 1.397512435913085938e+01 1.851648521423339844e+01 9.747482299804687500e+00 -1.767307472229003906e+01
1.100000000000000000e+02 6.780102539062500000e+01 -6.006434917449951172e+00 9.626070022583007812e+00 1.202633285522460938e+01 6.495720863342285156e+00 -1.243244552612304688e+01
1.110000000000000000e+02 6.767548370361328125e+01 -5.851978778839111328e+00 7.089976787567138672e+00 9.523262023925781250e+00 4.983972072601318359e+00 -9.925044059753417969e+00
1.120000000000000000e+02 6.754994201660156250e+01 -5.697522640228271484e+00 5.715762615203857422e+00 8.211900711059570312e+00 4.178298950195312500e+00 -8.698786735534667969e+00
1.130000000000000000e+02 6.788506317138671875e+01 -6.201984882354736328e+00 1.595296478271484375e+01 9.780759811401367188e+00 7.720117092132568359e+00 -1.446604824066162109e+01
1.140000000000000000e+02 6.773184967041015625e+01 -6.074924945831298828e+00 9.658625602722167969e+00 6.097410202026367188e+00 4.726810455322265625e+00 -9.429855346679687500e+00
1.150000000000000000e+02 6.757864379882812500e+01 -5.947864532470703125e+00 7.205893993377685547e+00 4.956882476806640625e+00 3.648833036422729492e+00 -7.477890968322753906e+00
1.160000000000000000e+02 6.742543029785156250e+01 -5.820804119110107422e+00 5.292016506195068359e+00 4.576508045196533203e+00 2.960557460784912109e+00 -6.352479934692382812e+00
1.170000000000000000e+02 6.785235595703125000e+01 -6.250371932983398438e+00 1.445103836059570312e+01 2.737303018569946289e+00 5.156502246856689453e+00 -9.103863716125488281e+00
1.180000000000000000e+02 6.767733764648437500e+01 -6.155570030212402344e+00 8.090920448303222656e+00 1.639141201972961426e+00 2.919018268585205078e+00 -5.281612396240234375e+00
1.190000000000000000e+02 6.750232696533203125e+01 -6.060767650604248047e+00 4.811353683471679688e+00 2.187280893325805664e+00 2.099590301513671875e+00 -4.222991466522216797e+00
1.200000000000000000e+02 6.732730865478515625e+01 -5.965965747833251953e+00 3.853358507156372070e+00 2.024505376815795898e+00 1.763359069824218750e+00 -3.930223703384399414e+00
1.210000000000000000e+02 6.782969665527343750e+01 -6.304200649261474609e+00 9.446857452392578125e+00 -2.415625810623168945e+00 2.109369516372680664e+00 -2.018722772598266602e+00
1.220000000000000000e+02 6.763957214355468750e+01 -6.245284557342529297e+00 2.262421846389770508e+00 3.645149767398834229e-01 7.880809903144836426e-01 -1.393465161323547363e+00
1.230000000000000000e+02 6.744944763183593750e+01 -6.186368465423583984e+00 1.980801463127136230e+00 9.265713095664978027e-01 8.722118735313415527e-01 -2.095966339111328125e+00
1.240000000000000000e+02 6.725933074951171875e+01 -6.127452373504638672e+00 6.842079758644104004e-01 1.312498301267623901e-01 2.446373403072357178e-01 -1.352416872978210449e+00
1.250000000000000000e+02 6.781794738769531250e+01 -6.361411571502685547e+00 -5.833974838256835938e+00 -2.638750314712524414e+00 -2.541817665100097656e+00 2.753695011138916016e+00
1.260000000000000000e+02 6.761998748779296875e+01 -6.340635776519775391e+00 -1.708725929260253906e+00 1.021969199180603027e+00 -2.060270011425018311e-01 -7.445747852325439453e-01
1.270000000000000000e+02 6.742203521728515625e+01 -6.319859981536865234e+00 -2.954693794250488281e+00 -4.271180629730224609e-01 -1.014543533325195312e+00 6.209389120340347290e-02
1.280000000000000000e+02 6.722408294677734375e+01 -6.299084186553955078e+00 -3.261156797409057617e+00 2.020196020603179932e-01 -9.177411794662475586e-01 -1.499378383159637451e-01
1.290000000000000000e+02 2.196186065673828125e+01 -6.700578212738037109e+00 -2.061882615089416504e-01 2.987343817949295044e-03 -6.096027418971061707e-02 -2.300498541444540024e-03
1.300000000000000000e+02 2.033289909362792969e+01 -7.179516792297363281e+00 -1.470864564180374146e-01 9.275734424591064453e-03 -4.134321585297584534e-02 -4.607947543263435364e-02
1.310000000000000000e+02 2.261169624328613281e+01 -7.556783676147460938e+00 -3.274496197700500488e-01 8.757537230849266052e-03 -9.560763090848922729e-02 -7.213552296161651611e-02
1.320000000000000000e+02 2.185197448730468750e+01 -7.432458400726318359e+00 -2.599337697029113770e-01 1.013809721916913986e-02 -7.493869960308074951e-02 -6.471712142229080200e-02
1.330000000000000000e+02 2.270871162414550781e+01 -6.822772979736328125e+00 -2.917824089527130127e-01 -5.608026403933763504e-04 -8.770295977592468262e-02 -8.954724180512130260e-04
1.340000000000000000e+02 2.121509361267089844e+01 -6.576943874359130859e+00 -1.396078318357467651e-01 3.991172648966312408e-03 -4.068499803543090820e-02 -7.514564786106348038e-03
1.350000000000000000e+02 2.046852302551269531e+01 -6.451897144317626953e+00 -8.254577964544296265e-02 5.526216700673103333e-03 -2.310586906969547272e-02 -1.336332876235246658e-02
1.360000000000000000e+02 2.109233665466308594e+01 -7.306693553924560547e+00 -1.942235082387924194e-01 1.094636041671037674e-02 -5.498314276337623596e-02 -5.493025854229927063e-02
1.370000000000000000e+02 2.421343040466308594e+01 -6.977969646453857422e+00 -4.476637542247772217e-01 1.837680465541779995e-03 -1.337478309869766235e-01 -1.966872252523899078e-03
1.380000000000000000e+02 2.414235687255859375e+01 -7.714632511138916016e+00 -4.662209451198577881e-01 6.848407443612813950e-03 -1.378117650747299194e-01 -7.014942169189453125e-02
1.390000000000000000e+02 2.337517356872558594e+01 -7.650850772857666016e+00 -3.945987820625305176e-01 6.778512615710496902e-03 -1.163460835814476013e-01 -7.076068967580795288e-02
1.400000000000000000e+02 2.490980529785156250e+01 -7.777047634124755859e+00 -5.385635495185852051e-01 4.879517946392297745e-03 -1.601052135229110718e-01 -7.660664618015289307e-02
1.410000000000000000e+02 2.496787261962890625e+01 -7.039327144622802734e+00 -5.283195376396179199e-01 1.207994180731475353e-03 -1.581334620714187622e-01 9.538573794998228550e-04
1.420000000000000000e+02 2.567740631103515625e+01 -7.838097095489501953e+00 -6.049901843070983887e-01 -2.720896154642105103e-03 -1.823133081197738647e-01 -8.194150775671005249e-02
1.430000000000000000e+02 2.572246742248535156e+01 -7.099318504333496094e+00 -6.239480972290039062e-01 -3.896765876561403275e-03 -1.883534640073776245e-01 -2.205205149948596954e-03
1.440000000000000000e+02 2.345925331115722656e+01 -6.915245532989501953e+00 -3.754714727401733398e-01 -9.055588743649423122e-04 -1.129131093621253967e-01 -2.811730839312076569e-03
1.450000000000000000e+02 2.796761512756347656e+01 -7.914083957672119141e+00 -8.153035044670104980e-01 -4.103559069335460663e-03 -2.458221167325973511e-01 -9.194695204496383667e-02
1.460000000000000000e+02 2.720497512817382812e+01 -7.896495819091796875e+00 -7.476273179054260254e-01 -3.535334253683686256e-03 -2.253487855195999146e-01 -8.304277807474136353e-02
1.470000000000000000e+02 2.644245719909667969e+01 -7.877746582031250000e+00 -6.738405823707580566e-01 -6.042545195668935776e-03 -2.039649337530136108e-01 -8.086532354354858398e-02
1.480000000000000000e+02 2.873032188415527344e+01 -7.930514812469482422e+00 -8.782811760902404785e-01 -9.925484657287597656e-03 -2.664619982242584229e-01 -9.798946231603622437e-02
1.490000000000000000e+02 2.798519706726074219e+01 -7.174292564392089844e+00 -8.435144424438476562e-01 -4.049618437420576811e-04 -2.531758248805999756e-01 -1.880360767245292664e-02
1.500000000000000000e+02 2.723094940185546875e+01 -7.156898498535156250e+00 -7.697680592536926270e-01 -2.808607532642781734e-04 -2.310146689414978027e-01 -1.726824976503849030e-02
1.510000000000000000e+02 2.873951339721679688e+01 -7.190530300140380859e+00 -9.288724064826965332e-01 -4.718721378594636917e-03 -2.800773382186889648e-01 -2.505936287343502045e-02
1.520000000000000000e+02 2.647681999206542969e+01 -7.138342857360839844e+00 -7.061998248100280762e-01 -4.871799610555171967e-03 -2.133214771747589111e-01 -1.159326545894145966e-02
1.530000000000000000e+02 2.949276733398437500e+01 -7.195246696472167969e+00 -1.002396345138549805e+00 -5.640850868076086044e-03 -3.024111688137054443e-01 -3.579559177160263062e-02
1.540000000000000000e+02 2.948995018005371094e+01 -7.935307502746582031e+00 -9.436599016189575195e-01 -1.129978243261575699e-02 -2.864879071712493896e-01 -9.927990287542343140e-02
1.550000000000000000e+02 3.024649810791015625e+01 -7.928795814514160156e+00 -1.012703895568847656e+00 -8.604875765740871429e-03 -3.063926398754119873e-01 -1.040152832865715027e-01
1.560000000000000000e+02 3.099722290039062500e+01 -7.181584835052490234e+00 -1.129365205764770508e+00 -2.144334837794303894e-03 -3.394528627395629883e-01 -4.588570073246955872e-02
1.570000000000000000e+02 3.175983238220214844e+01 -7.913609027862548828e+00 -1.137427091598510742e+00 -1.138989906758069992e-02 -3.446451127529144287e-01 -1.181321591138839722e-01
1.580000000000000000e+02 3.174956512451171875e+01 -7.173673152923583984e+00 -1.204859256744384766e+00 -4.484107252210378647e-03 -3.628030121326446533e-01 -5.159677565097808838e-02
1.590000000000000000e+02 3.024495315551757812e+01 -7.188776493072509766e+00 -1.061452627182006836e+00 -1.914030173793435097e-03 -3.190099895000457764e-01 -4.265306517481803894e-02
1.600000000000000000e+02 3.100312805175781250e+01 -7.921562194824218750e+00 -1.075984120368957520e+00 -8.077417500317096710e-03 -3.252184689044952393e-01 -1.123876273632049561e-01
1.610000000000000000e+02 3.325168609619140625e+01 -7.142140388488769531e+00 -1.335942029953002930e+00 -3.028520615771412849e-03 -4.016911685466766357e-01 -6.497488170862197876e-02
1.620000000000000000e+02 3.401905441284179688e+01 -7.863194465637207031e+00 -1.329751968383789062e+00 -8.951695635914802551e-03 -4.016111195087432861e-01 -1.321512311697006226e-01
1.630000000000000000e+02 3.251437759399414062e+01 -7.900443077087402344e+00 -1.200888276100158691e+00 -1.148353982716798782e-02 -3.637115359306335449e-01 -1.211152672767639160e-01
1.640000000000000000e+02 3.477159881591796875e+01 -7.845397949218750000e+00 -1.392496466636657715e+00 -1.013079471886157990e-02 -4.207881987094879150e-01 -1.365751624107360840e-01
1.650000000000000000e+02 3.475299453735351562e+01 -7.105631351470947266e+00 -1.474598884582519531e+00 -4.331823438405990601e-03 -4.436792135238647461e-01 -7.220993191003799438e-02
1.660000000000000000e+02 3.400221252441406250e+01 -7.123385429382324219e+00 -1.403310894966125488e+00 -3.217168617993593216e-03 -4.219583868980407715e-01 -6.803112477064132690e-02
1.670000000000000000e+02 3.250104904174804688e+01 -7.160549640655517578e+00 -1.274137616157531738e+00 -5.317722447216510773e-03 -3.838365972042083740e-01 -5.954239144921302795e-02
1.680000000000000000e+02 3.326676940917968750e+01 -7.881991863250732422e+00 -1.266787767410278320e+00 -9.824369102716445923e-03 -3.829836249351501465e-01 -1.257969737052917480e-01
1.690000000000000000e+02 3.550323104858398438e+01 -7.085636138916015625e+00 -1.544113278388977051e+00 -4.340985324233770370e-03 -4.645363092422485352e-01 -7.696694135665893555e-02
1.700000000000000000e+02 3.627172470092773438e+01 -7.801253795623779297e+00 -1.522426009178161621e+00 -8.753233589231967926e-03 -4.593537747859954834e-01 -1.429780572652816772e-01
1.710000000000000000e+02 3.552280426025390625e+01 -7.825378894805908203e+00 -1.456377267837524414e+00 -9.772584773600101471e-03 -4.398449659347534180e-01 -1.397174894809722900e-01
1.720000000000000000e+02 3.700176620483398438e+01 -7.040159225463867188e+00 -1.680585622787475586e+00 -3.659444162622094154e-03 -5.052735209465026855e-01 -8.249387890100479126e-02
1.730000000000000000e+02 3.775260925292968750e+01 -7.021411418914794922e+00 -1.749433755874633789e+00 -3.096347209066152573e-03 -5.257590413093566895e-01 -8.446724712848663330e-02
1.740000000000000000e+02 3.777272796630859375e+01 -7.761138439178466797e+00 -1.652979016304016113e+00 -6.765249185264110565e-03 -4.979232549667358398e-01 -1.494685709476470947e-01
1.750000000000000000e+02 3.702170562744140625e+01 -7.779891967773437500e+00 -1.586665987968444824e+00 -7.618422619998455048e-03 -4.782853126525878906e-01 -1.464986503124237061e-01
1.760000000000000000e+02 3.625196838378906250e+01 -7.061516284942626953e+00 -1.611217856407165527e+00 -3.313282970339059830e-03 -4.843593239784240723e-01 -8.016416430473327637e-02
1.770000000000000000e+02 3.925203704833984375e+01 -6.983466625213623047e+00 -1.896597981452941895e+00 -3.262103768065571785e-03 -5.699580311775207520e-01 -8.710478246212005615e-02
1.780000000000000000e+02 3.850259399414062500e+01 -7.002532482147216797e+00 -1.821653008460998535e+00 -2.767765428870916367e-03 -5.473262071609497070e-01 -8.564884960651397705e-02
1.790000000000000000e+02 3.852244567871093750e+01 -7.742266178131103516e+00 -1.719012856483459473e+00 -6.398052442818880081e-03 -5.176233053207397461e-01 -1.525747925043106079e-01
1.800000000000000000e+02 4.076818847656250000e+01 -7.683057308197021484e+00 -1.924651145935058594e+00 -3.641748568043112755e-03 -5.784878730773925781e-01 -1.567187756299972534e-01
1.810000000000000000e+02 4.001962661743164062e+01 -7.703031063079833984e+00 -1.853569269180297852e+00 -5.842682905495166779e-03 -5.578235983848571777e-01 -1.553958058357238770e-01
1.820000000000000000e+02 4.075049972534179688e+01 -6.943266868591308594e+00 -2.042486667633056641e+00 -1.606119330972433090e-03 -6.132278442382812500e-01 -8.866127580404281616e-02
1.830000000000000000e+02 3.927116775512695312e+01 -7.723219394683837891e+00 -1.785549163818359375e+00 -6.533119827508926392e-03 -5.376246571540832520e-01 -1.546619385480880737e-01
1.840000000000000000e+02 4.000121688842773438e+01 -6.963259696960449219e+00 -1.970708489418029785e+00 -2.997323637828230858e-03 -5.921117663383483887e-01 -8.873202651739120483e-02
1.850000000000000000e+02 4.226616287231445312e+01 -7.653321743011474609e+00 -2.064243078231811523e+00 -4.283219575881958008e-03 -6.205579042434692383e-01 -1.612353920936584473e-01
1.860000000000000000e+02 4.225036239624023438e+01 -6.913490295410156250e+00 -2.203075885772705078e+00 -3.206799970939755440e-03 -6.618847846984863281e-01 -8.759552985429763794e-02
1.870000000000000000e+02 4.151683807373046875e+01 -7.666196823120117188e+00 -1.995141983032226562e+00 -3.805051557719707489e-03 -5.996841192245483398e-01 -1.599844098091125488e-01
1.880000000000000000e+02 4.299967193603515625e+01 -6.897992610931396484e+00 -2.283568620681762695e+00 -1.849230146035552025e-03 -6.856253147125244141e-01 -8.891981840133666992e-02
1.890000000000000000e+02 4.301445007324218750e+01 -7.637845039367675781e+00 -2.136571884155273438e+00 -4.395445343106985092e-03 -6.422902345657348633e-01 -1.604787856340408325e-01
1.900000000000000000e+02 4.376168441772460938e+01 -7.619610786437988281e+00 -2.213219642639160156e+00 -9.523659828118979931e-04 -6.642515659332275391e-01 -1.606219708919525146e-01
1.910000000000000000e+02 4.374792480468750000e+01 -6.879736900329589844e+00 -2.361264467239379883e+00 -6.196747417561709881e-04 -7.085652947425842285e-01 -8.761791884899139404e-02
1.920000000000000000e+02 4.150001907348632812e+01 -6.926386356353759766e+00 -2.119907379150390625e+00 -1.053927699103951454e-03 -6.362884044647216797e-01 -8.711023628711700439e-02
1.930000000000000000e+02 4.524763870239257812e+01 -6.857576370239257812e+00 -2.536246776580810547e+00 -2.750825835391879082e-03 -7.616993188858032227e-01 -8.397992700338363647e-02
1.940000000000000000e+02 4.600764846801757812e+01 -7.586318016052246094e+00 -2.437494039535522461e+00 -2.452838234603404999e-03 -7.319840788841247559e-01 -1.612363010644912720e-01
1.950000000000000000e+02 4.450997543334960938e+01 -7.606111049652099609e+00 -2.288296222686767578e+00 -1.609735307283699512e-03 -6.869717836380004883e-01 -1.633952558040618896e-01
1.960000000000000000e+02 4.675494384765625000e+01 -7.572458744049072266e+00 -2.518244743347167969e+00 1.618597423657774925e-03 -7.549878358840942383e-01 -1.604333519935607910e-01
1.970000000000000000e+02 4.525932312011718750e+01 -7.597484111785888672e+00 -2.361214876174926758e+00 -1.813919981941580772e-03 -7.089086174964904785e-01 -1.636892110109329224e-01
1.980000000000000000e+02 4.674534988403320312e+01 -6.832519531250000000e+00 -2.706952810287475586e+00 2.538040862418711185e-04 -8.120096921920776367e-01 -8.256170898675918579e-02
1.990000000000000000e+02 4.449724578857421875e+01 -6.866219043731689453e+00 -2.445462942123413086e+00 5.351668223738670349e-04 -7.334783077239990234e-01 -8.448950201272964478e-02
2.000000000000000000e+02 4.599700927734375000e+01 -6.846394062042236328e+00 -2.623413562774658203e+00 -6.823304574936628342e-04 -7.872288227081298828e-01 -8.480383455753326416e-02
2.010000000000000000e+02 4.824522781372070312e+01 -6.818868637084960938e+00 -2.894103765487670898e+00 -2.097030868753790855e-03 -8.688602447509765625e-01 -7.718628644943237305e-02
2.020000000000000000e+02 4.825285720825195312e+01 -7.558829784393310547e+00 -2.671448469161987305e+00 3.040386582142673433e-05 -8.014253973960876465e-01 -1.618688106536865234e-01
2.030000000000000000e+02 4.750334548950195312e+01 -7.563237667083740234e+00 -2.596487045288085938e+00 5.473098717629909515e-04 -7.787818908691406250e-01 -1.621319353580474854e-01
2.040000000000000000e+02 4.899468994140625000e+01 -6.811831474304199219e+00 -2.987137079238891602e+00 -1.225423911819234490e-04 -8.961778879165649414e-01 -7.783105224370956421e-02
2.050000000000000000e+02 4.900135803222656250e+01 -7.551801681518554688e+00 -2.749916791915893555e+00 -9.716221247799694538e-04 -8.252665400505065918e-01 -1.581671386957168579e-01
2.060000000000000000e+02 4.974884033203125000e+01 -7.541996002197265625e+00 -2.832607984542846680e+00 2.862326335161924362e-03 -8.489237427711486816e-01 -1.570822894573211670e-01
2.070000000000000000e+02 4.974313354492187500e+01 -6.802017211914062500e+00 -3.076678514480590820e+00 1.110437791794538498e-03 -9.226704239845275879e-01 -7.519312947988510132e-02
2.080000000000000000e+02 4.749475479125976562e+01 -6.823286056518554688e+00 -2.797094345092773438e+00 1.687957439571619034e-03 -8.386219143867492676e-01 -7.848077267408370972e-02
2.090000000000000000e+02 5.124328231811523438e+01 -6.795847415924072266e+00 -3.275861978530883789e+00 -1.544761122204363346e-03 -9.832220077514648438e-01 -6.938096135854721069e-02
2.100000000000000000e+02 5.199635314941406250e+01 -7.532447814941406250e+00 -3.065248250961303711e+00 -2.503837167751044035e-04 -9.196496009826660156e-01 -1.540920585393905640e-01
2.110000000000000000e+02 5.049753570556640625e+01 -7.536636352539062500e+00 -2.912164926528930664e+00 1.808597939088940620e-03 -8.731068968772888184e-01 -1.585140824317932129e-01
2.120000000000000000e+02 5.274426269531250000e+01 -7.526317596435546875e+00 -3.145808696746826172e+00 2.822697628289461136e-03 -9.428958296775817871e-01 -1.522958278656005859e-01
2.130000000000000000e+02 5.124744033813476562e+01 -7.535836219787597656e+00 -2.986984491348266602e+00 8.945591398514807224e-04 -8.958269953727722168e-01 -1.579595804214477539e-01
2.140000000000000000e+02 5.274152374267578125e+01 -6.786322593688964844e+00 -3.472935199737548828e+00 9.442763403058052063e-04 -1.041597247123718262e+00 -6.814270466566085815e-02
2.150000000000000000e+02 5.049266433715820312e+01 -6.796650886535644531e+00 -3.172742128372192383e+00 2.063940279185771942e-03 -9.512034654617309570e-01 -7.079121470451354980e-02
2.160000000000000000e+02 5.199290466308593750e+01 -6.792455673217773438e+00 -3.375478029251098633e+00 9.086636418942362070e-05 -1.012616157531738281e+00 -7.005351781845092773e-02
2.170000000000000000e+02 5.349121475219726562e+01 -6.783879280090332031e+00 -3.574058532714843750e+00 1.501638442277908325e-03 -1.071767091751098633e+00 -6.506034731864929199e-02
2.180000000000000000e+02 5.424106216430664062e+01 -6.783032417297363281e+00 -3.678812503814697266e+00 -9.236912010237574577e-04 -1.103920817375183105e+00 -6.398248672485351562e-02
2.190000000000000000e+02 5.349338912963867188e+01 -7.523876190185546875e+00 -3.220928907394409180e+00 1.984367612749338150e-03 -9.656834006309509277e-01 -1.521066576242446899e-01
2.200000000000000000e+02 5.424282073974609375e+01 -7.523030757904052734e+00 -3.291814327239990234e+00 2.434148453176021576e-03 -9.868140816688537598e-01 -1.490005701780319214e-01
2.210000000000000000e+02 5.499200439453125000e+01 -7.520969867706298828e+00 -3.362051963806152344e+00 1.294311834499239922e-03 -1.008227229118347168e+00 -1.445949673652648926e-01
2.220000000000000000e+02 5.574129104614257812e+01 -7.519091606140136719e+00 -3.428695917129516602e+00 5.315817892551422119e-03 -1.027014017105102539e+00 -1.397770643234252930e-01
2.230000000000000000e+02 5.574037551879882812e+01 -6.779091835021972656e+00 -3.879035234451293945e+00 1.325720659224316478e-04 -1.163670778274536133e+00 -6.204564869403839111e-02
2.240000000000000000e+02 5.499066925048828125e+01 -6.780971050262451172e+00 -3.780692577362060547e+00 8.946629823185503483e-04 -1.133939385414123535e+00 -6.359780579805374146e-02
2.250000000000000000e+02 5.724125289916992188e+01 -6.781723022460937500e+00 -4.076839447021484375e+00 -1.948182354681193829e-03 -1.223636269569396973e+00 -5.780062824487686157e-02
2.260000000000000000e+02 5.799132537841796875e+01 -7.521727561950683594e+00 -3.574795961380004883e+00 4.567915108054876328e-03 -1.071068406105041504e+00 -1.177771911025047302e-01
2.270000000000000000e+02 5.649098205566406250e+01 -7.519072055816650391e+00 -3.488036394119262695e+00 3.565865568816661835e-03 -1.045341134071350098e+00 -1.365473568439483643e-01
2.280000000000000000e+02 5.874002075195312500e+01 -7.518932342529296875e+00 -3.606139659881591797e+00 1.190995611250400543e-02 -1.078268885612487793e+00 -1.041836664080619812e-01
2.290000000000000000e+02 5.724164199829101562e+01 -7.521722793579101562e+00 -3.534408807754516602e+00 6.512677296996116638e-03 -1.058368802070617676e+00 -1.289330571889877319e-01
2.300000000000000000e+02 5.874005126953125000e+01 -6.778932571411132812e+00 -4.262750148773193359e+00 -2.444231940899044275e-04 -1.278898358345031738e+00 -5.522523820400238037e-02
2.310000000000000000e+02 5.649037933349609375e+01 -6.779072284698486328e+00 -3.977808475494384766e+00 2.686239080503582954e-03 -1.192536711692810059e+00 -5.887924879789352417e-02
2.320000000000000000e+02 5.799114608764648438e+01 -6.781727790832519531e+00 -4.171683788299560547e+00 2.097749384120106697e-03 -1.250875830650329590e+00 -5.745747685432434082e-02
2.330000000000000000e+02 5.948999786376953125e+01 -6.779025554656982422e+00 -4.347117424011230469e+00 5.048694089055061340e-03 -1.302620649337768555e+00 -5.017055571079254150e-02
2.340000000000000000e+02 6.024008560180664062e+01 -6.779928684234619141e+00 -4.423418045043945312e+00 -2.958567580208182335e-03 -1.327913045883178711e+00 -4.770943522453308105e-02
2.350000000000000000e+02 6.098959350585937500e+01 -7.519578456878662109e+00 -3.552379608154296875e+00 2.204713411629199982e-02 -1.059099793434143066e+00 -3.528287261724472046e-02
2.360000000000000000e+02 5.948982238769531250e+01 -7.519025802612304688e+00 -3.615361690521240234e+00 1.108603738248348236e-02 -1.081282734870910645e+00 -9.043426811695098877e-02
2.370000000000000000e+02 6.023982620239257812e+01 -7.519928932189941406e+00 -3.597210407257080078e+00 2.032823488116264343e-02 -1.073064684867858887e+00 -6.327997148036956787e-02
2.380000000000000000e+02 6.173945999145507812e+01 -7.519367694854736328e+00 -3.460905790328979492e+00 3.722085803747177124e-02 -1.027105450630187988e+00 1.352129038423299789e-02
2.390000000000000000e+02 6.173988723754882812e+01 -6.779367923736572266e+00 -4.534344196319580078e+00 -5.256050731986761093e-03 -1.361880064010620117e+00 -3.453659638762474060e-02
2.400000000000000000e+02 6.098993682861328125e+01 -6.779578208923339844e+00 -4.487041473388671875e+00 1.037832070142030716e-02 -1.342998862266540527e+00 -4.011919721961021423e-02
2.410000000000000000e+02 6.247646713256835938e+01 -6.776591777801513672e+00 -4.563536643981933594e+00 1.733112521469593048e-02 -1.363861680030822754e+00 -2.236899174749851227e-02
2.420000000000000000e+02 6.495267486572265625e+01 -7.540664672851562500e+00 -1.691130042076110840e+00 1.727681159973144531e-01 -4.555085599422454834e-01 7.961102724075317383e-01
2.430000000000000000e+02 6.243851089477539062e+01 -7.516549587249755859e+00 -3.338884830474853516e+00 3.106856346130371094e-02 -9.923448562622070312e-01 5.568065866827964783e-02
2.440000000000000000e+02 6.487022399902343750e+01 -7.768835067749023438e+00 -1.143378019332885742e+00 3.613643646240234375e-01 -2.346040904521942139e-01 1.078145384788513184e+00
2.450000000000000000e+02 6.499669647216796875e+01 -7.163887500762939453e+00 -2.669222354888916016e+00 1.493531912565231323e-01 -7.559607625007629395e-01 4.496480226516723633e-01
2.460000000000000000e+02 6.368072128295898438e+01 -7.621719360351562500e+00 -2.583814144134521484e+00 5.668259039521217346e-02 -7.581394314765930176e-01 2.982162833213806152e-01
2.470000000000000000e+02 6.499884033203125000e+01 -7.346343040466308594e+00 -2.032773494720458984e+00 1.692490428686141968e-01 -5.590573549270629883e-01 5.659071803092956543e-01
2.480000000000000000e+02 6.443860626220703125e+01 -7.284156799316406250e+00 -2.965934991836547852e+00 4.945414885878562927e-02 -8.749442696571350098e-01 3.519122600555419922e-01
2.490000000000000000e+02 6.452641296386718750e+01 -6.739823818206787109e+00 -4.471643447875976562e+00 -5.685502663254737854e-02 -1.358549594879150391e+00 -6.239105388522148132e-02
2.500000000000000000e+02 6.395785140991210938e+01 -6.750384330749511719e+00 -4.586454868316650391e+00 -3.131201490759849548e-02 -1.385330080986022949e+00 -4.461998492479324341e-02
2.510000000000000000e+02 6.492031860351562500e+01 -6.750862121582031250e+00 -4.024530410766601562e+00 1.805564165115356445e-01 -1.153192162513732910e+00 -7.559605687856674194e-02
2.520000000000000000e+02 6.461891937255859375e+01 -7.055012226104736328e+00 -3.520604372024536133e+00 5.026157572865486145e-02 -1.041102886199951172e+00 2.647247314453125000e-01
2.530000000000000000e+02 6.494883728027343750e+01 -6.965586185455322266e+00 -3.545799255371093750e+00 1.320612430572509766e-01 -1.024121403694152832e+00 1.228398978710174561e-01
2.540000000000000000e+02 6.482878112792968750e+01 -6.527032375335693359e+00 -4.988213062286376953e+00 7.411319017410278320e-02 -1.474230051040649414e+00 -8.395832031965255737e-02
2.550000000000000000e+02 6.416580200195312500e+01 -7.695112705230712891e+00 -1.897968173027038574e+00 3.091738224029541016e-01 -4.766382873058319092e-01 5.615964531898498535e-01
2.560000000000000000e+02 6.452439117431640625e+01 -7.599373340606689453e+00 -1.895192503929138184e+00 1.960598081350326538e-01 -5.097398161888122559e-01 7.067811489105224609e-01
2.570000000000000000e+02 6.468618774414062500e+01 -7.419318199157714844e+00 -2.231520652770996094e+00 1.904766857624053955e-01 -6.123132109642028809e-01 6.102827787399291992e-01
2.580000000000000000e+02 6.321343612670898438e+01 -6.783374786376953125e+00 -4.564809322357177734e+00 -3.238600678741931915e-03 -1.370414495468139648e+00 -9.103509597480297089e-03
2.590000000000000000e+02 6.402162170410156250e+01 -7.293877124786376953e+00 -3.081799030303955078e+00 6.171759217977523804e-02 -9.060244560241699219e-01 2.339573204517364502e-01
2.600000000000000000e+02 6.310049819946289062e+01 -7.523247241973876953e+00 -3.072271347045898438e+00 6.536337733268737793e-02 -9.020724296569824219e-01 1.312884390354156494e-01
2.610000000000000000e+02 6.480554199218750000e+01 -7.247228622436523438e+00 -2.471428632736206055e+00 1.324276626110076904e-01 -7.017003297805786133e-01 4.873235821723937988e-01
2.620000000000000000e+02 6.641303253173828125e+01 -6.538422584533691406e+00 -4.327529430389404297e+00 2.444186620414257050e-02 -1.290926337242126465e+00 8.741734176874160767e-02
2.630000000000000000e+02 6.922325134277343750e+01 -6.296677112579345703e+00 1.319240283966064453e+01 1.973860359191894531e+01 9.879302024841308594e+00 7.910804748535156250e-01
2.640000000000000000e+02 6.926387023925781250e+01 -5.643997192382812500e+00 7.283609390258789062e+00 2.035290145874023438e+01 8.290953636169433594e+00 2.951910972595214844e+00
2.650000000000000000e+02 6.839830017089843750e+01 -5.307524681091308594e+00 1.263749957084655762e+00 2.446164131164550781e+01 7.717617511749267578e+00 -2.968827247619628906e+00
2.660000000000000000e+02 6.581237792968750000e+01 -5.559397697448730469e+00 -1.246354937553405762e+00 3.671634793281555176e-01 -2.637574076652526855e-01 -1.040608406066894531e+00
2.670000000000000000e+02 6.886453247070312500e+01 -7.541805267333984375e+00 2.685405254364013672e+00 2.264329719543457031e+01 7.598610877990722656e+00 -8.646267056465148926e-01
2.680000000000000000e+02 6.522202301025390625e+01 -7.791618347167968750e+00 -6.193544864654541016e-01 8.789523243904113770e-01 7.787934690713882446e-02 1.508544683456420898e+00
2.690000000000000000e+02 6.559027862548828125e+01 -7.809947490692138672e+00 2.675686217844486237e-02 1.098508238792419434e+00 3.375795185565948486e-01 2.017465353012084961e+00
2.700000000000000000e+02 6.614613342285156250e+01 -7.094169139862060547e+00 -1.009748458862304688e+00 5.958583354949951172e-01 -1.241670474410057068e-01 1.164755344390869141e+00
2.710000000000000000e+02 6.577694702148437500e+01 -7.780867099761962891e+00 2.936987280845642090e-01 1.336604118347167969e+00 4.890908300876617432e-01 2.250574350357055664e+00
2.720000000000000000e+02 6.779096221923828125e+01 -7.429248332977294922e+00 2.703012228012084961e+00 1.563022327423095703e+01 5.499970912933349609e+00 8.771817207336425781e+00
2.730000000000000000e+02 6.743165588378906250e+01 -7.252439975738525391e+00 4.609130859375000000e+00 7.421929836273193359e+00 3.609318017959594727e+00 7.667333126068115234e+00
2.740000000000000000e+02 6.702498626708984375e+01 -6.507080078125000000e+00 -3.662750005722045898e+00 -9.482516348361968994e-02 -1.127272605895996094e+00 4.709700122475624084e-02
2.750000000000000000e+02 6.548297882080078125e+01 -7.661229610443115234e+00 -4.993829727172851562e-01 6.617119312286376953e-01 4.869868606328964233e-02 1.514189600944519043e+00
2.760000000000000000e+02 6.821365356445312500e+01 -5.279345989227294922e+00 1.020883440971374512e+00 2.266556167602539062e+01 7.105933666229248047e+00 -5.349174022674560547e+00
2.770000000000000000e+02 6.872440338134765625e+01 -5.136969089508056641e+00 1.781006097793579102e+00 2.292668724060058594e+01 7.412308216094970703e+00 -2.868449687957763672e-01
2.780000000000000000e+02 6.919994354248046875e+01 -6.111746311187744141e+00 1.224028396606445312e+01 2.028155136108398438e+01 9.756550788879394531e+00 2.228938341140747070e+00
2.790000000000000000e+02 6.937005615234375000e+01 -5.784461021423339844e+00 8.641099929809570312e+00 1.955595970153808594e+01 8.459117889404296875e+00 2.930820465087890625e+00
2.800000000000000000e+02 6.919875335693359375e+01 -6.673537254333496094e+00 1.228499794006347656e+01 2.025094032287597656e+01 9.760781288146972656e+00 -2.253374576568603516e+00
2.810000000000000000e+02 6.839500427246093750e+01 -7.479327678680419922e+00 1.252425789833068848e+00 2.436454200744628906e+01 7.685090541839599609e+00 3.011356830596923828e+00
2.820000000000000000e+02 6.900943756103515625e+01 -7.422607898712158203e+00 4.101387023925781250e+00 2.237599563598632812e+01 7.943214893341064453e+00 -1.934076666831970215e+00
2.830000000000000000e+02 6.521610260009765625e+01 -5.002583026885986328e+00 -7.288681268692016602e-01 8.457010388374328613e-01 3.504987433552742004e-02 -1.459214210510253906e+00
2.840000000000000000e+02 6.519980621337890625e+01 -5.424900531768798828e+00 -1.754459977149963379e+00 2.769768834114074707e-01 -4.432449340820312500e-01 -6.875039935111999512e-01
2.850000000000000000e+02 6.580361175537109375e+01 -5.280865192413330078e+00 -3.146183788776397705e-01 8.049653768539428711e-01 1.471040993928909302e-01 -1.705685257911682129e+00
2.860000000000000000e+02 6.522433471679687500e+01 -6.045930385589599609e+00 -4.262894630432128906e+00 -1.758269220590591431e-02 -1.284143209457397461e+00 -4.933835566043853760e-02
2.870000000000000000e+02 6.642517089843750000e+01 -6.246723651885986328e+00 -4.324536323547363281e+00 4.545231908559799194e-02 -1.283725261688232422e+00 -3.960110247135162354e-02
2.880000000000000000e+02 6.725327301025390625e+01 -5.684249877929687500e+00 4.265486240386962891e+00 3.983644485473632812e+00 2.474739313125610352e+00 -5.779891014099121094e+00
2.890000000000000000e+02 6.749293518066406250e+01 -5.243999004364013672e+00 3.246250629425048828e+00 1.034797573089599609e+01 4.078268051147460938e+00 -7.957844734191894531e+00
2.900000000000000000e+02 6.723421478271484375e+01 -5.032161235809326172e+00 2.633996963500976562e+00 7.693486690521240234e+00 3.098245143890380859e+00 -6.746871948242187500e+00
2.910000000000000000e+02 6.521752166748046875e+01 -6.264725685119628906e+00 -5.103652000427246094e+00 -3.667965903878211975e-02 -1.542099475860595703e+00 -2.793183317407965660e-03
2.920000000000000000e+02 6.622817993164062500e+01 -5.975317955017089844e+00 -2.542267560958862305e+00 1.035810485482215881e-01 -7.316060066223144531e-01 -4.871127903461456299e-01
2.930000000000000000e+02 6.665898895263671875e+01 -5.979025363922119141e+00 -9.902895689010620117e-01 4.004459679126739502e-01 -1.769530773162841797e-01 -1.026826381683349609e+00
2.940000000000000000e+02 6.702663421630859375e+01 -6.278679370880126953e+00 -3.649932384490966797e+00 -1.129671111702919006e-01 -1.128869771957397461e+00 -1.029021590948104858e-01
2.950000000000000000e+02 6.802355957031250000e+01 -5.271490097045898438e+00 1.474805235862731934e+00 1.986186218261718750e+01 6.401000022888183594e+00 -7.260441303253173828e+00
2.960000000000000000e+02 6.782810211181640625e+01 -5.006546020507812500e+00 1.345532774925231934e+00 1.571570301055908203e+01 5.118371009826660156e+00 -7.270361900329589844e+00
2.970000000000000000e+02 6.706896209716796875e+01 -6.069135189056396484e+00 2.200433462858200073e-01 4.344877302646636963e-01 1.963593214750289917e-01 -1.408411741256713867e+00
2.980000000000000000e+02 6.682385253906250000e+01 -6.520060539245605469e+00 -3.873882293701171875e+00 5.719202756881713867e-02 -1.145007133483886719e+00 6.484062224626541138e-02
2.990000000000000000e+02 6.819906616210937500e+01 -7.506730079650878906e+00 9.804022312164306641e-01 2.236144638061523438e+01 7.002554893493652344e+00 5.509682655334472656e+00
3.000000000000000000e+02 6.883236694335937500e+01 -7.244006156921386719e+00 4.953675746917724609e+00 2.475975418090820312e+01 8.914029121398925781e+00 -2.147124767303466797e+00
3.010000000000000000e+02 6.620317077636718750e+01 -6.533983707427978516e+00 -4.542098999023437500e+00 -1.942618004977703094e-02 -1.368457555770874023e+00 8.478221297264099121e-02
3.020000000000000000e+02 6.577634429931640625e+01 -6.695400714874267578e+00 -3.787928342819213867e+00 1.111825630068778992e-01 -1.103023767471313477e+00 1.571226269006729126e-01
3.030000000000000000e+02 6.521640777587890625e+01 -6.516084671020507812e+00 -5.113478660583496094e+00 -1.613768935203552246e-01 -1.582456707954406738e+00 2.686016820371150970e-02
3.040000000000000000e+02 6.839855194091796875e+01 -5.049293518066406250e+00 4.552818834781646729e-01 2.130786132812500000e+01 6.528943061828613281e+00 -3.516600608825683594e+00
3.050000000000000000e+02 6.767016601562500000e+01 -5.203607082366943359e+00 2.575944185256958008e+00 1.306485748291015625e+01 4.692240238189697266e+00 -8.131784439086914062e+00
3.060000000000000000e+02 6.883190155029296875e+01 -5.541637897491455078e+00 5.006144523620605469e+00 2.484401893615722656e+01 8.955049514770507812e+00 2.094344615936279297e+00
3.070000000000000000e+02 6.896742248535156250e+01 -5.677430152893066406e+00 7.319034099578857422e+00 2.354007911682128906e+01 9.257734298706054688e+00 3.074704408645629883e+00
3.080000000000000000e+02 6.908070373535156250e+01 -5.825683116912841797e+00 9.640295028686523438e+00 2.206467819213867188e+01 9.511491775512695312e+00 3.316664218902587891e+00
3.090000000000000000e+02 6.641051483154296875e+01 -5.024469852447509766e+00 1.506286859512329102e+00 2.600043535232543945e+00 1.231899023056030273e+00 -3.667016029357910156e+00
3.100000000000000000e+02 6.743553161621093750e+01 -5.014793395996093750e+00 2.462378978729248047e+00 9.950233459472656250e+00 3.723783493041992188e+00 -7.310953617095947266e+00
3.110000000000000000e+02 6.784038543701171875e+01 -5.230986118316650391e+00 2.014000892639160156e+00 1.655496788024902344e+01 5.570690631866455078e+00 -8.120330810546875000e+00
3.120000000000000000e+02 6.868456268310546875e+01 -5.427380084991455078e+00 2.938718080520629883e+00 2.528190994262695312e+01 8.466188430786132812e+00 3.555176556110382080e-01
3.130000000000000000e+02 6.799065399169921875e+01 -7.487683773040771484e+00 1.535472035408020020e+00 1.959578514099121094e+01 6.339377403259277344e+00 7.563013076782226562e+00
3.140000000000000000e+02 6.658911132812500000e+01 -7.770433425903320312e+00 1.965865612030029297e+00 3.359054803848266602e+00 1.597476124763488770e+00 4.224131107330322266e+00
3.150000000000000000e+02 6.770870208740234375e+01 -7.600180149078369141e+00 2.456532955169677734e+00 1.413628387451171875e+01 4.977844715118408203e+00 8.158735275268554688e+00
3.160000000000000000e+02 6.896788787841796875e+01 -7.108135223388671875e+00 7.283723831176757812e+00 2.358841323852539062e+01 9.261640548706054688e+00 -3.079345703125000000e+00
3.170000000000000000e+02 6.857176971435546875e+01 -7.712265014648437500e+00 6.007272005081176758e-01 2.225866508483886719e+01 6.857817649841308594e+00 2.131562232971191406e+00
3.180000000000000000e+02 6.868430328369140625e+01 -7.357857227325439453e+00 2.943827152252197266e+00 2.520063591003417969e+01 8.443339347839355469e+00 -3.666266500949859619e-01
3.190000000000000000e+02 6.701414489746093750e+01 -7.730248928070068359e+00 2.666027307510375977e+00 5.565654277801513672e+00 2.469504594802856445e+00 5.853486537933349609e+00
3.200000000000000000e+02 6.728168487548828125e+01 -7.112086296081542969e+00 4.521019458770751953e+00 4.501316070556640625e+00 2.706700563430786133e+00 6.061364650726318359e+00
3.210000000000000000e+02 6.782611083984375000e+01 -7.811683654785156250e+00 1.391596198081970215e+00 1.515634536743164062e+01 4.964382648468017578e+00 7.134913921356201172e+00
3.220000000000000000e+02 6.922270202636718750e+01 -6.488558292388916016e+00 1.325415992736816406e+01 1.973995590209960938e+01 9.898234367370605469e+00 -8.519254922866821289e-01
3.230000000000000000e+02 6.945769500732421875e+01 -6.109874248504638672e+00 1.073997402191162109e+01 1.806033897399902344e+01 8.640093803405761719e+00 1.547120690345764160e+00
3.240000000000000000e+02 6.900894165039062500e+01 -5.363013744354248047e+00 4.105423450469970703e+00 2.227104187011718750e+01 7.912940025329589844e+00 1.914379477500915527e+00
3.250000000000000000e+02 6.857958984375000000e+01 -5.275218009948730469e+00 1.837348103523254395e+00 2.410601997375488281e+01 7.783010482788085938e+00 -1.203722715377807617e+00
3.260000000000000000e+02 6.857273864746093750e+01 -5.074630737304687500e+00 7.288827300071716309e-01 2.228035736083984375e+01 6.902771949768066406e+00 -2.167103052139282227e+00
3.270000000000000000e+02 6.945650482177734375e+01 -6.675376415252685547e+00 1.084355640411376953e+01 1.822223472595214844e+01 8.719737052917480469e+00 -1.590562224388122559e+00
3.280000000000000000e+02 6.937090301513671875e+01 -7.001796722412109375e+00 8.550315856933593750e+00 1.955180549621582031e+01 8.430636405944824219e+00 -2.960303544998168945e+00
3.290000000000000000e+02 6.923285675048828125e+01 -5.930599212646484375e+00 1.041851043701171875e+01 2.043724250793457031e+01 9.256726264953613281e+00 2.718817710876464844e+00
3.300000000000000000e+02 6.947483062744140625e+01 -6.296384334564208984e+00 1.141598415374755859e+01 1.785115242004394531e+01 8.780140876770019531e+00 5.921457409858703613e-01
3.310000000000000000e+02 6.914546203613281250e+01 -7.286459922790527344e+00 5.763130187988281250e+00 2.140473937988281250e+01 8.150361061096191406e+00 -2.736905574798583984e+00
3.320000000000000000e+02 6.914497375488281250e+01 -5.499082565307617188e+00 5.833484172821044922e+00 2.147385025024414062e+01 8.192200660705566406e+00 2.753860235214233398e+00
3.330000000000000000e+02 6.872367095947265625e+01 -7.648486137390136719e+00 1.661046624183654785e+00 2.275318717956542969e+01 7.324269771575927734e+00 2.907854318618774414e-01
3.340000000000000000e+02 6.923302459716796875e+01 -6.855831623077392578e+00 1.047449207305908203e+01 2.042784118652343750e+01 9.270699501037597656e+00 -2.709465503692626953e+00
3.350000000000000000e+02 6.802057647705078125e+01 -5.016866207122802734e+00 7.365825176239013672e-01 1.797503852844238281e+01 5.613486289978027344e+00 -6.356599807739257812e+00
3.360000000000000000e+02 6.521315002441406250e+01 -5.220360279083251953e+00 -1.361928939819335938e+00 5.283758044242858887e-01 -2.500659525394439697e-01 -9.543002843856811523e-01
3.370000000000000000e+02 6.601050567626953125e+01 -5.017750740051269531e+00 6.760829687118530273e-01 1.586479306221008301e+00 6.787686944007873535e-01 -2.648327589035034180e+00
3.380000000000000000e+02 6.661233520507812500e+01 -5.035968780517578125e+00 2.057130575180053711e+00 3.311293840408325195e+00 1.610527276992797852e+00 -4.373701572418212891e+00
3.390000000000000000e+02 6.702630615234375000e+01 -5.042148113250732422e+00 2.632172822952270508e+00 5.837740421295166016e+00 2.540973901748657227e+00 -5.985137939453125000e+00
3.400000000000000000e+02 6.763294982910156250e+01 -5.002735614776611328e+00 2.061809062957763672e+00 1.270277500152587891e+01 4.429375171661376953e+00 -7.660248756408691406e+00
3.410000000000000000e+02 6.681583404541015625e+01 -5.342853069305419922e+00 2.369388103485107422e+00 2.817986726760864258e+00 1.556212425231933594e+00 -4.243411064147949219e+00
3.420000000000000000e+02 6.681719207763671875e+01 -5.042989730834960938e+00 2.495445966720581055e+00 4.272115707397460938e+00 2.030268430709838867e+00 -5.192182540893554688e+00
3.430000000000000000e+02 6.619625091552734375e+01 -5.257172584533691406e+00 7.186408042907714844e-01 1.397428154945373535e+00 6.348206996917724609e-01 -2.543633937835693359e+00
3.440000000000000000e+02 6.591865539550781250e+01 -5.785470485687255859e+00 -2.021016359329223633e+00 1.587008982896804810e-01 -5.586946606636047363e-01 -6.458830833435058594e-01
3.450000000000000000e+02 6.561312866210937500e+01 -5.019316673278808594e+00 -5.334438383579254150e-02 1.022405982017517090e+00 2.907184660434722900e-01 -1.947033762931823730e+00
3.460000000000000000e+02 6.662853240966796875e+01 -6.249961853027343750e+00 -4.149227142333984375e+00 -3.013979084789752960e-02 -1.253810048103332520e+00 -5.886020511388778687e-02
3.470000000000000000e+02 6.682866668701171875e+01 -6.260177612304687500e+00 -3.934299945831298828e+00 9.712339937686920166e-02 -1.151152968406677246e+00 -9.154019504785537720e-02
3.480000000000000000e+02 6.679854583740234375e+01 -7.756297588348388672e+00 2.298169136047363281e+00 4.154193878173828125e+00 1.935708999633789062e+00 4.952092170715332031e+00
3.490000000000000000e+02 6.527578735351562500e+01 -7.366918563842773438e+00 -1.661920309066772461e+00 3.054225146770477295e-01 -4.069493412971496582e-01 8.019925355911254883e-01
3.500000000000000000e+02 6.525631713867187500e+01 -7.145766735076904297e+00 -2.467869997024536133e+00 1.398391872644424438e-01 -6.984092593193054199e-01 4.512003064155578613e-01
3.510000000000000000e+02 6.543076324462890625e+01 -6.706786632537841797e+00 -4.168898105621337891e+00 2.927324362099170685e-02 -1.241887450218200684e+00 6.850229203701019287e-02
3.520000000000000000e+02 6.541769409179687500e+01 -6.509228229522705078e+00 -5.028359889984130859e+00 5.771052837371826172e-02 -1.491194844245910645e+00 -8.058700710535049438e-02
3.530000000000000000e+02 6.800308227539062500e+01 -7.794250488281250000e+00 8.484005331993103027e-01 1.797059059143066406e+01 5.645697116851806641e+00 6.506062507629394531e+00
3.540000000000000000e+02 6.819770812988281250e+01 -7.758470058441162109e+00 5.351279973983764648e-01 1.994036293029785156e+01 6.142647266387939453e+00 5.201549053192138672e+00
3.550000000000000000e+02 6.621117401123046875e+01 -7.780617237091064453e+00 1.126446008682250977e+00 1.790134429931640625e+00 8.749741315841674805e-01 3.086018800735473633e+00
3.560000000000000000e+02 6.639672088623046875e+01 -7.791866779327392578e+00 1.656975269317626953e+00 2.666489601135253906e+00 1.297039389610290527e+00 3.736641883850097656e+00
3.570000000000000000e+02 6.751198577880859375e+01 -7.538887977600097656e+00 3.198136329650878906e+00 1.058622264862060547e+01 4.135307788848876953e+00 7.971832752227783203e+00
3.580000000000000000e+02 6.760364532470703125e+01 -7.355251312255859375e+00 3.879051208496093750e+00 1.159489536285400391e+01 4.642184257507324219e+00 8.781874656677246094e+00
3.590000000000000000e+02 6.723164367675781250e+01 -7.732260704040527344e+00 2.814207553863525391e+00 7.546278476715087891e+00 3.108145713806152344e+00 6.755710124969482422e+00
3.600000000000000000e+02 6.744053649902343750e+01 -7.766116619110107422e+00 2.568670988082885742e+00 1.020785617828369141e+01 3.832958221435546875e+00 7.407414913177490234e+00
3.610000000000000000e+02 6.595512390136718750e+01 -6.729423522949218750e+00 -3.471937656402587891e+00 4.079255834221839905e-02 -1.029343485832214355e+00 1.323873549699783325e-01
3.620000000000000000e+02 6.525693511962890625e+01 -7.585459709167480469e+00 -1.086431980133056641e+00 5.959964990615844727e-01 -1.471306383609771729e-01 1.129358530044555664e+00
3.630000000000000000e+02 6.541902923583984375e+01 -7.812066078186035156e+00 -3.684660494327545166e-01 8.089333176612854004e-01 1.321401745080947876e-01 1.653767585754394531e+00
3.640000000000000000e+02 6.524022674560546875e+01 -5.820395946502685547e+00 -3.126442432403564453e+00 5.216000974178314209e-02 -9.222847223281860352e-01 -2.786764502525329590e-01
3.650000000000000000e+02 6.561426544189453125e+01 -5.996569156646728516e+00 -3.517685174942016602e+00 9.535215795040130615e-02 -1.026699900627136230e+00 -2.299347817897796631e-01
3.660000000000000000e+02 6.561868286132812500e+01 -6.252918243408203125e+00 -4.957281589508056641e+00 3.171851858496665955e-02 -1.477668881416320801e+00 3.160800412297248840e-02
3.670000000000000000e+02 6.536140441894531250e+01 -5.481041431427001953e+00 -1.876470804214477539e+00 2.175118774175643921e-01 -4.976876676082611084e-01 -7.282443642616271973e-01
3.680000000000000000e+02 6.523621368408203125e+01 -6.933751106262207031e+00 -3.182840824127197266e+00 7.032793015241622925e-02 -9.337538480758666992e-01 1.231461688876152039e-01
3.690000000000000000e+02 6.704925537109375000e+01 -5.591407299041748047e+00 3.376517295837402344e+00 3.125113487243652344e+00 1.950489282608032227e+00 -4.716143608093261719e+00
3.700000000000000000e+02 6.581121063232421875e+01 -5.021014690399169922e+00 2.800345718860626221e-01 1.153683543205261230e+00 4.301154315471649170e-01 -2.158844947814941406e+00
3.710000000000000000e+02 6.728730010986328125e+01 -5.304815292358398438e+00 3.597873926162719727e+00 7.032592296600341797e+00 3.189139842987060547e+00 -6.956103801727294922e+00
3.720000000000000000e+02 6.540577697753906250e+01 -5.249231338500976562e+00 -9.328168630599975586e-01 5.087068676948547363e-01 -1.272329837083816528e-01 -1.230573534965515137e+00
3.730000000000000000e+02 6.600294494628906250e+01 -5.261684417724609375e+00 1.339229196310043335e-01 9.072728157043457031e-01 3.123587071895599365e-01 -2.027315139770507812e+00
3.740000000000000000e+02 6.542682647705078125e+01 -6.041306972503662109e+00 -4.115531921386718750e+00 -3.426520852372050285e-03 -1.235687613487243652e+00 -1.243129819631576538e-01
3.750000000000000000e+02 6.581586456298828125e+01 -6.247651100158691406e+00 -4.857705593109130859e+00 3.782234340906143188e-02 -1.445965051651000977e+00 -2.183094248175621033e-02
3.760000000000000000e+02 6.601575469970703125e+01 -5.989671707153320312e+00 -2.917655467987060547e+00 6.381851434707641602e-02 -8.561511039733886719e-01 -3.231239914894104004e-01
3.770000000000000000e+02 6.561518859863281250e+01 -6.679229736328125000e+00 -4.116884708404541016e+00 -1.554200332611799240e-02 -1.239727973937988281e+00 -1.857802155427634716e-03
3.780000000000000000e+02 6.561444091796875000e+01 -6.501915931701660156e+00 -5.013153553009033203e+00 -2.232989668846130371e-02 -1.510645031929016113e+00 -3.991162776947021484e-02
3.790000000000000000e+02 6.714877319335937500e+01 -6.936805248260498047e+00 2.905278444290161133e+00 1.668224334716796875e+00 1.372050881385803223e+00 3.450724124908447266e+00
3.800000000000000000e+02 6.599789428710937500e+01 -7.761955738067626953e+00 6.703547239303588867e-01 1.580455899238586426e+00 6.752431988716125488e-01 2.629165172576904297e+00
3.810000000000000000e+02 6.614855957031250000e+01 -6.748397827148437500e+00 -2.962072610855102539e+00 7.566101849079132080e-02 -8.659234642982482910e-01 2.039150744676589966e-01
3.820000000000000000e+02 6.553784179687500000e+01 -7.107994079589843750e+00 -2.154232740402221680e+00 2.141803950071334839e-01 -5.820156931877136230e-01 5.736599564552307129e-01
3.830000000000000000e+02 6.559497833251953125e+01 -7.338038444519042969e+00 -1.249944567680358887e+00 4.229642450809478760e-01 -2.480941116809844971e-01 1.013417482376098633e+00
3.840000000000000000e+02 6.684056091308593750e+01 -5.619025707244873047e+00 2.030178546905517578e+00 1.787750005722045898e+00 1.145378589630126953e+00 -3.296453475952148438e+00
3.850000000000000000e+02 6.686988067626953125e+01 -6.004799842834472656e+00 -3.063577115535736084e-01 2.627301812171936035e-01 -1.308825705200433731e-02 -1.248696684837341309e+00
3.860000000000000000e+02 6.699391937255859375e+01 -7.107360363006591797e+00 2.599173307418823242e+00 2.064305067062377930e+00 1.399043560028076172e+00 3.728514432907104492e+00
3.870000000000000000e+02 6.705989074707031250e+01 -6.728476047515869141e+00 2.398281842470169067e-01 5.299652218818664551e-01 2.309380173683166504e-01 1.437801837921142578e+00
3.880000000000000000e+02 6.731231689453125000e+01 -7.455916881561279297e+00 3.643616199493408203e+00 7.275751590728759766e+00 3.275810480117797852e+00 7.066195487976074219e+00
3.890000000000000000e+02 6.659450531005859375e+01 -5.323391914367675781e+00 1.685873031616210938e+00 2.228846788406372070e+00 1.174415946006774902e+00 -3.495149850845336914e+00
3.900000000000000000e+02 6.556781768798828125e+01 -5.568439960479736328e+00 -1.703945875167846680e+00 2.825691998004913330e-01 -4.264129996299743652e-01 -8.038129210472106934e-01
3.910000000000000000e+02 6.548566436767578125e+01 -5.829983711242675781e+00 -2.937936782836914062e+00 7.476682215929031372e-02 -8.589509725570678711e-01 -3.251085579395294189e-01
3.920000000000000000e+02 6.644515991210937500e+01 -5.986968517303466797e+00 -1.921466946601867676e+00 1.487361490726470947e-01 -5.318192243576049805e-01 -6.782530546188354492e-01
3.930000000000000000e+02 6.664667510986328125e+01 -5.716758251190185547e+00 7.026703357696533203e-01 9.463807940483093262e-01 4.947153329849243164e-01 -2.151491403579711914e+00
3.940000000000000000e+02 6.643678283691406250e+01 -6.785353660583496094e+00 -2.093116998672485352e+00 8.525769412517547607e-02 -6.023578047752380371e-01 6.238997578620910645e-01
3.950000000000000000e+02 6.684608459472656250e+01 -6.762860298156738281e+00 -6.011289358139038086e-01 2.426604777574539185e-01 -1.075405329465866089e-01 1.119466423988342285e+00
3.960000000000000000e+02 6.705353546142578125e+01 -5.336095333099365234e+00 3.276737928390502930e+00 4.517574787139892578e+00 2.338293790817260742e+00 -5.638867378234863281e+00
3.970000000000000000e+02 6.663514709472656250e+01 -6.759786128997802734e+00 -1.678691387176513672e+00 2.148470133543014526e-01 -4.391533136367797852e-01 8.046600818634033203e-01
3.980000000000000000e+02 6.631748199462890625e+01 -7.047297477722167969e+00 -5.110816359519958496e-01 3.826523423194885254e-01 -3.852878883481025696e-02 1.292988061904907227e+00
3.990000000000000000e+02 6.581104278564453125e+01 -5.980340957641601562e+00 -3.213430881500244141e+00 9.717927873134613037e-02 -9.348754882812500000e-01 -2.748453021049499512e-01
4.000000000000000000e+02 6.652230834960937500e+01 -7.535696029663085938e+00 1.597024559974670410e+00 2.210552692413330078e+00 1.142273187637329102e+00 3.464850902557373047e+00
4.010000000000000000e+02 6.630376434326171875e+01 -7.605336666107177734e+00 1.227377057075500488e+00 1.718661427497863770e+00 8.838115334510803223e-01 2.978034973144531250e+00
4.020000000000000000e+02 6.567382049560546875e+01 -7.563801288604736328e+00 -3.034205734729766846e-01 7.813901305198669434e-01 1.433908641338348389e-01 1.632310509681701660e+00
4.030000000000000000e+02 6.541542053222656250e+01 -5.011404037475585938e+00 -4.311843812465667725e-01 8.299661278724670410e-01 1.196345314383506775e-01 -1.670790791511535645e+00
4.040000000000000000e+02 6.621037292480468750e+01 -5.017637729644775391e+00 1.036746382713317871e+00 1.878964781761169434e+00 8.747133612632751465e-01 -3.078171491622924805e+00
4.050000000000000000e+02 6.617382049560546875e+01 -5.469369411468505859e+00 1.381374299526214600e-01 7.657611966133117676e-01 2.711696028709411621e-01 -1.815436363220214844e+00
4.060000000000000000e+02 6.522090148925781250e+01 -5.613223552703857422e+00 -2.275627613067626953e+00 1.472123116254806519e-01 -6.385245919227600098e-01 -5.691775083541870117e-01
4.070000000000000000e+02 6.522270202636718750e+01 -6.724721431732177734e+00 -4.100903511047363281e+00 -1.542384922504425049e-01 -1.276542663574218750e+00 2.295973710715770721e-02
4.080000000000000000e+02 6.546739196777343750e+01 -6.902181148529052734e+00 -3.115953445434570312e+00 -3.297342360019683838e-02 -9.446780681610107422e-01 2.284144610166549683e-01
4.090000000000000000e+02 6.580628967285156250e+01 -6.504874229431152344e+00 -4.946665287017822266e+00 1.899136602878570557e-02 -1.478302240371704102e+00 -4.020322486758232117e-02
4.100000000000000000e+02 6.599964141845703125e+01 -6.515450477600097656e+00 -4.788637638092041016e+00 7.151530683040618896e-02 -1.415136694908142090e+00 5.268509313464164734e-02
4.110000000000000000e+02 6.611786651611328125e+01 -6.917363166809082031e+00 -2.043049097061157227e+00 2.535806894302368164e-01 -5.368404984474182129e-01 6.319262981414794922e-01
4.120000000000000000e+02 6.542037200927734375e+01 -6.261229515075683594e+00 -5.012403488159179688e+00 -1.515271887183189392e-02 -1.508266806602478027e+00 4.362149909138679504e-02
4.130000000000000000e+02 6.601678466796875000e+01 -6.246742248535156250e+00 -4.680393218994140625e+00 2.062321454286575317e-02 -1.397930979728698730e+00 -6.586422771215438843e-02
4.140000000000000000e+02 6.622050476074218750e+01 -6.244588375091552734e+00 -4.492480754852294922e+00 -4.682096466422080994e-02 -1.361790418624877930e+00 -4.824327677488327026e-02
4.150000000000000000e+02 6.714869689941406250e+01 -5.874203681945800781e+00 2.572160482406616211e+00 1.312664985656738281e+00 1.165447592735290527e+00 -3.215692281723022461e+00
4.160000000000000000e+02 6.696312713623046875e+01 -5.787755489349365234e+00 1.935773134231567383e+00 1.429969906806945801e+00 1.009722948074340820e+00 -2.987076520919799805e+00
4.170000000000000000e+02 6.662037658691406250e+01 -6.525818824768066406e+00 -4.095378875732421875e+00 -4.922036081552505493e-02 -1.243379712104797363e+00 6.937690824270248413e-02
4.180000000000000000e+02 6.682153320312500000e+01 -6.992399215698242188e+00 1.146430611610412598e+00 8.600651025772094727e-01 6.019486784934997559e-01 2.266232013702392578e+00
4.190000000000000000e+02 6.740419006347656250e+01 -5.529117107391357422e+00 4.497289657592773438e+00 7.110283374786376953e+00 3.482271671295166016e+00 -7.457161426544189453e+00
4.200000000000000000e+02 6.775952911376953125e+01 -5.366727352142333984e+00 2.895179748535156250e+00 1.532517814636230469e+01 5.466107368469238281e+00 -8.808984756469726562e+00
4.210000000000000000e+02 6.821226501464843750e+01 -5.027606010437011719e+00 4.279702603816986084e-01 2.015442466735839844e+01 6.174718379974365234e+00 -5.091673851013183594e+00
4.220000000000000000e+02 6.886476135253906250e+01 -5.243409156799316406e+00 2.744609594345092773e+00 2.268191909790039062e+01 7.627958774566650391e+00 8.180431127548217773e-01
4.230000000000000000e+02 6.943352508544921875e+01 -5.935584545135498047e+00 1.007174777984619141e+01 1.861932373046875000e+01 8.607321739196777344e+00 2.356384038925170898e+00
4.240000000000000000e+02 6.947427368164062500e+01 -6.488819122314453125e+00 1.139941787719726562e+01 1.792159080505371094e+01 8.796302795410156250e+00 -5.723912715911865234e-01
4.250000000000000000e+02 6.943300628662109375e+01 -6.849960803985595703e+00 1.014634513854980469e+01 1.870302200317382812e+01 8.654809951782226562e+00 -2.374218225479125977e+00
4.260000000000000000e+02 6.926481628417968750e+01 -7.142126083374023438e+00 7.215045928955078125e+00 2.029896926879882812e+01 8.254204750061035156e+00 -2.975968599319458008e+00
4.270000000000000000e+02 6.857807159423828125e+01 -7.511515617370605469e+00 1.782163858413696289e+00 2.402193832397460938e+01 7.741230487823486328e+00 1.236443400382995605e+00
4.280000000000000000e+02 6.839529418945312500e+01 -7.737558364868164062e+00 3.638352751731872559e-01 2.130637550354003906e+01 6.501063346862792969e+00 3.476984024047851562e+00
4.290000000000000000e+02 6.789888000488281250e+01 -7.661403656005859375e+00 1.450595498085021973e+00 1.712211799621582031e+01 5.571814060211181641e+00 7.288903713226318359e+00
4.300000000000000000e+02 6.764005279541015625e+01 -7.790275573730468750e+00 1.949099540710449219e+00 1.284776496887207031e+01 4.439059257507324219e+00 7.480545997619628906e+00
4.310000000000000000e+02 6.713940429687500000e+01 -7.302839279174804688e+00 3.711828470230102539e+00 4.326468944549560547e+00 2.411489248275756836e+00 5.716456890106201172e+00
4.320000000000000000e+02 6.675322723388671875e+01 -7.513683795928955078e+00 2.259509325027465820e+00 3.082659244537353516e+00 1.602650642395019531e+00 4.275969505310058594e+00
4.330000000000000000e+02 6.758966064453125000e+01 -5.431949615478515625e+00 3.993220806121826172e+00 1.142292594909667969e+01 4.624844074249267578e+00 -8.810639381408691406e+00
4.340000000000000000e+02 6.908162689208984375e+01 -6.960463047027587891e+00 9.620511054992675781e+00 2.201846122741699219e+01 9.491691589355468750e+00 -3.284344673156738281e+00
4.350000000000000000e+02 6.594168090820312500e+01 -6.926763057708740234e+00 -2.249533891677856445e+00 9.651395678520202637e-02 -6.459060311317443848e-01 5.141935348510742188e-01
4.360000000000000000e+02 6.560140228271484375e+01 -5.278856277465820312e+00 -6.551447510719299316e-01 6.414663195610046387e-01 -4.103532060980796814e-03 -1.418677330017089844e+00
4.370000000000000000e+02 6.663899993896484375e+01 -6.960026264190673828e+00 -1.577517576515674591e-02 3.805956840515136719e-01 1.094461530447006226e-01 1.471600890159606934e+00
4.380000000000000000e+02 6.589397430419921875e+01 -7.320283889770507812e+00 -6.109948754310607910e-01 5.236390829086303711e-01 -2.620673179626464844e-02 1.298413038253784180e+00
4.390000000000000000e+02 6.576120758056640625e+01 -7.002232074737548828e+00 -2.216798305511474609e+00 2.115986943244934082e-01 -6.015598773956298828e-01 5.594533085823059082e-01
4.400000000000000000e+02 6.613188171386718750e+01 -7.426878929138183594e+00 3.861956000328063965e-01 1.020117878913879395e+00 4.218940436840057373e-01 2.105943918228149414e+00
4.410000000000000000e+02 6.626861572265625000e+01 -6.857812404632568359e+00 -2.108737707138061523e+00 2.979334294795989990e-01 -5.432413220405578613e-01 5.982186794281005859e-01
4.420000000000000000e+02 6.601152038574218750e+01 -5.483095169067382812e+00 -4.460479319095611572e-01 6.179882287979125977e-01 5.158209055662155151e-02 -1.514801740646362305e+00
4.430000000000000000e+02 6.634136962890625000e+01 -5.508036136627197266e+00 6.315305829048156738e-01 1.047732114791870117e+00 5.037788152694702148e-01 -2.171267747879028320e+00
4.440000000000000000e+02 6.638933563232421875e+01 -5.278151512145996094e+00 1.175765633583068848e+00 1.692539572715759277e+00 8.604915738105773926e-01 -2.934981584548950195e+00
4.450000000000000000e+02 6.646161651611328125e+01 -5.757517337799072266e+00 -5.597277283668518066e-01 4.494500458240509033e-01 -3.308330476284027100e-02 -1.379932999610900879e+00
4.460000000000000000e+02 6.566596221923828125e+01 -6.833651542663574219e+00 -3.255106687545776367e+00 1.411420106887817383e-01 -9.341893792152404785e-01 2.070995122194290161e-01
4.470000000000000000e+02 6.696288299560546875e+01 -7.453794002532958984e+00 3.023013353347778320e+00 4.001423358917236328e+00 2.107331037521362305e+00 5.145035266876220703e+00
4.480000000000000000e+02 6.671389770507812500e+01 -7.325253963470458984e+00 2.186661243438720703e+00 2.237461328506469727e+00 1.327236771583557129e+00 3.596439361572265625e+00
4.490000000000000000e+02 6.686690521240234375e+01 -7.265139102935791016e+00 2.531122684478759766e+00 2.356175899505615234e+00 1.466189622879028320e+00 3.952496051788330078e+00
4.500000000000000000e+02 6.592925262451171875e+01 -7.527201175689697266e+00 1.314602345228195190e-01 1.030332207679748535e+00 3.485377132892608643e-01 2.029675006866455078e+00
4.510000000000000000e+02 6.647987365722656250e+01 -6.996569156646728516e+00 -3.413167893886566162e-01 5.026518702507019043e-01 4.840052127838134766e-02 1.337015390396118164e+00
4.520000000000000000e+02 6.674377441406250000e+01 -7.170476913452148438e+00 1.768621206283569336e+00 1.615483999252319336e+00 1.015231609344482422e+00 3.070538997650146484e+00
4.530000000000000000e+02 6.650527191162109375e+01 -7.309710025787353516e+00 1.275815963745117188e+00 1.385746240615844727e+00 7.984686493873596191e-01 2.705343961715698242e+00
4.540000000000000000e+02 6.658159637451171875e+01 -7.122836589813232422e+00 8.548215031623840332e-01 7.820252776145935059e-01 4.910540282726287842e-01 2.063765525817871094e+00
4.550000000000000000e+02 6.627002716064453125e+01 -5.728756904602050781e+00 -8.595030903816223145e-01 3.838549852371215820e-01 -1.426944434642791748e-01 -1.169099330902099609e+00
4.560000000000000000e+02 6.593420410156250000e+01 -7.118121147155761719e+00 -1.370399117469787598e+00 3.276284933090209961e-01 -3.128311932086944580e-01 9.748860597610473633e-01
4.570000000000000000e+02 6.609629821777343750e+01 -5.647574424743652344e+00 -8.744980692863464355e-01 4.708831608295440674e-01 -1.210844740271568298e-01 -1.213929295539855957e+00
4.580000000000000000e+02 6.652396392822265625e+01 -5.560355663299560547e+00 1.147366523742675781e+00 1.118759393692016602e+00 6.798377633094787598e-01 -2.512890338897705078e+00
4.590000000000000000e+02 6.627430725097656250e+01 -7.239592552185058594e+00 2.992317974567413330e-01 7.094171047210693359e-01 3.025946915149688721e-01 1.842167139053344727e+00
4.600000000000000000e+02 6.328338241577148438e+01 -5.199953079223632812e+00 -2.937371253967285156e+00 9.457443654537200928e-02 -8.528390526771545410e-01 -2.293435186147689819e-01
4.610000000000000000e+02 6.454232025146484375e+01 -5.447536945343017578e+00 -2.622723102569580078e+00 2.196918576955795288e-01 -7.209093570709228516e-01 -4.114417433738708496e-01
4.620000000000000000e+02 6.442742919921875000e+01 -5.877919197082519531e+00 -3.973126888275146484e+00 4.364607110619544983e-02 -1.178844213485717773e+00 -7.554171979427337646e-02
4.630000000000000000e+02 6.364913940429687500e+01 -6.154482364654541016e+00 -4.883161544799804688e+00 1.868761144578456879e-03 -1.464387893676757812e+00 7.303732633590698242e-02
4.640000000000000000e+02 6.482875823974609375e+01 -5.002947807312011719e+00 -1.306432962417602539e+00 3.905297219753265381e-01 -2.747709453105926514e-01 -1.006911516189575195e+00
4.650000000000000000e+02 6.492523193359375000e+01 -5.423482418060302734e+00 -1.979529261589050293e+00 2.021102011203765869e-01 -5.332257151603698730e-01 -6.401342749595642090e-01
4.660000000000000000e+02 6.452007293701171875e+01 -5.158787250518798828e+00 -1.892518520355224609e+00 3.775654733180999756e-01 -4.544859230518341064e-01 -7.207580208778381348e-01
4.670000000000000000e+02 6.251119232177734375e+01 -5.259056568145751953e+00 -3.353317022323608398e+00 2.226411551237106323e-02 -9.993159174919128418e-01 -7.776621729135513306e-02
4.680000000000000000e+02 6.247323989868164062e+01 -5.999013900756835938e+00 -4.680127143859863281e+00 -3.297084942460060120e-02 -1.413929343223571777e+00 4.940081760287284851e-02
4.690000000000000000e+02 6.350455474853515625e+01 -5.723578929901123047e+00 -3.948465585708618164e+00 4.550010710954666138e-02 -1.170889616012573242e+00 -5.931983515620231628e-02
4.700000000000000000e+02 6.468704223632812500e+01 -5.691475391387939453e+00 -3.106098175048828125e+00 1.521275639533996582e-01 -8.861911892890930176e-01 -2.537679672241210938e-01
4.710000000000000000e+02 6.488729095458984375e+01 -6.023926734924316406e+00 -4.333042144775390625e+00 5.533952265977859497e-02 -1.283310890197753906e+00 -4.502956941723823547e-02
4.720000000000000000e+02 6.483358764648437500e+01 -6.253451347351074219e+00 -5.137738227844238281e+00 3.093031048774719238e-02 -1.532042384147644043e+00 5.097958073019981384e-02
4.730000000000000000e+02 6.495974731445312500e+01 -5.629934787750244141e+00 -2.641669988632202148e+00 1.087255626916885376e-01 -7.598833441734313965e-01 -3.588904738426208496e-01
4.740000000000000000e+02 6.491414642333984375e+01 -5.214751243591308594e+00 -1.624864339828491211e+00 2.106376439332962036e-01 -4.242680072784423828e-01 -7.974477410316467285e-01
4.750000000000000000e+02 6.399378585815429688e+01 -5.119573116302490234e+00 -2.306241035461425781e+00 1.749351620674133301e-01 -6.393917202949523926e-01 -4.780505895614624023e-01
4.760000000000000000e+02 6.309083175659179688e+01 -6.087866783142089844e+00 -4.732522010803222656e+00 4.092223476618528366e-03 -1.418528914451599121e+00 8.392786979675292969e-02
4.770000000000000000e+02 6.424997711181640625e+01 -6.185869693756103516e+00 -4.992842674255371094e+00 -1.237526349723339081e-02 -1.501565337181091309e+00 8.269893378019332886e-02
4.780000000000000000e+02 6.409603881835937500e+01 -5.555629730224609375e+00 -3.245924234390258789e+00 3.332041576504707336e-02 -9.637811779975891113e-01 -1.843066215515136719e-01
4.790000000000000000e+02 6.495143127441406250e+01 -5.821113586425781250e+00 -3.476637125015258789e+00 6.398642808198928833e-02 -1.023795247077941895e+00 -2.311522364616394043e-01
4.800000000000000000e+02 6.174050521850585938e+01 -6.000120162963867188e+00 -4.647528171539306641e+00 1.284993533045053482e-02 -1.390403509140014648e+00 3.665838763117790222e-02
4.810000000000000000e+02 6.024153137207031250e+01 -5.262085437774658203e+00 -3.726034641265869141e+00 1.158331055194139481e-02 -1.114335417747497559e+00 5.680956318974494934e-02
4.820000000000000000e+02 6.174093246459960938e+01 -5.260120391845703125e+00 -3.565775156021118164e+00 1.307182852178812027e-02 -1.065811038017272949e+00 -3.351064166054129601e-03
4.830000000000000000e+02 5.949036026000976562e+01 -5.259004116058349609e+00 -3.743137836456298828e+00 1.528797484934329987e-02 -1.118354916572570801e+00 7.595527172088623047e-02
4.840000000000000000e+02 5.949018478393554688e+01 -5.999003887176513672e+00 -4.486488342285156250e+00 -5.674485117197036743e-03 -1.347648859024047852e+00 5.315299704670906067e-02
4.850000000000000000e+02 6.024127197265625000e+01 -6.002085208892822266e+00 -4.553410053253173828e+00 9.784491732716560364e-03 -1.363087654113769531e+00 4.878290742635726929e-02
4.860000000000000000e+02 6.099138259887695312e+01 -6.002508640289306641e+00 -4.608555316925048828e+00 -5.765784997493028641e-03 -1.384296417236328125e+00 4.392026364803314209e-02
4.870000000000000000e+02 6.099172592163085938e+01 -5.262508869171142578e+00 -3.668642520904541016e+00 2.907310426235198975e-02 -1.091870903968811035e+00 2.507357299327850342e-02
4.880000000000000000e+02 5.648974227905273438e+01 -5.999071121215820312e+00 -4.157138824462890625e+00 -3.647330915555357933e-03 -1.248235821723937988e+00 5.385418236255645752e-02
4.890000000000000000e+02 5.723953247070312500e+01 -5.259526252746582031e+00 -3.694530725479125977e+00 1.721978333080187440e-04 -1.108307480812072754e+00 1.151839941740036011e-01
4.900000000000000000e+02 5.723992156982421875e+01 -5.999526023864746094e+00 -4.244350433349609375e+00 3.317242721095681190e-03 -1.272309899330139160e+00 5.400635674595832825e-02
4.910000000000000000e+02 5.798986434936523438e+01 -5.998773574829101562e+00 -4.329428195953369141e+00 -3.601942677050828934e-03 -1.299908995628356934e+00 5.387366190552711487e-02
4.920000000000000000e+02 5.873990631103515625e+01 -5.998174190521240234e+00 -4.410834312438964844e+00 4.636723548173904419e-03 -1.321859240531921387e+00 5.263680592179298401e-02
4.930000000000000000e+02 5.873993682861328125e+01 -5.258173942565917969e+00 -3.743548870086669922e+00 3.191042458638548851e-03 -1.122107386589050293e+00 9.628859162330627441e-02
4.940000000000000000e+02 5.648913955688476562e+01 -5.259071350097656250e+00 -3.648882150650024414e+00 3.123680595308542252e-03 -1.093727469444274902e+00 1.196734532713890076e-01
4.950000000000000000e+02 5.798968124389648438e+01 -5.258773326873779297e+00 -3.725702047348022461e+00 8.585524745285511017e-03 -1.115134954452514648e+00 1.062624529004096985e-01
4.960000000000000000e+02 5.348892211914062500e+01 -6.003879547119140625e+00 -3.777664184570312500e+00 -3.297034185379743576e-03 -1.134288311004638672e+00 4.668463021516799927e-02
4.970000000000000000e+02 5.423745727539062500e+01 -5.263031959533691406e+00 -3.473476886749267578e+00 -2.626702887937426567e-03 -1.042831063270568848e+00 1.288539320230484009e-01
4.980000000000000000e+02 5.423921203613281250e+01 -6.003029823303222656e+00 -3.871790647506713867e+00 1.504568615928292274e-03 -1.161085844039916992e+00 4.852934181690216064e-02
4.990000000000000000e+02 5.498925781250000000e+01 -6.000969409942626953e+00 -3.967413663864135742e+00 -2.467237878590822220e-03 -1.190964341163635254e+00 4.939709976315498352e-02
5.000000000000000000e+02 5.573940658569335938e+01 -5.999091625213623047e+00 -4.064362525939941406e+00 7.334029069170355797e-04 -1.219088673591613770e+00 5.116178840398788452e-02
5.010000000000000000e+02 5.573849105834960938e+01 -5.259091854095458984e+00 -3.595719337463378906e+00 -2.870476106181740761e-03 -1.079576969146728516e+00 1.258844733238220215e-01
5.020000000000000000e+02 5.348674774169921875e+01 -5.263882160186767578e+00 -3.401485204696655273e+00 -1.120842644013464451e-03 -1.020781755447387695e+00 1.291043311357498169e-01
5.030000000000000000e+02 5.498792266845703125e+01 -5.260970592498779297e+00 -3.537906169891357422e+00 1.733703422360122204e-03 -1.060851693153381348e+00 1.282591968774795532e-01
5.040000000000000000e+02 5.048752975463867188e+01 -6.016662120819091797e+00 -3.378132820129394531e+00 -3.672020044177770615e-03 -1.014541506767272949e+00 3.607334569096565247e-02
5.050000000000000000e+02 5.123381042480468750e+01 -5.273665904998779297e+00 -3.172543287277221680e+00 -3.321062773466110229e-03 -9.527593255043029785e-01 1.283340901136398315e-01
5.060000000000000000e+02 5.123796844482421875e+01 -6.013654708862304688e+00 -3.474530935287475586e+00 1.033601700328290462e-03 -1.042049169540405273e+00 3.899230435490608215e-02
5.070000000000000000e+02 5.198816299438476562e+01 -6.009502887725830078e+00 -3.574693202972412109e+00 -1.922372030094265938e-03 -1.072984695434570312e+00 4.008792340755462646e-02
5.080000000000000000e+02 5.273845672607421875e+01 -6.005567073822021484e+00 -3.678389072418212891e+00 -4.904571105726063251e-04 -1.103663802146911621e+00 4.279715567827224731e-02
5.090000000000000000e+02 5.273571777343750000e+01 -5.265571594238281250e+00 -3.327020168304443359e+00 -4.482405260205268860e-03 -9.994507431983947754e-01 1.311629712581634521e-01
5.100000000000000000e+02 5.048266220092773438e+01 -5.276676654815673828e+00 -3.087105989456176758e+00 -3.102929564192891121e-03 -9.270626306533813477e-01 1.271983981132507324e-01
5.110000000000000000e+02 5.198471069335937500e+01 -5.269510746002197266e+00 -3.251958847045898438e+00 -2.597869024612009525e-04 -9.756655693054199219e-01 1.308741420507431030e-01
5.120000000000000000e+02 4.748569488525390625e+01 -6.043330192565917969e+00 -2.959488630294799805e+00 -3.144379006698727608e-03 -8.887898921966552734e-01 2.353482507169246674e-02
5.130000000000000000e+02 4.822861480712890625e+01 -5.296689510345458984e+00 -2.828212499618530273e+00 -2.747113816440105438e-03 -8.492879271507263184e-01 1.225613057613372803e-01
5.140000000000000000e+02 4.823624420166015625e+01 -6.036650180816650391e+00 -3.059414386749267578e+00 9.505847119726240635e-04 -9.175391793251037598e-01 2.615446783602237701e-02
5.150000000000000000e+02 4.898653793334960938e+01 -6.028829574584960938e+00 -3.164087533950805664e+00 -1.589309773407876492e-03 -9.497030377388000488e-01 2.723468095064163208e-02
5.160000000000000000e+02 4.973693847656250000e+01 -6.021259307861328125e+00 -3.274421215057373047e+00 -1.329083926975727081e-03 -9.827250838279724121e-01 3.067802637815475464e-02
5.170000000000000000e+02 4.973123168945312500e+01 -5.281280040740966797e+00 -3.001409530639648438e+00 -5.424020346254110336e-03 -9.020500779151916504e-01 1.282479763031005859e-01
5.180000000000000000e+02 4.747710418701171875e+01 -5.303378582000732422e+00 -2.735193729400634766e+00 -2.715489361435174942e-03 -8.213727474212646484e-01 1.205875501036643982e-01
5.190000000000000000e+02 4.897986984252929688e+01 -5.288859844207763672e+00 -2.917083501815795898e+00 -8.594631799496710300e-04 -8.753829002380371094e-01 1.264810115098953247e-01
5.200000000000000000e+02 4.448383331298828125e+01 -6.086326122283935547e+00 -2.531618118286132812e+00 -2.029356546700000763e-03 -7.600942254066467285e-01 1.359698735177516937e-02
5.210000000000000000e+02 4.522269439697265625e+01 -5.335564136505126953e+00 -2.458738088607788086e+00 -8.138960110954940319e-04 -7.378656268119812012e-01 1.156027615070343018e-01
5.220000000000000000e+02 4.523437500000000000e+01 -6.075472354888916016e+00 -2.633657693862915039e+00 7.793370750732719898e-04 -7.898635268211364746e-01 1.523908227682113647e-02
5.230000000000000000e+02 4.598466110229492188e+01 -6.063519477844238281e+00 -2.740361213684082031e+00 -8.950356859713792801e-04 -8.223769068717956543e-01 1.580563373863697052e-02
5.240000000000000000e+02 4.673505020141601562e+01 -6.051823139190673828e+00 -2.852983713150024414e+00 -1.328534795902669430e-03 -8.562936782836914062e-01 1.855168305337429047e-02
5.250000000000000000e+02 4.672545623779296875e+01 -5.311883449554443359e+00 -2.642890691757202148e+00 -4.088355693966150284e-03 -7.940937280654907227e-01 1.213118433952331543e-01
5.260000000000000000e+02 4.447110748291015625e+01 -5.346434116363525391e+00 -2.361773967742919922e+00 -1.311906729824841022e-03 -7.089257240295410156e-01 1.138303503394126892e-01
5.270000000000000000e+02 4.597402191162109375e+01 -5.323595523834228516e+00 -2.552680015563964844e+00 -2.188228063459973782e-05 -7.658106088638305664e-01 1.190078705549240112e-01
5.280000000000000000e+02 4.223370742797851562e+01 -6.133643150329589844e+00 -2.203850746154785156e+00 1.238830853253602982e-03 -6.607835888862609863e-01 8.399004116654396057e-03
5.290000000000000000e+02 4.148229217529296875e+01 -6.146579742431640625e+00 -2.100181579589843750e+00 -9.869149653241038322e-04 -6.303505301475524902e-01 8.362520486116409302e-03
5.300000000000000000e+02 4.221790695190429688e+01 -5.393811225891113281e+00 -2.076594352722167969e+00 1.577425748109817505e-03 -6.225050687789916992e-01 1.099974066019058228e-01
5.310000000000000000e+02 4.298408889770507812e+01 -6.118122577667236328e+00 -2.311846017837524414e+00 -6.739542732248082757e-05 -6.935740113258361816e-01 7.534959353506565094e-03
5.320000000000000000e+02 4.373342132568359375e+01 -6.099862575531005859e+00 -2.424219369888305664e+00 -1.567400526255369186e-03 -7.277359962463378906e-01 9.571320377290248871e-03
5.330000000000000000e+02 4.371966552734375000e+01 -5.359988689422607422e+00 -2.266218423843383789e+00 -1.559147611260414124e-03 -6.803332567214965820e-01 1.149798929691314697e-01
5.340000000000000000e+02 4.146547317504882812e+01 -5.406769752502441406e+00 -1.976966023445129395e+00 1.010185107588768005e-03 -5.927867889404296875e-01 1.098473519086837769e-01
5.350000000000000000e+02 4.296931076049804688e+01 -5.378270149230957031e+00 -2.173297405242919922e+00 1.621468458324670792e-03 -6.515027880668640137e-01 1.129203438758850098e-01
5.360000000000000000e+02 3.846181488037109375e+01 -5.483074665069580078e+00 -1.591214537620544434e+00 4.145946819335222244e-03 -4.761205613613128662e-01 1.095840707421302795e-01
5.370000000000000000e+02 3.848166656494140625e+01 -6.222808361053466797e+00 -1.669394135475158691e+00 5.448128213174641132e-04 -5.006548166275024414e-01 8.707785047590732574e-03
5.380000000000000000e+02 3.923187255859375000e+01 -6.203719139099121094e+00 -1.773988723754882812e+00 1.120362081564962864e-03 -5.318605303764343262e-01 7.411224767565727234e-03
5.390000000000000000e+02 3.998181152343750000e+01 -6.183495998382568359e+00 -1.881034851074218750e+00 5.657274741679430008e-04 -5.641407370567321777e-01 6.059246603399515152e-03
5.400000000000000000e+02 4.073185729980468750e+01 -6.163486957550048828e+00 -1.992339730262756348e+00 -5.885285791009664536e-04 -5.978784561157226562e-01 6.426539272069931030e-03
5.410000000000000000e+02 4.071416854858398438e+01 -5.423696517944335938e+00 -1.880513310432434082e+00 1.084582065232098103e-03 -5.638286471366882324e-01 1.111483946442604065e-01
5.420000000000000000e+02 3.921274185180664062e+01 -5.463966846466064453e+00 -1.688235282897949219e+00 3.916901070624589920e-03 -5.052955150604248047e-01 1.093176826834678650e-01
5.430000000000000000e+02 3.996340179443359375e+01 -5.443724155426025391e+00 -1.785320997238159180e+00 3.507024142891168594e-03 -5.345442295074462891e-01 1.105144023895263672e-01
5.440000000000000000e+02 3.698171997070312500e+01 -6.262598514556884766e+00 -1.458185434341430664e+00 1.038939575664699078e-03 -4.371439516544342041e-01 1.132666226476430893e-02
5.450000000000000000e+02 3.621255493164062500e+01 -5.544963359832763672e+00 -1.306829690933227539e+00 5.852289497852325439e-03 -3.902932405471801758e-01 1.120704859495162964e-01
5.460000000000000000e+02 3.548279571533203125e+01 -6.306656837463378906e+00 -1.251348018646240234e+00 1.994690159335732460e-03 -3.748060166835784912e-01 1.615532115101814270e-02
5.470000000000000000e+02 3.771127700805664062e+01 -5.501970291137695312e+00 -1.495234131813049316e+00 4.158950410783290863e-03 -4.473225474357604980e-01 1.107338294386863708e-01
5.480000000000000000e+02 3.773139953613281250e+01 -6.241697311401367188e+00 -1.564065814018249512e+00 1.049870043061673641e-03 -4.689047634601593018e-01 9.808935225009918213e-03
5.490000000000000000e+02 3.546322250366210938e+01 -5.566914081573486328e+00 -1.214789628982543945e+00 6.911144126206636429e-03 -3.623635470867156982e-01 1.126496493816375732e-01
5.500000000000000000e+02 3.696178054809570312e+01 -5.522866249084472656e+00 -1.400999665260314941e+00 5.392041988670825958e-03 -4.186822772026062012e-01 1.113671958446502686e-01
5.510000000000000000e+02 3.623231124877929688e+01 -6.284700870513916016e+00 -1.354408502578735352e+00 1.635553548112511635e-03 -4.058319032192230225e-01 1.331559102982282639e-02
5.520000000000000000e+02 3.323463058471679688e+01 -6.359344959259033203e+00 -9.612960815429687500e-01 1.366144511848688126e-03 -2.879789769649505615e-01 2.525455318391323090e-02
5.530000000000000000e+02 3.321954727172851562e+01 -5.619493961334228516e+00 -9.460070729255676270e-01 5.485165864229202271e-03 -2.821565866470336914e-01 1.163898929953575134e-01
5.540000000000000000e+02 3.248681640625000000e+01 -6.379900932312011719e+00 -8.646174669265747070e-01 2.656540134921669960e-03 -2.585882842540740967e-01 2.803790010511875153e-02
5.550000000000000000e+02 3.398349380493164062e+01 -6.341384410858154297e+00 -1.056861162185668945e+00 1.696667168289422989e-03 -3.165493309497833252e-01 2.332476153969764709e-02
5.560000000000000000e+02 3.471478271484375000e+01 -5.586100101470947266e+00 -1.123572468757629395e+00 6.418467499315738678e-03 -3.351461887359619141e-01 1.130239740014076233e-01
5.570000000000000000e+02 3.473338699340820312e+01 -6.325866699218750000e+00 -1.152422785758972168e+00 2.657348755747079849e-03 -3.449296057224273682e-01 1.991852559149265289e-02
5.580000000000000000e+02 3.247348785400390625e+01 -5.640007495880126953e+00 -8.627986311912536621e-01 6.426646374166011810e-03 -2.569116055965423584e-01 1.160341948270797729e-01
5.590000000000000000e+02 3.396664810180664062e+01 -5.601575374603271484e+00 -1.033522605895996094e+00 5.670096259564161301e-03 -3.083557486534118652e-01 1.143797114491462708e-01
5.600000000000000000e+02 3.099083137512207031e+01 -6.399948596954345703e+00 -6.941477656364440918e-01 5.304326768964529037e-04 -2.080851942300796509e-01 3.537566959857940674e-02
5.610000000000000000e+02 3.024179267883300781e+01 -5.667771339416503906e+00 -6.221252083778381348e-01 1.395314116962254047e-03 -1.862189620733261108e-01 1.157044023275375366e-01
5.620000000000000000e+02 2.949573898315429688e+01 -6.414954185485839844e+00 -5.253636240959167480e-01 1.771993236616253853e-03 -1.570774912834167480e-01 3.776424005627632141e-02
5.630000000000000000e+02 3.172830200195312500e+01 -5.652883052825927734e+00 -7.800471186637878418e-01 5.083389114588499069e-03 -2.324891090393066406e-01 1.146580949425697327e-01
5.640000000000000000e+02 3.173856925964355469e+01 -6.392818927764892578e+00 -7.758991718292236328e-01 2.790549769997596741e-03 -2.319325804710388184e-01 3.259228169918060303e-02
5.650000000000000000e+02 2.949855422973632812e+01 -5.674893379211425781e+00 -5.501971244812011719e-01 1.958193024620413780e-03 -1.644716709852218628e-01 1.134021729230880737e-01
5.660000000000000000e+02 3.098492622375488281e+01 -5.659971237182617188e+00 -6.988580226898193359e-01 2.737428061664104462e-03 -2.088361680507659912e-01 1.150092110037803650e-01
5.670000000000000000e+02 3.024333572387695312e+01 -6.407790660858154297e+00 -6.102659106254577637e-01 6.648109992966055870e-04 -1.828803271055221558e-01 3.594095259904861450e-02
5.680000000000000000e+02 2.800358009338378906e+01 -6.392907142639160156e+00 -3.869975209236145020e-01 -2.084953710436820984e-03 -1.167247444391250610e-01 4.229339212179183960e-02
5.690000000000000000e+02 2.728431129455566406e+01 -5.636834621429443359e+00 -3.510726094245910645e-01 -7.158761378377676010e-03 -1.074694097042083740e-01 1.046855449676513672e-01
5.700000000000000000e+02 2.651304817199707031e+01 -6.358762741088867188e+00 -2.544551193714141846e-01 -1.703534740954637527e-03 -7.684759795665740967e-02 3.842499479651451111e-02
5.710000000000000000e+02 2.875823974609375000e+01 -5.669638156890869141e+00 -4.802828729152679443e-01 -6.472161621786653996e-04 -1.442790329456329346e-01 1.093557178974151611e-01
5.720000000000000000e+02 2.874904632568359375e+01 -6.409622669219970703e+00 -4.514487087726593018e-01 1.100918161682784557e-03 -1.351043432950973511e-01 4.131926596164703369e-02
5.730000000000000000e+02 2.654741096496582031e+01 -5.619358539581298828e+00 -2.942564189434051514e-01 -7.501496933400630951e-03 -9.052737802267074585e-02 9.853561222553253174e-02
5.740000000000000000e+02 2.802116203308105469e+01 -5.653115749359130859e+00 -4.127457141876220703e-01 -4.303461406379938126e-03 -1.251147538423538208e-01 1.072650030255317688e-01
5.750000000000000000e+02 2.725833702087402344e+01 -6.376431941986083984e+00 -3.203971982002258301e-01 -1.937354099936783314e-03 -9.670036286115646362e-02 4.019932448863983154e-02
5.760000000000000000e+02 2.428754043579101562e+01 -6.197861671447753906e+00 -1.100244745612144470e-01 -4.988386761397123337e-03 -3.450385853648185730e-02 3.067886270582675934e-02
5.770000000000000000e+02 2.435861396789550781e+01 -5.461198806762695312e+00 -1.501073092222213745e-01 -1.735449582338333130e-02 -5.023853853344917297e-02 7.659993320703506470e-02
5.780000000000000000e+02 2.354777717590332031e+01 -6.138960838317871094e+00 -6.973851472139358521e-02 -5.683072842657566071e-03 -2.262647636234760284e-02 2.437219023704528809e-02
5.790000000000000000e+02 2.502826499938964844e+01 -6.258197307586669922e+00 -1.545707583427429199e-01 -5.551343783736228943e-03 -4.803663119673728943e-02 3.575796261429786682e-02
5.800000000000000000e+02 2.581491851806640625e+01 -5.581003189086914062e+00 -2.412037551403045654e-01 -1.066853292286396027e-02 -7.556168735027313232e-02 9.070916473865509033e-02
5.810000000000000000e+02 2.576985549926757812e+01 -6.319781780242919922e+00 -1.997759789228439331e-01 -2.617880469188094139e-03 -6.071816012263298035e-02 3.808193653821945190e-02
5.820000000000000000e+02 2.363185691833496094e+01 -5.403356075286865234e+00 -1.119196116924285889e-01 -1.738623343408107758e-02 -3.879175335168838501e-02 6.566856056451797485e-02
5.830000000000000000e+02 2.508633232116699219e+01 -5.520476818084716797e+00 -1.924969702959060669e-01 -1.404544711112976074e-02 -6.196272373199462891e-02 8.472223579883575439e-02
5.840000000000000000e+02 2.146717453002929688e+01 -5.077126979827880859e+00 -3.480413556098937988e-02 -1.857564225792884827e-02 -1.601393334567546844e-02 2.910040318965911865e-02
5.850000000000000000e+02 2.134441947937011719e+01 -5.806876659393310547e+00 8.254485437646508217e-04 -2.644378459081053734e-03 -5.456789513118565083e-04 7.512215990573167801e-03
5.860000000000000000e+02 2.061148262023925781e+01 -5.684748649597167969e+00 1.094502210617065430e-02 -4.465689882636070251e-03 1.943799550645053387e-03 1.489628921262919903e-03
5.870000000000000000e+02 2.207760429382324219e+01 -5.928263664245605469e+00 -1.636691577732563019e-02 -6.567500066012144089e-03 -6.880324799567461014e-03 1.283133029937744141e-02
5.880000000000000000e+02 2.290797805786132812e+01 -5.314875125885009766e+00 -8.012426644563674927e-02 -1.943472772836685181e-02 -2.986769936978816986e-02 5.350248888134956360e-02
5.890000000000000000e+02 2.281096076965332031e+01 -6.048885822296142578e+00 -3.864224627614021301e-02 -4.752865526825189590e-03 -1.301853358745574951e-02 1.915433257818222046e-02
5.900000000000000000e+02 2.074710655212402344e+01 -4.957129478454589844e+00 -2.210736460983753204e-02 -1.313518639653921127e-02 -1.057276502251625061e-02 1.753468066453933716e-02
5.910000000000000000e+02 2.218749046325683594e+01 -5.196383476257324219e+00 -5.380033701658248901e-02 -1.927785016596317291e-02 -2.192345634102821350e-02 4.288329929113388062e-02
5.920000000000000000e+02 1.905580329895019531e+01 -4.613489627838134766e+00 -2.506572636775672436e-04 2.626923145726323128e-03 7.128797587938606739e-04 -5.532064009457826614e-03
5.930000000000000000e+02 1.978026580810546875e+01 -5.523462295532226562e+00 1.086796168237924576e-02 -6.456758128479123116e-04 3.066685749217867851e-03 -4.223192576318979263e-03
5.940000000000000000e+02 1.992511749267578125e+01 -4.797539234161376953e+00 -1.000822428613901138e-02 -1.352857705205678940e-02 -7.061040494590997696e-03 4.394917748868465424e-03
5.950000000000000000e+02 1.847771644592285156e+01 -4.667171001434326172e+00 6.332030170597136021e-04 1.304887235164642334e-02 4.104622639715671539e-03 -2.303320681676268578e-03
5.960000000000000000e+02 1.890536689758300781e+01 -5.338151454925537109e+00 2.919999184086918831e-03 1.843507983721792698e-03 1.429052092134952545e-03 -4.514379426836967468e-03
5.970000000000000000e+02 1.882146453857421875e+01 -6.111851215362548828e+00 -2.207697834819555283e-03 -1.881222997326403856e-04 -7.187460432760417461e-04 -3.474523313343524933e-03
5.980000000000000000e+02 1.800308799743652344e+01 -6.754832744598388672e+00 2.761891344562172890e-03 -2.773148752748966217e-02 -7.490878459066152573e-03 -8.011413738131523132e-03
5.990000000000000000e+02 1.831862449645996094e+01 -6.817986488342285156e+00 -2.519381605088710785e-02 -1.221743132919073105e-02 -1.122337486594915390e-02 -2.018508501350879669e-02
6.000000000000000000e+02 1.959215354919433594e+01 -7.028707504272460938e+00 -1.009324267506599426e-01 -2.661503152921795845e-03 -3.107817843556404114e-02 -4.185565561056137085e-02
6.010000000000000000e+02 1.890554809570312500e+01 -6.889476776123046875e+00 -5.393695458769798279e-02 -1.324926223605871201e-02 -2.015586569905281067e-02 -2.946991100907325745e-02
6.020000000000000000e+02 1.965883255004882812e+01 -6.285129547119140625e+00 -3.036085329949855804e-02 -2.685991814360022545e-03 -9.914053604006767273e-03 -1.136349141597747803e-02
6.030000000000000000e+02 1.828899765014648438e+01 -6.266255378723144531e+00 3.060528310015797615e-03 4.464479628950357437e-03 2.257502404972910881e-03 3.659379668533802032e-03
6.040000000000000000e+02 1.796524238586425781e+01 -6.500696659088134766e+00 7.626509293913841248e-03 -8.598995045758783817e-04 2.029983093962073326e-03 7.915658876299858093e-03
6.050000000000000000e+02 1.875696182250976562e+01 -7.508526325225830078e+00 -8.469050377607345581e-02 -2.098892256617546082e-02 -3.170382976531982422e-02 -5.982894822955131531e-02
6.060000000000000000e+02 1.716635131835937500e+01 -9.410809516906738281e+00 -9.884970635175704956e-02 -1.166291609406471252e-01 -6.464365869760513306e-02 -1.197259128093719482e-01
6.070000000000000000e+02 2.258934211730957031e+01 -9.237417221069335938e+00 -3.908891677856445312e-01 1.054050214588642120e-02 -1.141045987606048584e-01 -1.820272654294967651e-01
6.080000000000000000e+02 2.799277114868164062e+01 -8.649847984313964844e+00 -7.825796604156494141e-01 -9.705671109259128571e-03 -2.376855909824371338e-01 -1.522511243820190430e-01
6.090000000000000000e+02 2.412100219726562500e+01 -8.484346389770507812e+00 -4.793195128440856934e-01 8.574054576456546783e-03 -1.412236392498016357e-01 -1.358424425125122070e-01
6.100000000000000000e+02 1.499871349334716797e+01 -1.274099445343017578e+01 -2.483195215463638306e-01 -3.732176125049591064e-01 -1.864611357450485229e-01 -2.963584661483764648e-01
6.110000000000000000e+02 1.242946529388427734e+01 -1.603982925415039062e+01 -3.790528178215026855e-01 -3.966984748840332031e-01 -2.327253818511962891e-01 -3.825543820858001709e-01
6.120000000000000000e+02 1.431261634826660156e+01 -1.576845836639404297e+01 -3.416523635387420654e-01 -3.272929489612579346e-01 -2.006835937500000000e-01 -3.234296441078186035e-01
6.130000000000000000e+02 1.430655574798583984e+01 -2.302837181091308594e+01 -5.638056620955467224e-02 -3.186946511268615723e-01 -1.125225648283958435e-01 -2.686015963554382324e-01
6.140000000000000000e+02 1.688962936401367188e+01 -3.257463073730468750e+01 2.068888694047927856e-01 -3.487787842750549316e-01 -4.256697744131088257e-02 -2.158194333314895630e-01
6.150000000000000000e+02 1.761895942687988281e+01 -4.063525390625000000e+01 2.896997928619384766e-01 -3.677402734756469727e-01 -2.341214008629322052e-02 -4.651678353548049927e-02
6.160000000000000000e+02 2.246968078613281250e+01 -4.083984375000000000e+01 4.181143045425415039e-01 -3.254026770591735840e-01 2.781348489224910736e-02 -4.030131548643112183e-02
6.170000000000000000e+02 1.845293998718261719e+01 -3.697183609008789062e+01 2.901627719402313232e-01 -3.577907979488372803e-01 -2.028840780258178711e-02 -1.315601170063018799e-01
6.180000000000000000e+02 2.317323684692382812e+01 -3.095695114135742188e+01 2.644214332103729248e-01 -2.819768786430358887e-01 -5.266637541353702545e-03 -2.865967452526092529e-01
6.190000000000000000e+02 2.079094505310058594e+01 -2.196815299987792969e+01 -1.081787794828414917e-01 -1.958566009998321533e-01 -9.121061116456985474e-02 -3.538408279418945312e-01
6.200000000000000000e+02 2.398017692565917969e+01 -1.395413398742675781e+01 -4.395949840545654297e-01 -3.087192587554454803e-02 -1.411400735378265381e-01 -3.734579980373382568e-01
6.210000000000000000e+02 2.309650421142578125e+01 -1.403692054748535156e+01 -4.203349947929382324e-01 -3.370946273207664490e-02 -1.362133324146270752e-01 -3.652608096599578857e-01
6.220000000000000000e+02 1.332864379882812500e+01 -1.495690441131591797e+01 -3.543311953544616699e-01 -3.990598320960998535e-01 -2.260173112154006958e-01 -3.677963018417358398e-01
6.230000000000000000e+02 1.148075580596923828e+01 -1.717934799194335938e+01 -4.530871510505676270e-01 -3.832626044750213623e-01 -2.509049177169799805e-01 -3.742305040359497070e-01
6.240000000000000000e+02 1.028691577911376953e+01 -1.807929801940917969e+01 -5.446484684944152832e-01 -3.094170391559600830e-01 -2.562196552753448486e-01 -3.118206858634948730e-01
6.250000000000000000e+02 8.986795425415039062e+00 -1.837693977355957031e+01 -3.825296163558959961e-01 -1.072705462574958801e-01 -1.469400525093078613e-01 -1.690497696399688721e-01
6.260000000000000000e+02 7.192097663879394531e+00 -1.736559295654296875e+01 -5.993960052728652954e-02 3.103182278573513031e-02 -8.672333322465419769e-03 -1.552014425396919250e-02
6.270000000000000000e+02 6.376432418823242188e+00 -1.639575958251953125e+01 3.887447994202375412e-03 6.022695917636156082e-03 2.973043126985430717e-03 -8.745206519961357117e-03
6.280000000000000000e+02 7.093938827514648438e+00 -1.513329696655273438e+01 4.729270935058593750e-03 2.409316971898078918e-02 8.646732196211814880e-03 -7.228677626699209213e-03
6.290000000000000000e+02 8.846447944641113281e+00 -1.149714183807373047e+01 -3.444310568738728762e-04 -5.658126319758594036e-04 -2.730731212068349123e-04 4.037554899696260691e-04
6.300000000000000000e+02 9.636271476745605469e+00 -1.033491325378417969e+01 -3.367577301105484366e-05 1.565109996590763330e-04 3.685056435642763972e-05 -2.761642681434750557e-04
6.310000000000000000e+02 1.215082168579101562e+01 -7.060327053070068359e+00 1.951668527908623219e-04 -4.334446566645056009e-05 4.554671613732352853e-05 -6.649131682934239507e-05
6.320000000000000000e+02 1.173870849609375000e+01 -2.754559278488159180e+00 9.724048868520185351e-05 1.379196619382128119e-04 7.054804882500320673e-05 -2.688225504243746400e-05
6.330000000000000000e+02 1.226977157592773438e+01 -4.650550842285156250e+00 -1.652181381359696388e-04 -9.579243487678468227e-05 -7.830317190382629633e-05 1.387045813316944987e-05
6.340000000000000000e+02 1.105350303649902344e+01 -1.914656281471252441e+00 3.751410258701071143e-05 1.537533680675551295e-04 5.738024265156127512e-05 1.630649421713314950e-05
6.350000000000000000e+02 4.280574321746826172e+00 -1.941288113594055176e+00 -4.942356099491007626e-05 -4.946993431076407433e-05 -2.966804822790436447e-05 -1.278492272831499577e-04
6.360000000000000000e+02 1.635834693908691406e+00 -1.467364025115966797e+01 2.735610352829098701e-03 3.369963262230157852e-03 1.831672037951648235e-03 6.258314009755849838e-03
6.370000000000000000e+02 4.426816463470458984e+00 -1.862478828430175781e+01 -6.831398606300354004e-02 -2.668355219066143036e-02 -2.849926054477691650e-02 -2.993796020746231079e-02
6.380000000000000000e+02 6.719167232513427734e-01 -2.478358459472656250e+01 -2.678348449990153313e-03 -1.127067282795906067e-01 -3.461552038788795471e-02 -2.655696868896484375e-02
6.390000000000000000e+02 7.749600410461425781e-01 -3.190092468261718750e+01 2.756859874352812767e-03 -3.932654261589050293e-01 -1.171525642275810242e-01 -2.623454853892326355e-02
6.400000000000000000e+02 2.799794435501098633e+00 -3.793556976318359375e+01 1.490006595849990845e-02 -4.835053384304046631e-01 -1.405815780162811279e-01 -2.977499924600124359e-02
6.410000000000000000e+02 7.989515066146850586e-01 -3.729287338256835938e+01 9.189063566736876965e-04 -5.189527273178100586e-01 -1.554101556539535522e-01 -5.423316732048988342e-03
6.420000000000000000e+02 8.725872039794921875e+00 -3.817740249633789062e+01 1.000864431262016296e-01 -4.064721465110778809e-01 -9.191571921110153198e-02 -7.784311473369598389e-02
6.430000000000000000e+02 7.726624965667724609e+00 -3.325361251831054688e+01 6.567421555519104004e-02 -3.712544441223144531e-01 -9.167406708002090454e-02 -1.548693180084228516e-01
6.440000000000000000e+02 1.257199382781982422e+01 -2.131409263610839844e+01 -1.143865361809730530e-01 -3.323831558227539062e-01 -1.340309083461761475e-01 -2.572810947895050049e-01
6.450000000000000000e+02 1.129128646850585938e+01 -2.287431716918945312e+01 -5.394638329744338989e-02 -3.226942420005798340e-01 -1.129921823740005493e-01 -2.566183805465698242e-01
6.460000000000000000e+02 6.407520771026611328e-01 -2.335608863830566406e+01 -1.895546563901007175e-03 -6.089304015040397644e-02 -1.883657649159431458e-02 -2.153909020125865936e-02
6.470000000000000000e+02 1.254805850982666016e+01 -1.999585270881652832e+00 1.162905100500211120e-04 5.154816244612447917e-05 5.035160211264155805e-05 3.214269599993713200e-05
6.480000000000000000e+02 2.714339065551757812e+01 -4.079199218750000000e+01 5.451365709304809570e-01 -2.570328414440155029e-01 8.643112331628799438e-02 -4.214217513799667358e-02
6.490000000000000000e+02 2.888817214965820312e+01 -3.382848358154296875e+01 4.779269695281982422e-01 -2.082368880510330200e-01 8.090702444314956665e-02 -2.375633716583251953e-01
6.500000000000000000e+02 2.881159782409667969e+01 -2.255765724182128906e+01 -1.131753250956535339e-02 -1.411470919847488403e-01 -4.573938623070716858e-02 -4.721369743347167969e-01
6.510000000000000000e+02 3.040630149841308594e+01 -1.407077312469482422e+01 -5.977292060852050781e-01 -5.197364836931228638e-02 -1.949108541011810303e-01 -4.440123438835144043e-01
6.520000000000000000e+02 3.105183982849121094e+01 -8.648345947265625000e+00 -1.021868348121643066e+00 -1.553605403751134872e-02 -3.112213313579559326e-01 -1.698091924190521240e-01
6.530000000000000000e+02 2.960954093933105469e+01 -9.388546943664550781e+00 -8.625375628471374512e-01 -1.814714819192886353e-02 -2.642053961753845215e-01 -2.150240987539291382e-01
6.540000000000000000e+02 3.842200851440429688e+01 -4.036508178710937500e+01 8.461617231369018555e-01 1.787987053394317627e-01 3.074881136417388916e-01 -4.826151579618453979e-02
6.550000000000000000e+02 3.819454574584960938e+01 -3.211332702636718750e+01 6.762130856513977051e-01 1.201028898358345032e-01 2.388947904109954834e-01 -2.508619427680969238e-01
6.560000000000000000e+02 3.787709045410156250e+01 -2.484387969970703125e+01 2.932221293449401855e-01 1.231344323605298996e-02 9.166067093610763550e-02 -4.375158250331878662e-01
6.570000000000000000e+02 3.891925430297851562e+01 -1.462489986419677734e+01 -7.522608637809753418e-01 -3.894544020295143127e-02 -2.373618930578231812e-01 -5.071361660957336426e-01
6.580000000000000000e+02 3.933345794677734375e+01 -8.447060585021972656e+00 -1.680616140365600586e+00 -9.871724992990493774e-03 -5.071463584899902344e-01 -2.145373523235321045e-01
6.590000000000000000e+02 3.794009399414062500e+01 -9.201741218566894531e+00 -1.466088294982910156e+00 -1.596711762249469757e-02 -4.446166455745697021e-01 -2.625676393508911133e-01
6.600000000000000000e+02 3.633467483520507812e+01 -8.530594825744628906e+00 -1.435583829879760742e+00 -1.388262677937746048e-02 -4.348399341106414795e-01 -2.019934803247451782e-01
6.610000000000000000e+02 4.287603378295898438e+01 -4.072804260253906250e+01 9.463055729866027832e-01 5.486667752265930176e-01 4.484916925430297852e-01 -2.163922041654586792e-02
6.620000000000000000e+02 4.000416183471679688e+01 -3.645605087280273438e+01 8.362489938735961914e-01 2.759704291820526123e-01 3.336658179759979248e-01 -1.334100812673568726e-01
6.630000000000000000e+02 4.484389877319335938e+01 -3.085444641113281250e+01 7.808114886283874512e-01 5.893694758415222168e-01 4.110542833805084229e-01 -1.414477527141571045e-01
6.640000000000000000e+02 4.125926208496093750e+01 -2.285307884216308594e+01 2.153370827436447144e-01 1.070510745048522949e-01 9.671644866466522217e-02 -4.275966286659240723e-01
6.650000000000000000e+02 4.681045150756835938e+01 -8.293006896972656250e+00 -2.331277608871459961e+00 -1.157576451078057289e-03 -6.997305154800415039e-01 -2.288203984498977661e-01
6.660000000000000000e+02 4.307304382324218750e+01 -8.356851577758789062e+00 -2.000140428543090820e+00 -5.115403328090906143e-03 -6.015767455101013184e-01 -2.252353727817535400e-01
6.670000000000000000e+02 4.392443084716796875e+01 -9.047587394714355469e+00 -1.923702955245971680e+00 -6.523732561618089676e-03 -5.790680050849914551e-01 -2.826330959796905518e-01
6.680000000000000000e+02 4.232564544677734375e+01 -8.372889518737792969e+00 -1.934423208236694336e+00 -6.832995917648077011e-03 -5.823768377304077148e-01 -2.235964387655258179e-01
6.690000000000000000e+02 4.758110427856445312e+01 -4.087714004516601562e+01 9.786910414695739746e-01 1.100247740745544434e+00 6.236816048622131348e-01 2.116169780492782593e-03
6.700000000000000000e+02 4.773648452758789062e+01 -3.757207107543945312e+01 9.572004079818725586e-01 1.089545726776123047e+00 6.140238046646118164e-01 7.528449641540646553e-04
6.710000000000000000e+02 4.794513320922851562e+01 -3.123737144470214844e+01 8.291739225387573242e-01 9.623377323150634766e-01 5.374534726142883301e-01 -2.467872761189937592e-02
6.720000000000000000e+02 4.884260940551757812e+01 -2.208837699890136719e+01 3.277550935745239258e-01 5.536355376243591309e-01 2.644172012805938721e-01 -1.209861859679222107e-01
6.730000000000000000e+02 5.176322555541992188e+01 -1.528698348999023438e+01 -5.204383730888366699e-01 2.824626863002777100e-01 -7.139270752668380737e-02 -1.540241241455078125e-01
6.740000000000000000e+02 5.279083251953125000e+01 -8.242243766784667969e+00 -2.830722570419311523e+00 3.607610939070582390e-03 -8.481344580650329590e-01 -2.145051807165145874e-01
6.750000000000000000e+02 5.138670730590820312e+01 -8.950750350952148438e+00 -2.455030679702758789e+00 6.453799549490213394e-03 -7.345730662345886230e-01 -2.670275568962097168e-01
6.760000000000000000e+02 4.979933929443359375e+01 -8.261919975280761719e+00 -2.592570781707763672e+00 1.164270564913749695e-03 -7.774219512939453125e-01 -2.250338345766067505e-01
6.770000000000000000e+02 6.234261703491210938e+01 -4.058732604980468750e+01 6.070734262466430664e-01 4.061742305755615234e+00 1.400644779205322266e+00 9.303221851587295532e-02
6.780000000000000000e+02 5.731279373168945312e+01 -4.057910919189453125e+01 8.039731979370117188e-01 2.935366153717041016e+00 1.121801733970642090e+00 7.338691502809524536e-02
6.790000000000000000e+02 5.761574554443359375e+01 -3.244923400878906250e+01 7.262191176414489746e-01 2.749258756637573242e+00 1.042643427848815918e+00 3.453059494495391846e-01
6.800000000000000000e+02 5.419992065429687500e+01 -2.185066604614257812e+01 4.373304545879364014e-01 1.289492011070251465e+00 5.180467367172241211e-01 3.368212580680847168e-01
6.810000000000000000e+02 5.802518463134765625e+01 -8.201584815979003906e+00 -3.049543142318725586e+00 2.470455877482891083e-02 -9.074516296386718750e-01 -1.299818754196166992e-01
6.820000000000000000e+02 5.437584304809570312e+01 -8.919805526733398438e+00 -2.590752840042114258e+00 1.810554042458534241e-02 -7.717941999435424805e-01 -2.282116860151290894e-01
6.830000000000000000e+02 5.503556823730468750e+01 -8.229990959167480469e+00 -2.972328662872314453e+00 1.000038068741559982e-02 -8.886985182762145996e-01 -1.939205229282379150e-01
6.840000000000000000e+02 6.278676605224609375e+01 -3.698305130004882812e+01 5.650857686996459961e-01 4.195722103118896484e+00 1.428242444992065430e+00 2.607617676258087158e-01
6.850000000000000000e+02 6.339580917358398438e+01 -3.399705505371093750e+01 4.806369841098785400e-01 4.411415576934814453e+00 1.467615723609924316e+00 4.420994818210601807e-01
6.860000000000000000e+02 6.469052886962890625e+01 -2.330307769775390625e+01 1.926600560545921326e-02 4.808759212493896484e+00 1.448407530784606934e+00 1.061349630355834961e+00
6.870000000000000000e+02 6.235478210449218750e+01 -1.393377494812011719e+01 -1.067324262112379074e-02 2.581824302673339844e+00 7.713453173637390137e-01 1.800369143486022949e+00
6.880000000000000000e+02 6.417747497558593750e+01 -8.110834121704101562e+00 -1.382162570953369141e+00 4.265151321887969971e-01 -2.866942286491394043e-01 9.302226305007934570e-01
6.890000000000000000e+02 6.359126663208007812e+01 -8.112439155578613281e+00 -1.855807900428771973e+00 2.760086357593536377e-01 -4.739397764205932617e-01 6.636456251144409180e-01
6.900000000000000000e+02 6.099731826782226562e+01 -8.148414611816406250e+00 -2.812160968780517578e+00 7.020662724971771240e-02 -8.225862979888916016e-01 5.203652381896972656e-02
6.910000000000000000e+02 6.721847534179687500e+01 -4.082361602783203125e+01 3.698851466178894043e-01 5.403142452239990234e+00 1.731908321380615234e+00 6.968422234058380127e-02
6.920000000000000000e+02 6.921947479248046875e+01 -3.683962631225585938e+01 2.592439353466033936e-01 5.961374759674072266e+00 1.866185665130615234e+00 1.882258802652359009e-01
6.930000000000000000e+02 7.269017028808593750e+01 -3.089537429809570312e+01 5.298413708806037903e-02 7.040711402893066406e+00 2.128108739852905273e+00 3.507890105247497559e-01
6.940000000000000000e+02 7.232250213623046875e+01 -2.198736763000488281e+01 -4.319885671138763428e-01 7.608136177062988281e+00 2.152844190597534180e+00 3.334275782108306885e-01
6.950000000000000000e+02 7.330377960205078125e+01 -1.766859245300292969e+01 -7.963017821311950684e-01 8.512010574340820312e+00 2.314712524414062500e+00 -1.603423506021499634e-01
6.960000000000000000e+02 7.796409606933593750e+01 -4.164914321899414062e+01 1.035015881061553955e-01 8.029159545898437500e+00 2.439798355102539062e+00 2.907250262796878815e-02
6.970000000000000000e+02 7.794557952880859375e+01 -3.692485427856445312e+01 -2.346539695281535387e-04 8.084998130798339844e+00 2.425429105758666992e+00 9.563849121332168579e-02
6.980000000000000000e+02 7.806109619140625000e+01 -3.065390205383300781e+01 1.908550388179719448e-03 8.396235466003417969e+00 2.519443273544311523e+00 1.105482205748558044e-01
6.990000000000000000e+02 7.821459197998046875e+01 -2.356789779663085938e+01 -3.713104873895645142e-02 8.737034797668457031e+00 2.609971284866333008e+00 1.434761844575405121e-02
7.000000000000000000e+02 7.843138122558593750e+01 -1.666753768920898438e+01 -8.444137126207351685e-02 8.261162757873535156e+00 2.453016281127929688e+00 -4.364593625068664551e-01
7.010000000000000000e+02 7.842483520507812500e+01 -9.869770050048828125e+00 1.183612644672393799e-01 6.015090465545654297e+00 1.840035557746887207e+00 -7.213659882545471191e-01
7.020000000000000000e+02 7.849191284179687500e+01 -2.873802900314331055e+00 1.116871461272239685e-01 5.982877254486083984e+00 1.828369379043579102e+00 7.139796614646911621e-01
7.030000000000000000e+02 7.827320861816406250e+01 4.089855194091796875e+00 -1.033910587430000305e-01 8.268068313598632812e+00 2.449403285980224609e+00 4.406912624835968018e-01
7.040000000000000000e+02 7.815756225585937500e+01 1.105534648895263672e+01 -3.807633370161056519e-02 8.602954864501953125e+00 2.569463491439819336e+00 -5.225122347474098206e-02
7.050000000000000000e+02 7.798490142822265625e+01 1.941932106018066406e+01 9.763505659066140652e-04 7.983942508697509766e+00 2.395475625991821289e+00 -1.655253320932388306e-01
7.060000000000000000e+02 7.517588043212890625e+01 2.489508247375488281e+01 4.083271324634552002e-02 7.041344165802001953e+00 2.124653100967407227e+00 -2.989180088043212891e-01
7.070000000000000000e+02 7.908858489990234375e+01 3.199537849426269531e+01 1.454798690974712372e-02 7.390685558319091797e+00 2.221570014953613281e+00 -3.562976047396659851e-02
7.080000000000000000e+02 7.733807373046875000e+01 3.902828598022460938e+01 -4.462643526494503021e-03 6.984899997711181641e+00 2.094131231307983398e+00 -8.874435722827911377e-02
7.090000000000000000e+02 7.908306121826171875e+01 3.758330917358398438e+01 -1.436852384358644485e-02 7.152272701263427734e+00 2.141371250152587891e+00 -4.514830932021141052e-02
7.100000000000000000e+02 7.378915405273437500e+01 3.739847183227539062e+01 5.881529673933982849e-02 6.387203216552734375e+00 1.933805465698242188e+00 -8.486703783273696899e-02
7.110000000000000000e+02 7.057576751708984375e+01 3.759651565551757812e+01 1.590007841587066650e-01 5.825489997863769531e+00 1.795347213745117188e+00 -1.306766569614410400e-01
7.120000000000000000e+02 7.151886749267578125e+01 3.123319435119628906e+01 1.110342144966125488e-01 6.064320564270019531e+00 1.852606534957885742e+00 -3.023378252983093262e-01
7.130000000000000000e+02 7.207979583740234375e+01 2.548279762268066406e+01 9.876667708158493042e-02 6.343020915985107422e+00 1.932536244392395020e+00 -4.064032435417175293e-01
7.140000000000000000e+02 7.257181549072265625e+01 1.787452888488769531e+01 2.831885591149330139e-03 6.791179180145263672e+00 2.038203239440917969e+00 -5.345012545585632324e-01
7.150000000000000000e+02 7.323111724853515625e+01 1.089163208007812500e+01 -2.874155044555664062e-01 7.500221729278564453e+00 2.163841962814331055e+00 -3.924686908721923828e-01
7.160000000000000000e+02 7.368232727050781250e+01 4.330649375915527344e+00 -8.094194531440734863e-01 8.590621948242187500e+00 2.334360599517822266e+00 2.958163321018218994e-01
7.170000000000000000e+02 6.963149261474609375e+01 -5.643109321594238281e+00 7.327660560607910156e+00 1.787663650512695312e+01 7.561289310455322266e+00 2.660670280456542969e+00
7.180000000000000000e+02 7.947371673583984375e+01 -5.598273277282714844e+00 5.122204869985580444e-02 4.099212646484375000e+00 1.245130419731140137e+00 7.623346894979476929e-02
7.190000000000000000e+02 6.230425262451171875e+01 4.071044921875000000e+01 4.088186919689178467e-01 4.245882987976074219e+00 1.396410584449768066e+00 -5.639701709151268005e-02
7.200000000000000000e+02 6.770787048339843750e+01 2.323269844055175781e+01 1.988437473773956299e-01 5.407523632049560547e+00 1.681910276412963867e+00 -6.078675985336303711e-01
7.210000000000000000e+02 6.536383056640625000e+01 1.770935440063476562e+01 1.759820878505706787e-01 4.944262981414794922e+00 1.536073565483093262e+00 -8.062535524368286133e-01
7.220000000000000000e+02 6.761351776123046875e+01 1.043036746978759766e+01 -3.070907890796661377e-01 5.931698799133300781e+00 1.687382459640502930e+00 -1.038401365280151367e+00
7.230000000000000000e+02 6.227830505371093750e+01 -1.075326323509216309e+00 -2.726998329162597656e-01 1.634217143058776855e+00 4.084551930427551270e-01 -1.649904847145080566e+00
7.240000000000000000e+02 6.024535751342773438e+01 -4.584866046905517578e+00 -3.008698701858520508e+00 5.631895363330841064e-02 -8.857139348983764648e-01 -1.022498868405818939e-02
7.250000000000000000e+02 6.247738265991210938e+01 -4.613082885742187500e+00 -2.372137069702148438e+00 1.569226682186126709e-01 -6.645643115043640137e-01 -3.497651815414428711e-01
7.260000000000000000e+02 6.321511840820312500e+01 -4.622091293334960938e+00 -2.076393127441406250e+00 2.590713798999786377e-01 -5.451965332031250000e-01 -5.672098398208618164e-01
7.270000000000000000e+02 5.742969894409179688e+01 4.067219543457031250e+01 5.467866063117980957e-01 3.394769906997680664e+00 1.182466983795166016e+00 -4.593599215149879456e-02
7.280000000000000000e+02 6.201098632812500000e+01 3.692965698242187500e+01 4.197203218936920166e-01 4.173920154571533203e+00 1.378092169761657715e+00 -1.760895997285842896e-01
7.290000000000000000e+02 5.964414215087890625e+01 3.097900390625000000e+01 4.851846694946289062e-01 3.699308156967163086e+00 1.255347847938537598e+00 -3.179712593555450439e-01
7.300000000000000000e+02 5.933101272583007812e+01 2.375501060485839844e+01 4.658936560153961182e-01 3.475663661956787109e+00 1.182467222213745117e+00 -5.082039833068847656e-01
7.310000000000000000e+02 5.915445709228515625e+01 1.371723937988281250e+01 3.431658446788787842e-01 3.041871070861816406e+00 1.015511035919189453e+00 -8.316803574562072754e-01
7.320000000000000000e+02 5.471237945556640625e+01 7.864492893218994141e+00 1.818016618490219116e-01 1.370293259620666504e+00 4.656284749507904053e-01 -4.524171352386474609e-01
7.330000000000000000e+02 5.586074447631835938e+01 -3.567358851432800293e-01 -1.135474324226379395e+00 3.136225640773773193e-01 -2.465555369853973389e-01 -7.708582282066345215e-02
7.340000000000000000e+02 5.425793457031250000e+01 -4.553985595703125000e+00 -3.097608804702758789e+00 3.978181164711713791e-03 -9.280892014503479004e-01 1.809562742710113525e-01
7.350000000000000000e+02 5.650688934326171875e+01 -4.554964065551757812e+00 -3.183115243911743164e+00 7.702995091676712036e-03 -9.526236653327941895e-01 1.503176540136337280e-01
7.360000000000000000e+02 5.350793075561523438e+01 -4.555288314819335938e+00 -3.053166627883911133e+00 -1.009588828310370445e-03 -9.162528514862060547e-01 1.877156198024749756e-01
7.370000000000000000e+02 5.252521514892578125e+01 4.071619415283203125e+01 6.625655293464660645e-01 2.551630496978759766e+00 9.642587900161743164e-01 -3.722099587321281433e-02
7.380000000000000000e+02 5.187236785888671875e+01 2.080819320678710938e+01 5.751507282257080078e-01 1.923336863517761230e+00 7.495462894439697266e-01 -2.588906288146972656e-01
7.390000000000000000e+02 5.059714126586914062e+01 1.648764038085937500e+01 4.818275272846221924e-01 1.458945870399475098e+00 5.822320580482482910e-01 -1.676900535821914673e-01
7.400000000000000000e+02 4.939159393310546875e+01 7.870716571807861328e+00 -2.835819730535149574e-03 6.402882933616638184e-01 1.912357360124588013e-01 1.370308697223663330e-01
7.410000000000000000e+02 4.930776977539062500e+01 -4.191766679286956787e-01 -1.433229923248291016e+00 6.836796551942825317e-02 -4.094586074352264404e-01 3.915522396564483643e-01
7.420000000000000000e+02 4.825086212158203125e+01 -4.584441184997558594e+00 -2.606611490249633789e+00 -2.042940584942698479e-03 -7.825963497161865234e-01 2.039330750703811646e-01
7.430000000000000000e+02 5.050487899780273438e+01 -4.567170619964599609e+00 -2.820217370986938477e+00 -3.802696010097861290e-03 -8.472059965133666992e-01 2.013516724109649658e-01
7.440000000000000000e+02 5.125584793090820312e+01 -4.564049720764160156e+00 -2.885222196578979492e+00 -7.677121902815997601e-04 -8.657969236373901367e-01 1.988209635019302368e-01
7.450000000000000000e+02 4.248529434204101562e+01 4.028905105590820312e+01 7.438532114028930664e-01 1.098198652267456055e+00 5.526155829429626465e-01 -2.933165058493614197e-03
7.460000000000000000e+02 4.848798751831054688e+01 3.371306991577148438e+01 6.869186758995056152e-01 1.827015757560729980e+00 7.541803121566772461e-01 -7.717050611972808838e-02
7.470000000000000000e+02 4.623383712768554688e+01 2.246350860595703125e+01 5.737154483795166016e-01 1.264639973640441895e+00 5.515066385269165039e-01 -2.084497548639774323e-02
7.480000000000000000e+02 4.259687042236328125e+01 1.682605552673339844e+01 3.109151422977447510e-01 6.270646452903747559e-01 2.813939154148101807e-01 2.722890079021453857e-01
7.490000000000000000e+02 4.238101577758789062e+01 7.809933185577392578e+00 -2.330137938261032104e-01 2.340568900108337402e-01 3.129283140879124403e-04 5.561077594757080078e-01
7.500000000000000000e+02 4.328287506103515625e+01 -3.336314558982849121e-01 -1.274751901626586914e+00 2.907015010714530945e-02 -3.737045228481292725e-01 5.313429236412048340e-01
7.510000000000000000e+02 3.997804641723632812e+01 -4.729658126831054688e+00 -1.692759633064270020e+00 4.348547197878360748e-03 -5.065233707427978516e-01 1.998439282178878784e-01
7.520000000000000000e+02 4.373860549926757812e+01 -4.646462917327880859e+00 -2.123386144638061523e+00 7.721922593191266060e-04 -6.367841362953186035e-01 2.016191482543945312e-01
7.530000000000000000e+02 4.524327087402343750e+01 -4.621980667114257812e+00 -2.290358543395996094e+00 -5.071137566119432449e-04 -6.872597336769104004e-01 2.026914805173873901e-01
7.540000000000000000e+02 3.729168319702148438e+01 4.035541534423828125e+01 7.345939278602600098e-01 5.793030261993408203e-01 3.941690921783447266e-01 1.292476896196603775e-02
7.550000000000000000e+02 4.330948257446289062e+01 3.620182418823242188e+01 7.294998764991760254e-01 1.173779249191284180e+00 5.709837675094604492e-01 -8.164753206074237823e-03
7.560000000000000000e+02 3.663439178466796875e+01 3.111910247802734375e+01 6.127201318740844727e-01 4.106759130954742432e-01 3.070188164710998535e-01 9.914846718311309814e-02
7.570000000000000000e+02 3.520209503173828125e+01 2.024763870239257812e+01 2.367321848869323730e-01 2.039283812046051025e-01 1.321981698274612427e-01 3.569625914096832275e-01
7.580000000000000000e+02 3.721270751953125000e+01 1.471145534515380859e+01 4.401928186416625977e-02 2.184233963489532471e-01 7.873280346393585205e-02 5.025414824485778809e-01
7.590000000000000000e+02 3.385119247436523438e+01 8.943556785583496094e+00 -3.343725204467773438e-01 -2.050024340860545635e-04 -1.003732606768608093e-01 7.139007449150085449e-01
7.600000000000000000e+02 3.719398117065429688e+01 -5.755369663238525391e-01 -9.994832873344421387e-01 1.195673737674951553e-02 -2.962579727172851562e-01 5.591728687286376953e-01
7.610000000000000000e+02 3.398458862304687500e+01 -4.894731998443603516e+00 -1.013283133506774902e+00 7.999085821211338043e-03 -3.015852272510528564e-01 1.957670748233795166e-01
7.620000000000000000e+02 3.473080444335937500e+01 -4.876235961914062500e+00 -1.094966888427734375e+00 8.747234940528869629e-03 -3.258658945560455322e-01 1.963706016540527344e-01
7.630000000000000000e+02 3.697617340087890625e+01 -4.812355518341064453e+00 -1.346936345100402832e+00 7.505305577069520950e-03 -4.018293321132659912e-01 1.982711255550384521e-01
7.640000000000000000e+02 3.229342269897460938e+01 4.081949615478515625e+01 6.905212998390197754e-01 9.506655484437942505e-02 2.356763631105422974e-01 1.990938559174537659e-02
7.650000000000000000e+02 3.162786293029785156e+01 3.751272583007812500e+01 6.648623347282409668e-01 5.463828518986701965e-02 2.158501893281936646e-01 5.948143824934959412e-02
7.660000000000000000e+02 3.410770797729492188e+01 2.872572708129882812e+01 5.285760164260864258e-01 2.001105397939682007e-01 2.186059653759002686e-01 1.538601219654083252e-01
7.670000000000000000e+02 2.592356491088867188e+01 2.326727485656738281e+01 1.171501800417900085e-01 -4.063431322574615479e-01 -8.675789088010787964e-02 2.889785766601562500e-01
7.680000000000000000e+02 3.179117774963378906e+01 1.498587989807128906e+01 -1.209731698036193848e-01 -3.473789244890213013e-02 -4.671331867575645447e-02 5.576293468475341797e-01
7.690000000000000000e+02 2.495483207702636719e+01 2.601673603057861328e+00 -3.112539350986480713e-01 -2.809963822364807129e-01 -1.776750981807708740e-01 5.505552291870117188e-01
7.700000000000000000e+02 2.733873939514160156e+01 -4.927255630493164062e+00 -3.788789510726928711e-01 -1.338747236877679825e-02 -1.176799237728118896e-01 1.618922352790832520e-01
7.710000000000000000e+02 3.026907348632812500e+01 -4.954019546508789062e+00 -6.337494254112243652e-01 6.326481816358864307e-04 -1.899350434541702271e-01 1.848956793546676636e-01
7.720000000000000000e+02 2.886465263366699219e+01 -4.265637874603271484e+00 -5.162917375564575195e-01 -1.246186345815658569e-02 -1.586260795593261719e-01 2.344457656145095825e-01
7.730000000000000000e+02 3.323846435546875000e+01 -4.912390232086181641e+00 -9.333183169364929199e-01 7.629111409187316895e-03 -2.777067422866821289e-01 1.943958401679992676e-01
7.740000000000000000e+02 1.773235702514648438e+01 4.067640304565429688e+01 4.310519099235534668e-01 -6.384882926940917969e-01 -6.223091855645179749e-02 4.848277196288108826e-02
7.750000000000000000e+02 2.263737869262695312e+01 4.095075225830078125e+01 5.500008463859558105e-01 -4.818322658538818359e-01 2.045057527720928192e-02 2.629113942384719849e-02
7.760000000000000000e+02 2.406332969665527344e+01 3.170543479919433594e+01 4.655436277389526367e-01 -4.697626233100891113e-01 -1.265692408196628094e-03 1.808105856180191040e-01
7.770000000000000000e+02 2.373103141784667969e+01 2.349648094177246094e+01 1.073220595717430115e-01 -5.350935459136962891e-01 -1.283314526081085205e-01 2.902437448501586914e-01
7.780000000000000000e+02 2.145892333984375000e+01 1.608301925659179688e+01 -4.642306864261627197e-01 -7.517577409744262695e-01 -3.647965192794799805e-01 5.011057853698730469e-01
7.790000000000000000e+02 2.032690429687500000e+01 1.011169719696044922e+01 -4.666219353675842285e-01 -1.016805410385131836e+00 -4.450282156467437744e-01 6.610996127128601074e-01
7.800000000000000000e+02 2.002355194091796875e+01 5.425939083099365234e+00 -1.569673866033554077e-01 -7.925821542739868164e-01 -2.848648726940155029e-01 3.961970210075378418e-01
7.810000000000000000e+02 2.161835289001464844e+01 -4.341793060302734375e+00 -6.017053499817848206e-02 -3.976743668317794800e-02 -2.998139150440692902e-02 5.748363956809043884e-02
7.820000000000000000e+02 2.457758140563964844e+01 -4.093369007110595703e+00 -2.103968411684036255e-01 -4.770515859127044678e-02 -7.743059843778610229e-02 1.628777086734771729e-01
7.830000000000000000e+02 2.374391174316406250e+01 -4.692209720611572266e+00 -1.452383697032928467e-01 -3.495709598064422607e-02 -5.405864119529724121e-02 1.057258918881416321e-01
7.840000000000000000e+02 1.933777427673339844e+01 3.064736366271972656e+01 3.687285184860229492e-01 -6.789550185203552246e-01 -9.306795150041580200e-02 2.467505335807800293e-01
7.850000000000000000e+02 1.635845565795898438e+01 2.335728645324707031e+01 -5.506123881787061691e-03 -9.217557907104492188e-01 -2.781785726547241211e-01 4.172758460044860840e-01
7.860000000000000000e+02 1.295975875854492188e+01 1.760634803771972656e+01 -1.171115040779113770e+00 -9.744190573692321777e-01 -6.436602473258972168e-01 9.721163511276245117e-01
7.870000000000000000e+02 1.509031677246093750e+01 1.562607097625732422e+01 -1.042863965034484863e+00 -1.580630779266357422e+00 -7.870483994483947754e-01 1.153413772583007812e+00
7.880000000000000000e+02 1.878010559082031250e+01 1.615108108520507812e+01 -5.954682826995849609e-01 -1.051176428794860840e+00 -4.939934015274047852e-01 5.753182768821716309e-01
7.890000000000000000e+02 1.593792915344238281e+01 1.444153308868408203e+01 -8.593392968177795410e-01 -1.822057843208312988e+00 -8.044191598892211914e-01 1.094725131988525391e+00
7.900000000000000000e+02 1.804884910583496094e+01 9.144218444824218750e+00 -2.373853474855422974e-01 -1.656531333923339844e+00 -5.681749582290649414e-01 5.391547083854675293e-01
7.910000000000000000e+02 1.860248374938964844e+01 6.415301322937011719e+00 -8.779221028089523315e-02 -1.108676910400390625e+00 -3.589407503604888916e-01 2.937561571598052979e-01
7.920000000000000000e+02 1.899484825134277344e+01 2.245626211166381836e+00 -1.765286363661289215e-02 -4.301832020282745361e-01 -1.343508213758468628e-01 9.626424312591552734e-02
7.930000000000000000e+02 1.888022232055664062e+01 -4.689341187477111816e-01 -8.793598040938377380e-03 -1.234950721263885498e-01 -3.968660160899162292e-02 3.851522877812385559e-02
7.940000000000000000e+02 1.966076278686523438e+01 -3.000624656677246094e+00 -2.241496928036212921e-02 -4.125199839472770691e-02 -1.910009048879146576e-02 3.189469873905181885e-02
7.950000000000000000e+02 1.276113319396972656e+01 4.073067855834960938e+01 3.021068871021270752e-01 -7.044776678085327148e-01 -1.207112297415733337e-01 5.563221871852874756e-02
7.960000000000000000e+02 8.104812622070312500e+00 4.103404617309570312e+01 1.392059773206710815e-01 -7.281843423843383789e-01 -1.766935139894485474e-01 4.377271234989166260e-02
7.970000000000000000e+02 7.791273593902587891e+00 3.219073486328125000e+01 1.152720600366592407e-01 -6.576982736587524414e-01 -1.627278625965118408e-01 2.923907041549682617e-01
7.980000000000000000e+02 6.028224468231201172e+00 2.448731994628906250e+01 -9.549647569656372070e-02 -3.504399657249450684e-01 -1.337809264659881592e-01 3.349555432796478271e-01
7.990000000000000000e+02 1.025801277160644531e+01 1.892458724975585938e+01 -9.447588920593261719e-01 -3.696399331092834473e-01 -3.943196535110473633e-01 4.428448081016540527e-01
8.000000000000000000e+02 1.169974803924560547e+01 1.847732925415039062e+01 -1.126672029495239258e+00 -6.622660756111145020e-01 -5.366814732551574707e-01 7.431758046150207520e-01
8.010000000000000000e+02 1.998175978660583496e+00 4.165017318725585938e+01 2.351680072024464607e-03 -8.696617484092712402e-01 -2.601930201053619385e-01 6.573412101715803146e-04
8.020000000000000000e+02 4.367741107940673828e+00 3.784951782226562500e+01 5.338874831795692444e-02 -7.608957290649414062e-01 -2.122520804405212402e-01 9.923549741506576538e-02
8.030000000000000000e+02 2.123021364212036133e+00 3.595960617065429688e+01 2.382954210042953491e-02 -7.580676674842834473e-01 -2.202714383602142334e-01 6.663511693477630615e-02
8.040000000000000000e+02 2.061792612075805664e+00 2.898360252380371094e+01 1.929347170516848564e-03 -4.318028688430786133e-01 -1.289620548486709595e-01 1.396880149841308594e-01
8.050000000000000000e+02 2.004906654357910156e+00 2.314906501770019531e+01 -2.516961470246315002e-02 -1.066717579960823059e-01 -3.955241292715072632e-02 8.861462026834487915e-02
8.060000000000000000e+02 4.274718761444091797e+00 1.581565570831298828e+01 4.564986098557710648e-03 -2.661840431392192841e-02 -6.616025231778621674e-03 -6.680979393422603607e-03
8.070000000000000000e+02 5.655432939529418945e-01 6.401278495788574219e+00 -4.460004565771669149e-04 -3.666334087029099464e-04 -2.437901566736400127e-04 1.797335135051980615e-04
8.080000000000000000e+02 6.055829524993896484e+00 1.852567791938781738e+00 -5.470675387186929584e-05 -1.374278072034940124e-04 -5.764036905020475388e-05 -2.161267475457862020e-04
8.090000000000000000e+02 8.069159507751464844e+00 2.627014875411987305e+00 -9.316716386820189655e-06 -2.102089056279510260e-04 -6.585768278455361724e-05 -4.465289239306002855e-04
8.100000000000000000e+02 9.627178192138671875e+00 1.878358721733093262e+00 -6.264983676373958588e-05 6.397532706614583731e-05 3.976481934842013288e-07 2.552075020503252745e-04
8.110000000000000000e+02 1.392689704895019531e+01 1.750001072883605957e+00 1.607588783372193575e-04 -1.427948736818507314e-04 5.389200850913766772e-06 2.398436436124029569e-07
8.120000000000000000e+02 1.445149135589599609e+01 6.263753890991210938e+00 -6.237644702196121216e-04 -2.358817582717165351e-04 -2.578938729129731655e-04 -1.744195178616791964e-04
8.130000000000000000e+02 1.180087184906005859e+01 9.594514846801757812e+00 -7.329626241698861122e-04 -1.394751016050577164e-03 -6.383141153492033482e-04 -1.009997795335948467e-03
8.140000000000000000e+02 1.132308101654052734e+01 1.235777091979980469e+01 2.008263254538178444e-03 1.274238107725977898e-03 9.847504552453756332e-04 2.033526310697197914e-03
8.150000000000000000e+02 1.216676616668701172e+01 1.124893856048583984e+01 -1.899370108731091022e-03 -1.344347838312387466e-03 -9.731153841130435467e-04 -1.033898210152983665e-03
8.160000000000000000e+02 9.418034553527832031e+00 1.448127079010009766e+01 3.252328140661120415e-03 3.780015278607606888e-03 2.109703142195940018e-03 2.660449128597974777e-03
8.170000000000000000e+02 7.869795322418212891e+00 1.688592910766601562e+01 1.600231230258941650e-02 9.199679642915725708e-02 3.239973261952400208e-02 1.731241494417190552e-02
8.180000000000000000e+02 1.821682095527648926e+00 2.173601341247558594e+01 -2.730228938162326813e-02 -4.674030095338821411e-02 -2.221277728676795959e-02 5.312721058726310730e-02
8.190000000000000000e+02 1.160657882690429688e+00 3.802989244461059570e+00 7.442844798788428307e-05 5.897067967453040183e-05 4.001973866252228618e-05 -2.229250094387680292e-04
8.200000000000000000e+02 1.386044788360595703e+01 2.573359966278076172e+00 -3.635892644524574280e-04 -2.967109903693199158e-04 -1.980900706257671118e-04 -4.714298411272466183e-04
8.210000000000000000e+02 2.256107711791992188e+01 -8.363811492919921875e+00 -3.652424514293670654e-01 1.445817295461893082e-02 -1.052352860569953918e-01 -1.273381412029266357e-01
8.220000000000000000e+02 7.949955749511718750e+01 -1.256334972381591797e+01 -1.591566577553749084e-02 6.508824348449707031e+00 1.947872638702392578e+00 -2.945500910282135010e-01
8.230000000000000000e+02 2.125148010253906250e+01 -2.556564903259277344e+01 5.252318084239959717e-02 -2.517965435981750488e-01 -5.978201329708099365e-02 -3.338450491428375244e-01
8.240000000000000000e+02 1.597477245330810547e+01 -2.301685523986816406e+01 -6.760107725858688354e-02 -2.902045249938964844e-01 -1.073416844010353088e-01 -2.786906957626342773e-01
8.250000000000000000e+02 2.959771537780761719e+01 -1.427268218994140625e+01 -5.588923692703247070e-01 -5.021384730935096741e-02 -1.827318519353866577e-01 -4.446678459644317627e-01
8.260000000000000000e+02 3.849477767944335938e+01 -1.386050987243652344e+01 -8.403352499008178711e-01 -3.810352087020874023e-02 -2.635316252708435059e-01 -4.898025691509246826e-01
8.270000000000000000e+02 4.329339599609375000e+01 -1.467127895355224609e+01 -8.117987513542175293e-01 -1.332655199803411961e-03 -2.439394295215606689e-01 -4.866641461849212646e-01
8.280000000000000000e+02 5.555452728271484375e+01 -1.381834125518798828e+01 -6.278082132339477539e-01 4.449795484542846680e-01 -5.484860017895698547e-02 1.332032978534698486e-01
8.290000000000000000e+02 6.132033157348632812e+01 -1.418249702453613281e+01 -1.917988294735550880e-03 2.107510328292846680e+00 6.316776871681213379e-01 1.504194259643554688e+00
8.300000000000000000e+02 7.420516204833984375e+01 -1.903842544555664062e+01 -5.599058866500854492e-01 8.311336517333984375e+00 2.325429201126098633e+00 -1.491010040044784546e-01
8.310000000000000000e+02 7.942195129394531250e+01 -2.225879096984863281e+01 -1.416989415884017944e-02 9.073117256164550781e+00 2.717684268951416016e+00 -2.237049117684364319e-02
8.320000000000000000e+02 5.399465084075927734e+00 -1.561226749420166016e+01 2.896466525271534920e-03 -1.551670301705598831e-02 -3.786070970818400383e-03 -5.327775608748197556e-03
8.330000000000000000e+02 1.778973340988159180e+00 -1.742262077331542969e+01 -2.865042770281434059e-03 4.688428016379475594e-04 -7.188600138761103153e-04 5.681749898940324783e-03
8.340000000000000000e+02 5.605835914611816406e-01 -1.065951824188232422e+01 1.012744847685098648e-03 6.553165148943662643e-04 5.004184204153716564e-04 4.494903259910643101e-04
8.350000000000000000e+02 2.607573699951171875e+01 -3.412203216552734375e+01 4.215230941772460938e-01 -2.570602297782897949e-01 4.933886229991912842e-02 -2.280491292476654053e-01
8.360000000000000000e+02 2.036772346496582031e+01 -3.054870223999023438e+01 2.125634998083114624e-01 -3.096292018890380859e-01 -2.911971323192119598e-02 -2.702721357345581055e-01
8.370000000000000000e+02 3.266830825805664062e+01 -2.598098754882812500e+01 2.507929801940917969e-01 -1.159938201308250427e-01 4.043974727392196655e-02 -4.350589811801910400e-01
8.380000000000000000e+02 4.317678451538085938e+01 -2.512022209167480469e+01 4.247154891490936279e-01 2.642414569854736328e-01 2.066870927810668945e-01 -3.147866129875183105e-01
8.390000000000000000e+02 5.872893905639648438e+01 -2.884179878234863281e+01 6.060782670974731445e-01 2.944780349731445312e+00 1.065257668495178223e+00 5.282379388809204102e-01
8.400000000000000000e+02 6.548588562011718750e+01 -2.458512496948242188e+01 2.594116143882274628e-02 5.095920085906982422e+00 1.536558389663696289e+00 9.388419389724731445e-01
8.410000000000000000e+02 7.364704895019531250e+01 -2.409705924987792969e+01 -2.087255716323852539e-01 7.656089305877685547e+00 2.234209060668945312e+00 2.686925828456878662e-01
8.420000000000000000e+02 7.935196685791015625e+01 -2.645975303649902344e+01 -2.722717821598052979e-03 8.961693763732910156e+00 2.687691450119018555e+00 2.624089084565639496e-02
8.430000000000000000e+02 7.478622794151306152e-01 -3.047054481506347656e+01 -1.119052874855697155e-03 -3.430431485176086426e-01 -1.032486557960510254e-01 -2.780275419354438782e-02
8.440000000000000000e+02 8.379262924194335938e+00 -3.559258270263671875e+01 9.299624711275100708e-02 -3.898179233074188232e-01 -8.904650062322616577e-02 -1.242529153823852539e-01
8.450000000000000000e+02 3.099909973144531250e+01 -3.271327590942382812e+01 4.947643280029296875e-01 -1.641560643911361694e-01 9.918247908353805542e-02 -2.737493813037872314e-01
8.460000000000000000e+02 3.699577331542968750e+01 -3.514119338989257812e+01 7.538099884986877441e-01 8.833643049001693726e-02 2.526439428329467773e-01 -1.885222941637039185e-01
8.470000000000000000e+02 4.185246658325195312e+01 -3.014891242980957031e+01 6.909170150756835938e-01 3.213849365711212158e-01 3.036905825138092041e-01 -2.367077171802520752e-01
8.480000000000000000e+02 5.147615432739257812e+01 -3.422097396850585938e+01 8.899797201156616211e-01 1.627609014511108398e+00 7.552766203880310059e-01 1.045467779040336609e-01
8.490000000000000000e+02 5.485054779052734375e+01 -3.360052490234375000e+01 8.155646324157714844e-01 2.216606855392456055e+00 9.096514582633972168e-01 2.541094720363616943e-01
8.500000000000000000e+02 6.571075439453125000e+01 -3.327167129516601562e+01 3.615670800209045410e-01 4.987771987915039062e+00 1.604801774024963379e+00 4.430244863033294678e-01
8.510000000000000000e+02 7.336212921142578125e+01 -3.331467056274414062e+01 7.864003628492355347e-02 7.059717655181884766e+00 2.141507148742675781e+00 2.724366486072540283e-01
8.520000000000000000e+02 7.938610839843750000e+01 -3.340909957885742188e+01 3.141660010442137718e-03 8.557260513305664062e+00 2.568120718002319336e+00 3.091505169868469238e-02
8.530000000000000000e+02 7.360624694824218750e+01 3.098268985748291016e+00 -9.089022278785705566e-01 8.899168968200683594e+00 2.397079944610595703e+00 4.752613902091979980e-01
8.540000000000000000e+02 7.943527984619140625e+01 2.753081083297729492e+00 -2.122975513339042664e-02 7.907378196716308594e+00 2.365844488143920898e+00 2.285995334386825562e-01
8.550000000000000000e+02 7.308195495605468750e+01 1.226202201843261719e+01 -2.040881067514419556e-01 7.327092647552490234e+00 2.136901378631591797e+00 -4.532005190849304199e-01
8.560000000000000000e+02 7.940657043457031250e+01 8.332669258117675781e+00 -1.375910453498363495e-02 8.959315299987792969e+00 2.683666944503784180e+00 4.282479733228683472e-02
8.570000000000000000e+02 6.219269561767578125e+01 -4.085592329502105713e-01 -2.002603560686111450e-01 1.890445470809936523e+00 5.070555210113525391e-01 -1.729095339775085449e+00
8.580000000000000000e+02 5.822056198120117188e+01 1.652001291513442993e-01 -6.871849298477172852e-01 6.891705989837646484e-01 5.956944660283625126e-04 -5.442507266998291016e-01
8.590000000000000000e+02 4.998268508911132812e+01 -1.149695038795471191e+00 -1.641853094100952148e+00 5.059096962213516235e-02 -4.773786365985870361e-01 3.643792271614074707e-01
8.600000000000000000e+02 4.405022811889648438e+01 -3.064749240875244141e-01 -1.298946738243103027e+00 3.261098265647888184e-02 -3.799007236957550049e-01 5.199952721595764160e-01
8.610000000000000000e+02 3.570442962646484375e+01 4.012843966484069824e-02 -8.694217801094055176e-01 4.009171854704618454e-03 -2.596237659454345703e-01 5.913288593292236328e-01
8.620000000000000000e+02 2.976373291015625000e+01 -6.087175011634826660e-01 -5.683575272560119629e-01 -5.615925788879394531e-02 -1.873550266027450562e-01 5.123332738876342773e-01
8.630000000000000000e+02 2.031020164489746094e+01 3.967542648315429688e+00 -1.173708066344261169e-01 -6.117311716079711914e-01 -2.187305986881256104e-01 3.434919118881225586e-01
8.640000000000000000e+02 1.897066497802734375e+01 3.640489101409912109e+00 -3.723466396331787109e-02 -6.411014199256896973e-01 -2.035008221864700317e-01 1.429283916950225830e-01
8.650000000000000000e+02 7.245291137695312500e+01 1.929256820678710938e+01 3.860192373394966125e-02 6.673797130584716797e+00 2.013719558715820312e+00 -5.228686928749084473e-01
8.660000000000000000e+02 7.934591674804687500e+01 1.668965530395507812e+01 -2.289533149451017380e-03 8.544645309448242188e+00 2.562706708908081055e+00 -4.817005619406700134e-02
8.670000000000000000e+02 6.745516204833984375e+01 9.058754920959472656e+00 -4.219726324081420898e-01 6.021305561065673828e+00 1.679799795150756836e+00 -1.150827288627624512e+00
8.680000000000000000e+02 5.758985137939453125e+01 1.075590801239013672e+01 3.108730614185333252e-01 2.325891733169555664e+00 7.910294532775878906e-01 -7.959778308868408203e-01
8.690000000000000000e+02 4.990351867675781250e+01 8.895748138427734375e+00 1.071875840425491333e-01 7.873638272285461426e-01 2.683654129505157471e-01 4.788041114807128906e-02
8.700000000000000000e+02 4.287750244140625000e+01 9.130040168762207031e+00 -1.131234839558601379e-01 3.051643371582031250e-01 5.761225149035453796e-02 5.004246830940246582e-01
8.710000000000000000e+02 3.232008361816406250e+01 9.924030303955078125e+00 -3.121784329414367676e-01 -3.939621150493621826e-02 -1.054723933339118958e-01 7.050560116767883301e-01
8.720000000000000000e+02 2.634568595886230469e+01 9.992012023925781250e+00 -4.333931803703308105e-01 -3.245525658130645752e-01 -2.273837178945541382e-01 7.017323970794677734e-01
8.730000000000000000e+02 2.002352333068847656e+01 1.155491638183593750e+01 -5.313322544097900391e-01 -1.071165680885314941e+00 -4.807493686676025391e-01 6.831789016723632812e-01
8.740000000000000000e+02 7.206457519531250000e+01 2.714660644531250000e+01 1.113831847906112671e-01 6.278260707855224609e+00 1.916893243789672852e+00 -3.787304162979125977e-01
8.750000000000000000e+02 7.931979370117187500e+01 2.364647865295410156e+01 1.308217644691467285e-03 7.925667762756347656e+00 2.378092765808105469e+00 -4.858840256929397583e-02
8.760000000000000000e+02 6.793215942382812500e+01 1.956162834167480469e+01 1.305343657732009888e-01 5.570827960968017578e+00 1.710408687591552734e+00 -6.936579346656799316e-01
8.770000000000000000e+02 5.759939193725585938e+01 1.474936676025390625e+01 4.118672311305999756e-01 2.724780797958374023e+00 9.409944415092468262e-01 -7.012571096420288086e-01
8.780000000000000000e+02 4.875056076049804688e+01 1.839705276489257812e+01 5.175545215606689453e-01 1.367316842079162598e+00 5.654613971710205078e-01 -1.035760641098022461e-01
8.790000000000000000e+02 4.419365310668945312e+01 1.585403823852539062e+01 3.240061700344085693e-01 7.229281663894653320e-01 3.140802979469299316e-01 2.209484875202178955e-01
8.800000000000000000e+02 3.593059158325195312e+01 1.471816825866699219e+01 3.443642752245068550e-03 1.605290770530700684e-01 4.919181764125823975e-02 5.263226032257080078e-01
8.810000000000000000e+02 2.731784057617187500e+01 1.665106201171875000e+01 -2.110918909311294556e-01 -3.011021316051483154e-01 -1.536582112312316895e-01 4.903863370418548584e-01
8.820000000000000000e+02 2.044815444946289062e+01 1.791191101074218750e+01 -4.009459018707275391e-01 -8.305239081382751465e-01 -3.694409430027008057e-01 4.459701478481292725e-01
8.830000000000000000e+02 2.748025417327880859e+00 2.096681976318359375e+01 -4.351700842380523682e-02 -6.705594062805175781e-02 -3.317188471555709839e-02 5.528463795781135559e-02
8.840000000000000000e+02 7.087866210937500000e+01 2.941303443908691406e+01 1.342702358961105347e-01 6.021232128143310547e+00 1.846650600433349609e+00 -3.578023910522460938e-01
8.850000000000000000e+02 7.919673919677734375e+01 2.919677925109863281e+01 9.001767262816429138e-03 7.531230449676513672e+00 2.262069702148437500e+00 -4.063252732157707214e-02
8.860000000000000000e+02 6.685134887695312500e+01 2.514538002014160156e+01 2.463053762912750244e-01 5.200811386108398438e+00 1.634135007858276367e+00 -5.567032098770141602e-01
8.870000000000000000e+02 5.043029403686523438e+01 2.379949569702148438e+01 6.079179644584655762e-01 1.831479907035827637e+00 7.318193912506103516e-01 -2.081061750650405884e-01
8.880000000000000000e+02 4.134311294555664062e+01 2.603260612487792969e+01 5.598510503768920898e-01 8.069211244583129883e-01 4.100316464900970459e-01 1.004924774169921875e-01
8.890000000000000000e+02 3.729206085205078125e+01 2.067810440063476562e+01 3.161409199237823486e-01 3.516841530799865723e-01 2.003475278615951538e-01 3.070779442787170410e-01
8.900000000000000000e+02 2.922056198120117188e+01 2.473449897766113281e+01 2.670339643955230713e-01 -1.837235540151596069e-01 2.499311976134777069e-02 2.569692730903625488e-01
8.910000000000000000e+02 1.710081100463867188e+01 2.496558570861816406e+01 1.196769103407859802e-01 -8.580101132392883301e-01 -2.214999496936798096e-01 3.748570084571838379e-01
8.920000000000000000e+02 7.798307418823242188e+00 2.301418685913085938e+01 -1.867148131132125854e-01 -3.706226646900177002e-01 -1.672012358903884888e-01 4.119769036769866943e-01
8.930000000000000000e+02 6.446495056152343750e+01 3.028149414062500000e+01 3.263714313507080078e-01 4.668128967285156250e+00 1.498350143432617188e+00 -4.162536859512329102e-01
8.940000000000000000e+02 5.254767990112304688e+01 3.716313552856445312e+01 6.522465944290161133e-01 2.509541034698486328e+00 9.485362172126770020e-01 -9.982808679342269897e-02
8.950000000000000000e+02 4.485274887084960938e+01 3.276325607299804688e+01 6.975780129432678223e-01 1.343356370925903320e+00 6.122803092002868652e-01 -2.829451672732830048e-02
8.960000000000000000e+02 2.715763664245605469e+01 3.484521102905273438e+01 5.705002546310424805e-01 -2.658192515373229980e-01 9.140429645776748657e-02 1.111688837409019470e-01
8.970000000000000000e+02 2.138653373718261719e+01 3.131024551391601562e+01 4.137273132801055908e-01 -6.029033660888671875e-01 -5.675281211733818054e-02 2.161118090152740479e-01
8.980000000000000000e+02 1.339527225494384766e+01 3.284830856323242188e+01 2.667293250560760498e-01 -7.409161329269409180e-01 -1.422560364007949829e-01 2.861744165420532227e-01
8.990000000000000000e+02 2.196233987808227539e+00 3.183128738403320312e+01 1.240115799009799957e-02 -5.884518623352050781e-01 -1.728152036666870117e-01 1.285070031881332397e-01
9.000000000000000000e+02 1.786811709403991699e+00 9.109031677246093750e+00 9.404996526427567005e-04 2.571782388258725405e-04 3.593033761717379093e-04 -8.671550895087420940e-04
9.010000000000000000e+02 1.934644889831542969e+01 -7.776758193969726562e+00 -1.296017765998840332e-01 -1.582784950733184814e-02 -4.362888634204864502e-02 -8.093029260635375977e-02
9.020000000000000000e+02 1.419590950012207031e+01 -1.386916542053222656e+01 -3.187110126018524170e-01 -4.080319106578826904e-01 -2.180228680372238159e-01 -3.476366400718688965e-01
9.030000000000000000e+02 7.564729213714599609e+00 -1.388818740844726562e+01 -1.549697248265147209e-03 3.284598467871546745e-03 5.204703193157911301e-04 1.960736000910401344e-03
9.040000000000000000e+02 1.133463287353515625e+01 -8.135369300842285156e+00 -1.766454952303320169e-04 -5.850285015185363591e-05 -7.054450543364509940e-05 -3.311490945634432137e-05
9.050000000000000000e+02 1.016732978820800781e+01 -3.153030872344970703e+00 9.475020306126680225e-06 -1.682817965047433972e-04 -4.764203549711965024e-05 -1.001342316158115864e-04
9.060000000000000000e+02 1.321069145202636719e+01 -1.960938930511474609e+00 -6.450545333791524172e-05 -9.247050184058025479e-05 -4.709278437076136470e-05 -6.137134914752095938e-05
9.070000000000000000e+02 1.491145896911621094e+01 -2.293576478958129883e+00 7.142203685361891985e-05 2.067814239126164466e-05 2.763005431916099042e-05 -2.134821670551900752e-06
9.080000000000000000e+02 1.430583477020263672e+01 -2.140429019927978516e+00 -2.517007851565722376e-05 -3.148610267089679837e-05 -1.699685344647150487e-05 -1.153471021098084748e-05
9.090000000000000000e+02 1.375237655639648438e+01 -1.995801448822021484e+00 7.036074293864658102e-06 5.017275179852731526e-05 1.716264705464709550e-05 1.541997517051640898e-05
9.100000000000000000e+02 1.180000782012939453e+01 -1.971611380577087402e+00 -9.805705485632643104e-05 -1.136071077780798078e-04 -6.349924660753458738e-05 3.231728260288946331e-05
9.110000000000000000e+02 1.031614494323730469e+01 -1.859135508537292480e+00 -4.341296153143048286e-05 -1.814351562643423676e-04 -6.745443533873185515e-05 -1.563467594678513706e-05
9.120000000000000000e+02 9.574533462524414062e+00 -1.835237741470336914e+00 1.617017551325261593e-05 1.714494283078238368e-04 5.628588041872717440e-05 9.673246677266433835e-05
9.130000000000000000e+02 8.826265335083007812e+00 -1.842630267143249512e+00 -7.986921264091506600e-05 -1.490096183260902762e-04 -6.866364856250584126e-05 -7.354714034590870142e-05
9.140000000000000000e+02 7.320869445800781250e+00 -1.861823081970214844e+00 -8.039252134039998055e-05 -1.120565138990059495e-04 -5.773470911663025618e-05 -8.684616477694362402e-05
9.150000000000000000e+02 5.799011707305908203e+00 -1.882103323936462402e+00 -2.392028727626893669e-05 -1.116416315198875964e-04 -4.066857582074590027e-05 -1.335078995907679200e-04
9.160000000000000000e+02 3.516041994094848633e+00 -1.986302733421325684e+00 3.911353269359096885e-05 3.530783578753471375e-05 2.232641054433770478e-05 8.523166616214439273e-05
9.170000000000000000e+02 5.039293289184570312e+00 -1.906380653381347656e+00 -6.060029045329429209e-05 1.238673721672967076e-04 1.898012305900920182e-05 1.099135406548157334e-04
9.180000000000000000e+02 4.440834045410156250e+00 -2.808967828750610352e+00 1.750073352013714612e-05 1.198583631776273251e-04 4.120772791793569922e-05 1.481604267610237002e-04
9.190000000000000000e+02 2.744991064071655273e+00 -2.036943912506103516e+00 -1.201928680529817939e-04 -2.349460737605113536e-05 -4.310624353820458055e-05 -1.151349351857788861e-04
9.200000000000000000e+02 1.967934012413024902e+00 -2.077219009399414062e+00 8.700983744347468019e-05 3.379383269930258393e-05 3.624110104283317924e-05 1.146100930782267824e-05
9.210000000000000000e+02 4.855059087276458740e-01 -3.600244283676147461e+00 -2.628485672175884247e-04 -6.641374784521758556e-05 -9.877869160845875740e-05 -8.372632146347314119e-05
9.220000000000000000e+02 2.029123544692993164e+00 -4.163417053222656250e+01 4.853342834394425154e-04 -5.325314402580261230e-01 -1.596138328313827515e-01 -1.388845557812601328e-04
9.230000000000000000e+02 6.125631809234619141e+00 -3.815988922119140625e+01 5.835745111107826233e-02 -4.199003875255584717e-01 -1.084628775715827942e-01 -6.623890995979309082e-02
9.240000000000000000e+02 1.009308576583862305e+00 -3.866050720214843750e+01 -1.069687888957560062e-03 -5.282383561134338379e-01 -1.587924063205718994e-01 -6.194448098540306091e-03
9.250000000000000000e+02 6.549065113067626953e-01 -3.476784896850585938e+01 6.206997670233249664e-03 -4.721044898033142090e-01 -1.397692412137985229e-01 -1.691892929375171661e-02
9.260000000000000000e+02 8.054239153861999512e-01 -3.337434768676757812e+01 1.237872755154967308e-03 -4.372120797634124756e-01 -1.307922601699829102e-01 -2.264266647398471832e-02
9.270000000000000000e+02 7.218701243400573730e-01 -2.904688644409179688e+01 2.818722277879714966e-03 -2.880317866802215576e-01 -8.556392043828964233e-02 -2.930638566613197327e-02
9.280000000000000000e+02 7.023552656173706055e-01 -2.762670135498046875e+01 -2.350257709622383118e-03 -2.289294451475143433e-01 -6.938391178846359253e-02 -2.999436296522617340e-02
9.290000000000000000e+02 6.887379288673400879e-01 -2.620692253112792969e+01 8.195473928935825825e-04 -1.695810556411743164e-01 -5.062844976782798767e-02 -2.824042178690433502e-02
9.300000000000000000e+02 6.041263341903686523e-01 -2.192907714843750000e+01 -2.567874500527977943e-03 -1.692207716405391693e-02 -5.846985615789890289e-03 -1.658231206238269806e-02
9.310000000000000000e+02 1.716863512992858887e+00 -2.035624694824218750e+01 -1.295430120080709457e-02 -2.177181281149387360e-02 -1.041783392429351807e-02 -2.771847881376743317e-02
9.320000000000000000e+02 5.552837252616882324e-01 -1.624328422546386719e+01 1.782325562089681625e-03 1.985527947545051575e-02 6.491281557828187943e-03 4.138825926929712296e-03
9.330000000000000000e+02 5.442169904708862305e-01 -1.484465408325195312e+01 -7.619689567945897579e-04 1.107206940650939941e-02 3.093030303716659546e-03 2.421787939965724945e-03
9.340000000000000000e+02 5.536940693855285645e-01 -1.344929122924804688e+01 1.432642340660095215e-03 5.454678088426589966e-03 2.066196175292134285e-03 1.815336290746927261e-03
9.350000000000000000e+02 4.486080646514892578e+00 -1.480059432983398438e+01 5.845279432833194733e-03 -1.071978826075792313e-02 -1.462352578528225422e-03 -1.947863260284066200e-03
9.360000000000000000e+02 5.405603647232055664e-01 -9.266262054443359375e+00 -7.234237273223698139e-04 2.405991108389571309e-05 -2.098091499647125602e-04 4.990984598407521844e-05
9.370000000000000000e+02 5.172557234764099121e-01 -7.875315666198730469e+00 6.829319754615426064e-04 -1.556616916786879301e-04 1.581810793140903115e-04 6.732744077453389764e-05
9.380000000000000000e+02 5.051220655441284180e-01 -6.482779979705810547e+00 -5.242074839770793915e-04 -1.350711536360904574e-04 -1.977835927391424775e-04 -6.070844756322912872e-05
9.390000000000000000e+02 7.181243133544921875e+01 -4.096395111083984375e+01 1.781154423952102661e-01 6.597070693969726562e+00 2.032555818557739258e+00 5.935841053724288940e-02
9.400000000000000000e+02 5.238146972656250000e+01 -4.084561920166015625e+01 9.451131820678710938e-01 1.854783177375793457e+00 8.399689197540283203e-01 1.907416805624961853e-02
9.410000000000000000e+02 3.154958915710449219e+01 -4.046266174316406250e+01 6.841172575950622559e-01 -1.242640241980552673e-01 1.679559648036956787e-01 -5.462621524930000305e-02
9.420000000000000000e+02 1.270659732818603516e+01 -4.072688293457031250e+01 1.849044114351272583e-01 -3.892784714698791504e-01 -6.131222099065780640e-02 -3.914692252874374390e-02
9.430000000000000000e+02 7.887949371337890625e+01 4.015355682373046875e+01 -4.814131557941436768e-02 7.019132137298583984e+00 2.091297388076782227e+00 -5.733668431639671326e-02
9.440000000000000000e+02 7.910565185546875000e+01 3.890717315673828125e+01 3.183051943778991699e-02 7.096357345581054688e+00 2.138456344604492188e+00 -2.897048182785511017e-02
9.450000000000000000e+02 7.719494628906250000e+01 3.751244735717773438e+01 5.371409468352794647e-03 6.983892917633056641e+00 2.096779346466064453e+00 -7.393631339073181152e-02
9.460000000000000000e+02 7.907863616943359375e+01 3.481552505493164062e+01 1.170717086642980576e-02 7.271860122680664062e+00 2.185070037841796875e+00 -3.876738250255584717e-02
9.470000000000000000e+02 7.718687438964843750e+01 3.334287643432617188e+01 1.323852781206369400e-02 7.041384696960449219e+00 2.116387128829956055e+00 -9.577948600053787231e-02
9.480000000000000000e+02 7.906759643554687500e+01 3.340736007690429688e+01 -1.471860520541667938e-02 7.332045555114746094e+00 2.195198059082031250e+00 -3.704381734132766724e-02
9.490000000000000000e+02 7.913626098632812500e+01 3.059164810180664062e+01 -8.735202252864837646e-03 7.456069946289062500e+00 2.234200477600097656e+00 -4.173361510038375854e-02
9.500000000000000000e+02 7.760728454589843750e+01 2.901909065246582031e+01 8.017147891223430634e-03 7.267952442169189453e+00 2.182790756225585938e+00 -1.259971112012863159e-01
9.510000000000000000e+02 7.929391479492187500e+01 2.641566658020019531e+01 3.472139593213796616e-03 7.712429046630859375e+00 2.314770460128784180e+00 -4.335637390613555908e-02
9.520000000000000000e+02 7.656065368652343750e+01 2.614071846008300781e+01 2.339723892509937286e-02 7.234227657318115234e+00 2.177287578582763672e+00 -2.120972722768783569e-01
9.530000000000000000e+02 7.931362152099609375e+01 2.502975463867187500e+01 2.019065868807956576e-05 7.814886569976806641e+00 2.344471931457519531e+00 -4.724780097603797913e-02
9.540000000000000000e+02 7.932531738281250000e+01 2.086950492858886719e+01 3.263880207668989897e-04 8.164121627807617188e+00 2.449334383010864258e+00 -5.212195217609405518e-02
9.550000000000000000e+02 7.933062744140625000e+01 1.947750473022460938e+01 -7.995187770575284958e-04 8.289887428283691406e+00 2.486726522445678711e+00 -5.180751904845237732e-02
9.560000000000000000e+02 7.796572113037109375e+01 2.081095123291015625e+01 1.314784749411046505e-03 7.873377799987792969e+00 2.362407684326171875e+00 -1.638693809509277344e-01
9.570000000000000000e+02 7.933766174316406250e+01 1.808383560180664062e+01 -3.252634196542203426e-04 8.417278289794921875e+00 2.525085926055908203e+00 -5.070867016911506653e-02
9.580000000000000000e+02 7.936479949951171875e+01 1.390178871154785156e+01 -4.814715590327978134e-03 8.782342910766601562e+00 2.633258581161499023e+00 -3.551185131072998047e-02
9.590000000000000000e+02 7.937480163574218750e+01 1.250925350189208984e+01 -5.858781747519969940e-03 8.879774093627929688e+00 2.662174463272094727e+00 -2.379740215837955475e-02
9.600000000000000000e+02 7.938570404052734375e+01 1.111665630340576172e+01 -8.549007587134838104e-03 8.950798988342285156e+00 2.682674884796142578e+00 -7.754642516374588013e-03
9.610000000000000000e+02 7.941387176513671875e+01 6.939252853393554688e+00 -1.778950169682502747e-02 8.860186576843261719e+00 2.652719020843505859e+00 8.045308291912078857e-02
9.620000000000000000e+02 7.941928100585937500e+01 5.544533252716064453e+00 -1.980411261320114136e-02 8.662765502929687500e+00 2.592888355255126953e+00 1.260128617286682129e-01
9.630000000000000000e+02 7.825938415527343750e+01 5.493176937103271484e+00 -9.728174656629562378e-02 8.477602958679199219e+00 2.514096498489379883e+00 2.998126745223999023e-01
9.640000000000000000e+02 7.942495727539062500e+01 4.148658275604248047e+00 -2.080910652875900269e-02 8.349670410156250000e+00 2.498658418655395508e+00 1.759923249483108521e-01
9.650000000000000000e+02 7.947618865966796875e+01 -3.650021553039550781e-02 -1.102462224662303925e-02 6.628386020660400391e+00 1.985208511352539062e+00 3.024962544441223145e-01
9.660000000000000000e+02 7.949198150634765625e+01 -1.428899526596069336e+00 8.485923521220684052e-03 5.835116863250732422e+00 1.753080725669860840e+00 3.092611134052276611e-01
9.670000000000000000e+02 7.948475646972656250e+01 -4.207823753356933594e+00 3.474253043532371521e-02 4.449282646179199219e+00 1.345207571983337402e+00 1.901343613862991333e-01
9.680000000000000000e+02 7.946154785156250000e+01 -8.392223358154296875e+00 3.537894412875175476e-02 4.404202461242675781e+00 1.331874370574951172e+00 -1.890829801559448242e-01
9.690000000000000000e+02 7.949094390869140625e+01 -1.117832469940185547e+01 1.128821168094873428e-02 5.709115505218505859e+00 1.716121077537536621e+00 -3.009504973888397217e-01
9.700000000000000000e+02 7.948765563964843750e+01 -1.532430267333984375e+01 -1.465838961303234100e-02 7.845601558685302734e+00 2.349282979965209961e+00 -2.157873660326004028e-01
9.710000000000000000e+02 7.946675872802734375e+01 -1.809101676940917969e+01 -1.250965800136327744e-02 8.663025856018066406e+00 2.595155000686645508e+00 -1.248380765318870544e-01
9.720000000000000000e+02 7.939959716796875000e+01 -2.365483093261718750e+01 -4.083083476871252060e-03 9.069617271423339844e+00 2.719660282135009766e+00 -1.153037999756634235e-03
9.730000000000000000e+02 7.937508392333984375e+01 -2.505549049377441406e+01 -8.818796835839748383e-03 9.028100013732910156e+00 2.705784320831298828e+00 1.372055802494287491e-02
9.740000000000000000e+02 7.934088134765625000e+01 -2.925939178466796875e+01 -2.379677258431911469e-03 8.797195434570312500e+00 2.638444900512695312e+00 3.462757915258407593e-02
9.750000000000000000e+02 7.938101196289062500e+01 -3.203288650512695312e+01 -5.858946591615676880e-03 8.636962890625000000e+00 2.589331150054931641e+00 2.819162607192993164e-02
9.760000000000000000e+02 7.937137603759765625e+01 -3.611038970947265625e+01 1.103291008621454239e-02 8.390655517578125000e+00 2.520506381988525391e+00 2.921983227133750916e-02
9.770000000000000000e+02 7.926761627197265625e+01 -3.742569351196289062e+01 -2.860373072326183319e-02 8.284751892089843750e+00 2.476844549179077148e+00 5.757077783346176147e-02
9.780000000000000000e+02 7.903322601318359375e+01 -3.873133850097656250e+01 8.445344865322113037e-03 8.175880432128906250e+00 2.455297708511352539e+00 6.367071717977523804e-02
9.790000000000000000e+02 7.865909576416015625e+01 -4.009328460693359375e+01 -2.943231351673603058e-02 8.072193145751953125e+00 2.412828207015991211e+00 8.788248896598815918e-02
9.800000000000000000e+02 1.233519172668457031e+01 3.741685104370117188e+01 2.775723636150360107e-01 -7.095469236373901367e-01 -1.295923739671707153e-01 1.556781679391860962e-01
9.810000000000000000e+02 2.745678520202636719e+01 4.098579406738281250e+01 6.269919872283935547e-01 -2.325787842273712158e-01 1.183239668607711792e-01 1.927888207137584686e-02
9.820000000000000000e+02 6.711528015136718750e+01 4.081682205200195312e+01 2.476011216640472412e-01 5.171401500701904297e+00 1.625700831413269043e+00 -5.480602383613586426e-02
9.830000000000000000e+02 1.296380758285522461e+00 2.717481136322021484e+00 -3.720498716575093567e-05 8.083761349553242326e-05 1.308978789893444628e-05 -4.171835462329909205e-05
9.840000000000000000e+02 3.180166959762573242e+00 2.657209634780883789e+00 -1.460927451262250543e-04 6.683072570012882352e-05 -2.377860437263734639e-05 3.111778351012617350e-04
9.850000000000000000e+02 5.283233642578125000e+00 2.550575733184814453e+00 2.911616866185795516e-05 -1.413177815265953541e-04 -3.366048622410744429e-05 -1.940774964168667793e-04
9.860000000000000000e+02 1.758389234542846680e+00 6.239470005035400391e+00 3.074806299991905689e-04 1.047640853357734159e-05 9.538710583001375198e-05 -3.004546160809695721e-04
9.870000000000000000e+02 5.968971252441406250e-01 9.212606430053710938e+00 -8.240646566264331341e-04 -4.086295302840881050e-05 -2.594782854430377483e-04 3.438442945480346680e-05
9.880000000000000000e+02 6.055507063865661621e-01 1.203243732452392578e+01 -7.421152549795806408e-04 3.761724336072802544e-03 9.058827417902648449e-04 -1.394959166646003723e-03
9.890000000000000000e+02 1.826372504234313965e+00 1.187886333465576172e+01 2.813967876136302948e-03 1.181689091026782990e-03 1.198697136715054512e-03 -3.654401749372482300e-03
9.900000000000000000e+02 6.337357163429260254e-01 1.766773223876953125e+01 -2.205595839768648148e-03 4.837159812450408936e-02 1.384980045258998871e-02 -6.032055243849754333e-03
9.910000000000000000e+02 7.700338840484619141e+00 1.839297294616699219e+01 -1.329256296157836914e-01 4.802055656909942627e-02 -2.547152340412139893e-02 3.591233864426612854e-02
9.920000000000000000e+02 6.126896739006042480e-01 2.192449188232421875e+01 -6.742477416992187500e-03 2.200729958713054657e-02 4.579446744173765182e-03 1.938774250447750092e-02
9.930000000000000000e+02 6.590001583099365234e-01 2.333941650390625000e+01 -4.000253044068813324e-03 -3.429888561367988586e-02 -1.148974150419235229e-02 3.073006309568881989e-02
9.940000000000000000e+02 6.716237068176269531e-01 2.477573776245117188e+01 -5.608290899544954300e-03 -1.108484938740730286e-01 -3.493703529238700867e-02 4.105922579765319824e-02
9.950000000000000000e+02 6.889425516128540039e-01 2.904200744628906250e+01 -1.622391573619097471e-04 -4.100709557533264160e-01 -1.230699568986892700e-01 4.976648837327957153e-02
9.960000000000000000e+02 7.076688408851623535e-01 3.045950126647949219e+01 9.929555235430598259e-04 -5.102498531341552734e-01 -1.527770608663558960e-01 4.894011095166206360e-02
9.970000000000000000e+02 2.118271112442016602e+00 3.040302848815917969e+01 8.613732643425464630e-03 -5.120691657066345215e-01 -1.510366350412368774e-01 1.348634213209152222e-01
9.980000000000000000e+02 7.284201383590698242e-01 3.187732887268066406e+01 3.864980768412351608e-03 -6.018213033676147461e-01 -1.793868988752365112e-01 4.405418783426284790e-02
9.990000000000000000e+02 7.063052654266357422e-01 3.606087112426757812e+01 -1.498218276537954807e-03 -7.983459830284118652e-01 -2.399532496929168701e-01 2.355597727000713348e-02
1.000000000000000000e+03 3.158803462982177734e+00 3.731441497802734375e+01 3.286230564117431641e-02 -7.779198288917541504e-01 -2.235172688961029053e-01 7.294649630784988403e-02
1.001000000000000000e+03 8.753921389579772949e-01 3.876630783081054688e+01 -3.909686114639043808e-03 -8.584051132202148438e-01 -2.586944401264190674e-01 1.110539026558399200e-02
1.002000000000000000e+03 1.250902056694030762e+00 4.011187362670898438e+01 8.672446943819522858e-03 -8.681384921073913574e-01 -2.578397989273071289e-01 4.695599898695945740e-03
1.003000000000000000e+03 1.037018871307373047e+01 1.864805102348327637e+00 -1.611521583981812000e-04 1.772798168531153351e-05 -4.302725574234500527e-05 -3.343778953421860933e-04
1.004000000000000000e+03 8.903701782226562500e+00 1.877175092697143555e+00 -1.087504715542308986e-04 -7.692270446568727493e-05 -5.570195207837969065e-05 -3.813811345025897026e-04
1.005000000000000000e+03 8.187286376953125000e+00 1.872667908668518066e+00 -1.523742539575323462e-04 1.621934206923469901e-04 2.945753749372670427e-06 3.025778860319405794e-04
1.006000000000000000e+03 7.475238323211669922e+00 1.866037011146545410e+00 -7.199857645900920033e-05 -1.354731793981045485e-04 -6.224153185030445457e-05 -3.293626359663903713e-04
1.007000000000000000e+03 5.344878196716308594e+00 1.850594878196716309e+00 -1.783903280738741159e-04 1.780497841536998749e-04 -1.021639022269482666e-07 2.510396589059382677e-04
1.008000000000000000e+03 4.631906509399414062e+00 1.855262637138366699e+00 -5.417985084932297468e-05 -9.316325304098427296e-05 -4.420293043949641287e-05 -1.108521828427910805e-04
1.009000000000000000e+03 3.918398618698120117e+00 1.866341233253479004e+00 -1.447956310585141182e-04 1.130143573391251266e-04 -9.534383934806101024e-06 2.395500487182289362e-04
1.010000000000000000e+03 3.208734273910522461e+00 1.878154516220092773e+00 -2.219350335508352146e-06 -8.329532283823937178e-05 -2.565440263424534351e-05 -5.254487405181862414e-05
1.011000000000000000e+03 2.509320735931396484e+00 1.881494522094726562e+00 -1.250375062227249146e-04 5.237317236606031656e-05 -2.179930015699937940e-05 1.890020357677713037e-04
1.012000000000000000e+03 1.816761493682861328e+00 1.884058237075805664e+00 1.195430559164378792e-05 -4.000402623205445707e-05 -8.414916010224260390e-06 -1.290185446123359725e-05
1.013000000000000000e+03 1.263555049896240234e+01 1.767462491989135742e+00 -2.877267434087116271e-05 2.143631354556418955e-05 -2.200908511440502480e-06 -2.072480128845199943e-06
1.014000000000000000e+03 1.331689834594726562e+01 1.742112874984741211e+00 -1.234642841154709458e-04 -5.449962554848752916e-05 -5.338917617336846888e-05 -2.140909637091681361e-04
1.015000000000000000e+03 1.513098526000976562e+01 1.858806133270263672e+00 1.132672241510590538e-05 2.541163994465023279e-04 7.963294046930968761e-05 2.429735177429392934e-04
1.016000000000000000e+03 1.326033306121826172e+01 2.481321334838867188e+00 -1.363162882626056671e-04 1.084119285224005580e-04 -8.371307558263652027e-06 5.030582542531192303e-05
1.017000000000000000e+03 1.476209068298339844e+01 3.612865209579467773e+00 -1.310163206653669477e-04 4.346553396317176521e-05 -2.626523382787127048e-05 -1.388379605486989021e-04
1.018000000000000000e+03 1.405688190460205078e+01 7.567220211029052734e+00 8.887766744010150433e-04 -6.494256376754492521e-05 2.471502521075308323e-04 4.023455840069800615e-04
1.019000000000000000e+03 1.351659393310546875e+01 8.829912185668945312e+00 -1.182005042210221291e-03 -6.419637356884777546e-04 -5.471906042657792568e-04 -4.687807813752442598e-04
1.020000000000000000e+03 1.288286399841308594e+01 1.006025028228759766e+01 1.408092561177909374e-03 2.414984337519854307e-04 4.948772839270532131e-04 1.031011110171675682e-03
1.021000000000000000e+03 1.027866554260253906e+01 1.173527908325195312e+01 -7.435792358592152596e-04 -1.921337796375155449e-03 -7.994751213118433952e-04 -1.443619723431766033e-03
1.022000000000000000e+03 9.390509605407714844e+00 1.278889751434326172e+01 5.363008822314441204e-04 4.247281234711408615e-03 1.435074722394347191e-03 2.133520320057868958e-03
1.023000000000000000e+03 8.455751419067382812e+00 1.558703708648681641e+01 -3.923148382455110550e-03 2.006065472960472107e-02 4.841251764446496964e-03 -6.788657512515783310e-03
1.024000000000000000e+03 1.629913520812988281e+01 1.690646553039550781e+01 -7.158200740814208984e-01 -1.267573952674865723e+00 -5.950182080268859863e-01 7.072216868400573730e-01
1.025000000000000000e+03 1.659829139709472656e+01 1.313392639160156250e+01 -5.938662290573120117e-01 -1.815556287765502930e+00 -7.228267192840576172e-01 9.678310751914978027e-01
1.026000000000000000e+03 1.765873718261718750e+01 1.049047851562500000e+01 -3.649736940860748291e-01 -1.798191308975219727e+00 -6.489495038986206055e-01 7.231708168983459473e-01
1.027000000000000000e+03 1.834340858459472656e+01 7.783618927001953125e+00 -1.215939596295356750e-01 -1.359993934631347656e+00 -4.444763958454132080e-01 3.863102197647094727e-01
1.028000000000000000e+03 1.882384872436523438e+01 5.031741619110107422e+00 -6.208943948149681091e-02 -8.780438899993896484e-01 -2.820399999618530273e-01 2.133288830518722534e-01
1.029000000000000000e+03 1.923519706726074219e+01 -3.779141426086425781e+00 -1.060437224805355072e-02 -1.599642448127269745e-02 -7.980238646268844604e-03 8.742198348045349121e-03
1.030000000000000000e+03 2.010419845581054688e+01 -4.023471832275390625e+00 -2.603301964700222015e-02 -2.691044099628925323e-02 -1.588303782045841217e-02 2.245094254612922668e-02
1.031000000000000000e+03 2.090282630920410156e+01 -4.202578544616699219e+00 -4.127546027302742004e-02 -3.560048714280128479e-02 -2.306278422474861145e-02 3.698354586958885193e-02
1.032000000000000000e+03 2.303530502319335938e+01 -4.597868442535400391e+00 -1.118259876966476440e-01 -3.728143498301506042e-02 -4.473222419619560242e-02 9.115938097238540649e-02
1.033000000000000000e+03 2.445660018920898438e+01 -4.759178638458251953e+00 -1.831181496381759644e-01 -3.060774691402912140e-02 -6.411776691675186157e-02 1.202131882309913635e-01
1.034000000000000000e+03 2.517246627807617188e+01 -4.818571090698242188e+00 -2.264203280210494995e-01 -2.674745209515094757e-02 -7.595033198595046997e-02 1.323315501213073730e-01
1.035000000000000000e+03 2.588984870910644531e+01 -4.872113227844238281e+00 -2.725868523120880127e-01 -2.173428423702716827e-02 -8.829633891582489014e-02 1.434712260961532593e-01
1.036000000000000000e+03 2.806805992126464844e+01 -4.942621707916259766e+00 -4.378935396671295166e-01 -9.741939604282379150e-03 -1.342906504869461060e-01 1.691627353429794312e-01
1.037000000000000000e+03 2.879811286926269531e+01 -4.955328941345214844e+00 -4.998621046543121338e-01 -5.463644396513700485e-03 -1.515977233648300171e-01 1.751486212015151978e-01
1.038000000000000000e+03 3.180210876464843750e+01 -4.253273963928222656e+00 -7.761589288711547852e-01 2.614228054881095886e-03 -2.320634126663208008e-01 2.580642998218536377e-01
1.039000000000000000e+03 3.100882720947265625e+01 -4.947697639465332031e+00 -7.047869563102722168e-01 2.477237023413181305e-03 -2.106929123401641846e-01 1.882678270339965820e-01
1.040000000000000000e+03 3.174971580505371094e+01 -4.940196990966796875e+00 -7.787041664123535156e-01 4.781728144735097885e-03 -2.321767359972000122e-01 1.908183246850967407e-01
1.041000000000000000e+03 3.328958892822265625e+01 -4.231030464172363281e+00 -9.190915822982788086e-01 6.915887817740440369e-03 -2.736527025699615479e-01 2.645988762378692627e-01
1.042000000000000000e+03 3.552724075317382812e+01 -4.173461914062500000e+00 -1.143632411956787109e+00 9.988361969590187073e-03 -3.400932252407073975e-01 2.710403800010681152e-01
1.043000000000000000e+03 3.622711944580078125e+01 -4.834271430969238281e+00 -1.262423157691955566e+00 8.762842044234275818e-03 -3.760980963706970215e-01 1.978241056203842163e-01
1.044000000000000000e+03 3.847550582885742188e+01 -4.769594192504882812e+00 -1.519248366355895996e+00 6.333678495138883591e-03 -4.538744091987609863e-01 1.988843530416488647e-01
1.045000000000000000e+03 3.772537994384765625e+01 -4.790550708770751953e+00 -1.433049917221069336e+00 7.356147281825542450e-03 -4.277081191539764404e-01 1.984700709581375122e-01
1.046000000000000000e+03 3.922674560546875000e+01 -4.749584197998046875e+00 -1.606219053268432617e+00 5.971517879515886307e-03 -4.800742566585540771e-01 1.994617134332656860e-01
1.047000000000000000e+03 4.223410415649414062e+01 -4.676438808441162109e+00 -1.952684998512268066e+00 2.593886340036988258e-03 -5.850273370742797852e-01 2.012116611003875732e-01
1.048000000000000000e+03 4.298644638061523438e+01 -4.661258220672607422e+00 -2.038081169128417969e+00 7.608854211866855621e-04 -6.111961007118225098e-01 2.015932202339172363e-01
1.049000000000000000e+03 4.449084854125976562e+01 -4.633290767669677734e+00 -2.207262992858886719e+00 -7.872733986005187035e-04 -6.624150872230529785e-01 2.028151452541351318e-01
1.050000000000000000e+03 4.599534988403320312e+01 -4.610928058624267578e+00 -2.371727943420410156e+00 -2.388590248301625252e-03 -7.122349739074707031e-01 2.036852091550827026e-01
1.051000000000000000e+03 4.674734878540039062e+01 -4.600254058837890625e+00 -2.451977252960205078e+00 -1.530667766928672791e-03 -7.360523343086242676e-01 2.036570310592651367e-01
1.052000000000000000e+03 4.749925994873046875e+01 -4.591442108154296875e+00 -2.529897451400756836e+00 -3.542317543178796768e-03 -7.600319385528564453e-01 2.043154239654541016e-01
1.053000000000000000e+03 4.975347137451171875e+01 -4.571859359741210938e+00 -2.752064704895019531e+00 -1.797138247638940811e-03 -8.261585831642150879e-01 2.027891576290130615e-01
1.054000000000000000e+03 5.200643920898437500e+01 -4.561020374298095703e+00 -2.946655511856079102e+00 -2.367505105212330818e-03 -8.847069144248962402e-01 1.957522630691528320e-01
1.055000000000000000e+03 5.275720214843750000e+01 -4.557764530181884766e+00 -3.002576828002929688e+00 1.289039617404341698e-03 -9.003863334655761719e-01 1.921048015356063843e-01
1.056000000000000000e+03 5.500756835937500000e+01 -4.553244113922119141e+00 -3.135606765747070312e+00 2.262765774503350258e-03 -9.400031566619873047e-01 1.734001785516738892e-01
1.057000000000000000e+03 5.575742721557617188e+01 -4.553238391876220703e+00 -3.164308786392211914e+00 9.218468330800533295e-03 -9.465270638465881348e-01 1.624704599380493164e-01
1.058000000000000000e+03 5.803266525268554688e+01 -3.911946535110473633e+00 -2.698222875595092773e+00 5.423643440008163452e-02 -7.931959629058837891e-01 6.953407078981399536e-02
1.059000000000000000e+03 5.875146865844726562e+01 -4.569469451904296875e+00 -3.150974273681640625e+00 3.204083070158958435e-02 -9.356800317764282227e-01 7.889129966497421265e-02
1.060000000000000000e+03 5.949869918823242188e+01 -4.576653480529785156e+00 -3.099688768386840820e+00 3.557339683175086975e-02 -9.192346334457397461e-01 4.448297619819641113e-02
1.061000000000000000e+03 6.099104690551757812e+01 -4.593837738037109375e+00 -2.882267236709594727e+00 6.728497147560119629e-02 -8.444946408271789551e-01 -7.349825650453567505e-02
1.062000000000000000e+03 6.173532104492187500e+01 -4.603352069854736328e+00 -2.674866676330566406e+00 8.352128416299819946e-02 -7.774035930633544922e-01 -1.753459870815277100e-01
1.063000000000000000e+03 6.316149520874023438e+01 -4.069875240325927734e+00 -1.387089490890502930e+00 4.600402712821960449e-01 -2.781147956848144531e-01 -8.576614856719970703e-01
1.064000000000000000e+03 6.465193939208984375e+01 -4.622360706329345703e+00 -8.528326749801635742e-01 7.408475279808044434e-01 -3.359554335474967957e-02 -1.373409390449523926e+00
1.065000000000000000e+03 6.559251403808593750e+01 -4.664812088012695312e+00 3.992950022220611572e-01 1.452722907066345215e+00 5.556054115295410156e-01 -2.429600477218627930e+00
1.066000000000000000e+03 6.885453796386718750e+01 -4.817067146301269531e+00 7.180763483047485352e-01 2.031684494018554688e+01 6.310476303100585938e+00 -5.569186806678771973e-01
1.067000000000000000e+03 6.923882293701171875e+01 -5.094908237457275391e+00 3.067489147186279297e+00 1.994740295410156250e+01 6.904467582702636719e+00 1.747029304504394531e+00
1.068000000000000000e+03 6.939067077636718750e+01 -5.267875671386718750e+00 4.470485687255859375e+00 1.937187957763671875e+01 7.152709484100341797e+00 2.414410591125488281e+00
1.069000000000000000e+03 6.978177642822265625e+01 -6.061367034912109375e+00 9.266309738159179688e+00 1.648381423950195312e+01 7.725037097930908203e+00 1.342431068420410156e+00
1.070000000000000000e+03 6.981687927246093750e+01 -6.740353107452392578e+00 9.068501472473144531e+00 1.632266235351562500e+01 7.617348670959472656e+00 -1.403130412101745605e+00
1.071000000000000000e+03 6.974205780029296875e+01 -6.964159965515136719e+00 8.351426124572753906e+00 1.692896270751953125e+01 7.584116935729980469e+00 -2.158466100692749023e+00
1.072000000000000000e+03 6.961354827880859375e+01 -7.150267601013183594e+00 7.311985492706298828e+00 1.791778182983398438e+01 7.568930625915527344e+00 -2.702043533325195312e+00
1.073000000000000000e+03 6.948580169677734375e+01 -7.319258213043212891e+00 6.048457145690917969e+00 1.883949851989746094e+01 7.466386795043945312e+00 -2.764109373092651367e+00
1.074000000000000000e+03 6.905048370361328125e+01 -7.805568218231201172e+00 2.050093650817871094e+00 2.046048736572265625e+01 6.753174304962158203e+00 -8.278475999832153320e-01
1.075000000000000000e+03 6.845488739013671875e+01 -7.996243476867675781e+00 1.068581491708755493e-01 1.968150711059570312e+01 5.936509609222412109e+00 3.269492626190185547e+00
1.076000000000000000e+03 6.825755310058593750e+01 -8.063433647155761719e+00 5.844249855726957321e-03 1.817342185974121094e+01 5.453779697418212891e+00 4.480393886566162109e+00
1.077000000000000000e+03 6.515617370605468750e+01 -8.083361625671386719e+00 -2.724747061729431152e-01 9.570977687835693359e-01 2.053869217634201050e-01 1.792933583259582520e+00
1.078000000000000000e+03 6.296786117553710938e+01 -8.580574035644531250e+00 -1.580375671386718750e+00 3.637606203556060791e-01 -3.649845123291015625e-01 6.740025877952575684e-01
1.079000000000000000e+03 6.299723434448242188e+01 -8.119332313537597656e+00 -2.093129634857177734e+00 2.059842497110366821e-01 -5.661435723304748535e-01 4.523319900035858154e-01
1.080000000000000000e+03 6.239403915405273438e+01 -8.127976417541503906e+00 -2.368618965148925781e+00 1.192461475729942322e-01 -6.748118996620178223e-01 2.703505158424377441e-01
1.081000000000000000e+03 5.951600646972656250e+01 -8.177162170410156250e+00 -2.992158651351928711e+00 4.200388491153717041e-02 -8.850464224815368652e-01 -6.292615085840225220e-02
1.082000000000000000e+03 6.025842666625976562e+01 -8.162765502929687500e+00 -2.926765918731689453e+00 5.078159272670745850e-02 -8.627952933311462402e-01 -1.766307465732097626e-02
1.083000000000000000e+03 5.877163696289062500e+01 -8.190509796142578125e+00 -3.031879663467407227e+00 2.760498970746994019e-02 -9.012823700904846191e-01 -1.029066368937492371e-01
1.084000000000000000e+03 5.653099822998046875e+01 -8.218344688415527344e+00 -3.032422780990600586e+00 1.549455150961875916e-02 -9.050784707069396973e-01 -1.692220270633697510e-01
1.085000000000000000e+03 5.578347396850585938e+01 -8.224647521972656250e+00 -3.007340192794799805e+00 1.006362400949001312e-02 -8.991829752922058105e-01 -1.838483959436416626e-01
1.086000000000000000e+03 5.353900909423828125e+01 -8.238162994384765625e+00 -2.883156776428222656e+00 6.320245098322629929e-03 -8.630509972572326660e-01 -2.089852541685104370e-01
1.087000000000000000e+03 5.428734207153320312e+01 -8.234388351440429688e+00 -2.931022167205810547e+00 6.352784577757120132e-03 -8.774008154869079590e-01 -2.028475552797317505e-01
1.088000000000000000e+03 5.204267501831054688e+01 -8.246848106384277344e+00 -2.775272369384765625e+00 3.755360143259167671e-03 -8.314550518989562988e-01 -2.186511754989624023e-01
1.089000000000000000e+03 5.054673385620117188e+01 -8.256072044372558594e+00 -2.654894590377807617e+00 2.621681895107030869e-03 -7.956818938255310059e-01 -2.235467582941055298e-01
1.090000000000000000e+03 4.755759429931640625e+01 -8.283788681030273438e+00 -2.397440910339355469e+00 5.587348714470863342e-04 -7.190646529197692871e-01 -2.283643782138824463e-01
1.091000000000000000e+03 4.606298828125000000e+01 -8.304176330566406250e+00 -2.265173912048339844e+00 -9.111434337683022022e-04 -6.798255443572998047e-01 -2.289715856313705444e-01
1.092000000000000000e+03 4.531539154052734375e+01 -8.315731048583984375e+00 -2.197697162628173828e+00 -3.091796766966581345e-03 -6.602367162704467773e-01 -2.285893112421035767e-01
1.093000000000000000e+03 4.456793212890625000e+01 -8.327687263488769531e+00 -2.131388425827026367e+00 -3.226952394470572472e-03 -6.403846144676208496e-01 -2.279946953058242798e-01
1.094000000000000000e+03 4.157830810546875000e+01 -8.389419555664062500e+00 -1.870138406753540039e+00 -7.067207247018814087e-03 -5.631616711616516113e-01 -2.215356528759002686e-01
1.095000000000000000e+03 4.317768859863281250e+01 -9.063481330871582031e+00 -1.865442037582397461e+00 -8.797740563750267029e-03 -5.622719526290893555e-01 -2.812230885028839111e-01
1.096000000000000000e+03 4.008197784423828125e+01 -8.427304267883300781e+00 -1.743483304977416992e+00 -8.532977662980556488e-03 -5.256049036979675293e-01 -2.169637084007263184e-01
1.097000000000000000e+03 3.783545684814453125e+01 -8.487993240356445312e+00 -1.557281970977783203e+00 -1.156754978001117706e-02 -4.706548452377319336e-01 -2.089951336383819580e-01
1.098000000000000000e+03 3.483168411254882812e+01 -8.571139335632324219e+00 -1.316482782363891602e+00 -1.509417872875928879e-02 -3.994730710983276367e-01 -1.941491365432739258e-01
1.099000000000000000e+03 3.708514022827148438e+01 -8.509370803833007812e+00 -1.496842980384826660e+00 -1.243712659925222397e-02 -4.527840316295623779e-01 -2.054254710674285889e-01
1.100000000000000000e+03 3.858492660522460938e+01 -8.467108726501464844e+00 -1.618907451629638672e+00 -1.062401942908763885e-02 -4.888594448566436768e-01 -2.119577527046203613e-01
1.101000000000000000e+03 3.558381271362304688e+01 -8.551642417907714844e+00 -1.376455068588256836e+00 -1.474239584058523178e-02 -4.173592329025268555e-01 -1.981800794601440430e-01
1.102000000000000000e+03 3.407830429077148438e+01 -8.589377403259277344e+00 -1.257764339447021484e+00 -1.583586260676383972e-02 -3.820800483226776123e-01 -1.890942007303237915e-01
1.103000000000000000e+03 3.256947326660156250e+01 -8.624933242797851562e+00 -1.139260530471801758e+00 -1.668105646967887878e-02 -3.467824757099151611e-01 -1.800433695316314697e-01
1.104000000000000000e+03 2.952791786193847656e+01 -8.664566993713378906e+00 -9.021856784820556641e-01 -1.415805146098136902e-02 -2.749031186103820801e-01 -1.613034456968307495e-01
1.105000000000000000e+03 3.029075241088867188e+01 -8.657188415527343750e+00 -9.613729119300842285e-01 -1.509274449199438095e-02 -2.929396927356719971e-01 -1.649263948202133179e-01
1.106000000000000000e+03 2.722299385070800781e+01 -8.635403633117675781e+00 -7.209213972091674805e-01 -7.314119022339582443e-03 -2.184706479310989380e-01 -1.485691070556640625e-01
1.107000000000000000e+03 2.645093345642089844e+01 -8.618258476257324219e+00 -6.604492664337158203e-01 -4.209843464195728302e-03 -1.993977427482604980e-01 -1.459700614213943481e-01
1.108000000000000000e+03 2.334140968322753906e+01 -8.432270050048828125e+00 -4.206360280513763428e-01 1.168018579483032227e-02 -1.226867586374282837e-01 -1.319215595722198486e-01
1.109000000000000000e+03 2.091372489929199219e+01 -8.255762100219726562e+00 -2.529131770133972168e-01 7.981997914612293243e-03 -7.347934693098068237e-02 -1.162385344505310059e-01
1.110000000000000000e+03 2.006015777587890625e+01 -8.090675354003906250e+00 -1.940933912992477417e-01 -2.812991384416818619e-03 -5.907191336154937744e-02 -1.039126887917518616e-01
1.111000000000000000e+03 1.821615791320800781e+01 -7.318066596984863281e+00 -4.084972664713859558e-02 -2.548362687230110168e-02 -1.990000531077384949e-02 -2.943104319274425507e-02
1.112000000000000000e+03 6.959609985351562500e+01 -7.667943477630615234e+00 4.010618209838867188e+00 1.834137535095214844e+01 6.705598354339599609e+00 -2.312872171401977539e+00
1.113000000000000000e+03 6.797780609130859375e+01 -4.347654819488525391e+00 -1.185513213276863098e-01 1.464956188201904297e+01 4.359302997589111328e+00 -5.258714199066162109e+00
1.114000000000000000e+03 6.981825256347656250e+01 -6.280663490295410156e+00 9.630468368530273438e+00 1.611672592163085938e+01 7.724158287048339844e+00 4.410770237445831299e-01
1.115000000000000000e+03 7.008797454833984375e+01 -5.718005657196044922e+00 7.072518825531005859e+00 1.555642986297607422e+01 6.788684368133544922e+00 1.976332664489746094e+00
1.116000000000000000e+03 6.936009216308593750e+01 -7.489195346832275391e+00 4.587697982788085938e+00 1.953300476074218750e+01 7.236210823059082031e+00 -2.447636365890502930e+00
1.117000000000000000e+03 6.997677612304687500e+01 -5.470531463623046875e+00 6.074676513671875000e+00 1.625883293151855469e+01 6.700052738189697266e+00 2.385410308837890625e+00
1.118000000000000000e+03 6.915695953369140625e+01 -8.161300659179687500e+00 9.171109199523925781e-01 1.880782699584960938e+01 5.917481422424316406e+00 -2.894679605960845947e-01
1.119000000000000000e+03 6.873742675781250000e+01 -8.169993400573730469e+00 2.464764565229415894e-01 1.942814826965332031e+01 5.902387619018554688e+00 1.490556240081787109e+00
1.120000000000000000e+03 6.906516265869140625e+01 -4.923270225524902344e+00 1.728668212890625000e+00 2.022928619384765625e+01 6.587386131286621094e+00 6.658490896224975586e-01
1.121000000000000000e+03 6.865825653076171875e+01 -4.407707214355468750e+00 -3.428841531276702881e-01 1.822945404052734375e+01 5.365971088409423828e+00 -2.340067863464355469e+00
1.122000000000000000e+03 6.841958618164062500e+01 -4.746642589569091797e+00 -1.352179199457168579e-01 1.929012680053710938e+01 5.746472835540771484e+00 -3.482615232467651367e+00
1.123000000000000000e+03 6.759628295898437500e+01 -4.724338054656982422e+00 1.249318480491638184e+00 1.208932304382324219e+01 4.001592636108398438e+00 -6.859857082366943359e+00
1.124000000000000000e+03 6.537226104736328125e+01 -4.696432113647460938e+00 1.245459392666816711e-01 1.300574421882629395e+00 4.275361001491546631e-01 -2.148527383804321289e+00
1.125000000000000000e+03 6.519667053222656250e+01 -4.353026866912841797e+00 3.879332914948463440e-02 1.415543675422668457e+00 4.363011121749877930e-01 -2.271933317184448242e+00
1.126000000000000000e+03 6.643220520019531250e+01 -4.776518821716308594e+00 1.752402544021606445e+00 3.312059879302978516e+00 1.519338726997375488e+00 -4.231717109680175781e+00
1.127000000000000000e+03 6.700872039794921875e+01 -4.771544933319091797e+00 2.087174654006958008e+00 6.548146247863769531e+00 2.590596199035644531e+00 -5.957319259643554688e+00
1.128000000000000000e+03 6.779975891113281250e+01 -4.717838764190673828e+00 7.101801037788391113e-01 1.441092777252197266e+01 4.536332130432128906e+00 -6.483852386474609375e+00
1.129000000000000000e+03 6.513545989990234375e+01 -4.666677951812744141e+00 -2.447629570960998535e-01 1.026509404182434082e+00 2.345239371061325073e-01 -1.851809501647949219e+00
1.130000000000000000e+03 6.602758789062500000e+01 -4.711563110351562500e+00 1.096622467041015625e+00 2.294404983520507812e+00 1.017308235168457031e+00 -3.251423120498657227e+00
1.131000000000000000e+03 6.623861694335937500e+01 -4.721667289733886719e+00 1.436700463294982910e+00 2.805455923080444336e+00 1.272646903991699219e+00 -3.733384847640991211e+00
1.132000000000000000e+03 6.739570617675781250e+01 -4.734696865081787109e+00 1.677554845809936523e+00 1.002619552612304688e+01 3.511125087738037109e+00 -6.847834110260009766e+00
1.133000000000000000e+03 6.782312774658203125e+01 -8.052599906921386719e+00 8.035746216773986816e-01 1.452461624145507812e+01 4.598457336425781250e+00 6.567830085754394531e+00
1.134000000000000000e+03 6.474698638916015625e+01 -8.118367195129394531e+00 -7.162998318672180176e-01 7.261781096458435059e-01 2.963473089039325714e-03 1.403183579444885254e+00
1.135000000000000000e+03 6.741803741455078125e+01 -8.042460441589355469e+00 1.658363223075866699e+00 1.020994091033935547e+01 3.560491323471069336e+00 6.794917583465576172e+00
1.136000000000000000e+03 6.781835937500000000e+01 -8.349415779113769531e+00 2.992878556251525879e-01 1.396707630157470703e+01 4.279909133911132812e+00 5.828367710113525391e+00
1.137000000000000000e+03 6.679504394531250000e+01 -8.087066650390625000e+00 2.070247173309326172e+00 5.377331733703613281e+00 2.234273672103881836e+00 5.384966373443603516e+00
1.138000000000000000e+03 6.640131378173828125e+01 -8.042775154113769531e+00 1.516190886497497559e+00 3.198097705841064453e+00 1.414286613464355469e+00 4.045879364013671875e+00
1.139000000000000000e+03 6.701242828369140625e+01 -8.064286231994628906e+00 2.089289426803588867e+00 6.914017677307128906e+00 2.700992107391357422e+00 6.042624473571777344e+00
1.140000000000000000e+03 6.598682403564453125e+01 -8.064106941223144531e+00 1.057680964469909668e+00 2.162568569183349609e+00 9.660748839378356934e-01 3.114449262619018555e+00
1.141000000000000000e+03 6.559722137451171875e+01 -8.053068161010742188e+00 3.789652884006500244e-01 1.387441039085388184e+00 5.299218893051147461e-01 2.341161251068115234e+00
1.142000000000000000e+03 6.546612548828125000e+01 -8.556650161743164062e+00 5.553070902824401855e-01 2.068295717239379883e+00 7.870808243751525879e-01 2.836053848266601562e+00
1.143000000000000000e+03 1.452371978759765625e+01 1.739227533340454102e+00 1.364841155009344220e-04 -7.896495662862434983e-05 1.725574657029937953e-05 -1.528176362626254559e-04
1.144000000000000000e+03 1.463588714599609375e+01 2.564396142959594727e+00 -2.194947446696460247e-04 -3.952865954488515854e-04 -1.844343933044001460e-04 2.780272734526079148e-05
1.145000000000000000e+03 1.188761138916015625e+01 1.803030967712402344e+00 -1.499792560935020447e-04 5.154058453626930714e-05 -2.953160037577617913e-05 -1.763217296684160829e-04
1.146000000000000000e+03 6.172718048095703125e+01 -8.136672973632812500e+00 -2.642147064208984375e+00 9.472952783107757568e-02 -7.642253041267395020e-01 1.363559067249298096e-01
1.147000000000000000e+03 6.294813919067382812e+01 -9.046719551086425781e+00 -1.099543571472167969e+00 5.582623481750488281e-01 -1.623843461275100708e-01 9.308668971061706543e-01
1.148000000000000000e+03 6.354439163208007812e+01 -8.563733100891113281e+00 -1.199294924736022949e+00 4.800004661083221436e-01 -2.157883495092391968e-01 9.269813895225524902e-01
1.149000000000000000e+03 6.409854125976562500e+01 -8.566031455993652344e+00 -7.716091871261596680e-01 7.192492485046386719e-01 -1.570798270404338837e-02 1.326775431632995605e+00
1.150000000000000000e+03 6.236780166625976562e+01 -8.608714103698730469e+00 -1.838376164436340332e+00 2.581319808959960938e-01 -4.740732610225677490e-01 4.848943650722503662e-01
1.151000000000000000e+03 6.659027099609375000e+01 -8.063993453979492188e+00 1.807198286056518555e+00 4.331501483917236328e+00 1.841609835624694824e+00 4.709527969360351562e+00
1.152000000000000000e+03 6.522337341308593750e+01 -8.355212211608886719e+00 9.659114480018615723e-02 1.320895075798034668e+00 4.252458512783050537e-01 2.214218139648437500e+00
1.153000000000000000e+03 1.446753501892089844e+01 -3.373141288757324219e+00 -6.026789924362674356e-05 6.914407276781275868e-05 2.662852921275771223e-06 3.115149411314632744e-06
1.154000000000000000e+03 1.385083580017089844e+01 -2.962019920349121094e+00 1.384096831316128373e-04 -7.224977161968126893e-05 1.984797381737735122e-05 -3.554172508302144706e-05
1.155000000000000000e+03 1.879453849792480469e+01 -8.415403366088867188e+00 -1.453237831592559814e-01 -2.863674052059650421e-02 -5.218815803527832031e-02 -1.024320498108863831e-01
1.156000000000000000e+03 1.864530563354492188e+01 -9.715322494506835938e+00 -2.049181312322616577e-01 -6.635725498199462891e-02 -8.138261735439300537e-02 -1.808466315269470215e-01
1.157000000000000000e+03 3.184016227722167969e+00 3.476421117782592773e+00 3.970389298046939075e-05 4.033213190268725157e-05 2.401080746494699270e-05 -1.688772754278033972e-04
1.158000000000000000e+03 9.523067474365234375e+00 2.643218040466308594e+00 -9.607312676962465048e-05 -1.244593149749562144e-04 -6.615973688894882798e-05 -4.924145177938044071e-04
1.159000000000000000e+03 7.365207672119140625e+00 2.607642889022827148e+00 -1.792222174117341638e-04 3.296823124401271343e-04 4.513802559813484550e-05 3.669521829579025507e-04
1.160000000000000000e+03 6.765414237976074219e+00 1.858728408813476562e+00 -1.946825505001470447e-04 2.064645377686247230e-04 3.534594497978105210e-06 2.886001311708241701e-04
1.161000000000000000e+03 6.669348239898681641e+00 2.584038972854614258e+00 4.257966065779328346e-05 -2.217802248196676373e-04 -5.376016997615806758e-05 -3.233543829992413521e-04
1.162000000000000000e+03 7.934625625610351562e+00 3.406730175018310547e+00 -1.458181941416114569e-04 4.574826743919402361e-04 9.349934407509863377e-05 4.290165379643440247e-04
1.163000000000000000e+03 5.739197254180908203e+00 3.979877471923828125e+00 -2.479285467416048050e-04 5.267247324809432030e-04 8.363884990103542805e-05 3.120678302366286516e-04
1.164000000000000000e+03 1.869498372077941895e+00 7.671255111694335938e+00 -2.500957343727350235e-04 7.219624967547133565e-05 -5.336984395398758352e-05 2.004867710638791323e-04
1.165000000000000000e+03 3.976863920688629150e-01 3.783777713775634766e+00 -1.763006002875044942e-04 -1.774063275661319494e-04 -1.061120783560909331e-04 7.136876956792548299e-05
1.166000000000000000e+03 1.863658905029296875e+00 2.625640392303466797e+00 -9.029142529470846057e-05 -2.037735430349130183e-05 -3.320063115097582340e-05 1.738414430292323232e-04
1.167000000000000000e+03 3.876754045486450195e-01 2.095582723617553711e+00 1.085740077542141080e-04 4.102987986698281020e-06 3.380309863132424653e-05 -6.429223140003159642e-05
1.168000000000000000e+03 1.122901678085327148e+00 1.936223626136779785e+00 -3.312923581688664854e-05 -1.076120097422972322e-04 -4.222237475914880633e-05 1.462879008613526821e-04
1.169000000000000000e+03 1.112945365905761719e+01 1.836267471313476562e+00 3.247870336053892970e-05 -4.080966027686372399e-05 -2.499286665624822490e-06 1.339549053227528930e-04
1.170000000000000000e+03 8.659062385559082031e+00 3.420983552932739258e+00 3.300614480394870043e-05 -2.815365151036530733e-04 -7.455910963471978903e-05 -5.542348953895270824e-04
1.171000000000000000e+03 2.661148834228515625e+01 -4.908192634582519531e+00 -3.235173821449279785e-01 -1.805517077445983887e-02 -1.024717688560485840e-01 1.527572274208068848e-01
1.172000000000000000e+03 2.546141624450683594e+01 -2.842379331588745117e+00 -2.878999710083007812e-01 -7.768832147121429443e-02 -1.096764877438545227e-01 2.671224176883697510e-01
1.173000000000000000e+03 2.319530677795410156e+01 -3.912585496902465820e+00 -1.381297409534454346e-01 -5.967447534203529358e-02 -5.934126675128936768e-02 1.295202970504760742e-01
1.174000000000000000e+03 2.598871612548828125e+01 -4.198908805847167969e+00 -2.989763319492340088e-01 -3.533259406685829163e-02 -1.002926826477050781e-01 1.917068064212799072e-01
1.175000000000000000e+03 2.388356781005859375e+01 -4.016396045684814453e+00 -1.715006083250045776e-01 -5.363135039806365967e-02 -6.753958761692047119e-02 1.471662819385528564e-01
1.176000000000000000e+03 2.401943778991699219e+01 -3.358953237533569336e+00 -1.939272433519363403e-01 -7.470268011093139648e-02 -8.058897405862808228e-02 1.884191632270812988e-01
1.177000000000000000e+03 2.232781028747558594e+01 -4.474769592285156250e+00 -8.474681526422500610e-02 -3.959140181541442871e-02 -3.730146586894989014e-02 7.465688884258270264e-02
1.178000000000000000e+03 1.910310173034667969e+01 -2.611763000488281250e+00 -7.515258155763149261e-03 -2.905453741550445557e-02 -1.097093895077705383e-02 2.287128195166587830e-02
1.179000000000000000e+03 2.250614738464355469e+01 -3.776911258697509766e+00 -1.069890558719635010e-01 -6.377571821212768555e-02 -5.122943222522735596e-02 1.107009276747703552e-01
1.180000000000000000e+03 2.953140068054199219e+01 -4.958984851837158203e+00 -5.650938749313354492e-01 -2.608282258734107018e-03 -1.703106611967086792e-01 1.800921410322189331e-01
1.181000000000000000e+03 2.670094299316406250e+01 -4.230516910552978516e+00 -3.478949666023254395e-01 -2.900321595370769501e-02 -1.130694523453712463e-01 2.046065181493759155e-01
1.182000000000000000e+03 2.825139045715332031e+01 -2.878183603286743164e+00 -4.796149134635925293e-01 -3.852228075265884399e-02 -1.554411649703979492e-01 3.323002457618713379e-01
1.183000000000000000e+03 2.741827201843261719e+01 -4.249471664428710938e+00 -4.012119770050048828e-01 -2.333975769579410553e-02 -1.273655146360397339e-01 2.156873494386672974e-01
1.184000000000000000e+03 3.249291610717773438e+01 -4.928528785705566406e+00 -8.546425700187683105e-01 6.140126846730709076e-03 -2.545507252216339111e-01 1.927436739206314087e-01
1.185000000000000000e+03 3.037831497192382812e+01 -3.565254449844360352e+00 -6.436269879341125488e-01 -9.228715673089027405e-03 -1.958567053079605103e-01 3.089946210384368896e-01
1.186000000000000000e+03 3.197521972656250000e+01 -2.172657012939453125e+00 -7.442818284034729004e-01 -1.031810790300369263e-02 -2.263799905776977539e-01 4.339812695980072021e-01
1.187000000000000000e+03 2.959217834472656250e+01 -4.266307830810546875e+00 -5.773496031761169434e-01 -7.432514335960149765e-03 -1.754346340894699097e-01 2.421356290578842163e-01
1.188000000000000000e+03 1.347047519683837891e+01 -4.840262889862060547e+00 2.441895194351673126e-04 1.316313228016952053e-05 7.720579742453992367e-05 -2.775547545752488077e-05
1.189000000000000000e+03 1.288376522064208984e+01 -5.963582992553710938e+00 -2.276454324601218104e-04 -5.489801333169452846e-05 -8.476303628413006663e-05 3.997726889792829752e-05
1.190000000000000000e+03 8.142807960510253906e+00 -2.586592674255371094e+00 -1.091979138436727226e-04 -1.033028383972123265e-04 -6.375022348947823048e-05 -1.003875659080222249e-04
1.191000000000000000e+03 3.254496002197265625e+01 -4.243970870971679688e+00 -8.468471169471740723e-01 5.406385753303766251e-03 -2.524321973323822021e-01 2.616210877895355225e-01
1.192000000000000000e+03 3.547828674316406250e+01 -4.856053352355957031e+00 -1.177949190139770508e+00 8.624223992228507996e-03 -3.507975041866302490e-01 1.970459520816802979e-01
1.193000000000000000e+03 3.414068222045898438e+01 -2.854713439941406250e+00 -9.420641660690307617e-01 6.141121033579111099e-03 -2.807769179344177246e-01 3.926266133785247803e-01
1.194000000000000000e+03 3.478091812133789062e+01 -4.195003509521484375e+00 -1.067796945571899414e+00 9.132375940680503845e-03 -3.175993561744689941e-01 2.692586481571197510e-01
1.195000000000000000e+03 4.382050323486328125e+01 -8.341409683227539062e+00 -2.065360307693481445e+00 -4.993884358555078506e-03 -6.211062073707580566e-01 -2.272211760282516479e-01
1.196000000000000000e+03 4.541807174682617188e+01 -9.020071983337402344e+00 -2.039312362670898438e+00 -3.202088410034775734e-03 -6.127543449401855469e-01 -2.845327854156494141e-01
1.197000000000000000e+03 4.477357101440429688e+01 -9.740794181823730469e+00 -1.829317450523376465e+00 -6.127859000116586685e-03 -5.506335496902465820e-01 -3.317686915397644043e-01
1.198000000000000000e+03 4.467124557495117188e+01 -9.033037185668945312e+00 -1.981201648712158203e+00 -5.661128554493188858e-03 -5.960588455200195312e-01 -2.841212153434753418e-01
1.199000000000000000e+03 4.765766143798828125e+01 -8.987922668457031250e+00 -2.207353353500366211e+00 1.436105085304006934e-04 -6.621628999710083008e-01 -2.822850644588470459e-01
1.200000000000000000e+03 4.328185653686523438e+01 -9.774037361145019531e+00 -1.729016780853271484e+00 -1.073873136192560196e-02 -5.219266414642333984e-01 -3.295786380767822266e-01
1.201000000000000000e+03 4.083044815063476562e+01 -8.407676696777343750e+00 -1.806565165519714355e+00 -8.116918615996837616e-03 -5.444046258926391602e-01 -2.197639048099517822e-01
1.202000000000000000e+03 4.115377426147460938e+01 -1.055807304382324219e+01 -1.457764029502868652e+00 -1.785070076584815979e-02 -4.426844120025634766e-01 -3.660351634025573730e-01
1.203000000000000000e+03 4.168502044677734375e+01 -9.098705291748046875e+00 -1.750300049781799316e+00 -1.087610237300395966e-02 -5.283528566360473633e-01 -2.768474221229553223e-01
1.204000000000000000e+03 4.924513244628906250e+01 -9.681098937988281250e+00 -2.096344470977783203e+00 6.312043406069278717e-03 -6.270097494125366211e-01 -3.180887997150421143e-01
1.205000000000000000e+03 4.830464553833007812e+01 -8.276384353637695312e+00 -2.463180303573608398e+00 1.078116474673151970e-04 -7.389217019081115723e-01 -2.269745618104934692e-01
1.206000000000000000e+03 4.905191421508789062e+01 -8.269142150878906250e+00 -2.528763532638549805e+00 1.749741379171609879e-03 -7.581041455268859863e-01 -2.266195118427276611e-01
1.207000000000000000e+03 4.989478302001953125e+01 -8.964882850646972656e+00 -2.362944841384887695e+00 3.958180081099271774e-03 -7.076959609985351562e-01 -2.755964994430541992e-01
1.208000000000000000e+03 4.840282821655273438e+01 -8.980360984802246094e+00 -2.261109590530395508e+00 2.016181126236915588e-03 -6.777279973030090332e-01 -2.810536324977874756e-01
1.209000000000000000e+03 4.093733215332031250e+01 -9.118258476257324219e+00 -1.692983508110046387e+00 -1.131491456180810928e-02 -5.112895369529724121e-01 -2.740159034729003906e-01
1.210000000000000000e+03 4.104476928710937500e+01 -9.833320617675781250e+00 -1.576841592788696289e+00 -1.538685522973537445e-02 -4.776685535907745361e-01 -3.234344124794006348e-01
1.211000000000000000e+03 4.018820190429687500e+01 -9.138954162597656250e+00 -1.635755300521850586e+00 -1.276127435266971588e-02 -4.945549666881561279e-01 -2.717904448509216309e-01
1.212000000000000000e+03 3.869014739990234375e+01 -9.180254936218261719e+00 -1.522062897682189941e+00 -1.498073339462280273e-02 -4.611130952835083008e-01 -2.658377587795257568e-01
1.213000000000000000e+03 5.129448699951171875e+01 -8.251468658447265625e+00 -2.716467380523681641e+00 2.243950730189681053e-03 -8.142669796943664551e-01 -2.209010571241378784e-01
1.214000000000000000e+03 5.222474288940429688e+01 -9.641948699951171875e+00 -2.221159458160400391e+00 1.761121489107608795e-02 -6.610645055770874023e-01 -2.848331928253173828e-01
1.215000000000000000e+03 5.064044952392578125e+01 -8.957716941833496094e+00 -2.410677194595336914e+00 4.423311911523342133e-03 -7.218761444091796875e-01 -2.713948190212249756e-01
1.216000000000000000e+03 5.362862396240234375e+01 -8.928339004516601562e+00 -2.565393924713134766e+00 1.310324668884277344e-02 -7.656872272491455078e-01 -2.420768588781356812e-01
1.217000000000000000e+03 5.810073852539062500e+01 -8.831016540527343750e+00 -2.583866119384765625e+00 5.254098027944564819e-02 -7.593975067138671875e-01 -9.631361067295074463e-02
1.218000000000000000e+03 5.661397171020507812e+01 -8.879552841186523438e+00 -2.619798421859741211e+00 3.342823311686515808e-02 -7.759110331535339355e-01 -1.663481742143630981e-01
1.219000000000000000e+03 5.735752868652343750e+01 -8.857621192932128906e+00 -2.608555793762207031e+00 4.401442408561706543e-02 -7.693623900413513184e-01 -1.344996690750122070e-01
1.220000000000000000e+03 5.727814865112304688e+01 -8.210749626159667969e+00 -3.048613309860229492e+00 1.689952239394187927e-02 -9.095141291618347168e-01 -1.521645635366439819e-01
1.221000000000000000e+03 5.957679748535156250e+01 -8.760394096374511719e+00 -2.478680849075317383e+00 8.596893399953842163e-02 -7.178136110305786133e-01 1.058720145374536514e-02
1.222000000000000000e+03 3.632094955444335938e+01 -3.463222026824951172e+00 -1.174376964569091797e+00 1.042434107512235641e-02 -3.491857647895812988e-01 3.411500453948974609e-01
1.223000000000000000e+03 3.627478027343750000e+01 -4.150323867797851562e+00 -1.219664335250854492e+00 9.378312155604362488e-03 -3.630857765674591064e-01 2.727759778499603271e-01
1.224000000000000000e+03 6.102225875854492188e+01 -8.677324295043945312e+00 -2.256658077239990234e+00 1.446856707334518433e-01 -6.335917115211486816e-01 1.838462799787521362e-01
1.225000000000000000e+03 6.394376754760742188e+01 -4.627474308013916016e+00 -1.592260837554931641e+00 3.702537417411804199e-01 -3.666021227836608887e-01 -8.608294725418090820e-01
1.226000000000000000e+03 6.384477233886718750e+01 -4.077693462371826172e+00 -9.179360866546630859e-01 7.019873857498168945e-01 -6.478462368249893188e-02 -1.270792007446289062e+00
1.227000000000000000e+03 6.245023727416992188e+01 -4.050343513488769531e+00 -1.772513031959533691e+00 3.270218968391418457e-01 -4.336473345756530762e-01 -5.977801084518432617e-01
1.228000000000000000e+03 6.172550201416015625e+01 -4.025860786437988281e+00 -2.035822153091430664e+00 2.163035720586776733e-01 -5.458555817604064941e-01 -3.964926004409790039e-01
1.229000000000000000e+03 6.099334335327148438e+01 -4.000219345092773438e+00 -2.264396667480468750e+00 1.545955091714859009e-01 -6.329403519630432129e-01 -2.359648793935775757e-01
1.230000000000000000e+03 6.025661849975585938e+01 -3.975268125534057617e+00 -2.435699224472045898e+00 1.191857159137725830e-01 -6.949540972709655762e-01 -1.251984685659408569e-01
1.231000000000000000e+03 5.951681900024414062e+01 -3.951733589172363281e+00 -2.552493333816528320e+00 9.121945500373840332e-02 -7.383821606636047363e-01 -4.497312754392623901e-02
1.232000000000000000e+03 3.718911361694335938e+01 -9.223431587219238281e+00 -1.409534454345703125e+00 -1.751458458602428436e-02 -4.281147122383117676e-01 -2.590589523315429688e-01
1.233000000000000000e+03 3.804426193237304688e+01 -9.920633316040039062e+00 -1.371729135513305664e+00 -2.084610797464847565e-02 -4.177725613117218018e-01 -3.116299211978912354e-01
1.234000000000000000e+03 3.568563842773437500e+01 -9.264974594116210938e+00 -1.298502802848815918e+00 -1.994665712118148804e-02 -3.955348432064056396e-01 -2.512769103050231934e-01
1.235000000000000000e+03 5.728836822509765625e+01 -3.897118806838989258e+00 -2.738818407058715820e+00 3.838866204023361206e-02 -8.101289272308349609e-01 1.120135039091110229e-01
1.236000000000000000e+03 5.800376892089843750e+01 -4.563460826873779297e+00 -3.181061744689941406e+00 1.772103831171989441e-02 -9.490022063255310059e-01 1.107471585273742676e-01
1.237000000000000000e+03 5.725551605224609375e+01 -4.558619499206542969e+00 -3.188653469085693359e+00 1.751314476132392883e-02 -9.513421058654785156e-01 1.311718225479125977e-01
1.238000000000000000e+03 5.806108856201171875e+01 -3.255946874618530273e+00 -2.255692958831787109e+00 1.035854294896125793e-01 -6.456322669982910156e-01 2.497905865311622620e-03
1.239000000000000000e+03 5.877543258666992188e+01 -3.930304288864135742e+00 -2.641217231750488281e+00 6.721002608537673950e-02 -7.722021937370300293e-01 2.211922593414783478e-02
1.240000000000000000e+03 5.429831314086914062e+01 -3.877269983291625977e+00 -2.752759218215942383e+00 1.070859469473361969e-02 -8.226152062416076660e-01 2.073958218097686768e-01
1.241000000000000000e+03 5.504592132568359375e+01 -3.877362728118896484e+00 -2.765489339828491211e+00 1.854160614311695099e-02 -8.240843415260314941e-01 1.899097561836242676e-01
1.242000000000000000e+03 5.654221343994140625e+01 -3.886134386062622070e+00 -2.759447813034057617e+00 3.214985877275466919e-02 -8.181893825531005859e-01 1.424643993377685547e-01
1.243000000000000000e+03 5.579410171508789062e+01 -3.879843950271606445e+00 -2.768790960311889648e+00 2.110521495342254639e-02 -8.243057131767272949e-01 1.699943393468856812e-01
1.244000000000000000e+03 4.905315399169921875e+01 -3.896695852279663086e+00 -2.461689472198486328e+00 2.362460945732891560e-04 -7.384359836578369141e-01 2.644775807857513428e-01
1.245000000000000000e+03 4.900216674804687500e+01 -4.577990531921386719e+00 -2.680489540100097656e+00 -4.056163597851991653e-03 -8.053636550903320312e-01 2.035941481590270996e-01
1.246000000000000000e+03 5.130318450927734375e+01 -3.887162923812866211e+00 -2.620889902114868164e+00 1.625771867111325264e-03 -7.857792377471923828e-01 2.485983073711395264e-01
1.247000000000000000e+03 5.205172729492187500e+01 -3.884844064712524414e+00 -2.664084196090698242e+00 5.601756274700164795e-03 -7.975447177886962891e-01 2.406034320592880249e-01
1.248000000000000000e+03 5.354991912841796875e+01 -3.878806352615356445e+00 -2.730566978454589844e+00 1.010047830641269684e-02 -8.161399960517883301e-01 2.201203703880310059e-01
1.249000000000000000e+03 5.280039215087890625e+01 -3.881715536117553711e+00 -2.701160192489624023e+00 4.933967720717191696e-03 -8.088678717613220215e-01 2.317046225070953369e-01
1.250000000000000000e+03 3.702319717407226562e+01 -4.126760959625244141e+00 -1.296890139579772949e+00 9.564635343849658966e-03 -3.861976563930511475e-01 2.741257846355438232e-01
1.251000000000000000e+03 4.072946929931640625e+01 -4.710021972656250000e+00 -1.779496312141418457e+00 3.980302251875400543e-03 -5.326548218727111816e-01 2.000147551298141479e-01
1.252000000000000000e+03 3.852187347412109375e+01 -4.081562519073486328e+00 -1.451773643493652344e+00 8.294742554426193237e-03 -4.330436885356903076e-01 2.762179374694824219e-01
1.253000000000000000e+03 4.148159027099609375e+01 -4.692307472229003906e+00 -1.866703033447265625e+00 2.841069363057613373e-03 -5.591586232185363770e-01 2.005733251571655273e-01
1.254000000000000000e+03 4.002492904663085938e+01 -4.040035724639892578e+00 -1.607157826423645020e+00 6.544092204421758652e-03 -4.801841080188751221e-01 2.774843573570251465e-01
1.255000000000000000e+03 3.927320480346679688e+01 -4.060719966888427734e+00 -1.529412508010864258e+00 6.823261268436908722e-03 -4.567767679691314697e-01 2.769032716751098633e-01
1.256000000000000000e+03 4.830311584472656250e+01 -3.901552438735961914e+00 -2.400763988494873047e+00 -1.994321355596184731e-03 -7.208274602890014648e-01 2.679833471775054932e-01
1.257000000000000000e+03 4.755197906494140625e+01 -3.907680273056030273e+00 -2.338086605072021484e+00 -3.444593166932463646e-04 -7.015293240547180176e-01 2.701127231121063232e-01
1.258000000000000000e+03 5.055333709716796875e+01 -3.889468431472778320e+00 -2.571960210800170898e+00 2.166859107092022896e-03 -7.709379792213439941e-01 2.549852728843688965e-01
1.259000000000000000e+03 4.980286407470703125e+01 -3.892711400985717773e+00 -2.518428802490234375e+00 -1.013321103528141975e-03 -7.558326125144958496e-01 2.604016959667205811e-01
1.260000000000000000e+03 4.379069137573242188e+01 -3.958723306655883789e+00 -1.988844633102416992e+00 1.170149073004722595e-03 -5.963023304939270020e-01 2.769549190998077393e-01
1.261000000000000000e+03 4.303809738159179688e+01 -3.972211837768554688e+00 -1.914254069328308105e+00 3.000509226694703102e-03 -5.733760595321655273e-01 2.771304547786712646e-01
1.262000000000000000e+03 4.228466796875000000e+01 -3.986585617065429688e+00 -1.838595151901245117e+00 3.246333217248320580e-03 -5.506046414375305176e-01 2.777296602725982666e-01
1.263000000000000000e+03 4.529612731933593750e+01 -3.935387611389160156e+00 -2.133968114852905273e+00 -4.275951068848371506e-04 -6.403186917304992676e-01 2.754649817943572998e-01
1.264000000000000000e+03 4.680018615722656250e+01 -3.915464162826538086e+00 -2.271725416183471680e+00 -1.654604566283524036e-03 -6.820139884948730469e-01 2.726936936378479004e-01
1.265000000000000000e+03 4.604830169677734375e+01 -3.924960136413574219e+00 -2.204256534576416016e+00 1.604170101927593350e-04 -6.612288355827331543e-01 2.735805511474609375e-01
1.266000000000000000e+03 3.332442855834960938e+01 -8.607330322265625000e+00 -1.197993516921997070e+00 -1.622910238802433014e-02 -3.642667829990386963e-01 -1.845371127128601074e-01
1.267000000000000000e+03 3.643785858154296875e+01 -9.244373321533203125e+00 -1.354731321334838867e+00 -1.854023151099681854e-02 -4.119814634323120117e-01 -2.550718784332275391e-01
1.268000000000000000e+03 3.181181526184082031e+01 -8.638686180114746094e+00 -1.080301880836486816e+00 -1.576343365013599396e-02 -3.288195729255676270e-01 -1.751880347728729248e-01
1.269000000000000000e+03 3.342453384399414062e+01 -9.319265365600585938e+00 -1.135364890098571777e+00 -2.207831107079982758e-02 -3.472329676151275635e-01 -2.371673583984375000e-01
1.270000000000000000e+03 3.493270492553710938e+01 -9.283849716186523438e+00 -1.244462251663208008e+00 -2.081979252398014069e-02 -3.795846104621887207e-01 -2.464703768491744995e-01
1.271000000000000000e+03 3.417923355102539062e+01 -9.301681518554687500e+00 -1.189420104026794434e+00 -2.137516252696514130e-02 -3.632385730743408203e-01 -2.421665340662002563e-01
1.272000000000000000e+03 8.786649703979492188e+00 2.639340639114379883e+00 -8.892689220374450088e-05 2.505034499336034060e-04 4.847296440857462585e-05 3.738185914698988199e-04
1.273000000000000000e+03 1.361382389068603516e+01 3.933398962020874023e+00 3.902923781424760818e-04 -3.675765765365213156e-04 6.814740117988549173e-06 2.700161421671509743e-04
1.274000000000000000e+03 1.257901573181152344e+01 2.546894788742065430e+00 -1.654539664741605520e-04 9.912122914101928473e-05 -1.989982411032542586e-05 -1.187211382784880698e-04
1.275000000000000000e+03 1.105289554595947266e+01 2.616907119750976562e+00 -2.139456046279519796e-04 1.374771545670228079e-05 -6.005936666042543948e-05 -4.175242211204022169e-04
1.276000000000000000e+03 2.876161766052246094e+01 -8.662069320678710938e+00 -8.420706987380981445e-01 -1.192343328148126602e-02 -2.561982274055480957e-01 -1.568933874368667603e-01
1.277000000000000000e+03 3.037917137145996094e+01 -9.378314018249511719e+00 -9.178850650787353516e-01 -1.981458254158496857e-02 -2.813099026679992676e-01 -2.191916704177856445e-01
1.278000000000000000e+03 3.114473152160644531e+01 -9.365976333618164062e+00 -9.717668890953063965e-01 -2.082311362028121948e-02 -2.977769970893859863e-01 -2.231653928756713867e-01
1.279000000000000000e+03 3.190709495544433594e+01 -9.352485656738281250e+00 -1.026496410369873047e+00 -2.177881076931953430e-02 -3.144825696945190430e-01 -2.278439700603485107e-01
1.280000000000000000e+03 8.076064109802246094e+00 -1.854465723037719727e+00 3.296040449640713632e-05 1.357424189336597919e-04 5.061084448243491352e-05 1.167465525213629007e-04
1.281000000000000000e+03 1.255083942413330078e+01 -3.696632385253906250e+00 1.870557316578924656e-04 9.813836368266493082e-05 8.555823296774178743e-05 -1.911396429932210594e-05
1.282000000000000000e+03 7.402806282043457031e+00 -2.598721742630004883e+00 4.084523970959708095e-05 1.315845292992889881e-04 5.172893361304886639e-05 1.299667055718600750e-04
1.283000000000000000e+03 1.177832126617431641e+01 -5.628669738769531250e+00 1.663202419877052307e-04 -5.413837061496451497e-05 3.365455995663069189e-05 1.606965452083386481e-05
1.284000000000000000e+03 7.242234706878662109e+00 -4.915067672729492188e+00 -2.366887638345360756e-04 2.997796982526779175e-04 1.892728141683619469e-05 -3.250606096116825938e-05
1.285000000000000000e+03 6.560904979705810547e+00 -1.868531584739685059e+00 -2.145575490430928767e-05 1.333596446784213185e-04 3.357116656843572855e-05 1.195514196297153831e-04
1.286000000000000000e+03 6.655694484710693359e+00 -2.605188131332397461e+00 -4.246084790793247521e-05 -1.165213834610767663e-04 -4.769466977450065315e-05 -1.200846018036827445e-04
1.287000000000000000e+03 5.174680233001708984e+00 -2.711461067199707031e+00 -2.036660953308455646e-05 -1.145492569776251912e-04 -4.047475886181928217e-05 -1.883015356725081801e-04
1.288000000000000000e+03 1.565676808357238770e+00 -7.888888835906982422e+00 -4.158085503149777651e-04 4.502925094129750505e-06 -1.233916846103966236e-04 -1.160002357210032642e-04
1.289000000000000000e+03 3.929710865020751953e+00 -3.803659200668334961e+00 1.143679401138797402e-04 9.721484093461185694e-05 6.347483576973900199e-05 1.868359686341136694e-04
1.290000000000000000e+03 1.519594907760620117e+00 -6.569578170776367188e+00 4.671153437811881304e-04 -5.699609755538403988e-05 1.230357738677412271e-04 1.102684254874475300e-04
1.291000000000000000e+03 1.186955690383911133e+00 -2.133078098297119141e+00 -1.351051905658096075e-04 -7.151842874009162188e-05 -6.198708433657884598e-05 -9.023775783134624362e-05
1.292000000000000000e+03 5.307701230049133301e-01 -5.052195549011230469e+00 3.734156489372253418e-04 -1.387268566759303212e-04 7.040664058877155185e-05 4.010791599284857512e-05
1.293000000000000000e+03 2.567543601989746094e+01 -8.584507942199707031e+00 -5.993536710739135742e-01 -1.863757497631013393e-04 -1.798620223999023438e-01 -1.428029984235763550e-01
1.294000000000000000e+03 2.728870391845703125e+01 -9.381747245788574219e+00 -7.007921338081359863e-01 -9.537492878735065460e-03 -2.130988836288452148e-01 -2.046784460544586182e-01
1.295000000000000000e+03 2.883741188049316406e+01 -9.392468452453613281e+00 -8.085351586341857910e-01 -1.594881899654865265e-02 -2.473451942205429077e-01 -2.114360630512237549e-01
1.296000000000000000e+03 2.650839996337890625e+01 -9.370130538940429688e+00 -6.464568376541137695e-01 -5.618178751319646835e-03 -1.956225037574768066e-01 -2.016395628452301025e-01
1.297000000000000000e+03 2.176851272583007812e+01 -8.289748191833496094e+00 -3.105486333370208740e-01 1.256362535059452057e-02 -8.939550071954727173e-02 -1.240995526313781738e-01
1.298000000000000000e+03 2.337424087524414062e+01 -9.266398429870605469e+00 -4.405226409435272217e-01 1.024186424911022186e-02 -1.290842294692993164e-01 -1.878606677055358887e-01
1.299000000000000000e+03 2.056701087951660156e+01 -1.057888507843017578e+01 -3.365541696548461914e-01 -1.731019280850887299e-02 -1.061593070626258850e-01 -2.340237349271774292e-01
1.300000000000000000e+03 2.093103027343750000e+01 -9.314283370971679688e+00 -2.973433136940002441e-01 -2.305901609361171722e-03 -8.989476412534713745e-02 -1.779467314481735229e-01
1.301000000000000000e+03 2.489840126037597656e+01 -8.535175323486328125e+00 -5.389378070831298828e-01 4.013050813227891922e-03 -1.604774296283721924e-01 -1.391838788986206055e-01
1.302000000000000000e+03 2.494330787658691406e+01 -9.323748588562011719e+00 -5.412000417709350586e-01 3.329385537654161453e-03 -1.613611876964569092e-01 -1.957875639200210571e-01
1.303000000000000000e+03 2.416015434265136719e+01 -9.294390678405761719e+00 -4.904029071331024170e-01 7.138891611248254776e-03 -1.449792087078094482e-01 -1.920417845249176025e-01
1.304000000000000000e+03 2.181408309936523438e+01 -3.614175558090209961e+00 -8.122313022613525391e-02 -6.644935160875320435e-02 -4.430174455046653748e-02 9.101682156324386597e-02
1.305000000000000000e+03 2.111079406738281250e+01 -3.431078672409057617e+00 -5.477160215377807617e-02 -6.757201254367828369e-02 -3.670308738946914673e-02 7.009802758693695068e-02
1.306000000000000000e+03 1.241442966461181641e+01 -1.966119956970214844e+01 -2.364711910486221313e-01 -3.293648362159729004e-01 -1.697508096694946289e-01 -2.421546131372451782e-01
1.307000000000000000e+03 3.617272377014160156e+00 -1.964030456542968750e+01 -4.292310029268264771e-02 -4.548700153827667236e-02 -2.652302943170070648e-02 -4.703096672892570496e-02
1.308000000000000000e+03 1.253498172760009766e+01 1.993695449829101562e+01 -5.637115240097045898e-01 -8.819071054458618164e-01 -4.336856007575988770e-01 6.229409575462341309e-01
1.309000000000000000e+03 8.717348098754882812e+00 2.016588973999023438e+01 -5.276467204093933105e-01 -1.621215343475341797e-01 -2.069304734468460083e-01 4.092392921447753906e-01
1.310000000000000000e+03 1.945754051208496094e+01 8.234000205993652344e+00 -2.809613645076751709e-01 -1.158311009407043457e+00 -4.317817091941833496e-01 5.592578053474426270e-01
1.311000000000000000e+03 1.915677642822265625e+01 9.627016067504882812e+00 -3.947887122631072998e-01 -1.272171854972839355e+00 -5.000881552696228027e-01 6.343578696250915527e-01
1.312000000000000000e+03 1.382034683227539062e+01 1.895649909973144531e+01 -7.119758725166320801e-01 -1.026027917861938477e+00 -5.214011073112487793e-01 6.964817047119140625e-01
1.313000000000000000e+03 1.407350254058837891e+01 1.666015625000000000e+01 -1.125278711318969727e+00 -1.252223491668701172e+00 -7.132506370544433594e-01 1.092542648315429688e+00
1.314000000000000000e+03 1.716405487060546875e+01 1.181524658203125000e+01 -4.695209264755249023e-01 -1.796415328979492188e+00 -6.797808408737182617e-01 8.516978025436401367e-01
1.315000000000000000e+03 1.726530456542968750e+01 1.549516201019287109e+01 -7.434105277061462402e-01 -1.286112785339355469e+00 -6.088569760322570801e-01 7.332825064659118652e-01
1.316000000000000000e+03 2.030768013000488281e+01 2.456726789474487305e+00 -7.817832380533218384e-02 -4.632141292095184326e-01 -1.624177396297454834e-01 2.706990540027618408e-01
1.317000000000000000e+03 6.309826970100402832e-01 1.624199295043945312e+01 1.743934233672916889e-03 3.378937765955924988e-02 1.065999455749988556e-02 -7.130452431738376617e-03
1.318000000000000000e+03 1.973952484130859375e+01 6.841283321380615234e+00 -1.905574947595596313e-01 -9.846822619438171387e-01 -3.525719344615936279e-01 4.611761868000030518e-01
1.319000000000000000e+03 1.837161636352539062e+01 1.244727325439453125e+01 -5.521036386489868164e-01 -1.427962779998779297e+00 -5.940198898315429688e-01 7.613931894302368164e-01
1.320000000000000000e+03 1.505444622039794922e+01 1.797487831115722656e+01 -7.230631709098815918e-01 -1.187654018402099609e+00 -5.732151269912719727e-01 7.416949868202209473e-01
1.321000000000000000e+03 1.893161773681640625e+01 8.658777475357055664e-01 -1.113888807594776154e-02 -2.501886487007141113e-01 -7.839825749397277832e-02 6.385024636983871460e-02
1.322000000000000000e+03 2.005179786682128906e+01 1.030210971832275391e+00 -4.057708755135536194e-02 -3.137891590595245361e-01 -1.063098758459091187e-01 1.718841493129730225e-01
1.323000000000000000e+03 1.786855125427246094e+01 1.390252113342285156e+01 -6.909459233283996582e-01 -1.384705543518066406e+00 -6.226954460144042969e-01 8.128106594085693359e-01
1.324000000000000000e+03 2.266613578796386719e+01 -1.559407949447631836e+00 -1.359024047851562500e-01 -1.646800041198730469e-01 -9.017472714185714722e-02 2.258435636758804321e-01
1.325000000000000000e+03 1.887790489196777344e+01 -1.730027437210083008e+00 -3.998918924480676651e-03 -4.507665336132049561e-02 -1.472267135977745056e-02 2.261539734899997711e-02
1.326000000000000000e+03 2.913585424423217773e+00 -1.693554687500000000e+01 -5.597039591521024704e-03 -1.217109989374876022e-02 -5.330441985279321671e-03 4.407830070704221725e-03
1.327000000000000000e+03 5.863338708877563477e-01 -1.765401840209960938e+01 -2.248917473480105400e-03 2.834315970540046692e-02 7.828272879123687744e-03 2.845866372808814049e-03
1.328000000000000000e+03 1.273899269104003906e+01 -1.815958023071289062e+01 -3.555845022201538086e-01 -3.131157457828521729e-01 -2.006100714206695557e-01 -2.780546247959136963e-01
1.329000000000000000e+03 1.026258087158203125e+01 -2.529035806655883789e+00 2.156151595045230351e-06 1.983142574317753315e-04 6.014112659613601863e-05 1.063253948814235628e-04
1.330000000000000000e+03 1.645383262634277344e+01 -1.046060180664062500e+01 -1.305690109729766846e-01 -2.048018127679824829e-01 -1.006112471222877502e-01 -1.687599867582321167e-01
1.331000000000000000e+03 1.722943115234375000e+01 -1.131516647338867188e+01 -2.334843873977661133e-01 -1.507270783185958862e-01 -1.152634397149085999e-01 -2.272560447454452515e-01
1.332000000000000000e+03 1.574040889739990234e+01 -1.159224033355712891e+01 -1.797324866056442261e-01 -2.958396077156066895e-01 -1.426716297864913940e-01 -2.298586219549179077e-01
1.333000000000000000e+03 2.179246711730957031e+01 -9.219609260559082031e+00 -3.475570082664489746e-01 9.778758510947227478e-03 -1.013334766030311584e-01 -1.765144467353820801e-01
1.334000000000000000e+03 1.351758193969726562e+01 -1.691850852966308594e+01 -3.733773529529571533e-01 -3.227140903472900391e-01 -2.088274210691452026e-01 -3.260960876941680908e-01
1.335000000000000000e+03 1.653659248352050781e+01 -1.235472297668457031e+01 -2.690104246139526367e-01 -2.114790230989456177e-01 -1.441468298435211182e-01 -2.611249387264251709e-01
1.336000000000000000e+03 1.364418697357177734e+01 -3.801912069320678711e+00 -2.610169467516243458e-04 -1.005624071694910526e-04 -1.084738105419091880e-04 2.361884253332391381e-05
1.337000000000000000e+03 1.583014678955078125e+01 -1.347034645080566406e+01 -3.088756203651428223e-01 -2.617797553539276123e-01 -1.711966097354888916e-01 -2.883502840995788574e-01
1.338000000000000000e+03 1.508968734741210938e+01 -1.461946582794189453e+01 -3.312560617923736572e-01 -3.004360795021057129e-01 -1.895076483488082886e-01 -3.053227663040161133e-01
1.339000000000000000e+03 1.048245716094970703e+01 -9.218869209289550781e+00 4.944273314322344959e-05 -2.184902550652623177e-04 -5.071425766800530255e-05 -2.203930489486083388e-05
1.340000000000000000e+03 1.333366107940673828e+01 -2.560011625289916992e+00 6.338630919344723225e-05 4.501741204876452684e-05 3.252111855545081198e-05 5.581195728154852986e-05
1.341000000000000000e+03 9.519764900207519531e+00 -8.722523689270019531e+00 -9.349625179311260581e-05 3.332450287416577339e-04 7.192463090177625418e-05 -1.824072678573429585e-04
1.342000000000000000e+03 1.112349033355712891e+01 -6.632926464080810547e+00 -1.215256634168326855e-04 3.397470209165476263e-05 -2.626528839755337685e-05 -5.977145701763220131e-05
1.343000000000000000e+03 1.036227512359619141e+01 -7.659332275390625000e+00 1.527592539787292480e-04 -2.709507825784385204e-04 -3.545745857991278172e-05 1.050443315762095153e-04
1.344000000000000000e+03 1.716066360473632812e+00 -1.058464145660400391e+01 -7.013405411271378398e-05 3.671028825920075178e-04 8.909065218176692724e-05 7.143006077967584133e-04
1.345000000000000000e+03 8.164568901062011719e+00 -1.268116664886474609e+01 7.592939073219895363e-04 1.884655910544097424e-03 7.931849104352295399e-04 -1.126676681451499462e-03
1.346000000000000000e+03 1.043937206268310547e+01 -4.070556640625000000e+00 -3.554398062988184392e-05 2.894289173127617687e-05 -1.980327169803786092e-06 -3.495539567666128278e-05
1.347000000000000000e+03 7.910307312011718750e+01 3.621376419067382812e+01 -2.320187166333198547e-03 7.214851856231689453e+00 2.163759469985961914e+00 -3.154527768492698669e-02
1.348000000000000000e+03 7.800022125244140625e+01 -2.926547622680664062e+01 8.008436416275799274e-04 8.454166412353515625e+00 2.536490201950073242e+00 1.077294871211051941e-01
1.349000000000000000e+03 7.933816528320312500e+01 -2.786301803588867188e+01 -1.478672260418534279e-03 8.881920814514160156e+00 2.664132595062255859e+00 3.053032048046588898e-02
1.350000000000000000e+03 7.734344482421875000e+01 -3.794426345825195312e+01 -2.033495903015136719e-02 7.958857059478759766e+00 2.381556510925292969e+00 1.257855892181396484e-01
1.351000000000000000e+03 7.938314056396484375e+01 -3.476818084716796875e+01 -7.191074080765247345e-03 8.472213745117187500e+00 2.539506673812866211e+00 3.627840429544448853e-02
1.352000000000000000e+03 7.944088745117187500e+01 -2.086693763732910156e+01 -8.032056502997875214e-03 9.020102500915527344e+00 2.703620910644531250e+00 -5.019960179924964905e-02
1.353000000000000000e+03 7.813886260986328125e+01 -2.498179626464843750e+01 -2.414834313094615936e-02 8.677661895751953125e+00 2.596053838729858398e+00 5.797131732106208801e-02
1.354000000000000000e+03 7.806167602539062500e+01 -2.641077613830566406e+01 -1.855223439633846283e-02 8.602213859558105469e+00 2.575098514556884766e+00 8.341554552316665649e-02
1.355000000000000000e+03 7.814030456542968750e+01 -3.201501083374023438e+01 5.847952794283628464e-03 8.326768875122070312e+00 2.499784946441650391e+00 9.951121360063552856e-02
1.356000000000000000e+03 7.935951232910156250e+01 -3.064773559570312500e+01 7.135526277124881744e-03 8.713582992553710938e+00 2.616215467453002930e+00 2.934033609926700592e-02
1.357000000000000000e+03 7.813191986083984375e+01 -3.334201431274414062e+01 -1.061896607279777527e-02 8.258720397949218750e+00 2.474430322647094727e+00 9.750008583068847656e-02
1.358000000000000000e+03 7.648462677001953125e+01 -3.912365722656250000e+01 1.601351238787174225e-02 7.905066013336181641e+00 2.376323938369750977e+00 8.109799772500991821e-02
1.359000000000000000e+03 7.806459808349609375e+01 1.523016071319580078e+01 -1.219851989299058914e-02 8.330137252807617188e+00 2.495381593704223633e+00 -1.456158608198165894e-01
1.360000000000000000e+03 7.935519409179687500e+01 1.529509067535400391e+01 -2.448950195685029030e-03 8.668053627014160156e+00 2.599681377410888672e+00 -4.318458586931228638e-02
1.361000000000000000e+03 7.932197570800781250e+01 2.225978279113769531e+01 7.801450556144118309e-04 8.042080879211425781e+00 2.412858486175537109e+00 -5.087055265903472900e-02
1.362000000000000000e+03 7.725633239746093750e+01 3.185944747924804688e+01 7.290599867701530457e-03 7.096100807189941406e+00 2.131017446517944336e+00 -1.086578369140625000e-01
1.363000000000000000e+03 7.778698730468750000e+01 2.764487648010253906e+01 1.233248505741357803e-02 7.370968341827392578e+00 2.214990377426147461e+00 -1.243076249957084656e-01
1.364000000000000000e+03 7.925381469726562500e+01 2.780540847778320312e+01 -4.967863671481609344e-03 7.616762638092041016e+00 2.283538579940795898e+00 -4.547876492142677307e-02
1.365000000000000000e+03 7.794361877441406250e+01 2.492769813537597656e+01 9.073833003640174866e-03 7.573023796081542969e+00 2.274629354476928711e+00 -1.420046687126159668e-01
1.366000000000000000e+03 7.795104217529296875e+01 2.357066917419433594e+01 6.372021045535802841e-03 7.666797161102294922e+00 2.301950931549072266e+00 -1.533564329147338867e-01
1.367000000000000000e+03 7.800897979736328125e+01 1.802383995056152344e+01 -2.916542114689946175e-03 8.099951744079589844e+00 2.429110527038574219e+00 -1.638219952583312988e-01
1.368000000000000000e+03 7.803580474853515625e+01 1.662688636779785156e+01 -5.951714236289262772e-03 8.215969085693359375e+00 2.463005065917968750e+00 -1.574375927448272705e-01
1.369000000000000000e+03 7.809381866455078125e+01 1.383830738067626953e+01 -1.876762509346008301e-02 8.436089515686035156e+00 2.525196790695190430e+00 -1.252563148736953735e-01
1.370000000000000000e+03 7.687339019775390625e+01 1.238991928100585938e+01 -6.579105556011199951e-02 8.211983680725097656e+00 2.443857669830322266e+00 -1.657924056053161621e-01
1.371000000000000000e+03 7.819130706787109375e+01 9.667126655578613281e+00 -5.047604441642761230e-02 8.647166252136230469e+00 2.579007148742675781e+00 5.400124937295913696e-03
1.372000000000000000e+03 7.939685058593750000e+01 9.724902153015136719e+00 -1.065979525446891785e-02 8.982704162597656250e+00 2.691613197326660156e+00 1.426883600652217865e-02
1.373000000000000000e+03 7.838249206542968750e+01 -8.459394454956054688e+00 1.692211776971817017e-01 5.648789405822753906e+00 1.745403170585632324e+00 -5.046468973159790039e-01
1.374000000000000000e+03 7.946425628662109375e+01 -6.994519710540771484e+00 5.812508985400199890e-02 4.084105014801025391e+00 1.242669105529785156e+00 -6.720475852489471436e-02
1.375000000000000000e+03 7.846226501464843750e+01 -1.530922985076904297e+01 -8.385447412729263306e-02 7.931306362152099609e+00 2.354235410690307617e+00 -5.562465786933898926e-01
1.376000000000000000e+03 7.949668121337890625e+01 -1.394408226013183594e+01 -1.200380362570285797e-02 7.240202903747558594e+00 2.168459653854370117e+00 -2.538301646709442139e-01
1.377000000000000000e+03 7.945542907714843750e+01 -1.947792243957519531e+01 -1.855994202196598053e-02 8.890272140502929688e+00 2.661513805389404297e+00 -8.371468633413314819e-02
1.378000000000000000e+03 7.827945709228515625e+01 -2.216981124877929688e+01 -4.533794894814491272e-02 8.760751724243164062e+00 2.614624261856079102e+00 -4.103797301650047302e-02
1.379000000000000000e+03 7.843611907958984375e+01 -1.160750985145568848e-01 -4.219630360603332520e-02 7.064883708953857422e+00 2.106806278228759766e+00 7.782503366470336914e-01
1.380000000000000000e+03 7.945378112792968750e+01 1.357714772224426270e+00 -1.127022411674261093e-02 7.331286430358886719e+00 2.196004867553710938e+00 2.715479731559753418e-01
1.381000000000000000e+03 7.822130584716796875e+01 8.280288696289062500e+00 -6.440798938274383545e-02 8.649197578430175781e+00 2.575436830520629883e+00 8.162789791822433472e-02
1.382000000000000000e+03 7.583192443847656250e+01 3.665798950195312500e+01 1.605659537017345428e-02 6.755311965942382812e+00 2.031410694122314453e+00 -5.272120609879493713e-02
1.383000000000000000e+03 7.534593963623046875e+01 3.498745346069335938e+01 3.277779370546340942e-02 6.668128967285156250e+00 2.010272026062011719e+00 -1.161684319376945496e-01
1.384000000000000000e+03 7.726071166992187500e+01 1.174849033355712891e+00 -2.048249989748001099e-01 7.919187068939208984e+00 2.314308643341064453e+00 9.773847460746765137e-01
1.385000000000000000e+03 7.836022186279296875e+01 1.277745723724365234e+00 -8.438630402088165283e-02 7.570068359375000000e+00 2.245704650878906250e+00 7.035110592842102051e-01
1.386000000000000000e+03 7.845482635498046875e+01 -4.247884273529052734e+00 1.678526997566223145e-01 5.587866306304931641e+00 1.726715803146362305e+00 5.043458342552185059e-01
1.387000000000000000e+03 7.949416351318359375e+01 -2.819677114486694336e+00 2.314058691263198853e-02 5.061922073364257812e+00 1.525518774986267090e+00 2.678645253181457520e-01
1.388000000000000000e+03 7.839746093750000000e+01 -7.040719032287597656e+00 2.647836506366729736e-01 5.421332836151123047e+00 1.705834865570068359e+00 -1.801495403051376343e-01
1.389000000000000000e+03 7.848291015625000000e+01 -1.125251102447509766e+01 1.778831146657466888e-02 6.509436607360839844e+00 1.958167433738708496e+00 -8.021903038024902344e-01
1.390000000000000000e+03 7.947377014160156250e+01 -9.787499427795410156e+00 1.906817220151424408e-02 4.973410606384277344e+00 1.497743606567382812e+00 -2.603931427001953125e-01
1.391000000000000000e+03 7.850400543212890625e+01 -1.261110401153564453e+01 -5.119850113987922668e-02 7.017849445343017578e+00 2.089995384216308594e+00 -7.555269002914428711e-01
1.392000000000000000e+03 7.840201568603515625e+01 -1.803426170349121094e+01 -8.247094601392745972e-02 8.501182556152343750e+00 2.525613546371459961e+00 -3.121827840805053711e-01
1.393000000000000000e+03 7.947738647460937500e+01 -1.670641517639160156e+01 -1.976987533271312714e-02 8.319873809814453125e+00 2.490031242370605469e+00 -1.681194156408309937e-01
1.394000000000000000e+03 7.837086486816406250e+01 -1.940698051452636719e+01 -6.810407340526580811e-02 8.655586242675781250e+00 2.576244592666625977e+00 -2.051328122615814209e-01
1.395000000000000000e+03 7.553027629852294922e+00 1.987194252014160156e+01 -3.644434213638305664e-01 -4.388628154993057251e-02 -1.224989145994186401e-01 1.774874925613403320e-01
1.396000000000000000e+03 8.852576255798339844e+00 1.870845222473144531e+01 -3.985802531242370605e-01 1.542512234300374985e-02 -1.149465441703796387e-01 1.252433210611343384e-01
1.397000000000000000e+03 1.335528492927551270e+00 -4.006331634521484375e+01 5.244000814855098724e-03 -5.321471095085144043e-01 -1.580709367990493774e-01 -1.772120129317045212e-03
1.398000000000000000e+03 7.202853560447692871e-01 3.743036270141601562e+01 9.613591246306896210e-03 -8.353742361068725586e-01 -2.477281987667083740e-01 1.382203865796327591e-02
1.399000000000000000e+03 7.296223640441894531e-01 3.467693710327148438e+01 8.356542326509952545e-03 -7.465691566467285156e-01 -2.214637845754623413e-01 2.945820242166519165e-02
1.400000000000000000e+03 7.400906085968017578e-01 3.328472900390625000e+01 1.417089137248694897e-03 -6.814007163047790527e-01 -2.039950788021087646e-01 3.910104930400848389e-02
1.401000000000000000e+03 6.777565479278564453e-01 2.762580490112304688e+01 -2.267459058202803135e-04 -3.069969713687896729e-01 -9.216711670160293579e-02 4.938826709985733032e-02
1.402000000000000000e+03 6.731240153312683105e-01 2.620590591430664062e+01 -1.176466001197695732e-03 -2.049357444047927856e-01 -6.183366477489471436e-02 4.790386557579040527e-02
1.403000000000000000e+03 5.894737243652343750e-01 -3.601431274414062500e+01 7.249026093631982803e-04 -5.065349936485290527e-01 -1.517430245876312256e-01 -7.157385814934968948e-03
1.404000000000000000e+03 2.405812501907348633e+00 -3.332658386230468750e+01 1.329976413398981094e-02 -4.089454412460327148e-01 -1.186937093734741211e-01 -6.289556622505187988e-02
1.405000000000000000e+03 3.340587615966796875e+00 2.609129333496093750e+01 -1.987565308809280396e-02 -3.137601613998413086e-01 -1.000907421112060547e-01 2.008678615093231201e-01
1.406000000000000000e+03 3.313891172409057617e+00 2.464469718933105469e+01 -3.150013089179992676e-02 -2.435235530138015747e-01 -8.250710368156433105e-02 1.844475418329238892e-01
1.407000000000000000e+03 2.241245269775390625e+00 3.461895751953125000e+01 1.673032529652118683e-02 -7.087503075599670410e-01 -2.076059877872467041e-01 9.395608305931091309e-02
1.408000000000000000e+03 2.267753124237060547e+00 3.324346923828125000e+01 2.061979845166206360e-02 -6.535562872886657715e-01 -1.898809522390365601e-01 1.103031039237976074e-01
1.409000000000000000e+03 2.349677801132202148e+00 3.822630310058593750e+01 2.280256710946559906e-02 -8.092678785324096680e-01 -2.359395921230316162e-01 4.033105447888374329e-02
1.410000000000000000e+03 3.258248567581176758e+00 3.921377944946289062e+01 2.335869148373603821e-02 -8.184338808059692383e-01 -2.385225594043731689e-01 5.183092132210731506e-02
1.411000000000000000e+03 2.240057945251464844e+00 -3.042951583862304688e+01 8.553123101592063904e-03 -3.328735232353210449e-01 -9.729611873626708984e-02 -7.848287373781204224e-02
1.412000000000000000e+03 2.102088212966918945e+00 -2.756537818908691406e+01 2.534470055252313614e-03 -2.396066784858703613e-01 -7.112166285514831543e-02 -8.255743235349655151e-02
1.413000000000000000e+03 2.314294338226318359e+00 -3.662763977050781250e+01 1.053190231323242188e-02 -4.757261574268341064e-01 -1.395582705736160278e-01 -3.802601248025894165e-02
1.414000000000000000e+03 5.354835510253906250e+00 -1.757661056518554688e+01 -4.095375165343284607e-02 -2.370043471455574036e-02 -1.939625479280948639e-02 -2.098068594932556152e-03
1.415000000000000000e+03 6.059333682060241699e-01 2.052419662475585938e+01 -4.868810065090656281e-03 5.334571376442909241e-02 1.454307138919830322e-02 4.927798174321651459e-03
1.416000000000000000e+03 6.348404884338378906e-01 1.910229492187500000e+01 -1.283654011785984039e-03 5.702831223607063293e-02 1.672339811921119690e-02 -2.223802730441093445e-03
1.417000000000000000e+03 6.311934590339660645e-01 1.483239078521728516e+01 -3.574239381123334169e-04 1.964300498366355896e-02 5.785674322396516800e-03 -5.260902456939220428e-03
1.418000000000000000e+03 6.232154965400695801e-01 1.343405342102050781e+01 2.260147593915462494e-03 9.563236497342586517e-03 3.547015367075800896e-03 -3.479179227724671364e-03
1.419000000000000000e+03 6.049596071243286133e-01 7.800869941711425781e+00 7.166098221205174923e-04 -3.058594593312591314e-04 1.232251088367775083e-04 -2.393022296018898487e-04
1.420000000000000000e+03 5.954778194427490234e-01 -1.907860183715820312e+01 -1.767969341017305851e-03 2.876721695065498352e-02 8.099774830043315887e-03 -1.810461515560746193e-03
1.421000000000000000e+03 1.644585013389587402e+00 -9.227864265441894531e+00 8.248448139056563377e-04 1.003285069600678980e-04 2.775519969873130322e-04 4.608367162290960550e-04
1.422000000000000000e+03 4.954992771148681641e+00 -4.034326934814453125e+01 3.023179620504379272e-02 -4.609682261943817139e-01 -1.292209327220916748e-01 -3.270827978849411011e-02
1.423000000000000000e+03 3.440574645996093750e+00 -3.914521789550781250e+01 1.637444458901882172e-02 -4.956548511981964111e-01 -1.437841206789016724e-01 -3.324680775403976440e-02
1.424000000000000000e+03 4.711623668670654297e+00 -3.626380920410156250e+01 3.633076697587966919e-02 -4.312531054019927979e-01 -1.184767037630081177e-01 -7.407557964324951172e-02
1.425000000000000000e+03 1.627153515815734863e+00 -3.541313552856445312e+01 8.035033941268920898e-03 -4.611844420433044434e-01 -1.359448283910751343e-01 -3.321108967065811157e-02
1.426000000000000000e+03 2.326466798782348633e+00 -3.187017059326171875e+01 5.803828593343496323e-03 -3.723565340042114258e-01 -1.099658086895942688e-01 -7.155293226242065430e-02
1.427000000000000000e+03 3.494444608688354492e+00 -2.750716400146484375e+01 1.805657229851931334e-04 -2.504783570766448975e-01 -7.508934289216995239e-02 -1.258249580860137939e-01
1.428000000000000000e+03 2.019176006317138672e+00 -2.468196487426757812e+01 -5.017893388867378235e-03 -1.410843729972839355e-01 -4.383068159222602844e-02 -7.220400124788284302e-02
1.429000000000000000e+03 2.067045450210571289e+00 -2.613535118103027344e+01 -5.102625582367181778e-03 -1.895074695348739624e-01 -5.838302895426750183e-02 -8.143346756696701050e-02
1.430000000000000000e+03 5.858128666877746582e-01 -2.050480842590332031e+01 -3.889381885528564453e-03 1.472974661737680435e-02 3.252109512686729431e-03 -8.912368677556514740e-03
1.431000000000000000e+03 2.931576490402221680e+00 -2.153073883056640625e+01 -2.771969325840473175e-02 -7.087108492851257324e-02 -2.957723289728164673e-02 -6.805755198001861572e-02
1.432000000000000000e+03 1.660072326660156250e+00 -1.601948928833007812e+01 7.519993814639747143e-04 4.310341086238622665e-03 1.518702134490013123e-03 7.929286919534206390e-03
1.433000000000000000e+03 1.736821413040161133e+00 -1.195811653137207031e+01 1.838531577959656715e-03 8.763429359532892704e-04 8.144623716361820698e-04 2.087952569127082825e-03
1.434000000000000000e+03 5.660160779953002930e-01 -1.205441665649414062e+01 -7.155073690228164196e-04 2.169020706787705421e-03 4.360539896879345179e-04 7.345129270106554031e-04
1.435000000000000000e+03 8.622558593750000000e+00 -9.846899032592773438e+00 1.944664836628362536e-04 -6.118522142060101032e-04 -1.252157089766114950e-04 1.871037820819765329e-04
1.436000000000000000e+03 5.356625556945800781e+00 -3.500494956970214844e+00 -2.037568265222944319e-05 2.206506178481504321e-04 6.008247873978689313e-05 2.154504472855478525e-04
1.437000000000000000e+03 3.688786029815673828e+00 -2.930648088455200195e+00 -1.036453613778576255e-04 -4.391807306092232466e-05 -4.426903251442126930e-05 -1.791686081560328603e-04
1.438000000000000000e+03 2.898342370986938477e+00 -3.109123468399047852e+00 1.456573227187618613e-04 2.528117329347878695e-05 5.128154953126795590e-05 9.464198228670284152e-05
1.439000000000000000e+03 2.098080396652221680e+00 -3.191481828689575195e+00 -1.846157538238912821e-04 -2.200430753873661160e-05 -6.198601477080956101e-05 -3.938142981496639550e-05
1.440000000000000000e+03 1.338401794433593750e+00 -3.371416807174682617e+00 6.847804615972563624e-05 8.031692414078861475e-05 4.463849109015427530e-05 7.511863805120810866e-05
1.441000000000000000e+03 4.775586426258087158e-01 5.034261226654052734e+00 2.903989516198635101e-04 -2.572986122686415911e-04 9.930102351063396782e-06 -6.830482016084715724e-05
1.442000000000000000e+03 2.401631355285644531e+00 3.566740274429321289e+00 -2.569386560935527086e-04 7.403847848763689399e-05 -5.487005546456202865e-05 3.493578988127410412e-04
1.443000000000000000e+03 1.773327112197875977e+00 1.049731922149658203e+01 3.765144210774451494e-04 8.371431613340973854e-04 3.640972718130797148e-04 -1.099451328627765179e-03
1.444000000000000000e+03 5.931033492088317871e-01 1.062427234649658203e+01 1.382223563268780708e-03 9.800303960219025612e-04 7.086762343533337116e-04 -8.541943971067667007e-04
1.445000000000000000e+03 1.901846408843994141e+00 1.325405693054199219e+01 3.001988166943192482e-03 2.344385255128145218e-03 1.603911980055272579e-03 -6.928426213562488556e-03
1.446000000000000000e+03 1.918756365776062012e+00 1.463393497467041016e+01 4.854038823395967484e-03 3.343111369758844376e-03 2.459144918248057365e-03 -1.133184321224689484e-02
1.447000000000000000e+03 1.887825489044189453e+00 1.604478836059570312e+01 1.629635924473404884e-03 5.596445407718420029e-03 2.167824422940611839e-03 -1.492778770625591278e-02
1.448000000000000000e+03 2.001703500747680664e+00 2.468351554870605469e+01 -1.921640709042549133e-02 -1.846025586128234863e-01 -6.114568933844566345e-02 1.184814944863319397e-01
1.449000000000000000e+03 9.299543380737304688e+00 1.113206481933593750e+01 -3.554020659066736698e-04 3.584328340366482735e-03 9.686779230833053589e-04 1.075187698006629944e-03
1.450000000000000000e+03 1.243083095550537109e+01 8.482692718505859375e+00 8.304358925670385361e-04 6.298095686361193657e-04 4.380736500024795532e-04 8.444171398878097534e-04
1.451000000000000000e+03 1.468190193176269531e+01 4.931904315948486328e+00 4.016179591417312622e-04 -1.252786023542284966e-04 8.290180267067626119e-05 9.296491043642163277e-05
1.452000000000000000e+03 1.182554817199707031e+01 2.588927507400512695e+00 1.835531584220007062e-04 -1.036223256960511208e-04 2.397925163677427918e-05 1.470771094318479300e-04
1.453000000000000000e+03 1.038603878021240234e+01 1.341794300079345703e+01 -2.971225883811712265e-03 -1.782046165317296982e-03 -1.425981638021767139e-03 -2.123739104717969894e-03
1.454000000000000000e+03 8.384067535400390625e+00 1.053243255615234375e+01 1.231077127158641815e-03 -1.166055677458643913e-03 1.950642399606294930e-05 7.739603752270340919e-04
1.455000000000000000e+03 8.442832946777343750e+00 1.388762760162353516e+01 -1.591927837580442429e-03 3.702878486365079880e-03 6.332852062769234180e-04 -2.438765019178390503e-03
1.456000000000000000e+03 1.178299427032470703e+01 3.379318475723266602e+00 -3.521249745972454548e-04 7.867550448281690478e-05 -8.203484321711584926e-05 -5.291752167977392673e-04
1.457000000000000000e+03 7.731944084167480469e+00 -1.110417461395263672e+01 -3.751805343199521303e-04 1.943714916706085205e-03 4.705603350885212421e-04 -7.134390762075781822e-04
1.458000000000000000e+03 6.821063232421875000e+01 -4.724660396575927734e+00 -3.731921687722206116e-02 1.791762924194335938e+01 5.364093303680419922e+00 -4.716512680053710938e+00
1.459000000000000000e+03 6.635386657714843750e+01 -4.437614440917968750e+00 1.334618568420410156e+00 3.995567321777343750e+00 1.599055767059326172e+00 -4.376774787902832031e+00
1.460000000000000000e+03 6.720222473144531250e+01 -4.756183624267578125e+00 1.925603628158569336e+00 8.244716644287109375e+00 3.051096200942993164e+00 -6.406223297119140625e+00
1.461000000000000000e+03 6.594075012207031250e+01 -4.416693210601806641e+00 9.787952303886413574e-01 2.637225389480590820e+00 1.084806203842163086e+00 -3.472511768341064453e+00
1.462000000000000000e+03 6.776123809814453125e+01 -4.367350101470947266e+00 2.391431480646133423e-01 1.330246067047119141e+01 4.062481403350830078e+00 -5.833488464355468750e+00
1.463000000000000000e+03 6.804100799560546875e+01 -8.079151153564453125e+00 2.263546586036682129e-01 1.676950645446777344e+01 5.098758697509765625e+00 5.566196918487548828e+00
1.464000000000000000e+03 6.644503021240234375e+01 -8.310262680053710938e+00 1.634730577468872070e+00 4.275567054748535156e+00 1.773089289665222168e+00 4.611661911010742188e+00
1.465000000000000000e+03 6.538954162597656250e+01 -8.064569473266601562e+00 1.099383309483528137e-01 1.246104121208190918e+00 4.068127274513244629e-01 2.087051391601562500e+00
1.466000000000000000e+03 6.721745300292968750e+01 -8.049866676330566406e+00 1.916107177734375000e+00 8.393937110900878906e+00 3.093013525009155273e+00 6.470829486846923828e+00
1.467000000000000000e+03 6.902326965332031250e+01 -8.400566101074218750e+00 1.264111697673797607e-01 1.810717964172363281e+01 5.470077037811279297e+00 6.724725961685180664e-01
1.468000000000000000e+03 6.864611816406250000e+01 -7.933284282684326172e+00 3.141590058803558350e-01 2.081707382202148438e+01 6.339369773864746094e+00 1.768421888351440430e+00
1.469000000000000000e+03 6.971889495849609375e+01 -5.847852706909179688e+00 8.528005599975585938e+00 1.703713607788085938e+01 7.669542789459228516e+00 2.133219480514526367e+00
1.470000000000000000e+03 6.952185821533203125e+01 -5.449591159820556641e+00 5.928641319274902344e+00 1.868601608276367188e+01 7.384397029876708984e+00 2.713061094284057617e+00
1.471000000000000000e+03 6.893008422851562500e+01 -8.136241912841796875e+00 4.954392313957214355e-01 1.985179901123046875e+01 6.104171752929687500e+00 6.299844980239868164e-01
1.472000000000000000e+03 6.923003387451171875e+01 -7.675150394439697266e+00 3.106564044952392578e+00 2.008138847351074219e+01 6.956385612487792969e+00 -1.772528409957885742e+00
1.473000000000000000e+03 6.755415344238281250e+01 -4.388041019439697266e+00 6.718641519546508789e-01 1.146363544464111328e+01 3.640649795532226562e+00 -6.184382438659667969e+00
1.474000000000000000e+03 6.460328674316406250e+01 -8.588128089904785156e+00 -3.135280013084411621e-01 1.086585283279418945e+00 2.319171726703643799e-01 1.775654435157775879e+00
1.475000000000000000e+03 6.392399978637695312e+01 -9.508034706115722656e+00 -2.004325389862060547e-01 1.330361247062683105e+00 3.389786183834075928e-01 1.844805359840393066e+00
1.476000000000000000e+03 6.447148895263671875e+01 -4.058017730712890625e+00 -3.960731029510498047e-01 1.116092205047607422e+00 2.160057276487350464e-01 -1.798436403274536133e+00
1.477000000000000000e+03 6.236915206909179688e+01 -9.098990440368652344e+00 -1.358842253684997559e+00 4.266496598720550537e-01 -2.796577811241149902e-01 7.079768776893615723e-01
1.478000000000000000e+03 6.349510574340820312e+01 -9.023174285888671875e+00 -7.862991094589233398e-01 7.431257367134094238e-01 -1.295200642198324203e-02 1.237447857856750488e+00
1.479000000000000000e+03 6.171837615966796875e+01 -8.640269279479980469e+00 -2.062047243118286133e+00 1.932534277439117432e-01 -5.606381893157958984e-01 3.178333640098571777e-01
1.480000000000000000e+03 6.178762054443359375e+01 -9.692863464355468750e+00 -1.130087137222290039e+00 5.346501469612121582e-01 -1.786310970783233643e-01 7.448146343231201172e-01
1.481000000000000000e+03 2.106895637512207031e+01 -1.679791927337646484e+00 -6.127484142780303955e-02 -1.463161557912826538e-01 -6.227729842066764832e-02 1.324257105588912964e-01
1.482000000000000000e+03 2.066907882690429688e+01 -2.395756721496582031e+00 -4.526197910308837891e-02 -1.046429276466369629e-01 -4.497147351503372192e-02 8.781610429286956787e-02
1.483000000000000000e+03 6.030470657348632812e+01 -8.718754768371582031e+00 -2.384091138839721680e+00 1.131527125835418701e-01 -6.812815070152282715e-01 8.816149085760116577e-02
1.484000000000000000e+03 6.173911666870117188e+01 -9.159585952758789062e+00 -1.573786020278930664e+00 3.407140970230102539e-01 -3.699215650558471680e-01 5.202844738960266113e-01
1.485000000000000000e+03 2.469090080261230469e+01 -3.435617685317993164e+00 -2.314413189888000488e-01 -6.594415754079818726e-02 -8.921564370393753052e-02 2.061367034912109375e-01
1.486000000000000000e+03 1.798401451110839844e+01 -8.798479080200195312e+00 -1.125572323799133301e-01 -5.981322005391120911e-02 -5.171113833785057068e-02 -1.007968187332153320e-01
1.487000000000000000e+03 3.032446479797363281e+01 -4.263863563537597656e+00 -6.409957408905029297e-01 -3.918688278645277023e-03 -1.934743374586105347e-01 2.482845038175582886e-01
1.488000000000000000e+03 2.748830795288085938e+01 -3.570576906204223633e+00 -4.177240431308746338e-01 -3.430616855621337891e-02 -1.356090605258941650e-01 2.678641080856323242e-01
1.489000000000000000e+03 3.883018493652343750e+00 2.603568077087402344e+00 7.878413725848076865e-07 -4.362951585790142417e-05 -1.285250255023129284e-05 -1.210570917464792728e-04
1.490000000000000000e+03 4.585394859313964844e+00 2.562753677368164062e+00 -1.464393280912190676e-04 1.731010415824130177e-04 7.998511136975139380e-06 2.976509858854115009e-04
1.491000000000000000e+03 5.976590633392333984e+00 2.561367988586425781e+00 -2.008779556490480900e-04 2.967260952573269606e-04 2.875443897210061550e-05 3.199499042239040136e-04
1.492000000000000000e+03 5.215152740478515625e+00 3.242243051528930664e+00 -1.811098045436665416e-04 3.102995688095688820e-04 3.875693437294103205e-05 3.327355661895126104e-04
1.493000000000000000e+03 5.877425193786621094e+00 3.274638414382934570e+00 1.481451909057796001e-04 -2.466228615958243608e-04 -2.954330011561978608e-05 -2.556979015935212374e-04
1.494000000000000000e+03 1.028078651428222656e+01 2.635700225830078125e+00 4.999119482818059623e-05 9.269175643566995859e-05 4.280488792574033141e-05 3.126425144728273153e-04
1.495000000000000000e+03 7.232998371124267578e+00 3.373434305191040039e+00 1.285434555029496551e-04 -3.229760623071342707e-04 -5.832978058606386185e-05 -4.180902615189552307e-04
1.496000000000000000e+03 6.549377918243408203e+00 3.325599908828735352e+00 -2.241006295662373304e-04 4.654669319279491901e-04 7.240989361889660358e-05 3.653172170743346214e-04
1.497000000000000000e+03 4.556858062744140625e+00 3.250096321105957031e+00 7.065277895890176296e-05 -7.904646918177604675e-05 -2.518107521609636024e-06 -1.769471273291856050e-04
1.498000000000000000e+03 2.495009660720825195e+00 2.675276517868041992e+00 1.041285140672698617e-04 -1.042004223563708365e-04 -2.157178258244130120e-08 -3.799234764301218092e-05
1.499000000000000000e+03 1.018258285522460938e+01 3.415571212768554688e+00 -1.151251053670421243e-04 -1.755750272423028946e-04 -8.721003541722893715e-05 -6.301926914602518082e-04
1.500000000000000000e+03 2.335908889770507812e+01 -3.252712726593017578e+00 -1.582383662462234497e-01 -8.335439860820770264e-02 -7.247782498598098755e-02 1.700273454189300537e-01
1.501000000000000000e+03 2.528038787841796875e+01 -4.152917861938476562e+00 -2.522512674331665039e-01 -4.111737757921218872e-02 -8.801059424877166748e-02 1.781329810619354248e-01
1.502000000000000000e+03 2.607537651062011719e+01 -3.535106897354125977e+00 -3.179006874561309814e-01 -5.047158896923065186e-02 -1.105116829276084900e-01 2.392819821834564209e-01
1.503000000000000000e+03 2.270175552368164062e+01 -3.102528810501098633e+00 -1.266846358776092529e-01 -9.159535169601440430e-02 -6.548399478197097778e-02 1.501780301332473755e-01
1.504000000000000000e+03 2.204529190063476562e+01 -2.909424781799316406e+00 -9.717405587434768677e-02 -9.724396467208862305e-02 -5.832540616393089294e-02 1.293865293264389038e-01
1.505000000000000000e+03 9.567673683166503906e+00 -2.500042915344238281e+00 -3.918314905604347587e-05 -1.902615913422778249e-04 -6.883341848151758313e-05 -1.066142140189185739e-04
1.506000000000000000e+03 2.137537574768066406e+01 -2.681480884552001953e+00 -7.272579520940780640e-02 -1.008129343390464783e-01 -5.206161737442016602e-02 1.099431142210960388e-01
1.507000000000000000e+03 2.814015007019042969e+01 -4.260238647460937500e+00 -4.573272466659545898e-01 -1.717594452202320099e-02 -1.423509567975997925e-01 2.257228940725326538e-01
1.508000000000000000e+03 2.892300224304199219e+01 -3.571003675460815430e+00 -5.266368985176086426e-01 -2.042793855071067810e-02 -1.641194373369216919e-01 2.911968231201171875e-01
1.509000000000000000e+03 2.897001457214355469e+01 -2.865368843078613281e+00 -5.317167043685913086e-01 -3.119933977723121643e-02 -1.688748002052307129e-01 3.455290496349334717e-01
1.510000000000000000e+03 3.106167984008789062e+01 -4.259686946868896484e+00 -7.075394392013549805e-01 8.508555765729397535e-06 -2.122592777013778687e-01 2.538012564182281494e-01
1.511000000000000000e+03 3.185499954223632812e+01 -3.563945531845092773e+00 -7.691041827201843262e-01 -4.496465844567865133e-04 -2.308661490678787231e-01 3.209832012653350830e-01
1.512000000000000000e+03 1.158757781982421875e+01 -3.563215255737304688e+00 -7.910022395662963390e-05 -1.702366716926917434e-04 -7.480107160517945886e-05 2.018142731685657054e-05
1.513000000000000000e+03 1.097316455841064453e+01 -2.637833833694458008e+00 -3.016055779880844057e-05 -2.065150911221280694e-04 -7.100269431248307228e-05 1.118654563470045105e-05
1.514000000000000000e+03 1.126380634307861328e+01 -4.397226810455322266e+00 1.123593392549082637e-04 9.866995242191478610e-06 3.666790144052356482e-05 4.556888598017394543e-05
1.515000000000000000e+03 4.626673889160156250e+01 -9.714641571044921875e+00 -1.925983667373657227e+00 -1.190935843624174595e-03 -5.781524181365966797e-01 -3.307030797004699707e-01
1.516000000000000000e+03 4.691201019287109375e+01 -8.997048377990722656e+00 -2.152801513671875000e+00 -8.806983532849699259e-05 -6.458668708801269531e-01 -2.838144302368164062e-01
1.517000000000000000e+03 1.258344650268554688e+01 -2.800509691238403320e+00 -1.838134630816057324e-04 -8.381164661841467023e-05 -8.028752927202731371e-05 3.192854637745767832e-05
1.518000000000000000e+03 4.412953948974609375e+01 -1.047032928466796875e+01 -1.633167982101440430e+00 -9.996393695473670959e-03 -4.929493069648742676e-01 -3.720202147960662842e-01
1.519000000000000000e+03 3.334286499023437500e+01 -3.549198389053344727e+00 -9.013721942901611328e-01 5.731432233005762100e-03 -2.686922252178192139e-01 3.292735517024993896e-01
1.520000000000000000e+03 4.998994827270507812e+01 -9.672232627868652344e+00 -2.132988214492797852e+00 7.607562001794576645e-03 -6.376141905784606934e-01 -3.116270303726196289e-01
1.521000000000000000e+03 3.403514862060546875e+01 -4.214508056640625000e+00 -9.930203557014465332e-01 8.629351854324340820e-03 -2.953172922134399414e-01 2.669558525085449219e-01
1.522000000000000000e+03 3.483089828491210938e+01 -3.513648033142089844e+00 -1.037208914756774902e+00 9.207677096128463745e-03 -3.084003925323486328e-01 3.357569575309753418e-01
1.523000000000000000e+03 5.288137435913085938e+01 -8.936028480529785156e+00 -2.533473968505859375e+00 1.110586244612932205e-02 -7.567104101181030273e-01 -2.521145045757293701e-01
1.524000000000000000e+03 5.512276458740234375e+01 -8.909361839294433594e+00 -2.609639644622802734e+00 2.101502381265163422e-02 -7.765874266624450684e-01 -2.124659568071365356e-01
1.525000000000000000e+03 4.029417419433593750e+01 -9.856334686279296875e+00 -1.525148510932922363e+00 -1.611358672380447388e-02 -4.623786211013793945e-01 -3.205916285514831543e-01
1.526000000000000000e+03 4.616524505615234375e+01 -9.008071899414062500e+00 -2.095729112625122070e+00 -2.601793501526117325e-03 -6.294992566108703613e-01 -2.844704985618591309e-01
1.527000000000000000e+03 4.402749633789062500e+01 -9.756226539611816406e+00 -1.778963804244995117e+00 -9.298462420701980591e-03 -5.364786982536315918e-01 -3.313389718532562256e-01
1.528000000000000000e+03 4.243136978149414062e+01 -9.080591201782226562e+00 -1.808126807212829590e+00 -9.216627106070518494e-03 -5.452030301094055176e-01 -2.788186669349670410e-01
1.529000000000000000e+03 4.179243850708007812e+01 -9.812284469604492188e+00 -1.628068089485168457e+00 -1.356146112084388733e-02 -4.924888610839843750e-01 -3.252335786819458008e-01
1.530000000000000000e+03 4.701274871826171875e+01 -9.704299926757812500e+00 -1.971131801605224609e+00 1.115377308451570570e-04 -5.913060903549194336e-01 -3.286852538585662842e-01
1.531000000000000000e+03 4.914860153198242188e+01 -8.972732543945312500e+00 -2.312638521194458008e+00 1.959677552804350853e-03 -6.932036876678466797e-01 -2.781265079975128174e-01
1.532000000000000000e+03 4.775703430175781250e+01 -9.696604728698730469e+00 -2.015780925750732422e+00 2.952346345409750938e-03 -6.038485765457153320e-01 -3.263279497623443604e-01
1.533000000000000000e+03 5.586897659301757812e+01 -8.896377563476562500e+00 -2.619049787521362305e+00 2.832600474357604980e-02 -7.772170901298522949e-01 -1.909078657627105713e-01
1.534000000000000000e+03 5.530022811889648438e+01 -1.026800632476806641e+01 -1.927147507667541504e+00 7.870443910360336304e-02 -5.545328855514526367e-01 -1.773204058408737183e-01
1.535000000000000000e+03 3.943906021118164062e+01 -9.159677505493164062e+00 -1.578884482383728027e+00 -1.348138693720102310e-02 -4.777097702026367188e-01 -2.687940001487731934e-01
1.536000000000000000e+03 3.900045776367187500e+01 -1.137675762176513672e+01 -1.215317249298095703e+00 -2.638700604438781738e-02 -3.725112974643707275e-01 -3.993251919746398926e-01
1.537000000000000000e+03 3.879457855224609375e+01 -9.898730278015136719e+00 -1.423248052597045898e+00 -1.886446587741374969e-02 -4.326337575912475586e-01 -3.149524033069610596e-01
1.538000000000000000e+03 5.213399124145507812e+01 -8.943437576293945312e+00 -2.496506929397583008e+00 7.453789934515953064e-03 -7.467159032821655273e-01 -2.602403759956359863e-01
1.539000000000000000e+03 5.073385238647460938e+01 -9.663302421569824219e+00 -2.166108846664428711e+00 1.068819686770439148e-02 -6.466262340545654297e-01 -3.050734996795654297e-01
1.540000000000000000e+03 5.297133255004882812e+01 -9.630383491516113281e+00 -2.241790771484375000e+00 2.184131182730197906e-02 -6.659848093986511230e-01 -2.709149718284606934e-01
1.541000000000000000e+03 5.371776199340820312e+01 -9.618042945861816406e+00 -2.255067825317382812e+00 2.898009680211544037e-02 -6.678262948989868164e-01 -2.530660331249237061e-01
1.542000000000000000e+03 5.446471023559570312e+01 -9.604540824890136719e+00 -2.261678934097290039e+00 3.528350964188575745e-02 -6.679186224937438965e-01 -2.321753501892089844e-01
1.543000000000000000e+03 5.521178054809570312e+01 -9.588850975036621094e+00 -2.258968830108642578e+00 4.531210660934448242e-02 -6.640970110893249512e-01 -2.044832110404968262e-01
1.544000000000000000e+03 5.884206008911132812e+01 -8.798949241638183594e+00 -2.540067672729492188e+00 6.974044442176818848e-02 -7.410981655120849609e-01 -4.602032899856567383e-02
1.545000000000000000e+03 5.965151214599609375e+01 -9.353297233581542969e+00 -1.997897386550903320e+00 1.637433320283889771e-01 -5.502462387084960938e-01 1.276576370000839233e-01
1.546000000000000000e+03 5.595750808715820312e+01 -9.568848609924316406e+00 -2.247629165649414062e+00 5.457989871501922607e-02 -6.579148173332214355e-01 -1.732299774885177612e-01
1.547000000000000000e+03 5.818600845336914062e+01 -9.465355873107910156e+00 -2.144910097122192383e+00 1.067497581243515015e-01 -6.114481091499328613e-01 -2.695524133741855621e-02
1.548000000000000000e+03 5.670127105712890625e+01 -9.542053222656250000e+00 -2.225889205932617188e+00 6.937094032764434814e-02 -6.469554305076599121e-01 -1.332131922245025635e-01
1.549000000000000000e+03 5.744389724731445312e+01 -9.507513046264648438e+00 -2.193319559097290039e+00 8.418462425470352173e-02 -6.327404975891113281e-01 -8.627431839704513550e-02
1.550000000000000000e+03 3.777200317382812500e+01 -4.103543758392333984e+00 -1.373823404312133789e+00 8.366738446056842804e-03 -4.096370041370391846e-01 2.752916514873504639e-01
1.551000000000000000e+03 3.488074493408203125e+01 -2.831093311309814453e+00 -1.003265857696533203e+00 7.593838032335042953e-03 -2.987016141414642334e-01 3.967777490615844727e-01
1.552000000000000000e+03 5.892404937744140625e+01 -9.414009094238281250e+00 -2.082729339599609375e+00 1.307243704795837402e-01 -5.856015086174011230e-01 4.187034070491790771e-02
1.553000000000000000e+03 6.310637664794921875e+01 -3.495553016662597656e+00 -8.882762193679809570e-01 7.510249018669128418e-01 -4.117539897561073303e-02 -1.199516773223876953e+00
1.554000000000000000e+03 6.242334747314453125e+01 -3.472138166427612305e+00 -1.231129527091979980e+00 5.322620272636413574e-01 -2.096602320671081543e-01 -8.656240105628967285e-01
1.555000000000000000e+03 6.171657562255859375e+01 -3.439204454421997070e+00 -1.522992730140686035e+00 3.918064832687377930e-01 -3.393558561801910400e-01 -6.219752430915832520e-01
1.556000000000000000e+03 6.026963806152343750e+01 -3.362003326416015625e+00 -1.926123023033142090e+00 2.200972288846969604e-01 -5.118077397346496582e-01 -2.774112522602081299e-01
1.557000000000000000e+03 5.953689193725585938e+01 -3.323251485824584961e+00 -2.067595005035400391e+00 1.704066246747970581e-01 -5.691565275192260742e-01 -1.617981195449829102e-01
1.558000000000000000e+03 3.739546585083007812e+01 -1.067331504821777344e+01 -1.228893876075744629e+00 -2.713951654732227325e-02 -3.768100142478942871e-01 -3.528099060058593750e-01
1.559000000000000000e+03 3.729244232177734375e+01 -9.943443298339843750e+00 -1.321338653564453125e+00 -2.198234014213085175e-02 -4.029963016510009766e-01 -3.080353736877441406e-01
1.560000000000000000e+03 5.731964874267578125e+01 -3.230360984802246094e+00 -2.314295291900634766e+00 8.362527191638946533e-02 -6.692010164260864258e-01 6.031457707285881042e-02
1.561000000000000000e+03 5.582464218139648438e+01 -3.201503038406372070e+00 -2.391501426696777344e+00 5.227550119161605835e-02 -7.017677426338195801e-01 1.512023806571960449e-01
1.562000000000000000e+03 5.507721710205078125e+01 -3.196735858917236328e+00 -2.411557912826538086e+00 3.794060647487640381e-02 -7.120851874351501465e-01 1.856633275747299194e-01
1.563000000000000000e+03 5.059879302978515625e+01 -3.211310386657714844e+00 -2.329138040542602539e+00 7.923404686152935028e-03 -6.963643431663513184e-01 2.946725189685821533e-01
1.564000000000000000e+03 5.209175872802734375e+01 -3.207655668258666992e+00 -2.389835596084594727e+00 1.402959041297435760e-02 -7.127417922019958496e-01 2.694952487945556641e-01
1.565000000000000000e+03 5.134650802612304688e+01 -3.209993124008178711e+00 -2.362719297409057617e+00 1.279186829924583435e-02 -7.049782872200012207e-01 2.827901840209960938e-01
1.566000000000000000e+03 3.931713867187500000e+01 -3.366231918334960938e+00 -1.450408935546875000e+00 8.791356347501277924e-03 -4.324852824211120605e-01 3.470492362976074219e-01
1.567000000000000000e+03 4.077711486816406250e+01 -4.020022869110107422e+00 -1.684759974479675293e+00 5.077420268207788467e-03 -5.039047598838806152e-01 2.778837382793426514e-01
1.568000000000000000e+03 4.153060913085937500e+01 -4.002332210540771484e+00 -1.761718392372131348e+00 4.719045478850603104e-03 -5.270997881889343262e-01 2.778332531452178955e-01
1.569000000000000000e+03 4.082291793823242188e+01 -3.323514938354492188e+00 -1.587330579757690430e+00 7.308716420084238052e-03 -4.740065336227416992e-01 3.475402295589447021e-01
1.570000000000000000e+03 5.657361602783203125e+01 -3.212214946746826172e+00 -2.360761642456054688e+00 6.367786228656768799e-02 -6.891251802444458008e-01 1.112876087427139282e-01
1.571000000000000000e+03 4.835469436645507812e+01 -3.216584205627441406e+00 -2.198828458786010742e+00 4.153462126851081848e-03 -6.584025621414184570e-01 3.190976977348327637e-01
1.572000000000000000e+03 4.985023880004882812e+01 -3.212700605392456055e+00 -2.290103197097778320e+00 7.309365086257457733e-03 -6.848381757736206055e-01 3.044371902942657471e-01
1.573000000000000000e+03 4.384280776977539062e+01 -3.264540433883666992e+00 -1.853626966476440430e+00 4.277389496564865112e-03 -5.548048615455627441e-01 3.418779969215393066e-01
1.574000000000000000e+03 4.233513259887695312e+01 -3.291182518005371094e+00 -1.723001480102539062e+00 5.901400465518236160e-03 -5.151300430297851562e-01 3.456383347511291504e-01
1.575000000000000000e+03 4.308992767333984375e+01 -3.277396917343139648e+00 -1.789484500885009766e+00 4.354079719632863998e-03 -5.355391502380371094e-01 3.443230092525482178e-01
1.576000000000000000e+03 4.534835052490234375e+01 -3.244091749191284180e+00 -1.978073477745056152e+00 3.202369203791022301e-03 -5.924613475799560547e-01 3.367016613483428955e-01
1.577000000000000000e+03 4.454327392578125000e+01 -3.946301460266113281e+00 -2.062209844589233398e+00 1.264803344383835793e-03 -6.182835102081298828e-01 2.755915522575378418e-01
1.578000000000000000e+03 4.459549713134765625e+01 -3.253746986389160156e+00 -1.916637301445007324e+00 2.647146582603454590e-03 -5.741970539093017578e-01 3.403215408325195312e-01
1.579000000000000000e+03 3.856571578979492188e+01 -3.387858867645263672e+00 -1.380957007408142090e+00 8.674969896674156189e-03 -4.116846323013305664e-01 3.462036550045013428e-01
1.580000000000000000e+03 5.358468627929687500e+01 -3.199217319488525391e+00 -2.418649196624755859e+00 2.220331132411956787e-02 -7.189338207244873047e-01 2.351098805665969849e-01
1.581000000000000000e+03 3.428017807006835938e+01 -1.002027606964111328e+01 -1.120434522628784180e+00 -2.724369242787361145e-02 -3.443034589290618896e-01 -2.902806699275970459e-01
1.582000000000000000e+03 3.266721725463867188e+01 -9.336635589599609375e+00 -1.080706238746643066e+00 -2.179468050599098206e-02 -3.307502567768096924e-01 -2.325286716222763062e-01
1.583000000000000000e+03 3.352538681030273438e+01 -1.003682804107666016e+01 -1.070797324180603027e+00 -2.736211009323596954e-02 -3.294478356838226318e-01 -2.858066260814666748e-01
1.584000000000000000e+03 3.276732635498046875e+01 -1.005452060699462891e+01 -1.021239638328552246e+00 -2.779786288738250732e-02 -3.147112429141998291e-01 -2.809026539325714111e-01
1.585000000000000000e+03 3.503357696533203125e+01 -1.000302410125732422e+01 -1.169453382492065430e+00 -2.628904208540916443e-02 -3.587227463722229004e-01 -2.956933975219726562e-01
1.586000000000000000e+03 4.157865142822265625e+01 -3.305884838104248047e+00 -1.655753493309020996e+00 6.011037155985832214e-03 -4.949227273464202881e-01 3.470229804515838623e-01
1.587000000000000000e+03 4.760414505004882812e+01 -3.220736742019653320e+00 -2.146903753280639648e+00 1.909722457639873028e-03 -6.434981822967529297e-01 3.253757059574127197e-01
1.588000000000000000e+03 1.357262325286865234e+01 5.026819705963134766e+00 -4.235813103150576353e-04 -1.371537073282524943e-04 -1.682205038378015161e-04 -4.477917682379484177e-04
1.589000000000000000e+03 9.409237861633300781e+00 3.421504259109497070e+00 -2.323881199117749929e-05 3.389334888197481632e-04 9.470840450376272202e-05 4.552039899863302708e-04
1.590000000000000000e+03 1.263267993927001953e+01 4.129942893981933594e+00 -4.928189446218311787e-04 1.011836502584628761e-04 -1.174905846710316837e-04 -6.199438939802348614e-04
1.591000000000000000e+03 1.259868240356445312e+01 3.316096067428588867e+00 4.092258459422737360e-04 -3.759552491828799248e-04 9.981175935536157340e-06 1.625844161026179790e-04
1.592000000000000000e+03 3.047251701354980469e+01 -1.010654067993164062e+01 -8.720525503158569336e-01 -2.461133897304534912e-02 -2.689991593360900879e-01 -2.678053379058837891e-01
1.593000000000000000e+03 3.124195289611816406e+01 -1.009045124053955078e+01 -9.222699403762817383e-01 -2.612839080393314362e-02 -2.845194935798645020e-01 -2.722408473491668701e-01
1.594000000000000000e+03 2.806433296203613281e+01 -9.389341354370117188e+00 -7.539070844650268555e-01 -1.303160842508077621e-02 -2.300816029310226440e-01 -2.078847885131835938e-01
1.595000000000000000e+03 2.969820022583007812e+01 -1.012274169921875000e+01 -8.231367468833923340e-01 -2.253590710461139679e-02 -2.537018060684204102e-01 -2.644753754138946533e-01
1.596000000000000000e+03 6.432535552978515625e+01 -3.487621068954467773e+00 -1.117658689618110657e-01 1.554489254951477051e+00 4.328170418739318848e-01 -2.114683866500854492e+00
1.597000000000000000e+03 9.294060707092285156e+00 4.213777542114257812e+00 7.966098928591236472e-05 -3.921958559658378363e-04 -9.376046364195644855e-05 -6.933427648618817329e-04
1.598000000000000000e+03 2.006353187561035156e+01 -9.768545150756835938e+00 -2.765874564647674561e-01 -2.146811783313751221e-02 -8.941667526960372925e-02 -1.937469542026519775e-01
1.599000000000000000e+03 1.943781852722167969e+01 -9.019976615905761719e+00 -2.068990468978881836e-01 -2.516542188823223114e-02 -6.961934268474578857e-02 -1.429052948951721191e-01
1.600000000000000000e+03 6.743846893310546875e+00 -3.327366113662719727e+00 1.171222629636758938e-05 1.808217930374667048e-04 5.776020771008916199e-05 1.650150225032120943e-04
1.601000000000000000e+03 2.531514883041381836e+00 -6.641030311584472656e+00 -2.813894534483551979e-04 2.268174966957303695e-06 -8.373638411285355687e-05 -2.086353051709011197e-04
1.602000000000000000e+03 7.469269275665283203e+00 -4.144670963287353516e+00 1.411839330103248358e-04 5.308691470418125391e-05 5.828125722473487258e-05 1.796970318537205458e-04
1.603000000000000000e+03 8.864496231079101562e+00 -2.544459342956542969e+00 5.830478039570152760e-05 1.528676657471805811e-04 6.335173384286463261e-05 1.736860140226781368e-04
1.604000000000000000e+03 5.910444259643554688e+00 -2.639873743057250977e+00 -3.629594721132889390e-05 1.752007228787988424e-04 4.167143561062403023e-05 1.529654691694304347e-04
1.605000000000000000e+03 5.616216182708740234e+00 -4.277331829071044922e+00 5.538408368011005223e-05 -1.930690777953714132e-04 -4.130549859837628901e-05 -2.629945811349898577e-04
1.606000000000000000e+03 3.414182901382446289e+00 -4.743247032165527344e+00 2.309035917278379202e-04 7.967402780195698142e-05 9.317328658653423190e-05 2.845554263330996037e-04
1.607000000000000000e+03 1.570922970771789551e+00 -5.247489929199218750e+00 -3.816150419879704714e-04 3.835331881418824196e-06 -1.133339173975400627e-04 -9.522314940113574266e-05
1.608000000000000000e+03 2.736467552185058594e+01 -1.014144325256347656e+01 -6.774235367774963379e-01 -1.265649497509002686e-02 -2.070240080356597900e-01 -2.543275952339172363e-01
1.609000000000000000e+03 2.814551353454589844e+01 -1.014196968078613281e+01 -7.258050441741943359e-01 -1.650478877127170563e-02 -2.226929515600204468e-01 -2.576467692852020264e-01
1.610000000000000000e+03 2.657934379577636719e+01 -1.013931560516357422e+01 -6.307530999183654785e-01 -8.351780474185943604e-03 -1.917314678430557251e-01 -2.512945532798767090e-01
1.611000000000000000e+03 2.343685722351074219e+01 -1.011676025390625000e+01 -4.545070827007293701e-01 5.773502402007579803e-03 -1.346200704574584961e-01 -2.365939021110534668e-01
1.612000000000000000e+03 2.120532989501953125e+01 -1.013715839385986328e+01 -3.454681038856506348e-01 -6.121646147221326828e-03 -1.054769307374954224e-01 -2.241203188896179199e-01
1.613000000000000000e+03 2.422236061096191406e+01 -1.011688423156738281e+01 -4.963836967945098877e-01 4.150398075580596924e-03 -1.476699858903884888e-01 -2.408449649810791016e-01
1.614000000000000000e+03 2.572555541992187500e+01 -9.350529670715332031e+00 -5.931694507598876953e-01 -1.385411946102976799e-03 -1.783664524555206299e-01 -1.986727416515350342e-01
1.615000000000000000e+03 2.500742721557617188e+01 -1.012726116180419922e+01 -5.397235155105590820e-01 4.239696427248418331e-04 -1.617898643016815186e-01 -2.446199059486389160e-01
1.616000000000000000e+03 1.880944442749023438e+01 -1.282536029815673828e+01 -3.403044044971466064e-01 -8.774472773075103760e-02 -1.284147351980209351e-01 -2.857381999492645264e-01
1.617000000000000000e+03 2.038052558898925781e+01 -3.224491119384765625e+00 -3.329775854945182800e-02 -5.598219856619834900e-02 -2.678398787975311279e-02 4.481039568781852722e-02
1.618000000000000000e+03 2.188133049011230469e+01 -1.006005287170410156e+01 -3.733235299587249756e-01 1.655957545153796673e-03 -1.115002706646919250e-01 -2.259933650493621826e-01
1.619000000000000000e+03 2.264257049560546875e+01 -1.013060951232910156e+01 -4.146341681480407715e-01 6.159675773233175278e-03 -1.225423440337181091e-01 -2.326684445142745972e-01
1.620000000000000000e+03 2.154889678955078125e+01 2.272567749023437500e+00 -1.344528198242187500e-01 -4.169427752494812012e-01 -1.654186844825744629e-01 3.639632463455200195e-01
1.621000000000000000e+03 2.122816085815429688e+01 5.947355747222900391e+00 -2.372820228338241577e-01 -7.126173973083496094e-01 -2.849698364734649658e-01 5.262222886085510254e-01
1.622000000000000000e+03 1.792324447631835938e+01 -1.042516136169433594e+01 -2.188363820314407349e-01 -1.013225317001342773e-01 -9.604767709970474243e-02 -2.018651664257049561e-01
1.623000000000000000e+03 1.078092002868652344e+01 9.108940124511718750e+00 2.527341130189597607e-04 1.800925820134580135e-03 6.160979974083602428e-04 8.393639582209289074e-04
1.624000000000000000e+03 1.108372879028320312e+01 1.067913532257080078e+01 9.010270005092024803e-04 1.802717102691531181e-03 8.111232309602200985e-04 1.366288401186466217e-03
1.625000000000000000e+03 1.334321212768554688e+01 6.190416812896728516e+00 6.314305937848985195e-04 8.620759763289242983e-05 2.152914530597627163e-04 4.816200525965541601e-04
1.626000000000000000e+03 6.156766891479492188e+00 -1.450102233886718750e+01 5.015277769416570663e-03 -6.870967335999011993e-04 1.298454240895807743e-03 -1.114886719733476639e-02
1.627000000000000000e+03 6.821696281433105469e+00 -1.345475864410400391e+01 -1.112811383791267872e-03 8.749877102673053741e-03 2.291119657456874847e-03 -3.454169258475303650e-03
1.628000000000000000e+03 1.880055999755859375e+01 1.103239917755126953e+01 -4.832783043384552002e-01 -1.373252630233764648e+00 -5.569592714309692383e-01 6.868161559104919434e-01
1.629000000000000000e+03 2.088452720642089844e+01 7.320367336273193359e+00 -3.009231090545654297e-01 -8.396062254905700684e-01 -3.421587944030761719e-01 5.832727551460266113e-01
1.630000000000000000e+03 1.079899692535400391e+01 -3.359476566314697266e+00 2.699714968912303448e-05 1.311142113991081715e-04 4.743340832646936178e-05 7.676369568798691034e-05
1.631000000000000000e+03 8.539539337158203125e+00 -2.030274391174316406e+01 -2.233406305313110352e-01 -1.843860298395156860e-01 -1.223179996013641357e-01 -2.678209543228149414e-01
1.632000000000000000e+03 7.862555980682373047e+00 -1.880667114257812500e+01 -2.150356024503707886e-01 -3.480876609683036804e-02 -7.495331019163131714e-02 -1.247261464595794678e-01
1.633000000000000000e+03 1.007920265197753906e+01 4.199889659881591797e+00 4.613080454873852432e-05 4.354350676294416189e-04 1.444697700208052993e-04 6.006117328070104122e-04
1.634000000000000000e+03 6.957374215126037598e-01 3.028491020202636719e+00 -9.666581172496080399e-05 -2.454053610563278198e-04 -1.026213503791950643e-04 2.291958371642976999e-04
1.635000000000000000e+03 1.013159370422363281e+01 -6.180712223052978516e+00 1.959933870239183307e-04 -2.672086993698030710e-04 -2.136459443136118352e-05 1.233274379046633840e-04
1.636000000000000000e+03 1.595448112487792969e+01 -1.864965248107910156e+01 -2.531880736351013184e-01 -2.431022226810455322e-01 -1.488870829343795776e-01 -2.772124111652374268e-01
1.637000000000000000e+03 1.608187484741210938e+01 -1.536814212799072266e+01 -3.367682695388793945e-01 -2.294287532567977905e-01 -1.698591113090515137e-01 -2.965368032455444336e-01
1.638000000000000000e+03 9.601444244384765625e+00 -1.992539978027343750e+01 -2.011999040842056274e-01 -2.965663075447082520e-01 -1.493298560380935669e-01 -3.004670441150665283e-01
1.639000000000000000e+03 1.989331817626953125e+01 -2.184062302112579346e-01 -2.900375053286552429e-02 -2.064762562513351440e-01 -7.064400613307952881e-02 1.168368011713027954e-01
1.640000000000000000e+03 1.341167831420898438e+01 3.123713016510009766e+00 -4.428298780112527311e-05 5.383893731050193310e-04 1.482319203205406666e-04 7.772901153657585382e-05
1.641000000000000000e+03 3.704125881195068359e+00 2.174263954162597656e+01 -8.712755888700485229e-02 -1.085829734802246094e-01 -5.871316045522689819e-02 1.109495013952255249e-01
1.642000000000000000e+03 7.518062591552734375e+01 -3.788022613525390625e+01 2.195242978632450104e-02 7.492994785308837891e+00 2.254484176635742188e+00 1.529774162918329239e-02
1.643000000000000000e+03 7.515445709228515625e+01 -3.457279968261718750e+01 2.746209315955638885e-02 7.545608043670654297e+00 2.271921157836914062e+00 1.630675941705703735e-01
1.644000000000000000e+03 7.702977752685546875e+01 -3.600917816162109375e+01 -8.131409063935279846e-03 7.889458656311035156e+00 2.364398241043090820e+00 1.210496202111244202e-01
1.645000000000000000e+03 7.610148620605468750e+01 -2.190652847290039062e+01 -1.946150809526443481e-01 8.316740989685058594e+00 2.436637878417968750e+00 -2.250700257718563080e-02
1.646000000000000000e+03 7.800514984130859375e+01 -2.784540176391601562e+01 -9.672746993601322174e-03 8.523228645324707031e+00 2.554066658020019531e+00 1.072982773184776306e-01
1.647000000000000000e+03 7.539247894287109375e+01 1.651839637756347656e+01 -2.351468615233898163e-02 7.569170951843261719e+00 2.263696908950805664e+00 -3.477333188056945801e-01
1.648000000000000000e+03 7.671962738037109375e+01 1.656835937500000000e+01 -1.440827175974845886e-02 7.892063617706298828e+00 2.363296508789062500e+00 -2.564544379711151123e-01
1.649000000000000000e+03 7.722222137451171875e+01 3.482304763793945312e+01 -4.526841454207897186e-03 7.028599739074707031e+00 2.107221841812133789e+00 -8.303499966859817505e-02
1.650000000000000000e+03 7.527500915527343750e+01 3.329415512084960938e+01 3.244864195585250854e-02 6.707828044891357422e+00 2.022083044052124023e+00 -1.495377272367477417e-01
1.651000000000000000e+03 7.717002105712890625e+01 -2.205043411254882812e+01 -1.110637784004211426e-01 8.515189170837402344e+00 2.521237611770629883e+00 -4.622077196836471558e-02
1.652000000000000000e+03 7.659349822998046875e+01 -2.930128479003906250e+01 -1.395166735164821148e-03 8.090030670166015625e+00 2.426590681076049805e+00 1.809289306402206421e-01
1.653000000000000000e+03 7.665061187744140625e+01 -2.780254554748535156e+01 -2.215879410505294800e-02 8.163560867309570312e+00 2.442420721054077148e+00 1.656226664781570435e-01
1.654000000000000000e+03 7.809937286376953125e+01 -3.464636611938476562e+01 1.656892709434032440e-02 8.222532272338867188e+00 2.471730470657348633e+00 8.228591084480285645e-02
1.655000000000000000e+03 7.401250457763671875e+01 -3.702500915527343750e+01 1.125679165124893188e-01 7.103519916534423828e+00 2.164826393127441406e+00 1.164495870471000671e-01
1.656000000000000000e+03 7.693813323974609375e+01 -2.486052131652832031e+01 -5.967710539698600769e-02 8.375674247741699219e+00 2.494799137115478516e+00 9.884839504957199097e-02
1.657000000000000000e+03 7.678882598876953125e+01 -2.631418609619140625e+01 -3.951523452997207642e-02 8.266666412353515625e+00 2.468145370483398438e+00 1.462911367416381836e-01
1.658000000000000000e+03 7.671061706542968750e+01 -3.074255752563476562e+01 6.967762019485235214e-03 8.056346893310546875e+00 2.418994188308715820e+00 1.692966520786285400e-01
1.659000000000000000e+03 7.666768646240234375e+01 -3.459141921997070312e+01 9.434360079467296600e-03 7.873677253723144531e+00 2.364933490753173828e+00 1.468863040208816528e-01
1.660000000000000000e+03 7.348163604736328125e+01 -2.910653877258300781e+01 -1.123634516261518002e-03 7.279765605926513672e+00 2.183592557907104492e+00 3.445160090923309326e-01
1.661000000000000000e+03 7.500723266601562500e+01 -4.041437911987304688e+01 1.002551540732383728e-01 7.452121257781982422e+00 2.265712738037109375e+00 -1.615344546735286713e-02
1.662000000000000000e+03 7.795437622070312500e+01 2.219723320007324219e+01 5.270248278975486755e-03 7.767624855041503906e+00 2.331868648529052734e+00 -1.602381020784378052e-01
1.663000000000000000e+03 7.658261108398437500e+01 2.076746940612792969e+01 9.297185577452182770e-03 7.565472602844238281e+00 2.272430896759033203e+00 -2.627674937248229980e-01
1.664000000000000000e+03 7.511099243164062500e+01 2.356691169738769531e+01 3.331084549427032471e-02 7.077473640441894531e+00 2.133235454559326172e+00 -3.205947875976562500e-01
1.665000000000000000e+03 7.655703735351562500e+01 2.216066551208496094e+01 1.127275452017784119e-02 7.472411155700683594e+00 2.245105266571044922e+00 -2.543823719024658203e-01
1.666000000000000000e+03 7.681988525390625000e+01 1.377946186065673828e+01 -4.438796266913414001e-02 8.110844612121582031e+00 2.419937133789062500e+00 -2.097810208797454834e-01
1.667000000000000000e+03 7.812458038330078125e+01 1.244685554504394531e+01 -2.781049162149429321e-02 8.529296875000000000e+00 2.550445795059204102e+00 -9.543637186288833618e-02
1.668000000000000000e+03 7.578424072265625000e+01 9.574935913085937500e+00 -2.076144814491271973e-01 8.139234542846679688e+00 2.379486083984375000e+00 -7.804949581623077393e-02
1.669000000000000000e+03 7.676976776123046875e+01 1.517028713226318359e+01 -2.760905213654041290e-02 8.003459930419921875e+00 2.392755270004272461e+00 -2.380290925502777100e-01
1.670000000000000000e+03 7.790048980712890625e+01 2.628224945068359375e+01 7.398560177534818649e-03 7.472081661224365234e+00 2.243844032287597656e+00 -1.380161643028259277e-01
1.671000000000000000e+03 7.833089447021484375e+01 -2.078462791442871094e+01 -6.069232150912284851e-02 8.738392829895019531e+00 2.603310108184814453e+00 -1.143156141042709351e-01
1.672000000000000000e+03 7.724329376220703125e+01 -2.068004035949707031e+01 -1.391325443983078003e-01 8.532896995544433594e+00 2.518129348754882812e+00 -1.487777978181838989e-01
1.673000000000000000e+03 7.741065979003906250e+01 3.041748619079589844e+01 2.020913548767566681e-02 7.173610210418701172e+00 2.158145666122436523e+00 -1.121910512447357178e-01
1.674000000000000000e+03 7.606668853759765625e+01 2.872629165649414062e+01 3.445777669548988342e-02 6.997806072235107422e+00 2.109679222106933594e+00 -1.915383934974670410e-01
1.675000000000000000e+03 7.703907775878906250e+01 8.237529754638671875e+00 -1.536983549594879150e-01 8.419478416442871094e+00 2.479733943939208984e+00 8.646146953105926514e-02
1.676000000000000000e+03 7.537057495117187500e+01 -1.514218139648437500e+01 -5.442269444465637207e-01 8.657176971435546875e+00 2.433885097503662109e+00 -9.347121119499206543e-01
1.677000000000000000e+03 7.598705291748046875e+01 -7.655714511871337891e+00 9.908932447433471680e-01 7.568491935729980469e+00 2.567815542221069336e+00 -6.278976202011108398e-01
1.678000000000000000e+03 7.849054718017578125e+01 -1.395910358428955078e+01 -6.691490858793258667e-02 7.503826141357421875e+00 2.231073379516601562e+00 -6.747049689292907715e-01
1.679000000000000000e+03 7.752466583251953125e+01 -2.891968488693237305e+00 2.126062214374542236e-01 6.796851634979248047e+00 2.102837324142456055e+00 1.015878915786743164e+00
1.680000000000000000e+03 7.738203430175781250e+01 -5.643559932708740234e+00 5.610902905464172363e-01 6.422488689422607422e+00 2.095073699951171875e+00 3.024840056896209717e-01
1.681000000000000000e+03 7.711911010742187500e+01 4.050592422485351562e+00 -2.564483284950256348e-01 8.328666687011718750e+00 2.421665430068969727e+00 5.913055539131164551e-01
1.682000000000000000e+03 7.737033843994140625e+01 3.620939636230468750e+01 -6.566822994500398636e-03 7.009884834289550781e+00 2.100995302200317383e+00 -1.033917963504791260e-01
1.683000000000000000e+03 7.824394226074218750e+01 6.890185832977294922e+00 -8.123882114887237549e-02 8.597300529479980469e+00 2.554818391799926758e+00 1.777611821889877319e-01
1.684000000000000000e+03 7.707904052734375000e+01 6.857971668243408203e+00 -1.881829351186752319e-01 8.429980278015136719e+00 2.472539186477661133e+00 2.212149500846862793e-01
1.685000000000000000e+03 7.848841857910156250e+01 -1.497913599014282227e+00 8.784056641161441803e-03 6.514634609222412109e+00 1.957025647163391113e+00 7.926104068756103516e-01
1.686000000000000000e+03 7.752153015136718750e+01 -1.563819766044616699e+00 3.551055490970611572e-02 7.147667407989501953e+00 2.154953241348266602e+00 1.109998464584350586e+00
1.687000000000000000e+03 7.728867340087890625e+01 -8.534626007080078125e+00 4.480636417865753174e-01 6.708468914031982422e+00 2.146959781646728516e+00 -7.660638093948364258e-01
1.688000000000000000e+03 7.743581390380859375e+01 -1.527684593200683594e+01 -2.018442600965499878e-01 8.114927291870117188e+00 2.373924970626831055e+00 -7.933025956153869629e-01
1.689000000000000000e+03 7.539356994628906250e+01 3.164929580688476562e+01 3.835280984640121460e-02 6.776872158050537109e+00 2.044567346572875977e+00 -1.709785461425781250e-01
1.690000000000000000e+03 7.662247467041015625e+01 1.937024688720703125e+01 2.085428452119231224e-03 7.670445919036865234e+00 2.301759481430053711e+00 -2.667092382907867432e-01
1.691000000000000000e+03 7.693032073974609375e+01 1.100000953674316406e+01 -9.083858132362365723e-02 8.301453590393066406e+00 2.463184595108032227e+00 -1.041502282023429871e-01
1.692000000000000000e+03 7.735490417480468750e+01 -7.059320449829101562e+00 6.059022545814514160e-01 6.442776203155517578e+00 2.114603519439697266e+00 -2.676515579223632812e-01
1.693000000000000000e+03 7.748722076416015625e+01 -1.396158599853515625e+01 -1.716635823249816895e-01 7.853137493133544922e+00 2.304442167282104492e+00 -9.509678483009338379e-01
1.694000000000000000e+03 7.741938781738281250e+01 -2.167178988456726074e-01 -1.037603691220283508e-01 7.571082592010498047e+00 2.240196704864501953e+00 1.102694988250732422e+00
1.695000000000000000e+03 7.830107116699218750e+01 2.682719945907592773e+00 -1.014467775821685791e-01 7.969589710235595703e+00 2.360442876815795898e+00 5.772453546524047852e-01
1.696000000000000000e+03 7.710452270507812500e+01 5.465438842773437500e+00 -2.288191914558410645e-01 8.402871131896972656e+00 2.452215433120727539e+00 3.857459127902984619e-01
1.697000000000000000e+03 7.842389678955078125e+01 -5.634322643280029297e+00 2.398153096437454224e-01 5.394238948822021484e+00 1.690216302871704102e+00 2.051126509904861450e-01
1.698000000000000000e+03 7.742035675048828125e+01 -4.247229099273681641e+00 4.337697327136993408e-01 6.570747852325439453e+00 2.101355314254760742e+00 7.331082224845886230e-01
1.699000000000000000e+03 7.750972747802734375e+01 -1.135566520690917969e+01 2.024844288825988770e-03 7.210770130157470703e+00 2.163838386535644531e+00 -1.114591956138610840e+00
1.700000000000000000e+03 7.738701629638671875e+01 -9.999001502990722656e+00 2.330187559127807617e-01 6.955212593078613281e+00 2.156469345092773438e+00 -1.061616897583007812e+00
1.701000000000000000e+03 7.634803771972656250e+01 -1.653940582275390625e+01 -3.672452867031097412e-01 8.429458618164062500e+00 2.418663978576660156e+00 -6.970165371894836426e-01
1.702000000000000000e+03 7.729959106445312500e+01 -1.931821441650390625e+01 -1.696236878633499146e-01 8.512971878051757812e+00 2.503004550933837891e+00 -2.797113060951232910e-01
1.703000000000000000e+03 7.476497173309326172e+00 1.324394226074218750e+01 -3.044370096176862717e-03 9.935884736478328705e-03 2.067454392090439796e-03 5.378472618758678436e-03
1.704000000000000000e+03 1.140676116943359375e+01 8.102133750915527344e+00 -1.622323907213285565e-04 -1.313162152655422688e-03 -4.426183586474508047e-04 -8.642044849693775177e-04
1.705000000000000000e+03 1.295382881164550781e+01 7.348459243774414062e+00 -6.455439724959433079e-04 -6.838752306066453457e-04 -3.988257667515426874e-04 -6.759892567060887814e-04
1.706000000000000000e+03 1.919829559326171875e+01 1.449471950531005859e+01 -6.459047794342041016e-01 -1.089827537536621094e+00 -5.207197070121765137e-01 6.553486585617065430e-01
1.707000000000000000e+03 4.855865478515625000e+00 3.644840621948242188e+01 6.574927270412445068e-02 -7.165529131889343262e-01 -1.952410936355590820e-01 1.292785704135894775e-01
1.708000000000000000e+03 2.028338193893432617e+00 2.756754684448242188e+01 -1.816446427255868912e-03 -3.479298651218414307e-01 -1.049238964915275574e-01 1.376991271972656250e-01
1.709000000000000000e+03 3.507903099060058594e+00 3.032484245300292969e+01 1.698651723563671112e-02 -5.262353420257568359e-01 -1.527746468782424927e-01 2.032322883605957031e-01
1.710000000000000000e+03 2.009495496749877930e+00 2.614091873168945312e+01 -5.995484534651041031e-03 -2.665640115737915039e-01 -8.176784962415695190e-02 1.313995420932769775e-01
1.711000000000000000e+03 3.373733043670654297e+00 2.751329421997070312e+01 -4.230550024658441544e-03 -3.909060359001159668e-01 -1.185409724712371826e-01 2.145292758941650391e-01
1.712000000000000000e+03 6.246387004852294922e+00 3.027176666259765625e+01 6.365535408258438110e-02 -5.900277495384216309e-01 -1.579117178916931152e-01 2.963667809963226318e-01
1.713000000000000000e+03 3.653334379196166992e+00 3.174166107177734375e+01 3.003836795687675476e-02 -5.838767886161804199e-01 -1.661515235900878906e-01 1.923267990350723267e-01
1.714000000000000000e+03 3.424999713897705078e+00 2.892181587219238281e+01 1.107924245297908783e-02 -4.625213146209716797e-01 -1.354326158761978149e-01 2.094400376081466675e-01
1.715000000000000000e+03 6.074727058410644531e+00 3.831417083740234375e+01 9.775758534669876099e-02 -7.250781655311584473e-01 -1.881961822509765625e-01 1.082755774259567261e-01
1.716000000000000000e+03 3.908335208892822266e+00 3.467670059204101562e+01 5.794950947165489197e-02 -6.918493509292602539e-01 -1.901699602603912354e-01 1.529814004898071289e-01
1.717000000000000000e+03 3.938107252120971680e+00 3.320341491699218750e+01 4.228326678276062012e-02 -6.448999047279357910e-01 -1.807850003242492676e-01 1.831205934286117554e-01
1.718000000000000000e+03 3.444792985916137695e+00 -3.568090820312500000e+01 2.755650691688060760e-02 -4.445941448211669922e-01 -1.251112818717956543e-01 -6.335762888193130493e-02
1.719000000000000000e+03 3.944392919540405273e+00 -3.454860305786132812e+01 2.959876134991645813e-02 -4.072438478469848633e-01 -1.132935285568237305e-01 -8.960842341184616089e-02
1.720000000000000000e+03 3.721523523330688477e+00 -3.035916900634765625e+01 1.338078174740076065e-02 -3.274116814136505127e-01 -9.420926868915557861e-02 -1.200757101178169250e-01
1.721000000000000000e+03 2.158641338348388672e+00 -2.899291992187500000e+01 1.878765411674976349e-03 -2.869498729705810547e-01 -8.552133291959762573e-02 -8.211878687143325806e-02
1.722000000000000000e+03 4.905307769775390625e+00 -2.749111938476562500e+01 6.160175427794456482e-03 -2.655283212661743164e-01 -7.781044393777847290e-02 -1.601889878511428833e-01
1.723000000000000000e+03 3.339772939682006836e+00 2.313901710510253906e+01 -6.380489468574523926e-02 -1.638239175081253052e-01 -6.828864663839340210e-02 1.514529138803482056e-01
1.724000000000000000e+03 1.677500724792480469e+00 -1.332759857177734375e+01 8.091068593785166740e-04 1.573853776790201664e-03 7.148881559260189533e-04 3.427152521908283234e-03
1.725000000000000000e+03 1.794190406799316406e+00 2.044436645507812500e+01 -1.773190312087535858e-02 -9.307730011641979218e-03 -8.111890405416488647e-03 1.791331544518470764e-02
1.726000000000000000e+03 1.922007679939270020e+00 1.899390029907226562e+01 -1.234099362045526505e-02 -1.579196192324161530e-03 -4.176056943833827972e-03 3.722143010236322880e-04
1.727000000000000000e+03 5.575365543365478516e+00 1.824900436401367188e+01 -6.181149929761886597e-02 -4.819291830062866211e-02 -3.300132602453231812e-02 2.058943919837474823e-02
1.728000000000000000e+03 1.791102051734924316e+00 -1.890392112731933594e+01 -1.436042599380016327e-02 -4.486590623855590820e-03 -5.654104985296726227e-03 -5.830987356603145599e-03
1.729000000000000000e+03 3.595812082290649414e+00 -1.784408187866210938e+01 -2.437704801559448242e-02 -2.292598225176334381e-02 -1.419090852141380310e-02 1.004176097922027111e-03
1.730000000000000000e+03 5.446702003479003906e+00 1.355479145050048828e+01 7.518125232309103012e-03 -1.028077770024538040e-02 -8.287957170978188515e-04 3.287866478785872459e-03
1.731000000000000000e+03 1.788053750991821289e+00 -2.176715278625488281e+01 -1.083039864897727966e-02 -5.214497819542884827e-02 -1.889261230826377869e-02 -4.288635030388832092e-02
1.732000000000000000e+03 6.828331947326660156e+00 -1.978210449218750000e+01 -1.461107581853866577e-01 -6.490906327962875366e-02 -6.330595165491104126e-02 -1.340783387422561646e-01
1.733000000000000000e+03 3.801013231277465820e+00 5.103347778320312500e+00 -7.105155236786231399e-05 3.967375960201025009e-04 9.770580800250172615e-05 -1.343482872471213341e-04
1.734000000000000000e+03 3.129150629043579102e+00 7.774888038635253906e+00 8.325116359628736973e-04 -1.736891863401979208e-04 1.976467465283349156e-04 -4.202390846330672503e-04
1.735000000000000000e+03 4.535433769226074219e+00 1.466546154022216797e+01 1.317972224205732346e-02 -1.682507619261741638e-02 -1.093606348149478436e-03 7.397147710435092449e-04
1.736000000000000000e+03 1.882825374603271484e+00 1.748850250244140625e+01 -4.228257108479738235e-03 5.657772067934274673e-03 4.288544005248695612e-04 -1.199131272733211517e-02
1.737000000000000000e+03 3.534158468246459961e+00 1.996144485473632812e+01 -5.696715041995048523e-02 -5.808355659246444702e-02 -3.451521322131156921e-02 4.075444862246513367e-02
1.738000000000000000e+03 2.945011854171752930e+00 9.088170051574707031e+00 6.261502858251333237e-04 1.442063366994261742e-04 2.311069983989000320e-04 -4.031634889543056488e-04
1.739000000000000000e+03 4.918557167053222656e+00 -4.501983642578125000e+00 7.928148988867178559e-05 1.924803946167230606e-04 8.152856753440573812e-05 2.544826711528003216e-04
1.740000000000000000e+03 2.705753564834594727e+00 -4.550412654876708984e+00 -3.344925062265247107e-04 1.133593177655711770e-04 -6.633995508309453726e-05 -7.800063031027093530e-05
1.741000000000000000e+03 1.904488801956176758e+00 -4.154305934906005859e+00 3.362788411322981119e-04 -1.795034331735223532e-04 4.703261947724968195e-05 -1.429403928341343999e-04
1.742000000000000000e+03 2.774375677108764648e+00 -1.574673652648925781e+01 3.421878907829523087e-03 -6.985266692936420441e-03 -1.069016288965940475e-03 6.941164843738079071e-03
1.743000000000000000e+03 7.661961555480957031e+00 -9.287591934204101562e+00 -2.835974155459553003e-04 1.046121236868202686e-03 2.287571551278233528e-04 4.146876017330214381e-05
1.744000000000000000e+03 3.574255943298339844e+00 -2.892209243774414062e+01 1.041818782687187195e-02 -2.906376421451568604e-01 -8.406583964824676514e-02 -1.238089203834533691e-01
1.745000000000000000e+03 4.352910041809082031e+00 -3.775799179077148438e+01 2.932406030595302582e-02 -4.573662281036376953e-01 -1.284126490354537964e-01 -6.064936891198158264e-02
1.746000000000000000e+03 2.635678291320800781e+00 -7.854720115661621094e+00 5.287089734338223934e-04 8.512409112881869078e-05 1.841499179136008024e-04 3.196044708602130413e-04
1.747000000000000000e+03 2.690036058425903320e+00 -3.467142105102539062e+01 1.435804460197687149e-02 -4.390353858470916748e-01 -1.274031996726989746e-01 -5.923392623662948608e-02
1.748000000000000000e+03 5.373617172241210938e+00 -3.495610809326171875e+01 4.891429096460342407e-02 -4.042671620845794678e-01 -1.066058650612831116e-01 -1.027558073401451111e-01
1.749000000000000000e+03 4.009536266326904297e+00 -3.324924087524414062e+01 2.347659505903720856e-02 -3.893754184246063232e-01 -1.097696498036384583e-01 -9.998100996017456055e-02
1.750000000000000000e+03 2.756916761398315430e+00 -2.022168731689453125e+01 -2.961285039782524109e-02 -4.188224300742149353e-02 -2.144852839410305023e-02 -3.959758952260017395e-02
1.751000000000000000e+03 1.913683533668518066e+00 -2.321529197692871094e+01 -1.040967460721731186e-02 -9.465271234512329102e-02 -3.151871636509895325e-02 -6.206765398383140564e-02
1.752000000000000000e+03 3.449454307556152344e+00 -2.607621192932128906e+01 -3.741701133549213409e-03 -2.112761884927749634e-01 -6.450536847114562988e-02 -1.236797496676445007e-01
1.753000000000000000e+03 6.246986389160156250e+00 -2.467822456359863281e+01 -2.801081910729408264e-02 -2.261809706687927246e-01 -7.625754177570343018e-02 -1.958124935626983643e-01
1.754000000000000000e+03 2.743281841278076172e+00 -1.451091480255126953e+01 3.242113161832094193e-03 -4.687125328928232193e-03 -4.335036210250109434e-04 5.558450706303119659e-03
1.755000000000000000e+03 2.818029880523681641e+00 -1.327826690673828125e+01 3.986675757914781570e-03 -2.115396084263920784e-03 5.613839603029191494e-04 3.171904711052775383e-03
1.756000000000000000e+03 5.684171676635742188e+00 -9.575984954833984375e+00 7.518444908782839775e-04 -1.334775606665061787e-05 2.215490094386041164e-04 -3.726237628143280745e-05
1.757000000000000000e+03 2.929183006286621094e+00 1.037434864044189453e+01 2.009202260524034500e-03 -2.411330788163468242e-04 5.304208025336265564e-04 -1.800552592612802982e-03
1.758000000000000000e+03 3.283399343490600586e+00 1.304554080963134766e+01 7.114086300134658813e-03 -5.886099301278591156e-03 3.683961112983524799e-04 -4.669315647333860397e-03
1.759000000000000000e+03 6.856670856475830078e+00 1.668088150024414062e+01 7.901199162006378174e-03 -1.333554647862911224e-02 -1.630304264836013317e-03 2.150895074009895325e-02
1.760000000000000000e+03 5.628053188323974609e+00 1.675326538085937500e+01 -8.410973474383354187e-03 -3.347226977348327637e-02 -1.256497297435998917e-02 8.391872979700565338e-03
1.761000000000000000e+03 4.344055652618408203e+00 1.705770683288574219e+01 -9.383845143020153046e-03 -4.187344014644622803e-02 -1.537718530744314194e-02 -8.974733063951134682e-04
1.762000000000000000e+03 5.361755847930908203e+00 1.544670104980468750e+01 1.128577999770641327e-02 -2.806724980473518372e-02 -5.034440662711858749e-03 5.816322751343250275e-03
1.763000000000000000e+03 7.467609882354736328e+00 1.515251922607421875e+01 -5.809567519463598728e-04 2.115364558994770050e-02 6.171806715428829193e-03 1.784426532685756683e-02
1.764000000000000000e+03 3.975996255874633789e+00 -8.918548583984375000e+00 7.861353806219995022e-04 -3.295682472526095808e-05 2.259535685880109668e-04 4.116696945857256651e-04
1.765000000000000000e+03 9.419915199279785156e+00 -7.163271903991699219e+00 -1.453510049032047391e-04 3.503780753817409277e-04 6.150811532279476523e-05 -9.378726826980710030e-05
1.766000000000000000e+03 8.604400634765625000e+00 -8.193934440612792969e+00 3.113288257736712694e-04 -5.644089542329311371e-04 -7.592402835143730044e-05 6.231651059351861477e-05
1.767000000000000000e+03 1.193116474151611328e+01 7.095681190490722656e+00 4.606366273947060108e-04 7.833560812287032604e-04 3.731978067662566900e-04 7.275938405655324459e-04
1.768000000000000000e+03 2.167747306823730469e+01 4.581374168395996094e+00 -2.083435803651809692e-01 -5.666561126708984375e-01 -2.324998974800109863e-01 4.873118698596954346e-01
1.769000000000000000e+03 1.597884941101074219e+01 1.943080902099609375e+01 -4.421846270561218262e-01 -1.091514706611633301e+00 -4.601098001003265381e-01 5.385723114013671875e-01
1.770000000000000000e+03 2.256722831726074219e+01 1.718883514404296875e+00 -1.811783462762832642e-01 -3.418390452861785889e-01 -1.569052189588546753e-01 4.050166606903076172e-01
1.771000000000000000e+03 2.360369110107421875e+01 4.417389392852783203e+00 -2.953577935695648193e-01 -4.287559688091278076e-01 -2.172341346740722656e-01 5.893473625183105469e-01
1.772000000000000000e+03 1.887774658203125000e+01 1.802886390686035156e+01 -4.639720022678375244e-01 -9.739406108856201172e-01 -4.313738048076629639e-01 4.888458549976348877e-01
1.773000000000000000e+03 1.965152740478515625e+01 1.301686382293701172e+01 -6.094363927841186523e-01 -1.098839282989501953e+00 -5.124827027320861816e-01 6.930288076400756836e-01
1.774000000000000000e+03 1.674025917053222656e+01 -1.420962619781494141e+01 -3.343045711517333984e-01 -1.935782432556152344e-01 -1.583648473024368286e-01 -2.890747487545013428e-01
1.775000000000000000e+03 1.737760734558105469e+01 -1.311466312408447266e+01 -3.209423124790191650e-01 -1.527561247348785400e-01 -1.421095281839370728e-01 -2.794915437698364258e-01
1.776000000000000000e+03 1.539878940582275391e+01 -1.655472564697265625e+01 -3.349120616912841797e-01 -2.526012063026428223e-01 -1.762539893388748169e-01 -2.968889772891998291e-01
1.777000000000000000e+03 2.059968185424804688e+01 8.703236579895019531e+00 -3.826938867568969727e-01 -9.369509816169738770e-01 -3.958934545516967773e-01 6.282082200050354004e-01
1.778000000000000000e+03 2.132846450805664062e+01 1.203370475769042969e+01 -5.450023412704467773e-01 -8.309065699577331543e-01 -4.127726554870605469e-01 6.617287993431091309e-01
1.779000000000000000e+03 1.090818691253662109e+01 -1.964344787597656250e+01 -2.011053413152694702e-01 -3.441434800624847412e-01 -1.635746508836746216e-01 -2.489386647939682007e-01
1.780000000000000000e+03 1.384679603576660156e+01 -1.990812492370605469e+01 -2.066477090120315552e-01 -3.046822249889373779e-01 -1.533989757299423218e-01 -2.615711390972137451e-01
1.781000000000000000e+03 1.989925384521484375e+01 -2.259821891784667969e+00 -2.116379700601100922e-02 -8.618133515119552612e-02 -3.220354020595550537e-02 5.822606757283210754e-02
1.782000000000000000e+03 1.254035758972167969e+01 2.220113372802734375e+01 -2.103651165962219238e-01 -8.701840639114379883e-01 -3.241647481918334961e-01 5.707973241806030273e-01
1.783000000000000000e+03 1.146448993682861328e+01 2.121391487121582031e+01 -3.488987088203430176e-01 -7.490009069442749023e-01 -3.293698728084564209e-01 5.964682102203369141e-01
1.784000000000000000e+03 5.560317039489746094e+00 -1.184241867065429688e+01 1.288525760173797607e-03 -1.389437529724091291e-04 3.448745992500334978e-04 -1.495437347330152988e-03
1.785000000000000000e+03 4.883118629455566406e+00 4.040938568115234375e+01 5.293357372283935547e-02 -7.764979004859924316e-01 -2.170692980289459229e-01 5.358035489916801453e-02
1.786000000000000000e+03 6.576542663574218750e+01 -4.126224994659423828e+00 8.039488792419433594e-01 2.778568029403686523e+00 1.074755072593688965e+00 -3.404856681823730469e+00
1.787000000000000000e+03 6.655952453613281250e+01 -8.599420547485351562e+00 1.313470602035522461e+00 5.424377441406250000e+00 2.021354436874389648e+00 4.906908512115478516e+00
1.788000000000000000e+03 6.703300476074218750e+01 -8.392066001892089844e+00 1.475513339042663574e+00 7.589174747467041016e+00 2.719406366348266602e+00 5.823763847351074219e+00
1.789000000000000000e+03 6.742879486083984375e+01 -8.330824851989746094e+00 1.138661623001098633e+00 1.054570960998535156e+01 3.505311250686645508e+00 6.363854408264160156e+00
1.790000000000000000e+03 6.822899627685546875e+01 -4.085575103759765625e+00 -6.269263029098510742e-01 1.537629890441894531e+01 4.424811840057373047e+00 -4.105443000793457031e+00
1.791000000000000000e+03 6.842733764648437500e+01 -4.094689369201660156e+00 -7.162973880767822266e-01 1.625981140136718750e+01 4.663054466247558594e+00 -3.329148054122924805e+00
1.792000000000000000e+03 7.024879455566406250e+01 -6.781137466430664062e+00 7.721061229705810547e+00 1.474204730987548828e+01 6.738932609558105469e+00 -1.128080487251281738e+00
1.793000000000000000e+03 7.026261138916015625e+01 -6.513557434082031250e+00 8.164287567138671875e+00 1.465731525421142578e+01 6.846480846405029297e+00 -3.671649396419525146e-01
1.794000000000000000e+03 6.999635314941406250e+01 -4.772778034210205078e+00 2.992894172668457031e+00 1.629764175415039062e+01 5.787160873413085938e+00 2.120404958724975586e+00
1.795000000000000000e+03 6.934513854980468750e+01 -4.543703079223632812e+00 9.748330116271972656e-01 1.815299034118652344e+01 5.738347053527832031e+00 6.987081766128540039e-01
1.796000000000000000e+03 6.982800292968750000e+01 -6.503622055053710938e+00 9.560606002807617188e+00 1.604130935668945312e+01 7.680574893951416016e+00 -4.878395795822143555e-01
1.797000000000000000e+03 7.068238067626953125e+01 -6.188516616821289062e+00 6.801012992858886719e+00 1.343397808074951172e+01 6.070497035980224609e+00 5.058373212814331055e-01
1.798000000000000000e+03 7.045451354980468750e+01 -5.577647686004638672e+00 6.017726421356201172e+00 1.441874122619628906e+01 6.130940437316894531e+00 1.868018031120300293e+00
1.799000000000000000e+03 6.986985778808593750e+01 -8.347179412841796875e+00 1.751450657844543457e+00 1.639639282226562500e+01 5.444352626800537109e+00 -1.547288656234741211e+00
1.800000000000000000e+03 6.579260253906250000e+01 -8.036483764648437500e+00 7.577723860740661621e-01 1.828173398971557617e+00 7.757837176322937012e-01 2.731569290161132812e+00
1.801000000000000000e+03 6.498303222656250000e+01 -8.666672706604003906e+00 1.196065992116928101e-01 1.456022024154663086e+00 4.726885557174682617e-01 2.188831806182861328e+00
1.802000000000000000e+03 6.294638061523437500e+01 -9.510549545288085938e+00 -7.554710507392883301e-01 8.045043945312500000e-01 1.471000909805297852e-02 1.182445049285888672e+00
1.803000000000000000e+03 6.496731567382812500e+01 -3.940209627151489258e+00 1.652132421731948853e-01 1.669982671737670898e+00 5.505588054656982422e-01 -2.365483999252319336e+00
1.804000000000000000e+03 6.401821899414062500e+01 -9.041923522949218750e+00 -3.906642198562622070e-01 1.067543625831604004e+00 2.030638307332992554e-01 1.626730918884277344e+00
1.805000000000000000e+03 6.036604690551757812e+01 -9.288061141967773438e+00 -1.891092061996459961e+00 2.060732245445251465e-01 -5.055056810379028320e-01 2.277837246656417847e-01
1.806000000000000000e+03 6.186015701293945312e+01 -1.023747062683105469e+01 -7.749319076538085938e-01 7.793055772781372070e-01 1.312101609073579311e-03 9.814922809600830078e-01
1.807000000000000000e+03 2.242660522460937500e+01 3.479967355728149414e+00 -2.069897055625915527e-01 -4.542342126369476318e-01 -1.983671784400939941e-01 4.772474169731140137e-01
1.808000000000000000e+03 2.537794876098632812e+01 -3.493573904037475586e+00 -2.734505534172058105e-01 -5.833675339818000793e-02 -9.953618794679641724e-02 2.226751148700714111e-01
1.809000000000000000e+03 2.414291191101074219e+01 -2.713054180145263672e+00 -2.117274552583694458e-01 -9.558273851871490479e-02 -9.219305962324142456e-02 2.300855815410614014e-01
1.810000000000000000e+03 1.988275909423828125e+01 -1.337550878524780273e+00 -2.670506201684474945e-02 -1.348720490932464600e-01 -4.847313463687896729e-02 8.304703980684280396e-02
1.811000000000000000e+03 2.677911949157714844e+01 -3.559600591659545898e+00 -3.670896589756011963e-01 -4.244779422879219055e-02 -1.228612363338470459e-01 2.542658746242523193e-01
1.812000000000000000e+03 2.478984451293945312e+01 -2.783465623855590820e+00 -2.482402324676513672e-01 -8.637764304876327515e-02 -1.003853604197502136e-01 2.475222349166870117e-01
1.813000000000000000e+03 2.820306777954101562e+01 -3.573149681091308594e+00 -4.712214767932891846e-01 -2.754403278231620789e-02 -1.496296525001525879e-01 2.802490890026092529e-01
1.814000000000000000e+03 2.684026718139648438e+01 -2.894853591918945312e+00 -3.800704777240753174e-01 -5.671172589063644409e-02 -1.310346573591232300e-01 3.019149303436279297e-01
1.815000000000000000e+03 8.526310920715332031e+00 4.229107856750488281e+00 -1.061538059730082750e-04 5.769000854343175888e-04 1.412238780176267028e-04 4.975383635610342026e-04
1.816000000000000000e+03 2.754190444946289062e+01 -2.890030384063720703e+00 -4.293694794178009033e-01 -4.774999991059303284e-02 -1.431358456611633301e-01 3.180573582649230957e-01
1.817000000000000000e+03 2.964793777465820312e+01 -3.567058086395263672e+00 -5.840114951133728027e-01 -1.508362405002117157e-02 -1.797285228967666626e-01 3.006883263587951660e-01
1.818000000000000000e+03 9.601769447326660156e+00 -3.134897232055664062e+00 -1.279237858398118988e-05 2.494606305845081806e-04 7.100047514541074634e-05 2.205316704930737615e-04
1.819000000000000000e+03 8.966322898864746094e+00 -3.291217565536499023e+00 -8.717372838873416185e-05 -1.563362311571836472e-04 -7.305298640858381987e-05 -1.624653377803042531e-04
1.820000000000000000e+03 7.781562805175781250e+00 4.222614765167236328e+00 1.990472519537433982e-04 -4.204559372738003731e-04 -6.642260996159166098e-05 -4.986705025658011436e-04
1.821000000000000000e+03 7.613338470458984375e+00 5.087923526763916016e+00 -1.720200671115890145e-04 7.984650437720119953e-04 1.879334886325523257e-04 4.475708119571208954e-04
1.822000000000000000e+03 5.116348266601562500e+00 3.921202898025512695e+00 2.171324595110490918e-04 -2.120234858011826873e-04 1.532689793748431839e-06 -1.784767518984153867e-04
1.823000000000000000e+03 2.472606658935546875e+00 4.626434326171875000e+00 8.690851245773956180e-05 1.062196679413318634e-04 5.793845411972142756e-05 -2.015498175751417875e-04
1.824000000000000000e+03 3.890430688858032227e+00 3.332870006561279297e+00 -6.793421198381111026e-05 6.720005330862477422e-05 -2.202491060643296805e-07 3.506457433104515076e-04
1.825000000000000000e+03 4.474957466125488281e+00 5.767424106597900391e+00 4.390410613268613815e-04 -3.232884046155959368e-04 3.472579919616691768e-05 2.453618217259645462e-04
1.826000000000000000e+03 1.468789935111999512e+00 4.893860340118408203e+00 -1.577125658513978124e-04 -2.401397941866889596e-04 -1.193557109218090773e-04 3.926157078240066767e-04
1.827000000000000000e+03 1.705814599990844727e+00 3.321138381958007812e+00 1.722785673337057233e-04 -3.389920457266271114e-04 -5.001404861104674637e-05 1.338404981652274728e-04
1.828000000000000000e+03 3.111442756652832031e+01 -3.565539360046386719e+00 -7.053268551826477051e-01 -4.942507483065128326e-03 -2.130808085203170776e-01 3.153582513332366943e-01
1.829000000000000000e+03 3.043041229248046875e+01 -2.854338169097900391e+00 -6.414907574653625488e-01 -1.710025407373905182e-02 -1.975773125886917114e-01 3.661738932132720947e-01
1.830000000000000000e+03 2.553178787231445312e+01 -2.200715541839599609e+00 -3.021345436573028564e-01 -9.684876352548599243e-02 -1.196949928998947144e-01 3.114091753959655762e-01
1.831000000000000000e+03 2.291762351989746094e+01 -2.459705114364624023e+00 -1.435035765171051025e-01 -1.204176470637321472e-01 -7.917636632919311523e-02 1.924607902765274048e-01
1.832000000000000000e+03 2.901142692565917969e+01 -1.395338535308837891e+00 -5.243991017341613770e-01 -5.804986134171485901e-02 -1.747346818447113037e-01 4.480400383472442627e-01
1.833000000000000000e+03 3.259850692749023438e+01 -3.558593750000000000e+00 -8.346739411354064941e-01 2.654620911926031113e-03 -2.496058046817779541e-01 3.255353569984436035e-01
1.834000000000000000e+03 2.973760795593261719e+01 -2.127098083496093750e+00 -5.826110839843750000e-01 -3.443654626607894897e-02 -1.851142942905426025e-01 4.105589687824249268e-01
1.835000000000000000e+03 7.475413322448730469e+00 -3.361519098281860352e+00 -8.242948388215154409e-05 -9.175280138151720166e-05 -5.225468339631333947e-05 -8.933606295613572001e-05
1.836000000000000000e+03 1.075882339477539062e+01 -5.261379241943359375e+00 -1.073179082595743239e-04 8.530862396582961082e-05 -6.602785106224473566e-06 -2.789144309645052999e-05
1.837000000000000000e+03 3.408688735961914062e+01 -3.534456014633178711e+00 -9.689748287200927734e-01 7.358507718890905380e-03 -2.884849011898040771e-01 3.327982127666473389e-01
1.838000000000000000e+03 3.265599060058593750e+01 -2.872570276260375977e+00 -8.189251422882080078e-01 -4.095801559742540121e-04 -2.458004206418991089e-01 3.845239579677581787e-01
1.839000000000000000e+03 6.240181350708007812e+01 -9.601214408874511719e+00 -9.459835290908813477e-01 6.429058909416198730e-01 -9.092329442501068115e-02 9.560799002647399902e-01
1.840000000000000000e+03 3.557531356811523438e+01 -3.489192247390747070e+00 -1.105379939079284668e+00 9.508492425084114075e-03 -3.287614285945892334e-01 3.388144671916961670e-01
1.841000000000000000e+03 3.191123580932617188e+01 -2.870189189910888672e+00 -7.585852742195129395e-01 -5.225103348493576050e-03 -2.291430979967117310e-01 3.795639574527740479e-01
1.842000000000000000e+03 4.507128143310546875e+01 -1.190365505218505859e+01 -1.363063573837280273e+00 -1.389981713145971298e-03 -4.093360602855682373e-01 -4.292361736297607422e-01
1.843000000000000000e+03 4.264471054077148438e+01 -1.051457214355468750e+01 -1.546490550041198730e+00 -1.508446317166090012e-02 -4.684725105762481689e-01 -3.699996769428253174e-01
1.844000000000000000e+03 4.711183166503906250e+01 -1.041742897033691406e+01 -1.790181636810302734e+00 4.150168970227241516e-03 -5.358094573020935059e-01 -3.642683923244476318e-01
1.845000000000000000e+03 4.803996276855468750e+01 -1.188736629486083984e+01 -1.432698488235473633e+00 2.555613219738006592e-02 -4.221427142620086670e-01 -3.954654335975646973e-01
1.846000000000000000e+03 4.275517272949218750e+01 -1.125326442718505859e+01 -1.410020589828491211e+00 -1.846235431730747223e-02 -4.285448789596557617e-01 -4.058479070663452148e-01
1.847000000000000000e+03 4.934237289428710938e+01 -1.039879512786865234e+01 -1.879464030265808105e+00 1.244213245809078217e-02 -5.601065754890441895e-01 -3.445763289928436279e-01
1.848000000000000000e+03 5.008604812622070312e+01 -1.038844490051269531e+01 -1.903680086135864258e+00 1.655215956270694733e-02 -5.661383867263793945e-01 -3.355107605457305908e-01
1.849000000000000000e+03 4.040035247802734375e+01 -1.058304595947265625e+01 -1.412189483642578125e+00 -2.003854699432849884e-02 -4.296683967113494873e-01 -3.647570908069610596e-01
1.850000000000000000e+03 5.103331756591796875e+01 -1.185201072692871094e+01 -1.447769641876220703e+00 5.880346894264221191e-02 -4.166898727416992188e-01 -3.213519454002380371e-01
1.851000000000000000e+03 3.419581985473632812e+01 -2.175869703292846680e+00 -9.124580621719360352e-01 3.409418743103742599e-03 -2.727145850658416748e-01 4.474106431007385254e-01
1.852000000000000000e+03 3.706812286376953125e+01 -3.436991214752197266e+00 -1.242913484573364258e+00 9.679041802883148193e-03 -3.699703216552734375e-01 3.433325588703155518e-01
1.853000000000000000e+03 3.562182235717773438e+01 -2.801722764968872070e+00 -1.064650297164916992e+00 9.531836956739425659e-03 -3.165355324745178223e-01 4.002303183078765869e-01
1.854000000000000000e+03 5.306064605712890625e+01 -1.032585239410400391e+01 -1.958012461662292480e+00 4.152315109968185425e-02 -5.749467611312866211e-01 -2.717204093933105469e-01
1.855000000000000000e+03 3.964751815795898438e+01 -1.060766410827636719e+01 -1.366050839424133301e+00 -2.105650119483470917e-02 -4.161321818828582764e-01 -3.622876107692718506e-01
1.856000000000000000e+03 4.423171234130859375e+01 -1.119510650634765625e+01 -1.484800934791564941e+00 -1.006862428039312363e-02 -4.484608769416809082e-01 -4.062104523181915283e-01
1.857000000000000000e+03 4.253730010986328125e+01 -9.792965888977050781e+00 -1.678103685379028320e+00 -1.315174810588359833e-02 -5.073766708374023438e-01 -3.278674483299255371e-01
1.858000000000000000e+03 4.551988601684570312e+01 -9.727233886718750000e+00 -1.877319097518920898e+00 -4.454978276044130325e-03 -5.645322203636169434e-01 -3.318935334682464600e-01
1.859000000000000000e+03 4.487422943115234375e+01 -1.045342063903808594e+01 -1.674250245094299316e+00 -6.915153004229068756e-03 -5.043495893478393555e-01 -3.721558749675750732e-01
1.860000000000000000e+03 4.850065994262695312e+01 -9.689494132995605469e+00 -2.056538105010986328e+00 3.764691995456814766e-03 -6.158319711685180664e-01 -3.221530318260192871e-01
1.861000000000000000e+03 4.785525131225585938e+01 -1.041312980651855469e+01 -1.821184873580932617e+00 6.258456967771053314e-03 -5.444779396057128906e-01 -3.589758574962615967e-01
1.862000000000000000e+03 5.604637908935546875e+01 -1.024232006072998047e+01 -1.897187471389770508e+00 9.803467988967895508e-02 -5.397458672523498535e-01 -1.305473595857620239e-01
1.863000000000000000e+03 3.954371261596679688e+01 -9.878374099731445312e+00 -1.473956465721130371e+00 -1.786840520799160004e-02 -4.475474655628204346e-01 -3.181150257587432861e-01
1.864000000000000000e+03 5.147846984863281250e+01 -9.653164863586425781e+00 -2.196006298065185547e+00 1.292845513671636581e-02 -6.549233198165893555e-01 -2.956883013248443604e-01
1.865000000000000000e+03 5.082814407348632812e+01 -1.037658977508544922e+01 -1.924030661582946777e+00 1.996353641152381897e-02 -5.712200999259948730e-01 -3.233863413333892822e-01
1.866000000000000000e+03 3.654029464721679688e+01 -9.964228630065917969e+00 -1.269765019416809082e+00 -2.386827394366264343e-02 -3.880899846553802490e-01 -3.042612373828887939e-01
1.867000000000000000e+03 3.814803314208984375e+01 -1.065019321441650391e+01 -1.275742053985595703e+00 -2.474917657673358917e-02 -3.901473879814147949e-01 -3.561476767063140869e-01
1.868000000000000000e+03 5.380607223510742188e+01 -1.030728054046630859e+01 -1.957761406898498535e+00 5.131296813488006592e-02 -5.719345211982727051e-01 -2.466086447238922119e-01
1.869000000000000000e+03 3.781616973876953125e+01 -3.411334991455078125e+00 -1.312204480171203613e+00 9.994931519031524658e-03 -3.906628489494323730e-01 3.449669182300567627e-01
1.870000000000000000e+03 3.566377258300781250e+01 -2.108754396438598633e+00 -1.020366668701171875e+00 7.993607781827449799e-03 -3.037119209766387939e-01 4.563567936420440674e-01
1.871000000000000000e+03 5.827647781372070312e+01 -1.010422420501708984e+01 -1.744554281234741211e+00 1.818545758724212646e-01 -4.688099324703216553e-01 6.682781875133514404e-02
1.872000000000000000e+03 5.679063415527343750e+01 -1.020695209503173828e+01 -1.857981324195861816e+00 1.188682988286018372e-01 -5.217339396476745605e-01 -7.725131511688232422e-02
1.873000000000000000e+03 5.753441619873046875e+01 -1.016104602813720703e+01 -1.807371377944946289e+00 1.479608416557312012e-01 -4.978231489658355713e-01 -1.149338576942682266e-02
1.874000000000000000e+03 3.578713226318359375e+01 -9.984153747558593750e+00 -1.220423817634582520e+00 -2.499049343168735504e-02 -3.736242949962615967e-01 -2.996622622013092041e-01
1.875000000000000000e+03 3.674409866333007812e+01 -1.143708896636962891e+01 -1.094138026237487793e+00 -3.343112766742706299e-02 -3.382707536220550537e-01 -3.896456062793731689e-01
1.876000000000000000e+03 5.973732757568359375e+01 -9.955494880676269531e+00 -1.569202780723571777e+00 2.732187807559967041e-01 -3.887951970100402832e-01 2.694877088069915771e-01
1.877000000000000000e+03 6.099633026123046875e+01 -3.401664495468139648e+00 -1.744909048080444336e+00 2.886345386505126953e-01 -4.368823468685150146e-01 -4.287306368350982666e-01
1.878000000000000000e+03 5.808879470825195312e+01 -2.594087839126586914e+00 -1.850075721740722656e+00 1.796112060546875000e-01 -5.011393427848815918e-01 -9.175869077444076538e-02
1.879000000000000000e+03 6.099832534790039062e+01 -2.801181554794311523e+00 -1.322817206382751465e+00 4.580291509628295898e-01 -2.594364285469055176e-01 -6.243346929550170898e-01
1.880000000000000000e+03 6.106533050537109375e+01 -9.222770690917968750e+00 -1.743409395217895508e+00 2.644625306129455566e-01 -4.436840415000915527e-01 3.598568439483642578e-01
1.881000000000000000e+03 5.811611557006835938e+01 -1.924517035484313965e+00 -1.494482755661010742e+00 2.758219540119171143e-01 -3.655982315540313721e-01 -1.989019215106964111e-01
1.882000000000000000e+03 5.433147811889648438e+01 -3.196509838104248047e+00 -2.419743537902832031e+00 3.188353404402732849e-02 -7.163580060005187988e-01 2.119786739349365234e-01
1.883000000000000000e+03 6.028222274780273438e+01 -2.747617959976196289e+00 -1.498194813728332520e+00 3.563824892044067383e-01 -3.425436913967132568e-01 -4.454061090946197510e-01
1.884000000000000000e+03 1.097574996948242188e+01 3.402781724929809570e+00 2.003763511311262846e-04 8.266480290330946445e-05 8.491234621033072472e-05 4.278358246665447950e-04
1.885000000000000000e+03 1.163588428497314453e+01 5.033251285552978516e+00 -2.591646625660359859e-04 -4.396340809762477875e-04 -2.096396201523020864e-04 -9.658827912062406540e-04
1.886000000000000000e+03 5.879994583129882812e+01 -3.287492752075195312e+00 -2.171853065490722656e+00 1.334688067436218262e-01 -6.115152835845947266e-01 -7.273241877555847168e-02
1.887000000000000000e+03 5.955719375610351562e+01 -2.692734718322753906e+00 -1.641431093215942383e+00 2.799031138420104980e-01 -4.084584116935729980e-01 -3.017178177833557129e-01
1.888000000000000000e+03 5.882481002807617188e+01 -2.640619277954101562e+00 -1.759695053100585938e+00 2.218128740787506104e-01 -4.613646566867828369e-01 -1.852633953094482422e-01
1.889000000000000000e+03 6.170603561401367188e+01 -2.847969770431518555e+00 -1.100182056427001953e+00 5.973698496818542480e-01 -1.508436501026153564e-01 -8.496227264404296875e-01
1.890000000000000000e+03 5.283711624145507812e+01 -3.203542470932006836e+00 -2.408081054687500000e+00 1.999121159315109253e-02 -7.164269685745239258e-01 2.530139982700347900e-01
1.891000000000000000e+03 5.435364532470703125e+01 -2.507837057113647461e+00 -2.102363348007202148e+00 5.670141428709030151e-02 -6.136986017227172852e-01 2.005713731050491333e-01
1.892000000000000000e+03 5.063977813720703125e+01 -2.532420158386230469e+00 -2.093794345855712891e+00 2.225096523761749268e-02 -6.214630007743835449e-01 3.210074603557586670e-01
1.893000000000000000e+03 4.006941604614257812e+01 -3.344564437866210938e+00 -1.519279122352600098e+00 7.397444453090429306e-03 -4.535644948482513428e-01 3.474290072917938232e-01
1.894000000000000000e+03 6.375022506713867188e+01 -3.503518342971801758e+00 -4.916348159313201904e-01 1.081770658493041992e+00 1.770407706499099731e-01 -1.610248565673828125e+00
1.895000000000000000e+03 6.169332885742187500e+01 -2.255514383316040039e+00 -7.880086898803710938e-01 8.332340121269226074e-01 1.356759853661060333e-02 -1.062295794486999512e+00
1.896000000000000000e+03 5.212382125854492188e+01 -2.527889728546142578e+00 -2.124359846115112305e+00 3.301114961504936218e-02 -6.274045705795288086e-01 2.824248671531677246e-01
1.897000000000000000e+03 5.734672927856445312e+01 -2.557107686996459961e+00 -1.928019523620605469e+00 1.433286666870117188e-01 -5.354072451591491699e-01 -1.075334288179874420e-02
1.898000000000000000e+03 5.659802627563476562e+01 -2.531111478805541992e+00 -1.988593578338623047e+00 1.171902641654014587e-01 -5.614209771156311035e-01 5.654117837548255920e-02
1.899000000000000000e+03 3.935747909545898438e+01 -2.663122653961181641e+00 -1.368613123893737793e+00 9.223449975252151489e-03 -4.078168869018554688e-01 4.098331630229949951e-01
1.900000000000000000e+03 3.860638809204101562e+01 -2.686122417449951172e+00 -1.308217525482177734e+00 1.041626371443271637e-02 -3.893404006958007812e-01 4.092307388782501221e-01
1.901000000000000000e+03 4.910285186767578125e+01 -3.214156150817871094e+00 -2.245661735534667969e+00 3.578388597816228867e-03 -6.726250648498535156e-01 3.127071857452392578e-01
1.902000000000000000e+03 4.685223770141601562e+01 -3.226624488830566406e+00 -2.093634128570556641e+00 3.149534808471798897e-03 -6.271454095840454102e-01 3.295242488384246826e-01
1.903000000000000000e+03 5.584680938720703125e+01 -2.514966487884521484e+00 -2.038778066635131836e+00 9.113770723342895508e-02 -5.842921137809753418e-01 1.141138225793838501e-01
1.904000000000000000e+03 4.840615844726562500e+01 -2.528142452239990234e+00 -1.998775005340576172e+00 1.013739220798015594e-02 -5.965912938117980957e-01 3.595025241374969482e-01
1.905000000000000000e+03 4.389532470703125000e+01 -2.559413194656372070e+00 -1.717810750007629395e+00 7.026640698313713074e-03 -5.132352113723754883e-01 3.994370698928833008e-01
1.906000000000000000e+03 4.238519668579101562e+01 -2.585529088973999023e+00 -1.606587886810302734e+00 8.179822936654090881e-03 -4.795224070549011230e-01 4.058330953121185303e-01
1.907000000000000000e+03 4.610038375854492188e+01 -3.234505414962768555e+00 -2.036542654037475586e+00 1.847243984229862690e-03 -6.104086041450500488e-01 3.343333601951599121e-01
1.908000000000000000e+03 4.615208435058593750e+01 -2.536799430847167969e+00 -1.870590329170227051e+00 8.080661296844482422e-03 -5.587528944015502930e-01 3.833680152893066406e-01
1.909000000000000000e+03 5.360838317871093750e+01 -2.513080596923828125e+00 -2.119151830673217773e+00 4.816828295588493347e-02 -6.212950944900512695e-01 2.319006770849227905e-01
1.910000000000000000e+03 5.286417007446289062e+01 -2.520666599273681641e+00 -2.126814842224121094e+00 3.697770833969116211e-02 -6.269511580467224121e-01 2.601841688156127930e-01
1.911000000000000000e+03 3.636489105224609375e+01 -2.770729780197143555e+00 -1.125355243682861328e+00 9.715168736875057220e-03 -3.346920311450958252e-01 4.036078751087188721e-01
1.912000000000000000e+03 3.664233779907226562e+01 -1.069381332397460938e+01 -1.184574604034423828e+00 -2.842871099710464478e-02 -3.639009892940521240e-01 -3.486774265766143799e-01
1.913000000000000000e+03 3.362891387939453125e+01 -1.076537895202636719e+01 -1.004559397697448730e+00 -3.358982130885124207e-02 -3.114447593688964844e-01 -3.298144042491912842e-01
1.914000000000000000e+03 3.438249969482421875e+01 -1.074942779541015625e+01 -1.048812150955200195e+00 -3.259571269154548645e-02 -3.244223594665527344e-01 -3.355373740196228027e-01
1.915000000000000000e+03 4.989523315429687500e+01 -2.531177043914794922e+00 -2.067018747329711914e+00 1.590423285961151123e-02 -6.153343319892883301e-01 3.359884023666381836e-01
1.916000000000000000e+03 4.162514495849609375e+01 -2.600232362747192383e+00 -1.547503352165222168e+00 9.192719124257564545e-03 -4.614931941032409668e-01 4.081100523471832275e-01
1.917000000000000000e+03 4.765637588500976562e+01 -2.529326438903808594e+00 -1.960156917572021484e+00 1.005436759442090988e-02 -5.850307345390319824e-01 3.682042658329010010e-01
1.918000000000000000e+03 4.690413665771484375e+01 -2.531941175460815430e+00 -1.915913701057434082e+00 7.795596029609441757e-03 -5.724354386329650879e-01 3.773132860660552979e-01
1.919000000000000000e+03 4.319375991821289062e+01 -1.848206281661987305e+00 -1.535157084465026855e+00 1.253504492342472076e-02 -4.567866027355194092e-01 4.536333978176116943e-01
1.920000000000000000e+03 4.464792251586914062e+01 -2.551785230636596680e+00 -1.771056175231933594e+00 7.556100375950336456e-03 -5.290500521659851074e-01 3.941746950149536133e-01
1.921000000000000000e+03 3.588858795166015625e+01 -1.071300125122070312e+01 -1.137962818145751953e+00 -3.046136908233165741e-02 -3.505272567272186279e-01 -3.448651432991027832e-01
1.922000000000000000e+03 2.979719543457031250e+01 -1.087284088134765625e+01 -7.807287573814392090e-01 -2.738236449658870697e-02 -2.424333393573760986e-01 -3.088458478450775146e-01
1.923000000000000000e+03 3.057430839538574219e+01 -1.084801864624023438e+01 -8.263692259788513184e-01 -2.956752851605415344e-02 -2.567810416221618652e-01 -3.128075897693634033e-01
1.924000000000000000e+03 3.200620651245117188e+01 -1.007322978973388672e+01 -9.714813828468322754e-01 -2.686030603945255280e-02 -2.995024919509887695e-01 -2.762799859046936035e-01
1.925000000000000000e+03 3.211114883422851562e+01 -1.080522060394287109e+01 -9.153609871864318848e-01 -3.272240981459617615e-02 -2.844250202178955078e-01 -3.210112154483795166e-01
1.926000000000000000e+03 1.078461265563964844e+01 4.986708164215087891e+00 1.024678931571543217e-04 5.896327784284949303e-04 2.076302043860778213e-04 7.745251059532165527e-04
1.927000000000000000e+03 2.745360183715820312e+01 -1.092294883728027344e+01 -6.528994441032409668e-01 -1.667963527143001556e-02 -2.008737176656723022e-01 -2.988393008708953857e-01
1.928000000000000000e+03 9.829648017883300781e+00 -4.791290760040283203e+00 1.165262947324663401e-04 -2.547662006691098213e-04 -4.147197250858880579e-05 2.687059895833954215e-05
1.929000000000000000e+03 4.657313346862792969e+00 -3.652114391326904297e+00 -6.631974247284233570e-05 -9.078870789380744100e-05 -4.713253292720764875e-05 -2.517278189770877361e-04
1.930000000000000000e+03 6.033495903015136719e+00 -5.035118103027343750e+00 -1.144343332271091640e-04 3.970277903135865927e-04 8.477803930873051286e-05 2.141049480997025967e-04
1.931000000000000000e+03 4.157622337341308594e+00 -4.656481266021728516e+00 -1.459218619856983423e-04 -3.796943201450631022e-05 -5.516738747246563435e-05 -3.042631142307072878e-04
1.932000000000000000e+03 6.569869995117187500e+00 -4.546300411224365234e+00 2.370390575379133224e-04 -2.439109375700354576e-04 -2.061566647171275690e-06 -2.789915924950037152e-05
1.933000000000000000e+03 8.234412193298339844e+00 -3.379702091217041016e+00 1.295900729019194841e-04 1.043394731823354959e-04 7.017886673565953970e-05 1.533916220068931580e-04
1.934000000000000000e+03 3.701508045196533203e+00 -7.725203037261962891e+00 5.571499514189781621e-06 -4.150663153268396854e-05 -1.078053992387140170e-05 -2.069606125587597489e-04
1.935000000000000000e+03 3.199679374694824219e+00 -3.996418476104736328e+00 -1.213435753015801311e-04 -4.083627936779521406e-05 -4.865395749220624566e-05 -3.079130256082862616e-04
1.936000000000000000e+03 3.438557624816894531e+00 -5.612456798553466797e+00 -2.052819036180153489e-04 -1.950085788848809898e-05 -6.743482663296163082e-05 -3.008166677318513393e-04
1.937000000000000000e+03 2.535835742950439453e+00 -5.519982814788818359e+00 3.567356034182012081e-04 5.766253252659225836e-06 1.087505588657222688e-04 1.477226614952087402e-04
1.938000000000000000e+03 3.134641838073730469e+01 -1.082679080963134766e+01 -8.704013824462890625e-01 -3.126893565058708191e-02 -2.705011069774627686e-01 -3.162938654422760010e-01
1.939000000000000000e+03 2.892233657836914062e+01 -1.013600444793701172e+01 -7.732464671134948730e-01 -1.985953561961650848e-02 -2.379318028688430786e-01 -2.609629333019256592e-01
1.940000000000000000e+03 2.354076766967773438e+01 -1.099424839019775391e+01 -4.626135826110839844e-01 -4.445292870514094830e-05 -1.387974172830581665e-01 -2.787251174449920654e-01
1.941000000000000000e+03 2.430960655212402344e+01 -1.096586990356445312e+01 -4.966036379337310791e-01 -1.432788092643022537e-03 -1.494109332561492920e-01 -2.831044793128967285e-01
1.942000000000000000e+03 2.579295158386230469e+01 -1.013574314117431641e+01 -5.841658115386962891e-01 -3.732790239155292511e-03 -1.763695776462554932e-01 -2.483772635459899902e-01
1.943000000000000000e+03 2.901943778991699219e+01 -1.089833068847656250e+01 -7.376973032951354980e-01 -2.427246049046516418e-02 -2.285909354686737061e-01 -3.058216869831085205e-01
1.944000000000000000e+03 1.173859882354736328e+01 4.184590339660644531e+00 3.910007944796234369e-04 6.298325752140954137e-05 1.361952163279056549e-04 6.036900449544191360e-04
1.945000000000000000e+03 2.823944664001464844e+01 -1.091550159454345703e+01 -6.939660906791687012e-01 -2.076376043260097504e-02 -2.144189625978469849e-01 -3.025684058666229248e-01
1.946000000000000000e+03 1.800941658020019531e+01 -1.211716270446777344e+01 -3.015406429767608643e-01 -1.162599995732307434e-01 -1.253401935100555420e-01 -2.643122375011444092e-01
1.947000000000000000e+03 2.666472434997558594e+01 -1.093041515350341797e+01 -6.112465262413024902e-01 -1.212743856012821198e-02 -1.870121806859970093e-01 -2.953137457370758057e-01
1.948000000000000000e+03 2.509001350402832031e+01 -1.095384502410888672e+01 -5.329360961914062500e-01 -4.065391607582569122e-03 -1.611004471778869629e-01 -2.882194221019744873e-01
1.949000000000000000e+03 2.164068603515625000e+01 -1.070070934295654297e+01 -3.859070241451263428e-01 -3.445961978286504745e-03 -1.168058961629867554e-01 -2.507172822952270508e-01
1.950000000000000000e+03 2.211822509765625000e+01 -1.126153278350830078e+01 -4.085036516189575195e-01 -6.606521550565958023e-03 -1.245330497622489929e-01 -2.779400646686553955e-01
1.951000000000000000e+03 6.239560699462890625e+01 -2.885791063308715820e+00 -8.422947525978088379e-01 7.948643565177917480e-01 -1.422911882400512695e-02 -1.135994315147399902e+00
1.952000000000000000e+03 1.864667320251464844e+01 -1.124669361114501953e+01 -2.826467752456665039e-01 -8.122749626636505127e-02 -1.091622859239578247e-01 -2.415201067924499512e-01
1.953000000000000000e+03 1.930942344665527344e+01 -1.048686313629150391e+01 -2.760517299175262451e-01 -4.703989997506141663e-02 -9.692748636007308960e-02 -2.170298695564270020e-01
1.954000000000000000e+03 1.007734966278076172e+01 1.011805725097656250e+01 2.574095269665122032e-04 -1.878598937764763832e-03 -4.863568174187093973e-04 -7.594034541398286819e-04
1.955000000000000000e+03 9.824529647827148438e+00 8.599870681762695312e+00 5.880041862837970257e-04 -1.614770269952714443e-03 -3.080298192799091339e-04 -3.505689091980457306e-04
1.956000000000000000e+03 3.053137540817260742e+00 1.168094253540039062e+01 3.515338059514760971e-03 -9.794411016628146172e-04 7.607691222801804543e-04 -2.398423850536346436e-03
1.957000000000000000e+03 6.663888454437255859e+00 1.826861763000488281e+01 -9.463661909103393555e-02 -2.847690507769584656e-02 -3.693405911326408386e-02 2.268315106630325317e-02
1.958000000000000000e+03 3.104768514633178711e+00 1.728976631164550781e+01 -8.344416506588459015e-03 -2.101664803922176361e-02 -8.808319456875324249e-03 -1.170385535806417465e-02
1.959000000000000000e+03 9.976575851440429688e+00 4.990570545196533203e+00 1.090036821551620960e-04 -5.210487870499491692e-04 -1.236135285580530763e-04 -9.014288662001490593e-04
1.960000000000000000e+03 4.240911483764648438e+00 1.136329555511474609e+01 3.948757890611886978e-03 -2.910912968218326569e-03 3.113535058218985796e-04 -1.297736656852066517e-03
1.961000000000000000e+03 7.592149257659912109e+00 -2.447707557678222656e+01 -2.623325958847999573e-02 -2.547131180763244629e-01 -8.428391814231872559e-02 -2.271278500556945801e-01
1.962000000000000000e+03 7.770669460296630859e+00 -2.271241569519042969e+01 -8.606580644845962524e-02 -2.109457552433013916e-01 -8.910346776247024536e-02 -2.321152240037918091e-01
1.963000000000000000e+03 2.857708692550659180e+00 -1.901080131530761719e+01 -2.747761458158493042e-02 -1.959338970482349396e-02 -1.412130147218704224e-02 -2.038557641208171844e-02
1.964000000000000000e+03 6.108558177947998047e+00 -1.853457260131835938e+01 -1.254500448703765869e-01 -2.303731814026832581e-02 -4.454620927572250366e-02 -4.697308316826820374e-02
1.965000000000000000e+03 9.856603622436523438e+00 -3.663070201873779297e+00 7.245894812513142824e-05 -2.492756466381251812e-04 -5.304501246428117156e-05 4.741171505884267390e-05
1.966000000000000000e+03 7.612198352813720703e+00 -2.100043487548828125e+01 -1.538876146078109741e-01 -1.376237720251083374e-01 -8.745341747999191284e-02 -2.086277902126312256e-01
1.967000000000000000e+03 2.202596664428710938e+01 7.826016426086425781e+00 -3.744857311248779297e-01 -6.991163492202758789e-01 -3.220806121826171875e-01 6.437720656394958496e-01
1.968000000000000000e+03 2.082773399353027344e+01 -1.246344968676567078e-01 -6.158960983157157898e-02 -2.408135980367660522e-01 -9.072095900774002075e-02 1.838331669569015503e-01
1.969000000000000000e+03 9.132193565368652344e+00 9.556209564208984375e+00 -4.297976265661418438e-04 2.636254299432039261e-03 6.619369960390031338e-04 3.799164551310241222e-04
1.970000000000000000e+03 1.255645751953125000e+01 5.062055110931396484e+00 4.948801361024379730e-04 8.928748138714581728e-05 1.752502867020666599e-04 6.053374381735920906e-04
1.971000000000000000e+03 2.109481048583984375e+01 9.826673269271850586e-01 -8.174946159124374390e-02 -3.282684981822967529e-01 -1.230053901672363281e-01 2.560937106609344482e-01
1.972000000000000000e+03 7.629736423492431641e+00 -6.153210163116455078e+00 -2.170931402361020446e-04 4.422968195285648108e-04 6.756110815331339836e-05 7.213465869426727295e-05
1.973000000000000000e+03 8.435090065002441406e+00 1.216276073455810547e+01 9.068048675544559956e-04 -4.874343576375395060e-04 1.258111442439258099e-04 -1.532952410343568772e-05
1.974000000000000000e+03 5.834043502807617188e+00 1.172946262359619141e+01 3.899876493960618973e-03 -3.631926840171217918e-03 8.038485975703224540e-05 2.143508754670619965e-03
1.975000000000000000e+03 1.354722023010253906e+01 2.125582885742187500e+01 -2.700493037700653076e-01 -9.490045905113220215e-01 -3.657161593437194824e-01 5.658626556396484375e-01
1.976000000000000000e+03 7.546455383300781250e+01 1.512183952331542969e+01 -4.653577134013175964e-02 7.683014869689941406e+00 2.290943622589111328e+00 -3.293684720993041992e-01
1.977000000000000000e+03 7.614316558837890625e+01 1.021240115165710449e+00 -3.637121617794036865e-01 8.367678642272949219e+00 2.401190042495727539e+00 1.139789819717407227e+00
1.978000000000000000e+03 7.698758697509765625e+01 9.614788055419921875e+00 -1.198382452130317688e-01 8.373071670532226562e+00 2.475969791412353516e+00 -2.092745900154113770e-02
1.979000000000000000e+03 7.570228576660156250e+01 1.095338439941406250e+01 -1.568202078342437744e-01 8.030527114868164062e+00 2.362112045288085938e+00 -1.747636944055557251e-01
1.980000000000000000e+03 7.666950225830078125e+01 1.797010231018066406e+01 -3.520275466144084930e-03 7.779056549072265625e+00 2.332660913467407227e+00 -2.644046843051910400e-01
1.981000000000000000e+03 7.524342346191406250e+01 1.933153724670410156e+01 9.410181082785129547e-03 7.345203399658203125e+00 2.206384181976318359e+00 -3.584737479686737061e-01
1.982000000000000000e+03 7.512128448486328125e+01 2.216687774658203125e+01 2.669840306043624878e-02 7.150852203369140625e+00 2.153265237808227539e+00 -3.394650518894195557e-01
1.983000000000000000e+03 7.517452239990234375e+01 2.074481010437011719e+01 1.887810789048671722e-02 7.244649410247802734e+00 2.179058313369750977e+00 -3.515121638774871826e-01
1.984000000000000000e+03 7.395243072509765625e+01 1.789007186889648438e+01 -2.821906702592968941e-03 7.125240325927734375e+00 2.136725425720214844e+00 -4.456034600734710693e-01
1.985000000000000000e+03 7.655570220947265625e+01 2.353118515014648438e+01 1.791258342564105988e-02 7.391463756561279297e+00 2.222812891006469727e+00 -2.442932575941085815e-01
1.986000000000000000e+03 7.506204223632812500e+01 -2.937408065795898438e+01 2.474520821124315262e-03 7.668674468994140625e+00 2.301344633102416992e+00 2.518749833106994629e-01
1.987000000000000000e+03 7.492995452880859375e+01 -2.306779098510742188e+01 -2.200022488832473755e-01 8.022002220153808594e+00 2.340600013732910156e+00 1.289176493883132935e-01
1.988000000000000000e+03 7.643801879882812500e+01 -6.897433757781982422e+00 9.481357336044311523e-01 7.149126052856445312e+00 2.429178476333618164e+00 -2.573697268962860107e-01
1.989000000000000000e+03 7.660954284667968750e+01 -2.843894243240356445e+00 3.148372471332550049e-01 7.494569778442382812e+00 2.342822074890136719e+00 1.227078318595886230e+00
1.990000000000000000e+03 7.629948425292968750e+01 -1.787689018249511719e+01 -3.434293866157531738e-01 8.452157974243164062e+00 2.432618618011474609e+00 -4.824562966823577881e-01
1.991000000000000000e+03 7.561834716796875000e+01 1.234101581573486328e+01 -1.135395094752311707e-01 7.914449214935302734e+00 2.340272903442382812e+00 -2.465628385543823242e-01
1.992000000000000000e+03 7.446984100341796875e+01 1.091694164276123047e+01 -2.276146858930587769e-01 7.769933700561523438e+00 2.262695550918579102e+00 -2.704123258590698242e-01
1.993000000000000000e+03 7.644078063964843750e+01 -1.033039951324462891e+01 2.712646722793579102e-01 7.716698646545410156e+00 2.396389007568359375e+00 -1.304620742797851562e+00
1.994000000000000000e+03 7.752449798583984375e+01 -1.266015625000000000e+01 -1.011712700128555298e-01 7.531863689422607422e+00 2.229207754135131836e+00 -1.066470146179199219e+00
1.995000000000000000e+03 7.640748596191406250e+01 -1.522262859344482422e+01 -3.644816875457763672e-01 8.370454788208007812e+00 2.401792049407958984e+00 -9.110196232795715332e-01
1.996000000000000000e+03 7.657494354248046875e+01 2.485544013977050781e+01 2.215362526476383209e-02 7.310410976409912109e+00 2.199769258499145508e+00 -2.318276166915893555e-01
1.997000000000000000e+03 7.369978332519531250e+01 2.518310546875000000e+01 6.676992028951644897e-02 6.689407825469970703e+00 2.026853322982788086e+00 -3.622467815876007080e-01
1.998000000000000000e+03 7.639668273925781250e+01 2.741636657714843750e+01 2.893820032477378845e-02 7.121990203857421875e+00 2.145278453826904297e+00 -2.100300043821334839e-01
1.999000000000000000e+03 7.514879608154296875e+01 2.710008430480957031e+01 5.072722211480140686e-02 6.909316539764404297e+00 2.088013172149658203e+00 -2.642774581909179688e-01
2.000000000000000000e+03 7.578737640380859375e+01 -2.468030738830566406e+01 -1.084292158484458923e-01 8.107083320617675781e+00 2.399596214294433594e+00 1.517454087734222412e-01
2.001000000000000000e+03 7.706896209716796875e+01 -2.344095802307128906e+01 -8.533480763435363770e-02 8.458872795104980469e+00 2.512061357498168945e+00 3.896696120500564575e-02
2.002000000000000000e+03 7.618714904785156250e+01 -2.056229591369628906e+01 -2.385409474372863770e-01 8.384276390075683594e+00 2.443720579147338867e+00 -1.491828262805938721e-01
2.003000000000000000e+03 7.555116271972656250e+01 -2.614078712463378906e+01 -6.505264341831207275e-02 7.974321842193603516e+00 2.372780799865722656e+00 2.028637230396270752e-01
2.004000000000000000e+03 7.715022277832031250e+01 2.609782934188842773e+00 -2.449900209903717041e-01 8.162836074829101562e+00 2.375353574752807617e+00 8.080488443374633789e-01
2.005000000000000000e+03 7.595975494384765625e+01 2.543596506118774414e+00 -4.558594822883605957e-01 8.469455718994140625e+00 2.404078722000122070e+00 8.904066681861877441e-01
2.006000000000000000e+03 7.585791778564453125e+01 8.212336540222167969e+00 -2.619882225990295410e-01 8.235160827636718750e+00 2.391951799392700195e+00 4.388193413615226746e-02
2.007000000000000000e+03 7.568152618408203125e+01 3.012344360351562500e+01 3.777354955673217773e-02 6.878205299377441406e+00 2.074793577194213867e+00 -1.887856721878051758e-01
2.008000000000000000e+03 7.391523742675781250e+01 2.961921119689941406e+01 6.699866056442260742e-02 6.556497573852539062e+00 1.987048864364624023e+00 -2.741537392139434814e-01
2.009000000000000000e+03 7.462211608886718750e+01 2.823877143859863281e+01 6.318193674087524414e-02 6.770620346069335938e+00 2.050140857696533203e+00 -2.725359499454498291e-01
2.010000000000000000e+03 7.573137664794921875e+01 -6.662551403045654297e+00 1.392285585403442383e+00 7.782543182373046875e+00 2.752448558807373047e+00 -1.051833555102348328e-01
2.011000000000000000e+03 7.645572662353515625e+01 -3.624790906906127930e-01 -1.631928235292434692e-01 8.070897102355957031e+00 2.372311353683471680e+00 1.305957078933715820e+00
2.012000000000000000e+03 7.660984802246093750e+01 -1.630282521247863770e+00 7.179391384124755859e-02 7.752903461456298828e+00 2.347409248352050781e+00 1.325711488723754883e+00
2.013000000000000000e+03 7.734516906738281250e+01 -1.796084594726562500e+01 -1.931982487440109253e-01 8.439574241638183594e+00 2.473912954330444336e+00 -4.366089105606079102e-01
2.014000000000000000e+03 7.624897766113281250e+01 -1.922042465209960938e+01 -2.923375070095062256e-01 8.425396919250488281e+00 2.439917802810668945e+00 -2.958663105964660645e-01
2.015000000000000000e+03 7.738834381103515625e+01 -1.661123466491699219e+01 -2.108875811100006104e-01 8.313144683837890625e+00 2.430677175521850586e+00 -6.091279983520507812e-01
2.016000000000000000e+03 7.648822021484375000e+01 -1.394024276733398438e+01 -3.037416338920593262e-01 8.245615959167480469e+00 2.382562398910522461e+00 -1.117384195327758789e+00
2.017000000000000000e+03 7.606388854980468750e+01 -3.681120300292968750e+01 -1.366996672004461288e-02 7.753095149993896484e+00 2.321827411651611328e+00 1.109659671783447266e-01
2.018000000000000000e+03 7.657935333251953125e+01 -1.149363231658935547e+01 -1.179267745465040207e-02 7.835797786712646484e+00 2.347201585769653320e+00 -1.321891665458679199e+00
2.019000000000000000e+03 7.656346893310546875e+01 -1.269608020782470703e+01 -1.805654019117355347e-01 8.051011085510253906e+00 2.361133575439453125e+00 -1.260977268218994141e+00
2.020000000000000000e+03 7.594527435302734375e+01 -9.530405998229980469e+00 4.965900480747222900e-01 7.921303272247314453e+00 2.525367975234985352e+00 -1.256526708602905273e+00
2.021000000000000000e+03 7.595888519287109375e+01 5.473059177398681641e+00 -3.826931118965148926e-01 8.382141113281250000e+00 2.399834632873535156e+00 3.827493786811828613e-01
2.022000000000000000e+03 7.591817474365234375e+01 6.849164485931396484e+00 -3.227775692939758301e-01 8.318654060363769531e+00 2.398762702941894531e+00 1.969767957925796509e-01
2.023000000000000000e+03 7.483162689208984375e+01 4.157797813415527344e+00 -6.219375133514404297e-01 8.529537200927734375e+00 2.372279882431030273e+00 5.080671310424804688e-01
2.024000000000000000e+03 7.528785705566406250e+01 -2.768604850769042969e+01 -3.811097145080566406e-02 7.810320854187011719e+00 2.331662893295288086e+00 2.467918694019317627e-01
2.025000000000000000e+03 7.589805603027343750e+01 -3.245337677001953125e+01 2.786979638040065765e-02 7.735723972320556641e+00 2.329078197479248047e+00 1.858957707881927490e-01
2.026000000000000000e+03 7.694074249267578125e+01 -3.204265594482421875e+01 -1.652746112085878849e-03 8.047535896301269531e+00 2.413764953613281250e+00 1.700450330972671509e-01
2.027000000000000000e+03 3.120698451995849609e+00 1.589250755310058594e+01 5.104937590658664703e-03 -1.731667853891849518e-02 -3.663521958515048027e-03 -1.210556272417306900e-02
2.028000000000000000e+03 3.709851503372192383e+00 -1.383443260192871094e+01 5.041060503572225571e-03 -7.997712120413780212e-03 -8.869952871464192867e-04 2.291748067364096642e-03
2.029000000000000000e+03 5.482407569885253906e+00 1.962604713439941406e+01 -1.356981992721557617e-01 -6.159248575568199158e-02 -5.918720737099647522e-02 6.196383014321327209e-02
2.030000000000000000e+03 3.186313152313232422e+00 1.873116302490234375e+01 -2.913843654096126556e-02 -3.861000016331672668e-02 -2.032453194260597229e-02 1.031676679849624634e-02
2.031000000000000000e+03 5.291045665740966797e+00 2.097601890563964844e+01 -1.583558917045593262e-01 -1.028240770101547241e-01 -7.835398614406585693e-02 1.428323388099670410e-01
2.032000000000000000e+03 4.545462608337402344e+00 -1.674585342407226562e+01 -4.027406685054302216e-03 -2.034240588545799255e-02 -7.310943678021430969e-03 -1.582320081070065498e-03
2.033000000000000000e+03 3.285495996475219727e+00 1.447240066528320312e+01 8.526426739990711212e-03 -1.040766201913356781e-02 -5.643703625537455082e-04 -8.040182292461395264e-03
2.034000000000000000e+03 4.404806613922119141e+00 1.839356613159179688e+01 -5.001331493258476257e-02 -4.907141625881195068e-02 -2.972541935741901398e-02 1.355144195258617401e-02
2.035000000000000000e+03 4.647140026092529297e+00 2.462055397033691406e+01 -6.156658381223678589e-02 -2.872120440006256104e-01 -1.046335920691490173e-01 2.454996407032012939e-01
2.036000000000000000e+03 4.873532295227050781e+00 3.025250816345214844e+01 3.860026225447654724e-02 -5.531837344169616699e-01 -1.543750315904617310e-01 2.527853548526763916e-01
2.037000000000000000e+03 7.065367221832275391e+00 -2.321003723144531250e+01 -6.780137866735458374e-02 -2.018326818943023682e-01 -8.089021593332290649e-02 -2.103708684444427490e-01
2.038000000000000000e+03 4.640205860137939453e+00 -1.285706424713134766e+01 4.214805550873279572e-03 -3.830953501164913177e-03 1.151555916294455528e-04 -2.248661592602729797e-03
2.039000000000000000e+03 2.794379234313964844e+00 -9.131866455078125000e+00 8.216798596549779177e-05 -5.043247256253380328e-06 2.313742152182385325e-05 1.404714566888287663e-05
2.040000000000000000e+03 2.948227643966674805e+00 -1.046049976348876953e+01 1.643644878640770912e-03 -4.984227707609534264e-04 3.435666149016469717e-04 9.169097756966948509e-04
2.041000000000000000e+03 5.150851249694824219e+00 -1.950076866149902344e+01 -8.305545896291732788e-02 -4.871288686990737915e-02 -3.953050449490547180e-02 -7.490206509828567505e-02
2.042000000000000000e+03 3.172940731048583984e+00 -2.300997734069824219e+01 -2.271237783133983612e-02 -1.167850494384765625e-01 -4.184922948479652405e-02 -9.394409507513046265e-02
2.043000000000000000e+03 4.820194244384765625e+00 -2.113079833984375000e+01 -6.980411708354949951e-02 -9.536267071962356567e-02 -4.955003783106803894e-02 -1.114061325788497925e-01
2.044000000000000000e+03 5.702611446380615234e+00 2.301441383361816406e+01 -1.472611874341964722e-01 -2.486658394336700439e-01 -1.187781095504760742e-01 2.788381576538085938e-01
2.045000000000000000e+03 4.723293781280517578e+00 2.747530937194824219e+01 8.121355785988271236e-04 -4.392954111099243164e-01 -1.315449774265289307e-01 2.768593132495880127e-01
2.046000000000000000e+03 3.394369840621948242e+00 -2.455333137512207031e+01 -1.780740544199943542e-02 -1.634378135204315186e-01 -5.437356606125831604e-02 -1.170758679509162903e-01
2.047000000000000000e+03 5.076477527618408203e+00 -2.217825126647949219e+01 -6.499267369508743286e-02 -1.211901605129241943e-01 -5.585484951734542847e-02 -1.370795965194702148e-01
2.048000000000000000e+03 6.096085548400878906e+00 -2.332540702819824219e+01 -4.661000892519950867e-02 -1.914145052433013916e-01 -7.140735536813735962e-02 -1.874864250421524048e-01
2.049000000000000000e+03 3.900879621505737305e+00 -3.181203079223632812e+01 2.397926338016986847e-02 -3.625774085521697998e-01 -1.015794500708580017e-01 -1.113342121243476868e-01
2.050000000000000000e+03 4.947449207305908203e+00 -2.885084152221679688e+01 1.220022421330213547e-02 -2.955561280250549316e-01 -8.500677347183227539e-02 -1.581762880086898804e-01
2.051000000000000000e+03 5.117559432983398438e+00 1.005365371704101562e+01 2.457260852679610252e-03 -1.634537242352962494e-03 2.468171005602926016e-04 5.231717659626156092e-05
2.052000000000000000e+03 5.460427284240722656e+00 3.277341079711914062e+01 6.427296251058578491e-02 -6.323495507240295410e-01 -1.704229712486267090e-01 2.303435206413269043e-01
2.053000000000000000e+03 6.270098209381103516e+00 3.649525833129882812e+01 1.005607396364212036e-01 -7.117881774902343750e-01 -1.833682358264923096e-01 1.557159125804901123e-01
2.054000000000000000e+03 3.014243841171264648e+00 -1.188558959960937500e+01 1.730886404402554035e-03 -1.146193477325141430e-03 1.754078839439898729e-04 1.530349138192832470e-03
2.055000000000000000e+03 6.008046150207519531e+00 1.024857330322265625e+01 2.013824880123138428e-03 -7.872505229897797108e-04 3.679722722154110670e-04 8.048845338635146618e-04
2.056000000000000000e+03 3.521310567855834961e+00 -6.617729663848876953e+00 3.356490051373839378e-04 1.341768074780702591e-04 1.409477408742532134e-04 2.937903336714953184e-04
2.057000000000000000e+03 7.079755783081054688e+00 -3.136599731445312500e+01 5.007714778184890747e-02 -3.481035232543945312e-01 -8.940791338682174683e-02 -1.689381450414657593e-01
2.058000000000000000e+03 5.152398586273193359e+00 -3.023994255065917969e+01 2.765632979571819305e-02 -3.284768462181091309e-01 -9.024614840745925903e-02 -1.519973725080490112e-01
2.059000000000000000e+03 5.500390529632568359e+00 -3.172254371643066406e+01 3.553885221481323242e-02 -3.540066778659820557e-01 -9.554035216569900513e-02 -1.443521380424499512e-01
2.060000000000000000e+03 4.783291339874267578e+00 2.887556457519531250e+01 2.040313184261322021e-02 -5.002598762512207031e-01 -1.439570188522338867e-01 2.713614702224731445e-01
2.061000000000000000e+03 6.851346969604492188e+00 3.394813537597656250e+01 1.127735450863838196e-01 -6.760843396186828613e-01 -1.689932346343994141e-01 2.379067093133926392e-01
2.062000000000000000e+03 4.972833633422851562e+00 3.156299209594726562e+01 4.396687820553779602e-02 -5.955022573471069336e-01 -1.654606014490127563e-01 2.380738705396652222e-01
2.063000000000000000e+03 4.249431610107421875e+00 8.080635070800781250e+00 5.771561409346759319e-04 2.196272689616307616e-04 2.390350273344665766e-04 2.451885848131496459e-06
2.064000000000000000e+03 2.894970655441284180e+00 5.770954132080078125e+00 2.032965858234092593e-04 -2.622022293508052826e-04 -1.767168942023999989e-05 3.440213622525334358e-04
2.065000000000000000e+03 6.281343460083007812e+00 -3.616537857055664062e+01 5.574423074722290039e-02 -4.096699953079223633e-01 -1.061777323484420776e-01 -9.693764895200729370e-02
2.066000000000000000e+03 7.762779712677001953e+00 -7.622866153717041016e+00 -1.872908032964915037e-04 6.186109385453164577e-04 1.293960376642644405e-04 1.450599665986374021e-04
2.067000000000000000e+03 1.470402431488037109e+01 -1.771465873718261719e+01 -3.170658349990844727e-01 -2.723852097988128662e-01 -1.768353134393692017e-01 -2.736300528049468994e-01
2.068000000000000000e+03 1.716421318054199219e+01 -1.608316421508789062e+01 -3.341133296489715576e-01 -1.795921176671981812e-01 -1.541116386651992798e-01 -2.978450357913970947e-01
2.069000000000000000e+03 5.130926132202148438e+00 -8.488214492797851562e+00 3.822811413556337357e-04 -2.326666435692459345e-04 4.488434569793753326e-05 -3.162106440868228674e-04
2.070000000000000000e+03 2.110839843750000000e+01 -1.123518753051757812e+01 -3.728515207767486572e-01 -1.826416701078414917e-02 -1.173347085714340210e-01 -2.708165049552917480e-01
2.071000000000000000e+03 6.506573677062988281e+00 1.971229362487792969e+01 -1.917606890201568604e-01 -4.967921599745750427e-02 -7.243197411298751831e-02 8.797089010477066040e-02
2.072000000000000000e+03 4.480329513549804688e+00 1.959794425964355469e+01 -8.399026095867156982e-02 -6.441826373338699341e-02 -4.452255740761756897e-02 4.963359609246253967e-02
2.073000000000000000e+03 1.118657207489013672e+01 -2.128573226928710938e+01 -1.299338042736053467e-01 -3.187627196311950684e-01 -1.346089541912078857e-01 -2.667637765407562256e-01
2.074000000000000000e+03 2.154530143737792969e+01 1.055687236785888672e+01 -4.968525767326354980e-01 -8.089222311973571777e-01 -3.917324542999267578e-01 6.701708436012268066e-01
2.075000000000000000e+03 7.224742412567138672e+00 -1.236369323730468750e+01 -3.456350896158255637e-05 5.191294476389884949e-04 1.453697914257645607e-04 8.771767606958746910e-04
2.076000000000000000e+03 6.556300640106201172e+00 -1.053113937377929688e+01 7.804090273566544056e-04 -3.964212955906987190e-04 1.151963151642121375e-04 -1.174498116597533226e-03
2.077000000000000000e+03 8.365806579589843750e+00 2.161437225341796875e+01 -3.043332993984222412e-01 -3.251605331897735596e-01 -1.888481527566909790e-01 4.428210258483886719e-01
2.078000000000000000e+03 2.289194107055664062e+01 5.404057979583740234e+00 -2.961090207099914551e-01 -5.195214748382568359e-01 -2.446891516447067261e-01 5.993411540985107422e-01
2.079000000000000000e+03 2.238052940368652344e+01 6.559750556945800781e+00 -3.245564103126525879e-01 -6.110337376594543457e-01 -2.806770503520965576e-01 6.192194223403930664e-01
2.080000000000000000e+03 1.826566123962402344e+01 -1.381383228302001953e+01 -3.461765944957733154e-01 -1.183914989233016968e-01 -1.393704265356063843e-01 -2.962143421173095703e-01
2.081000000000000000e+03 4.311683177947998047e+00 -1.022004318237304688e+01 9.279949008487164974e-04 -5.307663232088088989e-04 1.191685587400570512e-04 -3.291529719717800617e-04
2.082000000000000000e+03 1.658078956604003906e+01 -1.732673263549804688e+01 -3.082313835620880127e-01 -2.070739567279815674e-01 -1.545916050672531128e-01 -2.878961265087127686e-01
2.083000000000000000e+03 7.520001983642578125e+01 4.001308441162109375e+01 5.564146861433982849e-02 6.656020641326904297e+00 2.013498544692993164e+00 -8.630679920315742493e-03
2.084000000000000000e+03 1.936787223815917969e+01 -1.196093368530273438e+01 -3.339579403400421143e-01 -6.076323986053466797e-02 -1.184163540601730347e-01 -2.716216146945953369e-01
2.085000000000000000e+03 1.805979537963867188e+01 2.029997825622558594e+01 -2.411084622144699097e-01 -9.525176286697387695e-01 -3.580878376960754395e-01 4.208115637302398682e-01
2.086000000000000000e+03 1.733487129211425781e+01 1.852565956115722656e+01 -4.808178842067718506e-01 -1.062717437744140625e+00 -4.630606174468994141e-01 5.197477340698242188e-01
2.087000000000000000e+03 2.023088264465332031e+01 1.632911872863769531e+01 -5.102245211601257324e-01 -8.765499591827392578e-01 -4.160323441028594971e-01 5.142281055450439453e-01
2.088000000000000000e+03 1.472515678405761719e+01 2.034595108032226562e+01 -3.591001033782958984e-01 -1.041045546531677246e+00 -4.200436770915985107e-01 5.494197607040405273e-01
2.089000000000000000e+03 1.405239295959472656e+01 -1.876916503906250000e+01 -2.653081715106964111e-01 -2.930603623390197754e-01 -1.675105690956115723e-01 -2.623056769371032715e-01
2.090000000000000000e+03 1.506501770019531250e+01 -1.965894508361816406e+01 -2.201296091079711914e-01 -2.719205319881439209e-01 -1.476150304079055786e-01 -2.677989900112152100e-01
2.091000000000000000e+03 2.439145088195800781e+01 7.564476966857910156e+00 -4.087676703929901123e-01 -4.517807364463806152e-01 -2.581645250320434570e-01 6.958903074264526367e-01
2.092000000000000000e+03 6.681694793701171875e+01 -4.360260486602783203e+00 1.409322261810302734e+00 6.494985580444335938e+00 2.371292352676391602e+00 -5.429463386535644531e+00
2.093000000000000000e+03 6.733297729492187500e+01 -4.403250694274902344e+00 1.043374538421630859e+00 9.890247344970703125e+00 3.280086755752563477e+00 -6.228767395019531250e+00
2.094000000000000000e+03 6.666881561279296875e+01 -4.449254989624023438e+00 1.580882787704467773e+00 5.297813892364501953e+00 2.063608884811401367e+00 -5.090558528900146484e+00
2.095000000000000000e+03 6.710012054443359375e+01 -8.695449829101562500e+00 9.225910902023315430e-01 8.368842124938964844e+00 2.787430047988891602e+00 5.630142688751220703e+00
2.096000000000000000e+03 6.762143707275390625e+01 -8.573204994201660156e+00 4.033002257347106934e-01 1.183322429656982422e+01 3.670957326889038086e+00 5.747626304626464844e+00
2.097000000000000000e+03 6.596148681640625000e+01 -9.066587448120117188e+00 8.802648186683654785e-01 3.998205900192260742e+00 1.463541269302368164e+00 3.954328060150146484e+00
2.098000000000000000e+03 6.800778961181640625e+01 -3.991564035415649414e+00 -4.317062795162200928e-01 1.386121559143066406e+01 4.028852939605712891e+00 -4.681179046630859375e+00
2.099000000000000000e+03 7.009660339355468750e+01 -7.205670356750488281e+00 6.542643547058105469e+00 1.567187786102294922e+01 6.664356231689453125e+00 -2.179924964904785156e+00
2.100000000000000000e+03 7.073230743408203125e+01 -6.532887458801269531e+00 6.718282699584960938e+00 1.328640174865722656e+01 6.001405715942382812e+00 -3.715878129005432129e-01
2.101000000000000000e+03 6.969394683837890625e+01 -5.009602546691894531e+00 3.615198135375976562e+00 1.768311500549316406e+01 6.389493942260742188e+00 2.207117319107055664e+00
2.102000000000000000e+03 6.890697479248046875e+01 -4.381540298461914062e+00 -1.079708710312843323e-01 1.824134445190429688e+01 5.440011978149414062e+00 -1.130957841873168945e+00
2.103000000000000000e+03 7.032048797607421875e+01 -5.300619602203369141e+00 5.182455539703369141e+00 1.506579875946044922e+01 6.074476242065429688e+00 2.227566480636596680e+00
2.104000000000000000e+03 6.857386779785156250e+01 -8.242253303527832031e+00 -1.886762678623199463e-01 1.855537605285644531e+01 5.510009765625000000e+00 2.729850530624389648e+00
2.105000000000000000e+03 6.886410522460937500e+01 -8.889832496643066406e+00 -7.686007618904113770e-01 1.638477325439453125e+01 4.684851646423339844e+00 1.843485236167907715e+00
2.106000000000000000e+03 6.965880584716796875e+01 -4.260025024414062500e+00 8.163954615592956543e-01 1.662969589233398438e+01 5.233827114105224609e+00 8.850208520889282227e-01
2.107000000000000000e+03 6.863132476806640625e+01 -4.078774929046630859e+00 -7.425551414489746094e-01 1.672899627685546875e+01 4.795932292938232422e+00 -2.630869150161743164e+00
2.108000000000000000e+03 7.036097717285156250e+01 -7.522520065307617188e+00 5.008224010467529297e+00 1.493368148803710938e+01 5.982571601867675781e+00 -2.204412698745727539e+00
2.109000000000000000e+03 6.669844818115234375e+01 -8.908620834350585938e+00 9.267108440399169922e-01 6.573789119720458984e+00 2.250149965286254883e+00 5.048661231994628906e+00
2.110000000000000000e+03 6.450241088867187500e+01 -9.094994544982910156e+00 -6.121777114458382130e-04 1.543004751205444336e+00 4.627177417278289795e-01 2.135492086410522461e+00
2.111000000000000000e+03 6.344442749023437500e+01 -9.469065666198730469e+00 -4.794827103614807129e-01 1.022829294204711914e+00 1.630039811134338379e-01 1.490726351737976074e+00
2.112000000000000000e+03 6.690176391601562500e+01 -9.079173088073730469e+00 6.439383029937744141e-01 7.701789855957031250e+00 2.503718376159667969e+00 5.217588901519775391e+00
2.113000000000000000e+03 6.517996978759765625e+01 -3.277378082275390625e+00 3.340575993061065674e-01 2.914104223251342773e+00 9.744485616683959961e-01 -3.134347915649414062e+00
2.114000000000000000e+03 6.548689270019531250e+01 -4.227674007415771484e+00 5.244948863983154297e-01 2.114730834960937500e+00 7.917677164077758789e-01 -2.934084892272949219e+00
2.115000000000000000e+03 6.325513076782226562e+01 -1.022405719757080078e+01 -2.425766587257385254e-01 1.399558424949645996e+00 3.470945060253143311e-01 1.720773220062255859e+00
2.116000000000000000e+03 6.112657546997070312e+01 -9.780621528625488281e+00 -1.306746006011962891e+00 4.254142642021179199e-01 -2.643994987010955811e-01 5.553472042083740234e-01
2.117000000000000000e+03 6.193968963623046875e+01 -1.079006385803222656e+01 -5.076003074645996094e-01 1.041408181190490723e+00 1.601423770189285278e-01 1.199228405952453613e+00
2.118000000000000000e+03 2.352084350585937500e+01 -2.620482206344604492e+00 -1.773291826248168945e-01 -1.079742982983589172e-01 -8.559104055166244507e-02 2.119837999343872070e-01
2.119000000000000000e+03 2.206622886657714844e+01 -1.263276696205139160e+00 -1.103544309735298157e-01 -1.821922510862350464e-01 -8.776400238275527954e-02 2.103789597749710083e-01
2.120000000000000000e+03 2.232033157348632812e+01 -2.229397058486938477e+00 -1.145636662840843201e-01 -1.312485784292221069e-01 -7.374367117881774902e-02 1.744338274002075195e-01
2.121000000000000000e+03 2.423547172546386719e+01 -2.055477857589721680e+00 -2.240013480186462402e-01 -1.186888590455055237e-01 -1.028070598840713501e-01 2.685809433460235596e-01
2.122000000000000000e+03 2.614638710021972656e+01 -2.881188392639160156e+00 -3.337012529373168945e-01 -6.698702275753021240e-02 -1.202064827084541321e-01 2.853065133094787598e-01
2.123000000000000000e+03 2.681298828125000000e+01 -1.002650141716003418e+00 -3.927048444747924805e-01 -1.051192358136177063e-01 -1.493472307920455933e-01 4.221500754356384277e-01
2.124000000000000000e+03 2.443264389038085938e+01 -6.032648682594299316e-01 -2.516491711139678955e-01 -1.747743636369705200e-01 -1.279270648956298828e-01 3.636267483234405518e-01
2.125000000000000000e+03 6.426072692871093750e+01 -2.945221185684204102e+00 -6.352804601192474365e-03 1.992143869400024414e+00 5.957372784614562988e-01 -2.337918043136596680e+00
2.126000000000000000e+03 3.345170259475708008e+00 4.323601245880126953e+00 7.336700946325436234e-05 -1.360549504170194268e-04 -1.880638228612951934e-05 3.515204880386590958e-04
2.127000000000000000e+03 3.997705221176147461e+00 4.006133556365966797e+00 -5.284897270030342042e-05 2.107283507939428091e-04 4.736381379188969731e-05 -1.815930299926549196e-04
2.128000000000000000e+03 6.044092941284179688e+01 -9.868613243103027344e+00 -1.448994994163513184e+00 3.387142419815063477e-01 -3.330842256546020508e-01 4.007769525051116943e-01
2.129000000000000000e+03 6.120424652099609375e+01 -1.034775924682617188e+01 -9.377948045730590820e-01 6.248468756675720215e-01 -9.388438612222671509e-02 7.647497653961181641e-01
2.130000000000000000e+03 6.555435657501220703e+00 5.840119838714599609e+00 -2.490114711690694094e-04 9.975915309041738510e-04 2.245740179205313325e-04 1.940479851327836514e-04
2.131000000000000000e+03 6.386106491088867188e+00 4.080088615417480469e+00 2.887150913011282682e-04 -3.998863394372165203e-04 -3.335137444082647562e-05 -2.963675942737609148e-04
2.132000000000000000e+03 5.138457775115966797e+00 5.168441295623779297e+00 -1.357715227641165257e-04 5.777422338724136353e-04 1.325912016909569502e-04 -1.843501231633126736e-04
2.133000000000000000e+03 2.619822692871093750e+01 -2.240814685821533203e+00 -3.438775539398193359e-01 -8.354619890451431274e-02 -1.282271295785903931e-01 3.281375765800476074e-01
2.134000000000000000e+03 2.969705009460449219e+01 -2.855410337448120117e+00 -5.859692096710205078e-01 -2.318050526082515717e-02 -1.827449202537536621e-01 3.570910692214965820e-01
2.135000000000000000e+03 4.961037635803222656e+00 4.599023818969726562e+00 -1.571728935232385993e-04 3.623397496994584799e-04 6.155005394248291850e-05 3.662084345705807209e-04
2.136000000000000000e+03 2.827695274353027344e+01 -2.167533397674560547e+00 -4.830591976642608643e-01 -5.216734111309051514e-02 -1.605679541826248169e-01 3.828984797000885010e-01
2.137000000000000000e+03 8.404862403869628906e+00 5.073058128356933594e+00 2.591536031104624271e-04 -4.820416797883808613e-04 -6.686641427222639322e-05 -6.261265370994806290e-04
2.138000000000000000e+03 6.846297264099121094e+00 5.000133514404296875e+00 3.994317667093127966e-04 -5.204972112551331520e-04 -3.631962681538425386e-05 -3.012734232470393181e-04
2.139000000000000000e+03 7.065814018249511719e+00 4.170801162719726562e+00 -2.110106725012883544e-04 6.341112894006073475e-04 1.269301865249872208e-04 3.942130424547940493e-04
2.140000000000000000e+03 8.919981956481933594e+00 8.061398506164550781e+00 -3.759395622182637453e-04 1.933502149768173695e-03 4.672687791753560305e-04 1.702540612313896418e-05
2.141000000000000000e+03 4.539587020874023438e+00 3.886702299118041992e+00 -1.246111351065337658e-04 2.490939805284142494e-04 3.734485289896838367e-05 3.162324719596654177e-04
2.142000000000000000e+03 3.116883087158203125e+01 -2.862194538116455078e+00 -6.989352107048034668e-01 -1.044405344873666763e-02 -2.128137797117233276e-01 3.738582730293273926e-01
2.143000000000000000e+03 2.900082206726074219e+01 -2.142271518707275391e+00 -5.322452187538146973e-01 -4.205609485507011414e-02 -1.722903996706008911e-01 3.973003923892974854e-01
2.144000000000000000e+03 2.976577377319335938e+01 -1.379002451896667480e+00 -5.783227086067199707e-01 -4.438652843236923218e-02 -1.868127733469009399e-01 4.638604521751403809e-01
2.145000000000000000e+03 3.339978027343750000e+01 -2.868365526199340820e+00 -8.805528283119201660e-01 2.877605613321065903e-03 -2.633025646209716797e-01 3.889693319797515869e-01
2.146000000000000000e+03 4.571769714355468750e+01 -1.115691089630126953e+01 -1.550777912139892578e+00 -4.734731337521225214e-04 -4.653754234313964844e-01 -4.011542499065399170e-01
2.147000000000000000e+03 4.338630676269531250e+01 -1.049153804779052734e+01 -1.589568018913269043e+00 -1.369161624461412430e-02 -4.809778630733489990e-01 -3.714744746685028076e-01
2.148000000000000000e+03 4.636663818359375000e+01 -1.042588901519775391e+01 -1.753058910369873047e+00 -6.473717076005414128e-05 -5.259370803833007812e-01 -3.678969740867614746e-01
2.149000000000000000e+03 4.869583892822265625e+01 -1.114067554473876953e+01 -1.645943403244018555e+00 1.882119849324226379e-02 -4.881366491317749023e-01 -3.719951510429382324e-01
2.150000000000000000e+03 4.433683776855468750e+01 -1.193722152709960938e+01 -1.334081768989562988e+00 -8.454825729131698608e-03 -4.027609825134277344e-01 -4.323774278163909912e-01
2.151000000000000000e+03 3.428505706787109375e+01 -1.678852140903472900e-01 -8.095099925994873047e-01 -3.478566650301218033e-03 -2.438965737819671631e-01 5.777420401573181152e-01
2.152000000000000000e+03 4.944161605834960938e+01 -1.113322544097900391e+01 -1.662252783775329590e+00 2.420691028237342834e-02 -4.914137721061706543e-01 -3.606071174144744873e-01
2.153000000000000000e+03 5.166608047485351562e+01 -1.107961368560791016e+01 -1.691022396087646484e+00 4.408013075590133667e-02 -4.940826594829559326e-01 -3.087314963340759277e-01
2.154000000000000000e+03 4.562008666992187500e+01 -1.043889141082763672e+01 -1.715510725975036621e+00 -2.736923051998019218e-03 -5.154743194580078125e-01 -3.703268170356750488e-01
2.155000000000000000e+03 4.137702941894531250e+01 -1.205934333801269531e+01 -1.209955215454101562e+00 -2.042245119810104370e-02 -3.691132962703704834e-01 -4.353761672973632812e-01
2.156000000000000000e+03 4.190190887451171875e+01 -1.053613948822021484e+01 -1.502004146575927734e+00 -1.751451566815376282e-02 -4.558555781841278076e-01 -3.685159087181091309e-01
2.157000000000000000e+03 4.050683975219726562e+01 -1.132512283325195312e+01 -1.295069336891174316e+00 -2.197299525141716003e-02 -3.951126933097839355e-01 -4.029017686843872070e-01
2.158000000000000000e+03 4.720769500732421875e+01 -1.114005947113037109e+01 -1.605556488037109375e+00 8.867933414876461029e-03 -4.790065884590148926e-01 -3.900296986103057861e-01
2.159000000000000000e+03 4.859844970703125000e+01 -1.040773868560791016e+01 -1.852116703987121582e+00 9.952707216143608093e-03 -5.526491999626159668e-01 -3.533489108085632324e-01
2.160000000000000000e+03 3.889819335937500000e+01 -1.062857055664062500e+01 -1.320796608924865723e+00 -2.353720925748348236e-02 -4.033001363277435303e-01 -3.593665957450866699e-01
2.161000000000000000e+03 4.126533889770507812e+01 -1.129814052581787109e+01 -1.335633993148803711e+00 -2.103599160909652710e-02 -4.070009887218475342e-01 -4.046095609664916992e-01
2.162000000000000000e+03 5.231518554687500000e+01 -1.034374618530273438e+01 -1.952998757362365723e+00 3.204874321818351746e-02 -5.762850046157836914e-01 -2.925312221050262451e-01
2.163000000000000000e+03 5.455270767211914062e+01 -1.028817558288574219e+01 -1.947133779525756836e+00 6.482934206724166870e-02 -5.646913051605224609e-01 -2.143153697252273560e-01
2.164000000000000000e+03 5.018582534790039062e+01 -1.112057590484619141e+01 -1.675368070602416992e+00 2.929817326366901398e-02 -4.938209652900695801e-01 -3.457241058349609375e-01
2.165000000000000000e+03 3.843376159667968750e+01 -1.298292827606201172e+01 -9.585116505622863770e-01 -3.534138202667236328e-02 -2.981559038162231445e-01 -4.656762778759002686e-01
2.166000000000000000e+03 5.157051467895507812e+01 -1.036126232147216797e+01 -1.940452814102172852e+00 2.608109824359416962e-02 -5.743115544319152832e-01 -3.099405169486999512e-01
2.167000000000000000e+03 5.613236236572265625e+01 -1.091835021972656250e+01 -1.572635412216186523e+00 1.540195494890213013e-01 -4.255847334861755371e-01 -7.225665450096130371e-02
2.168000000000000000e+03 5.538532257080078125e+01 -1.094730854034423828e+01 -1.617652535438537598e+00 1.274558305740356445e-01 -4.470590353012084961e-01 -1.303598433732986450e-01
2.169000000000000000e+03 3.749744796752929688e+01 -1.141823005676269531e+01 -1.135907769203186035e+00 -3.093948215246200562e-02 -3.500541746616363525e-01 -3.927248120307922363e-01
2.170000000000000000e+03 4.497319793701171875e+01 -1.117287921905517578e+01 -1.519701123237609863e+00 -5.097024608403444290e-03 -4.574394226074218750e-01 -4.037469029426574707e-01
2.171000000000000000e+03 5.315033340454101562e+01 -1.102316379547119141e+01 -1.688359379768371582e+00 6.821078062057495117e-02 -4.860445559024810791e-01 -2.574448883533477783e-01
2.172000000000000000e+03 3.711035156250000000e+01 -2.740291833877563477e+00 -1.186725020408630371e+00 1.074141357094049454e-02 -3.527950942516326904e-01 4.059413969516754150e-01
2.173000000000000000e+03 3.492835998535156250e+01 -2.146201848983764648e+00 -9.668994545936584473e-01 6.562696769833564758e-03 -2.881010472774505615e-01 4.517079293727874756e-01
2.174000000000000000e+03 8.338411331176757812e+00 -4.274773597717285156e+00 -1.514120231149718165e-04 -7.373202970484271646e-05 -6.754321657354012132e-05 -1.313541142735630274e-04
2.175000000000000000e+03 5.687967681884765625e+01 -1.087699794769287109e+01 -1.519834756851196289e+00 1.896641552448272705e-01 -3.990511894226074219e-01 -1.257244613952934742e-03
2.176000000000000000e+03 5.463936614990234375e+01 -1.097119808197021484e+01 -1.652224302291870117e+00 1.037904471158981323e-01 -4.645301401615142822e-01 -1.819977760314941406e-01
2.177000000000000000e+03 3.825040054321289062e+01 -1.139700508117675781e+01 -1.174873828887939453e+00 -2.976311929523944855e-02 -3.613910973072052002e-01 -3.963085711002349854e-01
2.178000000000000000e+03 3.513495254516601562e+01 -1.073189163208007812e+01 -1.094003558158874512e+00 -3.180127590894699097e-02 -3.377414643764495850e-01 -3.394779860973358154e-01
2.179000000000000000e+03 3.834790420532226562e+01 -1.217005348205566406e+01 -1.072826385498046875e+00 -3.117481432855129242e-02 -3.312003612518310547e-01 -4.314736425876617432e-01
2.180000000000000000e+03 3.785737609863281250e+01 -2.711409807205200195e+00 -1.247091054916381836e+00 9.901829063892364502e-03 -3.711567819118499756e-01 4.080058634281158447e-01
2.181000000000000000e+03 3.496824264526367188e+01 -1.457318663597106934e+00 -9.274497628211975098e-01 4.175213631242513657e-03 -2.769823670387268066e-01 5.016568899154663086e-01
2.182000000000000000e+03 5.585995101928710938e+01 -1.815100431442260742e+00 -1.710129380226135254e+00 1.511945724487304688e-01 -4.676804244518280029e-01 5.948761478066444397e-02
2.183000000000000000e+03 5.389429473876953125e+01 -1.099621391296386719e+01 -1.673844218254089355e+00 8.487062901258468628e-02 -4.766920804977416992e-01 -2.225768566131591797e-01
2.184000000000000000e+03 5.885291671752929688e+01 -1.987807869911193848e+00 -1.395055651664733887e+00 3.374619185924530029e-01 -3.172781169414520264e-01 -3.144275248050689697e-01
2.185000000000000000e+03 5.957969665527343750e+01 -2.060173511505126953e+00 -1.283027887344360352e+00 4.154260754585266113e-01 -2.602805197238922119e-01 -4.489591717720031738e-01
2.186000000000000000e+03 5.901351547241210938e+01 -1.003559207916259766e+01 -1.663041710853576660e+00 2.224912345409393311e-01 -4.321651160717010498e-01 1.616660058498382568e-01
2.187000000000000000e+03 5.983270645141601562e+01 -1.056783962249755859e+01 -1.188272476196289062e+00 4.162199497222900391e-01 -2.316157817840576172e-01 4.340929388999938965e-01
2.188000000000000000e+03 5.436087799072265625e+01 -1.805524349212646484e+00 -1.802555203437805176e+00 9.899842739105224609e-02 -5.110670328140258789e-01 1.730489134788513184e-01
2.189000000000000000e+03 5.509865570068359375e+01 -2.507608175277709961e+00 -2.075535058975219727e+00 7.544128596782684326e-02 -6.000280976295471191e-01 1.607490777969360352e-01
2.190000000000000000e+03 6.029478836059570312e+01 -2.134304046630859375e+00 -1.148199439048767090e+00 5.197007060050964355e-01 -1.885496228933334351e-01 -6.118197441101074219e-01
2.191000000000000000e+03 5.619647502899169922e+00 -7.066716194152832031e+00 1.637490495340898633e-04 -1.215607408084906638e-04 1.265649279957870021e-05 -2.559127460699528456e-04
2.192000000000000000e+03 6.099962234497070312e+01 -2.201542377471923828e+00 -9.819648265838623047e-01 6.540049910545349121e-01 -9.838795661926269531e-02 -8.146792054176330566e-01
2.193000000000000000e+03 5.138354110717773438e+01 -2.531870365142822266e+00 -2.113871574401855469e+00 2.563761174678802490e-02 -6.264701485633850098e-01 3.033914864063262939e-01
2.194000000000000000e+03 4.915167999267578125e+01 -2.529137849807739258e+00 -2.036082506179809570e+00 1.407083403319120407e-02 -6.066035628318786621e-01 3.483071029186248779e-01
2.195000000000000000e+03 5.736909866333007812e+01 -1.874663472175598145e+00 -1.576419711112976074e+00 2.273226380348205566e-01 -4.047291278839111328e-01 -9.857622534036636353e-02
2.196000000000000000e+03 4.011008453369140625e+01 -2.639525890350341797e+00 -1.428674101829528809e+00 9.753998368978500366e-03 -4.256760179996490479e-01 4.102750718593597412e-01
2.197000000000000000e+03 4.845859909057617188e+01 -1.834077358245849609e+00 -1.805809736251831055e+00 2.294691279530525208e-02 -5.348588824272155762e-01 3.874995708465576172e-01
2.198000000000000000e+03 4.540033721923828125e+01 -2.544433593750000000e+00 -1.821976184844970703e+00 6.581657566130161285e-03 -5.446183681488037109e-01 3.900564014911651611e-01
2.199000000000000000e+03 4.086572647094726562e+01 -2.617545843124389648e+00 -1.488552927970886230e+00 8.826131932437419891e-03 -4.439180493354797363e-01 4.097057878971099854e-01
2.200000000000000000e+03 4.314191055297851562e+01 -2.571065187454223633e+00 -1.662704825401306152e+00 8.432919159531593323e-03 -4.962815642356872559e-01 4.024365842342376709e-01
2.201000000000000000e+03 6.740563392639160156e+00 -5.660046100616455078e+00 3.108622040599584579e-04 -2.712112327571958303e-04 1.189529575640335679e-05 -7.591905887238681316e-05
2.202000000000000000e+03 5.661507034301757812e+01 -1.838248133659362793e+00 -1.649869918823242188e+00 1.826740950345993042e-01 -4.401587545871734619e-01 -1.298462226986885071e-02
2.203000000000000000e+03 5.214484024047851562e+01 -1.842839360237121582e+00 -1.871837854385375977e+00 5.511370673775672913e-02 -5.450172424316406250e-01 2.840153574943542480e-01
2.204000000000000000e+03 3.287156295776367188e+01 -1.078335285186767578e+01 -9.604330062866210938e-01 -3.288736566901206970e-02 -2.979961037635803223e-01 -3.251458406448364258e-01
2.205000000000000000e+03 3.640357589721679688e+01 -2.069896697998046875e+00 -1.074092149734497070e+00 1.007936801761388779e-02 -3.192038238048553467e-01 4.597516059875488281e-01
2.206000000000000000e+03 3.864225769042968750e+01 -1.972080111503601074e+00 -1.232247352600097656e+00 1.055741030722856522e-02 -3.665069639682769775e-01 4.655648171901702881e-01
2.207000000000000000e+03 5.141178894042968750e+01 -1.851452231407165527e+00 -1.873788595199584961e+00 4.814129322767257690e-02 -5.476942062377929688e-01 3.107339441776275635e-01
2.208000000000000000e+03 4.993849182128906250e+01 -1.845537662506103516e+00 -1.852352857589721680e+00 3.250917419791221619e-02 -5.459530949592590332e-01 3.560459017753601074e-01
2.209000000000000000e+03 3.939205551147460938e+01 -1.947469830513000488e+00 -1.284793376922607422e+00 1.155531685799360275e-02 -3.819714486598968506e-01 4.660297632217407227e-01
2.210000000000000000e+03 5.361596298217773438e+01 -1.814291357994079590e+00 -1.833982586860656738e+00 7.721065729856491089e-02 -5.270316004753112793e-01 2.172520309686660767e-01
2.211000000000000000e+03 5.287714004516601562e+01 -1.828356504440307617e+00 -1.856976270675659180e+00 6.654004007577896118e-02 -5.371308922767639160e-01 2.513338029384613037e-01
2.212000000000000000e+03 4.166809463500976562e+01 -1.881300926208496094e+00 -1.438585996627807617e+00 1.215089019387960434e-02 -4.279305338859558105e-01 4.618571400642395020e-01
2.213000000000000000e+03 4.545284271240234375e+01 -1.830731630325317383e+00 -1.666429996490478516e+00 1.436953712254762650e-02 -4.956181347370147705e-01 4.324093163013458252e-01
2.214000000000000000e+03 4.247708892822265625e+01 -1.127404689788818359e+00 -1.368294477462768555e+00 1.860602200031280518e-02 -4.049065411090850830e-01 5.028237104415893555e-01
2.215000000000000000e+03 4.470113754272460938e+01 -1.833366036415100098e+00 -1.624774694442749023e+00 1.262852270156145096e-02 -4.836438596248626709e-01 4.410217702388763428e-01
2.216000000000000000e+03 5.067490768432617188e+01 -1.851289987564086914e+00 -1.867561459541320801e+00 3.900600224733352661e-02 -5.485666394233703613e-01 3.353267312049865723e-01
2.217000000000000000e+03 5.214875030517578125e+01 -1.149172186851501465e+00 -1.628697037696838379e+00 8.742135763168334961e-02 -4.623827040195465088e-01 2.710569798946380615e-01
2.218000000000000000e+03 3.373787307739257812e+01 -1.151043319702148438e+01 -9.369722008705139160e-01 -3.855708613991737366e-02 -2.926587760448455811e-01 -3.708331882953643799e-01
2.219000000000000000e+03 3.599078369140625000e+01 -1.145577144622802734e+01 -1.055442094802856445e+00 -3.555677831172943115e-02 -3.272996842861175537e-01 -3.847398757934570312e-01
2.220000000000000000e+03 4.090339279174804688e+01 -1.899366021156311035e+00 -1.386840343475341797e+00 1.234495267271995544e-02 -4.123486280441284180e-01 4.646478593349456787e-01
2.221000000000000000e+03 4.770920181274414062e+01 -1.831407666206359863e+00 -1.774721145629882812e+00 1.933480240404605865e-02 -5.266159176826477051e-01 4.023360908031463623e-01
2.222000000000000000e+03 4.695682525634765625e+01 -1.829022765159606934e+00 -1.741885423660278320e+00 1.745083183050155640e-02 -5.173303484916687012e-01 4.133072495460510254e-01
2.223000000000000000e+03 4.394878768920898438e+01 -1.837243914604187012e+00 -1.580286741256713867e+00 1.340854819864034653e-02 -4.700634479522705078e-01 4.471071362495422363e-01
2.224000000000000000e+03 2.913091659545898438e+01 -1.168468570709228516e+01 -6.974529623985290527e-01 -2.978820353746414185e-02 -2.181723415851593018e-01 -3.462356925010681152e-01
2.225000000000000000e+03 5.837004852294921875e+01 -1.075019454956054688e+01 -1.381775617599487305e+00 2.839656472206115723e-01 -3.293429911136627197e-01 1.809320151805877686e-01
2.226000000000000000e+03 6.778673648834228516e+00 -3.995094537734985352e+00 -8.439431258011609316e-05 -2.124494858435355127e-05 -3.169177944073453546e-05 -1.438178151147440076e-04
2.227000000000000000e+03 6.206787586212158203e+00 -4.037766456604003906e+00 -9.047751518664881587e-05 3.232495801057666540e-04 6.983162165852263570e-05 2.114343224093317986e-04
2.228000000000000000e+03 3.068859481811523438e+01 -1.160705375671386719e+01 -7.769805788993835449e-01 -3.508992493152618408e-02 -2.436211556196212769e-01 -3.526031076908111572e-01
2.229000000000000000e+03 3.146150779724121094e+01 -1.157802391052246094e+01 -8.179857134819030762e-01 -3.676215186715126038e-02 -2.564243674278259277e-01 -3.572573959827423096e-01
2.230000000000000000e+03 3.081778144836425781e+01 -1.238168907165527344e+01 -7.280632257461547852e-01 -4.032904282212257385e-02 -2.305176854133605957e-01 -3.886809647083282471e-01
2.231000000000000000e+03 6.052952575683593750e+01 -1.045952129364013672e+01 -1.075660824775695801e+00 5.100647211074829102e-01 -1.696788370609283447e-01 5.834394693374633789e-01
2.232000000000000000e+03 2.294298934936523438e+01 -1.197658634185791016e+01 -4.406401813030242920e-01 -1.058700960129499435e-02 -1.353681534528732300e-01 -3.124990165233612061e-01
2.233000000000000000e+03 2.755504417419433594e+01 -1.173086929321289062e+01 -6.237777471542358398e-01 -2.151313237845897675e-02 -1.935872733592987061e-01 -3.385954201221466064e-01
2.234000000000000000e+03 2.834736633300781250e+01 -1.171335029602050781e+01 -6.609595417976379395e-01 -2.591104060411453247e-02 -2.060611844062805176e-01 -3.423570394515991211e-01
2.235000000000000000e+03 6.248888397216796875e+01 -1.012508773803710938e+01 -5.827913284301757812e-01 9.449452161788940430e-01 1.086461618542671204e-01 1.240994811058044434e+00
2.236000000000000000e+03 6.305570602416992188e+01 -2.912833213806152344e+00 -5.519936084747314453e-01 1.077189683914184570e+00 1.575588136911392212e-01 -1.477854847908020020e+00
2.237000000000000000e+03 6.100026321411132812e+01 -1.605398297309875488e+00 -7.246896028518676758e-01 8.681077957153320312e-01 4.302545636892318726e-02 -9.843714237213134766e-01
2.238000000000000000e+03 2.587668228149414062e+01 -1.094272232055664062e+01 -5.718159675598144531e-01 -7.887846790254116058e-03 -1.739111393690109253e-01 -2.918777465820312500e-01
2.239000000000000000e+03 1.089209651947021484e+01 4.192690849304199219e+00 -1.674324448686093092e-04 -2.674116694834083319e-04 -1.304532343056052923e-04 -8.180748554877936840e-04
2.240000000000000000e+03 2.060617446899414062e+01 -1.188142204284667969e+01 -3.674378991127014160e-01 -3.183095902204513550e-02 -1.197806596755981445e-01 -2.825752198696136475e-01
2.241000000000000000e+03 1.141172027587890625e+01 5.921742916107177734e+00 2.543040318414568901e-04 7.236611563712358475e-04 2.933895739261060953e-04 7.862925413064658642e-04
2.242000000000000000e+03 2.442080688476562500e+01 -1.185357093811035156e+01 -4.907171726226806641e-01 -8.547779172658920288e-03 -1.497794836759567261e-01 -3.214057087898254395e-01
2.243000000000000000e+03 2.519268226623535156e+01 -1.180648326873779297e+01 -5.216304659843444824e-01 -1.039956510066986084e-02 -1.596090197563171387e-01 -3.256223797798156738e-01
2.244000000000000000e+03 2.278249549865722656e+01 -1.105038547515869141e+01 -4.291301667690277100e-01 -1.630218001082539558e-03 -1.292281150817871094e-01 -2.741110026836395264e-01
2.245000000000000000e+03 2.456147193908691406e+01 -1.278377342224121094e+01 -4.774559438228607178e-01 -1.848238147795200348e-02 -1.487814933061599731e-01 -3.527275919914245605e-01
2.246000000000000000e+03 1.994799232482910156e+01 -1.121375465393066406e+01 -3.287939429283142090e-01 -3.763509541749954224e-02 -1.099287122488021851e-01 -2.542602121829986572e-01
2.247000000000000000e+03 2.167227363586425781e+01 -1.176197528839111328e+01 -3.982727527618408203e-01 -1.513230614364147186e-02 -1.240215152502059937e-01 -2.900100946426391602e-01
2.248000000000000000e+03 6.368189239501953125e+01 -2.930173158645629883e+00 -2.611937820911407471e-01 1.472339510917663574e+00 3.633437156677246094e-01 -1.901157259941101074e+00
2.249000000000000000e+03 6.236673355102539062e+01 -2.296319961547851562e+00 -5.689595937728881836e-01 1.079895615577697754e+00 1.532807946205139160e-01 -1.358194947242736816e+00
2.250000000000000000e+03 2.074345970153808594e+01 -1.076622724533081055e+00 -5.509473383426666260e-02 -1.748441308736801147e-01 -6.898166239261627197e-02 1.396224945783615112e-01
2.251000000000000000e+03 2.176513481140136719e+01 9.159290313720703125e+00 -4.369987249374389648e-01 -7.660601735115051270e-01 -3.609176874160766602e-01 6.667430996894836426e-01
2.252000000000000000e+03 7.550741672515869141e+00 1.151724433898925781e+01 -1.317807356826961040e-03 4.407729022204875946e-03 9.269764414057135582e-04 1.245434861630201340e-03
2.253000000000000000e+03 6.581743240356445312e+00 1.251666355133056641e+01 4.217949695885181427e-03 -8.838432841002941132e-04 1.000231946818530560e-03 7.630707696080207825e-03
2.254000000000000000e+03 8.233787536621093750e+00 8.994385719299316406e+00 1.072912127710878849e-03 -1.128114759922027588e-03 -1.656081440160050988e-05 6.416961550712585449e-04
2.255000000000000000e+03 4.382069110870361328e+00 -1.165379619598388672e+01 2.965357853099703789e-03 -2.494226442649960518e-03 1.413394056726247072e-04 -1.302189048146829009e-05
2.256000000000000000e+03 9.194001197814941406e+00 5.026215553283691406e+00 -9.456458064960315824e-05 7.475356687791645527e-04 1.958913344424217939e-04 6.428994238376617432e-04
2.257000000000000000e+03 1.046238517761230469e+01 7.676649093627929688e+00 -5.364499156712554395e-05 1.612130203284323215e-03 4.675455857068300247e-04 4.568207950796931982e-04
2.258000000000000000e+03 6.246142387390136719e+00 -1.272824096679687500e+01 1.079366425983607769e-03 1.797260134480893612e-03 8.629880030639469624e-04 -5.772820673882961273e-03
2.259000000000000000e+03 1.232256793975830078e+01 6.076130390167236328e+00 -3.645902615971863270e-04 -5.833188770338892937e-04 -2.843727415893226862e-04 -8.165744948200881481e-04
2.260000000000000000e+03 2.056326484680175781e+01 1.501377773284912109e+01 -5.628166794776916504e-01 -8.640134930610656738e-01 -4.280490279197692871e-01 5.728453397750854492e-01
2.261000000000000000e+03 2.107087898254394531e+01 1.361427116394042969e+01 -5.707409977912902832e-01 -8.354758620262145996e-01 -4.218650758266448975e-01 6.144632697105407715e-01
2.262000000000000000e+03 6.650125503540039062e+00 9.363708496093750000e+00 1.453795586712658405e-03 -5.944996373727917671e-04 2.577887789811939001e-04 1.535617979243397713e-03
2.263000000000000000e+03 3.687959909439086914e+00 6.627301216125488281e+00 -7.768913928885012865e-05 4.824621137231588364e-04 1.214318908751010895e-04 -1.317610149271786213e-04
2.264000000000000000e+03 9.159045219421386719e+00 -5.664178848266601562e+00 -1.652648497838526964e-04 2.929019683506339788e-04 3.829113120445981622e-05 -4.990683373762294650e-05
2.265000000000000000e+03 9.213992118835449219e+00 -4.098973274230957031e+00 2.163944736821576953e-05 3.070268139708787203e-04 9.859987767413258553e-05 1.969497679965570569e-04
2.266000000000000000e+03 6.437436580657958984e+00 1.444964885711669922e+01 1.018188800662755966e-02 -5.656799767166376114e-03 1.357526401989161968e-03 1.604383997619152069e-02
2.267000000000000000e+03 2.142960739135742188e+01 -1.031455993652343750e+00 -8.572805672883987427e-02 -1.955112665891647339e-01 -8.437179774045944214e-02 1.876081377267837524e-01
2.268000000000000000e+03 2.289181137084960938e+01 3.039859831333160400e-01 -1.747676134109497070e-01 -2.567589581012725830e-01 -1.294579654932022095e-01 3.461189568042755127e-01
2.269000000000000000e+03 5.285691261291503906e+00 1.092217254638671875e+01 3.844818565994501114e-03 -2.171572064980864525e-03 5.019739619456231594e-04 9.691523737274110317e-04
2.270000000000000000e+03 7.400948333740234375e+01 -3.183453369140625000e+01 3.495170921087265015e-02 7.279457569122314453e+00 2.194322824478149414e+00 2.740205228328704834e-01
2.271000000000000000e+03 7.644374084472656250e+01 -5.785789012908935547e+00 9.284534454345703125e-01 7.166326522827148438e+00 2.428433895111083984e+00 3.076881766319274902e-01
2.272000000000000000e+03 7.627007293701171875e+01 -8.572859764099121094e+00 8.001236915588378906e-01 7.512366771697998047e+00 2.493746995925903320e+00 -9.739736914634704590e-01
2.273000000000000000e+03 7.514801025390625000e+01 5.763169527053833008e-01 -4.835969209671020508e-01 8.801207542419433594e+00 2.495283126831054688e+00 1.225634932518005371e+00
2.274000000000000000e+03 7.475385284423828125e+01 2.726995706558227539e+00 -6.796176433563232422e-01 8.742842674255371094e+00 2.418967723846435547e+00 7.802204489707946777e-01
2.275000000000000000e+03 7.597336578369140625e+01 4.057755470275878906e+00 -4.409329593181610107e-01 8.438265800476074219e+00 2.399199724197387695e+00 6.034917831420898438e-01
2.276000000000000000e+03 7.531226348876953125e+01 -1.645956039428710938e+01 -5.571525096893310547e-01 8.599844932556152344e+00 2.412807703018188477e+00 -6.803640127182006836e-01
2.277000000000000000e+03 7.597256469726562500e+01 -2.327354049682617188e+01 -1.446271240711212158e-01 8.226963996887207031e+00 2.424700975418090820e+00 7.103186100721359253e-02
2.278000000000000000e+03 7.338436126708984375e+01 2.745700645446777344e+01 7.581965625286102295e-02 6.578790187835693359e+00 1.996382951736450195e+00 -3.317442238330841064e-01
2.279000000000000000e+03 7.361991882324218750e+01 2.368464279174804688e+01 5.691649019718170166e-02 6.737169265747070312e+00 2.038225889205932617e+00 -3.902860581874847412e-01
2.280000000000000000e+03 7.643580627441406250e+01 -4.032295227050781250e+00 6.902471780776977539e-01 7.401399135589599609e+00 2.427493810653686523e+00 9.725153446197509766e-01
2.281000000000000000e+03 7.457709503173828125e+01 9.550109863281250000e+00 -2.981933355331420898e-01 7.918219566345214844e+00 2.286007881164550781e+00 -1.732823699712753296e-01
2.282000000000000000e+03 7.553808593750000000e+01 1.373102283477783203e+01 -7.635328918695449829e-02 7.798096179962158203e+00 2.316522836685180664e+00 -2.962022423744201660e-01
2.283000000000000000e+03 7.404950714111328125e+01 1.648164176940917969e+01 -3.178119659423828125e-02 7.242527008056640625e+00 2.163223743438720703e+00 -4.406238794326782227e-01
2.284000000000000000e+03 7.531703186035156250e+01 1.792490959167480469e+01 -5.448945797979831696e-03 7.456397533416748047e+00 2.235284566879272461e+00 -3.589108884334564209e-01
2.285000000000000000e+03 7.530923461914062500e+01 2.606696510314941406e+01 3.652750700712203979e-02 6.995221138000488281e+00 2.109524488449096680e+00 -2.869696021080017090e-01
2.286000000000000000e+03 7.435598754882812500e+01 1.229979324340820312e+01 -1.613470166921615601e-01 7.625501632690429688e+00 2.239246368408203125e+00 -3.424622118473052979e-01
2.287000000000000000e+03 7.385405731201171875e+01 1.930368423461914062e+01 1.863216422498226166e-02 7.018928527832031250e+00 2.111268281936645508e+00 -4.438001215457916260e-01
2.288000000000000000e+03 7.556678771972656250e+01 -3.696164131164550781e+00 8.593698740005493164e-01 8.202902793884277344e+00 2.718681812286376953e+00 1.249170422554016113e+00
2.289000000000000000e+03 7.469155883789062500e+01 -2.443040847778320312e+01 -1.522653698921203613e-01 7.876738071441650391e+00 2.317341804504394531e+00 2.030676007270812988e-01
2.290000000000000000e+03 7.526904296875000000e+01 -1.779292106628417969e+01 -5.033333897590637207e-01 8.479850769042968750e+00 2.392955303192138672e+00 -4.447590410709381104e-01
2.291000000000000000e+03 7.436431884765625000e+01 -2.585503196716308594e+01 -1.066556647419929504e-01 7.697649002075195312e+00 2.277297973632812500e+00 2.712363004684448242e-01
2.292000000000000000e+03 7.569118499755859375e+01 -1.159233093261718750e+01 -3.779795765876770020e-02 8.467131614685058594e+00 2.528800010681152344e+00 -1.465325832366943359e+00
2.293000000000000000e+03 7.336396789550781250e+01 2.018086910247802734e+00 -9.701801538467407227e-01 9.210248947143554688e+00 2.472020864486694336e+00 6.118664741516113281e-01
2.294000000000000000e+03 7.331555938720703125e+01 3.321709823608398438e+01 8.018038421869277954e-02 6.303224086761474609e+00 1.915021419525146484e+00 -2.037055045366287231e-01
2.295000000000000000e+03 7.325204467773437500e+01 3.519198989868164062e+01 8.917424082756042480e-02 6.301587104797363281e+00 1.917228460311889648e+00 -1.412262022495269775e-01
2.296000000000000000e+03 7.507521820068359375e+01 -2.174804115295410156e+01 -2.774013578891754150e-01 8.151711463928222656e+00 2.362293004989624023e+00 1.843434385955333710e-02
2.297000000000000000e+03 7.366499328613281250e+01 2.219967460632324219e+01 4.897483810782432556e-02 6.813376903533935547e+00 2.058705568313598633e+00 -4.132924377918243408e-01
2.298000000000000000e+03 7.375546264648437500e+01 2.073791503906250000e+01 3.617735952138900757e-02 6.909364700317382812e+00 2.083662748336791992e+00 -4.333387017250061035e-01
2.299000000000000000e+03 7.414412689208984375e+01 1.508133602142333984e+01 -6.552179902791976929e-02 7.362204551696777344e+00 2.189004898071289062e+00 -4.206738770008087158e-01
2.300000000000000000e+03 7.557360839843750000e+01 -6.020122766494750977e-01 -1.977862417697906494e-01 8.542244911193847656e+00 2.503337621688842773e+00 1.405969858169555664e+00
2.301000000000000000e+03 7.395976257324218750e+01 -2.738818359375000000e+01 -5.194750055670738220e-02 7.523636341094970703e+00 2.241506576538085938e+00 3.095699548721313477e-01
2.302000000000000000e+03 7.521853637695312500e+01 -1.912485694885253906e+01 -4.239932894706726074e-01 8.374754905700683594e+00 2.385228633880615234e+00 -2.582719624042510986e-01
2.303000000000000000e+03 7.515759277343750000e+01 -2.044384384155273438e+01 -3.492473065853118896e-01 8.260600090026855469e+00 2.373405694961547852e+00 -9.857972711324691772e-02
2.304000000000000000e+03 7.467249298095703125e+01 8.205509185791015625e+00 -3.769158124923706055e-01 8.067531585693359375e+00 2.307184696197509766e+00 -5.041772127151489258e-02
2.305000000000000000e+03 7.345093536376953125e+01 3.131352424621582031e+01 8.409444242715835571e-02 6.411449909210205078e+00 1.948663234710693359e+00 -2.568877637386322021e-01
2.306000000000000000e+03 7.561691284179687500e+01 -1.268240928649902344e+01 -2.894307672977447510e-01 8.602755546569824219e+00 2.493997335433959961e+00 -1.368306159973144531e+00
2.307000000000000000e+03 7.548398590087890625e+01 -1.387480354309082031e+01 -4.716379046440124512e-01 8.665919303894042969e+00 2.458284616470336914e+00 -1.160140752792358398e+00
2.308000000000000000e+03 6.235071182250976562e+00 -2.883418464660644531e+01 2.335310541093349457e-02 -3.076249361038208008e-01 -8.528155088424682617e-02 -1.833935230970382690e-01
2.309000000000000000e+03 7.481384277343750000e+01 5.522686958312988281e+00 -5.469127893447875977e-01 8.375646591186523438e+00 2.348620176315307617e+00 2.874616384506225586e-01
2.310000000000000000e+03 1.023801136016845703e+01 6.427416801452636719e+00 -3.032474778592586517e-04 1.429826952517032623e-03 3.379738482180982828e-04 1.177697631646879017e-04
2.311000000000000000e+03 4.877311706542968750e+00 -2.608508491516113281e+01 -7.904356345534324646e-03 -2.317730784416198730e-01 -7.190322875976562500e-02 -1.610736846923828125e-01
2.312000000000000000e+03 6.841640949249267578e+00 -8.601328849792480469e+00 2.799446810968220234e-04 -1.925608958117663860e-04 2.621513340272940695e-05 -5.332921864464879036e-04
2.313000000000000000e+03 4.569591522216796875e+00 2.328716278076171875e+01 -8.899649977684020996e-02 -2.288609445095062256e-01 -9.535723179578781128e-02 2.219276875257492065e-01
2.314000000000000000e+03 1.079402351379394531e+01 2.272617530822753906e+01 -1.797086894512176514e-01 -6.470158100128173828e-01 -2.480173408985137939e-01 5.560256838798522949e-01
2.315000000000000000e+03 1.150369930267333984e+01 2.496162223815917969e+01 -6.195188499987125397e-03 -7.401652336120605469e-01 -2.239081263542175293e-01 5.042197108268737793e-01
2.316000000000000000e+03 7.482406616210937500e+01 -3.587024688720703125e+01 3.796363249421119690e-02 7.352352619171142578e+00 2.217094898223876953e+00 1.468088030815124512e-01
2.317000000000000000e+03 5.784091949462890625e+00 -2.060239410400390625e+01 -1.015331596136093140e-01 -8.926209807395935059e-02 -5.723857507109642029e-02 -1.231414675712585449e-01
2.318000000000000000e+03 3.940112590789794922e+00 -2.137795448303222656e+01 -4.137432947754859924e-02 -8.782362937927246094e-02 -3.875938802957534790e-02 -8.598619699478149414e-02
2.319000000000000000e+03 4.986101627349853516e+00 -2.327133560180664062e+01 -4.813145101070404053e-02 -1.543977856636047363e-01 -6.075876951217651367e-02 -1.523512899875640869e-01
2.320000000000000000e+03 6.064013481140136719e+00 -2.196168136596679688e+01 -9.435580670833587646e-02 -1.321590691804885864e-01 -6.795446574687957764e-02 -1.665853112936019897e-01
2.321000000000000000e+03 4.661396026611328125e+00 1.253832149505615234e+01 7.131772581487894058e-03 -5.378300324082374573e-03 5.260417819954454899e-04 4.588902520481497049e-04
2.322000000000000000e+03 4.284806251525878906e+00 -2.035605049133300781e+01 -6.440252065658569336e-02 -6.381771713495254517e-02 -3.846606984734535217e-02 -7.229872792959213257e-02
2.323000000000000000e+03 7.454287052154541016e+00 2.614766120910644531e+01 -2.359901182353496552e-02 -5.069116950035095215e-01 -1.591532230377197266e-01 3.954663574695587158e-01
2.324000000000000000e+03 4.693756580352783203e+00 2.605481338500976562e+01 -3.386705368757247925e-02 -3.666996061801910400e-01 -1.201700046658515930e-01 2.781163752079010010e-01
2.325000000000000000e+03 8.515952110290527344e+00 -6.650897502899169922e+00 2.927425375673919916e-04 -4.061758518218994141e-04 -3.402998845558613539e-05 4.960800652042962611e-05
2.326000000000000000e+03 6.390054225921630859e+00 -2.759991264343261719e+01 7.755506783723831177e-03 -2.838108539581298828e-01 -8.281660079956054688e-02 -1.912187784910202026e-01
2.327000000000000000e+03 6.200876235961914062e+00 3.168004226684570312e+01 7.313856482505798340e-02 -6.183290481567382812e-01 -1.635571420192718506e-01 2.667025029659271240e-01
2.328000000000000000e+03 4.277220249176025391e+00 2.062931442260742188e+01 -9.764370322227478027e-02 -8.950243890285491943e-02 -5.614384263753890991e-02 8.561343699693679810e-02
2.329000000000000000e+03 4.842626571655273438e+00 2.216657066345214844e+01 -1.493117213249206543e-01 -1.609837710857391357e-01 -9.308864921331405640e-02 1.945328265428543091e-01
2.330000000000000000e+03 5.753129005432128906e+00 -3.342779541015625000e+01 4.810785129666328430e-02 -3.791105747222900391e-01 -9.930081665515899658e-02 -1.280422508716583252e-01
2.331000000000000000e+03 1.140672588348388672e+01 -3.100316810607910156e+01 9.588389098644256592e-02 -3.572273552417755127e-01 -7.840304076671600342e-02 -2.105331420898437500e-01
2.332000000000000000e+03 7.310966491699218750e+00 2.119142723083496094e+01 -3.269108831882476807e-01 -1.751784235239028931e-01 -1.506267935037612915e-01 3.384431302547454834e-01
2.333000000000000000e+03 6.117821693420410156e+00 2.885285568237304688e+01 4.268209263682365417e-02 -5.461905002593994141e-01 -1.510525345802307129e-01 3.196200132369995117e-01
2.334000000000000000e+03 4.046638011932373047e+00 1.022974300384521484e+01 2.385767642408609390e-03 -8.030878379940986633e-04 4.748039355035871267e-04 -7.042213110253214836e-04
2.335000000000000000e+03 4.046774387359619141e+00 9.133592605590820312e+00 1.510570291429758072e-03 -5.350519204512238503e-04 2.926555171143263578e-04 -7.165307179093360901e-04
2.336000000000000000e+03 5.204763889312744141e+00 8.330625534057617188e+00 1.113924081437289715e-03 -4.504699900280684233e-04 1.990362361539155245e-04 -5.166224218555726111e-05
2.337000000000000000e+03 8.040942192077636719e+00 7.490562438964843750e+00 8.406376000493764877e-04 -1.002296456135809422e-03 -4.849766628467477858e-05 4.032033903058618307e-04
2.338000000000000000e+03 5.093965053558349609e+00 9.155466079711914062e+00 1.628629048354923725e-03 -3.066775971092283726e-04 3.965854411944746971e-04 3.206915571354329586e-04
2.339000000000000000e+03 4.473659992218017578e+00 -6.476087093353271484e+00 -5.061044794274494052e-05 -5.538060577237047255e-05 -3.179731720592826605e-05 -3.113394486717879772e-04
2.340000000000000000e+03 4.323876857757568359e+00 -5.545505046844482422e+00 1.953745522769168019e-04 1.857115275925025344e-04 1.143258268712088466e-04 3.159046755172312260e-04
2.341000000000000000e+03 1.317327213287353516e+01 2.340930557250976562e+01 -5.913842841982841492e-02 -8.783206343650817871e-01 -2.812377214431762695e-01 5.166115760803222656e-01
2.342000000000000000e+03 6.161933898925781250e+00 -7.827372074127197266e+00 2.295968442922458053e-04 2.657929144334048033e-04 1.486169348936527967e-04 1.031811698339879513e-04
2.343000000000000000e+03 1.832652091979980469e+01 -1.672226905822753906e+01 -3.199393749237060547e-01 -1.499582976102828979e-01 -1.409693062305450439e-01 -3.094878494739532471e-01
2.344000000000000000e+03 1.942875099182128906e+01 1.986434364318847656e+01 -2.518433332443237305e-01 -8.713995814323425293e-01 -3.369728624820709229e-01 3.994843959808349609e-01
2.345000000000000000e+03 1.680173873901367188e+01 2.101062583923339844e+01 -2.051366567611694336e-01 -9.988458752632141113e-01 -3.611947596073150635e-01 4.378459751605987549e-01
2.346000000000000000e+03 1.963172340393066406e+01 -1.342609214782714844e+01 -3.641207814216613770e-01 -7.019151002168655396e-02 -1.302936822175979614e-01 -3.070912063121795654e-01
2.347000000000000000e+03 1.772344970703125000e+01 -1.490686702728271484e+01 -3.438463509082794189e-01 -1.496625542640686035e-01 -1.480526626110076904e-01 -3.001480698585510254e-01
2.348000000000000000e+03 1.784438133239746094e+01 -1.798890304565429688e+01 -2.829998433589935303e-01 -1.819475591182708740e-01 -1.394842267036437988e-01 -3.002647161483764648e-01
2.349000000000000000e+03 2.389614868164062500e+01 6.135314941406250000e+00 -3.562137484550476074e-01 -4.625725150108337402e-01 -2.456358820199966431e-01 6.571847796440124512e-01
2.350000000000000000e+03 2.458058738708496094e+01 5.313926219940185547e+00 -3.510155677795410156e-01 -3.944182097911834717e-01 -2.236301302909851074e-01 6.495836973190307617e-01
2.351000000000000000e+03 2.333753204345703125e+01 2.670440435409545898e+00 -2.347158640623092651e-01 -3.563409745693206787e-01 -1.773170530796051025e-01 4.875658750534057617e-01
2.352000000000000000e+03 1.877653121948242188e+01 -1.552230644226074219e+01 -3.447526991367340088e-01 -1.206941008567810059e-01 -1.396340429782867432e-01 -3.149583339691162109e-01
2.353000000000000000e+03 2.044226264953613281e+01 -1.389207458496093750e+01 -3.743796944618225098e-01 -6.002809107303619385e-02 -1.303223371505737305e-01 -3.240203857421875000e-01
2.354000000000000000e+03 1.564920425415039062e+01 -2.117209625244140625e+01 -1.486680954694747925e-01 -2.760673463344573975e-01 -1.274206340312957764e-01 -2.738287448883056641e-01
2.355000000000000000e+03 1.735186958312988281e+01 -1.938611412048339844e+01 -2.281835824251174927e-01 -2.146377414464950562e-01 -1.328464001417160034e-01 -2.960027456283569336e-01
2.356000000000000000e+03 2.278646087646484375e+01 1.091213321685791016e+01 -4.979516267776489258e-01 -6.475836038589477539e-01 -3.436605632305145264e-01 6.734648942947387695e-01
2.357000000000000000e+03 7.171665191650390625e+01 4.080980682373046875e+01 1.174334213137626648e-01 6.020933628082275391e+00 1.841510176658630371e+00 -3.516741096973419189e-02
2.358000000000000000e+03 2.343078804016113281e+01 7.131576061248779297e+00 -3.780553936958312988e-01 -5.305803418159484863e-01 -2.725907266139984131e-01 6.698709726333618164e-01
2.359000000000000000e+03 2.424996566772460938e+01 8.640832901000976562e+00 -4.369255900382995605e-01 -4.779928922653198242e-01 -2.744755446910858154e-01 6.998841762542724609e-01
2.360000000000000000e+03 6.764373016357421875e+01 -9.193666458129882812e+00 -3.057637810707092285e-01 1.131363487243652344e+01 3.302361488342285156e+00 4.812257289886474609e+00
2.361000000000000000e+03 6.795500946044921875e+01 -8.698507308959960938e+00 -3.370874226093292236e-01 1.405792999267578125e+01 4.116252899169921875e+00 4.868439197540283203e+00
2.362000000000000000e+03 6.698551940917968750e+01 -4.117419242858886719e+00 1.032895326614379883e+00 7.756974220275878906e+00 2.636960983276367188e+00 -5.546224117279052734e+00
2.363000000000000000e+03 6.714780426025390625e+01 -4.493889331817626953e+00 1.424953222274780273e+00 8.230479240417480469e+00 2.896629810333251953e+00 -6.051641464233398438e+00
2.364000000000000000e+03 6.654418182373046875e+01 -4.249962806701660156e+00 1.285889744758605957e+00 5.215346813201904297e+00 1.950371026992797852e+00 -4.972326278686523438e+00
2.365000000000000000e+03 6.750856781005859375e+01 -3.678914785385131836e+00 -9.334930777549743652e-02 1.081628131866455078e+01 3.216879606246948242e+00 -5.171871185302734375e+00
2.366000000000000000e+03 6.830337524414062500e+01 -9.028882980346679688e+00 -8.503632545471191406e-01 1.451517868041992188e+01 4.099444389343261719e+00 3.683735132217407227e+00
2.367000000000000000e+03 6.571763610839843750e+01 -8.782407760620117188e+00 8.910250067710876465e-01 2.961340188980102539e+00 1.155709505081176758e+00 3.480134963989257812e+00
2.368000000000000000e+03 7.116500091552734375e+01 -6.075954914093017578e+00 5.753076076507568359e+00 1.242605400085449219e+01 5.453739166259765625e+00 5.686865448951721191e-01
2.369000000000000000e+03 7.065095520019531250e+01 -7.346398353576660156e+00 5.415571689605712891e+00 1.400810146331787109e+01 5.827102184295654297e+00 -1.876621603965759277e+00
2.370000000000000000e+03 7.064311981201171875e+01 -6.850328445434570312e+00 6.511014461517333984e+00 1.356339740753173828e+01 6.022323608398437500e+00 -1.019470095634460449e+00
2.371000000000000000e+03 6.980635833740234375e+01 -4.532611846923828125e+00 1.779262900352478027e+00 1.672727775573730469e+01 5.551962375640869141e+00 1.606324791908264160e+00
2.372000000000000000e+03 7.098625183105468750e+01 -5.722199916839599609e+00 5.573679447174072266e+00 1.296495246887207031e+01 5.561589717864990234e+00 1.285368204116821289e+00
2.373000000000000000e+03 7.596573638916015625e+01 -4.944908142089843750e+00 1.015237927436828613e+00 7.611050128936767578e+00 2.587886333465576172e+00 7.212616205215454102e-01
2.374000000000000000e+03 7.059229278564453125e+01 -7.883738517761230469e+00 3.681266069412231445e+00 1.439826583862304688e+01 5.423859596252441406e+00 -2.117787122726440430e+00
2.375000000000000000e+03 6.690428924560546875e+01 -3.830611228942871094e+00 7.034367322921752930e-01 7.483418941497802734e+00 2.456056594848632812e+00 -5.170788764953613281e+00
2.376000000000000000e+03 6.535749053955078125e+01 -3.771844863891601562e+00 5.731514692306518555e-01 2.712438344955444336e+00 9.856769442558288574e-01 -3.140391111373901367e+00
2.377000000000000000e+03 6.437770080566406250e+01 -9.612165451049804688e+00 5.738108232617378235e-02 1.920682907104492188e+00 5.934191942214965820e-01 2.303857564926147461e+00
2.378000000000000000e+03 6.479981231689453125e+01 -3.442191123962402344e+00 1.435810029506683350e-01 1.994276523590087891e+00 6.413572430610656738e-01 -2.604879379272460938e+00
2.379000000000000000e+03 6.339955139160156250e+01 -9.868870735168457031e+00 -3.063961863517761230e-01 1.216392397880554199e+00 2.729988992214202881e-01 1.658850789070129395e+00
2.380000000000000000e+03 6.565463256835937500e+01 -9.366327285766601562e+00 6.230211257934570312e-01 3.640584945678710938e+00 1.279081821441650391e+00 3.608041286468505859e+00
2.381000000000000000e+03 6.379640197753906250e+01 -9.935165405273437500e+00 -1.265795677900314331e-01 1.586653709411621094e+00 4.380222558975219727e-01 1.959130048751831055e+00
2.382000000000000000e+03 2.365767097473144531e+01 -2.021368980407714844e+00 -1.948002427816390991e-01 -1.288173794746398926e-01 -9.708528965711593628e-02 2.522459030151367188e-01
2.383000000000000000e+03 2.484903717041015625e+01 1.256319165229797363e+00 -2.934735715389251709e-01 -2.342520356178283691e-01 -1.583176851272583008e-01 4.826013445854187012e-01
2.384000000000000000e+03 2.425646972656250000e+01 -1.344989657402038574e+00 -2.295099198818206787e-01 -1.532610654830932617e-01 -1.148312911391258240e-01 3.147821724414825439e-01
2.385000000000000000e+03 6.202095413208007812e+01 -1.134306144714355469e+01 -2.973352074623107910e-01 1.361377954483032227e+00 3.192128241062164307e-01 1.418486595153808594e+00
2.386000000000000000e+03 2.495222091674804688e+01 -1.480525970458984375e+00 -2.748641371726989746e-01 -1.335633844137191772e-01 -1.225282549858093262e-01 3.379028141498565674e-01
2.387000000000000000e+03 2.687634658813476562e+01 -2.239219188690185547e+00 -3.891033828258514404e-01 -7.288179546594619751e-02 -1.385955512523651123e-01 3.470157980918884277e-01
2.388000000000000000e+03 2.687376022338867188e+01 -1.600845217704772949e+00 -3.917301893234252930e-01 -8.984698355197906494e-02 -1.444731503725051880e-01 3.886580467224121094e-01
2.389000000000000000e+03 5.545707225799560547e+00 4.640198707580566406e+00 4.190711188130080700e-04 -4.280386783648282290e-04 -2.690269639060716145e-06 -9.295713243773207068e-05
2.390000000000000000e+03 5.262998104095458984e+00 6.294652462005615234e+00 -3.116110019618645310e-05 6.285586277954280376e-04 1.792192633729428053e-04 -9.655673056840896606e-05
2.391000000000000000e+03 2.487252235412597656e+01 -2.128453016281127930e+00 -2.586309611797332764e-01 -1.114544644951820374e-01 -1.110256314277648926e-01 2.910616397857666016e-01
2.392000000000000000e+03 8.347204208374023438e+00 5.963177680969238281e+00 -6.788434257032349706e-05 7.181831751950085163e-04 1.950896403286606073e-04 8.105216547846794128e-04
2.393000000000000000e+03 2.622973060607910156e+01 -1.618628978729248047e+00 -3.500406444072723389e-01 -1.018516123294830322e-01 -1.355676800012588501e-01 3.674785196781158447e-01
2.394000000000000000e+03 9.908644676208496094e+00 5.802520751953125000e+00 1.032298678182996809e-04 4.219826078042387962e-04 1.575637434143573046e-04 8.726144442334771156e-04
2.395000000000000000e+03 6.301465988159179688e+01 -2.327799081802368164e+00 -3.482648134231567383e-01 1.407481670379638672e+00 3.177650570869445801e-01 -1.705796480178833008e+00
2.396000000000000000e+03 3.122807693481445312e+01 -2.146627902984619141e+00 -6.898456811904907227e-01 -1.727298460900783539e-02 -2.121355980634689331e-01 4.283234477043151855e-01
2.397000000000000000e+03 6.142098903656005859e+00 4.835748195648193359e+00 -2.730149717535823584e-04 7.561791571788489819e-04 1.449492556275799870e-04 2.430712920613586903e-04
2.398000000000000000e+03 2.756921577453613281e+01 -2.205434083938598633e+00 -4.351281523704528809e-01 -6.198306009173393250e-02 -1.491333544254302979e-01 3.654677271842956543e-01
2.399000000000000000e+03 3.053125572204589844e+01 -1.373985171318054199e+00 -6.270505189895629883e-01 -3.400051966309547424e-02 -1.983153074979782104e-01 4.724563360214233398e-01
2.400000000000000000e+03 3.272045516967773438e+01 -2.189300060272216797e+00 -8.011439442634582520e-01 -4.742840770632028580e-03 -2.417660206556320190e-01 4.389415383338928223e-01
2.401000000000000000e+03 3.279486083984375000e+01 -1.515879034996032715e+00 -7.812418341636657715e-01 -8.216247893869876862e-03 -2.368374317884445190e-01 4.871598184108734131e-01
2.402000000000000000e+03 3.048121643066406250e+01 -2.126521587371826172e+00 -6.356593966484069824e-01 -2.503795921802520752e-02 -1.982091963291168213e-01 4.217187464237213135e-01
2.403000000000000000e+03 3.288103866577148438e+01 -8.630999326705932617e-01 -7.604189515113830566e-01 -1.293444167822599411e-02 -2.320060133934020996e-01 5.306289792060852051e-01
2.404000000000000000e+03 4.528417205810546875e+01 -1.338515472412109375e+01 -1.056982755661010742e+00 1.476959325373172760e-02 -3.126639425754547119e-01 -4.548934996128082275e-01
2.405000000000000000e+03 4.349288177490234375e+01 -1.122419929504394531e+01 -1.448141694068908691e+00 -1.455368846654891968e-02 -4.388086199760437012e-01 -4.069038033485412598e-01
2.406000000000000000e+03 4.201468276977539062e+01 -1.127628707885742188e+01 -1.374273896217346191e+00 -1.865537837147712708e-02 -4.178787767887115479e-01 -4.047257304191589355e-01
2.407000000000000000e+03 4.286919784545898438e+01 -1.202116394042968750e+01 -1.272118449211120605e+00 -1.863614656031131744e-02 -3.872263729572296143e-01 -4.371240735054016113e-01
2.408000000000000000e+03 4.729652786254882812e+01 -1.187619018554687500e+01 -1.425365447998046875e+00 1.857043616473674774e-02 -4.220384955406188965e-01 -4.075261950492858887e-01
2.409000000000000000e+03 4.646348190307617188e+01 -1.114495849609375000e+01 -1.581901431083679199e+00 4.986929241567850113e-03 -4.730743467807769775e-01 -3.960262537002563477e-01
2.410000000000000000e+03 4.741630172729492188e+01 -1.342598056793212891e+01 -1.063724637031555176e+00 4.449218139052391052e-02 -3.057697117328643799e-01 -4.165946543216705322e-01
2.411000000000000000e+03 4.795098114013671875e+01 -1.114118385314941406e+01 -1.628720521926879883e+00 1.449235528707504272e-02 -4.842684566974639893e-01 -3.829401433467864990e-01
2.412000000000000000e+03 4.298817825317382812e+01 -1.283497810363769531e+01 -1.125919699668884277e+00 -1.715634390711784363e-02 -3.429228067398071289e-01 -4.590306580066680908e-01
2.413000000000000000e+03 3.975017547607421875e+01 -1.135407638549804688e+01 -1.254949331283569336e+00 -2.510446868836879730e-02 -3.840161561965942383e-01 -4.015144109725952148e-01
2.414000000000000000e+03 4.061183166503906250e+01 -1.208659172058105469e+01 -1.175843119621276855e+00 -2.436992898583412170e-02 -3.600639104843139648e-01 -4.370086491107940674e-01
2.415000000000000000e+03 3.346141815185546875e+01 -2.191062211990356445e+00 -8.572517633438110352e-01 4.707356856670230627e-04 -2.570343017578125000e-01 4.427955150604248047e-01
2.416000000000000000e+03 4.954198074340820312e+01 -1.189154243469238281e+01 -1.445368409156799316e+00 4.129224270582199097e-02 -4.212228357791900635e-01 -3.640998899936676025e-01
2.417000000000000000e+03 5.029103088378906250e+01 -1.187711524963378906e+01 -1.447764635086059570e+00 4.995620623230934143e-02 -4.193425476551055908e-01 -3.439773917198181152e-01
2.418000000000000000e+03 5.177034759521484375e+01 -1.181370925903320312e+01 -1.447602629661560059e+00 7.221236079931259155e-02 -4.126170873641967773e-01 -2.960774302482604980e-01
2.419000000000000000e+03 5.092672348022460938e+01 -1.110351657867431641e+01 -1.684843540191650391e+00 3.679111972451210022e-02 -4.944157302379608154e-01 -3.291983306407928467e-01
2.420000000000000000e+03 3.424747085571289062e+01 -1.499928116798400879e+00 -8.807328939437866211e-01 1.525713363662362099e-03 -2.637621462345123291e-01 4.961687922477722168e-01
2.421000000000000000e+03 3.569629669189453125e+01 -1.406639575958251953e+00 -9.734977483749389648e-01 7.328455336391925812e-03 -2.898508012294769287e-01 5.064730048179626465e-01
2.422000000000000000e+03 5.250646591186523438e+01 -1.176806449890136719e+01 -1.443819046020507812e+00 8.610174804925918579e-02 -4.073151946067810059e-01 -2.641426622867584229e-01
2.423000000000000000e+03 5.240737152099609375e+01 -1.105149364471435547e+01 -1.691872000694274902e+00 5.521551147103309631e-02 -4.909969270229339600e-01 -2.858986556529998779e-01
2.424000000000000000e+03 4.372848510742187500e+01 -1.277397060394287109e+01 -1.153630137443542480e+00 -1.124066393822431564e-02 -3.494612574577331543e-01 -4.565117955207824707e-01
2.425000000000000000e+03 3.909921264648437500e+01 -1.215277194976806641e+01 -1.104408025741577148e+00 -3.160253167152404785e-02 -3.408031463623046875e-01 -4.335185885429382324e-01
2.426000000000000000e+03 3.759471511840820312e+01 -1.218626308441162109e+01 -1.036123275756835938e+00 -3.555827960371971130e-02 -3.215044736862182617e-01 -4.303232133388519287e-01
2.427000000000000000e+03 5.621279907226562500e+01 -1.160194110870361328e+01 -1.276911973953247070e+00 2.275467365980148315e-01 -3.148095607757568359e-01 5.432856269180774689e-04
2.428000000000000000e+03 5.696521377563476562e+01 -1.155590248107910156e+01 -1.213245391845703125e+00 2.784318029880523682e-01 -2.804440855979919434e-01 8.615131676197052002e-02
2.429000000000000000e+03 5.762653350830078125e+01 -1.082073783874511719e+01 -1.456498384475708008e+00 2.318526655435562134e-01 -3.673937320709228516e-01 8.226334303617477417e-02
2.430000000000000000e+03 3.714764022827148438e+01 -2.033040761947631836e+00 -1.126806855201721191e+00 1.025373488664627075e-02 -3.349659442901611328e-01 4.628451168537139893e-01
2.431000000000000000e+03 5.472344589233398438e+01 -1.165392780303955078e+01 -1.377093315124511719e+00 1.565591692924499512e-01 -3.661602437496185303e-01 -1.335339099168777466e-01
2.432000000000000000e+03 3.523797988891601562e+01 -1.147537994384765625e+01 -1.014046072959899902e+00 -3.739146888256072998e-02 -3.154312670230865479e-01 -3.808957338333129883e-01
2.433000000000000000e+03 5.324335098266601562e+01 -1.172282600402832031e+01 -1.429720520973205566e+00 1.043704077601432800e-01 -3.976050317287445068e-01 -2.293535619974136353e-01
2.434000000000000000e+03 5.398262023925781250e+01 -1.168350982666015625e+01 -1.411315083503723145e+00 1.278326660394668579e-01 -3.850447237491607666e-01 -1.874991953372955322e-01
2.435000000000000000e+03 5.888714981079101562e+01 -1.326978564262390137e+00 -1.087712526321411133e+00 4.763500690460205078e-01 -1.834087371826171875e-01 -4.492410123348236084e-01
2.436000000000000000e+03 5.893146514892578125e+01 -6.551093459129333496e-01 -8.222659826278686523e-01 6.466767787933349609e-01 -5.267676338553428650e-02 -5.799657106399536133e-01
2.437000000000000000e+03 3.571237182617187500e+01 -6.919886469841003418e-01 -9.232038259506225586e-01 5.541978403925895691e-03 -2.752985656261444092e-01 5.521264672279357910e-01
2.438000000000000000e+03 3.448815917968750000e+01 -1.149378776550292969e+01 -9.755734801292419434e-01 -3.872036188840866089e-02 -3.042881488800048828e-01 -3.746888935565948486e-01
2.439000000000000000e+03 3.693275451660156250e+01 -1.299101543426513672e+01 -9.055427312850952148e-01 -4.255026206374168396e-02 -2.844279110431671143e-01 -4.578917324542999268e-01
2.440000000000000000e+03 5.434987640380859375e+01 -1.081885576248168945e+00 -1.520139098167419434e+00 1.468944251537322998e-01 -4.119733870029449463e-01 1.351087838411331177e-01
2.441000000000000000e+03 5.510883712768554688e+01 -1.804976701736450195e+00 -1.761223196983337402e+00 1.199254170060157776e-01 -4.923893511295318604e-01 1.217102780938148499e-01
2.442000000000000000e+03 5.232166290283203125e+00 -5.383697509765625000e+00 -3.757690865313634276e-05 -9.528988448437303305e-05 -3.986003866884857416e-05 -2.964024024549871683e-04
2.443000000000000000e+03 5.961126327514648438e+01 -1.422863483428955078e+00 -9.812558293342590332e-01 5.749495029449462891e-01 -1.218918934464454651e-01 -5.980550646781921387e-01
2.444000000000000000e+03 5.814428710937500000e+01 -1.244609236717224121e+00 -1.179863214492797852e+00 3.981326520442962646e-01 -2.345191538333892822e-01 -3.126171231269836426e-01
2.445000000000000000e+03 3.789403915405273438e+01 -1.999742865562438965e+00 -1.180122256278991699e+00 1.143153011798858643e-02 -3.506072163581848145e-01 4.645052850246429443e-01
2.446000000000000000e+03 3.643288803100585938e+01 -1.357028007507324219e+00 -1.019000411033630371e+00 9.159506298601627350e-03 -3.029522597789764404e-01 5.110604166984558105e-01
2.447000000000000000e+03 5.070500564575195312e+01 -1.165114998817443848e+00 -1.649575710296630859e+00 6.421689689159393311e-02 -4.756076633930206299e-01 3.404106497764587402e-01
2.448000000000000000e+03 5.586407852172851562e+01 -1.096729874610900879e+00 -1.410012602806091309e+00 2.225048542022705078e-01 -3.562523424625396729e-01 -5.802059546113014221e-03
2.449000000000000000e+03 3.941882324218750000e+01 -1.214915990829467773e+00 -1.198028326034545898e+00 1.240389235317707062e-02 -3.556873500347137451e-01 5.152057409286499023e-01
2.450000000000000000e+03 4.014471435546875000e+01 -1.922451496124267578e+00 -1.335998773574829102e+00 1.092863176017999649e-02 -3.975210189819335938e-01 4.656976461410522461e-01
2.451000000000000000e+03 4.017057800292968750e+01 -1.191540241241455078e+00 -1.241482734680175781e+00 1.444176491349935532e-02 -3.681122958660125732e-01 5.143570303916931152e-01
2.452000000000000000e+03 5.738990783691406250e+01 -1.178568243980407715e+00 -1.265762209892272949e+00 3.256115019321441650e-01 -2.820452153682708740e-01 -1.961991488933563232e-01
2.453000000000000000e+03 5.662778091430664062e+01 -1.128800630569458008e+00 -1.341225743293762207e+00 2.713154852390289307e-01 -3.209730982780456543e-01 -9.514994919300079346e-02
2.454000000000000000e+03 4.851292419433593750e+01 -1.131513237953186035e+00 -1.614455699920654297e+00 3.857617080211639404e-02 -4.727638661861419678e-01 4.082297086715698242e-01
2.455000000000000000e+03 4.920134735107421875e+01 -1.838785767555236816e+00 -1.829559206962585449e+00 2.517462335526943207e-02 -5.413153767585754395e-01 3.731468021869659424e-01
2.456000000000000000e+03 5.360222244262695312e+01 -1.094136953353881836e+00 -1.565661311149597168e+00 1.228480264544487000e-01 -4.328439831733703613e-01 1.886792033910751343e-01
2.457000000000000000e+03 4.243350219726562500e+01 -1.865011334419250488e+00 -1.487371683120727539e+00 1.325400918722152710e-02 -4.422353208065032959e-01 4.578156769275665283e-01
2.458000000000000000e+03 4.620454406738281250e+01 -1.828314065933227539e+00 -1.704693078994750977e+00 1.494556851685047150e-02 -5.069242715835571289e-01 4.243803918361663818e-01
2.459000000000000000e+03 4.626032257080078125e+01 -1.105321049690246582e+00 -1.541575908660888672e+00 2.646687626838684082e-02 -4.545327126979827881e-01 4.546239972114562988e-01
2.460000000000000000e+03 4.324344635009765625e+01 -1.105270147323608398e+00 -1.405062794685363770e+00 2.045059017837047577e-02 -4.153836369514465332e-01 4.955247938632965088e-01
2.461000000000000000e+03 3.717675018310546875e+01 -1.311906337738037109e+00 -1.065080881118774414e+00 1.153730601072311401e-02 -3.160630762577056885e-01 5.133525729179382324e-01
2.462000000000000000e+03 3.684308624267578125e+01 -1.219980335235595703e+01 -1.002821564674377441e+00 -3.855396807193756104e-02 -3.124126791954040527e-01 -4.248061776161193848e-01
2.463000000000000000e+03 3.298218917846679688e+01 -1.152964973449707031e+01 -8.964907526969909668e-01 -3.944120183587074280e-02 -2.807796001434326172e-01 -3.657858073711395264e-01
2.464000000000000000e+03 3.385305023193359375e+01 -1.227844905853271484e+01 -8.644917607307434082e-01 -4.546600952744483948e-02 -2.729873359203338623e-01 -4.057842493057250977e-01
2.465000000000000000e+03 6.031241607666015625e+01 -1.522407770156860352e+00 -8.639032244682312012e-01 7.040327191352844238e-01 -4.796114936470985413e-02 -7.710718512535095215e-01
2.466000000000000000e+03 6.167630767822265625e+01 -1.660974383354187012e+00 -5.578459501266479492e-01 1.084553599357604980e+00 1.580123007297515869e-01 -1.243385195732116699e+00
2.467000000000000000e+03 3.222406387329101562e+01 -1.155343437194824219e+01 -8.574588298797607422e-01 -3.803613036870956421e-02 -2.686484754085540771e-01 -3.606144189834594727e-01
2.468000000000000000e+03 3.309838867187500000e+01 -1.229659271240234375e+01 -8.329357504844665527e-01 -4.394092783331871033e-02 -2.630630135536193848e-01 -4.015803337097167969e-01
2.469000000000000000e+03 5.142820739746093750e+01 -1.168155908584594727e+00 -1.649250030517578125e+00 7.616741210222244263e-02 -4.719247817993164062e-01 3.083280026912689209e-01
2.470000000000000000e+03 4.925366210937500000e+01 -1.138010263442993164e+00 -1.633421778678894043e+00 4.466548189520835876e-02 -4.766269028186798096e-01 3.859489262104034424e-01
2.471000000000000000e+03 4.170388412475585938e+01 -1.147525787353515625e+00 -1.326125621795654297e+00 1.797723211348056793e-02 -3.924445211887359619e-01 5.083168148994445801e-01
2.472000000000000000e+03 4.776372146606445312e+01 -1.124880075454711914e+00 -1.594527721405029297e+00 3.309523314237594604e-02 -4.684297740459442139e-01 4.243307709693908691e-01
2.473000000000000000e+03 4.550812911987304688e+01 -1.095993399620056152e+00 -1.509823679924011230e+00 2.318807318806648254e-02 -4.459906816482543945e-01 4.673635661602020264e-01
2.474000000000000000e+03 4.475547409057617188e+01 -1.088454246520996094e+00 -1.476523995399475098e+00 2.272963337600231171e-02 -4.361383318901062012e-01 4.778879880905151367e-01
2.475000000000000000e+03 3.609337234497070312e+01 -1.221607780456542969e+01 -9.671359658241271973e-01 -4.006067290902137756e-02 -3.021589815616607666e-01 -4.214522540569305420e-01
2.476000000000000000e+03 2.990983200073242188e+01 -1.164509391784667969e+01 -7.380858063697814941e-01 -3.250323235988616943e-02 -2.311767190694808960e-01 -3.496335744857788086e-01
2.477000000000000000e+03 5.396273612976074219e+00 -6.267467498779296875e+00 3.229889553040266037e-04 8.829656144371256232e-05 1.233856601174920797e-04 3.222655213903635740e-04
2.478000000000000000e+03 6.256415176391601562e+01 -1.067922306060791016e+01 -3.311170339584350586e-01 1.285459518432617188e+00 2.863027453422546387e-01 1.495001792907714844e+00
2.479000000000000000e+03 3.003862953186035156e+01 -1.243848991394042969e+01 -6.903529763221740723e-01 -3.832148388028144836e-02 -2.186023294925689697e-01 -3.856198787689208984e-01
2.480000000000000000e+03 5.910855865478515625e+01 -1.066591167449951172e+01 -1.295528531074523926e+00 3.446333110332489014e-01 -2.852685451507568359e-01 2.984173893928527832e-01
2.481000000000000000e+03 5.993909454345703125e+01 -1.119312858581542969e+01 -8.723096847534179688e-01 5.959674715995788574e-01 -8.290266245603561401e-02 6.050348281860351562e-01
2.482000000000000000e+03 5.921063613891601562e+01 -1.130873107910156250e+01 -9.688994884490966797e-01 4.968927502632141113e-01 -1.416020244359970093e-01 4.463360905647277832e-01
2.483000000000000000e+03 1.063619613647460938e+01 5.755962371826171875e+00 1.690092467470094562e-04 -9.181089699268341064e-04 -2.247299125883728266e-04 -1.058374531567096710e-03
2.484000000000000000e+03 3.158856964111328125e+01 -1.234671211242675781e+01 -7.615986466407775879e-01 -4.345417767763137817e-02 -2.415158599615097046e-01 -3.920873105525970459e-01
2.485000000000000000e+03 5.771835327148437500e+01 -1.149017715454101562e+01 -1.144190907478332520e+00 3.400816023349761963e-01 -2.412327975034713745e-01 1.887359917163848877e-01
2.486000000000000000e+03 5.846709823608398438e+01 -1.140759754180908203e+01 -1.062734127044677734e+00 4.118250608444213867e-01 -1.952727138996124268e-01 3.087470233440399170e-01
2.487000000000000000e+03 2.676319503784179688e+01 -1.174913120269775391e+01 -5.888248085975646973e-01 -1.744170859456062317e-02 -1.818799525499343872e-01 -3.345253467559814453e-01
2.488000000000000000e+03 2.597680091857910156e+01 -1.177373313903808594e+01 -5.537261366844177246e-01 -1.348893437534570694e-02 -1.701645106077194214e-01 -3.303879499435424805e-01
2.489000000000000000e+03 2.687006568908691406e+01 -1.259947013854980469e+01 -5.601465106010437012e-01 -2.361641637980937958e-02 -1.751288771629333496e-01 -3.688752651214599609e-01
2.490000000000000000e+03 6.164589309692382812e+01 -1.056228160858154297e+00 -3.909594714641571045e-01 1.316848278045654297e+00 2.777666151523590088e-01 -1.379683136940002441e+00
2.491000000000000000e+03 2.925922012329101562e+01 -1.249954605102539062e+01 -6.570368409156799316e-01 -3.604046255350112915e-02 -2.079231888055801392e-01 -3.823456764221191406e-01
2.492000000000000000e+03 6.063373947143554688e+01 -1.106194400787353516e+01 -7.583069801330566406e-01 7.120099663734436035e-01 -1.388910692185163498e-02 7.756304740905761719e-01
2.493000000000000000e+03 2.766704368591308594e+01 -1.256787109375000000e+01 -5.911579728126525879e-01 -2.770480699837207794e-02 -1.856588423252105713e-01 -3.734416067600250244e-01
2.494000000000000000e+03 2.847058105468750000e+01 -1.254158782958984375e+01 -6.225745677947998047e-01 -3.227549418807029724e-02 -1.964550167322158813e-01 -3.784184753894805908e-01
2.495000000000000000e+03 2.366885185241699219e+01 -1.191489219665527344e+01 -4.627548456192016602e-01 -8.864143863320350647e-03 -1.414857059717178345e-01 -3.162583112716674805e-01
2.496000000000000000e+03 2.226881217956542969e+01 -1.200227642059326172e+01 -4.203739464282989502e-01 -1.267226506024599075e-02 -1.299138665199279785e-01 -3.034217655658721924e-01
2.497000000000000000e+03 2.018840599060058594e+01 -1.487216949462890625e+01 -3.645116686820983887e-01 -7.757961750030517578e-02 -1.326273828744888306e-01 -3.306502401828765869e-01
2.498000000000000000e+03 2.532070541381835938e+01 -1.267829132080078125e+01 -5.023919343948364258e-01 -1.849654130637645721e-02 -1.562665402889251709e-01 -3.586753606796264648e-01
2.499000000000000000e+03 2.010595130920410156e+01 -1.259812450408935547e+01 -3.652139902114868164e-01 -4.792715609073638916e-02 -1.239423453807830811e-01 -2.950073778629302979e-01
2.500000000000000000e+03 2.300896835327148438e+01 -1.295190048217773438e+01 -4.354159533977508545e-01 -2.104342915117740631e-02 -1.369378119707107544e-01 -3.391211032867431641e-01
2.501000000000000000e+03 1.101383590698242188e+01 6.798627853393554688e+00 8.712386625120416284e-05 -1.191575778648257256e-03 -3.313355846330523491e-04 -7.781067979522049427e-04
2.502000000000000000e+03 7.517356872558593750e+00 9.938719749450683594e+00 -2.444991841912269592e-04 2.160232979804277420e-03 5.747201503254473209e-04 2.431119210086762905e-04
2.503000000000000000e+03 6.752716541290283203e+00 1.086266899108886719e+01 2.011510310694575310e-03 -2.131354558514431119e-04 5.395124899223446846e-04 3.664786461740732193e-03
2.504000000000000000e+03 2.203420829772949219e+01 7.128712534904479980e-01 -1.291470825672149658e-01 -3.048631250858306885e-01 -1.302030533552169800e-01 3.162014484405517578e-01
2.505000000000000000e+03 2.167163085937500000e+01 -2.257024496793746948e-01 -9.995411336421966553e-02 -2.434021234512329102e-01 -1.030068695545196533e-01 2.386525571346282959e-01
2.506000000000000000e+03 7.513733673095703125e+01 -6.650491237640380859e+00 1.782977342605590820e+00 8.233056068420410156e+00 3.004809856414794922e+00 -1.000231206417083740e-01
2.507000000000000000e+03 7.521090698242187500e+01 -4.486670970916748047e+00 1.221399307250976562e+00 8.334301948547363281e+00 2.866710424423217773e+00 1.063908100128173828e+00
2.508000000000000000e+03 7.536418151855468750e+01 -7.973015785217285156e+00 1.275400996208190918e+00 8.210461616516113281e+00 2.845758914947509766e+00 -9.466905593872070312e-01
2.509000000000000000e+03 7.575790405273437500e+01 -2.752100706100463867e+00 4.371297955513000488e-01 8.191967964172363281e+00 2.588729381561279297e+00 1.397493362426757812e+00
2.510000000000000000e+03 7.549174499511718750e+01 -8.534863471984863281e+00 1.133030652999877930e+00 8.211196899414062500e+00 2.803268194198608398e+00 -1.134430527687072754e+00
2.511000000000000000e+03 7.494673919677734375e+01 -8.311394691467285156e+00 1.387032866477966309e+00 8.540714263916015625e+00 2.978324174880981445e+00 -1.142291307449340820e+00
2.512000000000000000e+03 2.233315849304199219e+01 1.939248275756835938e+01 -2.382740080356597900e-01 -6.591700315475463867e-01 -2.692332267761230469e-01 3.794459700584411621e-01
2.513000000000000000e+03 2.221275711059570312e+01 -1.523569488525390625e+01 -3.784388899803161621e-01 -5.819183588027954102e-02 -1.309892088174819946e-01 -3.679257035255432129e-01
2.514000000000000000e+03 1.990412139892578125e+01 -1.602530860900878906e+01 -3.410028815269470215e-01 -1.009034886956214905e-01 -1.325719058513641357e-01 -3.346515893936157227e-01
2.515000000000000000e+03 6.341210365295410156e+00 2.106431198120117188e+01 -2.465784847736358643e-01 -1.178996339440345764e-01 -1.093434318900108337e-01 2.029328793287277222e-01
2.516000000000000000e+03 4.697252750396728516e+00 7.125282287597656250e+00 8.083879365585744381e-04 -3.738134400919079781e-04 1.303723547607660294e-04 -1.908610829559620470e-05
2.517000000000000000e+03 2.432375526428222656e+01 3.484426021575927734e+00 -2.971970140933990479e-01 -3.500156104564666748e-01 -1.941637843847274780e-01 5.711901187896728516e-01
2.518000000000000000e+03 9.591231346130371094e+00 7.164870738983154297e+00 6.344723515212535858e-04 -1.316484645940363407e-03 -2.046036825049668550e-04 -9.396087261848151684e-05
2.519000000000000000e+03 6.955442810058593750e+01 -2.655421066284179688e+01 -6.536444276571273804e-02 6.369627475738525391e+00 1.891278862953186035e+00 5.910654664039611816e-01
2.520000000000000000e+03 6.890167236328125000e+01 -3.345102310180664062e+01 2.130982279777526855e-01 5.833720207214355469e+00 1.814045548439025879e+00 3.831669688224792480e-01
2.521000000000000000e+03 7.435732269287109375e+01 1.501529216766357422e+00 -7.250872254371643066e-01 9.022381782531738281e+00 2.489188432693481445e+00 9.659931659698486328e-01
2.522000000000000000e+03 7.174907684326171875e+01 -3.279468917846679688e+01 1.023433208465576172e-01 6.672551155090332031e+00 2.032468318939208984e+00 3.411071598529815674e-01
2.523000000000000000e+03 7.369839477539062500e+01 -3.487415313720703125e+01 7.126361876726150513e-02 7.073796749114990234e+00 2.143517971038818359e+00 2.519855499267578125e-01
2.524000000000000000e+03 7.394618988037109375e+01 -2.282820320129394531e+01 -2.794678211212158203e-01 7.836174488067626953e+00 2.267012119293212891e+00 1.938615888357162476e-01
2.525000000000000000e+03 7.426684570312500000e+01 -1.772084999084472656e+01 -6.566532850265502930e-01 8.518717765808105469e+00 2.358619213104248047e+00 -3.433287441730499268e-01
2.526000000000000000e+03 7.429711151123046875e+01 -1.639523696899414062e+01 -7.376507520675659180e-01 8.729125022888183594e+00 2.397442340850830078e+00 -5.534040331840515137e-01
2.527000000000000000e+03 8.428812980651855469e+00 2.831745529174804688e+01 5.942038446664810181e-02 -6.078397631645202637e-01 -1.645258218050003052e-01 3.866818249225616455e-01
2.528000000000000000e+03 9.839978218078613281e+00 3.201178741455078125e+01 1.597757786512374878e-01 -6.919087767601013184e-01 -1.596398949623107910e-01 3.148900270462036133e-01
2.529000000000000000e+03 7.198942565917968750e+01 1.086621284484863281e+01 -3.300702273845672607e-01 7.206188678741455078e+00 2.062835693359375000e+00 -5.345581173896789551e-01
2.530000000000000000e+03 7.336535644531250000e+01 9.538613319396972656e+00 -3.822124004364013672e-01 7.687339305877685547e+00 2.191538095474243164e+00 -3.063930571079254150e-01
2.531000000000000000e+03 7.117041015625000000e+01 1.787468910217285156e+01 1.930438168346881866e-02 6.424021244049072266e+00 1.932997584342956543e+00 -6.092066764831542969e-01
2.532000000000000000e+03 7.269151306152343750e+01 1.646258354187011719e+01 -3.664487972855567932e-02 6.906932830810546875e+00 2.061086416244506836e+00 -5.274481177330017090e-01
2.533000000000000000e+03 7.417780303955078125e+01 2.642315673828125000e+01 6.845677644014358521e-02 6.733648777008056641e+00 2.040631771087646484e+00 -3.181711435317993164e-01
2.534000000000000000e+03 7.242684936523437500e+01 2.337880611419677734e+00 -1.148468136787414551e+00 9.245800971984863281e+00 2.429199934005737305e+00 2.316665202379226685e-01
2.535000000000000000e+03 7.471735382080078125e+01 -1.257131481170654297e+01 -4.134787321090698242e-01 9.145277976989746094e+00 2.619539737701416016e+00 -1.381349444389343262e+00
2.536000000000000000e+03 7.538050079345703125e+01 -1.010831737518310547e+01 4.489183127880096436e-01 8.520424842834472656e+00 2.690802812576293945e+00 -1.501620292663574219e+00
2.537000000000000000e+03 7.347969055175781250e+01 8.204740524291992188e+00 -4.815410673618316650e-01 7.885176181793212891e+00 2.221090555191040039e+00 -1.955559402704238892e-01
2.538000000000000000e+03 7.251652526855468750e+01 2.862558174133300781e+01 1.066696420311927795e-01 6.315099716186523438e+00 1.926530718803405762e+00 -3.302594125270843506e-01
2.539000000000000000e+03 7.268974304199218750e+01 -2.686048889160156250e+01 -7.979427278041839600e-02 7.211616992950439453e+00 2.139546871185302734e+00 3.891670703887939453e-01
2.540000000000000000e+03 7.413514709472656250e+01 -2.034019851684570312e+01 -4.441244304180145264e-01 8.145927429199218750e+00 2.310540914535522461e+00 -1.862868107855319977e-02
2.541000000000000000e+03 7.424526977539062500e+01 1.368795490264892578e+01 -1.077906861901283264e-01 7.487744331359863281e+00 2.213986158370971680e+00 -3.904084265232086182e-01
2.542000000000000000e+03 7.445956420898437500e+01 -1.372651100158691406e+01 -6.632375717163085938e-01 9.127543449401855469e+00 2.539291858673095703e+00 -1.110050916671752930e+00
2.543000000000000000e+03 6.057910442352294922e+00 2.747109222412109375e+01 2.384221414104104042e-03 -4.879857003688812256e-01 -1.456804424524307251e-01 3.361008167266845703e-01
2.544000000000000000e+03 7.576168823242187500e+01 -1.710615992546081543e+00 8.619563281536102295e-02 8.332060813903808594e+00 2.525477170944213867e+00 1.470495343208312988e+00
2.545000000000000000e+03 7.404586029052734375e+01 -1.315412521362304688e+00 -1.883323341608047485e-01 9.567167282104492188e+00 2.813650608062744141e+00 1.480499982833862305e+00
2.546000000000000000e+03 7.475392913818359375e+01 6.866055965423583984e+00 -4.610140919685363770e-01 8.217839241027832031e+00 2.327047586441040039e+00 1.014411449432373047e-01
2.547000000000000000e+03 7.357651519775390625e+01 6.896437644958496094e+00 -5.910243988037109375e-01 8.099575996398925781e+00 2.252565622329711914e+00 -5.983887612819671631e-02
2.548000000000000000e+03 7.477281951904296875e+01 -9.335246086120605469e-01 -2.280632853507995605e-01 9.059678077697753906e+00 2.649484634399414062e+00 1.453640341758728027e+00
2.549000000000000000e+03 7.408248901367187500e+01 -2.159437942504882812e+01 -3.754937648773193359e-01 8.002559661865234375e+00 2.288119554519653320e+00 1.032508313655853271e-01
2.550000000000000000e+03 1.010183811187744141e+01 2.052018356323242188e+01 -4.659272432327270508e-01 -4.949074089527130127e-01 -2.882503867149353027e-01 5.822305679321289062e-01
2.551000000000000000e+03 6.414050102233886719e+00 -2.615962982177734375e+01 -2.005867660045623779e-03 -2.586612105369567871e-01 -7.820012420415878296e-02 -1.948298960924148560e-01
2.552000000000000000e+03 8.569834709167480469e+00 -2.367127037048339844e+01 -4.588059335947036743e-02 -2.723112702369689941e-01 -9.545755386352539062e-02 -2.490593641996383667e-01
2.553000000000000000e+03 7.430151367187500000e+01 -1.503459835052490234e+01 -7.636454105377197266e-01 8.984756469726562500e+00 2.466333389282226562e+00 -8.260702490806579590e-01
2.554000000000000000e+03 6.229303836822509766e+00 -6.437458992004394531e+00 -1.250785717274993658e-04 3.286862047389149666e-04 6.108229717938229442e-05 -1.678924490988720208e-05
2.555000000000000000e+03 4.719922542572021484e+00 -7.459376811981201172e+00 3.756125515792518854e-04 1.509900321252644062e-04 1.579807722009718418e-04 3.079919260926544666e-04
2.556000000000000000e+03 7.374414920806884766e+00 8.447581291198730469e+00 -6.433109956560656428e-05 1.471305731683969498e-03 4.220924165565520525e-04 -8.054895442910492420e-05
2.557000000000000000e+03 5.650166988372802734e+00 7.516168594360351562e+00 4.330962838139384985e-04 4.446085949894040823e-04 2.633114636410027742e-04 -7.145957351895049214e-05
2.558000000000000000e+03 6.534209728240966797e+00 7.941169738769531250e+00 9.971137624233961105e-04 -6.113524432294070721e-04 1.157284059445373714e-04 6.894681719131767750e-04
2.559000000000000000e+03 2.570170974731445312e+01 8.240819931030273438e+00 -4.311812222003936768e-01 -3.692123293876647949e-01 -2.401180714368820190e-01 7.138151526451110840e-01
2.560000000000000000e+03 2.314091873168945312e+01 8.286510467529296875e+00 -4.175972938537597656e-01 -5.814462900161743164e-01 -2.997130751609802246e-01 6.817726492881774902e-01
2.561000000000000000e+03 9.024276733398437500e+00 -2.147896575927734375e+01 -1.013750657439231873e-01 -2.752617001533508301e-01 -1.129910275340080261e-01 -2.664680182933807373e-01
2.562000000000000000e+03 2.133586883544921875e+01 -1.251106929779052734e+01 -3.937092125415802002e-01 -2.806297689676284790e-02 -1.265316605567932129e-01 -3.084885776042938232e-01
2.563000000000000000e+03 2.216578292846679688e+01 -1.289375686645507812e+01 -4.160085320472717285e-01 -2.433572337031364441e-02 -1.321032792329788208e-01 -3.284547030925750732e-01
2.564000000000000000e+03 1.272408008575439453e+01 -2.296308517456054688e+01 -6.320019811391830444e-02 -3.261328637599945068e-01 -1.167999133467674255e-01 -2.617470026016235352e-01
2.565000000000000000e+03 1.407997703552246094e+01 -2.135339927673339844e+01 -1.394201517105102539e-01 -3.125049769878387451e-01 -1.355775296688079834e-01 -2.537745535373687744e-01
2.566000000000000000e+03 1.876349258422851562e+01 -1.976550292968750000e+01 -2.138691395521163940e-01 -1.882851123809814453e-01 -1.206462755799293518e-01 -3.179875016212463379e-01
2.567000000000000000e+03 1.761852073669433594e+01 2.261977005004882812e+01 -4.973068460822105408e-02 -9.165272712707519531e-01 -2.898773849010467529e-01 3.883432745933532715e-01
2.568000000000000000e+03 9.051319122314453125e+00 2.349661445617675781e+01 -1.402902156114578247e-01 -5.104127526283264160e-01 -1.952109038829803467e-01 4.805727005004882812e-01
2.569000000000000000e+03 1.198544025421142578e+01 2.344128036499023438e+01 -8.956290781497955322e-02 -8.002126216888427734e-01 -2.669326663017272949e-01 5.432097315788269043e-01
2.570000000000000000e+03 2.463002967834472656e+01 1.730213546752929688e+01 -2.693580985069274902e-01 -4.749052524566650391e-01 -2.232789993286132812e-01 4.536289870738983154e-01
2.571000000000000000e+03 2.544101333618164062e+01 4.831802368164062500e+00 -3.659431636333465576e-01 -3.300496935844421387e-01 -2.087978571653366089e-01 6.571197509765625000e-01
2.572000000000000000e+03 8.520595550537109375e+00 -3.050884819030761719e+01 5.836743488907814026e-02 -3.451575934886932373e-01 -8.603705465793609619e-02 -1.950632929801940918e-01
2.573000000000000000e+03 6.442688465118408203e+00 -2.998543548583984375e+01 3.403107076883316040e-02 -3.283810317516326904e-01 -8.830498903989791870e-02 -1.758552640676498413e-01
2.574000000000000000e+03 1.504845333099365234e+01 2.408801269531250000e+01 2.545141614973545074e-02 -9.105330109596252441e-01 -2.655244767665863037e-01 4.515481293201446533e-01
2.575000000000000000e+03 1.436286926269531250e+01 2.263351821899414062e+01 -1.024933755397796631e-01 -9.475666284561157227e-01 -3.150179982185363770e-01 5.038120746612548828e-01
2.576000000000000000e+03 1.725723457336425781e+01 -2.103918457031250000e+01 -1.551274359226226807e-01 -2.432982027530670166e-01 -1.195276901125907898e-01 -2.925442457199096680e-01
2.577000000000000000e+03 2.470396614074707031e+01 6.767362594604492188e+00 -3.929887115955352783e-01 -4.159352481365203857e-01 -2.426771819591522217e-01 6.885635256767272949e-01
2.578000000000000000e+03 2.267408943176269531e+01 1.237633991241455078e+01 -5.245080590248107910e-01 -6.550683975219726562e-01 -3.538729548454284668e-01 6.397224664688110352e-01
2.579000000000000000e+03 5.365674972534179688e+00 -1.372836208343505859e+01 4.825251176953315735e-03 -6.233552005141973495e-03 -4.224902077112346888e-04 -3.192523727193474770e-03
2.580000000000000000e+03 6.707664012908935547e+00 2.225643539428710938e+01 -2.033121883869171143e-01 -2.519594430923461914e-01 -1.365814805030822754e-01 3.297503590583801270e-01
2.581000000000000000e+03 7.234483337402343750e+01 2.072821426391601562e+01 5.769595503807067871e-02 6.578979969024658203e+00 1.991002798080444336e+00 -5.019943118095397949e-01
2.582000000000000000e+03 7.388446331024169922e+00 -2.928951263427734375e+01 3.727642819285392761e-02 -3.236499428749084473e-01 -8.591205626726150513e-02 -1.959866881370544434e-01
2.583000000000000000e+03 1.122664165496826172e+01 -2.445520782470703125e+01 -1.517421938478946686e-02 -3.252923488616943359e-01 -1.021399646997451782e-01 -2.594007551670074463e-01
2.584000000000000000e+03 6.784954833984375000e+01 -8.973034858703613281e+00 -3.927792608737945557e-01 1.264369487762451172e+01 3.675274610519409180e+00 4.733930587768554688e+00
2.585000000000000000e+03 6.677291107177734375e+01 -9.420350074768066406e+00 3.574538528919219971e-01 7.361231803894042969e+00 2.315605640411376953e+00 4.772126197814941406e+00
2.586000000000000000e+03 6.671168518066406250e+01 -9.876287460327148438e+00 8.080904930830001831e-02 7.281746387481689453e+00 2.208766698837280273e+00 4.456342697143554688e+00
2.587000000000000000e+03 6.847609710693359375e+01 -8.838545799255371094e+00 -8.222433924674987793e-01 1.560044193267822266e+01 4.433459758758544922e+00 3.099322319030761719e+00
2.588000000000000000e+03 6.600927734375000000e+01 -2.976847648620605469e+00 3.859133422374725342e-01 5.105817794799804688e+00 1.647519350051879883e+00 -4.092680931091308594e+00
2.589000000000000000e+03 6.848783874511718750e+01 -3.663744688034057617e+00 -9.621356129646301270e-01 1.492851066589355469e+01 4.189912796020507812e+00 -3.002913475036621094e+00
2.590000000000000000e+03 7.097108459472656250e+01 -7.115652084350585938e+00 5.598474502563476562e+00 1.298359394073486328e+01 5.574620723724365234e+00 -1.355890631675720215e+00
2.591000000000000000e+03 6.987039184570312500e+01 -3.684890508651733398e+00 4.099172353744506836e-02 1.523886680603027344e+01 4.583957672119140625e+00 5.751963853836059570e-01
2.592000000000000000e+03 6.892019653320312500e+01 -9.216211318969726562e+00 -9.784460067749023438e-01 1.543637466430664062e+01 4.337378501892089844e+00 1.803560495376586914e+00
2.593000000000000000e+03 6.648096466064453125e+01 -9.178110122680664062e+00 7.760714292526245117e-01 5.921005249023437500e+00 2.009123086929321289e+00 4.701440811157226562e+00
2.594000000000000000e+03 6.998347473144531250e+01 -4.035728931427001953e+00 7.787339091300964355e-01 1.559636688232421875e+01 4.912530422210693359e+00 1.173563241958618164e+00
2.595000000000000000e+03 6.869116210937500000e+01 -3.808057069778442383e+00 -9.367945194244384766e-01 1.577709293365478516e+01 4.452089309692382812e+00 -2.547516107559204102e+00
2.596000000000000000e+03 7.390183258056640625e+01 -1.232900333404541016e+01 -4.970544576644897461e-01 9.622012138366699219e+00 2.737487316131591797e+00 -1.336811423301696777e+00
2.597000000000000000e+03 6.990734863281250000e+01 -8.761350631713867188e+00 6.793683767318725586e-01 1.572067451477050781e+01 4.920012950897216797e+00 -1.034259319305419922e+00
2.598000000000000000e+03 7.005429077148437500e+01 -4.338205337524414062e+00 1.631237745285034180e+00 1.591022014617919922e+01 5.262437343597412109e+00 1.672378778457641602e+00
2.599000000000000000e+03 7.066695404052734375e+01 -5.132129192352294922e+00 4.474438667297363281e+00 1.413520908355712891e+01 5.582894325256347656e+00 2.088678359985351562e+00
2.600000000000000000e+03 7.082174682617187500e+01 -5.414081096649169922e+00 5.152691841125488281e+00 1.355008125305175781e+01 5.610831737518310547e+00 1.784730434417724609e+00
2.601000000000000000e+03 7.437068176269531250e+01 -9.296574592590332031e+00 1.031747817993164062e+00 9.175415992736816406e+00 3.062149286270141602e+00 -1.460852980613708496e+00
2.602000000000000000e+03 6.753369903564453125e+01 -3.317055225372314453e+00 -4.425292313098907471e-01 1.055784988403320312e+01 3.034596204757690430e+00 -4.677548885345458984e+00
2.603000000000000000e+03 6.675183105468750000e+01 -4.145874500274658203e+00 1.247190833091735840e+00 6.320030689239501953e+00 2.270166397094726562e+00 -5.292082786560058594e+00
2.604000000000000000e+03 6.640443420410156250e+01 -3.990384817123413086e+00 1.117028951644897461e+00 5.244172096252441406e+00 1.908360362052917480e+00 -4.732447147369384766e+00
2.605000000000000000e+03 6.358774566650390625e+01 -1.062795925140380859e+01 -7.553241681307554245e-03 1.971149682998657227e+00 5.890789031982421875e-01 2.088372468948364258e+00
2.606000000000000000e+03 6.491416931152343750e+01 -9.064175605773925781e+00 2.441060990095138550e-01 1.917458891868591309e+00 6.484695076942443848e-01 2.528430938720703125e+00
2.607000000000000000e+03 6.479211425781250000e+01 -2.991452693939208984e+00 2.452607005834579468e-01 2.612544298171997070e+00 8.573415279388427734e-01 -2.844434261322021484e+00
2.608000000000000000e+03 6.416754913330078125e+01 -1.008243942260742188e+01 6.128682196140289307e-02 2.088464736938476562e+00 6.449254751205444336e-01 2.326329469680786133e+00
2.609000000000000000e+03 2.489361000061035156e+01 6.223923340439796448e-02 -2.859745323657989502e-01 -1.887506842613220215e-01 -1.424175649881362915e-01 4.214257299900054932e-01
2.610000000000000000e+03 6.141060256958007812e+01 -1.150017166137695312e+01 -4.191958010196685791e-01 1.137786746025085449e+00 2.155772894620895386e-01 1.150848388671875000e+00
2.611000000000000000e+03 6.392471694946289062e+01 -1.044539356231689453e+01 3.118859045207500458e-02 2.116162300109863281e+00 6.442052721977233887e-01 2.265650510787963867e+00
2.612000000000000000e+03 2.509090232849121094e+01 -8.779705762863159180e-01 -2.865984141826629639e-01 -1.486709862947463989e-01 -1.305808126926422119e-01 3.723989725112915039e-01
2.613000000000000000e+03 6.423809814453125000e+01 -2.398834228515625000e+00 2.824584580957889557e-02 2.381959915161132812e+00 7.230617403984069824e-01 -2.512636899948120117e+00
2.614000000000000000e+03 2.566941070556640625e+01 -9.589235782623291016e-01 -3.243364989757537842e-01 -1.326674520969390869e-01 -1.371011883020401001e-01 3.913871943950653076e-01
2.615000000000000000e+03 2.559788703918457031e+01 -1.575750350952148438e+00 -3.138290345668792725e-01 -1.136197075247764587e-01 -1.282346248626708984e-01 3.508814871311187744e-01
2.616000000000000000e+03 9.147267341613769531e+00 5.869388580322265625e+00 2.916310913860797882e-04 -7.432631682604551315e-04 -1.354896230623126030e-04 -9.521329775452613831e-04
2.617000000000000000e+03 7.545629119873046875e+01 -7.146607398986816406e+00 1.439436674118041992e+00 8.001902580261230469e+00 2.832401752471923828e+00 -4.067286252975463867e-01
2.618000000000000000e+03 7.566728973388671875e+01 -1.069325447082519531e+01 2.435736507177352905e-01 8.421273231506347656e+00 2.599453926086425781e+00 -1.474770784378051758e+00
2.619000000000000000e+03 2.755078506469726562e+01 -1.513064026832580566e+00 -4.378068745136260986e-01 -7.780423760414123535e-02 -1.546833366155624390e-01 4.107042253017425537e-01
2.620000000000000000e+03 2.625043106079101562e+01 -1.002337813377380371e+00 -3.545299172401428223e-01 -1.193052008748054504e-01 -1.421505361795425415e-01 4.045854210853576660e-01
2.621000000000000000e+03 7.510995483398437500e+01 -6.041203022003173828e+00 1.802978157997131348e+00 8.253401756286621094e+00 3.016913890838623047e+00 1.862470060586929321e-01
2.622000000000000000e+03 7.572125244140625000e+01 -6.010156154632568359e+00 1.373341441154479980e+00 7.793041229248046875e+00 2.749914884567260742e+00 1.801982223987579346e-01
2.623000000000000000e+03 7.450402832031250000e+01 -4.157816410064697266e+00 1.348996043205261230e+00 8.953176498413085938e+00 3.090651750564575195e+00 1.302799940109252930e+00
2.624000000000000000e+03 2.875264739990234375e+01 6.620188355445861816e-01 -4.922569990158081055e-01 -1.017747893929481506e-01 -1.782095283269882202e-01 5.615436434745788574e-01
2.625000000000000000e+03 6.146891117095947266e+00 6.678426265716552734e+00 7.572456379421055317e-04 -5.893775960430502892e-04 5.036040602135472000e-05 2.265282819280400872e-04
2.626000000000000000e+03 2.821793365478515625e+01 -6.170140504837036133e-01 -4.741878211498260498e-01 -8.697637915611267090e-02 -1.683492511510848999e-01 4.799138605594635010e-01
2.627000000000000000e+03 2.826780700683593750e+01 -1.425873517990112305e+00 -4.805698990821838379e-01 -6.678947061300277710e-02 -1.642078161239624023e-01 4.292003810405731201e-01
2.628000000000000000e+03 6.297042846679687500e+01 -1.730761170387268066e+00 -2.290450632572174072e-01 1.730120778083801270e+00 4.503227174282073975e-01 -1.857791662216186523e+00
2.629000000000000000e+03 3.205417251586914062e+01 -1.477154016494750977e+00 -7.298912405967712402e-01 -1.601390913128852844e-02 -2.237715423107147217e-01 4.843636155128479004e-01
2.630000000000000000e+03 3.057388114929199219e+01 -5.733441114425659180e-01 -6.116933822631835938e-01 -4.382556304335594177e-02 -1.966556906700134277e-01 5.238032937049865723e-01
2.631000000000000000e+03 2.901580238342285156e+01 -6.168090701103210449e-01 -5.159438848495483398e-01 -7.319413870573043823e-02 -1.767414063215255737e-01 4.958707690238952637e-01
2.632000000000000000e+03 3.157469367980957031e+01 2.280364930629730225e-02 -6.559488773345947266e-01 -3.483970835804939270e-02 -2.072365731000900269e-01 5.680073499679565430e-01
2.633000000000000000e+03 3.129966354370117188e+01 -1.419600129127502441e+00 -6.762413978576660156e-01 -2.463324368000030518e-02 -2.102623879909515381e-01 4.799174368381500244e-01
2.634000000000000000e+03 6.129617691040039062e+01 -1.092171096801757812e+01 -6.438863873481750488e-01 8.681958317756652832e-01 6.729283928871154785e-02 9.671568870544433594e-01
2.635000000000000000e+03 6.210683822631835938e+01 -1.187750530242919922e+01 -1.685194522142410278e-01 1.642708063125610352e+00 4.422565698623657227e-01 1.567862272262573242e+00
2.636000000000000000e+03 3.352608108520507812e+01 -1.522824764251708984e+00 -8.320175409317016602e-01 -3.244288032874464989e-03 -2.505785524845123291e-01 4.916392862796783447e-01
2.637000000000000000e+03 3.215958023071289062e+01 -7.926510572433471680e-01 -7.133626341819763184e-01 -2.053756266832351685e-02 -2.201700657606124878e-01 5.276993513107299805e-01
2.638000000000000000e+03 4.445189666748046875e+01 -1.270324802398681641e+01 -1.182543992996215820e+00 -4.429222084581851959e-03 -3.560919463634490967e-01 -4.515666067600250244e-01
2.639000000000000000e+03 4.360461807250976562e+01 -1.198076629638671875e+01 -1.303228020668029785e+00 -1.415415387600660324e-02 -3.952146470546722412e-01 -4.346594214439392090e-01
2.640000000000000000e+03 6.982819080352783203e+00 -7.021529197692871094e+00 2.671645779628306627e-04 -2.398239303147420287e-04 8.202198841900099069e-06 -1.804675994208082557e-04
2.641000000000000000e+03 4.655456542968750000e+01 -1.187306308746337891e+01 -1.407173037528991699e+00 1.103731617331504822e-02 -4.188407063484191895e-01 -4.162718653678894043e-01
2.642000000000000000e+03 4.964003372192382812e+01 -1.268333816528320312e+01 -1.225580453872680664e+00 6.535922735929489136e-02 -3.480663597583770752e-01 -3.556251525878906250e-01
2.643000000000000000e+03 4.388242340087890625e+01 -1.362021541595458984e+01 -1.000746607780456543e+00 -6.303387694060802460e-03 -3.021149933338165283e-01 -4.685634076595306396e-01
2.644000000000000000e+03 4.663324737548828125e+01 -1.261270332336425781e+01 -1.240088224411010742e+00 2.101686224341392517e-02 -3.657214045524597168e-01 -4.261425137519836426e-01
2.645000000000000000e+03 5.040323257446289062e+01 -1.266809749603271484e+01 -1.218830585479736328e+00 7.519876956939697266e-02 -3.430895507335662842e-01 -3.320080935955047607e-01
2.646000000000000000e+03 3.428435134887695312e+01 -8.297000527381896973e-01 -8.465594053268432617e-01 -1.456174184568226337e-03 -2.544046640396118164e-01 5.396245718002319336e-01
2.647000000000000000e+03 3.499029159545898438e+01 -7.622776031494140625e-01 -8.850769400596618652e-01 2.462337957695126534e-03 -2.647843658924102783e-01 5.458025932312011719e-01
2.648000000000000000e+03 4.581153106689453125e+01 -1.188266086578369141e+01 -1.388820290565490723e+00 5.299766082316637039e-03 -4.150561392307281494e-01 -4.225445091724395752e-01
2.649000000000000000e+03 4.212841033935546875e+01 -1.204511833190917969e+01 -1.239712715148925781e+00 -2.199758961796760559e-02 -3.785130977630615234e-01 -4.361967444419860840e-01
2.650000000000000000e+03 4.071332550048828125e+01 -1.286304187774658203e+01 -1.048605084419250488e+00 -2.274102531373500824e-02 -3.214038312435150146e-01 -4.648550748825073242e-01
2.651000000000000000e+03 3.985016250610351562e+01 -1.212629699707031250e+01 -1.138067483901977539e+00 -2.672043256461620331e-02 -3.494363725185394287e-01 -4.365353286266326904e-01
2.652000000000000000e+03 5.115358734130859375e+01 -1.263015556335449219e+01 -1.216778397560119629e+00 9.354245662689208984e-02 -3.369707763195037842e-01 -3.036958873271942139e-01
2.653000000000000000e+03 4.878950500488281250e+01 -1.189516067504882812e+01 -1.440212368965148926e+00 3.356831893324851990e-02 -4.219931960105895996e-01 -3.824050724506378174e-01
2.654000000000000000e+03 5.189070510864257812e+01 -1.256967735290527344e+01 -1.212028503417968750e+00 1.101417466998100281e-01 -3.305660486221313477e-01 -2.674217522144317627e-01
2.655000000000000000e+03 5.262089538574218750e+01 -1.249733638763427734e+01 -1.203322529792785645e+00 1.270310133695602417e-01 -3.228874504566192627e-01 -2.314817011356353760e-01
2.656000000000000000e+03 4.737025833129882812e+01 -1.263309860229492188e+01 -1.238059520721435547e+00 2.938561886548995972e-02 -3.626021742820739746e-01 -4.160963892936706543e-01
2.657000000000000000e+03 3.497853851318359375e+01 -5.715740099549293518e-02 -8.400619029998779297e-01 1.976099592866376042e-04 -2.519592940807342529e-01 5.851749181747436523e-01
2.658000000000000000e+03 5.546548080444335938e+01 -1.163076210021972656e+01 -1.331791162490844727e+00 1.873513460159301758e-01 -3.433319330215454102e-01 -7.302002608776092529e-02
2.659000000000000000e+03 3.767993545532226562e+01 -1.298909759521484375e+01 -9.334670305252075195e-01 -3.941366448998451233e-02 -2.918642163276672363e-01 -4.597264528274536133e-01
2.660000000000000000e+03 5.628493881225585938e+01 -1.230276298522949219e+01 -1.005840420722961426e+00 3.157090842723846436e-01 -2.070394009351730347e-01 8.012817054986953735e-02
2.661000000000000000e+03 5.817704391479492188e+01 -5.496444702148437500e-01 -9.097050428390502930e-01 5.328586101531982422e-01 -1.130539402365684509e-01 -4.295835494995117188e-01
2.662000000000000000e+03 3.534305953979492188e+01 -1.223884868621826172e+01 -9.338467121124267578e-01 -4.335062578320503235e-02 -2.931592166423797607e-01 -4.161983430385589600e-01
2.663000000000000000e+03 3.773768234252929688e+01 -1.385497188568115234e+01 -8.227584958076477051e-01 -4.303858801722526550e-02 -2.597391307353973389e-01 -4.892758727073669434e-01
2.664000000000000000e+03 3.792406845092773438e+01 -1.272525906562805176e+00 -1.109487414360046387e+00 1.158568449318408966e-02 -3.293705284595489502e-01 5.152065753936767578e-01
2.665000000000000000e+03 5.334608078002929688e+01 -1.242471218109130859e+01 -1.193599104881286621e+00 1.493878811597824097e-01 -3.132633566856384277e-01 -1.903077363967895508e-01
2.666000000000000000e+03 5.510516738891601562e+01 -1.082478046417236328e+00 -1.469215989112854004e+00 1.837831437587738037e-01 -3.856298625469207764e-01 7.049640268087387085e-02
2.667000000000000000e+03 3.867150115966796875e+01 -1.240493893623352051e+00 -1.154756665229797363e+00 1.289394870400428772e-02 -3.425588011741638184e-01 5.155549049377441406e-01
2.668000000000000000e+03 5.553602218627929688e+01 -1.232516288757324219e+01 -1.071085810661315918e+00 2.620542645454406738e-01 -2.427094429731369019e-01 -4.057209007441997528e-03
2.669000000000000000e+03 5.431882858276367188e+01 -3.285047113895416260e-01 -1.259841084480285645e+00 2.122822999954223633e-01 -3.142676353454589844e-01 8.590026944875717163e-02
2.670000000000000000e+03 5.508710098266601562e+01 -3.342787623405456543e-01 -1.198816895484924316e+00 2.549317181110382080e-01 -2.831655442714691162e-01 1.075361855328083038e-02
2.671000000000000000e+03 5.142826080322265625e+01 -4.850392937660217285e-01 -1.429079413414001465e+00 1.133390441536903381e-01 -3.947221040725708008e-01 2.940959036350250244e-01
2.672000000000000000e+03 3.459807586669921875e+01 -1.226280689239501953e+01 -8.983820676803588867e-01 -4.434797912836074829e-02 -2.828190326690673828e-01 -4.125730991363525391e-01
2.673000000000000000e+03 5.407140350341796875e+01 -1.236551570892333984e+01 -1.166069984436035156e+00 1.819916665554046631e-01 -2.952234745025634766e-01 -1.400983035564422607e-01
2.674000000000000000e+03 5.480053710937500000e+01 -1.233535099029541016e+01 -1.127246379852294922e+00 2.191280275583267212e-01 -2.724354863166809082e-01 -7.942051440477371216e-02
2.675000000000000000e+03 5.286916732788085938e+01 -1.119353175163269043e+00 -1.601269364356994629e+00 9.877599775791168213e-02 -4.507480263710021973e-01 2.360422909259796143e-01
2.676000000000000000e+03 5.212287521362304688e+01 -4.408189654350280762e-01 -1.403748869895935059e+00 1.205666959285736084e-01 -3.849546611309051514e-01 2.577175498008728027e-01
2.677000000000000000e+03 5.966245651245117188e+01 -7.754358053207397461e-01 -7.321568131446838379e-01 7.543338537216186523e-01 6.653113290667533875e-03 -7.494528889656066895e-01
2.678000000000000000e+03 3.644812774658203125e+01 -6.296809911727905273e-01 -9.615556597709655762e-01 9.483581408858299255e-03 -2.856216132640838623e-01 5.560262203216552734e-01
2.679000000000000000e+03 5.356377792358398438e+01 -3.441547751426696777e-01 -1.312209248542785645e+00 1.754254251718521118e-01 -3.410351276397705078e-01 1.534090489149093628e-01
2.680000000000000000e+03 5.741366195678710938e+01 -4.631614685058593750e-01 -9.920787811279296875e-01 4.483734369277954102e-01 -1.631116122007369995e-01 -3.013860583305358887e-01
2.681000000000000000e+03 5.663951492309570312e+01 -3.993124067783355713e-01 -1.069061517715454102e+00 3.754535913467407227e-01 -2.080823630094528198e-01 -1.822811812162399292e-01
2.682000000000000000e+03 3.943790054321289062e+01 -4.616286456584930420e-01 -1.110455870628356934e+00 1.574883610010147095e-02 -3.284121155738830566e-01 5.582865476608276367e-01
2.683000000000000000e+03 3.944805908203125000e+01 3.223603069782257080e-01 -1.020108699798583984e+00 1.799025200307369232e-02 -3.006355464458465576e-01 5.944297313690185547e-01
2.684000000000000000e+03 4.856688308715820312e+01 -4.191486537456512451e-01 -1.432178139686584473e+00 5.961040407419204712e-02 -4.117703139781951904e-01 4.145984053611755371e-01
2.685000000000000000e+03 4.400194931030273438e+01 -1.089874625205993652e+00 -1.441557407379150391e+00 2.020429261028766632e-02 -4.264059066772460938e-01 4.883638918399810791e-01
2.686000000000000000e+03 4.632463455200195312e+01 -3.649388253688812256e-01 -1.379025697708129883e+00 4.107224941253662109e-02 -4.013860523700714111e-01 4.751655757427215576e-01
2.687000000000000000e+03 5.283092498779296875e+01 -3.844864368438720703e-01 -1.362778186798095703e+00 1.462253183126449585e-01 -3.649658560752868652e-01 2.092995196580886841e-01
2.688000000000000000e+03 3.321641921997070312e+01 -1.308564662933349609e+01 -7.590205669403076172e-01 -4.965998977422714233e-02 -2.426041662693023682e-01 -4.351058006286621094e-01
2.689000000000000000e+03 5.073678588867187500e+01 -4.707248508930206299e-01 -1.445505857467651367e+00 9.545002877712249756e-02 -4.050167500972747803e-01 3.337326943874359131e-01
2.690000000000000000e+03 4.093228530883789062e+01 -1.168231964111328125e+00 -1.284527420997619629e+00 1.510041207075119019e-02 -3.808281123638153076e-01 5.120407342910766602e-01
2.691000000000000000e+03 4.018649291992187500e+01 -4.448677897453308105e-01 -1.146340727806091309e+00 1.714707165956497192e-02 -3.387580811977386475e-01 5.555595755577087402e-01
2.692000000000000000e+03 5.003428268432617188e+01 -4.307418763637542725e-01 -1.442727565765380859e+00 7.678156346082687378e-02 -4.097837805747985840e-01 3.644016981124877930e-01
2.693000000000000000e+03 4.250789642333984375e+01 -3.734210729598999023e-01 -1.245547175407409668e+00 2.813946083188056946e-02 -3.652223050594329834e-01 5.398177504539489746e-01
2.694000000000000000e+03 4.172694396972656250e+01 -4.056881666183471680e-01 -1.215402007102966309e+00 2.289823070168495178e-02 -3.577511310577392578e-01 5.469376444816589355e-01
2.695000000000000000e+03 4.701190948486328125e+01 -1.115410923957824707e+00 -1.569412231445312500e+00 2.967408485710620880e-02 -4.619214534759521484e-01 4.408487975597381592e-01
2.696000000000000000e+03 4.556912994384765625e+01 -3.337948322296142578e-01 -1.354446649551391602e+00 3.824831917881965637e-02 -3.948594927787780762e-01 4.926488995552062988e-01
2.697000000000000000e+03 4.329471969604492188e+01 4.708139896392822266e-01 -1.137175083160400391e+00 4.530329257249832153e-02 -3.275615274906158447e-01 5.598130226135253906e-01
2.698000000000000000e+03 5.139962387084960938e+01 1.787321269512176514e-01 -1.247326612472534180e+00 1.415811479091644287e-01 -3.317236304283142090e-01 2.795922458171844482e-01
2.699000000000000000e+03 3.397016525268554688e+01 -1.307818508148193359e+01 -7.937641739845275879e-01 -4.968160018324851990e-02 -2.530337274074554443e-01 -4.389009177684783936e-01
2.700000000000000000e+03 3.619396972656250000e+01 -1.299750614166259766e+01 -8.789906501770019531e-01 -4.650246724486351013e-02 -2.776479423046112061e-01 -4.519878625869750977e-01
2.701000000000000000e+03 4.094890213012695312e+01 -4.277131259441375732e-01 -1.180700302124023438e+00 2.068010903894901276e-02 -3.480060398578643799e-01 5.518134832382202148e-01
2.702000000000000000e+03 4.782015609741210938e+01 -4.112132787704467773e-01 -1.420742630958557129e+00 5.217082053422927856e-02 -4.105715453624725342e-01 4.400132894515991211e-01
2.703000000000000000e+03 4.707316589355468750e+01 -3.924686610698699951e-01 -1.401062250137329102e+00 4.432374238967895508e-02 -4.070215523242950439e-01 4.585804939270019531e-01
2.704000000000000000e+03 4.481053543090820312e+01 -3.091437220573425293e-01 -1.325315475463867188e+00 3.382224217057228088e-02 -3.874479532241821289e-01 5.081939697265625000e-01
2.705000000000000000e+03 4.169741439819335938e+01 1.057300090789794922e+00 -1.007197260856628418e+00 3.795688971877098083e-02 -2.907721102237701416e-01 6.008884906768798828e-01
2.706000000000000000e+03 6.100044631958007812e+01 -1.016383647918701172e+00 -5.245061516761779785e-01 1.098861217498779297e+00 1.723065078258514404e-01 -1.137838363647460938e+00
2.707000000000000000e+03 3.234422683715820312e+01 -1.232240581512451172e+01 -7.965143322944641113e-01 -4.426211118698120117e-02 -2.522329390048980713e-01 -3.986778855323791504e-01
2.708000000000000000e+03 6.233200454711914062e+01 -1.698340415954589844e+00 -3.869291543960571289e-01 1.358075141906738281e+00 2.913438081741333008e-01 -1.532595515251159668e+00
2.709000000000000000e+03 3.019225692749023438e+01 -1.324978351593017578e+01 -6.416597366333007812e-01 -4.603430256247520447e-02 -2.063082158565521240e-01 -4.157231152057647705e-01
2.710000000000000000e+03 3.096173858642578125e+01 -1.315890789031982422e+01 -6.728339195251464844e-01 -4.707230255007743835e-02 -2.159718573093414307e-01 -4.210539460182189941e-01
2.711000000000000000e+03 3.246790695190429688e+01 -1.312354278564453125e+01 -7.335799336433410645e-01 -5.191457271575927734e-02 -2.356483489274978638e-01 -4.272899627685546875e-01
2.712000000000000000e+03 6.006021499633789062e+01 -1.183636283874511719e+01 -5.970641374588012695e-01 8.151530623435974121e-01 6.542668491601943970e-02 7.768847346305847168e-01
2.713000000000000000e+03 2.941092109680175781e+01 -1.335220813751220703e+01 -6.111400723457336426e-01 -4.221817106008529663e-02 -1.960074752569198608e-01 -4.126616120338439941e-01
2.714000000000000000e+03 5.704685592651367188e+01 -1.225043106079101562e+01 -9.416567683219909668e-01 3.860042095184326172e-01 -1.666957736015319824e-01 1.796877533197402954e-01
2.715000000000000000e+03 5.781052398681640625e+01 -1.217368507385253906e+01 -8.697431087493896484e-01 4.755352735519409180e-01 -1.182623580098152161e-01 3.022393584251403809e-01
2.716000000000000000e+03 6.273213577270507812e+01 3.054583370685577393e-01 -1.193308755755424500e-01 2.528908491134643555e+00 7.228732705116271973e-01 -2.004820823669433594e+00
2.717000000000000000e+03 2.696680831909179688e+01 -1.351041507720947266e+01 -5.227367877960205078e-01 -3.271096944808959961e-02 -1.666343212127685547e-01 -3.999490141868591309e-01
2.718000000000000000e+03 2.860708999633789062e+01 -1.340442085266113281e+01 -5.851694345474243164e-01 -3.846417367458343506e-02 -1.870900839567184448e-01 -4.100652337074279785e-01
2.719000000000000000e+03 5.931932449340820312e+01 -1.196720504760742188e+01 -6.956659555435180664e-01 6.742546558380126953e-01 -6.423395127058029175e-03 5.968481302261352539e-01
2.720000000000000000e+03 2.379907226562500000e+01 -1.289131546020507812e+01 -4.561229646205902100e-01 -1.869896799325942993e-02 -1.424465775489807129e-01 -3.476138710975646973e-01
2.721000000000000000e+03 6.261102676391601562e+01 -1.123887920379638672e+01 -1.755122840404510498e-01 1.610982179641723633e+00 4.306409358978271484e-01 1.680732727050781250e+00
2.722000000000000000e+03 2.609092712402343750e+01 -1.262534427642822266e+01 -5.326166152954101562e-01 -2.078167907893657684e-02 -1.660194844007492065e-01 -3.639084696769714355e-01
2.723000000000000000e+03 2.314832305908203125e+01 -9.072721600532531738e-01 -1.764313280582427979e-01 -1.897384524345397949e-01 -1.098509356379508972e-01 2.929456830024719238e-01
2.724000000000000000e+03 2.478272819519042969e+01 -1.376546955108642578e+01 -4.593288600444793701e-01 -2.921105362474918365e-02 -1.465619802474975586e-01 -3.790889084339141846e-01
2.725000000000000000e+03 2.618646049499511719e+01 -1.350134849548339844e+01 -5.012271404266357422e-01 -2.990593388676643372e-02 -1.593399196863174438e-01 -3.925389647483825684e-01
2.726000000000000000e+03 2.124588966369628906e+01 -1.402234649658203125e+01 -3.888606727123260498e-01 -4.790310934185981750e-02 -1.310291290283203125e-01 -3.369156420230865479e-01
2.727000000000000000e+03 7.104784488677978516e+00 7.022304534912109375e+00 -9.210058487951755524e-05 1.166922156699001789e-03 3.224464890081435442e-04 -1.416932718711905181e-05
2.728000000000000000e+03 8.158801078796386719e+00 -5.234252452850341797e+00 3.023591998498886824e-04 -2.228980447398498654e-04 2.383834180363919586e-05 1.300698058912530541e-04
2.729000000000000000e+03 2.402073860168457031e+01 1.254742240905761719e+01 -4.807648062705993652e-01 -5.184737443923950195e-01 -2.997715771198272705e-01 6.305711865425109863e-01
2.730000000000000000e+03 2.293517684936523438e+01 9.554057121276855469e+00 -4.608263671398162842e-01 -6.201976537704467773e-01 -3.243072032928466797e-01 6.828011274337768555e-01
2.731000000000000000e+03 7.436013031005859375e+01 -7.447709888219833374e-02 -5.207459330558776855e-01 9.276355743408203125e+00 2.626682996749877930e+00 1.297204494476318359e+00
2.732000000000000000e+03 2.367651176452636719e+01 -1.873092055320739746e-01 -2.137219160795211792e-01 -2.113300859928131104e-01 -1.275155991315841675e-01 3.549685180187225342e-01
2.733000000000000000e+03 2.344018936157226562e+01 1.140486359596252441e+00 -2.179176658391952515e-01 -2.782208025455474854e-01 -1.488415449857711792e-01 4.169220924377441406e-01
2.734000000000000000e+03 7.280589294433593750e+01 1.505210208892822266e+01 -7.729013264179229736e-02 7.030679225921630859e+00 2.086016654968261719e+00 -5.168370008468627930e-01
2.735000000000000000e+03 7.307822418212890625e+01 -2.028179550170898438e+01 -5.450071096420288086e-01 7.989535331726074219e+00 2.233358621597290039e+00 1.342730969190597534e-01
2.736000000000000000e+03 7.040415954589843750e+01 -2.533390045166015625e+01 -1.595709621906280518e-01 6.686662197113037109e+00 1.958127379417419434e+00 5.635907053947448730e-01
2.737000000000000000e+03 1.957924461364746094e+01 -1.728182029724121094e+01 -3.026091158390045166e-01 -1.309624761343002319e-01 -1.300714761018753052e-01 -3.318804502487182617e-01
2.738000000000000000e+03 2.107214164733886719e+01 -1.636933326721191406e+01 -3.384604454040527344e-01 -8.905555307865142822e-02 -1.282548010349273682e-01 -3.560958504676818848e-01
2.739000000000000000e+03 7.375070953369140625e+01 6.321828365325927734e-01 -7.834690213203430176e-01 9.457798957824707031e+00 2.602298974990844727e+00 1.054404020309448242e+00
2.740000000000000000e+03 2.535522842407226562e+01 3.959777593612670898e+00 -3.504300713539123535e-01 -3.156471252441406250e-01 -1.998231709003448486e-01 6.285498142242431641e-01
2.741000000000000000e+03 5.771398544311523438e+00 5.558956146240234375e+00 5.653112893924117088e-04 -5.429285811260342598e-04 6.714802566420985386e-06 1.063041927409358323e-04
2.742000000000000000e+03 7.254218292236328125e+01 3.352704048156738281e+00 -1.063121080398559570e+00 8.875118255615234375e+00 2.343599081039428711e+00 1.186335682868957520e-01
2.743000000000000000e+03 1.919310951232910156e+01 -1.856106376647949219e+01 -2.586331963539123535e-01 -1.626510918140411377e-01 -1.263852864503860474e-01 -3.226342797279357910e-01
2.744000000000000000e+03 1.995267295837402344e+01 -2.048822021484375000e+01 -1.776526272296905518e-01 -1.813915222883224487e-01 -1.077132448554039001e-01 -3.435597121715545654e-01
2.745000000000000000e+03 8.731720924377441406e+00 2.605346298217773438e+01 -9.190101176500320435e-03 -5.725114941596984863e-01 -1.745104789733886719e-01 4.306384325027465820e-01
2.746000000000000000e+03 7.414309024810791016e+00 2.452419281005859375e+01 -9.552568197250366211e-02 -4.347275495529174805e-01 -1.590759605169296265e-01 3.995799124240875244e-01
2.747000000000000000e+03 7.323966979980468750e+01 -1.509653472900390625e+01 -9.613751173019409180e-01 9.191640853881835938e+00 2.469079494476318359e+00 -5.757266879081726074e-01
2.748000000000000000e+03 7.239057159423828125e+01 -1.762985801696777344e+01 -8.959309458732604980e-01 8.441802978515625000e+00 2.263761758804321289e+00 5.014492198824882507e-02
2.749000000000000000e+03 7.213392639160156250e+01 -2.485684013366699219e+01 -1.980674564838409424e-01 7.218625545501708984e+00 2.106167316436767578e+00 4.185612797737121582e-01
2.750000000000000000e+03 7.322558593750000000e+01 -2.543005561828613281e+01 -1.490196883678436279e-01 7.472181797027587891e+00 2.196948528289794922e+00 3.327874541282653809e-01
2.751000000000000000e+03 7.291930389404296875e+01 -1.401423263549804688e+01 -1.012922763824462891e+00 9.564023017883300781e+00 2.565330028533935547e+00 -6.757649779319763184e-01
2.752000000000000000e+03 7.237569427490234375e+01 6.937895298004150391e+00 -6.901367902755737305e-01 7.921586990356445312e+00 2.169435024261474609e+00 -2.836406826972961426e-01
2.753000000000000000e+03 7.293540954589843750e+01 1.364933586120605469e+01 -1.320746392011642456e-01 7.173000335693359375e+00 2.112277746200561523e+00 -4.941771626472473145e-01
2.754000000000000000e+03 7.500746917724609375e+01 -1.067719364166259766e+01 2.439202070236206055e-01 8.902754783630371094e+00 2.744002580642700195e+00 -1.571901917457580566e+00
2.755000000000000000e+03 7.321633148193359375e+01 -1.895294570922851562e+01 -6.714192032814025879e-01 8.244533538818359375e+00 2.271934509277343750e+00 -8.123298175632953644e-03
2.756000000000000000e+03 7.365212249755859375e+01 5.607126235961914062e+00 -6.982440352439880371e-01 8.326927185058593750e+00 2.288604736328125000e+00 1.023775413632392883e-01
2.757000000000000000e+03 7.247042846679687500e+01 5.695572376251220703e+00 -8.260930776596069336e-01 8.210241317749023438e+00 2.215244531631469727e+00 -1.609743833541870117e-01
2.758000000000000000e+03 7.311087799072265625e+01 -2.150810241699218750e+01 -4.405690729618072510e-01 7.825991153717041016e+00 2.215626716613769531e+00 2.108350843191146851e-01
2.759000000000000000e+03 7.695110797882080078e+00 3.028648376464843750e+01 9.116391092538833618e-02 -6.218765377998352051e-01 -1.592137962579727173e-01 3.345873951911926270e-01
2.760000000000000000e+03 1.059954833984375000e+01 2.898739242553710938e+01 1.272107809782028198e-01 -7.007420659065246582e-01 -1.720593869686126709e-01 3.938488662242889404e-01
2.761000000000000000e+03 7.101619720458984375e+01 1.930117416381835938e+01 6.746393442153930664e-02 6.340038776397705078e+00 1.922250747680664062e+00 -5.889867544174194336e-01
2.762000000000000000e+03 7.179339599609375000e+01 1.221530914306640625e+01 -2.284742444753646851e-01 7.011414051055908203e+00 2.034881830215454102e+00 -5.747035741806030273e-01
2.763000000000000000e+03 2.086021232604980469e+01 -1.319521999359130859e+01 -3.875299692153930664e-01 -4.176850989460945129e-02 -1.287895441055297852e-01 -3.182242512702941895e-01
2.764000000000000000e+03 7.200623321533203125e+01 -2.839508056640625000e+01 -1.511967275291681290e-02 6.942830085754394531e+00 2.078313112258911133e+00 4.231230616569519043e-01
2.765000000000000000e+03 6.683619689941406250e+01 -3.010774993896484375e+01 2.219410538673400879e-01 5.344208240509033203e+00 1.669844746589660645e+00 5.718867778778076172e-01
2.766000000000000000e+03 7.033483123779296875e+01 2.750643539428710938e+01 1.469284594058990479e-01 5.933298587799072266e+00 1.824068188667297363e+00 -4.076434075832366943e-01
2.767000000000000000e+03 7.221962738037109375e+01 2.222041511535644531e+01 7.343532145023345947e-02 6.477412700653076172e+00 1.965254426002502441e+00 -4.842080473899841309e-01
2.768000000000000000e+03 2.532707977294921875e+01 6.184050083160400391e+00 -3.939396739006042480e-01 -3.663764595985412598e-01 -2.280948311090469360e-01 6.935899853706359863e-01
2.769000000000000000e+03 2.595912742614746094e+01 6.993550300598144531e+00 -4.146235883235931396e-01 -3.355307281017303467e-01 -2.250462919473648071e-01 7.127457857131958008e-01
2.770000000000000000e+03 2.259421730041503906e+01 1.399032688140869141e+01 -5.073015093803405762e-01 -6.538394689559936523e-01 -3.483422994613647461e-01 5.831907391548156738e-01
2.771000000000000000e+03 9.571393966674804688e+00 2.208873367309570312e+01 -2.631930708885192871e-01 -4.954441189765930176e-01 -2.275911569595336914e-01 5.113555192947387695e-01
2.772000000000000000e+03 1.024655532836914062e+01 2.413293266296386719e+01 -9.156284481287002563e-02 -6.361273527145385742e-01 -2.183070629835128784e-01 5.077537894248962402e-01
2.773000000000000000e+03 7.149600982666015625e+01 -2.615633773803710938e+01 -1.173804029822349548e-01 6.957329273223876953e+00 2.051984786987304688e+00 4.673688411712646484e-01
2.774000000000000000e+03 1.872988891601562500e+01 2.187889099121093750e+01 -8.627591282129287720e-02 -8.825608491897583008e-01 -2.906510233879089355e-01 3.729328215122222900e-01
2.775000000000000000e+03 9.696832656860351562e+00 -2.603350067138671875e+01 1.342487428337335587e-02 -3.153472244739532471e-01 -9.057670831680297852e-02 -2.434009164571762085e-01
2.776000000000000000e+03 8.642385482788085938e+00 2.477629089355468750e+01 -8.882541209459304810e-02 -5.195029377937316895e-01 -1.824985146522521973e-01 4.528313577175140381e-01
2.777000000000000000e+03 7.160376739501953125e+01 1.361300277709960938e+01 -1.493542790412902832e-01 6.839038372039794922e+00 2.006905078887939453e+00 -6.012156605720520020e-01
2.778000000000000000e+03 1.875099563598632812e+01 -2.101350784301757812e+01 -1.489259004592895508e-01 -2.144594788551330566e-01 -1.090156137943267822e-01 -3.219108581542968750e-01
2.779000000000000000e+03 1.990059089660644531e+01 2.152881431579589844e+01 -9.398530423641204834e-02 -8.041662573814392090e-01 -2.694454789161682129e-01 3.573411107063293457e-01
2.780000000000000000e+03 7.209795379638671875e+01 2.380634689331054688e+01 9.269452095031738281e-02 6.382187843322753906e+00 1.942464709281921387e+00 -4.509752690792083740e-01
2.781000000000000000e+03 7.064833068847656250e+01 -3.481608963012695312e+01 1.448950022459030151e-01 6.377939701080322266e+00 1.956850409507751465e+00 2.986258864402770996e-01
2.782000000000000000e+03 3.736290454864501953e+00 -1.597203350067138672e+01 1.882855140138417482e-04 -1.860207505524158478e-02 -5.524136591702699661e-03 3.697619773447513580e-03
2.783000000000000000e+03 9.777318000793457031e+00 -2.427245330810546875e+01 -2.326090633869171143e-02 -3.014741241931915283e-01 -9.742051362991333008e-02 -2.470450550317764282e-01
2.784000000000000000e+03 8.259095191955566406e+00 3.575065994262695312e+01 1.599273979663848877e-01 -7.004667520523071289e-01 -1.621618121862411499e-01 2.004716694355010986e-01
2.785000000000000000e+03 7.369047164916992188e+00 2.755162048339843750e+01 2.722650207579135895e-02 -5.532118678092956543e-01 -1.577956080436706543e-01 3.782438933849334717e-01
2.786000000000000000e+03 7.068704986572265625e+01 -2.752987861633300781e+01 -3.591103106737136841e-02 6.621616363525390625e+00 1.975711584091186523e+00 5.126937031745910645e-01
2.787000000000000000e+03 7.112664794921875000e+01 -3.001025581359863281e+01 6.514198333024978638e-02 6.618939876556396484e+00 2.005224466323852539e+00 4.234809279441833496e-01
2.788000000000000000e+03 9.627893447875976562e+00 2.533151626586914062e+01 -2.971863746643066406e-02 -6.171185970306396484e-01 -1.940511763095855713e-01 4.749934673309326172e-01
2.789000000000000000e+03 2.279463195800781250e+01 1.573259067535400391e+01 -4.266351759433746338e-01 -6.271672248840332031e-01 -3.161407113075256348e-01 5.121828317642211914e-01
2.790000000000000000e+03 2.185765075683593750e+01 1.769343376159667969e+01 -3.523208200931549072e-01 -7.001315951347351074e-01 -3.157357275485992432e-01 4.358291923999786377e-01
2.791000000000000000e+03 9.695104598999023438e+00 -3.235894012451171875e+01 8.473185449838638306e-02 -3.614775538444519043e-01 -8.302371203899383545e-02 -1.827138960361480713e-01
2.792000000000000000e+03 1.263201332092285156e+01 -2.630365753173828125e+01 2.836345322430133820e-02 -3.344173729419708252e-01 -9.181617945432662964e-02 -2.571395933628082275e-01
2.793000000000000000e+03 6.741191864013671875e+01 -3.926860809326171875e+00 3.140082359313964844e-01 1.047983932495117188e+01 3.238154172897338867e+00 -5.558700084686279297e+00
2.794000000000000000e+03 6.691723632812500000e+01 -3.549333572387695312e+00 3.251257538795471191e-01 7.781779289245605469e+00 2.432071447372436523e+00 -4.951264858245849609e+00
2.795000000000000000e+03 6.767298126220703125e+01 -9.948662757873535156e+00 -7.238383889198303223e-01 1.070161533355712891e+01 2.993332862854003906e+00 4.060735702514648438e+00
2.796000000000000000e+03 6.812944793701171875e+01 -3.689653396606445312e+00 -7.700921893119812012e-01 1.362652111053466797e+01 3.856928586959838867e+00 -4.000284671783447266e+00
2.797000000000000000e+03 6.709766387939453125e+01 -3.777407407760620117e+00 4.017709493637084961e-01 8.764419555664062500e+00 2.749857187271118164e+00 -5.204965114593505859e+00
2.798000000000000000e+03 6.709560394287109375e+01 -9.501420974731445312e+00 5.012297537177801132e-03 8.654701232910156250e+00 2.597913980484008789e+00 4.747457027435302734e+00
2.799000000000000000e+03 6.708392333984375000e+01 -9.923906326293945312e+00 -1.871016621589660645e-01 8.584506988525390625e+00 2.519221544265747070e+00 4.478316783905029297e+00
2.800000000000000000e+03 6.657611846923828125e+01 -3.483927965164184570e+00 5.333135724067687988e-01 6.468533039093017578e+00 2.100553989410400391e+00 -4.761592388153076172e+00
2.801000000000000000e+03 6.587679290771484375e+01 -9.667212486267089844e+00 5.099008679389953613e-01 4.545437335968017578e+00 1.516601443290710449e+00 3.882322072982788086e+00
2.802000000000000000e+03 6.886746215820312500e+01 -3.521344184875488281e+00 -1.038649201393127441e+00 1.496544742584228516e+01 4.178039550781250000e+00 -2.011767387390136719e+00
2.803000000000000000e+03 7.331039428710937500e+01 -1.639075469970703125e+01 -8.986130952835083008e-01 8.826706886291503906e+00 2.378428220748901367e+00 -3.670375049114227295e-01
2.804000000000000000e+03 6.867928314208984375e+01 -9.110384941101074219e+00 -9.865676164627075195e-01 1.538038063049316406e+01 4.318143844604492188e+00 2.464900016784667969e+00
2.805000000000000000e+03 7.021025085449218750e+01 -4.529999732971191406e+00 2.347447156906127930e+00 1.555654239654541016e+01 5.371196746826171875e+00 1.945742726325988770e+00
2.806000000000000000e+03 7.251554870605468750e+01 -5.523099899291992188e+00 3.470810413360595703e+00 1.066505718231201172e+01 4.240760326385498047e+00 9.826992154121398926e-01
2.807000000000000000e+03 7.160237121582031250e+01 -5.833080291748046875e+00 4.813861846923828125e+00 1.178931808471679688e+01 4.980954170227050781e+00 8.161230683326721191e-01
2.808000000000000000e+03 6.792028808593750000e+01 -9.852739334106445312e+00 -8.872988820075988770e-01 1.151844501495361328e+01 3.189343929290771484e+00 3.886049509048461914e+00
2.809000000000000000e+03 6.920692443847656250e+01 -9.229039192199707031e+00 -7.606160640716552734e-01 1.525758457183837891e+01 4.349090576171875000e+00 9.948169589042663574e-01
2.810000000000000000e+03 7.138177490234375000e+01 -6.924276828765869141e+00 5.175886154174804688e+00 1.216730213165283203e+01 5.202956676483154297e+00 -8.863156437873840332e-01
2.811000000000000000e+03 7.127517700195312500e+01 -6.493335723876953125e+00 5.611989974975585938e+00 1.223167419433593750e+01 5.353099346160888672e+00 -1.943594068288803101e-01
2.812000000000000000e+03 7.369068145751953125e+01 -6.352130174636840820e-01 -4.996256530284881592e-01 9.769595146179199219e+00 2.780990839004516602e+00 1.348773121833801270e+00
2.813000000000000000e+03 6.951816558837890625e+01 -3.946295738220214844e+00 4.685902222990989685e-02 1.629701995849609375e+01 4.903163433074951172e+00 2.229170799255371094e-01
2.814000000000000000e+03 6.956324005126953125e+01 -9.255496978759765625e+00 -5.424488782882690430e-01 1.520399951934814453e+01 4.398465156555175781e+00 2.422099262475967407e-01
2.815000000000000000e+03 7.499069213867187500e+01 -2.666944503784179688e+00 5.086361169815063477e-01 8.819839477539062500e+00 2.798542499542236328e+00 1.520301461219787598e+00
2.816000000000000000e+03 6.906937408447265625e+01 -3.844971179962158203e+00 -6.506077051162719727e-01 1.622141647338867188e+01 4.671242713928222656e+00 -1.196659922599792480e+00
2.817000000000000000e+03 7.031866455078125000e+01 -8.744713783264160156e+00 1.151672124862670898e+00 1.482877063751220703e+01 4.794132709503173828e+00 -1.517092704772949219e+00
2.818000000000000000e+03 7.253860473632812500e+01 -5.977710247039794922e+00 3.861373662948608398e+00 1.048881721496582031e+01 4.305057048797607422e+00 4.424759149551391602e-01
2.819000000000000000e+03 7.137338256835937500e+01 -5.507308959960937500e+00 4.749550819396972656e+00 1.233965301513671875e+01 5.126760959625244141e+00 1.372866153717041016e+00
2.820000000000000000e+03 7.005987548828125000e+01 -3.048446655273437500e+00 -6.056129336357116699e-01 1.403389835357666016e+01 4.028485774993896484e+00 2.512791454792022705e-01
2.821000000000000000e+03 7.091442871093750000e+01 -7.678662300109863281e+00 4.235834121704101562e+00 1.342865657806396484e+01 5.299346923828125000e+00 -1.966495633125305176e+00
2.822000000000000000e+03 7.042985534667968750e+01 -9.178006172180175781e+00 5.181011557579040527e-01 1.430788993835449219e+01 4.447797298431396484e+00 -1.246729969978332520e+00
2.823000000000000000e+03 7.119235992431640625e+01 -8.017007827758789062e+00 3.330771923065185547e+00 1.299172592163085938e+01 4.896749496459960938e+00 -1.984479188919067383e+00
2.824000000000000000e+03 7.118662261962890625e+01 -5.209547996520996094e+00 4.332226753234863281e+00 1.283681488037109375e+01 5.150712490081787109e+00 1.741144657135009766e+00
2.825000000000000000e+03 7.485179901123046875e+01 -1.152370071411132812e+01 -5.669989436864852905e-02 9.080465316772460938e+00 2.707129716873168945e+00 -1.524661183357238770e+00
2.826000000000000000e+03 6.593344879150390625e+01 -2.472583532333374023e+00 1.619801074266433716e-01 5.354023933410644531e+00 1.654801130294799805e+00 -3.923776149749755859e+00
2.827000000000000000e+03 6.589597320556640625e+01 -3.382715463638305664e+00 5.734498500823974609e-01 4.299257278442382812e+00 1.461812138557434082e+00 -3.963363170623779297e+00
2.828000000000000000e+03 6.622048187255859375e+01 -3.655356407165527344e+00 7.997276782989501953e-01 4.946735858917236328e+00 1.723939061164855957e+00 -4.362078666687011719e+00
2.829000000000000000e+03 6.368707275390625000e+01 -1.100336551666259766e+01 7.733350154012441635e-03 2.290049791336059570e+00 6.893349289894104004e-01 2.215536117553710938e+00
2.830000000000000000e+03 6.636189270019531250e+01 -1.037999725341796875e+01 5.611535161733627319e-03 6.413271903991699219e+00 1.925665020942687988e+00 4.064590930938720703e+00
2.831000000000000000e+03 2.546128654479980469e+01 -4.141134619712829590e-01 -3.138589859008789062e-01 -1.554722636938095093e-01 -1.407993733882904053e-01 4.130485653877258301e-01
2.832000000000000000e+03 6.316482925415039062e+01 -1.114691925048828125e+01 -8.600658923387527466e-02 1.909748554229736328e+00 5.471225976943969727e-01 1.936731338500976562e+00
2.833000000000000000e+03 2.744354057312011719e+01 -8.155178427696228027e-01 -4.258427917957305908e-01 -9.851869195699691772e-02 -1.573084443807601929e-01 4.484201967716217041e-01
2.834000000000000000e+03 2.653767204284667969e+01 -5.061364173889160156e-01 -3.731105327606201172e-01 -1.275201141834259033e-01 -1.501892060041427612e-01 4.415094852447509766e-01
2.835000000000000000e+03 2.605023384094238281e+01 1.815775409340858459e-02 -3.483619093894958496e-01 -1.554142534732818604e-01 -1.511328518390655518e-01 4.571152627468109131e-01
2.836000000000000000e+03 6.267282104492187500e+01 -1.181240749359130859e+01 -1.030454263091087341e-01 1.919106841087341309e+00 5.448184013366699219e-01 1.801241636276245117e+00
2.837000000000000000e+03 3.077079200744628906e+01 1.991233378648757935e-01 -6.010890007019042969e-01 -5.319147184491157532e-02 -1.962841302156448364e-01 5.682854056358337402e-01
2.838000000000000000e+03 2.795027351379394531e+01 1.902746260166168213e-01 -4.558723866939544678e-01 -1.100242957472801208e-01 -1.697690039873123169e-01 5.191535949707031250e-01
2.839000000000000000e+03 3.140266609191894531e+01 -6.922819018363952637e-01 -6.670547723770141602e-01 -3.079437278211116791e-02 -2.093547582626342773e-01 5.276631116867065430e-01
2.840000000000000000e+03 2.889712715148925781e+01 3.690806627273559570e+00 -4.684624075889587402e-01 -1.453219950199127197e-01 -1.841353178024291992e-01 6.878461241722106934e-01
2.841000000000000000e+03 7.321983337402343750e+01 -5.497886613011360168e-02 -7.964904308319091797e-01 9.891392707824707031e+00 2.728470802307128906e+00 1.060058832168579102e+00
2.842000000000000000e+03 6.359247970581054688e+01 -1.769418001174926758e+00 -8.730053901672363281e-02 2.190392494201660156e+00 6.309275627136230469e-01 -2.216724872589111328e+00
2.843000000000000000e+03 6.363814163208007812e+01 -2.357969522476196289e+00 -1.500132232904434204e-01 1.853351593017578125e+00 5.110015273094177246e-01 -2.086102485656738281e+00
2.844000000000000000e+03 7.155445861816406250e+01 -4.958619594573974609e+00 3.596256971359252930e+00 1.222574138641357422e+01 4.746599674224853516e+00 1.734291315078735352e+00
2.845000000000000000e+03 7.498587799072265625e+01 -1.818517327308654785e+00 1.069722399115562439e-01 8.898540496826171875e+00 2.701653718948364258e+00 1.541212201118469238e+00
2.846000000000000000e+03 2.939073562622070312e+01 3.609474375844001770e-02 -5.332185029983520508e-01 -7.587354630231857300e-02 -1.827276200056076050e-01 5.394344329833984375e-01
2.847000000000000000e+03 3.298340606689453125e+01 -2.499377876520156860e-01 -7.413653135299682617e-01 -1.549619622528553009e-02 -2.270584553480148315e-01 5.661135911941528320e-01
2.848000000000000000e+03 3.231384658813476562e+01 -1.168427839875221252e-01 -6.983605027198791504e-01 -2.539685927331447601e-02 -2.171272039413452148e-01 5.681288838386535645e-01
2.849000000000000000e+03 4.597346878051757812e+01 -1.334027862548828125e+01 -1.069799184799194336e+00 2.428147383034229279e-02 -3.136552870273590088e-01 -4.436127245426177979e-01
2.850000000000000000e+03 3.358687973022460938e+01 -8.726034164428710938e-01 -8.057233691215515137e-01 -5.476980004459619522e-03 -2.433601021766662598e-01 5.340824127197265625e-01
2.851000000000000000e+03 4.147778701782226562e+01 -1.284288024902343750e+01 -1.081005096435546875e+00 -2.099705860018730164e-02 -3.306006491184234619e-01 -4.642316401004791260e-01
2.852000000000000000e+03 4.311879348754882812e+01 -1.371502590179443359e+01 -9.735211133956909180e-01 -9.145754389464855194e-03 -2.948000729084014893e-01 -4.780157208442687988e-01
2.853000000000000000e+03 4.893407440185546875e+01 -1.349277687072753906e+01 -1.023162007331848145e+00 8.544125407934188843e-02 -2.813162505626678467e-01 -3.700644075870513916e-01
2.854000000000000000e+03 4.589925765991210938e+01 -1.261372756958007812e+01 -1.226279854774475098e+00 1.469715870916843414e-02 -3.634747862815856934e-01 -4.384469389915466309e-01
2.855000000000000000e+03 4.229935455322265625e+01 -1.375593090057373047e+01 -9.505147337913513184e-01 -1.800768449902534485e-02 -2.905567288398742676e-01 -4.833510220050811768e-01
2.856000000000000000e+03 3.994957733154296875e+01 -1.293975830078125000e+01 -1.018942713737487793e+00 -3.248244896531105042e-02 -3.154275417327880859e-01 -4.632336497306823730e-01
2.857000000000000000e+03 4.006766891479492188e+01 -1.383252048492431641e+01 -8.915624022483825684e-01 -2.750805020332336426e-02 -2.757211327552795410e-01 -4.929043948650360107e-01
2.858000000000000000e+03 3.362871551513671875e+01 -2.546946406364440918e-01 -7.771281003952026367e-01 -9.165354073047637939e-03 -2.358880341053009033e-01 5.703528523445129395e-01
2.859000000000000000e+03 4.517174148559570312e+01 -1.264509963989257812e+01 -1.206436753273010254e+00 4.132861271500587463e-03 -3.606911599636077881e-01 -4.457808136940002441e-01
2.860000000000000000e+03 4.459710311889648438e+01 -1.349798393249511719e+01 -1.028332471847534180e+00 2.380800899118185043e-03 -3.077855110168457031e-01 -4.637380838394165039e-01
2.861000000000000000e+03 4.972889328002929688e+01 -1.352063941955566406e+01 -1.009166359901428223e+00 9.440479427576065063e-02 -2.744284570217132568e-01 -3.409828543663024902e-01
2.862000000000000000e+03 5.052614212036132812e+01 -1.350491046905517578e+01 -9.953829646110534668e-01 1.154328510165214539e-01 -2.639850378036499023e-01 -3.063215911388397217e-01
2.863000000000000000e+03 4.887258911132812500e+01 -1.267832374572753906e+01 -1.234958887100219727e+00 5.597551539540290833e-02 -3.536950051784515381e-01 -3.796576559543609619e-01
2.864000000000000000e+03 5.066541290283203125e+01 -1.439143466949462891e+01 -7.679314613342285156e-01 1.716866046190261841e-01 -1.788734644651412964e-01 -2.704776525497436523e-01
2.865000000000000000e+03 4.223454666137695312e+01 -1.285974502563476562e+01 -1.105193495750427246e+00 -2.102364599704742432e-02 -3.378651440143585205e-01 -4.624618887901306152e-01
2.866000000000000000e+03 4.082233047485351562e+01 -1.361400794982910156e+01 -9.403390288352966309e-01 -2.402831986546516418e-02 -2.893101871013641357e-01 -4.836217164993286133e-01
2.867000000000000000e+03 3.919078826904296875e+01 -1.297332763671875000e+01 -9.919827580451965332e-01 -2.929917909204959869e-02 -3.063845634460449219e-01 -4.646772444248199463e-01
2.868000000000000000e+03 4.043115997314453125e+01 -1.467965030670166016e+01 -7.633298039436340332e-01 -2.520447038114070892e-02 -2.365602850914001465e-01 -5.060406327247619629e-01
2.869000000000000000e+03 4.811400222778320312e+01 -1.265890216827392578e+01 -1.240341901779174805e+00 4.304207488894462585e-02 -3.591899573802947998e-01 -4.029702544212341309e-01
2.870000000000000000e+03 5.129841995239257812e+01 -1.344771575927734375e+01 -9.808286428451538086e-01 1.362044364213943481e-01 -2.533872723579406738e-01 -2.696728706359863281e-01
2.871000000000000000e+03 3.644651412963867188e+01 1.135052517056465149e-01 -9.005493521690368652e-01 8.577203378081321716e-03 -2.675916552543640137e-01 5.971869230270385742e-01
2.872000000000000000e+03 5.203908157348632812e+01 -1.335304546356201172e+01 -9.812579751014709473e-01 1.596397906541824341e-01 -2.464854717254638672e-01 -2.352355122566223145e-01
2.873000000000000000e+03 5.276432037353515625e+01 -1.324169158935546875e+01 -9.853324890136718750e-01 1.850222349166870117e-01 -2.400930821895599365e-01 -1.864285171031951904e-01
2.874000000000000000e+03 3.627141571044921875e+01 -1.381646633148193359e+01 -7.868702411651611328e-01 -5.093517154455184937e-02 -2.513416111469268799e-01 -4.790621995925903320e-01
2.875000000000000000e+03 5.347200775146484375e+01 -1.312842941284179688e+01 -9.694967865943908691e-01 2.066212743520736694e-01 -2.288626432418823242e-01 -1.348438560962677002e-01
2.876000000000000000e+03 3.794413375854492188e+01 -5.271299481391906738e-01 -1.038136720657348633e+00 1.431010942906141281e-02 -3.071480095386505127e-01 5.593425631523132324e-01
2.877000000000000000e+03 3.566861724853515625e+01 7.956081628799438477e-01 -8.149710297584533691e-01 3.068189602345228195e-03 -2.435708492994308472e-01 6.268585920333862305e-01
2.878000000000000000e+03 3.545228195190429688e+01 -1.302284622192382812e+01 -8.460281491279602051e-01 -4.707691818475723267e-02 -2.679315209388732910e-01 -4.489298760890960693e-01
2.879000000000000000e+03 3.699285125732421875e+01 -1.383265686035156250e+01 -8.014967441558837891e-01 -4.728254303336143494e-02 -2.546337842941284180e-01 -4.815711677074432373e-01
2.880000000000000000e+03 5.915618896484375000e+01 1.249053597450256348e+00 -3.252116143703460693e-01 1.154819488525390625e+00 2.488823682069778442e-01 -8.955277800559997559e-01
2.881000000000000000e+03 5.830114746093750000e+01 9.163211584091186523e-01 -4.773768484592437744e-01 8.755788803100585938e-01 1.194606125354766846e-01 -6.658515334129333496e-01
2.882000000000000000e+03 5.427074432373046875e+01 4.609857201576232910e-01 -1.015404582023620605e+00 2.884423434734344482e-01 -2.180886566638946533e-01 3.273374587297439575e-02
2.883000000000000000e+03 3.471332931518554688e+01 -1.307250499725341797e+01 -8.185240030288696289e-01 -5.300965160131454468e-02 -2.614600956439971924e-01 -4.424475133419036865e-01
2.884000000000000000e+03 3.596470642089843750e+01 -1.448235702514648438e+01 -7.118914127349853516e-01 -5.551090836524963379e-02 -2.302206903696060181e-01 -4.979540109634399414e-01
2.885000000000000000e+03 3.869230270385742188e+01 -4.873630702495574951e-01 -1.073580622673034668e+00 1.393640320748090744e-02 -3.178932666778564453e-01 5.593127012252807617e-01
2.886000000000000000e+03 5.203693771362304688e+01 2.949745655059814453e-01 -1.196348667144775391e+00 1.667656749486923218e-01 -3.088748753070831299e-01 2.371020615100860596e-01
2.887000000000000000e+03 5.080443191528320312e+01 2.360172569751739502e-01 -1.238556146621704102e+00 1.426081657409667969e-01 -3.287843763828277588e-01 3.200684487819671631e-01
2.888000000000000000e+03 5.505979919433593750e+01 4.417385160923004150e-01 -9.576032757759094238e-01 3.421214222908020020e-01 -1.846445649862289429e-01 -5.583525821566581726e-02
2.889000000000000000e+03 5.427282333374023438e+01 -1.366495132446289062e+01 -7.730823755264282227e-01 3.031138181686401367e-01 -1.409905701875686646e-01 -4.004932194948196411e-02
2.890000000000000000e+03 5.558030319213867188e+01 -1.304295063018798828e+01 -8.315095305442810059e-01 3.452438116073608398e-01 -1.458797156810760498e-01 6.947792321443557739e-02
2.891000000000000000e+03 5.416249084472656250e+01 -1.303307914733886719e+01 -9.500237107276916504e-01 2.348217368125915527e-01 -2.145605981349945068e-01 -9.100424498319625854e-02
2.892000000000000000e+03 5.585303878784179688e+01 4.039750993251800537e-01 -8.910868763923645020e-01 4.106520116329193115e-01 -1.441304683685302734e-01 -1.527064293622970581e-01
2.893000000000000000e+03 4.861169815063476562e+01 2.993035316467285156e-01 -1.258838653564453125e+00 8.911706507205963135e-02 -3.509164750576019287e-01 4.166216552257537842e-01
2.894000000000000000e+03 5.744490432739257812e+01 2.814002037048339844e-01 -7.546985149383544922e-01 5.890161991119384766e-01 -4.970468953251838684e-02 -4.048940241336822510e-01
2.895000000000000000e+03 5.011442184448242188e+01 3.418130576610565186e-01 -1.226947903633117676e+00 1.111698448657989502e-01 -3.347334265708923340e-01 3.496848344802856445e-01
2.896000000000000000e+03 4.172785949707031250e+01 3.346339166164398193e-01 -1.105376720428466797e+00 3.107943944633007050e-02 -3.222891688346862793e-01 5.756386518478393555e-01
2.897000000000000000e+03 4.250940322875976562e+01 3.904593586921691895e-01 -1.124797224998474121e+00 3.487195074558258057e-02 -3.269776105880737305e-01 5.703905820846557617e-01
2.898000000000000000e+03 4.787686920166015625e+01 3.054392039775848389e-01 -1.254155158996582031e+00 7.626594603061676025e-02 -3.533667623996734619e-01 4.459860622882843018e-01
2.899000000000000000e+03 4.408479309082031250e+01 5.310806035995483398e-01 -1.153489947319030762e+00 4.575916379690170288e-02 -3.323192298412322998e-01 5.461691021919250488e-01
2.900000000000000000e+03 4.640559005737304688e+01 3.919366002082824707e-01 -1.219137191772460938e+00 5.704871192574501038e-02 -3.486265540122985840e-01 4.874629676342010498e-01
2.901000000000000000e+03 5.712916183471679688e+01 -1.296609973907470703e+01 -7.016346454620361328e-01 5.269516706466674805e-01 -5.240489915013313293e-02 2.800698876380920410e-01
2.902000000000000000e+03 4.793436050415039062e+01 1.020514369010925293e+00 -1.095956802368164062e+00 1.022531613707542419e-01 -2.981110811233520508e-01 4.453040063381195068e-01
2.903000000000000000e+03 3.333720397949218750e+01 -1.387349796295166016e+01 -6.927143931388854980e-01 -5.681303888559341431e-02 -2.248582392930984497e-01 -4.585483074188232422e-01
2.904000000000000000e+03 5.116331481933593750e+01 7.737627029418945312e-01 -1.089265704154968262e+00 1.791006922721862793e-01 -2.730494737625122070e-01 2.787295281887054443e-01
2.905000000000000000e+03 5.485657119750976562e+01 -1.300886440277099609e+01 -9.044672250747680664e-01 2.985044717788696289e-01 -1.817888170480728149e-01 -2.097281254827976227e-02
2.906000000000000000e+03 4.095174407958984375e+01 3.140434920787811279e-01 -1.081640958786010742e+00 2.657224051654338837e-02 -3.165206015110015869e-01 5.840241909027099609e-01
2.907000000000000000e+03 4.324083709716796875e+01 1.297050714492797852e+00 -1.000076174736022949e+00 5.536537244915962219e-02 -2.834132313728332520e-01 5.793778300285339355e-01
2.908000000000000000e+03 2.872463989257812500e+01 -1.432762050628662109e+01 -5.305193066596984863e-01 -4.690728336572647095e-02 -1.732279807329177856e-01 -4.386755228042602539e-01
2.909000000000000000e+03 3.172135543823242188e+01 -1.313192558288574219e+01 -7.087494134902954102e-01 -4.785024747252464294e-02 -2.269799113273620605e-01 -4.250494539737701416e-01
2.910000000000000000e+03 3.258511734008789062e+01 -1.400706577301025391e+01 -6.634860038757324219e-01 -5.657029896974563599e-02 -2.160168886184692383e-01 -4.584516882896423340e-01
2.911000000000000000e+03 3.111643600463867188e+01 -1.390028858184814453e+01 -6.271474361419677734e-01 -5.422940477728843689e-02 -2.044130563735961914e-01 -4.428429603576660156e-01
2.912000000000000000e+03 3.180858421325683594e+01 -1.394084548950195312e+01 -6.417659521102905273e-01 -5.386785045266151428e-02 -2.086901366710662842e-01 -4.528513550758361816e-01
2.913000000000000000e+03 2.778809738159179688e+01 -1.342082691192626953e+01 -5.539188981056213379e-01 -3.431160002946853638e-02 -1.764691621065139771e-01 -4.064387381076812744e-01
2.914000000000000000e+03 2.996166229248046875e+01 -1.511253261566162109e+01 -5.084369182586669922e-01 -6.096875667572021484e-02 -1.708216965198516846e-01 -4.653628170490264893e-01
2.915000000000000000e+03 6.099092102050781250e+01 -4.500196874141693115e-01 -3.817316889762878418e-01 1.282561302185058594e+00 2.702488899230957031e-01 -1.240119457244873047e+00
2.916000000000000000e+03 5.856708908081054688e+01 -1.207953643798828125e+01 -7.870128154754638672e-01 5.630641579627990723e-01 -6.718459725379943848e-02 4.434855282306671143e-01
2.917000000000000000e+03 6.076497268676757812e+01 -1.168180465698242188e+01 -5.068088173866271973e-01 9.505270719528198242e-01 1.331154704093933105e-01 9.694877862930297852e-01
2.918000000000000000e+03 6.270483398437500000e+01 -1.245235919952392578e+01 -4.601718857884407043e-02 2.291611433029174805e+00 6.736782789230346680e-01 1.906972527503967285e+00
2.919000000000000000e+03 2.720992279052734375e+01 -1.436299991607666016e+01 -4.893177747726440430e-01 -4.183899611234664917e-02 -1.593470275402069092e-01 -4.224864542484283447e-01
2.920000000000000000e+03 6.290722656250000000e+01 -1.103176116943359375e+00 -1.605935841798782349e-01 2.023978471755981445e+00 5.590154528617858887e-01 -1.957963824272155762e+00
2.921000000000000000e+03 6.282580184936523438e+01 -4.297712147235870361e-01 -1.251754164695739746e-01 2.293508529663085938e+00 6.504999399185180664e-01 -2.004431009292602539e+00
2.922000000000000000e+03 2.244842720031738281e+01 -5.040096044540405273e-01 -1.402444690465927124e-01 -2.257870882749557495e-01 -1.098094657063484192e-01 2.766070067882537842e-01
2.923000000000000000e+03 6.095972442626953125e+01 -1.233126163482666016e+01 -2.929019033908843994e-01 1.274524688720703125e+00 2.944868505001068115e-01 1.179361462593078613e+00
2.924000000000000000e+03 2.658308792114257812e+01 -1.491646480560302734e+01 -4.533708095550537109e-01 -4.556854441761970520e-02 -1.496818065643310547e-01 -4.258618950843811035e-01
2.925000000000000000e+03 2.790587234497070312e+01 -1.422824478149414062e+01 -5.157041549682617188e-01 -4.296867921948432922e-02 -1.676018387079238892e-01 -4.266785979270935059e-01
2.926000000000000000e+03 6.019231033325195312e+01 -1.249536323547363281e+01 -3.917607963085174561e-01 1.057005643844604492e+00 1.995734572410583496e-01 9.325500130653381348e-01
2.927000000000000000e+03 5.790729141235351562e+01 -1.287431812286376953e+01 -6.263070702552795410e-01 6.249648928642272949e-01 -4.026525421068072319e-04 4.227135181427001953e-01
2.928000000000000000e+03 5.867078781127929688e+01 -1.277139377593994141e+01 -5.514597296714782715e-01 7.389152050018310547e-01 5.623663961887359619e-02 5.701674222946166992e-01
2.929000000000000000e+03 6.158967208862304688e+01 -1.207257366180419922e+01 -2.332834601402282715e-01 1.457544088363647461e+00 3.672781884670257568e-01 1.357268333435058594e+00
2.930000000000000000e+03 2.548924064636230469e+01 -1.352989673614501953e+01 -4.795544147491455078e-01 -2.892503701150417328e-02 -1.525438427925109863e-01 -3.826862275600433350e-01
2.931000000000000000e+03 7.539920806884765625e+01 -5.497437953948974609e+00 1.460373878479003906e+00 8.059709548950195312e+00 2.856024980545043945e+00 5.018820166587829590e-01
2.932000000000000000e+03 2.214541244506835938e+01 -1.400388240814208984e+01 -4.021419882774353027e-01 -3.946777433156967163e-02 -1.324829310178756714e-01 -3.492793142795562744e-01
2.933000000000000000e+03 2.590900802612304688e+01 -1.423436164855957031e+01 -4.673446118831634521e-01 -3.766044974327087402e-02 -1.515015214681625366e-01 -4.072343707084655762e-01
2.934000000000000000e+03 7.151124572753906250e+01 -7.802278995513916016e+00 3.609088659286499023e+00 1.228523254394531250e+01 4.768296241760253906e+00 -1.728530764579772949e+00
2.935000000000000000e+03 7.454760551452636719e+00 6.037833213806152344e+00 5.511736380867660046e-04 -7.190438336692750454e-04 -5.036104994360357523e-05 -3.787608875427395105e-04
2.936000000000000000e+03 8.757788658142089844e+00 6.650092124938964844e+00 -2.709491236601024866e-04 1.350170816294848919e-03 3.237665223423391581e-04 -2.184416371164843440e-04
2.937000000000000000e+03 2.120000457763671875e+01 -1.513528060913085938e+01 -3.702673017978668213e-01 -6.552329659461975098e-02 -1.307371854782104492e-01 -3.505514264106750488e-01
2.938000000000000000e+03 7.480761718750000000e+01 -3.447893857955932617e+00 9.027296304702758789e-01 8.833108901977539062e+00 2.920751571655273438e+00 1.436079621315002441e+00
2.939000000000000000e+03 5.274444198608398438e+01 3.918094038963317871e-01 -1.136011958122253418e+00 2.030592560768127441e-01 -2.798857986927032471e-01 1.779789626598358154e-01
2.940000000000000000e+03 6.206421661376953125e+01 3.137865364551544189e-01 -1.491638422012329102e-01 2.121352195739746094e+00 5.916564464569091797e-01 -1.753734350204467773e+00
2.941000000000000000e+03 2.623953247070312500e+01 4.409331798553466797e+00 -3.893560767173767090e-01 -2.693802118301391602e-01 -1.976208984851837158e-01 6.642729640007019043e-01
2.942000000000000000e+03 7.106270599365234375e+01 -4.011659145355224609e+00 1.631850242614746094e+00 1.334084510803222656e+01 4.491808414459228516e+00 1.855469942092895508e+00
2.943000000000000000e+03 4.714447402954101562e+01 3.401889801025390625e-01 -1.241348385810852051e+00 6.247919797897338867e-02 -3.536607623100280762e-01 4.695196151733398438e-01
2.944000000000000000e+03 5.923296451568603516e+00 8.764693260192871094e+00 1.122013549320399761e-03 -1.335053675575181842e-04 2.965524327009916306e-04 -6.213804590515792370e-05
2.945000000000000000e+03 7.409300994873046875e+01 -1.142517948150634766e+01 -1.125678494572639465e-01 9.582110404968261719e+00 2.840862751007080078e+00 -1.557187676429748535e+00
2.946000000000000000e+03 7.496375274658203125e+01 -7.484938621520996094e+00 1.532103180885314941e+00 8.390247344970703125e+00 2.976705312728881836e+00 -6.355557441711425781e-01
2.947000000000000000e+03 7.525783538818359375e+01 -9.142859458923339844e+00 8.968077301979064941e-01 8.411213874816894531e+00 2.792406558990478516e+00 -1.275374770164489746e+00
2.948000000000000000e+03 7.227764129638671875e+01 8.217174530029296875e+00 -5.648468136787414551e-01 7.664717674255371094e+00 2.129961252212524414e+00 -3.826947510242462158e-01
2.949000000000000000e+03 2.413315391540527344e+01 1.928334355354309082e+00 -2.653772234916687012e-01 -2.903430163860321045e-01 -1.667160689830780029e-01 4.900700151920318604e-01
2.950000000000000000e+03 2.421036529541015625e+01 5.766746997833251953e-01 -2.545821070671081543e-01 -2.297711074352264404e-01 -1.453059613704681396e-01 4.239703416824340820e-01
2.951000000000000000e+03 7.300579833984375000e+01 1.124402284622192383e+00 -1.005406618118286133e+00 9.575825691223144531e+00 2.571125745773315430e+00 7.093930244445800781e-01
2.952000000000000000e+03 2.522951316833496094e+01 1.003269672393798828e+01 -4.527184069156646729e-01 -4.078413248062133789e-01 -2.581679224967956543e-01 6.954967975616455078e-01
2.953000000000000000e+03 2.584725952148437500e+01 3.143379449844360352e+00 -3.522877991199493408e-01 -2.702271938323974609e-01 -1.867544949054718018e-01 6.063594222068786621e-01
2.954000000000000000e+03 2.606617736816406250e+01 5.689237594604492188e+00 -3.959855139255523682e-01 -3.158851265907287598e-01 -2.135611921548843384e-01 6.930856108665466309e-01
2.955000000000000000e+03 6.945989227294921875e+01 1.936454582214355469e+01 9.558919817209243774e-02 5.938263416290283203e+00 1.810155868530273438e+00 -6.577137708663940430e-01
2.956000000000000000e+03 7.132581329345703125e+01 1.646538162231445312e+01 -3.245749324560165405e-02 6.555121898651123047e+00 1.956799268722534180e+00 -6.217352747917175293e-01
2.957000000000000000e+03 7.264705657958984375e+01 -2.364396095275878906e+01 -2.756766080856323242e-01 7.491561889648437500e+00 2.164765596389770508e+00 3.394739925861358643e-01
2.958000000000000000e+03 7.018561553955078125e+01 -2.336561393737792969e+01 -3.105131387710571289e-01 6.823520660400390625e+00 1.953902244567871094e+00 6.173610091209411621e-01
2.959000000000000000e+03 7.048558807373046875e+01 1.213907337188720703e+01 -2.389085292816162109e-01 6.685380458831787109e+00 1.933941602706909180e+00 -6.972127556800842285e-01
2.960000000000000000e+03 7.215563201904296875e+01 9.537737846374511719e+00 -4.439155459403991699e-01 7.425296783447265625e+00 2.094414234161376953e+00 -4.696533977985382080e-01
2.961000000000000000e+03 7.254476165771484375e+01 4.486586093902587891e+00 -9.565790891647338867e-01 8.535609245300292969e+00 2.273709058761596680e+00 -2.108512632548809052e-02
2.962000000000000000e+03 7.221894836425781250e+01 1.440320253372192383e+00 -1.205081343650817871e+00 9.648288726806640625e+00 2.532962322235107422e+00 3.217449784278869629e-01
2.963000000000000000e+03 7.156092834472656250e+01 -1.757155990600585938e+01 -9.792905449867248535e-01 8.392178535461425781e+00 2.223866462707519531e+00 2.622545063495635986e-01
2.964000000000000000e+03 2.653715896606445312e+01 7.829865932464599609e+00 -4.270479083061218262e-01 -3.046041727066040039e-01 -2.194956243038177490e-01 7.235544919967651367e-01
2.965000000000000000e+03 2.522596740722656250e+01 7.482969284057617188e+00 -4.188762307167053223e-01 -3.869105279445648193e-01 -2.417360246181488037e-01 7.092729210853576660e-01
2.966000000000000000e+03 7.074964904785156250e+01 -2.067992782592773438e+01 -5.880178809165954590e-01 7.400878906250000000e+00 2.043858289718627930e+00 5.529114603996276855e-01
2.967000000000000000e+03 7.026202392578125000e+01 1.355768108367919922e+01 -1.565915197134017944e-01 6.495761871337890625e+00 1.901751160621643066e+00 -7.186910510063171387e-01
2.968000000000000000e+03 7.127102661132812500e+01 5.745430946350097656e+00 -8.993727564811706543e-01 7.980626106262207031e+00 2.124375820159912109e+00 -4.734041094779968262e-01
2.969000000000000000e+03 7.089149475097656250e+01 -2.231707000732421875e+01 -4.109377264976501465e-01 7.170773506164550781e+00 2.027950763702392578e+00 5.348202586174011230e-01
2.970000000000000000e+03 7.304857635498046875e+01 -2.255627441406250000e+01 -3.317327797412872314e-01 7.667788028717041016e+00 2.200816631317138672e+00 2.643334865570068359e-01
2.971000000000000000e+03 7.003409576416015625e+01 1.506716251373291016e+01 -6.535582989454269409e-02 6.310102939605712891e+00 1.873424172401428223e+00 -7.201805710792541504e-01
2.972000000000000000e+03 6.859866333007812500e+01 -3.057208251953125000e+01 1.548061519861221313e-01 5.877328872680664062e+00 1.809640526771545410e+00 5.232775807380676270e-01
2.973000000000000000e+03 1.373451137542724609e+01 2.477927780151367188e+01 3.512651100754737854e-02 -8.703385591506958008e-01 -2.505636215209960938e-01 4.761974811553955078e-01
2.974000000000000000e+03 1.064253425598144531e+01 2.636558914184570312e+01 3.647862747311592102e-02 -6.916770339012145996e-01 -1.965595185756683350e-01 4.641965627670288086e-01
2.975000000000000000e+03 1.783030128479003906e+01 3.270715332031250000e+01 3.851218819618225098e-01 -6.982004642486572266e-01 -9.392356872558593750e-02 2.355867326259613037e-01
2.976000000000000000e+03 9.179407119750976562e+00 2.991094207763671875e+01 1.091764196753501892e-01 -6.617193818092346191e-01 -1.657628864049911499e-01 3.696287870407104492e-01
2.977000000000000000e+03 7.081554412841796875e+01 2.220638275146484375e+01 1.119739711284637451e-01 6.136224269866943359e+00 1.874459505081176758e+00 -5.414386987686157227e-01
2.978000000000000000e+03 7.033910369873046875e+01 2.560045814514160156e+01 1.433240920305252075e-01 5.926771640777587891e+00 1.821028709411621094e+00 -4.557791650295257568e-01
2.979000000000000000e+03 7.055844879150390625e+01 2.383086776733398438e+01 1.346893608570098877e-01 6.035873889923095703e+00 1.851168870925903320e+00 -4.959011077880859375e-01
2.980000000000000000e+03 2.320823669433593750e+01 1.743179702758789062e+01 -3.141196072101593018e-01 -5.938735604286193848e-01 -2.723979353904724121e-01 4.444599747657775879e-01
2.981000000000000000e+03 9.733178138732910156e+00 -2.911562347412109375e+01 5.620837956666946411e-02 -3.385289311408996582e-01 -8.469616621732711792e-02 -2.211978882551193237e-01
2.982000000000000000e+03 2.090077400207519531e+01 1.965123367309570312e+01 -2.503257393836975098e-01 -7.624569535255432129e-01 -3.038348257541656494e-01 3.825628459453582764e-01
2.983000000000000000e+03 1.977596473693847656e+01 2.311713600158691406e+01 3.609947487711906433e-02 -7.925873994827270508e-01 -2.269463837146759033e-01 3.309728801250457764e-01
2.984000000000000000e+03 1.430342388153076172e+01 -2.660838890075683594e+01 5.193780735135078430e-02 -3.332331478595733643e-01 -8.438859879970550537e-02 -2.633135616779327393e-01
2.985000000000000000e+03 2.063526344299316406e+01 -1.924380493164062500e+01 -2.260144799947738647e-01 -1.508854478597640991e-01 -1.130699738860130310e-01 -3.533011376857757568e-01
2.986000000000000000e+03 2.323432350158691406e+01 -1.524685859680175781e+01 -3.877023160457611084e-01 -5.302678421139717102e-02 -1.322187334299087524e-01 -3.829935789108276367e-01
2.987000000000000000e+03 1.005139255523681641e+01 -2.276744270324707031e+01 -6.720106303691864014e-02 -3.027212321758270264e-01 -1.109766885638237000e-01 -2.663368284702301025e-01
2.988000000000000000e+03 8.323187828063964844e+00 -2.193104553222656250e+01 -1.045466959476470947e-01 -2.419242709875106812e-01 -1.039412915706634521e-01 -2.619707584381103516e-01
2.989000000000000000e+03 6.976398468017578125e+01 1.782682418823242188e+01 4.821855202317237854e-02 6.058792114257812500e+00 1.832103252410888672e+00 -6.778886914253234863e-01
2.990000000000000000e+03 6.997936248779296875e+01 1.649589157104492188e+01 -1.183636672794818878e-02 6.206668376922607422e+00 1.858449578285217285e+00 -7.052349448204040527e-01
2.991000000000000000e+03 7.097107696533203125e+01 9.541687011718750000e+00 -4.702766835689544678e-01 7.112720489501953125e+00 1.992733120918273926e+00 -6.456224322319030762e-01
2.992000000000000000e+03 6.847889709472656250e+01 -2.775930595397949219e+01 4.512396454811096191e-02 5.921080589294433594e+00 1.789861440658569336e+00 5.854164958000183105e-01
2.993000000000000000e+03 1.564041614532470703e+01 2.560077476501464844e+01 1.306941062211990356e-01 -8.650513887405395508e-01 -2.203071862459182739e-01 3.976566791534423828e-01
2.994000000000000000e+03 1.922466850280761719e+01 -2.255620956420898438e+01 -8.796472102403640747e-02 -2.330087572336196899e-01 -9.629204124212265015e-02 -3.178977966308593750e-01
2.995000000000000000e+03 2.409633064270019531e+01 9.855070114135742188e+00 -4.616436958312988281e-01 -5.052452087402343750e-01 -2.900666594505310059e-01 6.945015788078308105e-01
2.996000000000000000e+03 2.407444381713867188e+01 1.404950809478759766e+01 -4.445558190345764160e-01 -5.055463910102844238e-01 -2.850306630134582520e-01 5.727126002311706543e-01
2.997000000000000000e+03 6.873155975341796875e+01 3.017181205749511719e+01 1.969172060489654541e-01 5.483424186706542969e+00 1.704102396965026855e+00 -3.560345768928527832e-01
2.998000000000000000e+03 9.517118453979492188e+00 2.743547821044921875e+01 5.391440168023109436e-02 -6.422484517097473145e-01 -1.765002310276031494e-01 4.285096824169158936e-01
2.999000000000000000e+03 2.218160820007324219e+01 -1.964817810058593750e+01 -2.086033076047897339e-01 -1.412601321935653687e-01 -1.049590334296226501e-01 -3.823645114898681641e-01
3.000000000000000000e+03 2.220601272583007812e+01 -1.798864364624023438e+01 -2.867518365383148193e-01 -1.072084754705429077e-01 -1.181880980730056763e-01 -3.823425471782684326e-01
3.001000000000000000e+03 7.030821800231933594e+00 -2.205076980590820312e+01 -9.538130462169647217e-02 -1.624587476253509521e-01 -7.735201716423034668e-02 -2.007355540990829468e-01
3.002000000000000000e+03 6.855939483642578125e+01 2.556567955017089844e+01 1.932547986507415771e-01 5.537999629974365234e+00 1.719376325607299805e+00 -5.172222852706909180e-01
3.003000000000000000e+03 6.650805664062500000e+01 -2.996251821517944336e+00 1.948687285184860229e-01 6.561898708343505859e+00 2.027030229568481445e+00 -4.440704822540283203e+00
3.004000000000000000e+03 6.831866455078125000e+01 -3.460301637649536133e+00 -9.947885870933532715e-01 1.366600418090820312e+01 3.801364660263061523e+00 -3.478559494018554688e+00
3.005000000000000000e+03 6.634953308105468750e+01 -9.893860816955566406e+00 2.862976491451263428e-01 6.100544452667236328e+00 1.916052579879760742e+00 4.288398265838623047e+00
3.006000000000000000e+03 6.847010803222656250e+01 -9.361764907836914062e+00 -1.035389184951782227e+00 1.422631454467773438e+01 3.957277536392211914e+00 2.974631547927856445e+00
3.007000000000000000e+03 6.850802612304687500e+01 -2.977559089660644531e+00 -1.247598528861999512e+00 1.314827346801757812e+01 3.570202589035034180e+00 -2.794074296951293945e+00
3.008000000000000000e+03 6.804155731201171875e+01 -1.013236713409423828e+01 -1.024462461471557617e+00 1.147423458099365234e+01 3.134931802749633789e+00 3.436838626861572266e+00
3.009000000000000000e+03 6.416469573974609375e+01 -1.074778556823730469e+01 1.103720217943191528e-01 2.619904756546020508e+00 8.190829753875732422e-01 2.516208648681640625e+00
3.010000000000000000e+03 6.913558959960937500e+01 -3.206724166870117188e+00 -1.119611978530883789e+00 1.451799106597900391e+01 4.019513607025146484e+00 -1.457039475440979004e+00
3.011000000000000000e+03 6.560091400146484375e+01 -9.920149803161621094e+00 4.060215353965759277e-01 4.089123249053955078e+00 1.348543405532836914e+00 3.594246625900268555e+00
3.012000000000000000e+03 6.476610565185546875e+01 -9.812962532043457031e+00 2.710903286933898926e-01 2.555261850357055664e+00 8.479056358337402344e-01 2.765456676483154297e+00
3.013000000000000000e+03 7.123197937011718750e+01 -7.471077919006347656e+00 4.468609333038330078e+00 1.263173580169677734e+01 5.130103588104248047e+00 -1.643965721130371094e+00
3.014000000000000000e+03 7.194941711425781250e+01 -6.088002204895019531e+00 4.562287807464599609e+00 1.122359275817871094e+01 4.735764026641845703e+00 3.920510113239288330e-01
3.015000000000000000e+03 7.181510162353515625e+01 -6.470049858093261719e+00 4.757406711578369141e+00 1.135590839385986328e+01 4.833994388580322266e+00 -9.480276703834533691e-02
3.016000000000000000e+03 7.085796356201171875e+01 -4.701860904693603516e+00 3.175067663192749023e+00 1.374557399749755859e+01 5.076192378997802734e+00 2.044906377792358398e+00
3.017000000000000000e+03 7.155674743652343750e+01 -7.295448303222656250e+00 4.522777080535888672e+00 1.204012012481689453e+01 4.968869209289550781e+00 -1.327942252159118652e+00
3.018000000000000000e+03 7.185508728027343750e+01 -6.872684001922607422e+00 4.575199127197265625e+00 1.137878894805908203e+01 4.786196708679199219e+00 -6.476496458053588867e-01
3.019000000000000000e+03 6.903844451904296875e+01 -9.551096916198730469e+00 -1.088670134544372559e+00 1.465884399414062500e+01 4.071052074432373047e+00 1.623801946640014648e+00
3.020000000000000000e+03 6.998046112060546875e+01 -9.214404106140136719e+00 -5.969982966780662537e-02 1.494232082366943359e+01 4.464786529541015625e+00 -6.204958558082580566e-01
3.021000000000000000e+03 7.284015655517578125e+01 -8.033565521240234375e+00 2.614304065704345703e+00 1.050129413604736328e+01 3.934679508209228516e+00 -1.453336954116821289e+00
3.022000000000000000e+03 7.047595977783203125e+01 -3.657128572463989258e+00 6.239649057388305664e-01 1.427678871154785156e+01 4.470226287841796875e+00 1.309049487113952637e+00
3.023000000000000000e+03 6.787690734863281250e+01 -3.462541103363037109e+00 -6.992264389991760254e-01 1.216580009460449219e+01 3.439972162246704102e+00 -4.350764274597167969e+00
3.024000000000000000e+03 7.412834930419921875e+01 -3.211178541183471680e+00 8.676993250846862793e-01 9.435645103454589844e+00 3.091003417968750000e+00 1.581001877784729004e+00
3.025000000000000000e+03 7.393655395507812500e+01 -1.061479854583740234e+01 2.165697664022445679e-01 9.682015419006347656e+00 2.969575643539428711e+00 -1.621167421340942383e+00
3.026000000000000000e+03 6.889499664306640625e+01 -1.020847415924072266e+01 -1.347001552581787109e+00 1.298276615142822266e+01 3.490729570388793945e+00 1.966759324073791504e+00
3.027000000000000000e+03 7.090304565429687500e+01 -9.208113670349121094e+00 8.557330965995788574e-01 1.350650024414062500e+01 4.308670043945312500e+00 -1.569531679153442383e+00
3.028000000000000000e+03 6.533956146240234375e+01 -1.922930240631103516e+00 5.306569486856460571e-02 4.373034954071044922e+00 1.327830195426940918e+00 -3.389077901840209961e+00
3.029000000000000000e+03 6.325163269042968750e+01 -1.167799568176269531e+01 -3.435068577527999878e-02 2.274942874908447266e+00 6.721776723861694336e-01 2.067877769470214844e+00
3.030000000000000000e+03 7.215048980712890625e+01 -7.896378040313720703e+00 3.200236082077026367e+00 1.127811336517333984e+01 4.343504905700683594e+00 -1.534655213356018066e+00
3.031000000000000000e+03 7.406562042236328125e+01 -8.447454452514648438e+00 1.704901695251464844e+00 9.344269752502441406e+00 3.314751386642456055e+00 -1.314884185791015625e+00
3.032000000000000000e+03 3.792243194580078125e+01 1.003616094589233398e+00 -8.894546031951904297e-01 2.394097670912742615e-02 -2.596540749073028564e-01 6.312291622161865234e-01
3.033000000000000000e+03 4.019325256347656250e+01 3.186441361904144287e-01 -1.050209283828735352e+00 2.264653332531452179e-02 -3.082688450813293457e-01 5.908477306365966797e-01
3.034000000000000000e+03 7.447976684570312500e+01 -5.809069156646728516e+00 2.088820695877075195e+00 8.698585510253906250e+00 3.236221790313720703e+00 3.619075119495391846e-01
3.035000000000000000e+03 7.480262756347656250e+01 -5.150413513183593750e+00 1.624321818351745605e+00 8.519208908081054688e+00 3.043059349060058594e+00 7.369987368583679199e-01
3.036000000000000000e+03 7.433026885986328125e+01 -2.581444978713989258e+00 5.154623389244079590e-01 9.350177764892578125e+00 2.959692001342773438e+00 1.605284333229064941e+00
3.037000000000000000e+03 7.430949401855468750e+01 -1.971157193183898926e+00 1.216656044125556946e-01 9.422753334045410156e+00 2.863325595855712891e+00 1.570778250694274902e+00
3.038000000000000000e+03 6.381103515625000000e+01 -1.146047496795654297e+01 2.427683025598526001e-02 2.666635274887084961e+00 8.072736263275146484e-01 2.348513364791870117e+00
3.039000000000000000e+03 2.745716094970703125e+01 9.258405566215515137e-01 -4.250578880310058594e-01 -1.427274048328399658e-01 -1.703355908393859863e-01 5.483971238136291504e-01
3.040000000000000000e+03 2.716805458068847656e+01 -1.522068530321121216e-01 -4.090566635131835938e-01 -1.228864416480064392e-01 -1.595829278230667114e-01 4.794452190399169922e-01
3.041000000000000000e+03 7.281832885742187500e+01 -1.279576683044433594e+01 -9.107564687728881836e-01 1.011547660827636719e+01 2.761415958404541016e+00 -9.335427284240722656e-01
3.042000000000000000e+03 3.062957954406738281e+01 1.246729969978332520e+00 -5.741155147552490234e-01 -6.712498515844345093e-02 -1.923721432685852051e-01 6.202087402343750000e-01
3.043000000000000000e+03 7.214424896240234375e+01 -1.427935409545898438e+01 -1.190475106239318848e+00 9.627153396606445312e+00 2.531003475189208984e+00 -3.080348074436187744e-01
3.044000000000000000e+03 4.245642471313476562e+01 1.146799325942993164e+00 -1.010901451110839844e+00 4.753090068697929382e-02 -2.890111804008483887e-01 5.879027247428894043e-01
3.045000000000000000e+03 3.111391830444335938e+01 8.174747824668884277e-01 -6.051201820373535156e-01 -5.332326889038085938e-02 -1.975330412387847900e-01 6.056175827980041504e-01
3.046000000000000000e+03 6.353188705444335938e+01 -1.149996757507324219e+00 -7.195907831192016602e-02 2.503558158874511719e+00 7.294797301292419434e-01 -2.283817529678344727e+00
3.047000000000000000e+03 6.274726104736328125e+01 1.981945753097534180e+00 -1.322847157716751099e-01 3.118552207946777344e+00 8.958802223205566406e-01 -1.969805955886840820e+00
3.048000000000000000e+03 3.004841995239257812e+01 6.307199001312255859e-01 -5.570015311241149902e-01 -7.207940518856048584e-02 -1.887242794036865234e-01 5.816168785095214844e-01
3.049000000000000000e+03 6.414372253417968750e+01 -1.215447545051574707e+00 -2.169345133006572723e-02 3.099597215652465820e+00 9.233711361885070801e-01 -2.629808902740478516e+00
3.050000000000000000e+03 4.482595062255859375e+01 -1.432986545562744141e+01 -8.812290430068969727e-01 1.367238536477088928e-02 -2.602669894695281982e-01 -4.630692601203918457e-01
3.051000000000000000e+03 5.339915084838867188e+01 1.286314845085144043e+00 -8.521019220352172852e-01 3.222925066947937012e-01 -1.589428186416625977e-01 6.280262768268585205e-02
3.052000000000000000e+03 4.151931762695312500e+01 -1.363891410827636719e+01 -9.503744244575500488e-01 -1.944839581847190857e-02 -2.909468412399291992e-01 -4.838889539241790771e-01
3.053000000000000000e+03 4.410082244873046875e+01 -1.453509521484375000e+01 -8.425928354263305664e-01 9.387741796672344208e-03 -2.499615252017974854e-01 -4.778955280780792236e-01
3.054000000000000000e+03 3.926025390625000000e+01 -1.385492992401123047e+01 -8.605981469154357910e-01 -3.080338798463344574e-02 -2.674204707145690918e-01 -4.962753057479858398e-01
3.055000000000000000e+03 4.102196502685546875e+01 -1.534577560424804688e+01 -6.714424490928649902e-01 -1.443275623023509979e-02 -2.057625502347946167e-01 -5.109079480171203613e-01
3.056000000000000000e+03 3.421002960205078125e+01 4.911986589431762695e-01 -7.681614756584167480e-01 -7.815744727849960327e-03 -2.327931672334671021e-01 6.106446385383605957e-01
3.057000000000000000e+03 4.668349838256835938e+01 -1.336963653564453125e+01 -1.066981911659240723e+00 3.571817278861999512e-02 -3.093791007995605469e-01 -4.333172142505645752e-01
3.058000000000000000e+03 4.742311859130859375e+01 -1.429444599151611328e+01 -8.634510636329650879e-01 7.367034256458282471e-02 -2.369342148303985596e-01 -4.036819338798522949e-01
3.059000000000000000e+03 4.857272720336914062e+01 -1.501260948181152344e+01 -6.907228231430053711e-01 1.213390976190567017e-01 -1.708151251077651978e-01 -3.531694114208221436e-01
3.060000000000000000e+03 4.601055908203125000e+01 -1.403583335876464844e+01 -9.331838488578796387e-01 3.626887500286102295e-02 -2.690744996070861816e-01 -4.444713592529296875e-01
3.061000000000000000e+03 5.148631668090820312e+01 -1.431912040710449219e+01 -7.621724605560302734e-01 1.872021853923797607e-01 -1.724910885095596313e-01 -2.255996614694595337e-01
3.062000000000000000e+03 4.666415786743164062e+01 -1.414433288574218750e+01 -9.124442338943481445e-01 4.954614117741584778e-02 -2.588694095611572266e-01 -4.300953149795532227e-01
3.063000000000000000e+03 4.816383743286132812e+01 -1.346185588836669922e+01 -1.043204069137573242e+00 6.658042222261428833e-02 -2.929871082305908203e-01 -3.961850404739379883e-01
3.064000000000000000e+03 3.719612884521484375e+01 1.725747585296630859e-01 -9.334250688552856445e-01 1.466755662113428116e-02 -2.756272554397583008e-01 5.984714031219482422e-01
3.065000000000000000e+03 3.491271972656250000e+01 6.642145514488220215e-01 -7.893588542938232422e-01 -1.083441195078194141e-03 -2.371326982975006104e-01 6.206743717193603516e-01
3.066000000000000000e+03 3.557811737060546875e+01 -1.380429172515869141e+01 -7.650901675224304199e-01 -5.329780653119087219e-02 -2.455163896083831787e-01 -4.721279740333557129e-01
3.067000000000000000e+03 3.739586257934570312e+01 -1.459072399139404297e+01 -7.296574711799621582e-01 -4.955677315592765808e-02 -2.337642610073089600e-01 -5.055674910545349121e-01
3.068000000000000000e+03 5.223486328125000000e+01 -1.416628551483154297e+01 -7.585484385490417480e-01 2.302706688642501831e-01 -1.584833413362503052e-01 -1.848015338182449341e-01
3.069000000000000000e+03 5.295389556884765625e+01 -1.399543094635009766e+01 -7.576223611831665039e-01 2.628400027751922607e-01 -1.484347134828567505e-01 -1.279931664466857910e-01
3.070000000000000000e+03 3.794877624511718750e+01 2.348521053791046143e-01 -9.631361365318298340e-01 1.717283949255943298e-02 -2.837890088558197021e-01 5.983235239982604980e-01
3.071000000000000000e+03 7.264098358154296875e+01 3.769307136535644531e-01 -1.013507127761840820e+00 9.973506927490234375e+00 2.687999963760375977e+00 7.642437219619750977e-01
3.072000000000000000e+03 7.272323608398437500e+01 -2.178761005401611328e+00 1.906835474073886871e-02 1.076367378234863281e+01 3.234822750091552734e+00 1.511766672134399414e+00
3.073000000000000000e+03 5.365475082397460938e+01 -1.383885097503662109e+01 -7.707923650741577148e-01 2.619546353816986084e-01 -1.526513248682022095e-01 -7.863008230924606323e-02
3.074000000000000000e+03 7.386751556396484375e+01 -3.851167917251586914e+00 1.349725723266601562e+00 9.586095809936523438e+00 3.280746698379516602e+00 1.511418342590332031e+00
3.075000000000000000e+03 3.870048522949218750e+01 2.938237488269805908e-01 -9.927597641944885254e-01 1.750960014760494232e-02 -2.925750315189361572e-01 5.964890718460083008e-01
3.076000000000000000e+03 3.644261932373046875e+01 1.668265461921691895e+00 -7.815556526184082031e-01 7.871417328715324402e-03 -2.321052849292755127e-01 6.589382886886596680e-01
3.077000000000000000e+03 3.483588790893554688e+01 -1.397177124023437500e+01 -7.323127388954162598e-01 -5.591488257050514221e-02 -2.364682853221893311e-01 -4.733141064643859863e-01
3.078000000000000000e+03 5.898987197875976562e+01 2.057453244924545288e-02 -6.077319979667663574e-01 8.285987377166748047e-01 6.626003235578536987e-02 -7.062734961509704590e-01
3.079000000000000000e+03 5.749275588989257812e+01 1.080067276954650879e+00 -5.305594801902770996e-01 7.724918127059936523e-01 7.257968932390213013e-02 -5.143667459487915039e-01
3.080000000000000000e+03 5.665203857421875000e+01 3.525241017341613770e-01 -8.210400938987731934e-01 5.025395154953002930e-01 -9.555017203092575073e-02 -2.697173655033111572e-01
3.081000000000000000e+03 3.643408584594726562e+01 8.745241165161132812e-01 -8.392493128776550293e-01 7.281731814146041870e-03 -2.495902776718139648e-01 6.299550533294677734e-01
3.082000000000000000e+03 5.485232162475585938e+01 -1.365218639373779297e+01 -7.240338325500488281e-01 3.642602562904357910e-01 -1.079320833086967468e-01 3.048678860068321228e-02
3.083000000000000000e+03 3.664691543579101562e+01 -1.522077083587646484e+01 -6.338559389114379883e-01 -5.337251722812652588e-02 -2.061685323715209961e-01 -5.156807899475097656e-01
3.084000000000000000e+03 3.818397521972656250e+01 -1.534396553039550781e+01 -6.403416395187377930e-01 -4.092716798186302185e-02 -2.043806463479995728e-01 -5.202984213829040527e-01
3.085000000000000000e+03 4.929489135742187500e+01 1.844988942146301270e+00 -8.938021063804626465e-01 1.721758544445037842e-01 -2.164878696203231812e-01 3.670647740364074707e-01
3.086000000000000000e+03 5.503393936157226562e+01 1.246914744377136230e+00 -7.398584485054016113e-01 4.434126913547515869e-01 -8.893372863531112671e-02 -1.209840029478073120e-01
3.087000000000000000e+03 5.666030502319335938e+01 1.121381402015686035e+00 -6.142922043800354004e-01 6.289785504341125488e-01 4.405907355248928070e-03 -3.519633710384368896e-01
3.088000000000000000e+03 5.664785766601562500e+01 1.879111766815185547e+00 -4.489195644855499268e-01 7.425029277801513672e-01 8.807501196861267090e-02 -4.293121695518493652e-01
3.089000000000000000e+03 4.094701766967773438e+01 1.041147232055664062e+00 -9.835753440856933594e-01 3.490689769387245178e-02 -2.846005260944366455e-01 6.076725125312805176e-01
3.090000000000000000e+03 4.935076904296875000e+01 3.183884620666503906e-01 -1.250146985054016113e+00 9.670179337263107300e-02 -3.460335433483123779e-01 3.814432919025421143e-01
3.091000000000000000e+03 3.405008697509765625e+01 -1.392133712768554688e+01 -7.096052169799804688e-01 -5.595933273434638977e-02 -2.296693623065948486e-01 -4.698814451694488525e-01
3.092000000000000000e+03 3.370827102661132812e+01 -1.457344341278076172e+01 -6.434729695320129395e-01 -6.185948848724365234e-02 -2.115997374057769775e-01 -4.861923456192016602e-01
3.093000000000000000e+03 4.934846496582031250e+01 1.067719697952270508e+00 -1.077155828475952148e+00 1.323141008615493774e-01 -2.834525108337402344e-01 3.757071197032928467e-01
3.094000000000000000e+03 5.008892440795898438e+01 1.113898634910583496e+00 -1.058401942253112793e+00 1.402106434106826782e-01 -2.754573822021484375e-01 3.395696580410003662e-01
3.095000000000000000e+03 5.075125885009765625e+01 1.440398454666137695e+00 -9.455847144126892090e-01 2.140500694513320923e-01 -2.194603830575942993e-01 2.815660536289215088e-01
3.096000000000000000e+03 4.486785888671875000e+01 5.203477144241333008e-01 -1.174006342887878418e+00 5.355483666062355042e-02 -3.361354470252990723e-01 5.289023518562316895e-01
3.097000000000000000e+03 4.232092285156250000e+01 1.870344400405883789e+00 -9.050726294517517090e-01 5.937402695417404175e-02 -2.537095844745635986e-01 6.032891273498535156e-01
3.098000000000000000e+03 4.564369964599609375e+01 4.564137458801269531e-01 -1.194692373275756836e+00 5.806915834546089172e-02 -3.409869670867919922e-01 5.066356658935546875e-01
3.099000000000000000e+03 5.634437179565429688e+01 -1.303725814819335938e+01 -7.661515474319458008e-01 4.154329001903533936e-01 -1.052155941724777222e-01 1.586346626281738281e-01
3.100000000000000000e+03 5.639192962646484375e+01 -1.383509922027587891e+01 -5.437070727348327637e-01 5.515941381454467773e-01 2.366108354181051254e-03 2.574307918548583984e-01
3.101000000000000000e+03 5.394335937500000000e+01 -1.457018184661865234e+01 -5.589982867240905762e-01 3.715226650238037109e-01 -5.624268576502799988e-02 -6.682415027171373367e-03
3.102000000000000000e+03 3.200666427612304688e+01 -1.533213901519775391e+01 -5.342720150947570801e-01 -6.549447029829025269e-02 -1.799299418926239014e-01 -4.879658520221710205e-01
3.103000000000000000e+03 3.148222541809082031e+01 -1.454741573333740234e+01 -5.902957320213317871e-01 -5.871111527085304260e-02 -1.947020590305328369e-01 -4.669140875339508057e-01
3.104000000000000000e+03 5.421630859375000000e+01 1.289803624153137207e+00 -7.954967617988586426e-01 3.738888800144195557e-01 -1.264823675155639648e-01 -2.655797079205513000e-02
3.105000000000000000e+03 5.349474334716796875e+01 4.479204714298248291e-01 -1.076172232627868652e+00 2.412914037704467773e-01 -2.504642605781555176e-01 1.089344993233680725e-01
3.106000000000000000e+03 3.868099212646484375e+01 1.118303060531616211e+00 -9.069553017616271973e-01 2.187563478946685791e-02 -2.655239105224609375e-01 6.286568641662597656e-01
3.107000000000000000e+03 5.801032257080078125e+01 -1.359522342681884766e+01 -4.182861745357513428e-01 8.014355301856994629e-01 1.149448007345199585e-01 5.344779491424560547e-01
3.108000000000000000e+03 3.025977134704589844e+01 -1.590203380584716797e+01 -4.613895416259765625e-01 -6.749229133129119873e-02 -1.586645543575286865e-01 -4.866667687892913818e-01
3.109000000000000000e+03 2.860438728332519531e+01 -1.527339935302734375e+01 -4.690954983234405518e-01 -5.688975751399993896e-02 -1.577955782413482666e-01 -4.575006067752838135e-01
3.110000000000000000e+03 2.427076530456542969e+01 -1.515827751159667969e+01 -4.041702449321746826e-01 -4.899249970912933350e-02 -1.359488219022750854e-01 -4.002274870872497559e-01
3.111000000000000000e+03 6.187849044799804688e+01 1.134987831115722656e+00 -1.187952309846878052e-01 2.315446138381958008e+00 6.589952707290649414e-01 -1.718659520149230957e+00
3.112000000000000000e+03 6.142451858520507812e+01 2.348579615354537964e-01 -2.140745967626571655e-01 1.751686692237854004e+00 4.612836241722106934e-01 -1.494357347488403320e+00
3.113000000000000000e+03 5.943115615844726562e+01 -1.264363574981689453e+01 -4.753284752368927002e-01 8.710358738899230957e-01 1.187122166156768799e-01 7.409507036209106445e-01
3.114000000000000000e+03 6.259182739257812500e+01 -1.317317199707031250e+01 -2.017977274954319000e-02 2.494968175888061523e+00 7.424364686012268066e-01 1.900790452957153320e+00
3.115000000000000000e+03 4.723251724243164062e+01 1.088068842887878418e+00 -1.085712432861328125e+00 8.696460723876953125e-02 -2.996243536472320557e-01 4.684151709079742432e-01
3.116000000000000000e+03 2.635948753356933594e+01 -1.719070434570312500e+01 -3.362236618995666504e-01 -7.783815264701843262e-02 -1.242185384035110474e-01 -4.521064758300781250e-01
3.117000000000000000e+03 6.186055374145507812e+01 -1.303586578369140625e+01 -7.201238721609115601e-02 1.964250802993774414e+00 5.676715373992919922e-01 1.597585201263427734e+00
3.118000000000000000e+03 6.109307098388671875e+01 -1.301060867309570312e+01 -1.566032469272613525e-01 1.561004996299743652e+00 4.213205277919769287e-01 1.314922094345092773e+00
3.119000000000000000e+03 5.877965545654296875e+01 -1.349871444702148438e+01 -3.531745672225952148e-01 9.191678762435913086e-01 1.697979867458343506e-01 6.908955574035644531e-01
3.120000000000000000e+03 5.954953765869140625e+01 -1.334277153015136719e+01 -2.983004450798034668e-01 1.107437729835510254e+00 2.427411675453186035e-01 8.631882071495056152e-01
3.121000000000000000e+03 7.487073516845703125e+01 -9.700495719909667969e+00 6.475725769996643066e-01 8.798013687133789062e+00 2.833675861358642578e+00 -1.485407471656799316e+00
3.122000000000000000e+03 7.465547180175781250e+01 -8.796797752380371094e+00 1.248721003532409668e+00 8.843029975891113281e+00 3.027525186538696289e+00 -1.316854953765869141e+00
3.123000000000000000e+03 2.222137641906738281e+01 -1.653959274291992188e+01 -3.380366563796997070e-01 -8.075385540723800659e-02 -1.256371587514877319e-01 -3.781111836433410645e-01
3.124000000000000000e+03 2.519428825378417969e+01 -1.480318355560302734e+01 -4.304445683956146240e-01 -4.413134232163429260e-02 -1.423727720975875854e-01 -4.083450436592102051e-01
3.125000000000000000e+03 6.346759414672851562e+01 -4.928288459777832031e-01 -8.736465871334075928e-02 2.787363052368164062e+00 8.099995255470275879e-01 -2.299050569534301758e+00
3.126000000000000000e+03 6.341829681396484375e+01 2.069064229726791382e-01 -1.229888573288917542e-01 3.061694622039794922e+00 8.816117048263549805e-01 -2.271405935287475586e+00
3.127000000000000000e+03 2.735915374755859375e+01 -1.562061786651611328e+01 -4.272255599498748779e-01 -5.750808492302894592e-02 -1.454200893640518188e-01 -4.497661590576171875e-01
3.128000000000000000e+03 7.457995605468750000e+01 -6.928162097930908203e+00 2.019496202468872070e+00 8.633131027221679688e+00 3.195788383483886719e+00 -3.095038533210754395e-01
3.129000000000000000e+03 7.403823852539062500e+01 -7.357388019561767578e+00 2.255229473114013672e+00 9.201613426208496094e+00 3.437052965164184570e+00 -7.101837396621704102e-01
3.130000000000000000e+03 7.414255523681640625e+01 -6.398459911346435547e+00 2.427930116653442383e+00 8.970452308654785156e+00 3.419514656066894531e+00 4.127526190131902695e-03
3.131000000000000000e+03 4.020886611938476562e+01 1.100690245628356934e+00 -9.572677016258239746e-01 2.991882525384426117e-02 -2.782046496868133545e-01 6.183368563652038574e-01
3.132000000000000000e+03 2.821505165100097656e+01 1.393035650253295898e+00 -4.571394622325897217e-01 -1.322327256202697754e-01 -1.768116503953933716e-01 5.862533450126647949e-01
3.133000000000000000e+03 7.174858856201171875e+01 -5.248758316040039062e+00 3.935661554336547852e+00 1.175952529907226562e+01 4.708556175231933594e+00 1.457667231559753418e+00
3.134000000000000000e+03 7.444258880615234375e+01 -1.024035263061523438e+01 4.266333281993865967e-01 9.299891471862792969e+00 2.917957544326782227e+00 -1.632014274597167969e+00
3.135000000000000000e+03 7.385412597656250000e+01 -9.066668510437011719e+00 1.323276638984680176e+00 9.669229507446289062e+00 3.297751903533935547e+00 -1.555535078048706055e+00
3.136000000000000000e+03 3.340047073364257812e+01 7.760554552078247070e-01 -7.097786664962768555e-01 -1.873176544904708862e-02 -2.185531258583068848e-01 6.235352754592895508e-01
3.137000000000000000e+03 2.947267341613769531e+01 1.250301003456115723e+00 -5.186784267425537109e-01 -9.512127935886383057e-02 -1.841399073600769043e-01 6.033362150192260742e-01
3.138000000000000000e+03 2.548925209045410156e+01 6.343420743942260742e-01 -3.216724395751953125e-01 -1.935934126377105713e-01 -1.545797586441040039e-01 4.731930792331695557e-01
3.139000000000000000e+03 2.558372497558593750e+01 1.852060079574584961e+00 -3.331287205219268799e-01 -2.338515073060989380e-01 -1.700940728187561035e-01 5.381374955177307129e-01
3.140000000000000000e+03 2.671995544433593750e+01 4.900851845741271973e-01 -3.893224298954010010e-01 -1.505103111267089844e-01 -1.619498282670974731e-01 5.043141245841979980e-01
3.141000000000000000e+03 7.043730926513671875e+01 4.475389003753662109e+00 -1.109506011009216309e+00 8.174471855163574219e+00 2.119489669799804688e+00 -7.212628126144409180e-01
3.142000000000000000e+03 6.892094421386718750e+01 1.348246955871582031e+01 -1.295092850923538208e-01 6.112227439880371094e+00 1.794815421104431152e+00 -8.117089867591857910e-01
3.143000000000000000e+03 6.911507415771484375e+01 1.197777938842773438e+01 -2.379263490438461304e-01 6.294328212738037109e+00 1.816920518875122070e+00 -8.333594799041748047e-01
3.144000000000000000e+03 2.550794601440429688e+01 -1.661148643493652344e+01 -3.587581217288970947e-01 -7.001189887523651123e-02 -1.286310106515884399e-01 -4.335726797580718994e-01
3.145000000000000000e+03 2.525029563903808594e+01 8.954128265380859375e+00 -4.385581910610198975e-01 -3.994041383266448975e-01 -2.513886988162994385e-01 7.096792459487915039e-01
3.146000000000000000e+03 2.529087066650390625e+01 1.126103591918945312e+01 -4.495342671871185303e-01 -4.082767665386199951e-01 -2.573433220386505127e-01 6.733174324035644531e-01
3.147000000000000000e+03 2.688141632080078125e+01 5.210110664367675781e+00 -4.102297425270080566e-01 -2.541148960590362549e-01 -1.993033885955810547e-01 6.958090662956237793e-01
3.148000000000000000e+03 7.156347656250000000e+01 3.472893476486206055e+00 -1.169792056083679199e+00 8.778972625732421875e+00 2.282754421234130859e+00 -2.503711283206939697e-01
3.149000000000000000e+03 2.608675384521484375e+01 9.002668380737304688e+00 -4.366697072982788086e-01 -3.401748836040496826e-01 -2.330533862113952637e-01 7.131040692329406738e-01
3.150000000000000000e+03 6.940281677246093750e+01 -2.444595336914062500e+01 -2.037848383188247681e-01 6.472035884857177734e+00 1.880475282669067383e+00 6.812234520912170410e-01
3.151000000000000000e+03 7.111555480957031250e+01 -2.415520858764648438e+01 -2.526128590106964111e-01 7.022011280059814453e+00 2.030819416046142578e+00 5.061207413673400879e-01
3.152000000000000000e+03 2.359378814697265625e+01 1.900539970397949219e+01 -2.170471698045730591e-01 -5.686025023460388184e-01 -2.356949001550674438e-01 3.922896087169647217e-01
3.153000000000000000e+03 7.222265625000000000e+01 -1.526000499725341797e+01 -1.143872022628784180e+00 9.263582229614257812e+00 2.435912847518920898e+00 -1.840308755636215210e-01
3.154000000000000000e+03 6.964260864257812500e+01 -1.725250816345214844e+01 -1.047154784202575684e+00 7.955018997192382812e+00 2.072359323501586914e+00 9.261130094528198242e-01
3.155000000000000000e+03 7.144340515136718750e+01 1.504382324218750000e+01 -7.839378714561462402e-02 6.693295001983642578e+00 1.984470367431640625e+00 -6.177253723144531250e-01
3.156000000000000000e+03 7.106866455078125000e+01 8.256984710693359375e+00 -6.075887084007263184e-01 7.379062652587890625e+00 2.031442165374755859e+00 -6.113577485084533691e-01
3.157000000000000000e+03 7.075634002685546875e+01 1.081844997406005859e+01 -3.487547636032104492e-01 6.879899024963378906e+00 1.959343314170837402e+00 -6.745324134826660156e-01
3.158000000000000000e+03 7.144707489013671875e+01 4.555345535278320312e+00 -1.050361633300781250e+00 8.362231254577636719e+00 2.193561077117919922e+00 -3.705207705497741699e-01
3.159000000000000000e+03 7.082841491699218750e+01 2.551950693130493164e+00 -1.327344655990600586e+00 9.057153701782226562e+00 2.318942546844482422e+00 -4.844629764556884766e-01
3.160000000000000000e+03 6.959829711914062500e+01 2.082293319702148438e+01 1.108251065015792847e-01 5.900622367858886719e+00 1.803434252738952637e+00 -6.195287704467773438e-01
3.161000000000000000e+03 7.172833251953125000e+01 -2.302973747253417969e+01 -3.455517292022705078e-01 7.293035984039306641e+00 2.084245443344116211e+00 4.449949264526367188e-01
3.162000000000000000e+03 7.157389831542968750e+01 -2.125837516784667969e+01 -5.157386064529418945e-01 7.508389949798583984e+00 2.097795486450195312e+00 4.294575154781341553e-01
3.163000000000000000e+03 7.225296783447265625e+01 -1.881977272033691406e+01 -7.558081746101379395e-01 8.148128509521484375e+00 2.217695951461791992e+00 1.608884781599044800e-01
3.164000000000000000e+03 1.865057563781738281e+01 2.429409217834472656e+01 8.866789937019348145e-02 -8.213800191879272461e-01 -2.198136448860168457e-01 3.416268527507781982e-01
3.165000000000000000e+03 2.089728927612304688e+01 -1.773971366882324219e+01 -2.905149161815643311e-01 -1.161715686321258545e-01 -1.220059469342231750e-01 -3.592569828033447266e-01
3.166000000000000000e+03 1.190893745422363281e+01 2.763760757446289062e+01 1.216558143496513367e-01 -7.507087588310241699e-01 -1.887158751487731934e-01 4.312929511070251465e-01
3.167000000000000000e+03 8.098310470581054688e+00 -2.620758628845214844e+01 2.842380432412028313e-03 -2.916235327720642090e-01 -8.663434535264968872e-02 -2.250405848026275635e-01
3.168000000000000000e+03 7.105908966064453125e+01 -1.971408843994140625e+01 -7.242919802665710449e-01 7.688056468963623047e+00 2.089129447937011719e+00 5.064746737480163574e-01
3.169000000000000000e+03 1.275463771820068359e+01 -2.463307380676269531e+01 -2.068899106234312057e-03 -3.329655230045318604e-01 -1.005103290081024170e-01 -2.636612653732299805e-01
3.170000000000000000e+03 1.570977401733398438e+01 -2.912824630737304688e+01 1.184640079736709595e-01 -3.373037874698638916e-01 -6.565193086862564087e-02 -2.565691173076629639e-01
3.171000000000000000e+03 6.959371948242187500e+01 -2.897354888916015625e+01 7.322630286216735840e-02 6.245569705963134766e+00 1.895638823509216309e+00 5.257391333580017090e-01
3.172000000000000000e+03 6.953662872314453125e+01 2.212597084045410156e+01 1.433883607387542725e-01 5.865326881408691406e+00 1.802614569664001465e+00 -5.743290185928344727e-01
3.173000000000000000e+03 7.095284271240234375e+01 2.072328376770019531e+01 7.425116002559661865e-02 6.247080326080322266e+00 1.896399378776550293e+00 -5.745400190353393555e-01
3.174000000000000000e+03 1.417588996887207031e+01 2.625912475585937500e+01 1.272315829992294312e-01 -8.368597626686096191e-01 -2.128884494304656982e-01 4.232058823108673096e-01
3.175000000000000000e+03 6.731773376464843750e+01 -3.518273925781250000e+01 3.293091356754302979e-01 5.303618431091308594e+00 1.689878225326538086e+00 3.320081233978271484e-01
3.176000000000000000e+03 7.012523651123046875e+01 -3.172134780883789062e+01 1.259581297636032104e-01 6.309018135070800781e+00 1.930492877960205078e+00 4.186764955520629883e-01
3.177000000000000000e+03 1.763508605957031250e+01 -2.289401054382324219e+01 -7.287397235631942749e-02 -2.635269165039062500e-01 -1.009202674031257629e-01 -2.977937161922454834e-01
3.178000000000000000e+03 1.621538352966308594e+01 -2.496492004394531250e+01 1.138320658355951309e-02 -3.070610761642456055e-01 -8.870335668325424194e-02 -2.817442715167999268e-01
3.179000000000000000e+03 6.906132507324218750e+01 2.367722511291503906e+01 1.724447906017303467e-01 5.706203937530517578e+00 1.763594627380371094e+00 -5.564309358596801758e-01
3.180000000000000000e+03 6.791737365722656250e+01 -2.749001264572143555e+00 -9.754447340965270996e-01 1.125925540924072266e+01 3.085143327713012695e+00 -3.747001647949218750e+00
3.181000000000000000e+03 6.478397369384765625e+01 -1.881414651870727539e+00 9.278386831283569336e-02 3.508097410202026367e+00 1.080264449119567871e+00 -3.015746831893920898e+00
3.182000000000000000e+03 6.451287078857421875e+01 -1.032508659362792969e+01 1.683708876371383667e-01 2.699645280838012695e+00 8.604048490524291992e-01 2.680631875991821289e+00
3.183000000000000000e+03 6.419867706298828125e+01 -1.821786046028137207e+00 2.417935989797115326e-02 2.767965793609619141e+00 8.376435041427612305e-01 -2.605110645294189453e+00
3.184000000000000000e+03 6.831981658935546875e+01 -2.547930479049682617e+00 -1.254930138587951660e+00 1.199620723724365234e+01 3.222383022308349609e+00 -2.985293149948120117e+00
3.185000000000000000e+03 6.871776580810546875e+01 -9.747935295104980469e+00 -1.204800724983215332e+00 1.378658294677734375e+01 3.774534702301025391e+00 2.372277975082397461e+00
3.186000000000000000e+03 6.812546539306640625e+01 -3.156716346740722656e+00 -9.993797540664672852e-01 1.245009803771972656e+01 3.435215473175048828e+00 -3.720991373062133789e+00
3.187000000000000000e+03 7.192864990234375000e+01 -7.264513015747070312e+00 4.131336688995361328e+00 1.141135978698730469e+01 4.662808895111083984e+00 -1.157980203628540039e+00
3.188000000000000000e+03 7.073589324951171875e+01 -4.280061244964599609e+00 1.991173982620239258e+00 1.408141517639160156e+01 4.821776866912841797e+00 1.929984211921691895e+00
3.189000000000000000e+03 7.195787048339843750e+01 -5.536725997924804688e+00 4.009155273437500000e+00 1.130338096618652344e+01 4.593760967254638672e+00 1.105756282806396484e+00
3.190000000000000000e+03 6.969142150878906250e+01 -3.317388772964477539e+00 -6.453809738159179688e-01 1.474641609191894531e+01 4.230310440063476562e+00 -1.361820101737976074e-01
3.191000000000000000e+03 6.949525451660156250e+01 -2.920761823654174805e+00 -1.090946316719055176e+00 1.401386833190917969e+01 3.876876592636108398e+00 -8.000698685646057129e-01
3.192000000000000000e+03 7.349012756347656250e+01 -1.137917041778564453e+01 -2.091549485921859741e-01 1.001389789581298828e+01 2.941422939300537109e+00 -1.486199021339416504e+00
3.193000000000000000e+03 6.928771972656250000e+01 -9.990710258483886719e+00 -1.190761685371398926e+00 1.364994239807128906e+01 3.737754344940185547e+00 1.214021682739257812e+00
3.194000000000000000e+03 7.233999633789062500e+01 -6.224025726318359375e+00 4.072238445281982422e+00 1.069371223449707031e+01 4.429785251617431641e+00 1.607250124216079712e-01
3.195000000000000000e+03 7.086717224121093750e+01 -8.244345664978027344e+00 2.763676643371582031e+00 1.373264026641845703e+01 4.948894977569580078e+00 -2.040108203887939453e+00
3.196000000000000000e+03 7.181618499755859375e+01 -8.145296096801757812e+00 2.884291410446166992e+00 1.193930721282958984e+01 4.447079658508300781e+00 -1.785237908363342285e+00
3.197000000000000000e+03 7.275053405761718750e+01 -6.041733622550964355e-01 -7.915089130401611328e-01 1.030957317352294922e+01 2.855419397354125977e+00 1.049617767333984375e+00
3.198000000000000000e+03 7.023887634277343750e+01 -3.409422397613525391e+00 -1.149903517216444016e-03 1.431688594818115234e+01 4.294720649719238281e+00 8.275883197784423828e-01
3.199000000000000000e+03 6.966625976562500000e+01 -9.755098342895507812e+00 -8.730264306068420410e-01 1.426129627227783203e+01 4.016480922698974609e+00 4.131447374820709229e-01
3.200000000000000000e+03 7.134850311279296875e+01 -4.691482543945312500e+00 3.086861610412597656e+00 1.270871257781982422e+01 4.738672256469726562e+00 1.884717106819152832e+00
3.201000000000000000e+03 7.197834014892578125e+01 -4.062406063079833984e+00 1.950035214424133301e+00 1.177014446258544922e+01 4.116054058074951172e+00 1.821498513221740723e+00
3.202000000000000000e+03 6.509084320068359375e+01 -1.003958702087402344e+01 3.323676288127899170e-01 3.251285076141357422e+00 1.075095772743225098e+00 3.167839527130126953e+00
3.203000000000000000e+03 6.970063781738281250e+01 -2.214221954345703125e+00 -1.303843379020690918e+00 1.288721752166748047e+01 3.475012302398681641e+00 -7.609485387802124023e-01
3.204000000000000000e+03 6.935554504394531250e+01 -3.589770555496215820e+00 -6.685727238655090332e-01 1.561661815643310547e+01 4.484413623809814453e+00 -6.074951887130737305e-01
3.205000000000000000e+03 7.309268188476562500e+01 -1.092825293540954590e+00 -4.728782176971435547e-01 1.027942466735839844e+01 2.941963911056518555e+00 1.326620697975158691e+00
3.206000000000000000e+03 7.057551574707031250e+01 -3.156763076782226562e+00 -7.161884009838104248e-02 1.358926773071289062e+01 4.055294513702392578e+00 9.736452698707580566e-01
3.207000000000000000e+03 7.215588378906250000e+01 -4.996941566467285156e+00 3.245468378067016602e+00 1.122210216522216797e+01 4.340270996093750000e+00 1.462422251701354980e+00
3.208000000000000000e+03 7.138541412353515625e+01 -9.265947341918945312e+00 1.046566486358642578e+00 1.263951301574707031e+01 4.105823516845703125e+00 -1.694228172302246094e+00
3.209000000000000000e+03 7.095451354980468750e+01 -8.806503295898437500e+00 1.544346332550048828e+00 1.354371833801269531e+01 4.526419639587402344e+00 -1.821771502494812012e+00
3.210000000000000000e+03 7.195122528076171875e+01 -4.671012878417968750e+00 2.882596254348754883e+00 1.162512969970703125e+01 4.352317810058593750e+00 1.695877432823181152e+00
3.211000000000000000e+03 7.445286560058593750e+01 -7.896425247192382812e+00 1.799555897712707520e+00 8.923845291137695312e+00 3.217020273208618164e+00 -1.020453810691833496e+00
3.212000000000000000e+03 7.049109649658203125e+01 -9.640229225158691406e+00 -1.336035430431365967e-01 1.374017620086669922e+01 4.081971645355224609e+00 -8.693972229957580566e-01
3.213000000000000000e+03 7.093572998046875000e+01 -9.675784111022949219e+00 1.728427112102508545e-01 1.315998458862304688e+01 3.999848127365112305e+00 -1.255836844444274902e+00
3.214000000000000000e+03 7.148507690429687500e+01 -8.361672401428222656e+00 2.598513364791870117e+00 1.254538345336914062e+01 4.543169021606445312e+00 -1.937623500823974609e+00
3.215000000000000000e+03 6.747790527343750000e+01 -2.866769552230834961e+00 -6.051162481307983398e-01 1.006627655029296875e+01 2.838348150253295898e+00 -4.316075801849365234e+00
3.216000000000000000e+03 6.336551284790039062e+01 -1.227381038665771484e+01 -5.978989880532026291e-03 2.685914278030395508e+00 8.039805889129638672e-01 2.181149005889892578e+00
3.217000000000000000e+03 6.434755706787109375e+01 -1.119459819793701172e+01 9.934759885072708130e-02 3.127111196517944336e+00 9.679376482963562012e-01 2.690803289413452148e+00
3.218000000000000000e+03 6.473200225830078125e+01 -1.288594007492065430e+00 -3.416440263390541077e-02 3.805185317993164062e+00 1.131306290626525879e+00 -2.960613965988159180e+00
3.219000000000000000e+03 3.717944717407226562e+01 1.646103739738464355e+00 -8.032799363136291504e-01 1.640467345714569092e-02 -2.360625714063644409e-01 6.578557491302490234e-01
3.220000000000000000e+03 7.301981353759765625e+01 -1.142309570312500000e+01 -3.678203523159027100e-01 1.044849967956542969e+01 3.024203777313232422e+00 -1.374138712882995605e+00
3.221000000000000000e+03 7.278672790527343750e+01 -1.038956260681152344e+01 1.711165457963943481e-01 1.077727127075195312e+01 3.284516334533691406e+00 -1.590805172920227051e+00
3.222000000000000000e+03 2.896908378601074219e+01 1.911418795585632324e+00 -4.879343211650848389e-01 -1.192750856280326843e-01 -1.821628212928771973e-01 6.228496432304382324e-01
3.223000000000000000e+03 2.808653450012207031e+01 3.302465677261352539e+00 -4.441875815391540527e-01 -1.709193736314773560e-01 -1.845320910215377808e-01 6.633799672126770020e-01
3.224000000000000000e+03 3.260348129272460938e+01 4.653165042400360107e-01 -6.927902102470397949e-01 -2.623331733047962189e-02 -2.157070636749267578e-01 5.974617004394531250e-01
3.225000000000000000e+03 3.092244911193847656e+01 2.325126409530639648e+00 -5.574326515197753906e-01 -7.245900481939315796e-02 -1.889674961566925049e-01 6.666223406791687012e-01
3.226000000000000000e+03 5.584455108642578125e+01 1.182920813560485840e+00 -6.835953593254089355e-01 5.203565359115600586e-01 -4.897165298461914062e-02 -2.313351035118103027e-01
3.227000000000000000e+03 5.259642410278320312e+01 1.213414430618286133e+00 -9.192251563072204590e-01 2.655313313007354736e-01 -1.961081624031066895e-01 1.439317315816879272e-01
3.228000000000000000e+03 6.341873931884765625e+01 9.422340393066406250e-01 -1.456806808710098267e-01 3.352277755737304688e+00 9.619791507720947266e-01 -2.249667167663574219e+00
3.229000000000000000e+03 7.329980468750000000e+01 -3.584252119064331055e+00 1.271161437034606934e+00 1.025922393798828125e+01 3.459115505218505859e+00 1.665660738945007324e+00
3.230000000000000000e+03 3.902369308471679688e+01 -1.619403076171875000e+01 -5.423641204833984375e-01 -3.231075778603553772e-02 -1.724024713039398193e-01 -5.276889204978942871e-01
3.231000000000000000e+03 4.440663146972656250e+01 -1.554070186614990234e+01 -6.548513770103454590e-01 2.852429449558258057e-02 -1.878981292247772217e-01 -4.730142951011657715e-01
3.232000000000000000e+03 4.582439422607421875e+01 -1.468282890319824219e+01 -7.994891405105590820e-01 4.597090929746627808e-02 -2.260554730892181396e-01 -4.481770992279052734e-01
3.233000000000000000e+03 4.243004608154296875e+01 -1.473232555389404297e+01 -7.955915927886962891e-01 -9.685060940682888031e-03 -2.415830045938491821e-01 -4.943119585514068604e-01
3.234000000000000000e+03 4.257303237915039062e+01 -1.576299285888671875e+01 -6.210237145423889160e-01 3.806840628385543823e-03 -1.851650625467300415e-01 -4.969705045223236084e-01
3.235000000000000000e+03 4.661681747436523438e+01 -1.569978427886962891e+01 -5.929343700408935547e-01 9.405209124088287354e-02 -1.496646851301193237e-01 -4.128170013427734375e-01
3.236000000000000000e+03 4.543771743774414062e+01 -1.409648132324218750e+01 -9.144467711448669434e-01 2.854624390602111816e-02 -2.657701671123504639e-01 -4.581784307956695557e-01
3.237000000000000000e+03 4.052911376953125000e+01 -1.607584762573242188e+01 -5.676407814025878906e-01 -1.994816772639751434e-02 -1.762766838073730469e-01 -5.184654593467712402e-01
3.238000000000000000e+03 4.978233337402343750e+01 -1.442314434051513672e+01 -7.879704833030700684e-01 1.378251761198043823e-01 -1.950435936450958252e-01 -3.196956217288970947e-01
3.239000000000000000e+03 4.116733551025390625e+01 -1.423827648162841797e+01 -8.557732105255126953e-01 -2.000600658357143402e-02 -2.627337574958801270e-01 -5.005427002906799316e-01
3.240000000000000000e+03 4.171408081054687500e+01 -1.569485282897949219e+01 -6.280783414840698242e-01 -5.580986384302377701e-03 -1.900977939367294312e-01 -5.101409554481506348e-01
3.241000000000000000e+03 4.920950317382812500e+01 -1.562840747833251953e+01 -5.566102862358093262e-01 1.739566177129745483e-01 -1.147960945963859558e-01 -3.111606240272521973e-01
3.242000000000000000e+03 4.989781570434570312e+01 -1.610329055786132812e+01 -4.244265258312225342e-01 2.453146278858184814e-01 -5.373356863856315613e-02 -2.512798309326171875e-01
3.243000000000000000e+03 4.894367218017578125e+01 -1.432754230499267578e+01 -8.232069611549377441e-01 1.140742152929306030e-01 -2.127398252487182617e-01 -3.561942279338836670e-01
3.244000000000000000e+03 4.819412231445312500e+01 -1.430393123626708984e+01 -8.485382795333862305e-01 8.893237262964248657e-02 -2.278817743062973022e-01 -3.833258152008056641e-01
3.245000000000000000e+03 3.399320983886718750e+01 1.143120169639587402e+00 -7.184364795684814453e-01 -1.297931093722581863e-02 -2.194247245788574219e-01 6.407628059387207031e-01
3.246000000000000000e+03 5.855813217163085938e+01 1.548601269721984863e+00 -3.322208821773529053e-01 1.054823279380798340e+00 2.167807370424270630e-01 -7.882623672485351562e-01
3.247000000000000000e+03 5.458435821533203125e+01 -1.421282100677490234e+01 -6.007976531982421875e-01 3.943839967250823975e-01 -6.192409619688987732e-02 4.072981327772140503e-02
3.248000000000000000e+03 6.394642639160156250e+01 -1.195436668395996094e+01 3.523096069693565369e-02 3.106842517852783203e+00 9.426220655441284180e-01 2.490949392318725586e+00
3.249000000000000000e+03 6.203067779541015625e+01 -1.240755367279052734e+01 -1.283304691314697266e-01 1.817577600479125977e+00 5.067741274833679199e-01 1.593411326408386230e+00
3.250000000000000000e+03 3.519232177734375000e+01 -1.491380882263183594e+01 -6.404430866241455078e-01 -6.054523959755897522e-02 -2.102964967489242554e-01 -5.043785572052001953e-01
3.251000000000000000e+03 3.654247665405273438e+01 2.524737596511840820e+00 -7.155959010124206543e-01 1.429325155913829803e-02 -2.103907912969589233e-01 6.844598650932312012e-01
3.252000000000000000e+03 5.905587005615234375e+01 6.764318943023681641e-01 -4.393779635429382324e-01 9.815684556961059570e-01 1.626571565866470337e-01 -8.058344125747680664e-01
3.253000000000000000e+03 5.744810867309570312e+01 1.903099656105041504e+00 -3.636143803596496582e-01 9.250588417053222656e-01 1.684333384037017822e-01 -5.815554261207580566e-01
3.254000000000000000e+03 3.718375778198242188e+01 9.205177426338195801e-01 -8.637827634811401367e-01 1.625758595764636993e-02 -2.542575597763061523e-01 6.335859894752502441e-01
3.255000000000000000e+03 3.781855392456054688e+01 1.748242616653442383e+00 -8.107945919036865234e-01 3.071771375834941864e-02 -2.340230792760848999e-01 6.590712666511535645e-01
3.256000000000000000e+03 3.563055801391601562e+01 -1.751853752136230469e+01 -3.785547614097595215e-01 -6.940460205078125000e-02 -1.343878060579299927e-01 -5.359393954277038574e-01
3.257000000000000000e+03 5.524894332885742188e+01 -1.455802440643310547e+01 -4.657813608646392822e-01 5.158632397651672363e-01 1.502456702291965485e-02 1.533374190330505371e-01
3.258000000000000000e+03 5.583411788940429688e+01 -1.504541015625000000e+01 -3.097981810569763184e-01 6.650676727294921875e-01 1.065808460116386414e-01 2.803865075111389160e-01
3.259000000000000000e+03 7.378914642333984375e+01 -2.321700811386108398e+00 3.040734231472015381e-01 9.889338493347167969e+00 3.058023452758789062e+00 1.622146129608154297e+00
3.260000000000000000e+03 3.945758819580078125e+01 1.160785198211669922e+00 -9.293931722640991211e-01 2.203887701034545898e-02 -2.722062766551971436e-01 6.256893873214721680e-01
3.261000000000000000e+03 5.592527770996093750e+01 2.753405332565307617e+00 -3.381374180316925049e-01 7.776336073875427246e-01 1.318488568067550659e-01 -3.801781833171844482e-01
3.262000000000000000e+03 5.183624649047851562e+01 1.055762171745300293e+00 -9.989329576492309570e-01 2.211761921644210815e-01 -2.333270311355590820e-01 2.143270373344421387e-01
3.263000000000000000e+03 4.908586883544921875e+01 2.697614192962646484e+00 -7.341039776802062988e-01 2.175678163766860962e-01 -1.549608558416366577e-01 3.473805785179138184e-01
3.264000000000000000e+03 5.664067077636718750e+01 2.571011066436767578e+00 -3.187669515609741211e-01 8.801294565200805664e-01 1.684087365865707397e-01 -4.886902272701263428e-01
3.265000000000000000e+03 2.945038604736328125e+01 -1.568567848205566406e+01 -4.612211585044860840e-01 -6.189997121691703796e-02 -1.569363325834274292e-01 -4.757097363471984863e-01
3.266000000000000000e+03 2.824586868286132812e+01 -1.618864250183105469e+01 -4.037640392780303955e-01 -6.658142805099487305e-02 -1.411036401987075806e-01 -4.705815017223358154e-01
3.267000000000000000e+03 3.289522171020507812e+01 -1.494011688232421875e+01 -5.864203572273254395e-01 -6.407133489847183228e-02 -1.951475143432617188e-01 -4.881987571716308594e-01
3.268000000000000000e+03 3.741513824462890625e+01 -1.613129615783691406e+01 -5.345078706741333008e-01 -5.228058621287345886e-02 -1.760365366935729980e-01 -5.283448696136474609e-01
3.269000000000000000e+03 4.095090484619140625e+01 1.717256903648376465e+00 -9.101423025131225586e-01 3.672732785344123840e-02 -2.620244920253753662e-01 6.248528957366943359e-01
3.270000000000000000e+03 4.863338851928710938e+01 1.014847040176391602e+00 -1.092232584953308105e+00 1.247894912958145142e-01 -2.902329266071319580e-01 4.125437140464782715e-01
3.271000000000000000e+03 4.860792160034179688e+01 1.709857821464538574e+00 -9.362989068031311035e-01 1.561877280473709106e-01 -2.340333610773086548e-01 4.007694125175476074e-01
3.272000000000000000e+03 4.408887481689453125e+01 1.464322805404663086e+00 -9.884394407272338867e-01 6.973017007112503052e-02 -2.756127715110778809e-01 5.635800361633300781e-01
3.273000000000000000e+03 5.776012802124023438e+01 -1.500042438507080078e+01 -1.563329696655273438e-01 1.020008802413940430e+00 2.591027617454528809e-01 6.260957717895507812e-01
3.274000000000000000e+03 4.495047378540039062e+01 1.425485491752624512e+00 -1.001701116561889648e+00 7.910043746232986450e-02 -2.767802178859710693e-01 5.422729253768920898e-01
3.275000000000000000e+03 4.304916000366210938e+01 2.110913515090942383e+00 -8.833127021789550781e-01 6.612286716699600220e-02 -2.451569437980651855e-01 5.926001071929931641e-01
3.276000000000000000e+03 4.651185989379882812e+01 1.160296678543090820e+00 -1.074480295181274414e+00 7.695360481739044189e-02 -2.992580235004425049e-01 4.908525049686431885e-01
3.277000000000000000e+03 7.238999938964843750e+01 -1.327191638946533203e+01 -1.082450747489929199e+00 1.008245658874511719e+01 2.700001955032348633e+00 -6.607004404067993164e-01
3.278000000000000000e+03 5.660077667236328125e+01 -1.466452693939208984e+01 -3.319464921951293945e-01 7.230101823806762695e-01 1.173191070556640625e-01 3.640080988407135010e-01
3.279000000000000000e+03 5.722634506225585938e+01 -1.369532108306884766e+01 -4.756941497325897217e-01 6.729857325553894043e-01 5.918747186660766602e-02 3.836929798126220703e-01
3.280000000000000000e+03 3.031660079956054688e+01 -1.692676734924316406e+01 -3.845046460628509521e-01 -7.706461846828460693e-02 -1.384707838296890259e-01 -5.005971789360046387e-01
3.281000000000000000e+03 7.045065307617187500e+01 -2.808519840240478516e+00 -4.967046678066253662e-01 1.338334941864013672e+01 3.865993261337280273e+00 5.991519689559936523e-01
3.282000000000000000e+03 3.229277038574218750e+01 8.574510812759399414e-01 -6.588433384895324707e-01 -3.367378562688827515e-02 -2.077551335096359253e-01 6.168598532676696777e-01
3.283000000000000000e+03 5.417354965209960938e+01 2.169614315032958984e+00 -5.873000621795654297e-01 4.782865047454833984e-01 -3.270407393574714661e-02 -8.348252624273300171e-02
3.284000000000000000e+03 5.011688613891601562e+01 1.866214871406555176e+00 -8.627299666404724121e-01 2.091388702392578125e-01 -1.960773319005966187e-01 3.107284307479858398e-01
3.285000000000000000e+03 5.737417221069335938e+01 -1.440432739257812500e+01 -3.254141807556152344e-01 7.990862727165222168e-01 1.421016305685043335e-01 4.810320436954498291e-01
3.286000000000000000e+03 2.334510421752929688e+01 -1.656891059875488281e+01 -3.467720746994018555e-01 -7.337808609008789062e-02 -1.260450482368469238e-01 -3.986278772354125977e-01
3.287000000000000000e+03 6.051888275146484375e+01 6.965007185935974121e-01 -2.538257241249084473e-01 1.468475937843322754e+00 3.643950521945953369e-01 -1.244162201881408691e+00
3.288000000000000000e+03 7.370978546142578125e+01 -6.818964481353759766e+00 2.725507974624633789e+00 9.399694442749023438e+00 3.637560606002807617e+00 -3.530653417110443115e-01
3.289000000000000000e+03 7.198851776123046875e+01 6.483854055404663086e-01 -1.210029363632202148e+00 1.006800651550292969e+01 2.657393217086791992e+00 4.013010859489440918e-01
3.290000000000000000e+03 6.112254714965820312e+01 -1.364777565002441406e+01 -7.461516559123992920e-02 1.792186617851257324e+00 5.152714252471923828e-01 1.394259214401245117e+00
3.291000000000000000e+03 2.921489334106445312e+01 -1.665288543701171875e+01 -3.882681131362915039e-01 -7.398490607738494873e-02 -1.386759132146835327e-01 -4.847752153873443604e-01
3.292000000000000000e+03 2.345851898193359375e+01 -1.800960922241210938e+01 -2.835151851177215576e-01 -1.010049208998680115e-01 -1.153560280799865723e-01 -4.057000875473022461e-01
3.293000000000000000e+03 5.888415145874023438e+01 -1.430905532836914062e+01 -1.823376864194869995e-01 1.155604004859924316e+00 2.919798791408538818e-01 8.073183298110961914e-01
3.294000000000000000e+03 2.722597503662109375e+01 2.870453357696533203e+00 -4.113164842128753662e-01 -1.971077471971511841e-01 -1.825272738933563232e-01 6.319671273231506348e-01
3.295000000000000000e+03 7.412822723388671875e+01 -4.822079658508300781e+00 1.891276478767395020e+00 9.188020706176757812e+00 3.323789119720458984e+00 1.070486903190612793e+00
3.296000000000000000e+03 6.031383132934570312e+01 -1.316220474243164062e+01 -2.358170002698898315e-01 1.285839796066284180e+00 3.150068521499633789e-01 1.071847081184387207e+00
3.297000000000000000e+03 5.970237731933593750e+01 -1.406030654907226562e+01 -1.343855112791061401e-01 1.354438185691833496e+00 3.660158216953277588e-01 9.939206838607788086e-01
3.298000000000000000e+03 6.044687271118164062e+01 -1.382033348083496094e+01 -9.911989420652389526e-02 1.556149244308471680e+00 4.371088147163391113e-01 1.195342421531677246e+00
3.299000000000000000e+03 7.237406158447265625e+01 -9.843112945556640625e+00 5.663294792175292969e-01 1.125831508636474609e+01 3.547393560409545898e+00 -1.659357190132141113e+00
3.300000000000000000e+03 4.162366485595703125e+01 1.748991012573242188e+00 -9.134958982467651367e-01 5.106353014707565308e-02 -2.587296962738037109e-01 6.147803068161010742e-01
3.301000000000000000e+03 4.149770736694335938e+01 2.386928796768188477e+00 -8.228921294212341309e-01 5.887487903237342834e-02 -2.292051762342453003e-01 6.270045638084411621e-01
3.302000000000000000e+03 6.264680862426757812e+01 1.142070412635803223e+00 -1.146770194172859192e-01 2.792920351028442383e+00 8.034729957580566406e-01 -1.969997525215148926e+00
3.303000000000000000e+03 2.594315338134765625e+01 -1.568353366851806641e+01 -4.034262895584106445e-01 -5.669714510440826416e-02 -1.380370259284973145e-01 -4.289486408233642578e-01
3.304000000000000000e+03 7.125927734375000000e+01 -1.859758949279785156e+01 -8.492341041564941406e-01 8.011276245117187500e+00 2.148612737655639648e+00 4.091377258300781250e-01
3.305000000000000000e+03 7.016751861572265625e+01 -1.991614341735839844e+01 -6.978214979171752930e-01 7.406588077545166016e+00 2.012629985809326172e+00 6.757729649543762207e-01
3.306000000000000000e+03 7.189544677734375000e+01 -1.359143543243408203e+01 -1.204355478286743164e+00 1.001573276519775391e+01 2.643413305282592773e+00 -3.740962445735931396e-01
3.307000000000000000e+03 3.017826080322265625e+01 1.818277239799499512e+00 -5.412929058074951172e-01 -8.425328880548477173e-02 -1.876638680696487427e-01 6.382042765617370605e-01
3.308000000000000000e+03 3.155990409851074219e+01 1.203477501869201660e+00 -6.134429574012756348e-01 -4.901110008358955383e-02 -1.987362205982208252e-01 6.303485631942749023e-01
3.309000000000000000e+03 2.638476181030273438e+01 2.379792213439941406e+00 -3.733985424041748047e-01 -2.195948362350463867e-01 -1.778980046510696411e-01 5.895234942436218262e-01
3.310000000000000000e+03 5.149549865722656250e+01 1.884519219398498535e+00 -8.072465658187866211e-01 2.719918489456176758e-01 -1.605764031410217285e-01 2.097308486700057983e-01
3.311000000000000000e+03 7.157255554199218750e+01 2.505873441696166992e+00 -1.260353088378906250e+00 9.173203468322753906e+00 2.373855352401733398e+00 -1.440876573324203491e-01
3.312000000000000000e+03 3.343053054809570312e+01 -1.588467502593994141e+01 -5.095146894454956055e-01 -7.124283909797668457e-02 -1.742272675037384033e-01 -5.091889500617980957e-01
3.313000000000000000e+03 4.591345214843750000e+01 1.984961986541748047e+00 -9.237909913063049316e-01 9.930289536714553833e-02 -2.473464310169219971e-01 5.128069519996643066e-01
3.314000000000000000e+03 2.617799568176269531e+01 1.157367825508117676e+00 -3.598478436470031738e-01 -1.879590004682540894e-01 -1.643420457839965820e-01 5.235751271247863770e-01
3.315000000000000000e+03 7.235168457031250000e+01 -1.644830131530761719e+01 -1.040891528129577637e+00 8.840492248535156250e+00 2.339880228042602539e+00 -6.549624353647232056e-02
3.316000000000000000e+03 3.311789703369140625e+01 2.959401607513427734e-01 -7.195019721984863281e-01 -2.079934813082218170e-02 -2.220904082059860229e-01 5.935801267623901367e-01
3.317000000000000000e+03 6.986674499511718750e+01 9.557129859924316406e+00 -4.626511335372924805e-01 6.829707145690917969e+00 1.910116791725158691e+00 -7.943064570426940918e-01
3.318000000000000000e+03 6.985449981689453125e+01 8.367306709289550781e+00 -5.872921943664550781e-01 6.982771873474121094e+00 1.918643832206726074e+00 -8.167632818222045898e-01
3.319000000000000000e+03 7.069551086425781250e+01 3.442139387130737305e+00 -1.228637099266052246e+00 8.633122444152832031e+00 2.221345424652099609e+00 -5.841134786605834961e-01
3.320000000000000000e+03 3.583226776123046875e+01 -1.585517978668212891e+01 -5.463518500328063965e-01 -6.370421499013900757e-02 -1.830168217420578003e-01 -5.202111601829528809e-01
3.321000000000000000e+03 3.432082366943359375e+01 -1.538585090637207031e+01 -5.772718191146850586e-01 -6.581290811300277710e-02 -1.929254084825515747e-01 -5.045731067657470703e-01
3.322000000000000000e+03 6.933309936523437500e+01 -2.250661277770996094e+01 -3.725502789020538330e-01 6.669977188110351562e+00 1.889227986335754395e+00 7.617440223693847656e-01
3.323000000000000000e+03 2.667857742309570312e+01 6.513644695281982422e+00 -4.202759563922882080e-01 -2.853158712387084961e-01 -2.116775512695312500e-01 7.158806324005126953e-01
3.324000000000000000e+03 2.678060722351074219e+01 3.680705308914184570e+00 -4.005572795867919922e-01 -2.343139797449111938e-01 -1.904613822698593140e-01 6.554555296897888184e-01
3.325000000000000000e+03 6.883081817626953125e+01 9.921670913696289062e+00 -3.972061276435852051e-01 6.406919479370117188e+00 1.802914023399353027e+00 -9.137526750564575195e-01
3.326000000000000000e+03 2.308100128173828125e+01 2.125150108337402344e+01 -6.763375550508499146e-02 -5.914553403854370117e-01 -1.977267265319824219e-01 3.374304473400115967e-01
3.327000000000000000e+03 2.138822364807128906e+01 2.150710105895996094e+01 -6.996651738882064819e-02 -7.175633907318115234e-01 -2.362589687108993530e-01 3.394021093845367432e-01
3.328000000000000000e+03 6.753655242919921875e+01 -2.458686828613281250e+01 -1.020957753062248230e-01 5.811391830444335938e+00 1.712788820266723633e+00 8.611962795257568359e-01
3.329000000000000000e+03 6.852390289306640625e+01 -2.556625175476074219e+01 -7.763174176216125488e-02 6.048546791076660156e+00 1.791274547576904297e+00 6.993168592453002930e-01
3.330000000000000000e+03 7.113822937011718750e+01 6.991075992584228516e+00 -7.545929551124572754e-01 7.665483474731445312e+00 2.073267221450805664e+00 -5.498399734497070312e-01
3.331000000000000000e+03 6.957190704345703125e+01 4.198887825012207031e+00 -1.116164922714233398e+00 7.954545021057128906e+00 2.051513910293579102e+00 -1.004160523414611816e+00
3.332000000000000000e+03 6.754141235351562500e+01 2.100559043884277344e+01 1.713458448648452759e-01 5.448272228240966797e+00 1.685885429382324219e+00 -6.720529198646545410e-01
3.333000000000000000e+03 6.874890136718750000e+01 1.491785526275634766e+01 -4.802349954843521118e-02 5.976219654083251953e+00 1.778458833694458008e+00 -7.777218222618103027e-01
3.334000000000000000e+03 6.876093292236328125e+01 1.713110160827636719e+01 4.610782861709594727e-02 5.853751182556152344e+00 1.769957661628723145e+00 -7.369375228881835938e-01
3.335000000000000000e+03 2.809170913696289062e+01 7.992557048797607422e+00 -4.218041598796844482e-01 -2.172387838363647461e-01 -1.917128860950469971e-01 7.348150014877319336e-01
3.336000000000000000e+03 6.693134307861328125e+01 -2.816703033447265625e+01 1.492814123630523682e-01 5.402962207794189453e+00 1.665673017501831055e+00 6.765768527984619141e-01
3.337000000000000000e+03 1.068822002410888672e+01 -2.755179786682128906e+01 4.180160164833068848e-02 -3.322327733039855957e-01 -8.712935447692871094e-02 -2.387569993734359741e-01
3.338000000000000000e+03 2.730681419372558594e+01 7.330166816711425781e+00 -4.256357252597808838e-01 -2.595885694026947021e-01 -2.055672854185104370e-01 7.297543287277221680e-01
3.339000000000000000e+03 2.775925254821777344e+01 1.120512104034423828e+01 -3.924910426139831543e-01 -2.513808608055114746e-01 -1.931615769863128662e-01 6.809429526329040527e-01
3.340000000000000000e+03 6.852527618408203125e+01 2.164740562438964844e+01 1.608191579580307007e-01 5.635673046112060547e+00 1.738947629928588867e+00 -6.217225790023803711e-01
3.341000000000000000e+03 2.164434242248535156e+01 2.611032295227050781e+01 2.225671857595443726e-01 -6.508267521858215332e-01 -1.284778714179992676e-01 2.745903134346008301e-01
3.342000000000000000e+03 1.235451221466064453e+01 -2.802755737304687500e+01 6.523065268993377686e-02 -3.437570035457611084e-01 -8.355790376663208008e-02 -2.415193170309066772e-01
3.343000000000000000e+03 1.617236900329589844e+01 2.707041168212890625e+01 1.918916851282119751e-01 -8.379639983177185059e-01 -1.938216984272003174e-01 3.668295443058013916e-01
3.344000000000000000e+03 6.482614898681640625e+01 -3.077153015136718750e+01 3.467844724655151367e-01 4.715975284576416016e+00 1.518827915191650391e+00 6.186544299125671387e-01
3.345000000000000000e+03 1.280267047882080078e+01 2.598661231994628906e+01 7.999958842992782593e-02 -8.103931546211242676e-01 -2.191180735826492310e-01 4.648199975490570068e-01
3.346000000000000000e+03 7.009086608886718750e+01 -2.155445289611816406e+01 -4.873747229576110840e-01 7.069477558135986328e+00 1.974630832672119141e+00 6.530891060829162598e-01
3.347000000000000000e+03 7.150672149658203125e+01 -1.400817680358886719e+01 -1.291358590126037598e+00 9.801828384399414062e+00 2.553140878677368164e+00 -6.922224164009094238e-02
3.348000000000000000e+03 6.670423889160156250e+01 -1.039061927795410156e+01 -1.970850229263305664e-01 7.401542663574218750e+00 2.161337375640869141e+00 4.098100185394287109e+00
3.349000000000000000e+03 6.890354919433593750e+01 -2.774339437484741211e+00 -1.315403580665588379e+00 1.336554145812988281e+01 3.615041255950927734e+00 -2.017498254776000977e+00
3.350000000000000000e+03 6.828893280029296875e+01 -1.044666099548339844e+01 -1.221974611282348633e+00 1.155831623077392578e+01 3.100902318954467773e+00 2.933274984359741211e+00
3.351000000000000000e+03 6.851319885253906250e+01 -1.008417034149169922e+01 -1.254835724830627441e+00 1.261231517791748047e+01 3.407243728637695312e+00 2.741806745529174805e+00
3.352000000000000000e+03 6.715262603759765625e+01 -3.354832887649536133e+00 1.420503668487071991e-02 8.809057235717773438e+00 2.646978616714477539e+00 -4.895300865173339844e+00
3.353000000000000000e+03 6.959328460693359375e+01 -1.042566490173339844e+01 -1.254647612571716309e+00 1.308511066436767578e+01 3.549138784408569336e+00 8.516971468925476074e-01
3.354000000000000000e+03 7.229644012451171875e+01 -6.877237319946289062e+00 3.983402490615844727e+00 1.079790496826171875e+01 4.434392452239990234e+00 -5.667900443077087402e-01
3.355000000000000000e+03 6.536201477050781250e+01 -1.096124935150146484e+01 1.186033859848976135e-01 4.506958961486816406e+00 1.387668609619140625e+00 3.364649772644042969e+00
3.356000000000000000e+03 7.223447418212890625e+01 -5.778365135192871094e+00 3.955299139022827148e+00 1.089510536193847656e+01 4.455121517181396484e+00 7.652150988578796387e-01
3.357000000000000000e+03 7.228015899658203125e+01 -6.528841495513916016e+00 4.095182418823242188e+00 1.077763843536376953e+01 4.461845874786376953e+00 -1.247405335307121277e-01
3.358000000000000000e+03 7.258882904052734375e+01 -8.774831771850585938e+00 1.821513652801513672e+00 1.097849655151367188e+01 3.840003013610839844e+00 -1.747506618499755859e+00
3.359000000000000000e+03 7.312760925292968750e+01 -6.062530994415283203e+00 3.240302324295043945e+00 9.871979713439941406e+00 3.933684587478637695e+00 2.987067401409149170e-01
3.360000000000000000e+03 7.250991821289062500e+01 -7.685100078582763672e+00 3.219841241836547852e+00 1.083167362213134766e+01 4.215454578399658203e+00 -1.350453853607177734e+00
3.361000000000000000e+03 7.236202239990234375e+01 -7.273270606994628906e+00 3.715367794036865234e+00 1.082138729095458984e+01 4.361026287078857422e+00 -1.028475165367126465e+00
3.362000000000000000e+03 7.078154754638671875e+01 -3.386625766754150391e+00 3.785911798477172852e-01 1.349462223052978516e+01 4.161963939666748047e+00 1.325211524963378906e+00
3.363000000000000000e+03 7.167203521728515625e+01 -4.387998580932617188e+00 2.434978485107421875e+00 1.217191410064697266e+01 4.382067680358886719e+00 1.852202177047729492e+00
3.364000000000000000e+03 7.235719299316406250e+01 -3.385762929916381836e+00 1.005784988403320312e+00 1.126240348815917969e+01 3.680456638336181641e+00 1.730791211128234863e+00
3.365000000000000000e+03 7.191411590576171875e+01 -1.262827205657958984e+01 -1.098695755004882812e+00 1.054540061950683594e+01 2.834011554718017578e+00 -6.121647357940673828e-01
3.366000000000000000e+03 7.287213897705078125e+01 -2.824327468872070312e+00 5.497257709503173828e-01 1.068618869781494141e+01 3.370774507522583008e+00 1.653751492500305176e+00
3.367000000000000000e+03 7.087097930908203125e+01 -2.647299528121948242e+00 -3.719609677791595459e-01 1.277173805236816406e+01 3.719933271408081055e+00 8.902168273925781250e-01
3.368000000000000000e+03 7.133851623535156250e+01 -8.865974426269531250e+00 1.557287693023681641e+00 1.277222919464111328e+01 4.298855304718017578e+00 -1.808359384536743164e+00
3.369000000000000000e+03 6.446192169189453125e+01 -1.169408226013183594e+01 4.969503730535507202e-02 3.558588027954101562e+00 1.082484960556030273e+00 2.760426044464111328e+00
3.370000000000000000e+03 7.016244506835937500e+01 -1.005612087249755859e+01 -7.833652496337890625e-01 1.358293533325195312e+01 3.839870929718017578e+00 -2.027475684881210327e-01
3.371000000000000000e+03 7.230637359619140625e+01 -2.293172031641006470e-01 -9.927836060523986816e-01 1.036961555480957031e+01 2.813049554824829102e+00 7.875240445137023926e-01
3.372000000000000000e+03 6.988498687744140625e+01 -2.645183086395263672e+00 -1.015173316001892090e+00 1.352207183837890625e+01 3.752069473266601562e+00 -2.844377458095550537e-01
3.373000000000000000e+03 7.167119598388671875e+01 -3.780579805374145508e+00 1.451526165008544922e+00 1.231836318969726562e+01 4.130967140197753906e+00 1.824128031730651855e+00
3.374000000000000000e+03 7.352870178222656250e+01 -4.446883678436279297e+00 1.966954588890075684e+00 9.816994667053222656e+00 3.535184860229492188e+00 1.363838672637939453e+00
3.375000000000000000e+03 7.260743713378906250e+01 -4.896914005279541016e+00 2.903812408447265625e+00 1.073066997528076172e+01 4.090344905853271484e+00 1.352998375892639160e+00
3.376000000000000000e+03 7.254737854003906250e+01 -1.155722427368164062e+01 -5.359712243080139160e-01 1.071530818939208984e+01 3.053801298141479492e+00 -1.232049465179443359e+00
3.377000000000000000e+03 7.249066162109375000e+01 -8.306981086730957031e+00 2.380975246429443359e+00 1.092120456695556641e+01 3.990653991699218750e+00 -1.614135861396789551e+00
3.378000000000000000e+03 7.187341308593750000e+01 -1.098768424987792969e+01 -5.322272777557373047e-01 1.140355110168457031e+01 3.261397123336791992e+00 -1.121718883514404297e+00
3.379000000000000000e+03 7.289192199707031250e+01 -1.088664531707763672e+01 -1.210054382681846619e-01 1.062189483642578125e+01 3.150266647338867188e+00 -1.485602378845214844e+00
3.380000000000000000e+03 7.345759582519531250e+01 -7.603060722351074219e+00 2.548025131225585938e+00 9.706629753112792969e+00 3.676396608352661133e+00 -9.856397509574890137e-01
3.381000000000000000e+03 6.066243362426757812e+01 -1.444106101989746094e+01 -1.753156073391437531e-02 1.856161594390869141e+00 5.515890121459960938e-01 1.305293917655944824e+00
3.382000000000000000e+03 7.283099365234375000e+01 -9.960750579833984375e+00 5.591650009155273438e-01 1.074871635437011719e+01 3.392364263534545898e+00 -1.670387864112854004e+00
3.383000000000000000e+03 7.398667144775390625e+01 -9.651316642761230469e+00 8.066105246543884277e-01 9.683021545410156250e+00 3.146889686584472656e+00 -1.627617716789245605e+00
3.384000000000000000e+03 6.324791336059570312e+01 -1.338965320587158203e+01 -2.581446617841720581e-02 3.046350002288818359e+00 9.061606526374816895e-01 2.132349252700805664e+00
3.385000000000000000e+03 6.364886856079101562e+01 -1.279402065277099609e+01 -2.151175215840339661e-02 3.154137611389160156e+00 9.397877454757690430e-01 2.313000679016113281e+00
3.386000000000000000e+03 6.486312866210937500e+01 -1.102700996398925781e+01 1.301499009132385254e-01 3.649729967117309570e+00 1.133963942527770996e+00 3.007132768630981445e+00
3.387000000000000000e+03 6.558567047119140625e+01 -1.042675781250000000e+01 2.712348997592926025e-01 4.470817565917968750e+00 1.422615647315979004e+00 3.608257293701171875e+00
3.388000000000000000e+03 7.361013031005859375e+01 -6.056281089782714844e+00 2.863325834274291992e+00 9.438674926757812500e+00 3.690600156784057617e+00 2.828096449375152588e-01
3.389000000000000000e+03 7.326609802246093750e+01 -7.084033012390136719e+00 2.922152042388916016e+00 9.747590065002441406e+00 3.800922632217407227e+00 -5.889837145805358887e-01
3.390000000000000000e+03 6.528908538818359375e+01 -1.353037357330322266e+00 -8.822725713253021240e-02 4.618870258331298828e+00 1.359192967414855957e+00 -3.256906032562255859e+00
3.391000000000000000e+03 7.380278015136718750e+01 -5.482927322387695312e+00 2.447343111038208008e+00 9.364408493041992188e+00 3.543525457382202148e+00 6.884878277778625488e-01
3.392000000000000000e+03 2.692699241638183594e+01 1.642663955688476562e+00 -3.974358439445495605e-01 -1.782469153404235840e-01 -1.727048307657241821e-01 5.695313811302185059e-01
3.393000000000000000e+03 3.741553497314453125e+01 2.343032121658325195e+00 -7.440845966339111328e-01 2.508561499416828156e-02 -2.156996876001358032e-01 6.767148375511169434e-01
3.394000000000000000e+03 2.869782066345214844e+01 4.314428329467773438e+00 -4.541560411453247070e-01 -1.592883765697479248e-01 -1.840333193540573120e-01 7.057675719261169434e-01
3.395000000000000000e+03 7.019822692871093750e+01 2.477640628814697266e+00 -1.374332666397094727e+00 8.951824188232421875e+00 2.273247480392456055e+00 -7.939774990081787109e-01
3.396000000000000000e+03 5.503113174438476562e+01 2.086423158645629883e+00 -5.467113256454467773e-01 5.531917810440063477e-01 1.944123883731663227e-03 -1.885953396558761597e-01
3.397000000000000000e+03 5.240346908569335938e+01 2.087704896926879883e+00 -7.177232503890991211e-01 3.486370146274566650e-01 -1.107258796691894531e-01 1.131262704730033875e-01
3.398000000000000000e+03 3.197391510009765625e+01 2.056587457656860352e+00 -6.037174463272094727e-01 -4.760970920324325562e-02 -1.953981518745422363e-01 6.650319099426269531e-01
3.399000000000000000e+03 2.794177818298339844e+01 6.776387691497802734e+00 -4.302689433097839355e-01 -2.199293971061706543e-01 -1.950595080852508545e-01 7.303008437156677246e-01
3.400000000000000000e+03 6.409645080566406250e+01 -5.848197937011718750e-01 -9.143542498350143433e-02 3.382374525070190430e+00 9.872816801071166992e-01 -2.594640970230102539e+00
3.401000000000000000e+03 6.469429779052734375e+01 -6.856839656829833984e-01 -1.255571097135543823e-01 4.056948661804199219e+00 1.179417371749877930e+00 -2.880362272262573242e+00
3.402000000000000000e+03 7.337136077880859375e+01 -1.758253812789916992e+00 -7.254633307456970215e-02 1.016500568389892578e+01 3.027737855911254883e+00 1.510183215141296387e+00
3.403000000000000000e+03 4.721221160888671875e+01 -1.513147830963134766e+01 -6.937835216522216797e-01 9.175971150398254395e-02 -1.806071549654006958e-01 -4.027222394943237305e-01
3.404000000000000000e+03 4.147748565673828125e+01 -1.660366249084472656e+01 -4.911411404609680176e-01 -1.439851359464228153e-03 -1.477742940187454224e-01 -5.148223638534545898e-01
3.405000000000000000e+03 4.255670166015625000e+01 -1.688055992126464844e+01 -4.509072601795196533e-01 2.617763727903366089e-02 -1.274188905954360962e-01 -4.987037181854248047e-01
3.406000000000000000e+03 5.081354141235351562e+01 -1.532631111145019531e+01 -5.600565075874328613e-01 2.320193648338317871e-01 -9.841114282608032227e-02 -2.208034545183181763e-01
3.407000000000000000e+03 5.319617843627929688e+01 -1.545959472656250000e+01 -4.159572422504425049e-01 3.981258273124694824e-01 -5.349426995962858200e-03 -2.162625640630722046e-02
3.408000000000000000e+03 3.560877227783203125e+01 1.573882937431335449e+00 -7.577398419380187988e-01 5.103376228362321854e-03 -2.257909476757049561e-01 6.585900187492370605e-01
3.409000000000000000e+03 3.275402832031250000e+01 2.301488637924194336e+00 -6.204504966735839844e-01 -3.711669892072677612e-02 -1.972701698541641235e-01 6.779028773307800293e-01
3.410000000000000000e+03 4.649182128906250000e+01 -1.492832469940185547e+01 -7.582352757453918457e-01 7.154965400695800781e-02 -2.060056924819946289e-01 -4.281583428382873535e-01
3.411000000000000000e+03 4.791355133056640625e+01 -1.568285465240478516e+01 -5.843609571456909180e-01 1.337796598672866821e-01 -1.351743936538696289e-01 -3.668433129787445068e-01
3.412000000000000000e+03 6.118805313110351562e+01 9.292728900909423828e-01 -1.661496460437774658e-01 1.847381591796875000e+00 5.043696165084838867e-01 -1.473550796508789062e+00
3.413000000000000000e+03 3.494863128662109375e+01 -1.641041183471679688e+01 -4.816363453865051270e-01 -6.948709487915039062e-02 -1.653370261192321777e-01 -5.256780385971069336e-01
3.414000000000000000e+03 3.552040481567382812e+01 2.357371091842651367e+00 -6.990700364112854004e-01 4.867827985435724258e-03 -2.082606703042984009e-01 6.851455569267272949e-01
3.415000000000000000e+03 3.478475189208984375e+01 1.389547824859619141e+00 -7.369916439056396484e-01 -3.626269055530428886e-03 -2.221853733062744141e-01 6.533103585243225098e-01
3.416000000000000000e+03 3.857982254028320312e+01 2.009384632110595703e+00 -8.159807324409484863e-01 2.975608780980110168e-02 -2.358673959970474243e-01 6.594533920288085938e-01
3.417000000000000000e+03 7.067356872558593750e+01 -2.649476230144500732e-01 -1.423130154609680176e+00 1.076690483093261719e+01 2.803132534027099609e+00 -2.328197360038757324e-01
3.418000000000000000e+03 5.725838851928710938e+01 2.632581472396850586e+00 -2.485310286283493042e-01 1.000837445259094238e+00 2.256919145584106445e-01 -6.155193448066711426e-01
3.419000000000000000e+03 5.585107803344726562e+01 1.970955610275268555e+00 -5.051282048225402832e-01 6.506391167640686035e-01 4.365327581763267517e-02 -3.017095029354095459e-01
3.420000000000000000e+03 5.013415527343750000e+01 2.750398635864257812e+00 -6.870285272598266602e-01 2.720625698566436768e-01 -1.244897767901420593e-01 2.739253044128417969e-01
3.421000000000000000e+03 4.339406204223632812e+01 3.313745737075805664e+00 -7.171489000320434570e-01 1.012096554040908813e-01 -1.847817748785018921e-01 5.909923315048217773e-01
3.422000000000000000e+03 4.266164398193359375e+01 2.885369539260864258e+00 -7.737836241722106934e-01 7.851920276880264282e-02 -2.085793316364288330e-01 6.107555627822875977e-01
3.423000000000000000e+03 7.213129425048828125e+01 -8.542911529541015625e+00 2.162715196609497070e+00 1.156679248809814453e+01 4.118852615356445312e+00 -1.798534870147705078e+00
3.424000000000000000e+03 3.126188087463378906e+01 1.719449400901794434e+00 -5.869994163513183594e-01 -5.931314080953598022e-02 -1.938937604427337646e-01 6.471888422966003418e-01
3.425000000000000000e+03 6.410591125488281250e+01 7.361072897911071777e-01 -2.027625441551208496e-01 3.893716096878051758e+00 1.107286095619201660e+00 -2.479337930679321289e+00
3.426000000000000000e+03 4.387170791625976562e+01 2.429090738296508789e+00 -8.407133221626281738e-01 8.635761588811874390e-02 -2.263067066669464111e-01 5.788118243217468262e-01
3.427000000000000000e+03 5.120005798339843750e+01 2.836829662322998047e+00 -6.286900043487548828e-01 3.319444060325622559e-01 -8.902367949485778809e-02 1.929399818181991577e-01
3.428000000000000000e+03 5.526996612548828125e+01 -1.617147445678710938e+01 -1.420517116785049438e-01 7.400761246681213379e-01 1.794073283672332764e-01 2.741253972053527832e-01
3.429000000000000000e+03 5.618082046508789062e+01 -1.585071563720703125e+01 -1.311334669589996338e-01 8.482910990715026855e-01 2.151473015546798706e-01 3.996354043483734131e-01
3.430000000000000000e+03 2.686890411376953125e+01 -1.640413475036621094e+01 -3.746560811996459961e-01 -6.827350705862045288e-02 -1.328788846731185913e-01 -4.547331035137176514e-01
3.431000000000000000e+03 3.197576522827148438e+01 -1.775990295410156250e+01 -3.388847708702087402e-01 -8.488516509532928467e-02 -1.271309852600097656e-01 -5.162878036499023438e-01
3.432000000000000000e+03 5.700844192504882812e+01 -1.545150470733642578e+01 -1.247712075710296631e-01 9.626467823982238770e-01 2.513626813888549805e-01 5.091246366500854492e-01
3.433000000000000000e+03 5.808719253540039062e+01 -1.435587310791015625e+01 -2.466216534376144409e-01 9.899122118949890137e-01 2.229871600866317749e-01 6.268728971481323242e-01
3.434000000000000000e+03 5.318436813354492188e+01 -1.472531509399414062e+01 -5.615200996398925781e-01 3.250699937343597412e-01 -7.093502581119537354e-02 -7.037921994924545288e-02
3.435000000000000000e+03 5.415023422241210938e+01 -1.540525054931640625e+01 -3.578518629074096680e-01 5.112275481224060059e-01 4.601269960403442383e-02 8.776224404573440552e-02
3.436000000000000000e+03 6.301114273071289062e+01 -1.410214233398437500e+01 -3.442453965544700623e-02 3.135704994201660156e+00 9.303841590881347656e-01 2.018937349319458008e+00
3.437000000000000000e+03 6.850336456298828125e+01 -1.904598712921142578e+00 -1.415171504020690918e+00 1.139963436126708984e+01 2.995338916778564453e+00 -2.524782657623291016e+00
3.438000000000000000e+03 7.031494140625000000e+01 -2.387121438980102539e+00 -9.339043498039245605e-01 1.298234081268310547e+01 3.614531040191650391e+00 1.463751345872879028e-01
3.439000000000000000e+03 3.970734786987304688e+01 -1.533918762207031250e+01 -6.632388234138488770e-01 -2.655650489032268524e-02 -2.069386094808578491e-01 -5.145699381828308105e-01
3.440000000000000000e+03 5.980184936523437500e+01 5.764240622520446777e-01 -3.663650751113891602e-01 1.197631955146789551e+00 2.493800669908523560e-01 -1.013139724731445312e+00
3.441000000000000000e+03 5.970300292968750000e+01 1.197036862373352051e+00 -2.700799107551574707e-01 1.366257786750793457e+00 3.288533687591552734e-01 -1.065876245498657227e+00
3.442000000000000000e+03 7.304733276367187500e+01 -9.514456748962402344e+00 9.786563515663146973e-01 1.049769306182861328e+01 3.442904949188232422e+00 -1.701901555061340332e+00
3.443000000000000000e+03 7.091542053222656250e+01 -3.062733650207519531e+00 9.503681212663650513e-02 1.310478115081787109e+01 3.959945440292358398e+00 1.221589326858520508e+00
3.444000000000000000e+03 7.314946746826171875e+01 -5.302352905273437500e+00 2.835166215896606445e+00 9.993279457092285156e+00 3.848533868789672852e+00 9.759134650230407715e-01
3.445000000000000000e+03 2.804240989685058594e+01 -2.028335380554199219e+01 -1.573551148176193237e-01 -1.151782870292663574e-01 -8.176001906394958496e-02 -4.801851212978363037e-01
3.446000000000000000e+03 2.446332931518554688e+01 -1.649871253967285156e+01 -3.583489060401916504e-01 -6.892699748277664185e-02 -1.281827688217163086e-01 -4.153558909893035889e-01
3.447000000000000000e+03 4.588813781738281250e+01 2.667721986770629883e+00 -7.891167998313903809e-01 1.290712803602218628e-01 -1.980136483907699585e-01 5.051261186599731445e-01
3.448000000000000000e+03 4.801433563232421875e+01 1.718885660171508789e+00 -9.512263536453247070e-01 1.362428218126296997e-01 -2.444950640201568604e-01 4.357610940933227539e-01
3.449000000000000000e+03 6.172414779663085938e+01 -1.373156738281250000e+01 -2.856303565204143524e-02 2.143057823181152344e+00 6.343483924865722656e-01 1.605170488357543945e+00
3.450000000000000000e+03 4.575498962402343750e+01 1.249508976936340332e+00 -1.047235727310180664e+00 8.055748045444488525e-02 -2.900034487247467041e-01 5.160669088363647461e-01
3.451000000000000000e+03 5.329484176635742188e+01 2.177914619445800781e+00 -6.437789201736450195e-01 4.064721167087554932e-01 -7.119203358888626099e-02 1.276260893791913986e-02
3.452000000000000000e+03 5.914740753173828125e+01 -1.514304447174072266e+01 -4.486380890011787415e-02 1.431738018989562988e+00 4.160622358322143555e-01 9.282104372978210449e-01
3.453000000000000000e+03 7.136254119873046875e+01 -1.528926563262939453e+01 -1.253500938415527344e+00 9.215911865234375000e+00 2.388723373413085938e+00 1.673398464918136597e-01
3.454000000000000000e+03 6.224100494384765625e+01 -1.470972442626953125e+01 8.564499206840991974e-03 2.716063737869262695e+00 8.173884749412536621e-01 1.748217344284057617e+00
3.455000000000000000e+03 4.523817062377929688e+01 -1.520164489746093750e+01 -7.133690714836120605e-01 4.036388173699378967e-02 -2.019015550613403320e-01 -4.611672759056091309e-01
3.456000000000000000e+03 7.146660614013671875e+01 1.618363022804260254e+00 -1.335407018661499023e+00 9.599061965942382812e+00 2.479096412658691406e+00 -8.086945861577987671e-02
3.457000000000000000e+03 3.930181121826171875e+01 -1.803177070617675781e+01 -3.192442953586578369e-01 -1.552260667085647583e-02 -1.004300713539123535e-01 -5.284714698791503906e-01
3.458000000000000000e+03 6.084535598754882812e+01 1.651667475700378418e+00 -1.196539849042892456e-01 1.879240274429321289e+00 5.278759002685546875e-01 -1.425846934318542480e+00
3.459000000000000000e+03 5.985290527343750000e+01 2.057934522628784180e+00 -1.302344352006912231e-01 1.644967913627624512e+00 4.544200301170349121e-01 -1.170396685600280762e+00
3.460000000000000000e+03 5.253500366210937500e+01 -1.500388145446777344e+01 -5.330287814140319824e-01 3.176438212394714355e-01 -6.461548805236816406e-02 -1.104991361498832703e-01
3.461000000000000000e+03 4.759056854248046875e+01 2.720148563385009766e+00 -7.626889348030090332e-01 1.700165718793869019e-01 -1.778016984462738037e-01 4.327909946441650391e-01
3.462000000000000000e+03 7.234159851074218750e+01 -1.233281135559082031e+01 -9.494503140449523926e-01 1.054033756256103516e+01 2.877265930175781250e+00 -8.558120727539062500e-01
3.463000000000000000e+03 7.239600372314453125e+01 -1.095399093627929688e+01 -3.147074282169342041e-01 1.099281787872314453e+01 3.203433036804199219e+00 -1.352115035057067871e+00
3.464000000000000000e+03 7.015711212158203125e+01 -1.040961933135986328e+01 -1.036907315254211426e+00 1.302545166015625000e+01 3.596563339233398438e+00 5.854890495538711548e-02
3.465000000000000000e+03 2.770671653747558594e+01 2.116918325424194336e+00 -4.324509799480438232e-01 -1.627043485641479492e-01 -1.785465925931930542e-01 6.089828014373779297e-01
3.466000000000000000e+03 7.234425354003906250e+01 -1.038138961791992188e+01 6.453336775302886963e-02 1.118701744079589844e+01 3.375465393066406250e+00 -1.501359581947326660e+00
3.467000000000000000e+03 7.134048461914062500e+01 -1.084879589080810547e+01 -6.740491390228271484e-01 1.187822628021240234e+01 3.361253261566162109e+00 -8.877058029174804688e-01
3.468000000000000000e+03 5.083517837524414062e+01 -1.633205413818359375e+01 -3.565403521060943604e-01 3.049522936344146729e-01 -1.547641679644584656e-02 -1.778935492038726807e-01
3.469000000000000000e+03 7.106330108642578125e+01 -1.601777458190917969e+01 -1.191206932067871094e+00 8.898385047912597656e+00 2.312153577804565430e+00 3.251163363456726074e-01
3.470000000000000000e+03 7.069676971435546875e+01 -1.543067073822021484e+01 -1.300462961196899414e+00 9.049302101135253906e+00 2.324651718139648438e+00 4.946456551551818848e-01
3.471000000000000000e+03 5.976662445068359375e+01 -1.059463471174240112e-01 -5.110543966293334961e-01 9.837784171104431152e-01 1.418171972036361694e-01 -9.070805907249450684e-01
3.472000000000000000e+03 6.034572219848632812e+01 -9.128283858299255371e-01 -6.436468958854675293e-01 9.030265212059020996e-01 7.781388610601425171e-02 -9.119418263435363770e-01
3.473000000000000000e+03 7.005358886718750000e+01 5.696396827697753906e+00 -9.207465052604675293e-01 7.626385211944580078e+00 2.011691570281982422e+00 -8.299208879470825195e-01
3.474000000000000000e+03 5.416873550415039062e+01 3.122477769851684570e+00 -4.003737866878509521e-01 5.919581651687622070e-01 5.747530609369277954e-02 -1.494471728801727295e-01
3.475000000000000000e+03 6.983872222900390625e+01 7.049915790557861328e+00 -7.507193088531494141e-01 7.241586208343505859e+00 1.947260022163391113e+00 -8.523796200752258301e-01
3.476000000000000000e+03 3.825904846191406250e+01 2.971694469451904297e+00 -7.096984386444091797e-01 3.502496331930160522e-02 -2.024020403623580933e-01 6.848269104957580566e-01
3.477000000000000000e+03 6.865204620361328125e+01 8.662967681884765625e+00 -5.103864669799804688e-01 6.502649307250976562e+00 1.797678947448730469e+00 -9.921177029609680176e-01
3.478000000000000000e+03 3.300507736206054688e+01 -1.733621978759765625e+01 -3.850581645965576172e-01 -7.994945347309112549e-02 -1.395022869110107422e-01 -5.233827233314514160e-01
3.479000000000000000e+03 2.610862541198730469e+01 1.720187187194824219e+01 -2.188939154148101807e-01 -3.656443953514099121e-01 -1.753614842891693115e-01 4.678080081939697266e-01
3.480000000000000000e+03 2.565158462524414062e+01 1.554665756225585938e+01 -3.356587886810302734e-01 -3.915232121944427490e-01 -2.181545943021774292e-01 5.256845951080322266e-01
3.481000000000000000e+03 3.462035751342773438e+01 2.106932878494262695e+00 -6.895914077758789062e-01 -5.842478014528751373e-03 -2.086301743984222412e-01 6.767604351043701172e-01
3.482000000000000000e+03 3.217370605468750000e+01 1.446828842163085938e+00 -6.283662319183349609e-01 -4.281245172023773193e-02 -2.013536095619201660e-01 6.416360139846801758e-01
3.483000000000000000e+03 2.822363662719726562e+01 5.671250820159912109e+00 -4.343348741531372070e-01 -1.953116804361343384e-01 -1.888939738273620605e-01 7.228378057479858398e-01
3.484000000000000000e+03 2.724693107604980469e+01 9.569202423095703125e+00 -4.197331666946411133e-01 -2.728694081306457520e-01 -2.077807635068893433e-01 7.103185653686523438e-01
3.485000000000000000e+03 6.936927032470703125e+01 -2.070420837402343750e+01 -5.782853960990905762e-01 6.968042373657226562e+00 1.916927099227905273e+00 8.347859382629394531e-01
3.486000000000000000e+03 6.855845642089843750e+01 -2.159713745117187500e+01 -4.233591258525848389e-01 6.513589382171630859e+00 1.827069044113159180e+00 8.990994691848754883e-01
3.487000000000000000e+03 6.848697662353515625e+01 -2.351724433898925781e+01 -2.353393286466598511e-01 6.243646621704101562e+00 1.802492141723632812e+00 8.018554449081420898e-01
3.488000000000000000e+03 6.647129058837890625e+01 -2.577799987792968750e+01 2.673932164907455444e-02 5.425290107727050781e+00 1.635608792304992676e+00 8.391369581222534180e-01
3.489000000000000000e+03 3.145647048950195312e+01 -1.676428794860839844e+01 -4.107491672039031982e-01 -7.681123167276382446e-02 -1.462681293487548828e-01 -5.089372992515563965e-01
3.490000000000000000e+03 3.112404823303222656e+01 -1.572086715698242188e+01 -4.825499057769775391e-01 -6.884714961051940918e-02 -1.654191166162490845e-01 -4.866887032985687256e-01
3.491000000000000000e+03 3.248782348632812500e+01 -1.631879615783691406e+01 -4.587887823581695557e-01 -7.483718544244766235e-02 -1.600877940654754639e-01 -5.100551843643188477e-01
3.492000000000000000e+03 1.293378162384033203e+01 -2.969645309448242188e+01 9.683537483215332031e-02 -3.520667850971221924e-01 -7.656942307949066162e-02 -2.343472689390182495e-01
3.493000000000000000e+03 2.564212608337402344e+01 -1.768568229675292969e+01 -3.077431321144104004e-01 -8.739567548036575317e-02 -1.185416430234909058e-01 -4.418425559997558594e-01
3.494000000000000000e+03 6.599567413330078125e+01 1.905689048767089844e+01 1.796633005142211914e-01 5.069132804870605469e+00 1.574638843536376953e+00 -7.477381229400634766e-01
3.495000000000000000e+03 6.675764465332031250e+01 1.684325599670410156e+01 1.029602736234664917e-01 5.327272891998291016e+00 1.629069924354553223e+00 -8.037455081939697266e-01
3.496000000000000000e+03 6.755829620361328125e+01 1.494253826141357422e+01 -2.211564779281616211e-02 5.603473186492919922e+00 1.674407243728637695e+00 -8.705852031707763672e-01
3.497000000000000000e+03 2.486688995361328125e+01 1.893383979797363281e+01 -1.690023690462112427e-01 -4.626547694206237793e-01 -1.894971430301666260e-01 3.985906541347503662e-01
3.498000000000000000e+03 2.607337570190429688e+01 2.121338653564453125e+01 3.459210274741053581e-03 -3.951399326324462891e-01 -1.175042167305946350e-01 3.352671265602111816e-01
3.499000000000000000e+03 2.443288993835449219e+01 2.038878440856933594e+01 -9.589728713035583496e-02 -5.023511052131652832e-01 -1.794745177030563354e-01 3.523742556571960449e-01
3.500000000000000000e+03 2.155331230163574219e+01 2.364010238647460938e+01 7.844652235507965088e-02 -6.886515021324157715e-01 -1.830614954233169556e-01 3.037928044795989990e-01
3.501000000000000000e+03 1.708326721191406250e+01 2.819681358337402344e+01 2.440760880708694458e-01 -7.912877798080444336e-01 -1.641635149717330933e-01 3.317340612411499023e-01
3.502000000000000000e+03 2.367435455322265625e+01 -1.956846809387207031e+01 -2.106544971466064453e-01 -1.285449117422103882e-01 -1.017598211765289307e-01 -4.113481938838958740e-01
3.503000000000000000e+03 2.809359931945800781e+01 1.016200256347656250e+01 -4.020268619060516357e-01 -2.318974435329437256e-01 -1.901772916316986084e-01 7.036216855049133301e-01
3.504000000000000000e+03 2.656627273559570312e+01 1.121478176116943359e+01 -4.208623766899108887e-01 -3.127110600471496582e-01 -2.200720310211181641e-01 6.775609254837036133e-01
3.505000000000000000e+03 6.649851226806640625e+01 2.249097633361816406e+01 2.282213419675827026e-01 5.154279232025146484e+00 1.614750146865844727e+00 -6.425052881240844727e-01
3.506000000000000000e+03 7.065299987792968750e+01 3.494609451293945312e+01 1.495727449655532837e-01 5.842163562774658203e+00 1.797520875930786133e+00 -2.147049903869628906e-01
3.507000000000000000e+03 6.853861999511718750e+01 3.356183242797851562e+01 2.065593004226684570e-01 5.496443271636962891e+00 1.710900783538818359e+00 -2.389058470726013184e-01
3.508000000000000000e+03 7.244081878662109375e+01 -3.612679672241210938e+01 1.386181563138961792e-01 6.749311447143554688e+00 2.066378831863403320e+00 2.531316578388214111e-01
3.509000000000000000e+03 6.586561584472656250e+01 -1.941534519195556641e+00 -6.914168596267700195e-02 5.414565086364746094e+00 1.603626966476440430e+00 -3.698316812515258789e+00
3.510000000000000000e+03 6.700765991210937500e+01 -2.932505846023559570e+00 -1.413542032241821289e-01 8.290638923645019531e+00 2.444785356521606445e+00 -4.594395160675048828e+00
3.511000000000000000e+03 6.757617187500000000e+01 -1.081778717041015625e+01 -9.351471662521362305e-01 9.572105407714843750e+00 2.591087579727172852e+00 3.571270942687988281e+00
3.512000000000000000e+03 6.707488250732421875e+01 -1.043061542510986328e+01 -4.448377490043640137e-01 8.376773834228515625e+00 2.379580974578857422e+00 4.083648204803466797e+00
3.513000000000000000e+03 6.814263916015625000e+01 -2.140885114669799805e+00 -1.263272404670715332e+00 1.101811885833740234e+01 2.926453828811645508e+00 -3.104652881622314453e+00
3.514000000000000000e+03 6.776922607421875000e+01 -2.307226657867431641e+00 -1.004847764968872070e+00 1.028776836395263672e+01 2.784876108169555664e+00 -3.623593091964721680e+00
3.515000000000000000e+03 6.649978637695312500e+01 -1.077300453186035156e+01 -2.366655617952346802e-01 6.901548862457275391e+00 1.999464869499206543e+00 3.911774396896362305e+00
3.516000000000000000e+03 6.579909515380859375e+01 -1.074839687347412109e+01 9.206744283437728882e-02 5.271992683410644531e+00 1.609218001365661621e+00 3.679051160812377930e+00
3.517000000000000000e+03 6.929209899902343750e+01 -2.496807336807250977e+00 -1.335933923721313477e+00 1.320742225646972656e+01 3.561446428298950195e+00 -1.317964434623718262e+00
3.518000000000000000e+03 6.744675445556640625e+01 -1.037593746185302734e+01 -7.037281394004821777e-01 9.532483100891113281e+00 2.648626327514648438e+00 3.953081369400024414e+00
3.519000000000000000e+03 6.793878936767578125e+01 -1.066583061218261719e+01 -1.109894156455993652e+00 1.045374774932861328e+01 2.803155899047851562e+00 3.267853021621704102e+00
3.520000000000000000e+03 7.080118560791015625e+01 1.737466335296630859e+00 -1.397406458854675293e+00 9.473962783813476562e+00 2.422966957092285156e+00 -4.284743666648864746e-01
3.521000000000000000e+03 6.610719299316406250e+01 -1.111159229278564453e+01 -1.707409024238586426e-01 6.071890354156494141e+00 1.770344853401184082e+00 3.625292301177978516e+00
3.522000000000000000e+03 7.281732177734375000e+01 -7.207785606384277344e+00 3.235206365585327148e+00 1.025485610961914062e+01 4.047018527984619141e+00 -8.033009171485900879e-01
3.523000000000000000e+03 7.302865600585937500e+01 -6.703056812286376953e+00 3.287678480148315430e+00 9.927553176879882812e+00 3.964569568634033203e+00 -3.025824427604675293e-01
3.524000000000000000e+03 7.128640747070312500e+01 7.618227601051330566e-01 -1.373826146125793457e+00 1.010489654541015625e+01 2.619321107864379883e+00 -2.972361631691455841e-02
3.525000000000000000e+03 6.942894744873046875e+01 -1.085474300384521484e+01 -1.381405830383300781e+00 1.248195266723632812e+01 3.330164194107055664e+00 1.163211107254028320e+00
3.526000000000000000e+03 7.308861541748046875e+01 -4.821960449218750000e+00 2.431619882583618164e+00 1.012904739379882812e+01 3.768200159072875977e+00 1.260065674781799316e+00
3.527000000000000000e+03 7.264822387695312500e+01 -5.240379333496093750e+00 3.263250589370727539e+00 1.060888290405273438e+01 4.161640167236328125e+00 1.189777851104736328e+00
3.528000000000000000e+03 7.335156250000000000e+01 -6.435750007629394531e+00 3.000268459320068359e+00 9.644524574279785156e+00 3.793437957763671875e+00 -7.128039002418518066e-02
3.529000000000000000e+03 7.176242065429687500e+01 -8.770952224731445312e+00 1.861170291900634766e+00 1.209236621856689453e+01 4.186060905456542969e+00 -1.861111998558044434e+00
3.530000000000000000e+03 6.494112396240234375e+01 -1.151943969726562500e+01 4.014590382575988770e-02 4.097383022308349609e+00 1.241258740425109863e+00 3.035700559616088867e+00
3.531000000000000000e+03 7.000013732910156250e+01 -1.072645473480224609e+01 -1.166926145553588867e+00 1.260934352874755859e+01 3.432725191116333008e+00 3.569215536117553711e-01
3.532000000000000000e+03 6.986096954345703125e+01 -1.015806865692138672e+01 -1.057096242904663086e+00 1.349435806274414062e+01 3.731178522109985352e+00 3.626194000244140625e-01
3.533000000000000000e+03 7.260004425048828125e+01 -3.907834291458129883e+00 1.674548268318176270e+00 1.093922233581542969e+01 3.784131050109863281e+00 1.744506716728210449e+00
3.534000000000000000e+03 7.279179382324218750e+01 -3.426778078079223633e+00 1.146825194358825684e+00 1.078176307678222656e+01 3.578576564788818359e+00 1.730357766151428223e+00
3.535000000000000000e+03 7.053194427490234375e+01 -1.007486629486083984e+01 -5.592134594917297363e-01 1.327227401733398438e+01 3.813918113708496094e+00 -5.822964906692504883e-01
3.536000000000000000e+03 7.132096862792968750e+01 -2.592669725418090820e+00 -1.910932362079620361e-01 1.234086227416992188e+01 3.644930839538574219e+00 1.169667720794677734e+00
3.537000000000000000e+03 7.080503845214843750e+01 -2.168280363082885742e+00 -7.871884107589721680e-01 1.243937397003173828e+01 3.495655536651611328e+00 5.650612115859985352e-01
3.538000000000000000e+03 7.189746093750000000e+01 -9.258562088012695312e+00 1.185672998428344727e+00 1.189947700500488281e+01 3.925544977188110352e+00 -1.748258829116821289e+00
3.539000000000000000e+03 7.052129364013671875e+01 -1.048822593688964844e+01 -8.870074152946472168e-01 1.276340484619140625e+01 3.562919378280639648e+00 -3.019851446151733398e-01
3.540000000000000000e+03 7.322996520996093750e+01 -8.913559913635253906e+00 1.527190804481506348e+00 1.024060535430908203e+01 3.530339002609252930e+00 -1.628419995307922363e+00
3.541000000000000000e+03 7.341065216064453125e+01 -8.231654167175292969e+00 2.149828195571899414e+00 9.917039871215820312e+00 3.620060443878173828e+00 -1.384516119956970215e+00
3.542000000000000000e+03 7.231879425048828125e+01 -4.320316791534423828e+00 2.250351428985595703e+00 1.121497058868408203e+01 4.039596557617187500e+00 1.708149433135986328e+00
3.543000000000000000e+03 7.272598266601562500e+01 -4.531109809875488281e+00 2.312288761138916016e+00 1.067762088775634766e+01 3.896972894668579102e+00 1.541494488716125488e+00
3.544000000000000000e+03 7.140815734863281250e+01 -9.737114906311035156e+00 3.902813494205474854e-01 1.248511600494384766e+01 3.862619161605834961e+00 -1.511301636695861816e+00
3.545000000000000000e+03 6.380765533447265625e+01 -1.367882156372070312e+01 -7.526312023401260376e-02 3.683693647384643555e+00 1.082529067993164062e+00 2.323792219161987305e+00
3.546000000000000000e+03 6.413790893554687500e+01 -1.239686107635498047e+01 -2.029374055564403534e-02 3.491487264633178711e+00 1.041358113288879395e+00 2.554408550262451172e+00
3.547000000000000000e+03 6.503366088867187500e+01 -1.197213363647460938e+01 -7.573765516281127930e-02 4.464871883392333984e+00 1.316740155220031738e+00 2.996699571609497070e+00
3.548000000000000000e+03 6.540265655517578125e+01 -1.141871356964111328e+01 -3.531421348452568054e-02 4.776386260986328125e+00 1.422321557998657227e+00 3.292449712753295898e+00
3.549000000000000000e+03 5.995160293579101562e+01 -1.476299476623535156e+01 -4.316641762852668762e-02 1.630253314971923828e+00 4.761260747909545898e-01 1.125208020210266113e+00
3.550000000000000000e+03 6.079776382446289062e+01 -1.724066352844238281e+01 1.220919564366340637e-01 2.596702575683593750e+00 8.156383037567138672e-01 1.332709908485412598e+00
3.551000000000000000e+03 6.525774383544921875e+01 -7.808803915977478027e-01 -2.164911478757858276e-01 4.803299903869628906e+00 1.376042604446411133e+00 -3.118258237838745117e+00
3.552000000000000000e+03 2.971765899658203125e+01 5.272543430328369141e+00 -4.629335701465606689e-01 -1.328458189964294434e-01 -1.787338107824325562e-01 7.278217077255249023e-01
3.553000000000000000e+03 3.608440780639648438e+01 4.294598102569580078e+00 -5.753802657127380371e-01 2.118946239352226257e-02 -1.662572473287582397e-01 7.197056412696838379e-01
3.554000000000000000e+03 7.166347503662109375e+01 -2.779919385910034180e+00 1.913151293992996216e-01 1.206295108795166016e+01 3.676280021667480469e+00 1.469687104225158691e+00
3.555000000000000000e+03 6.407678222656250000e+01 6.864721328020095825e-02 -1.478048563003540039e-01 3.649374961853027344e+00 1.050471067428588867e+00 -2.549136400222778320e+00
3.556000000000000000e+03 7.224296569824218750e+01 -3.740504503250122070e+00 1.510041832923889160e+00 1.141907691955566406e+01 3.878735542297363281e+00 1.802452921867370605e+00
3.557000000000000000e+03 3.291484832763671875e+01 1.625075936317443848e+00 -6.549218893051147461e-01 -3.021777793765068054e-02 -2.055419087409973145e-01 6.540074348449707031e-01
3.558000000000000000e+03 4.953197097778320312e+01 -1.692443847656250000e+01 -3.130735754966735840e-01 2.593599557876586914e-01 -1.611408963799476624e-02 -2.446762770414352417e-01
3.559000000000000000e+03 5.311934661865234375e+01 -1.642445182800292969e+01 -2.319899350404739380e-01 4.999709427356719971e-01 8.039429783821105957e-02 2.403672970831394196e-02
3.560000000000000000e+03 5.506184768676757812e+01 -1.530285644531250000e+01 -3.178738653659820557e-01 5.953797101974487305e-01 8.325175195932388306e-02 1.875149905681610107e-01
3.561000000000000000e+03 5.557672500610351562e+01 -1.713252258300781250e+01 2.480255998671054840e-02 9.372875094413757324e-01 2.886270284652709961e-01 3.779959380626678467e-01
3.562000000000000000e+03 6.498262023925781250e+01 7.406558036804199219e+00 -2.829918861389160156e-01 4.995611667633056641e+00 1.413785934448242188e+00 -1.493729710578918457e+00
3.563000000000000000e+03 3.644874954223632812e+01 3.417161226272583008e+00 -6.532577276229858398e-01 1.743602380156517029e-02 -1.907465159893035889e-01 7.043450474739074707e-01
3.564000000000000000e+03 3.533555221557617188e+01 3.142425775527954102e+00 -6.472866535186767578e-01 3.703928785398602486e-03 -1.930748075246810913e-01 7.020868659019470215e-01
3.565000000000000000e+03 7.252902221679687500e+01 -1.171952724456787109e+00 -6.107928156852722168e-01 1.066172218322753906e+01 3.015278816223144531e+00 1.164235472679138184e+00
3.566000000000000000e+03 7.190670013427734375e+01 -2.040435791015625000e+00 -3.076070547103881836e-01 1.149257946014404297e+01 3.355491876602172852e+00 1.246615767478942871e+00
3.567000000000000000e+03 5.655429840087890625e+01 4.242223262786865234e+00 -6.671615689992904663e-02 1.174341559410095215e+00 3.322876095771789551e-01 -5.929839015007019043e-01
3.568000000000000000e+03 5.615095520019531250e+01 3.513334274291992188e+00 -1.923944503068923950e-01 9.697875380516052246e-01 2.332179397344589233e-01 -4.784122705459594727e-01
3.569000000000000000e+03 4.997736740112304688e+01 3.736971139907836914e+00 -5.132809281349182129e-01 3.320871889591217041e-01 -5.435812845826148987e-02 2.473882734775543213e-01
3.570000000000000000e+03 4.886183547973632812e+01 3.687938690185546875e+00 -5.700147151947021484e-01 2.764645516872406006e-01 -8.806504309177398682e-02 3.350297510623931885e-01
3.571000000000000000e+03 5.940951538085937500e+01 1.694605112075805664e+00 -2.159275114536285400e-01 1.408688902854919434e+00 3.578284084796905518e-01 -1.031656742095947266e+00
3.572000000000000000e+03 5.790946578979492188e+01 2.985952854156494141e+00 -1.612219363451004028e-01 1.241756319999694824e+00 3.241603076457977295e-01 -7.695542573928833008e-01
3.573000000000000000e+03 5.221827316284179688e+01 3.026804685592651367e+00 -5.315908789634704590e-01 4.339132308959960938e-01 -2.930329367518424988e-02 7.995866984128952026e-02
3.574000000000000000e+03 5.102758026123046875e+01 3.814219474792480469e+00 -4.499219655990600586e-01 4.080646634101867676e-01 -1.255719456821680069e-02 1.595176756381988525e-01
3.575000000000000000e+03 7.183003234863281250e+01 -2.820853143930435181e-03 -1.176288247108459473e+00 1.039835739135742188e+01 2.766620874404907227e+00 4.652927517890930176e-01
3.576000000000000000e+03 4.280405044555664062e+01 4.138800144195556641e+00 -6.162909865379333496e-01 1.170048713684082031e-01 -1.497858315706253052e-01 6.027343869209289551e-01
3.577000000000000000e+03 4.207447433471679688e+01 2.522233963012695312e+00 -8.127021193504333496e-01 7.177264988422393799e-02 -2.222788333892822266e-01 6.168188452720642090e-01
3.578000000000000000e+03 4.203125381469726562e+01 3.630091428756713867e+00 -6.745790839195251465e-01 8.979035168886184692e-02 -1.754366159439086914e-01 6.266201734542846680e-01
3.579000000000000000e+03 4.472428894042968750e+01 2.933857917785644531e+00 -7.687800526618957520e-01 1.231778338551521301e-01 -1.936806738376617432e-01 5.515695810317993164e-01
3.580000000000000000e+03 4.526023864746093750e+01 2.234878540039062500e+00 -8.746457099914550781e-01 1.043258383870124817e-01 -2.310959696769714355e-01 5.346804857254028320e-01
3.581000000000000000e+03 4.559888076782226562e+01 3.474786520004272461e+00 -6.720123887062072754e-01 1.602126508951187134e-01 -1.535399258136749268e-01 5.100333094596862793e-01
3.582000000000000000e+03 5.791533660888671875e+01 4.430254459381103516e+00 -6.223836680874228477e-04 1.541515469551086426e+00 4.622679352760314941e-01 -8.397225141525268555e-01
3.583000000000000000e+03 5.747128677368164062e+01 -1.623809814453125000e+01 1.927914679981768131e-03 1.199157714843750000e+00 3.603256940841674805e-01 6.376074552536010742e-01
3.584000000000000000e+03 6.887885284423828125e+01 -1.624911665916442871e+00 -1.502335548400878906e+00 1.150228786468505859e+01 2.999985694885253906e+00 -2.006608486175537109e+00
3.585000000000000000e+03 6.993661499023437500e+01 3.246537446975708008e+00 -1.268097877502441406e+00 8.488712310791015625e+00 2.166184425354003906e+00 -9.195485115051269531e-01
3.586000000000000000e+03 2.776316452026367188e+01 4.922915458679199219e+00 -4.271757900714874268e-01 -2.128943204879760742e-01 -1.920210272073745728e-01 7.017254233360290527e-01
3.587000000000000000e+03 2.850354385375976562e+01 2.593273401260375977e+00 -4.617979526519775391e-01 -1.453704386949539185e-01 -1.821505278348922729e-01 6.433472037315368652e-01
3.588000000000000000e+03 7.145248413085937500e+01 -1.295671463012695312e+01 -1.257673621177673340e+00 1.045343303680419922e+01 2.758727788925170898e+00 -2.664618194103240967e-01
3.589000000000000000e+03 7.106983947753906250e+01 -1.445169258117675781e+01 -1.327869057655334473e+00 9.573573112487792969e+00 2.473711013793945312e+00 1.865932792425155640e-01
3.590000000000000000e+03 6.025380706787109375e+01 1.388808846473693848e+00 -2.024220079183578491e-01 1.581781864166259766e+00 4.138079285621643066e-01 -1.236748456954956055e+00
3.591000000000000000e+03 6.950170898437500000e+01 -1.769512891769409180e+00 -1.470059633255004883e+00 1.220829582214355469e+01 3.221470832824707031e+00 -1.148274898529052734e+00
3.592000000000000000e+03 6.147890472412109375e+01 1.962789773941040039e+00 -9.487842023372650146e-02 2.335617303848266602e+00 6.722216606140136719e-01 -1.609990358352661133e+00
3.593000000000000000e+03 5.830676651000976562e+01 -1.566524696350097656e+01 -2.767665870487689972e-02 1.308755993843078613e+00 3.843238055706024170e-01 7.746737003326416016e-01
3.594000000000000000e+03 7.201866912841796875e+01 -1.168428039550781250e+01 -8.083232045173645020e-01 1.098308563232421875e+01 3.052428722381591797e+00 -9.245797395706176758e-01
3.595000000000000000e+03 6.930669403076171875e+01 1.176924705505371094e+00 -1.471686244010925293e+00 9.243669509887695312e+00 2.331594944000244141e+00 -1.348274350166320801e+00
3.596000000000000000e+03 6.284989547729492188e+01 -1.478085327148437500e+01 -2.582888863980770111e-02 3.203500986099243164e+00 9.533016681671142578e-01 1.924713015556335449e+00
3.597000000000000000e+03 3.289012145996093750e+01 9.966968297958374023e-01 -6.829616427421569824e-01 -2.546921558678150177e-02 -2.125292569398880005e-01 6.312080025672912598e-01
3.598000000000000000e+03 3.375834274291992188e+01 1.827128410339355469e+00 -6.763849258422851562e-01 -1.685673557221889496e-02 -2.079724967479705811e-01 6.666523814201354980e-01
3.599000000000000000e+03 3.951573181152343750e+01 2.106354236602783203e+00 -8.308473825454711914e-01 3.210240602493286133e-02 -2.396234869956970215e-01 6.511743068695068359e-01
3.600000000000000000e+03 7.041011047363281250e+01 -1.146804094314575195e+00 -1.362296938896179199e+00 1.155741119384765625e+01 3.058534383773803711e+00 -2.567144036293029785e-01
3.601000000000000000e+03 5.819877243041992188e+01 2.151196956634521484e+00 -2.420842647552490234e-01 1.142884373664855957e+00 2.702400088310241699e-01 -7.725132703781127930e-01
3.602000000000000000e+03 6.140019607543945312e+01 -1.545833301544189453e+01 4.498903453350067139e-02 2.488726615905761719e+00 7.601147294044494629e-01 1.543510794639587402e+00
3.603000000000000000e+03 6.157266998291015625e+01 -1.480008697509765625e+01 6.166642997413873672e-03 2.405814886093139648e+00 7.235944271087646484e-01 1.578099250793457031e+00
3.604000000000000000e+03 5.425299072265625000e+01 -1.637038993835449219e+01 -1.651346683502197266e-01 6.409641504287719727e-01 1.427488476037979126e-01 1.593845337629318237e-01
3.605000000000000000e+03 5.319795227050781250e+01 3.146607398986816406e+00 -4.551763534545898438e-01 5.138927102088928223e-01 1.761490479111671448e-02 -3.647491708397865295e-02
3.606000000000000000e+03 5.087547302246093750e+01 4.698072910308837891e+00 -3.359267413616180420e-01 4.695457220077514648e-01 4.008569568395614624e-02 1.308648735284805298e-01
3.607000000000000000e+03 7.035167694091796875e+01 -1.807278251647949219e+01 -9.370864033699035645e-01 7.910729408264160156e+00 2.092092990875244141e+00 6.600241065025329590e-01
3.608000000000000000e+03 5.509577560424804688e+01 2.962132215499877930e+00 -3.610662221908569336e-01 7.014713883399963379e-01 1.021215543150901794e-01 -2.651514112949371338e-01
3.609000000000000000e+03 5.309090423583984375e+01 4.232404232025146484e+00 -2.705556750297546387e-01 6.404923200607299805e-01 1.109809875488281250e-01 -9.116595983505249023e-02
3.610000000000000000e+03 7.150939941406250000e+01 -1.667838668823242188e+01 -1.094338059425354004e+00 8.685658454895019531e+00 2.277395963668823242e+00 2.315064966678619385e-01
3.611000000000000000e+03 3.256010818481445312e+01 2.997508049011230469e+00 -5.869965553283691406e-01 -4.108511656522750854e-02 -1.884244978427886963e-01 6.978977918624877930e-01
3.612000000000000000e+03 6.958740234375000000e+01 -1.896727180480957031e+01 -8.036170005798339844e-01 7.411980152130126953e+00 1.982508897781372070e+00 8.533467054367065430e-01
3.613000000000000000e+03 7.089400482177734375e+01 -1.722671508789062500e+01 -1.057543635368347168e+00 8.362491607666015625e+00 2.191484451293945312e+00 4.880302250385284424e-01
3.614000000000000000e+03 5.962161254882812500e+01 -1.590981292724609375e+01 5.920766294002532959e-02 1.806952238082885742e+00 5.598479509353637695e-01 1.084856867790222168e+00
3.615000000000000000e+03 6.033450317382812500e+01 -1.542272377014160156e+01 3.103421628475189209e-02 1.956721663475036621e+00 5.963267683982849121e-01 1.251372218132019043e+00
3.616000000000000000e+03 6.822415161132812500e+01 4.587339878082275391e+00 -9.567148685455322266e-01 7.141046047210693359e+00 1.855299353599548340e+00 -1.436204314231872559e+00
3.617000000000000000e+03 6.979979705810546875e+01 2.102845191955566406e+00 -1.412677049636840820e+00 9.014878273010253906e+00 2.280660152435302734e+00 -1.020344376564025879e+00
3.618000000000000000e+03 2.777102088928222656e+01 4.085709095001220703e+00 -4.296308755874633789e-01 -1.981764435768127441e-01 -1.883421987295150757e-01 6.840996146202087402e-01
3.619000000000000000e+03 2.462493515014648438e+01 -1.788786315917968750e+01 -2.892700135707855225e-01 -9.397100657224655151e-02 -1.149723008275032043e-01 -4.297235310077667236e-01
3.620000000000000000e+03 6.094832229614257812e+01 -1.501618671417236328e+01 3.534703515470027924e-03 2.100958585739135742e+00 6.313480138778686523e-01 1.386050343513488770e+00
3.621000000000000000e+03 5.203680419921875000e+01 4.005959033966064453e+00 -3.715704679489135742e-01 5.155621767044067383e-01 4.319750517606735229e-02 4.722040519118309021e-02
3.622000000000000000e+03 2.721938323974609375e+01 -1.811772346496582031e+01 -2.843455374240875244e-01 -9.134086221456527710e-02 -1.127059161663055420e-01 -4.701363444328308105e-01
3.623000000000000000e+03 3.975162506103515625e+01 4.433646678924560547e+00 -5.842857360839843750e-01 7.556910812854766846e-02 -1.526149958372116089e-01 6.788868904113769531e-01
3.624000000000000000e+03 4.031538772583007812e+01 1.897330284118652344e+00 -8.645492792129516602e-01 4.416258633136749268e-02 -2.461159974336624146e-01 6.387234926223754883e-01
3.625000000000000000e+03 4.350265502929687500e+01 -1.572346973419189453e+01 -6.306238174438476562e-01 1.438221987336874008e-02 -1.848724782466888428e-01 -4.843022525310516357e-01
3.626000000000000000e+03 4.723183822631835938e+01 -1.645576667785644531e+01 -4.560809433460235596e-01 1.397658884525299072e-01 -9.489451348781585693e-02 -3.704086542129516602e-01
3.627000000000000000e+03 2.781181144714355469e+01 -1.712647056579589844e+01 -3.464933335781097412e-01 -7.715202122926712036e-02 -1.270936131477355957e-01 -4.742383658885955811e-01
3.628000000000000000e+03 6.852249145507812500e+01 7.359611034393310547e+00 -6.587933897972106934e-01 6.695659637451171875e+00 1.811059951782226562e+00 -1.103019118309020996e+00
3.629000000000000000e+03 2.499599456787109375e+01 -1.930283546447753906e+01 -2.200576663017272949e-01 -1.179334893822669983e-01 -1.013973429799079895e-01 -4.326831400394439697e-01
3.630000000000000000e+03 3.226738739013671875e+01 4.584075927734375000e+00 -5.147688984870910645e-01 -5.326070636510848999e-02 -1.704088747501373291e-01 7.305710315704345703e-01
3.631000000000000000e+03 6.464984130859375000e+01 1.213088893890380859e+01 -1.520996727049350739e-02 4.747888565063476562e+00 1.419803500175476074e+00 -1.097757339477539062e+00
3.632000000000000000e+03 6.623549652099609375e+01 1.065167427062988281e+01 -1.907029747962951660e-01 5.385708332061767578e+00 1.558501601219177246e+00 -1.121357679367065430e+00
3.633000000000000000e+03 6.751425170898437500e+01 1.354456520080566406e+01 -8.139099925756454468e-02 5.681475639343261719e+00 1.680025458335876465e+00 -8.961447477340698242e-01
3.634000000000000000e+03 4.576298522949218750e+01 -1.618392944335937500e+01 -5.313793420791625977e-01 9.040456265211105347e-02 -1.322924345731735229e-01 -4.328744411468505859e-01
3.635000000000000000e+03 2.650350570678710938e+01 1.919297027587890625e+01 -1.095587685704231262e-01 -3.573218286037445068e-01 -1.400641798973083496e-01 3.959852159023284912e-01
3.636000000000000000e+03 4.663192367553710938e+01 1.948568105697631836e+00 -9.290191531181335449e-01 1.150868982076644897e-01 -2.441796809434890747e-01 4.859505593776702881e-01
3.637000000000000000e+03 4.770048141479492188e+01 3.717674732208251953e+00 -5.979245901107788086e-01 2.290919125080108643e-01 -1.106498017907142639e-01 4.046638011932373047e-01
3.638000000000000000e+03 3.400419616699218750e+01 -1.690948867797851562e+01 -4.279714524745941162e-01 -7.566839456558227539e-02 -1.510919481515884399e-01 -5.248513817787170410e-01
3.639000000000000000e+03 4.478697586059570312e+01 -1.667863082885742188e+01 -4.696523845195770264e-01 6.194426119327545166e-02 -1.223124340176582336e-01 -4.550494253635406494e-01
3.640000000000000000e+03 4.109204483032226562e+01 -1.767225646972656250e+01 -3.538053035736083984e-01 -1.061734044924378395e-03 -1.064601093530654907e-01 -5.062859058380126953e-01
3.641000000000000000e+03 4.865499877929687500e+01 -1.634914016723632812e+01 -4.423024058341979980e-01 1.826640516519546509e-01 -7.789150625467300415e-02 -3.101636469364166260e-01
3.642000000000000000e+03 5.062388610839843750e+01 -1.743922042846679688e+01 -1.723298132419586182e-01 3.760682344436645508e-01 6.112152710556983948e-02 -1.462213248014450073e-01
3.643000000000000000e+03 6.729593658447265625e+01 7.858561992645263672e+00 -4.997706115245819092e-01 6.050382614135742188e+00 1.665183544158935547e+00 -1.264740943908691406e+00
3.644000000000000000e+03 6.665063476562500000e+01 -2.354269981384277344e+01 -1.285886615514755249e-01 5.592422962188720703e+00 1.639150261878967285e+00 9.692024588584899902e-01
3.645000000000000000e+03 3.827947235107421875e+01 -1.707820320129394531e+01 -4.337945580482482910e-01 -3.879733011126518250e-02 -1.417775601148605347e-01 -5.359820127487182617e-01
3.646000000000000000e+03 3.997423171997070312e+01 -1.699615097045898438e+01 -4.477299749851226807e-01 -1.544831134378910065e-02 -1.389534920454025269e-01 -5.231856107711791992e-01
3.647000000000000000e+03 6.757064056396484375e+01 -2.671446609497070312e+01 3.036862052977085114e-02 5.657431125640869141e+00 1.706339836120605469e+00 7.553978562355041504e-01
3.648000000000000000e+03 2.537029266357421875e+01 1.260314846038818359e+01 -4.301405847072601318e-01 -4.045360684394836426e-01 -2.504029870033264160e-01 6.276372671127319336e-01
3.649000000000000000e+03 2.546533966064453125e+01 1.402828216552734375e+01 -3.903762698173522949e-01 -4.071948826313018799e-01 -2.392713427543640137e-01 5.772432088851928711e-01
3.650000000000000000e+03 2.849696540832519531e+01 9.254432678222656250e+00 -4.031184911727905273e-01 -2.049940228462219238e-01 -1.824337542057037354e-01 7.195609211921691895e-01
3.651000000000000000e+03 3.112613487243652344e+01 4.309912681579589844e+00 -5.065892934799194336e-01 -8.392687886953353882e-02 -1.771548390388488770e-01 7.223417758941650391e-01
3.652000000000000000e+03 6.213992691040039062e+01 1.524642181396484375e+01 2.413453906774520874e-01 3.951061487197875977e+00 1.257722139358520508e+00 -8.919144272804260254e-01
3.653000000000000000e+03 6.477060699462890625e+01 1.630009841918945312e+01 1.537844240665435791e-01 4.772257328033447266e+00 1.477812528610229492e+00 -8.792682886123657227e-01
3.654000000000000000e+03 6.615281677246093750e+01 1.543702602386474609e+01 6.074133142828941345e-02 5.181898117065429688e+00 1.572791814804077148e+00 -8.797047138214111328e-01
3.655000000000000000e+03 1.811195564270019531e+01 2.944515609741210938e+01 3.084571957588195801e-01 -7.373017072677612305e-01 -1.286533474922180176e-01 2.865518033504486084e-01
3.656000000000000000e+03 1.470559310913085938e+01 2.793997573852539062e+01 1.972571760416030884e-01 -8.125545978546142578e-01 -1.845892220735549927e-01 3.841819465160369873e-01
3.657000000000000000e+03 2.683785438537597656e+01 1.399126434326171875e+01 -3.399416804313659668e-01 -3.097409307956695557e-01 -1.949047893285751343e-01 5.872210264205932617e-01
3.658000000000000000e+03 2.674284553527832031e+01 1.257439708709716797e+01 -3.764640688896179199e-01 -3.094159364700317383e-01 -2.057639956474304199e-01 6.362001299858093262e-01
3.659000000000000000e+03 2.177163696289062500e+01 2.868373680114746094e+01 3.341009914875030518e-01 -6.129317879676818848e-01 -8.364924043416976929e-02 2.434907108545303345e-01
3.660000000000000000e+03 1.759595870971679688e+01 2.667461585998535156e+01 2.030654251575469971e-01 -8.061018586158752441e-01 -1.809109300374984741e-01 3.397420942783355713e-01
3.661000000000000000e+03 1.940393638610839844e+01 2.638632392883300781e+01 2.089553326368331909e-01 -7.540909647941589355e-01 -1.635406911373138428e-01 3.065326809883117676e-01
3.662000000000000000e+03 1.970284843444824219e+01 2.863253974914550781e+01 3.090225756168365479e-01 -7.007447481155395508e-01 -1.175166517496109009e-01 2.714892029762268066e-01
3.663000000000000000e+03 2.246405220031738281e+01 -2.153653335571289062e+01 -1.274469643831253052e-01 -1.709369719028472900e-01 -8.951517939567565918e-02 -3.839625418186187744e-01
3.664000000000000000e+03 2.410236167907714844e+01 -2.126789665222167969e+01 -1.311779916286468506e-01 -1.545548290014266968e-01 -8.571984618902206421e-02 -4.126522243022918701e-01
3.665000000000000000e+03 6.766312408447265625e+01 -1.909334301948547363e+00 -1.026711463928222656e+00 9.660991668701171875e+00 2.590284109115600586e+00 -3.483783721923828125e+00
3.666000000000000000e+03 6.684527587890625000e+01 -1.947153806686401367e+00 -5.192055106163024902e-01 7.754354476928710938e+00 2.170544862747192383e+00 -3.850469112396240234e+00
3.667000000000000000e+03 6.909138488769531250e+01 -2.059503793716430664e+00 -1.473783254623413086e+00 1.235878276824951172e+01 3.265499830245971680e+00 -1.719691753387451172e+00
3.668000000000000000e+03 6.870421600341796875e+01 -2.323020696640014648e+00 -1.404325366020202637e+00 1.226277828216552734e+01 3.257535934448242188e+00 -2.344784736633300781e+00
3.669000000000000000e+03 6.928453826904296875e+01 -1.322105169296264648e+00 -1.551120162010192871e+00 1.149199104309082031e+01 2.982261419296264648e+00 -1.471049070358276367e+00
3.670000000000000000e+03 6.581738281250000000e+01 -1.400540828704833984e+00 -2.199450880289077759e-01 5.532363891601562500e+00 1.593725681304931641e+00 -3.488391876220703125e+00
3.671000000000000000e+03 6.728622436523437500e+01 -1.932595014572143555e+00 -8.081676363945007324e-01 8.852114677429199219e+00 2.413184165954589844e+00 -3.750292062759399414e+00
3.672000000000000000e+03 7.303734588623046875e+01 -4.115480899810791016e+00 1.834103465080261230e+00 1.043379878997802734e+01 3.680370569229125977e+00 1.625445842742919922e+00
3.673000000000000000e+03 6.546130371093750000e+01 -1.185365200042724609e+01 -1.612611711025238037e-01 5.074279308319091797e+00 1.473905444145202637e+00 3.146524429321289062e+00
3.674000000000000000e+03 7.292521667480468750e+01 -7.619669914245605469e+00 2.924528121948242188e+00 1.022795486450195312e+01 3.945744752883911133e+00 -1.114282846450805664e+00
3.675000000000000000e+03 7.005047607421875000e+01 -1.279702949523925781e+01 -1.504630684852600098e+00 1.045636463165283203e+01 2.685520172119140625e+00 7.451906204223632812e-01
3.676000000000000000e+03 6.896395111083984375e+01 -1.082577037811279297e+01 -1.425211668014526367e+00 1.210424709320068359e+01 3.203710556030273438e+00 1.882582426071166992e+00
3.677000000000000000e+03 7.271285247802734375e+01 -6.234706401824951172e+00 3.643136024475097656e+00 1.030144596099853516e+01 4.183374881744384766e+00 1.469298899173736572e-01
3.678000000000000000e+03 7.270245361328125000e+01 -6.853013992309570312e+00 3.551100969314575195e+00 1.029286575317382812e+01 4.153190135955810547e+00 -4.751976132392883301e-01
3.679000000000000000e+03 7.129726409912109375e+01 -3.011548757553100586e+00 2.508148550987243652e-01 1.270950317382812500e+01 3.888095378875732422e+00 1.415574908256530762e+00
3.680000000000000000e+03 7.184861755371093750e+01 -3.161731719970703125e+00 6.598033905029296875e-01 1.192036533355712891e+01 3.774050474166870117e+00 1.647183299064636230e+00
3.681000000000000000e+03 6.994413757324218750e+01 -1.463719129562377930e+00 -1.435733914375305176e+00 1.193311119079589844e+01 3.149213075637817383e+00 -6.705244779586791992e-01
3.682000000000000000e+03 7.067687988281250000e+01 -1.088831520080566406e+01 -1.000215291976928711e+00 1.229702186584472656e+01 3.389041900634765625e+00 -2.807378172874450684e-01
3.683000000000000000e+03 7.200402069091796875e+01 -3.508247137069702148e+00 1.085944056510925293e+00 1.179681015014648438e+01 3.864826202392578125e+00 1.747373819351196289e+00
3.684000000000000000e+03 7.197142791748046875e+01 -1.081001520156860352e+00 -8.669094443321228027e-01 1.101889896392822266e+01 3.045596837997436523e+00 8.693646192550659180e-01
3.685000000000000000e+03 7.135707855224609375e+01 -2.096566677093505859e+00 -5.392559766769409180e-01 1.198249340057373047e+01 3.432971239089965820e+00 9.435630440711975098e-01
3.686000000000000000e+03 7.014701843261718750e+01 -1.930251598358154297e+00 -1.221963047981262207e+00 1.250081920623779297e+01 3.383656740188598633e+00 -2.570650577545166016e-01
3.687000000000000000e+03 7.108464813232421875e+01 -1.132932281494140625e+01 -1.014706492424011230e+00 1.164445209503173828e+01 3.188923835754394531e+00 -4.800341427326202393e-01
3.688000000000000000e+03 6.408392333984375000e+01 -1.314361476898193359e+01 -8.674842119216918945e-02 3.742758989334106445e+00 1.096803188323974609e+00 2.453022718429565430e+00
3.689000000000000000e+03 6.459251403808593750e+01 -1.213374137878417969e+01 -2.805603295564651489e-02 3.933199167251586914e+00 1.171543002128601074e+00 2.785368919372558594e+00
3.690000000000000000e+03 6.472193908691406250e+01 -1.252328109741210938e+01 -1.179292500019073486e-01 4.248103618621826172e+00 1.239052295684814453e+00 2.772160768508911133e+00
3.691000000000000000e+03 6.199066162109375000e+01 2.492705106735229492e+00 -9.561739861965179443e-02 2.785419940948486328e+00 8.069407343864440918e-01 -1.738236784934997559e+00
3.692000000000000000e+03 7.140702819824218750e+01 -1.026568126678466797e+01 -1.985695958137512207e-01 1.220334148406982422e+01 3.601431608200073242e+00 -1.240076184272766113e+00
3.693000000000000000e+03 7.088922119140625000e+01 -1.059117889404296875e+01 -7.501112222671508789e-01 1.242915439605712891e+01 3.503712892532348633e+00 -6.420552134513854980e-01
3.694000000000000000e+03 7.189175415039062500e+01 -9.784524917602539062e+00 5.041130185127258301e-01 1.181517219543457031e+01 3.695785522460937500e+00 -1.608800649642944336e+00
3.695000000000000000e+03 6.468768310546875000e+01 -7.426775991916656494e-02 -2.148707509040832520e-01 4.278724670410156250e+00 1.219156146049499512e+00 -2.779563665390014648e+00
3.696000000000000000e+03 6.884076690673828125e+01 2.616494178771972656e+00 -1.256507158279418945e+00 8.180507659912109375e+00 2.077200174331665039e+00 -1.431440591812133789e+00
3.697000000000000000e+03 6.420138549804687500e+01 1.401317000389099121e+00 -2.658204138278961182e-01 4.158985614776611328e+00 1.167949557304382324e+00 -2.400676965713500977e+00
3.698000000000000000e+03 6.142568588256835938e+01 -1.782172393798828125e+01 1.039237380027770996e-01 2.984175443649291992e+00 9.264297485351562500e-01 1.414111495018005371e+00
3.699000000000000000e+03 6.351713562011718750e+01 1.670805454254150391e+00 -1.851104348897933960e-01 3.616081476211547852e+00 1.029291272163391113e+00 -2.210268735885620117e+00
3.700000000000000000e+03 6.302886199951171875e+01 2.727894544601440430e+00 -1.582258343696594238e-01 3.496676445007324219e+00 1.001535177230834961e+00 -1.976013183593750000e+00
3.701000000000000000e+03 6.525577545166015625e+01 -2.069465816020965576e-01 -3.168652355670928955e-01 4.978092193603515625e+00 1.398368120193481445e+00 -2.974385499954223633e+00
3.702000000000000000e+03 7.188027191162109375e+01 -1.034895992279052734e+01 -5.778679624199867249e-02 1.170871734619140625e+01 3.495279312133789062e+00 -1.409847140312194824e+00
3.703000000000000000e+03 7.150698852539062500e+01 -1.193652629852294922e+01 -1.058388829231262207e+00 1.110268115997314453e+01 3.013287544250488281e+00 -5.801211595535278320e-01
3.704000000000000000e+03 3.766820144653320312e+01 3.897876262664794922e+00 -6.264812946319580078e-01 3.829745948314666748e-02 -1.764551401138305664e-01 6.996188759803771973e-01
3.705000000000000000e+03 3.338239669799804688e+01 3.189882993698120117e+00 -6.004199385643005371e-01 -2.970615588128566742e-02 -1.890378296375274658e-01 7.045972943305969238e-01
3.706000000000000000e+03 7.124104309082031250e+01 -1.390368491411209106e-02 -1.338750958442687988e+00 1.057721042633056641e+01 2.771537780761718750e+00 1.233236789703369141e-01
3.707000000000000000e+03 5.103840637207031250e+01 6.451781272888183594e+00 -9.049644321203231812e-02 6.787417531013488770e-01 1.764735877513885498e-01 2.747203409671783447e-02
3.708000000000000000e+03 4.659238433837890625e+01 3.733259916305541992e+00 -6.218404769897460938e-01 1.867797225713729858e-01 -1.305182129144668579e-01 4.640344977378845215e-01
3.709000000000000000e+03 5.707381820678710938e+01 5.009566307067871094e+00 1.181893516331911087e-02 1.436025142669677734e+00 4.343532323837280273e-01 -7.042533159255981445e-01
3.710000000000000000e+03 4.148947525024414062e+01 5.312447071075439453e+00 -4.896894395351409912e-01 1.257779896259307861e-01 -1.091734394431114197e-01 6.323860883712768555e-01
3.711000000000000000e+03 7.068341827392578125e+01 -1.161954212188720703e+01 -1.250936150550842285e+00 1.153180217742919922e+01 3.084259748458862305e+00 -3.505059704184532166e-02
3.712000000000000000e+03 2.931425476074218750e+01 3.109031677246093750e+00 -4.863406121730804443e-01 -1.269234120845794678e-01 -1.839792132377624512e-01 6.731709837913513184e-01
3.713000000000000000e+03 6.017921066284179688e+01 -1.660797119140625000e+01 1.149433180689811707e-01 2.189360380172729492e+00 6.912911534309387207e-01 1.227393746376037598e+00
3.714000000000000000e+03 4.993380737304687500e+01 5.630278587341308594e+00 -2.215421199798583984e-01 4.957456886768341064e-01 8.226106315851211548e-02 1.781298965215682983e-01
3.715000000000000000e+03 3.441582870483398438e+01 2.824144601821899414e+00 -6.426549553871154785e-01 -7.174210157245397568e-03 -1.949487477540969849e-01 6.988455057144165039e-01
3.716000000000000000e+03 3.409110260009765625e+01 3.537297964096069336e+00 -5.927604436874389648e-01 -1.309098862111568451e-02 -1.817554384469985962e-01 7.143465876579284668e-01
3.717000000000000000e+03 5.799257278442382812e+01 -1.709051322937011719e+01 1.214161887764930725e-01 1.496992468833923340e+00 4.855225980281829834e-01 7.771746516227722168e-01
3.718000000000000000e+03 7.189763641357421875e+01 -1.599698185920715332e+00 -6.571554541587829590e-01 1.132361698150634766e+01 3.199938535690307617e+00 1.037196397781372070e+00
3.719000000000000000e+03 7.136078643798828125e+01 -6.411007046699523926e-01 -1.169771909713745117e+00 1.102290534973144531e+01 2.955940008163452148e+00 4.016774892807006836e-01
3.720000000000000000e+03 7.059777069091796875e+01 9.132599234580993652e-01 -1.471520781517028809e+00 9.973558425903320312e+00 2.550611257553100586e+00 -4.572118222713470459e-01
3.721000000000000000e+03 7.025029754638671875e+01 1.850319027900695801e+00 -1.432116985321044922e+00 9.359677314758300781e+00 2.378268003463745117e+00 -7.123384475708007812e-01
3.722000000000000000e+03 5.171492385864257812e+01 4.977430343627929688e+00 -2.435213029384613037e-01 5.805743336677551270e-01 1.011158972978591919e-01 3.084760718047618866e-02
3.723000000000000000e+03 6.929477691650390625e+01 3.000879526138305664e+00 -1.272564053535461426e+00 8.343488693237304688e+00 2.121277332305908203e+00 -1.190139293670654297e+00
3.724000000000000000e+03 7.001736450195312500e+01 -1.570922183990478516e+01 -1.242959856986999512e+00 8.650200843811035156e+00 2.222172260284423828e+00 8.186458945274353027e-01
3.725000000000000000e+03 5.446082305908203125e+01 -1.743450546264648438e+01 1.513424213044345379e-03 7.927434444427490234e-01 2.382770478725433350e-01 2.413617968559265137e-01
3.726000000000000000e+03 6.203624725341796875e+01 -1.593340587615966797e+01 2.460444904863834381e-02 2.929997205734252930e+00 8.863804936408996582e-01 1.650976419448852539e+00
3.727000000000000000e+03 5.193695068359375000e+01 -1.641358947753906250e+01 -3.008666038513183594e-01 3.822379112243652344e-01 2.441138960421085358e-02 -8.675784617662429810e-02
3.728000000000000000e+03 5.323013687133789062e+01 -1.762356758117675781e+01 -2.821884490549564362e-02 6.576480865478515625e-01 1.888287812471389771e-01 1.075710728764533997e-01
3.729000000000000000e+03 5.927405929565429688e+01 2.732674598693847656e+00 -9.510110318660736084e-02 1.590155005455017090e+00 4.485161602497100830e-01 -1.056567430496215820e+00
3.730000000000000000e+03 5.861922073364257812e+01 3.532119035720825195e+00 -5.995978042483329773e-02 1.556996345520019531e+00 4.491109549999237061e-01 -9.634104371070861816e-01
3.731000000000000000e+03 3.497340774536132812e+01 3.975867271423339844e+00 -5.885012745857238770e-01 7.822877378202974796e-04 -1.763156950473785400e-01 7.220754027366638184e-01
3.732000000000000000e+03 3.338737487792968750e+01 3.878692388534545898e+00 -5.642327070236206055e-01 -2.622263506054878235e-02 -1.771366000175476074e-01 7.212920784950256348e-01
3.733000000000000000e+03 6.926665496826171875e+01 -1.566452217102050781e+01 -1.215628504753112793e+00 8.342845916748046875e+00 2.138165235519409180e+00 1.151437997817993164e+00
3.734000000000000000e+03 6.345854568481445312e+01 -1.502480506896972656e+01 -1.013981401920318604e-01 3.699333429336547852e+00 1.079380631446838379e+00 2.056042432785034180e+00
3.735000000000000000e+03 6.785111236572265625e+01 -2.067650032043457031e+01 -4.768820106983184814e-01 6.359074115753173828e+00 1.764657616615295410e+00 1.079506635665893555e+00
3.736000000000000000e+03 5.883827972412109375e+01 -1.648269844055175781e+01 9.386987239122390747e-02 1.649174928665161133e+00 5.229133963584899902e-01 9.253944754600524902e-01
3.737000000000000000e+03 7.098317718505859375e+01 -1.333278560638427734e+01 -1.374540328979492188e+00 1.021610546112060547e+01 2.652469635009765625e+00 1.475551724433898926e-01
3.738000000000000000e+03 7.055997467041015625e+01 -1.261613368988037109e+01 -1.422123193740844727e+00 1.070884609222412109e+01 2.786016941070556641e+00 3.248397409915924072e-01
3.739000000000000000e+03 6.700421905517578125e+01 6.858245849609375000e+00 -5.572807788848876953e-01 6.030433177947998047e+00 1.641945719718933105e+00 -1.395702838897705078e+00
3.740000000000000000e+03 6.481650543212890625e+01 1.156851172447204590e+00 -3.635535836219787598e-01 4.717266082763671875e+00 1.306113839149475098e+00 -2.565832138061523438e+00
3.741000000000000000e+03 7.033975219726562500e+01 -1.654816818237304688e+01 -1.134774565696716309e+00 8.413742065429687500e+00 2.183690309524536133e+00 6.757905483245849609e-01
3.742000000000000000e+03 6.886988067626953125e+01 -1.805880737304687500e+01 -8.759063482284545898e-01 7.319442272186279297e+00 1.933060765266418457e+00 1.111963391304016113e+00
3.743000000000000000e+03 6.084568786621093750e+01 -1.601869201660156250e+01 7.833945006132125854e-02 2.353558540344238281e+00 7.295693755149841309e-01 1.383459091186523438e+00
3.744000000000000000e+03 2.974409866333007812e+01 2.462044239044189453e+00 -5.097142457962036133e-01 -1.059186682105064392e-01 -1.846898794174194336e-01 6.584632992744445801e-01
3.745000000000000000e+03 3.055809211730957031e+01 3.011186361312866211e+00 -5.285527706146240234e-01 -8.667381107807159424e-02 -1.845679730176925659e-01 6.868693232536315918e-01
3.746000000000000000e+03 4.898025894165039062e+01 -1.781048965454101562e+01 -1.901012510061264038e-01 2.800015807151794434e-01 2.697010338306427002e-02 -2.508000135421752930e-01
3.747000000000000000e+03 5.423168945312500000e+01 4.180317878723144531e+00 -2.111074775457382202e-01 7.510080337524414062e-01 1.619701832532882690e-01 -2.291232347488403320e-01
3.748000000000000000e+03 6.810770416259765625e+01 6.238808631896972656e+00 -7.507488727569580078e-01 6.729607582092285156e+00 1.793657660484313965e+00 -1.262906551361083984e+00
3.749000000000000000e+03 3.115226745605468750e+01 -1.992024421691894531e+01 -1.752247512340545654e-01 -1.046205312013626099e-01 -8.395358175039291382e-02 -5.131259560585021973e-01
3.750000000000000000e+03 2.889652824401855469e+01 -1.774207687377929688e+01 -3.208106160163879395e-01 -8.386637270450592041e-02 -1.214030981063842773e-01 -4.907336831092834473e-01
3.751000000000000000e+03 4.103799057006835938e+01 4.157924652099609375e+00 -6.180573105812072754e-01 8.897728472948074341e-02 -1.587239950895309448e-01 6.481304168701171875e-01
3.752000000000000000e+03 4.157126998901367188e+01 2.977161884307861328e+00 -7.511512637138366699e-01 7.308388501405715942e-02 -2.034202069044113159e-01 6.352155208587646484e-01
3.753000000000000000e+03 6.901269531250000000e+01 5.287569999694824219e+00 -9.375902414321899414e-01 7.359969615936279297e+00 1.926713824272155762e+00 -1.124223947525024414e+00
3.754000000000000000e+03 4.833823394775390625e+01 -1.882259368896484375e+01 -4.828274622559547424e-02 3.097609281539916992e-01 7.844345271587371826e-02 -2.474447637796401978e-01
3.755000000000000000e+03 5.190662002563476562e+01 -1.769233322143554688e+01 -7.523580640554428101e-02 5.051177740097045898e-01 1.289645880460739136e-01 -2.719115838408470154e-02
3.756000000000000000e+03 5.528567504882812500e+01 3.859226703643798828e+00 -1.964651495218276978e-01 8.598467707633972168e-01 1.990144848823547363e-01 -3.574398458003997803e-01
3.757000000000000000e+03 5.269234466552734375e+01 5.421072483062744141e+00 -1.411309689283370972e-01 7.278535962104797363e-01 1.760167926549911499e-01 -1.021214798092842102e-01
3.758000000000000000e+03 3.459954833984375000e+01 -1.807334327697753906e+01 -3.223452270030975342e-01 -7.843089848756790161e-02 -1.202328354120254517e-01 -5.349332094192504883e-01
3.759000000000000000e+03 3.741714477539062500e+01 -1.795406532287597656e+01 -3.337640762329101562e-01 -5.211264640092849731e-02 -1.157630160450935364e-01 -5.380479693412780762e-01
3.760000000000000000e+03 5.565445327758789062e+01 4.749741554260253906e+00 -6.131872162222862244e-02 1.067891955375671387e+00 3.019719719886779785e-01 -4.706963002681732178e-01
3.761000000000000000e+03 5.457686614990234375e+01 5.188367843627929688e+00 -8.307620882987976074e-02 9.399455189704895020e-01 2.570607960224151611e-01 -3.345635831356048584e-01
3.762000000000000000e+03 3.656946945190429688e+01 -1.686194229125976562e+01 -4.500182569026947021e-01 -5.905449762940406799e-02 -1.527218222618103027e-01 -5.345109105110168457e-01
3.763000000000000000e+03 6.134644699096679688e+01 3.108966827392578125e+00 -5.260423198342323303e-02 2.552705526351928711e+00 7.500303983688354492e-01 -1.534553050994873047e+00
3.764000000000000000e+03 4.369824218750000000e+01 -1.691907119750976562e+01 -4.435940980911254883e-01 3.903905302286148071e-02 -1.213665157556533813e-01 -4.746464788913726807e-01
3.765000000000000000e+03 4.668758392333984375e+01 2.784270048141479492e+00 -7.616228461265563965e-01 1.496575474739074707e-01 -1.835895925760269165e-01 4.752998650074005127e-01
3.766000000000000000e+03 3.240629959106445312e+01 -1.875818252563476562e+01 -2.601017355918884277e-01 -8.990375697612762451e-02 -1.050016433000564575e-01 -5.286287069320678711e-01
3.767000000000000000e+03 3.706631469726562500e+01 4.663993358612060547e+00 -5.551844835281372070e-01 4.022053629159927368e-02 -1.544891893863677979e-01 7.131749987602233887e-01
3.768000000000000000e+03 6.615424346923828125e+01 8.222657203674316406e+00 -3.806554377079010010e-01 5.545463085174560547e+00 1.549442291259765625e+00 -1.344910979270935059e+00
3.769000000000000000e+03 3.013879966735839844e+01 3.762363433837890625e+00 -4.971677958965301514e-01 -1.079302728176116943e-01 -1.815294176340103149e-01 7.034737467765808105e-01
3.770000000000000000e+03 3.172073554992675781e+01 2.718861103057861328e+00 -5.724150538444519043e-01 -5.732097104191780090e-02 -1.889208108186721802e-01 6.868848800659179688e-01
3.771000000000000000e+03 6.693286895751953125e+01 -2.156470489501953125e+01 -3.063627779483795166e-01 5.849957942962646484e+00 1.663078546524047852e+00 1.102676153182983398e+00
3.772000000000000000e+03 6.610778045654296875e+01 1.214170837402343750e+01 -1.062744930386543274e-01 5.253830432891845703e+00 1.544266819953918457e+00 -1.049668550491333008e+00
3.773000000000000000e+03 6.372498703002929688e+01 1.041022777557373047e+01 -2.380727976560592651e-02 4.393582344055175781e+00 1.310932517051696777e+00 -1.234206318855285645e+00
3.774000000000000000e+03 6.594463348388671875e+01 1.380532264709472656e+01 -5.373222287744283676e-03 5.143549442291259766e+00 1.541452765464782715e+00 -9.660966396331787109e-01
3.775000000000000000e+03 6.763227081298828125e+01 1.197227954864501953e+01 -1.922923922538757324e-01 5.820401191711425781e+00 1.688432693481445312e+00 -9.470524191856384277e-01
3.776000000000000000e+03 4.239142227172851562e+01 -1.813335990905761719e+01 -2.733487784862518311e-01 3.615956753492355347e-02 -7.115676254034042358e-02 -4.885208010673522949e-01
3.777000000000000000e+03 3.580535125732421875e+01 5.189862251281738281e+00 -5.131449699401855469e-01 2.415382489562034607e-02 -1.466973423957824707e-01 7.255282402038574219e-01
3.778000000000000000e+03 2.867110252380371094e+01 5.090346813201904297e+00 -4.456442594528198242e-01 -1.682936847209930420e-01 -1.841813772916793823e-01 7.158096432685852051e-01
3.779000000000000000e+03 3.350212860107421875e+01 -1.849239921569824219e+01 -2.814342379570007324e-01 -8.581256866455078125e-02 -1.101740375161170959e-01 -5.297489166259765625e-01
3.780000000000000000e+03 4.516461944580078125e+01 4.525633811950683594e+00 -5.251578688621520996e-01 1.912117898464202881e-01 -1.001838296651840210e-01 5.115226507186889648e-01
3.781000000000000000e+03 4.421841812133789062e+01 3.851707458496093750e+00 -6.338808536529541016e-01 1.386228054761886597e-01 -1.485774070024490356e-01 5.611593127250671387e-01
3.782000000000000000e+03 5.705644607543945312e+01 -1.767177581787109375e+01 1.469219326972961426e-01 1.343276619911193848e+00 4.470595717430114746e-01 6.278387904167175293e-01
3.783000000000000000e+03 5.657436752319335938e+01 -1.672248649597167969e+01 1.994998380541801453e-02 1.078625798225402832e+00 3.295727372169494629e-01 5.168126225471496582e-01
3.784000000000000000e+03 4.638032150268554688e+01 -1.722007369995117188e+01 -3.369979560375213623e-01 1.468208879232406616e-01 -5.705311894416809082e-02 -3.891834914684295654e-01
3.785000000000000000e+03 4.802224349975585938e+01 -1.717406463623046875e+01 -3.166466951370239258e-01 2.000855207443237305e-01 -3.496835380792617798e-02 -3.213530778884887695e-01
3.786000000000000000e+03 2.954574775695800781e+01 7.706929206848144531e+00 -4.205451011657714844e-01 -1.493227183818817139e-01 -1.709603369235992432e-01 7.389280796051025391e-01
3.787000000000000000e+03 6.766350555419921875e+01 -2.255038833618164062e+01 -2.745833694934844971e-01 6.048181533813476562e+00 1.732079386711120605e+00 9.667625427246093750e-01
3.788000000000000000e+03 2.796874809265136719e+01 1.230253124237060547e+01 -3.500139117240905762e-01 -2.387869805097579956e-01 -1.766402572393417358e-01 6.502231359481811523e-01
3.789000000000000000e+03 4.053899383544921875e+01 -1.889657211303710938e+01 -2.143250405788421631e-01 1.487500127404928207e-02 -5.983501300215721130e-02 -5.041074752807617188e-01
3.790000000000000000e+03 3.640077972412109375e+01 -1.875619316101074219e+01 -2.559198439121246338e-01 -6.213876605033874512e-02 -9.541758149862289429e-02 -5.370930433273315430e-01
3.791000000000000000e+03 6.414550781250000000e+01 -2.567624092102050781e+01 1.870168149471282959e-01 4.551023960113525391e+00 1.421412229537963867e+00 8.873860239982604980e-01
3.792000000000000000e+03 6.531655120849609375e+01 -2.722558593750000000e+01 1.954858005046844482e-01 4.949083328247070312e+00 1.543370723724365234e+00 7.688004970550537109e-01
3.793000000000000000e+03 2.683434104919433594e+01 1.538378047943115234e+01 -2.942776978015899658e-01 -3.215392827987670898e-01 -1.847450882196426392e-01 5.307803153991699219e-01
3.794000000000000000e+03 2.841494941711425781e+01 -1.894165229797363281e+01 -2.388270795345306396e-01 -1.008054912090301514e-01 -1.018897742033004761e-01 -4.889570474624633789e-01
3.795000000000000000e+03 2.896289062500000000e+01 8.556499481201171875e+00 -4.017756283283233643e-01 -1.733028441667556763e-01 -1.725235432386398315e-01 7.344515323638916016e-01
3.796000000000000000e+03 2.677626419067382812e+01 -2.023287582397460938e+01 -1.708849817514419556e-01 -1.256931722164154053e-01 -8.897344768047332764e-02 -4.628962278366088867e-01
3.797000000000000000e+03 6.542555236816406250e+01 2.146135139465332031e+01 2.469335645437240601e-01 4.908697605133056641e+00 1.546689391136169434e+00 -6.781806349754333496e-01
3.798000000000000000e+03 6.453755187988281250e+01 2.012795066833496094e+01 2.415164113044738770e-01 4.670765876770019531e+00 1.473684668540954590e+00 -7.274439930915832520e-01
3.799000000000000000e+03 2.481535720825195312e+01 -2.317298507690429688e+01 -3.511962294578552246e-02 -1.792439967393875122e-01 -6.430909037590026855e-02 -4.123545587062835693e-01
3.800000000000000000e+03 6.513833618164062500e+01 9.432602882385253906e+00 -1.812030822038650513e-01 5.011566638946533203e+00 1.449109077453613281e+00 -1.266977667808532715e+00
3.801000000000000000e+03 6.771212005615234375e+01 -8.303473591804504395e-01 -1.180056571960449219e+00 9.046303749084472656e+00 2.359874248504638672e+00 -2.899475336074829102e+00
3.802000000000000000e+03 6.827362060546875000e+01 -1.510893821716308594e+00 -1.368165373802185059e+00 1.052455329895019531e+01 2.746916294097900391e+00 -2.723254680633544922e+00
3.803000000000000000e+03 6.555076599121093750e+01 -1.232659149169921875e+01 -2.848654985427856445e-01 5.295637130737304688e+00 1.503231525421142578e+00 3.035452604293823242e+00
3.804000000000000000e+03 6.736049652099609375e+01 -2.395359754562377930e+00 -7.117811441421508789e-01 9.306653976440429688e+00 2.578461885452270508e+00 -4.023507118225097656e+00
3.805000000000000000e+03 6.863842010498046875e+01 -1.192169189453125000e+00 -1.496321678161621094e+00 1.069745159149169922e+01 2.760339021682739258e+00 -2.199415445327758789e+00
3.806000000000000000e+03 6.904815673828125000e+01 -8.673489093780517578e-01 -1.557409167289733887e+00 1.077747154235839844e+01 2.766018867492675781e+00 -1.739293456077575684e+00
3.807000000000000000e+03 6.910684204101562500e+01 -1.138496112823486328e+01 -1.520595312118530273e+00 1.132712268829345703e+01 2.941958189010620117e+00 1.686010837554931641e+00
3.808000000000000000e+03 6.579113006591796875e+01 -8.604199290275573730e-01 -3.530229330062866211e-01 5.639476299285888672e+00 1.585936069488525391e+00 -3.291047334671020508e+00
3.809000000000000000e+03 6.991173553466796875e+01 -1.228372192382812500e+01 -1.493791460990905762e+00 1.092621898651123047e+01 2.829728364944458008e+00 7.899116873741149902e-01
3.810000000000000000e+03 6.438852691650390625e+01 -1.274183750152587891e+01 -8.951188623905181885e-02 3.883618831634521484e+00 1.138232111930847168e+00 2.607671499252319336e+00
3.811000000000000000e+03 6.949083709716796875e+01 -5.519927740097045898e-01 -1.564194917678833008e+00 1.075477123260498047e+01 2.757172822952270508e+00 -1.242144107818603516e+00
3.812000000000000000e+03 7.102845764160156250e+01 -1.226783275604248047e+01 -1.280160069465637207e+00 1.098540306091308594e+01 2.911572933197021484e+00 -1.256751865148544312e-01
3.813000000000000000e+03 6.361426162719726562e+01 -1.431594181060791016e+01 -8.534659445285797119e-02 3.653410911560058594e+00 1.070419311523437500e+00 2.192157030105590820e+00
3.814000000000000000e+03 6.511931610107421875e+01 -1.242343139648437500e+01 -1.858274191617965698e-01 4.683514595031738281e+00 1.349306106567382812e+00 2.900397062301635742e+00
3.815000000000000000e+03 6.982302093505859375e+01 -1.102378559112548828e+01 -1.325022220611572266e+00 1.228544044494628906e+01 3.288125276565551758e+00 6.575430631637573242e-01
3.816000000000000000e+03 7.063951110839843750e+01 -1.652706146240234375e+00 -1.122027516365051270e+00 1.204297828674316406e+01 3.276285409927368164e+00 1.739665269851684570e-01
3.817000000000000000e+03 7.107358551025390625e+01 -1.345424890518188477e+00 -1.072688221931457520e+00 1.163936233520507812e+01 3.170002460479736328e+00 4.373799264430999756e-01
3.818000000000000000e+03 6.145156097412109375e+01 -1.658408355712890625e+01 7.169508934020996094e-02 2.777466535568237305e+00 8.547484874725341797e-01 1.498963713645935059e+00
3.819000000000000000e+03 7.142169952392578125e+01 -1.592560052871704102e+00 -8.459909558296203613e-01 1.159027099609375000e+01 3.223284006118774414e+00 7.450533509254455566e-01
3.820000000000000000e+03 6.472521209716796875e+01 5.413060188293457031e-01 -2.910098731517791748e-01 4.503228187561035156e+00 1.263665556907653809e+00 -2.675581932067871094e+00
3.821000000000000000e+03 6.839282989501953125e+01 3.150746345520019531e+00 -1.131562352180480957e+00 7.652353763580322266e+00 1.956237435340881348e+00 -1.570587873458862305e+00
3.822000000000000000e+03 6.529266357421875000e+01 3.660887479782104492e-01 -4.049632549285888672e-01 5.138997077941894531e+00 1.420210242271423340e+00 -2.829568624496459961e+00
3.823000000000000000e+03 7.037416076660156250e+01 -1.109619808197021484e+01 -1.177375435829162598e+00 1.215993213653564453e+01 3.294766902923583984e+00 6.353216618299484253e-02
3.824000000000000000e+03 7.030847930908203125e+01 2.032202631235122681e-01 -1.516255497932434082e+00 1.039233589172363281e+01 2.662824153900146484e+00 -5.901228189468383789e-01
3.825000000000000000e+03 5.993688583374023438e+01 3.213968038558959961e+00 -3.779327496886253357e-02 1.964476823806762695e+00 5.780050754547119141e-01 -1.229175209999084473e+00
3.826000000000000000e+03 6.959630584716796875e+01 1.544148683547973633e+00 -1.446379423141479492e+00 9.161452293395996094e+00 2.314522027969360352e+00 -1.148460626602172852e+00
3.827000000000000000e+03 6.797626495361328125e+01 -1.166322112083435059e+00 -1.267882823944091797e+00 9.636022567749023438e+00 2.510442018508911133e+00 -2.882813930511474609e+00
3.828000000000000000e+03 6.371206283569335938e+01 2.377834796905517578e+00 -2.397931367158889771e-01 3.919999361038208008e+00 1.104061841964721680e+00 -2.152738094329833984e+00
3.829000000000000000e+03 7.147023773193359375e+01 -1.141443014144897461e+00 -1.006598711013793945e+00 1.121563148498535156e+01 3.062709808349609375e+00 5.965519547462463379e-01
3.830000000000000000e+03 6.917372894287109375e+01 1.693749785423278809e+00 -1.408119320869445801e+00 8.860823631286621094e+00 2.235811233520507812e+00 -1.394312024116516113e+00
3.831000000000000000e+03 7.049763488769531250e+01 -1.473994350433349609e+01 -1.366811633110046387e+00 9.266507148742675781e+00 2.369908571243286133e+00 6.027645468711853027e-01
3.832000000000000000e+03 5.182867050170898438e+01 7.866344928741455078e+00 7.989745587110519409e-02 8.998450636863708496e-01 2.939227521419525146e-01 -1.037937849760055542e-01
3.833000000000000000e+03 4.989064788818359375e+01 4.701601028442382812e+00 -3.680225014686584473e-01 4.116783738136291504e-01 1.309676282107830048e-02 2.186914980411529541e-01
3.834000000000000000e+03 6.884555816650390625e+01 3.741462707519531250e+00 -1.117124676704406738e+00 7.764535903930664062e+00 1.994223356246948242e+00 -1.310530185699462891e+00
3.835000000000000000e+03 6.588861083984375000e+01 7.505758404731750488e-01 -6.175432801246643066e-01 5.922315597534179688e+00 1.591431736946105957e+00 -2.761008262634277344e+00
3.836000000000000000e+03 7.002711486816406250e+01 1.216561317443847656e+00 -1.499085187911987305e+00 9.611876487731933594e+00 2.433837413787841797e+00 -8.685389757156372070e-01
3.837000000000000000e+03 3.094002151489257812e+01 5.341125488281250000e+00 -4.749546051025390625e-01 -9.275558590888977051e-02 -1.703130602836608887e-01 7.353388071060180664e-01
3.838000000000000000e+03 5.943116378784179688e+01 -1.727216529846191406e+01 1.507568508386611938e-01 2.040488958358764648e+00 6.573737859725952148e-01 1.056863188743591309e+00
3.839000000000000000e+03 5.714748764038085938e+01 5.925166606903076172e+00 8.989711850881576538e-02 1.590232253074645996e+00 5.040388107299804688e-01 -7.492420673370361328e-01
3.840000000000000000e+03 5.627695083618164062e+01 5.501165390014648438e+00 2.067551389336585999e-02 1.279220581054687500e+00 3.899688422679901123e-01 -5.833927392959594727e-01
3.841000000000000000e+03 6.831931304931640625e+01 -1.638201141357421875e+01 -1.042392492294311523e+00 7.571068763732910156e+00 1.958602905273437500e+00 1.482288360595703125e+00
3.842000000000000000e+03 6.507406616210937500e+01 -1.667647743225097656e+01 -3.871121108531951904e-01 5.126340389251708984e+00 1.421768426895141602e+00 1.927839636802673340e+00
3.843000000000000000e+03 3.522740936279296875e+01 -1.941847610473632812e+01 -2.016726434230804443e-01 -7.527428865432739258e-02 -8.308408409357070923e-02 -5.350555181503295898e-01
3.844000000000000000e+03 3.732005310058593750e+01 -2.014471435546875000e+01 -1.181760802865028381e-01 -4.655737429857254028e-02 -4.942003637552261353e-02 -5.280004143714904785e-01
3.845000000000000000e+03 5.212284851074218750e+01 6.685508728027343750e+00 -1.379120443016290665e-02 8.026313185691833496e-01 2.366520464420318604e-01 -8.302962034940719604e-02
3.846000000000000000e+03 5.865598297119140625e+01 5.110139369964599609e+00 5.203409865498542786e-02 1.878265500068664551e+00 5.790898799896240234e-01 -9.953553676605224609e-01
3.847000000000000000e+03 5.731707000732421875e+01 3.707368373870849609e+00 -1.042546331882476807e-01 1.228952884674072266e+00 3.374094963073730469e-01 -6.914833784103393555e-01
3.848000000000000000e+03 4.357946395874023438e+01 4.649110794067382812e+00 -5.449408888816833496e-01 1.491294205188751221e-01 -1.187434419989585876e-01 5.736759305000305176e-01
3.849000000000000000e+03 6.254604721069335938e+01 -1.535080432891845703e+01 -1.668236218392848969e-02 3.067052602767944336e+00 9.151110649108886719e-01 1.791834950447082520e+00
3.850000000000000000e+03 6.747276306152343750e+01 5.409049510955810547e+00 -7.762480378150939941e-01 6.554591178894042969e+00 1.733502984046936035e+00 -1.499376177787780762e+00
3.851000000000000000e+03 6.801396179199218750e+01 -1.889780235290527344e+01 -6.883496642112731934e-01 6.735278606414794922e+00 1.814078569412231445e+00 1.207756519317626953e+00
3.852000000000000000e+03 6.275444793701171875e+01 -1.656615638732910156e+01 -2.770726010203361511e-02 3.512128829956054688e+00 1.045326471328735352e+00 1.740350008010864258e+00
3.853000000000000000e+03 6.589413452148437500e+01 -2.244470977783203125e+01 -1.443564593791961670e-01 5.349471569061279297e+00 1.561534523963928223e+00 1.096125721931457520e+00
3.854000000000000000e+03 5.005609130859375000e+01 -1.840356063842773438e+01 -5.237877368927001953e-02 4.075440764427185059e-01 1.065495908260345459e-01 -1.480803936719894409e-01
3.855000000000000000e+03 2.974377059936523438e+01 6.485477924346923828e+00 -4.393947124481201172e-01 -1.370242685079574585e-01 -1.729256957769393921e-01 7.395018339157104492e-01
3.856000000000000000e+03 2.936205673217773438e+01 9.425889968872070312e+00 -3.866791427135467529e-01 -1.599141806364059448e-01 -1.639779955148696899e-01 7.219762802124023438e-01
3.857000000000000000e+03 5.472784042358398438e+01 6.158535003662109375e+00 4.569061100482940674e-02 1.115777969360351562e+00 3.484405875205993652e-01 -4.037459194660186768e-01
3.858000000000000000e+03 4.388470077514648438e+01 -1.835335731506347656e+01 -2.258629798889160156e-01 8.988634496927261353e-02 -4.079299047589302063e-02 -4.505076706409454346e-01
3.859000000000000000e+03 2.950991439819335938e+01 4.294653892517089844e+00 -4.757650494575500488e-01 -1.272336542606353760e-01 -1.808996051549911499e-01 7.086178064346313477e-01
3.860000000000000000e+03 5.576973342895507812e+01 6.315644264221191406e+00 7.990004867315292358e-02 1.305470347404479980e+00 4.156111180782318115e-01 -5.397054553031921387e-01
3.861000000000000000e+03 3.679859161376953125e+01 6.352511882781982422e+00 -4.393459558486938477e-01 5.496510118246078491e-02 -1.153142526745796204e-01 7.133176922798156738e-01
3.862000000000000000e+03 6.898620605468750000e+01 -1.656421852111816406e+01 -1.080491900444030762e+00 7.864342212677001953e+00 2.035155057907104492e+00 1.172786116600036621e+00
3.863000000000000000e+03 5.372996139526367188e+01 5.917901039123535156e+00 -3.201869875192642212e-02 9.186663627624511719e-01 2.659943103790283203e-01 -2.478183954954147339e-01
3.864000000000000000e+03 5.479366683959960938e+01 -1.861241149902343750e+01 1.654145270586013794e-01 1.004882216453552246e+00 3.510890305042266846e-01 3.365503251552581787e-01
3.865000000000000000e+03 5.765809249877929688e+01 -1.869919967651367188e+01 2.460373789072036743e-01 1.669770836830139160e+00 5.747424364089965820e-01 7.526184916496276855e-01
3.866000000000000000e+03 5.860275268554687500e+01 -1.798373985290527344e+01 2.041210979223251343e-01 1.851170063018798828e+00 6.165873408317565918e-01 8.963155746459960938e-01
3.867000000000000000e+03 5.345869827270507812e+01 -1.891295623779296875e+01 1.470518410205841064e-01 8.254387378692626953e-01 2.917471826076507568e-01 1.869769990444183350e-01
3.868000000000000000e+03 5.524968719482421875e+01 -1.990966987609863281e+01 2.964802980422973633e-01 1.263073682785034180e+00 4.678661823272705078e-01 4.346564114093780518e-01
3.869000000000000000e+03 6.039756011962890625e+01 2.382664680480957031e+00 -7.917643338441848755e-02 1.919563293457031250e+00 5.521160364151000977e-01 -1.335127949714660645e+00
3.870000000000000000e+03 6.094979858398437500e+01 2.666008234024047852e+00 -6.446768343448638916e-02 2.218734502792358398e+00 6.462800502777099609e-01 -1.454646468162536621e+00
3.871000000000000000e+03 4.529505920410156250e+01 -1.801008415222167969e+01 -2.455954551696777344e-01 1.291181147098541260e-01 -3.494320064783096313e-02 -4.126038849353790283e-01
3.872000000000000000e+03 4.023412704467773438e+01 5.681095123291015625e+00 -4.638184607028961182e-01 1.106942817568778992e-01 -1.059372499585151672e-01 6.580044031143188477e-01
3.873000000000000000e+03 3.844376754760742188e+01 -1.912045097351074219e+01 -2.063106298446655273e-01 -2.584611624479293823e-02 -6.964702159166336060e-02 -5.301359295845031738e-01
3.874000000000000000e+03 6.503748321533203125e+01 8.437320709228515625e+00 -2.508858442306518555e-01 4.957534313201904297e+00 1.411994576454162598e+00 -1.395158171653747559e+00
3.875000000000000000e+03 6.625712585449218750e+01 9.338706016540527344e+00 -2.955565154552459717e-01 5.470123291015625000e+00 1.552369952201843262e+00 -1.234500169754028320e+00
3.876000000000000000e+03 4.432182312011718750e+01 5.499859809875488281e+00 -4.298887550830841064e-01 2.047993838787078857e-01 -6.752680987119674683e-02 5.296424627304077148e-01
3.877000000000000000e+03 6.269706726074218750e+01 -2.264693832397460938e+01 1.577766686677932739e-01 4.003817081451416016e+00 1.248478055000305176e+00 1.108280539512634277e+00
3.878000000000000000e+03 4.724658584594726562e+01 -1.811724853515625000e+01 -1.942391097545623779e-01 2.094334214925765991e-01 4.558292683213949203e-03 -3.352668583393096924e-01
3.879000000000000000e+03 2.809981155395507812e+01 1.425195598602294922e+01 -2.846709787845611572e-01 -2.374311685562133789e-01 -1.566306352615356445e-01 5.818235874176025391e-01
3.880000000000000000e+03 6.459365844726562500e+01 4.580320835113525391e+00 -3.832373917102813721e-01 4.872518539428710938e+00 1.346784353256225586e+00 -1.902053117752075195e+00
3.881000000000000000e+03 6.658438873291015625e+01 6.048075199127197266e+00 -5.914736986160278320e-01 5.965745925903320312e+00 1.612281680107116699e+00 -1.534456133842468262e+00
3.882000000000000000e+03 2.624761390686035156e+01 -1.887500190734863281e+01 -2.397451400756835938e-01 -1.053657233715057373e-01 -1.035332605242729187e-01 -4.566836655139923096e-01
3.883000000000000000e+03 3.254015350341796875e+01 -2.006324958801269531e+01 -1.571996957063674927e-01 -9.856451302766799927e-02 -7.672926038503646851e-02 -5.239033102989196777e-01
3.884000000000000000e+03 3.767146301269531250e+01 5.322805404663085938e+00 -5.093168020248413086e-01 5.431364476680755615e-02 -1.365009546279907227e-01 7.061597704887390137e-01
3.885000000000000000e+03 3.857428359985351562e+01 4.841862201690673828e+00 -5.539658665657043457e-01 6.070125848054885864e-02 -1.479793936014175415e-01 6.940836310386657715e-01
3.886000000000000000e+03 4.763428115844726562e+01 4.846317768096923828e+00 -4.185700118541717529e-01 2.989033162593841553e-01 -3.590001538395881653e-02 3.731802105903625488e-01
3.887000000000000000e+03 4.880258560180664062e+01 4.754383563995361328e+00 -3.909795880317687988e-01 3.450440764427185059e-01 -1.378065254539251328e-02 3.020093739032745361e-01
3.888000000000000000e+03 6.389405441284179688e+01 7.059614658355712891e+00 -1.903751641511917114e-01 4.459448337554931641e+00 1.280721902847290039e+00 -1.538788437843322754e+00
3.889000000000000000e+03 4.635951232910156250e+01 4.891011714935302734e+00 -4.560283422470092773e-01 2.439483255147933960e-01 -6.362400203943252563e-02 4.511465132236480713e-01
3.890000000000000000e+03 4.201485061645507812e+01 -1.953151130676269531e+01 -1.306934654712677002e-01 4.363337904214859009e-02 -2.611802518367767334e-02 -4.680161476135253906e-01
3.891000000000000000e+03 6.384116363525390625e+01 1.860108184814453125e+01 2.546646296977996826e-01 4.484359741210937500e+00 1.421707272529602051e+00 -7.868890762329101562e-01
3.892000000000000000e+03 6.492886352539062500e+01 1.065663433074951172e+01 -1.100572273135185242e-01 4.890616893768310547e+00 1.434167861938476562e+00 -1.196921586990356445e+00
3.893000000000000000e+03 6.717952728271484375e+01 -1.979183769226074219e+01 -4.971467852592468262e-01 6.147917747497558594e+00 1.695231318473815918e+00 1.252125740051269531e+00
3.894000000000000000e+03 2.974179840087890625e+01 1.227990436553955078e+01 -2.954412996768951416e-01 -1.430593132972717285e-01 -1.315501928329467773e-01 6.519851088523864746e-01
3.895000000000000000e+03 3.041440582275390625e+01 9.496623039245605469e+00 -3.656501173973083496e-01 -1.158076673746109009e-01 -1.444373428821563721e-01 7.189649343490600586e-01
3.896000000000000000e+03 3.392739868164062500e+01 -1.987314414978027344e+01 -1.674083173274993896e-01 -8.776015788316726685e-02 -7.655054330825805664e-02 -5.340810418128967285e-01
3.897000000000000000e+03 6.240955352783203125e+01 2.452324295043945312e+01 3.736999332904815674e-01 4.215459823608398438e+00 1.376747965812683105e+00 -5.635529756546020508e-01
3.898000000000000000e+03 6.299827957153320312e+01 2.129569244384765625e+01 3.272150754928588867e-01 4.301408767700195312e+00 1.388587117195129395e+00 -6.656453609466552734e-01
3.899000000000000000e+03 6.371434402465820312e+01 1.547965717315673828e+01 1.745081394910812378e-01 4.449743270874023438e+00 1.387275338172912598e+00 -8.954360485076904297e-01
3.900000000000000000e+03 6.211601257324218750e+01 1.943415451049804688e+01 3.253659605979919434e-01 4.025865077972412109e+00 1.305369377136230469e+00 -7.122402787208557129e-01
3.901000000000000000e+03 2.340893554687500000e+01 -2.572658348083496094e+01 8.306264132261276245e-02 -2.298004627227783203e-01 -4.402134567499160767e-02 -3.592856526374816895e-01
3.902000000000000000e+03 6.770244598388671875e+01 -1.529475569725036621e+00 -1.121243238449096680e+00 9.458793640136718750e+00 2.501265048980712891e+00 -3.240397930145263672e+00
3.903000000000000000e+03 6.678582000732421875e+01 -1.115357875823974609e+01 -5.283356904983520508e-01 7.497316837310791016e+00 2.090694427490234375e+00 3.645751476287841797e+00
3.904000000000000000e+03 6.612698364257812500e+01 -1.185816860198974609e+01 -3.915971517562866211e-01 6.217509746551513672e+00 1.747773766517639160e+00 3.333176851272583008e+00
3.905000000000000000e+03 6.702205657958984375e+01 -1.159534835815429688e+01 -7.667600512504577637e-01 7.970648288726806641e+00 2.161166429519653320e+00 3.356681346893310547e+00
3.906000000000000000e+03 6.835839843750000000e+01 -7.716026306152343750e-01 -1.422945261001586914e+00 9.892229080200195312e+00 2.540785074234008789e+00 -2.371521949768066406e+00
3.907000000000000000e+03 6.472308349609375000e+01 -1.292481803894042969e+01 -1.768591403961181641e-01 4.379283905029296875e+00 1.260727405548095703e+00 2.689472675323486328e+00
3.908000000000000000e+03 6.431076812744140625e+01 -1.388023090362548828e+01 -1.624631732702255249e-01 4.192728519439697266e+00 1.209079623222351074e+00 2.407335519790649414e+00
3.909000000000000000e+03 6.452915954589843750e+01 -1.337477207183837891e+01 -1.644099950790405273e-01 4.306153774261474609e+00 1.242523193359375000e+00 2.571347236633300781e+00
3.910000000000000000e+03 6.681201171875000000e+01 -1.447955012321472168e+00 -6.539846062660217285e-01 7.567099094390869141e+00 2.073934316635131836e+00 -3.581037998199462891e+00
3.911000000000000000e+03 6.629884338378906250e+01 -9.170530438423156738e-01 -5.315517783164978027e-01 6.517429828643798828e+00 1.795763492584228516e+00 -3.372368574142456055e+00
3.912000000000000000e+03 6.960256958007812500e+01 7.279327511787414551e-01 -1.521510839462280273e+00 9.731020927429199219e+00 2.462853193283081055e+00 -1.153262615203857422e+00
3.913000000000000000e+03 6.578970336914062500e+01 -1.155889225006103516e+01 -1.922174841165542603e-01 5.491224288940429688e+00 1.589702010154724121e+00 3.383277893066406250e+00
3.914000000000000000e+03 6.944797515869140625e+01 -1.133695507049560547e+01 -1.553398370742797852e+00 1.174480438232421875e+01 3.057421922683715820e+00 1.282917976379394531e+00
3.915000000000000000e+03 6.418414306640625000e+01 -1.447087669372558594e+01 -1.815848499536514282e-01 4.188888549804687500e+00 1.202191114425659180e+00 2.283588886260986328e+00
3.916000000000000000e+03 6.993889617919921875e+01 -2.411887347698211670e-01 -1.558761477470397949e+00 1.075516891479492188e+01 2.758922100067138672e+00 -8.468272089958190918e-01
3.917000000000000000e+03 6.986501312255859375e+01 -1.432047462463378906e+01 -1.406931161880493164e+00 9.288321495056152344e+00 2.364417076110839844e+00 9.596258401870727539e-01
3.918000000000000000e+03 7.057833099365234375e+01 -1.378016662597656250e+01 -1.429648876190185547e+00 9.925577163696289062e+00 2.548778533935546875e+00 4.646044373512268066e-01
3.919000000000000000e+03 6.578855895996093750e+01 -3.198591470718383789e-01 -4.564845561981201172e-01 5.720039367675781250e+00 1.579066395759582520e+00 -3.107330083847045898e+00
3.920000000000000000e+03 6.972196197509765625e+01 -1.004768133163452148e+00 -1.554512500762939453e+00 1.137807941436767578e+01 2.947069883346557617e+00 -9.954308867454528809e-01
3.921000000000000000e+03 6.688118743896484375e+01 3.544142007827758789e+00 -8.449388146400451660e-01 6.498913288116455078e+00 1.696192264556884766e+00 -1.925486207008361816e+00
3.922000000000000000e+03 6.750681304931640625e+01 4.007308006286621094e+00 -9.243156909942626953e-01 6.877556324005126953e+00 1.785972237586975098e+00 -1.702171444892883301e+00
3.923000000000000000e+03 6.323580932617187500e+01 -1.582016754150390625e+01 -8.753688633441925049e-02 3.677673578262329102e+00 1.077041029930114746e+00 1.899443387985229492e+00
3.924000000000000000e+03 7.029262542724609375e+01 -1.171870899200439453e+01 -1.395090460777282715e+00 1.152903747558593750e+01 3.040184020996093750e+00 3.440161347389221191e-01
3.925000000000000000e+03 7.087591552734375000e+01 -8.454115390777587891e-01 -1.292923092842102051e+00 1.129022884368896484e+01 2.999191761016845703e+00 1.024752780795097351e-01
3.926000000000000000e+03 7.018523406982421875e+01 -6.609163880348205566e-01 -1.513300180435180664e+00 1.112365055084228516e+01 2.883105039596557617e+00 -6.196166872978210449e-01
3.927000000000000000e+03 6.844036865234375000e+01 2.150363445281982422e+00 -1.249143362045288086e+00 8.088962554931640625e+00 2.051945686340332031e+00 -1.701155900955200195e+00
3.928000000000000000e+03 6.066979980468750000e+01 3.405269145965576172e+00 -2.152462117373943329e-02 2.276009559631347656e+00 6.763454675674438477e-01 -1.386612653732299805e+00
3.929000000000000000e+03 6.526516723632812500e+01 -2.135972785949707031e+01 -1.598003655672073364e-01 5.121283054351806641e+00 1.488444805145263672e+00 1.229672074317932129e+00
3.930000000000000000e+03 6.828211212158203125e+01 1.284615635871887207e+00 -1.297054171562194824e+00 8.416796684265136719e+00 2.135922908782958984e+00 -1.935230851173400879e+00
3.931000000000000000e+03 6.946012115478515625e+01 -1.427763843536376953e+01 -1.396082758903503418e+00 9.136651039123535156e+00 2.322170495986938477e+00 1.137843489646911621e+00
3.932000000000000000e+03 6.993750762939453125e+01 -1.490391445159912109e+01 -1.364222526550292969e+00 9.011636734008789062e+00 2.294224262237548828e+00 9.078930020332336426e-01
3.933000000000000000e+03 6.938706207275390625e+01 -1.485381507873535156e+01 -1.345755934715270996e+00 8.859251976013183594e+00 2.254048824310302734e+00 1.142319679260253906e+00
3.934000000000000000e+03 6.698756408691406250e+01 -1.628299713134765625e+01 -7.923699021339416504e-01 6.638914585113525391e+00 1.753963351249694824e+00 1.795333743095397949e+00
3.935000000000000000e+03 3.216051483154296875e+01 5.505934238433837891e+00 -4.833185970783233643e-01 -5.679520219564437866e-02 -1.620341390371322632e-01 7.410208582878112793e-01
3.936000000000000000e+03 3.239869689941406250e+01 3.753626823425292969e+00 -5.498287081718444824e-01 -4.819335043430328369e-02 -1.794066131114959717e-01 7.185313105583190918e-01
3.937000000000000000e+03 6.490691375732421875e+01 3.423272132873535156e+00 -4.634610116481781006e-01 5.025758266448974609e+00 1.368689179420471191e+00 -2.110743999481201172e+00
3.938000000000000000e+03 5.934857559204101562e+01 4.121944427490234375e+00 8.777758106589317322e-03 1.930502891540527344e+00 5.817841887474060059e-01 -1.132084131240844727e+00
3.939000000000000000e+03 3.465965652465820312e+01 4.903352260589599609e+00 -5.252430438995361328e-01 -9.006649488583207130e-04 -1.578430980443954468e-01 7.320224046707153320e-01
3.940000000000000000e+03 6.167591094970703125e+01 3.805397748947143555e+00 -4.104949533939361572e-02 2.902719736099243164e+00 8.585010766983032227e-01 -1.601889967918395996e+00
3.941000000000000000e+03 6.305582046508789062e+01 -1.875675773620605469e+01 -2.670484222471714020e-02 3.920533180236816406e+00 1.168148517608642578e+00 1.510190963745117188e+00
3.942000000000000000e+03 6.839899444580078125e+01 -1.719501686096191406e+01 -9.274962544441223145e-01 7.313176631927490234e+00 1.915704131126403809e+00 1.302485704421997070e+00
3.943000000000000000e+03 3.793601608276367188e+01 6.323387622833251953e+00 -4.376906752586364746e-01 7.025504112243652344e-02 -1.102306917309761047e-01 6.982710957527160645e-01
3.944000000000000000e+03 3.564859771728515625e+01 6.139925479888916016e+00 -4.541228115558624268e-01 2.916602604091167450e-02 -1.274870336055755615e-01 7.259181737899780273e-01
3.945000000000000000e+03 5.667275238037109375e+01 6.844942092895507812e+00 1.504466831684112549e-01 1.605901837348937988e+00 5.269045829772949219e-01 -6.959791779518127441e-01
3.946000000000000000e+03 6.592106628417968750e+01 -1.824629974365234375e+01 -4.723740220069885254e-01 5.670286178588867188e+00 1.559373617172241211e+00 1.598778724670410156e+00
3.947000000000000000e+03 5.274077606201171875e+01 8.201116561889648438e+00 1.439570933580398560e-01 1.045284986495971680e+00 3.567726016044616699e-01 -2.122998982667922974e-01
3.948000000000000000e+03 5.599526214599609375e+01 -1.819573211669921875e+01 1.615392118692398071e-01 1.179464340209960938e+00 4.023010730743408203e-01 4.889757335186004639e-01
3.949000000000000000e+03 3.144179916381835938e+01 3.458979606628417969e+00 -5.392320156097412109e-01 -6.940411031246185303e-02 -1.825908422470092773e-01 7.043225169181823730e-01
3.950000000000000000e+03 6.725659179687500000e+01 -1.818739509582519531e+01 -6.810135841369628906e-01 6.471991062164306641e+00 1.737293243408203125e+00 1.437714815139770508e+00
3.951000000000000000e+03 6.405229949951171875e+01 -1.601252555847167969e+01 -2.017895728349685669e-01 4.286977291107177734e+00 1.225556373596191406e+00 1.986284255981445312e+00
3.952000000000000000e+03 5.726290512084960938e+01 -2.064948463439941406e+01 3.597231805324554443e-01 1.836886048316955566e+00 6.589827537536621094e-01 7.021830677986145020e-01
3.953000000000000000e+03 5.842683410644531250e+01 -1.978797149658203125e+01 3.060148954391479492e-01 2.060607433319091797e+00 7.099867463111877441e-01 8.503205776214599609e-01
3.954000000000000000e+03 4.143799591064453125e+01 -2.111654472351074219e+01 4.718118160963058472e-02 7.304143905639648438e-02 3.606678545475006104e-02 -4.582809209823608398e-01
3.955000000000000000e+03 6.234924316406250000e+01 3.186915397644042969e+00 -9.701633453369140625e-02 3.210602998733520508e+00 9.340759515762329102e-01 -1.811195850372314453e+00
3.956000000000000000e+03 5.550309753417968750e+01 7.117249011993408203e+00 1.394915431737899780e-01 1.367143511772155762e+00 4.519905149936676025e-01 -5.279225111007690430e-01
3.957000000000000000e+03 5.320311737060546875e+01 7.061490058898925781e+00 6.279170513153076172e-02 9.875653982162475586e-01 3.151071369647979736e-01 -2.316737174987792969e-01
3.958000000000000000e+03 6.628046417236328125e+01 -2.060327339172363281e+01 -3.249159455299377441e-01 5.645222187042236328e+00 1.596091866493225098e+00 1.248467445373535156e+00
3.959000000000000000e+03 4.371751785278320312e+01 -1.996639442443847656e+01 -3.029616922140121460e-02 1.194709092378616333e-01 2.675242163240909576e-02 -4.231559634208679199e-01
3.960000000000000000e+03 4.267248535156250000e+01 5.058737277984619141e+00 -5.088054537773132324e-01 1.423041224479675293e-01 -1.099504083395004272e-01 6.013946533203125000e-01
3.961000000000000000e+03 3.905681610107421875e+01 6.038677215576171875e+00 -4.447150528430938721e-01 9.409906715154647827e-02 -1.051847934722900391e-01 6.805263757705688477e-01
3.962000000000000000e+03 5.654654312133789062e+01 -1.936267471313476562e+01 2.789700329303741455e-01 1.476531386375427246e+00 5.266504287719726562e-01 5.948213338851928711e-01
3.963000000000000000e+03 6.080496978759765625e+01 -1.860467338562011719e+01 1.677309721708297729e-01 2.813389062881469727e+00 8.943360447883605957e-01 1.261394858360290527e+00
3.964000000000000000e+03 6.009543609619140625e+01 -1.799628257751464844e+01 1.765086650848388672e-01 2.430803060531616211e+00 7.821934819221496582e-01 1.181696057319641113e+00
3.965000000000000000e+03 4.313760757446289062e+01 6.121964454650878906e+00 -3.718141019344329834e-01 1.953693777322769165e-01 -5.293341726064682007e-02 5.639623403549194336e-01
3.966000000000000000e+03 4.191221618652343750e+01 6.554591655731201172e+00 -3.548099696636199951e-01 1.764345318078994751e-01 -5.351263284683227539e-02 5.989987254142761230e-01
3.967000000000000000e+03 4.636983108520507812e+01 6.203221797943115234e+00 -2.951942086219787598e-01 3.146805167198181152e-01 5.845899228006601334e-03 4.121668636798858643e-01
3.968000000000000000e+03 6.396371841430664062e+01 3.100459814071655273e+00 -2.872563600540161133e-01 4.234309196472167969e+00 1.184115886688232422e+00 -2.082115411758422852e+00
3.969000000000000000e+03 6.598471832275390625e+01 7.300000667572021484e+00 -4.088568389415740967e-01 5.531416893005371094e+00 1.536767959594726562e+00 -1.426805496215820312e+00
3.970000000000000000e+03 6.099715423583984375e+01 -2.313531112670898438e+01 3.111855685710906982e-01 3.320871353149414062e+00 1.089617133140563965e+00 9.759801626205444336e-01
3.971000000000000000e+03 4.628622436523437500e+01 -1.922200012207031250e+01 -5.607607588171958923e-02 2.118470370769500732e-01 4.673128575086593628e-02 -3.443472385406494141e-01
3.972000000000000000e+03 3.095881843566894531e+01 1.295961570739746094e+01 -2.386683225631713867e-01 -8.732865750789642334e-02 -9.779909253120422363e-02 6.278806924819946289e-01
3.973000000000000000e+03 2.925267601013183594e+01 1.444591236114501953e+01 -2.315123230218887329e-01 -1.678286194801330566e-01 -1.198022812604904175e-01 5.791321396827697754e-01
3.974000000000000000e+03 6.614044952392578125e+01 5.345769882202148438e+00 -5.890148282051086426e-01 5.789811134338378906e+00 1.560238838195800781e+00 -1.683913469314575195e+00
3.975000000000000000e+03 4.066211700439453125e+01 6.944403171539306641e+00 -3.449823856353759766e-01 1.514164358377456665e-01 -5.806978419423103333e-02 6.313062906265258789e-01
3.976000000000000000e+03 6.570632171630859375e+01 4.699707984924316406e+00 -5.467109680175781250e-01 5.535231113433837891e+00 1.496556043624877930e+00 -1.840218305587768555e+00
3.977000000000000000e+03 5.201713562011718750e+01 -1.910021781921386719e+01 1.114203631877899170e-01 6.585593223571777344e-01 2.309938967227935791e-01 3.718343377113342285e-02
3.978000000000000000e+03 5.226470947265625000e+01 -2.060410690307617188e+01 2.949041128158569336e-01 8.416850566864013672e-01 3.409767448902130127e-01 1.168450191617012024e-01
3.979000000000000000e+03 3.034160614013671875e+01 1.088218784332275391e+01 -3.235812783241271973e-01 -1.151967048645019531e-01 -1.316334009170532227e-01 6.888800859451293945e-01
3.980000000000000000e+03 2.874612808227539062e+01 1.157180976867675781e+01 -3.481684327125549316e-01 -1.905809491872787476e-01 -1.616248190402984619e-01 6.714522838592529297e-01
3.981000000000000000e+03 4.950330352783203125e+01 -1.933052825927734375e+01 5.743751302361488342e-02 4.337054789066314697e-01 1.473428905010223389e-01 -1.538086235523223877e-01
3.982000000000000000e+03 3.096003341674804688e+01 6.521644592285156250e+00 -4.440278410911560059e-01 -9.789460152387619019e-02 -1.625767350196838379e-01 7.445327043533325195e-01
3.983000000000000000e+03 3.125673484802246094e+01 7.572908401489257812e+00 -4.136204421520233154e-01 -8.814376592636108398e-02 -1.505292505025863647e-01 7.420457005500793457e-01
3.984000000000000000e+03 4.769670104980468750e+01 -2.004972457885742188e+01 9.191326797008514404e-02 3.460381627082824707e-01 1.313854306936264038e-01 -2.436097860336303711e-01
3.985000000000000000e+03 3.847431182861328125e+01 -2.166681861877441406e+01 5.124337971210479736e-02 1.869443454779684544e-03 1.593384705483913422e-02 -4.958610236644744873e-01
3.986000000000000000e+03 3.593326187133789062e+01 -2.097245597839355469e+01 -5.328451097011566162e-02 -6.476097553968429565e-02 -3.541364520788192749e-02 -5.246577858924865723e-01
3.987000000000000000e+03 6.342786026000976562e+01 1.702364540100097656e+01 2.429032921791076660e-01 4.364759445190429688e+00 1.382298707962036133e+00 -8.202346563339233398e-01
3.988000000000000000e+03 6.430151367187500000e+01 1.382182693481445312e+01 7.772289961576461792e-02 4.613076686859130859e+00 1.407239913940429688e+00 -9.918738603591918945e-01
3.989000000000000000e+03 6.590792846679687500e+01 2.753845977783203125e+01 2.899286150932312012e-01 4.958476543426513672e+00 1.574521541595458984e+00 -4.892321825027465820e-01
3.990000000000000000e+03 6.533164978027343750e+01 2.422987174987792969e+01 2.832732498645782471e-01 4.876904964447021484e+00 1.548053503036499023e+00 -5.887541174888610840e-01
3.991000000000000000e+03 6.568491363525390625e+01 -1.969122695922851562e+01 -3.311564028263092041e-01 5.416245937347412109e+00 1.525526881217956543e+00 1.404436945915222168e+00
3.992000000000000000e+03 6.277177429199218750e+01 1.350325393676757812e+01 1.598393172025680542e-01 4.073597908020019531e+00 1.270031213760375977e+00 -9.913867712020874023e-01
3.993000000000000000e+03 2.132931709289550781e+01 -2.379167938232421875e+01 -2.284772321581840515e-02 -2.220114320516586304e-01 -7.345774769783020020e-02 -3.548183143138885498e-01
3.994000000000000000e+03 6.718201446533203125e+01 -1.094241237640380859e+01 -6.925821304321289062e-01 8.470456123352050781e+00 2.333362340927124023e+00 3.691446304321289062e+00
3.995000000000000000e+03 6.884440612792968750e+01 -1.172501564025878906e+01 -1.481104731559753418e+00 1.078438282012939453e+01 2.790983438491821289e+00 1.879207849502563477e+00
3.996000000000000000e+03 6.678800201416015625e+01 -9.492676854133605957e-01 -7.486018538475036621e-01 7.426141262054443359e+00 2.003261804580688477e+00 -3.352366924285888672e+00
3.997000000000000000e+03 6.870315551757812500e+01 -1.363697814941406250e+01 -1.370437145233154297e+00 9.070510864257812500e+00 2.310022115707397461e+00 1.687710881233215332e+00
3.998000000000000000e+03 6.642930603027343750e+01 -1.147220230102539062e+01 -4.377396106719970703e-01 6.758200168609619141e+00 1.896138072013854980e+00 3.508507251739501953e+00
3.999000000000000000e+03 6.555517578125000000e+01 -1.283449268341064453e+01 -3.651100397109985352e-01 5.449919700622558594e+00 1.525442838668823242e+00 2.885911464691162109e+00
4.000000000000000000e+03 6.944224548339843750e+01 -1.379828453063964844e+01 -1.447903633117675781e+00 9.495560646057128906e+00 2.414297103881835938e+00 1.213867664337158203e+00
4.001000000000000000e+03 6.729016113281250000e+01 -1.449373841285705566e+00 -9.174380898475646973e-01 8.615323066711425781e+00 2.309365272521972656e+00 -3.412412166595458984e+00
4.002000000000000000e+03 6.776606750488281250e+01 -1.130122661590576172e+01 -1.118043184280395508e+00 9.575055122375488281e+00 2.537103652954101562e+00 3.108607769012451172e+00
4.003000000000000000e+03 6.514095306396484375e+01 -1.290357971191406250e+01 -2.467847615480422974e-01 4.853765487670898438e+00 1.382094144821166992e+00 2.796418905258178711e+00
4.004000000000000000e+03 6.693387603759765625e+01 -1.221586036682128906e+01 -8.146851062774658203e-01 7.610234260559082031e+00 2.038664817810058594e+00 3.069667577743530273e+00
4.005000000000000000e+03 6.859423828125000000e+01 1.507994681596755981e-01 -1.458552598953247070e+00 9.454519271850585938e+00 2.398790121078491211e+00 -1.975977301597595215e+00
4.006000000000000000e+03 6.629183959960937500e+01 -4.039082825183868408e-01 -6.266144514083862305e-01 6.507139682769775391e+00 1.764157533645629883e+00 -3.162644624710083008e+00
4.007000000000000000e+03 6.555709075927734375e+01 -1.327444839477539062e+01 -4.211256206035614014e-01 5.493217945098876953e+00 1.521627783775329590e+00 2.755765438079833984e+00
4.008000000000000000e+03 7.022602081298828125e+01 -1.209698772430419922e+01 -1.462545514106750488e+00 1.116643047332763672e+01 2.911165475845336914e+00 5.140427350997924805e-01
4.009000000000000000e+03 6.995416259765625000e+01 -1.176172065734863281e+01 -1.527692079544067383e+00 1.149124622344970703e+01 2.989066362380981445e+00 7.923789620399475098e-01
4.010000000000000000e+03 6.908626556396484375e+01 4.162383675575256348e-01 -1.526890397071838379e+00 9.703302383422851562e+00 2.452923536300659180e+00 -1.572379112243652344e+00
4.011000000000000000e+03 6.410787963867187500e+01 -1.516914081573486328e+01 -1.999073922634124756e-01 4.212833881378173828e+00 1.203877925872802734e+00 2.153696537017822266e+00
4.012000000000000000e+03 6.806285858154296875e+01 2.661856889724731445e+00 -1.149384498596191406e+00 7.641241550445556641e+00 1.947557210922241211e+00 -1.782284498214721680e+00
4.013000000000000000e+03 6.871286773681640625e+01 1.553281068801879883e+00 -1.353910684585571289e+00 8.610630035400390625e+00 2.177015781402587891e+00 -1.628083825111389160e+00
4.014000000000000000e+03 6.980310821533203125e+01 -1.137675380706787109e+01 -1.473013520240783691e+00 1.186381435394287109e+01 3.117240428924560547e+00 8.251551985740661621e-01
4.015000000000000000e+03 6.763250732421875000e+01 2.291841506958007812e+00 -1.096686124801635742e+00 7.466867923736572266e+00 1.911054491996765137e+00 -1.968677759170532227e+00
4.016000000000000000e+03 6.988311767578125000e+01 -1.387430572509765625e+01 -1.465166091918945312e+00 9.655764579772949219e+00 2.457179546356201172e+00 9.196334481239318848e-01
4.017000000000000000e+03 6.888270568847656250e+01 -1.458064460754394531e+01 -1.307960152626037598e+00 8.656186103820800781e+00 2.204467773437500000e+00 1.443364381790161133e+00
4.018000000000000000e+03 6.537622833251953125e+01 9.372869729995727539e-01 -4.807606041431427002e-01 5.314383506774902344e+00 1.450086832046508789e+00 -2.684461355209350586e+00
4.019000000000000000e+03 6.969812011718750000e+01 -1.194250488281250000e+01 -1.522433400154113770e+00 1.118597412109375000e+01 2.899062395095825195e+00 1.015586614608764648e+00
4.020000000000000000e+03 6.269760894775390625e+01 3.803691625595092773e+00 -1.345825344324111938e-01 3.474852800369262695e+00 1.002081036567687988e+00 -1.808641672134399414e+00
4.021000000000000000e+03 6.889074707031250000e+01 9.483456015586853027e-01 -1.457265853881835938e+00 9.180902481079101562e+00 2.317090988159179688e+00 -1.635228276252746582e+00
4.022000000000000000e+03 6.822386932373046875e+01 -1.567345523834228516e+01 -1.102646589279174805e+00 7.728344917297363281e+00 1.987709522247314453e+00 1.596738934516906738e+00
4.023000000000000000e+03 6.436653900146484375e+01 2.065899372100830078e+00 -3.325217068195343018e-01 4.425558090209960938e+00 1.227910995483398438e+00 -2.315973520278930664e+00
4.024000000000000000e+03 6.208362960815429688e+01 -1.718770217895507812e+01 4.187399521470069885e-02 3.207177877426147461e+00 9.747155904769897461e-01 1.562971234321594238e+00
4.025000000000000000e+03 6.863285827636718750e+01 -1.521605682373046875e+01 -1.191786289215087891e+00 8.127709388732910156e+00 2.080776929855346680e+00 1.491345763206481934e+00
4.026000000000000000e+03 6.107983016967773438e+01 5.284972667694091797e+00 2.003470063209533691e-02 2.856977939605712891e+00 8.631038069725036621e-01 -1.410927891731262207e+00
4.027000000000000000e+03 6.226601028442382812e+01 -1.906824302673339844e+01 7.499568909406661987e-02 3.527324438095092773e+00 1.080695986747741699e+00 1.406345009803771973e+00
4.028000000000000000e+03 6.652631378173828125e+01 -1.899453353881835938e+01 -4.863427877426147461e-01 5.927017688751220703e+00 1.632202506065368652e+00 1.412768840789794922e+00
4.029000000000000000e+03 6.760353851318359375e+01 -1.727548027038574219e+01 -8.225430250167846680e-01 6.891562938690185547e+00 1.820706009864807129e+00 1.491119980812072754e+00
4.030000000000000000e+03 3.344554138183593750e+01 4.720939159393310547e+00 -5.270926952362060547e-01 -2.597508765757083893e-02 -1.659203320741653442e-01 7.338536381721496582e-01
4.031000000000000000e+03 6.655513000488281250e+01 -1.767872810363769531e+01 -6.129801273345947266e-01 6.096973419189453125e+00 1.645197987556457520e+00 1.631508588790893555e+00
4.032000000000000000e+03 3.334183120727539062e+01 5.669574737548828125e+00 -4.792281091213226318e-01 -2.536620758473873138e-02 -1.513783037662506104e-01 7.399993538856506348e-01
4.033000000000000000e+03 5.142684936523437500e+01 8.843147277832031250e+00 1.599492579698562622e-01 9.634820818901062012e-01 3.370293974876403809e-01 -9.550330787897109985e-02
4.034000000000000000e+03 4.714573287963867188e+01 8.785333633422851562e+00 1.057123532518744469e-03 5.361001491546630859e-01 1.611471772193908691e-01 2.744638919830322266e-01
4.035000000000000000e+03 5.941688537597656250e+01 1.122594547271728516e+01 2.632278203964233398e-01 2.931769609451293945e+00 9.584992527961730957e-01 -9.336993694305419922e-01
4.036000000000000000e+03 5.547193908691406250e+01 7.848377227783203125e+00 1.974167376756668091e-01 1.479096412658691406e+00 5.029539465904235840e-01 -5.400731563568115234e-01
4.037000000000000000e+03 5.814430999755859375e+01 6.362699031829833984e+00 1.252956390380859375e-01 1.942430615425109863e+00 6.203178763389587402e-01 -9.038852453231811523e-01
4.038000000000000000e+03 6.688713836669921875e+01 4.733525753021240234e+00 -7.528807520866394043e-01 6.324932098388671875e+00 1.671615481376647949e+00 -1.692682027816772461e+00
4.039000000000000000e+03 5.933237838745117188e+01 -1.885767745971679688e+01 2.350272238254547119e-01 2.288420200347900391e+00 7.570342421531677246e-01 1.007576942443847656e+00
4.040000000000000000e+03 5.582205581665039062e+01 -2.134007072448730469e+01 4.085089564323425293e-01 1.578045725822448730e+00 5.959663987159729004e-01 5.176678299903869629e-01
4.041000000000000000e+03 3.212263107299804688e+01 6.491246223449707031e+00 -4.441233575344085693e-01 -5.489381402730941772e-02 -1.497051417827606201e-01 7.435271143913269043e-01
4.042000000000000000e+03 3.134391784667968750e+01 9.136307716369628906e+00 -3.599435687065124512e-01 -7.326705753803253174e-02 -1.299631893634796143e-01 7.229416966438293457e-01
4.043000000000000000e+03 6.152238082885742188e+01 -1.902956771850585938e+01 1.404541730880737305e-01 3.169437408447265625e+00 9.929674267768859863e-01 1.328198671340942383e+00
4.044000000000000000e+03 5.468127441406250000e+01 7.066125869750976562e+00 1.128900423645973206e-01 1.229708671569824219e+00 4.027796387672424316e-01 -4.195981919765472412e-01
4.045000000000000000e+03 5.379775619506835938e+01 -2.032301521301269531e+01 3.021750748157501221e-01 1.045632004737854004e+00 4.043421447277069092e-01 2.666978240013122559e-01
4.046000000000000000e+03 5.089022445678710938e+01 8.111547470092773438e+00 7.259808480739593506e-02 8.133786916732788086e-01 2.657930254936218262e-01 -1.606615446507930756e-02
4.047000000000000000e+03 5.042601013183593750e+01 7.300603389739990234e+00 -9.705341421067714691e-03 6.997928023338317871e-01 2.070262432098388672e-01 5.371657386422157288e-02
4.048000000000000000e+03 6.562003326416015625e+01 6.578839302062988281e+00 -4.186850786209106445e-01 5.323101520538330078e+00 1.471325039863586426e+00 -1.563856482505798340e+00
4.049000000000000000e+03 5.946996688842773438e+01 -2.087858390808105469e+01 3.192810714244842529e-01 2.594342231750488281e+00 8.740869760513305664e-01 9.582509398460388184e-01
4.050000000000000000e+03 6.384121322631835938e+01 5.140044689178466797e+00 -2.373436093330383301e-01 4.370865345001220703e+00 1.240056514739990234e+00 -1.749703288078308105e+00
4.051000000000000000e+03 6.220854568481445312e+01 4.365782260894775391e+00 -7.642237097024917603e-02 3.296595096588134766e+00 9.660518169403076172e-01 -1.654139995574951172e+00
4.052000000000000000e+03 4.318424987792968750e+01 -2.309835433959960938e+01 2.756460607051849365e-01 2.050864398479461670e-01 1.442197561264038086e-01 -3.634432256221771240e-01
4.053000000000000000e+03 4.541425323486328125e+01 -2.066197776794433594e+01 8.821118623018264771e-02 2.423714846372604370e-01 9.917480498552322388e-02 -3.435663580894470215e-01
4.054000000000000000e+03 6.328816986083984375e+01 -2.412678718566894531e+01 1.721542030572891235e-01 4.242926120758056641e+00 1.324524164199829102e+00 1.006793737411499023e+00
4.055000000000000000e+03 6.409138488769531250e+01 -2.204826736450195312e+01 6.793166045099496841e-03 4.570910453796386719e+00 1.373311161994934082e+00 1.186671495437622070e+00
4.056000000000000000e+03 3.435035705566406250e+01 -2.150152397155761719e+01 -3.022151254117488861e-02 -8.662333339452743530e-02 -3.505345433950424194e-02 -5.156988501548767090e-01
4.057000000000000000e+03 3.134207916259765625e+01 -1.859761047363281250e+01 -2.699219584465026855e-01 -9.197621792554855347e-02 -1.085694506764411926e-01 -5.197419524192810059e-01
4.058000000000000000e+03 3.975127410888671875e+01 -2.030699729919433594e+01 -6.045166403055191040e-02 2.086158096790313721e-02 -1.187702454626560211e-02 -5.009458661079406738e-01
4.059000000000000000e+03 6.330842590332031250e+01 1.189299392700195312e+01 7.310020178556442261e-02 4.246989727020263672e+00 1.296026945114135742e+00 -1.110240459442138672e+00
4.060000000000000000e+03 6.212311172485351562e+01 1.152590751647949219e+01 1.388623267412185669e-01 3.816023588180541992e+00 1.186465740203857422e+00 -1.088730573654174805e+00
4.061000000000000000e+03 4.919125366210937500e+01 -2.056580543518066406e+01 1.855900883674621582e-01 4.786443710327148438e-01 1.992703378200531006e-01 -1.438291817903518677e-01
4.062000000000000000e+03 5.072636413574218750e+01 -2.072748565673828125e+01 2.554841041564941406e-01 6.548320055007934570e-01 2.730948328971862793e-01 -1.375618111342191696e-02
4.063000000000000000e+03 6.366228866577148438e+01 -2.086338424682617188e+01 -1.597301289439201355e-02 4.371477603912353516e+00 1.306651353836059570e+00 1.302795290946960449e+00
4.064000000000000000e+03 3.223263931274414062e+01 1.353313350677490234e+01 -1.725647747516632080e-01 -2.513066120445728302e-02 -5.930863320827484131e-02 6.082187294960021973e-01
4.065000000000000000e+03 6.258164215087890625e+01 -2.673788070678710938e+01 3.259560465812683105e-01 4.058049201965332031e+00 1.315201520919799805e+00 8.136855363845825195e-01
4.066000000000000000e+03 4.498730087280273438e+01 6.658609867095947266e+00 -2.825541794300079346e-01 2.803519070148468018e-01 -6.606871029362082481e-04 4.717558026313781738e-01
4.067000000000000000e+03 4.472169113159179688e+01 9.862437248229980469e+00 -1.100375957321375608e-04 4.349209964275360107e-01 1.304432898759841919e-01 3.850241005420684814e-01
4.068000000000000000e+03 5.247201538085937500e+01 -2.217705535888671875e+01 4.287833571434020996e-01 1.018769502639770508e+00 4.342658519744873047e-01 1.755883842706680298e-01
4.069000000000000000e+03 5.067892074584960938e+01 -1.934680175781250000e+01 9.663175791501998901e-02 5.268677473068237305e-01 1.870498508214950562e-01 -6.372038275003433228e-02
4.070000000000000000e+03 4.768533706665039062e+01 5.995364189147949219e+00 -2.762479484081268311e-01 3.737315237522125244e-01 2.924507111310958862e-02 3.340254426002502441e-01
4.071000000000000000e+03 3.412330627441406250e+01 7.853387832641601562e+00 -3.776110708713531494e-01 2.698719967156648636e-03 -1.124737039208412170e-01 7.273421287536621094e-01
4.072000000000000000e+03 2.917038726806640625e+01 1.053339385986328125e+01 -3.653519153594970703e-01 -1.707484871149063110e-01 -1.608301252126693726e-01 6.964393258094787598e-01
4.073000000000000000e+03 6.175249862670898438e+01 1.730376243591308594e+01 3.193156123161315918e-01 3.909285545349121094e+00 1.268580317497253418e+00 -7.885237336158752441e-01
4.074000000000000000e+03 6.419564056396484375e+01 9.107306480407714844e+00 -1.159183755517005920e-01 4.590606212615966797e+00 1.342406272888183594e+00 -1.336463928222656250e+00
4.075000000000000000e+03 6.112138366699218750e+01 6.274426460266113281e+00 4.908724874258041382e-02 3.023410558700561523e+00 9.217493534088134766e-01 -1.380193591117858887e+00
4.076000000000000000e+03 6.198114776611328125e+01 -1.837359619140625000e+01 7.339432090520858765e-02 3.310268402099609375e+00 1.015098810195922852e+00 1.445135712623596191e+00
4.077000000000000000e+03 5.920685958862304688e+01 1.947704315185546875e+01 4.402936398983001709e-01 3.313299894332885742e+00 1.126078009605407715e+00 -6.379004120826721191e-01
4.078000000000000000e+03 3.940650939941406250e+01 7.295009613037109375e+00 -3.384611308574676514e-01 1.294646263122558594e-01 -6.269895285367965698e-02 6.541017293930053711e-01
4.079000000000000000e+03 3.976792907714843750e+01 8.650749206542968750e+00 -2.320256829261779785e-01 1.707269996404647827e-01 -1.838960312306880951e-02 6.200527548789978027e-01
4.080000000000000000e+03 3.095912742614746094e+01 -2.148500633239746094e+01 -6.327016651630401611e-02 -1.142730414867401123e-01 -5.326296389102935791e-02 -5.070211291313171387e-01
4.081000000000000000e+03 4.706282424926757812e+01 -2.153513526916503906e+01 2.248655259609222412e-01 3.717282116413116455e-01 1.789781153202056885e-01 -2.408938109874725342e-01
4.082000000000000000e+03 1.816923332214355469e+01 -2.496128845214843750e+01 9.299198165535926819e-03 -2.797748744487762451e-01 -8.114270865917205811e-02 -2.995262145996093750e-01
4.083000000000000000e+03 6.670603179931640625e+01 -1.182827186584472656e+01 -6.355338692665100098e-01 7.245204925537109375e+00 1.982901215553283691e+00 3.330746889114379883e+00
4.084000000000000000e+03 6.737449645996093750e+01 -1.142266845703125000e+01 -9.259083867073059082e-01 8.651851654052734375e+00 2.317782878875732422e+00 3.306623458862304688e+00
4.085000000000000000e+03 6.938701629638671875e+01 -1.169561576843261719e+01 -1.522235751152038574e+00 1.122528457641601562e+01 2.910914659500122070e+00 1.316925168037414551e+00
4.086000000000000000e+03 6.813967895507812500e+01 -1.111529254913330078e+01 -1.250261902809143066e+00 1.039007282257080078e+01 2.741943359375000000e+00 2.915908098220825195e+00
4.087000000000000000e+03 6.866385650634765625e+01 -1.222231006622314453e+01 -1.464326977729797363e+00 1.010304641723632812e+01 2.591615915298461914e+00 1.998457193374633789e+00
4.088000000000000000e+03 6.581838226318359375e+01 2.180372476577758789e-01 -5.435376167297363281e-01 5.818833351135253906e+00 1.582588672637939453e+00 -2.931573390960693359e+00
4.089000000000000000e+03 6.596723175048828125e+01 -1.233629131317138672e+01 -4.127665460109710693e-01 5.933309078216552734e+00 1.656162858009338379e+00 3.138128757476806641e+00
4.090000000000000000e+03 6.928026580810546875e+01 -7.949446141719818115e-02 -1.547989845275878906e+00 1.015437698364257812e+01 2.581916093826293945e+00 -1.456238031387329102e+00
4.091000000000000000e+03 6.825979614257812500e+01 -1.194096946716308594e+01 -1.345701694488525391e+00 9.845398902893066406e+00 2.549909114837646484e+00 2.454791307449340820e+00
4.092000000000000000e+03 6.921001434326171875e+01 -1.204251861572265625e+01 -1.504138350486755371e+00 1.072469997406005859e+01 2.766168355941772461e+00 1.470431566238403320e+00
4.093000000000000000e+03 6.753005981445312500e+01 -1.188430786132812500e+01 -1.031140446662902832e+00 8.737420082092285156e+00 2.311883926391601562e+00 3.049222469329833984e+00
4.094000000000000000e+03 6.632619476318359375e+01 -1.243869876861572266e+01 -5.784910917282104492e-01 6.575643062591552734e+00 1.799145579338073730e+00 3.095170021057128906e+00
4.095000000000000000e+03 6.845196533203125000e+01 -1.144866275787353516e+01 -1.408219695091247559e+00 1.068425273895263672e+01 2.782809734344482422e+00 2.399051666259765625e+00
4.096000000000000000e+03 6.475072479248046875e+01 -1.399898719787597656e+01 -2.512951493263244629e-01 4.638265132904052734e+00 1.316091060638427734e+00 2.472817420959472656e+00
4.097000000000000000e+03 6.490523529052734375e+01 -1.360175323486328125e+01 -2.638981044292449951e-01 4.750105381011962891e+00 1.345862269401550293e+00 2.603819370269775391e+00
4.098000000000000000e+03 6.521699523925781250e+01 -1.334101104736328125e+01 -3.098033666610717773e-01 4.994608879089355469e+00 1.405441641807556152e+00 2.690517187118530273e+00
4.099000000000000000e+03 6.472815704345703125e+01 -1.451940631866455078e+01 -2.852374017238616943e-01 4.682258129119873047e+00 1.319106221199035645e+00 2.360620975494384766e+00
4.100000000000000000e+03 6.619313049316406250e+01 1.781047105789184570e+00 -7.395595908164978027e-01 6.200958251953125000e+00 1.638419508934020996e+00 -2.433519363403320312e+00
4.101000000000000000e+03 6.791117858886718750e+01 1.059979081153869629e+00 -1.249410271644592285e+00 8.241679191589355469e+00 2.097680807113647461e+00 -2.162482738494873047e+00
4.102000000000000000e+03 7.002925109863281250e+01 -1.339437198638916016e+01 -1.478739857673645020e+00 1.004546833038330078e+01 2.570018529891967773e+00 7.917643785476684570e-01
4.103000000000000000e+03 6.845558929443359375e+01 7.320284843444824219e-01 -1.385200738906860352e+00 8.909089088439941406e+00 2.257166624069213867e+00 -1.934346318244934082e+00
4.104000000000000000e+03 6.496784210205078125e+01 1.774592757225036621e+00 -4.383575320243835449e-01 4.952038288116455078e+00 1.354104161262512207e+00 -2.446349143981933594e+00
4.105000000000000000e+03 6.726725006103515625e+01 2.890722990036010742e+00 -9.543727040290832520e-01 6.942393302917480469e+00 1.796406149864196777e+00 -1.950872421264648438e+00
4.106000000000000000e+03 6.785214233398437500e+01 -1.521411705017089844e+01 -1.071031689643859863e+00 7.631265640258789062e+00 1.968070149421691895e+00 1.827499032020568848e+00
4.107000000000000000e+03 6.331505203247070312e+01 3.451076984405517578e+00 -1.956898570060729980e-01 3.825834035873413086e+00 1.089043259620666504e+00 -1.934717893600463867e+00
4.108000000000000000e+03 6.460084533691406250e+01 2.743800878524780273e+00 -3.978369534015655518e-01 4.709784507751464844e+00 1.293584227561950684e+00 -2.210221052169799805e+00
4.109000000000000000e+03 6.264703750610351562e+01 -1.789330101013183594e+01 5.655005574226379395e-03 3.585893392562866211e+00 1.077464580535888672e+00 1.571215987205505371e+00
4.110000000000000000e+03 6.766239166259765625e+01 -1.642326164245605469e+01 -9.260942339897155762e-01 7.133600711822509766e+00 1.862251877784729004e+00 1.637944459915161133e+00
4.111000000000000000e+03 6.771524047851562500e+01 -1.574936866760253906e+01 -9.874426126480102539e-01 7.275762557983398438e+00 1.886496067047119141e+00 1.756168127059936523e+00
4.112000000000000000e+03 6.614540100097656250e+01 -1.706813812255859375e+01 -5.826691985130310059e-01 5.902902126312255859e+00 1.596069931983947754e+00 1.791732430458068848e+00
4.113000000000000000e+03 6.635174560546875000e+01 4.147482872009277344e+00 -7.075634002685546875e-01 6.062911033630371094e+00 1.606604337692260742e+00 -1.882039189338684082e+00
4.114000000000000000e+03 6.639148712158203125e+01 3.089692831039428711e+00 -7.683455348014831543e-01 6.224182128906250000e+00 1.636750936508178711e+00 -2.092764377593994141e+00
4.115000000000000000e+03 6.543605041503906250e+01 -1.746881484985351562e+01 -4.316886067390441895e-01 5.353223800659179688e+00 1.476460576057434082e+00 1.784382939338684082e+00
4.116000000000000000e+03 3.450068664550781250e+01 5.878484725952148438e+00 -4.710055291652679443e-01 -1.966821873793378472e-04 -1.413606703281402588e-01 7.356834411621093750e-01
4.117000000000000000e+03 5.944312667846679688e+01 5.511494636535644531e+00 6.271856278181076050e-02 2.185042858123779297e+00 6.743284463882446289e-01 -1.128989338874816895e+00
4.118000000000000000e+03 3.433503723144531250e+01 6.852305412292480469e+00 -4.241914749145507812e-01 3.290226450189948082e-03 -1.262703686952590942e-01 7.340297102928161621e-01
4.119000000000000000e+03 3.675651550292968750e+01 7.467986583709716797e+00 -3.657315969467163086e-01 6.712780147790908813e-02 -8.958113938570022583e-02 7.018317580223083496e-01
4.120000000000000000e+03 5.612547683715820312e+01 7.534784793853759766e+00 1.865637749433517456e-01 1.570766091346740723e+00 5.271989703178405762e-01 -6.265079975128173828e-01
4.121000000000000000e+03 5.459712219238281250e+01 8.845293045043945312e+00 2.276779562234878540e-01 1.452171206474304199e+00 5.039547681808471680e-01 -4.632365703582763672e-01
4.122000000000000000e+03 6.019905090332031250e+01 -1.960527038574218750e+01 2.328615933656692505e-01 2.717070579528808594e+00 8.849796652793884277e-01 1.130665063858032227e+00
4.123000000000000000e+03 6.231571960449218750e+01 -2.004992866516113281e+01 8.978586643934249878e-02 3.647948265075683594e+00 1.121320247650146484e+00 1.311715841293334961e+00
4.124000000000000000e+03 6.084284591674804688e+01 4.287503242492675781e+00 -1.839335076510906219e-03 2.542912960052490234e+00 7.623221278190612793e-01 -1.403028368949890137e+00
4.125000000000000000e+03 6.385947036743164062e+01 -1.833869361877441406e+01 -1.441583037376403809e-01 4.383691787719726562e+00 1.271860003471374512e+00 1.615860700607299805e+00
4.126000000000000000e+03 4.885107803344726562e+01 5.799324035644531250e+00 -2.568363845348358154e-01 4.235178530216217041e-01 5.000443756580352783e-02 2.564595043659210205e-01
4.127000000000000000e+03 6.527742767333984375e+01 5.879618644714355469e+00 -4.145833849906921387e-01 5.191757678985595703e+00 1.433152318000793457e+00 -1.672069907188415527e+00
4.128000000000000000e+03 5.562117767333984375e+01 8.781260490417480469e+00 2.409683018922805786e-01 1.627152919769287109e+00 5.604363679885864258e-01 -5.674723982810974121e-01
4.129000000000000000e+03 5.648964691162109375e+01 -2.292031288146972656e+01 4.920397698879241943e-01 1.922628164291381836e+00 7.244003415107727051e-01 5.712297558784484863e-01
4.130000000000000000e+03 5.821576309204101562e+01 -2.208166885375976562e+01 4.095434546470642090e-01 2.316767454147338867e+00 8.178932666778564453e-01 7.886182665824890137e-01
4.131000000000000000e+03 5.401460266113281250e+01 7.563943862915039062e+00 1.373320519924163818e-01 1.167654037475585938e+00 3.914958238601684570e-01 -3.600536584854125977e-01
4.132000000000000000e+03 6.549417877197265625e+01 3.004709959030151367e+00 -5.731502771377563477e-01 5.471076488494873047e+00 1.469377756118774414e+00 -2.198558092117309570e+00
4.133000000000000000e+03 6.239995956420898438e+01 -2.126953506469726562e+01 1.292393058538436890e-01 3.809794187545776367e+00 1.181710004806518555e+00 1.203762054443359375e+00
4.134000000000000000e+03 6.121687316894531250e+01 -2.003904914855957031e+01 1.855731159448623657e-01 3.129368782043457031e+00 9.944825768470764160e-01 1.219427704811096191e+00
4.135000000000000000e+03 6.440821838378906250e+01 5.882841587066650391e+00 -2.869497537612915039e-01 4.720709800720214844e+00 1.330127954483032227e+00 -1.686292529106140137e+00
4.136000000000000000e+03 6.528037261962890625e+01 4.074940204620361328e+00 -5.029022097587585449e-01 5.285574913024902344e+00 1.434801816940307617e+00 -1.996703624725341797e+00
4.137000000000000000e+03 5.063190078735351562e+01 -2.406475448608398438e+01 5.307717323303222656e-01 9.046218395233154297e-01 4.306180775165557861e-01 5.839119851589202881e-02
4.138000000000000000e+03 5.465166473388671875e+01 -2.351799011230468750e+01 5.320894718170166016e-01 1.542786717414855957e+00 6.224628686904907227e-01 3.912572562694549561e-01
4.139000000000000000e+03 5.514566040039062500e+01 -2.539255523681640625e+01 6.133477687835693359e-01 1.816908359527587891e+00 7.290768623352050781e-01 4.156420528888702393e-01
4.140000000000000000e+03 3.840592193603515625e+01 8.974538803100585938e+00 -2.394582182168960571e-01 1.377636641263961792e-01 -3.050836548209190369e-02 6.469690203666687012e-01
4.141000000000000000e+03 4.791898345947265625e+01 7.163978099822998047e+00 -1.323460191488265991e-01 4.621825516223907471e-01 9.895095974206924438e-02 2.753907442092895508e-01
4.142000000000000000e+03 6.514290618896484375e+01 -1.880156135559082031e+01 -3.028082549571990967e-01 5.145380973815917969e+00 1.452771902084350586e+00 1.555995821952819824e+00
4.143000000000000000e+03 5.997136688232421875e+01 4.723786354064941406e+00 2.984727919101715088e-02 2.255406618118286133e+00 6.855762004852294922e-01 -1.226951837539672852e+00
4.144000000000000000e+03 4.108720397949218750e+01 8.259971618652343750e+00 -2.277905941009521484e-01 2.063076645135879517e-01 -6.444875616580247879e-03 5.881519317626953125e-01
4.145000000000000000e+03 4.462084579467773438e+01 -2.232835006713867188e+01 2.403864562511444092e-01 2.563399374485015869e-01 1.490179151296615601e-01 -3.349880874156951904e-01
4.146000000000000000e+03 4.671818542480468750e+01 7.514876365661621094e+00 -1.347916424274444580e-01 4.220766127109527588e-01 8.618549257516860962e-02 3.441690206527709961e-01
4.147000000000000000e+03 4.343041229248046875e+01 1.050826930999755859e+01 5.374720320105552673e-03 3.938256204128265381e-01 1.197601035237312317e-01 4.331621229648590088e-01
4.148000000000000000e+03 6.334991836547851562e+01 -1.976035881042480469e+01 -3.009277209639549255e-02 4.177744865417480469e+00 1.244295597076416016e+00 1.407712697982788086e+00
4.149000000000000000e+03 3.139111518859863281e+01 1.637580680847167969e+01 -6.833166629076004028e-02 -5.253897234797477722e-02 -3.626119345426559448e-02 5.108880400657653809e-01
4.150000000000000000e+03 3.049696922302246094e+01 1.454545307159423828e+01 -1.915467828512191772e-01 -1.119741871953010559e-01 -9.105629473924636841e-02 5.822163224220275879e-01
4.151000000000000000e+03 3.214256668090820312e+01 7.425644874572753906e+00 -4.155906140804290771e-01 -5.290195345878601074e-02 -1.405477672815322876e-01 7.389590740203857422e-01
4.152000000000000000e+03 3.309355163574218750e+01 7.616006374359130859e+00 -3.989031016826629639e-01 -2.767229825258255005e-02 -1.279726177453994751e-01 7.341091632843017578e-01
4.153000000000000000e+03 3.931540298461914062e+01 1.220151615142822266e+01 -1.612852700054645538e-02 2.542369067668914795e-01 7.143250852823257446e-02 5.330148935317993164e-01
4.154000000000000000e+03 3.810345077514648438e+01 7.556938171386718750e+00 -3.410975635051727295e-01 1.001101508736610413e-01 -7.229622453451156616e-02 6.782832145690917969e-01
4.155000000000000000e+03 6.376088714599609375e+01 -2.861358642578125000e+01 3.227884769439697266e-01 4.458693981170654297e+00 1.434444785118103027e+00 7.209480404853820801e-01
4.156000000000000000e+03 3.268870925903320312e+01 -2.365721130371093750e+01 1.059346646070480347e-01 -1.082860603928565979e-01 -7.054182933643460274e-04 -4.851260483264923096e-01
4.157000000000000000e+03 5.067612457275390625e+01 -2.228545570373535156e+01 3.990039527416229248e-01 7.794221639633178711e-01 3.535278439521789551e-01 2.519223280251026154e-02
4.158000000000000000e+03 4.366691207885742188e+01 7.288563728332519531e+00 -2.522242069244384766e-01 2.565212249755859375e-01 1.289112144149839878e-03 5.194731354713439941e-01
4.159000000000000000e+03 4.417871475219726562e+01 8.554718017578125000e+00 -1.164167001843452454e-01 3.343365788459777832e-01 6.537596136331558228e-02 4.575414359569549561e-01
4.160000000000000000e+03 5.364003753662109375e+01 8.594032287597656250e+00 1.976673305034637451e-01 1.235851526260375977e+00 4.300556480884552002e-01 -3.325268626213073730e-01
4.161000000000000000e+03 3.264120483398437500e+01 -2.168303108215332031e+01 -4.101021960377693176e-02 -1.056358739733695984e-01 -4.399382695555686951e-02 -5.109530091285705566e-01
4.162000000000000000e+03 5.826162338256835938e+01 1.218086719512939453e+01 3.246266841888427734e-01 2.637140750885009766e+00 8.885302543640136719e-01 -8.193013668060302734e-01
4.163000000000000000e+03 6.110966491699218750e+01 1.109658241271972656e+01 1.771604567766189575e-01 3.500872611999511719e+00 1.103409886360168457e+00 -1.083237409591674805e+00
4.164000000000000000e+03 5.587166213989257812e+01 1.701428794860839844e+01 4.753194451332092285e-01 2.453897237777709961e+00 8.787650465965270996e-01 -5.471802353858947754e-01
4.165000000000000000e+03 5.980368804931640625e+01 1.713687324523925781e+01 3.858282268047332764e-01 3.371752500534057617e+00 1.127274155616760254e+00 -7.436431050300598145e-01
4.166000000000000000e+03 3.677424621582031250e+01 -2.275685882568359375e+01 1.072601601481437683e-01 -4.007327184081077576e-02 2.015606686472892761e-02 -4.909407794475555420e-01
4.167000000000000000e+03 2.676944732666015625e+01 2.581164741516113281e+01 2.734778523445129395e-01 -3.424775302410125732e-01 -2.069990336894989014e-02 2.418985366821289062e-01
4.168000000000000000e+03 6.801934051513671875e+01 -4.850817918777465820e-01 -1.332785844802856445e+00 9.295153617858886719e+00 2.388710498809814453e+00 -2.534286499023437500e+00
4.169000000000000000e+03 6.727283477783203125e+01 -9.524139165878295898e-01 -9.799913763999938965e-01 8.349438667297363281e+00 2.210834026336669922e+00 -3.177650451660156250e+00
4.170000000000000000e+03 6.722186279296875000e+01 -4.676719903945922852e-01 -1.010400772094726562e+00 8.015421867370605469e+00 2.101506471633911133e+00 -2.967669248580932617e+00
4.171000000000000000e+03 6.677099609375000000e+01 -4.560081958770751953e-01 -8.179262876510620117e-01 7.301430702209472656e+00 1.945051312446594238e+00 -3.122639894485473633e+00
4.172000000000000000e+03 6.593527221679687500e+01 -1.284222602844238281e+01 -4.843192398548126221e-01 5.924103736877441406e+00 1.631935358047485352e+00 2.926179647445678711e+00
4.173000000000000000e+03 6.721712493896484375e+01 -1.202587890625000000e+01 -9.389334321022033691e-01 8.212488174438476562e+00 2.182066440582275391e+00 3.077725410461425781e+00
4.174000000000000000e+03 6.786903381347656250e+01 -1.179904365539550781e+01 -1.186397433280944824e+00 9.437366485595703125e+00 2.475290536880493164e+00 2.811775207519531250e+00
4.175000000000000000e+03 6.879244232177734375e+01 -3.918414711952209473e-01 -1.513769030570983887e+00 1.006008720397949219e+01 2.563895463943481445e+00 -1.916960239410400391e+00
4.176000000000000000e+03 6.631460571289062500e+01 -1.288018131256103516e+01 -6.217282414436340332e-01 6.470872879028320312e+00 1.754743456840515137e+00 2.949131727218627930e+00
4.177000000000000000e+03 6.668856048583984375e+01 -1.339884376525878906e+01 -8.253281712532043457e-01 6.989262580871582031e+00 1.849180340766906738e+00 2.668997049331665039e+00
4.178000000000000000e+03 6.755536651611328125e+01 9.923881292343139648e-01 -1.143099188804626465e+00 7.839513778686523438e+00 2.008924245834350586e+00 -2.336478233337402344e+00
4.179000000000000000e+03 6.766725158691406250e+01 1.432553410530090332e+00 -1.164200425148010254e+00 7.813257217407226562e+00 1.994717001914978027e+00 -2.177954435348510742e+00
4.180000000000000000e+03 6.721585083007812500e+01 6.417337805032730103e-03 -1.031928181648254395e+00 7.798634529113769531e+00 2.030011892318725586e+00 -2.795424222946166992e+00
4.181000000000000000e+03 6.514347076416015625e+01 -1.394290637969970703e+01 -3.547927737236022949e-01 5.115276336669921875e+00 1.428145051002502441e+00 2.541315555572509766e+00
4.182000000000000000e+03 6.727642059326171875e+01 1.792130351066589355e+00 -1.036223888397216797e+00 7.286511898040771484e+00 1.875086426734924316e+00 -2.210554361343383789e+00
4.183000000000000000e+03 6.801191711425781250e+01 1.793336510658264160e+00 -1.224508285522460938e+00 7.961426734924316406e+00 2.021075487136840820e+00 -1.975133895874023438e+00
4.184000000000000000e+03 6.551448822021484375e+01 1.506898641586303711e+00 -5.532341599464416504e-01 5.496904373168945312e+00 1.483101129531860352e+00 -2.545247554779052734e+00
4.185000000000000000e+03 6.893473815917968750e+01 -1.305860710144042969e+01 -1.464243769645690918e+00 9.658233642578125000e+00 2.458196878433227539e+00 1.633475065231323242e+00
4.186000000000000000e+03 6.957153320312500000e+01 -1.225411224365234375e+01 -1.501860141754150391e+00 1.073660182952880859e+01 2.770422458648681641e+00 1.155094861984252930e+00
4.187000000000000000e+03 6.814311218261718750e+01 -1.471664142608642578e+01 -1.173453927040100098e+00 8.013442993164062500e+00 2.051996707916259766e+00 1.842099308967590332e+00
4.188000000000000000e+03 6.518959808349609375e+01 2.396412134170532227e+00 -5.142082571983337402e-01 5.212864875793457031e+00 1.409596920013427734e+00 -2.325757980346679688e+00
4.189000000000000000e+03 6.339366531372070312e+01 -1.736973190307617188e+01 -9.982793033123016357e-02 3.989732742309570312e+00 1.166971445083618164e+00 1.715922236442565918e+00
4.190000000000000000e+03 6.356861877441406250e+01 4.232142925262451172e+00 -2.316121757030487061e-01 4.093549728393554688e+00 1.158581256866455078e+00 -1.864326953887939453e+00
4.191000000000000000e+03 6.683867645263671875e+01 -1.701546859741210938e+01 -7.010139226913452148e-01 6.366641521453857422e+00 1.699688315391540527e+00 1.708624958992004395e+00
4.192000000000000000e+03 6.721245574951171875e+01 -1.562182617187500000e+01 -9.065705537796020508e-01 6.996700763702392578e+00 1.827039003372192383e+00 1.906250953674316406e+00
4.193000000000000000e+03 6.525074005126953125e+01 -1.444177246093750000e+01 -4.140231311321258545e-01 5.234332561492919922e+00 1.446092844009399414e+00 2.418017387390136719e+00
4.194000000000000000e+03 6.423250579833984375e+01 -1.695766830444335938e+01 -2.281630486249923706e-01 4.496938228607177734e+00 1.280632495880126953e+00 1.852281928062438965e+00
4.195000000000000000e+03 5.921591567993164062e+01 6.666645050048828125e+00 1.388492137193679810e-01 2.317857980728149414e+00 7.370121479034423828e-01 -1.073861479759216309e+00
4.196000000000000000e+03 6.317734527587890625e+01 8.524664878845214844e+00 -5.171174556016921997e-02 4.130618095397949219e+00 1.223671913146972656e+00 -1.356393694877624512e+00
4.197000000000000000e+03 6.296047973632812500e+01 5.420486450195312500e+00 -1.275702565908432007e-01 3.904774665832519531e+00 1.133161306381225586e+00 -1.663926482200622559e+00
4.198000000000000000e+03 4.877768707275390625e+01 9.695765495300292969e+00 1.313062906265258789e-01 7.306440472602844238e-01 2.585850954055786133e-01 1.209716573357582092e-01
4.199000000000000000e+03 6.473618316650390625e+01 -2.032295608520507812e+01 -1.616564691066741943e-01 4.892015457153320312e+00 1.419107675552368164e+00 1.363140463829040527e+00
4.200000000000000000e+03 6.466118621826171875e+01 -1.789737510681152344e+01 -2.787988185882568359e-01 4.842251777648925781e+00 1.369035840034484863e+00 1.695478081703186035e+00
4.201000000000000000e+03 3.323323440551757812e+01 6.630016326904296875e+00 -4.387346506118774414e-01 -2.717403508722782135e-02 -1.397726088762283325e-01 7.404559850692749023e-01
4.202000000000000000e+03 6.588383483886718750e+01 3.584078550338745117e+00 -6.449313163757324219e-01 5.759261608123779297e+00 1.534299135208129883e+00 -2.048607110977172852e+00
4.203000000000000000e+03 6.600477600097656250e+01 2.607601165771484375e+00 -6.974247097969055176e-01 5.940219402313232422e+00 1.572838425636291504e+00 -2.255475521087646484e+00
4.204000000000000000e+03 6.500187683105468750e+01 5.208283424377441406e+00 -4.132674038410186768e-01 5.061992645263671875e+00 1.394617676734924316e+00 -1.826184272766113281e+00
4.205000000000000000e+03 6.428242492675781250e+01 -1.932174682617187500e+01 -1.651219725608825684e-01 4.650891780853271484e+00 1.345731019973754883e+00 1.490967512130737305e+00
4.206000000000000000e+03 5.226299285888671875e+01 9.355410575866699219e+00 2.117350995540618896e-01 1.106241106986999512e+00 3.953928649425506592e-01 -1.910046190023422241e-01
4.207000000000000000e+03 5.396108245849609375e+01 1.164468574523925781e+01 3.561770021915435791e-01 1.635078191757202148e+00 5.973765850067138672e-01 -4.165085554122924805e-01
4.208000000000000000e+03 6.200739669799804688e+01 5.286323547363281250e+00 -3.717181086540222168e-02 3.299280166625976562e+00 9.786325097084045410e-01 -1.554992556571960449e+00
4.209000000000000000e+03 5.660788726806640625e+01 8.338624954223632812e+00 2.303842455148696899e-01 1.809897541999816895e+00 6.120845079421997070e-01 -6.972370147705078125e-01
4.210000000000000000e+03 5.821265029907226562e+01 8.643128395080566406e+00 2.309216707944869995e-01 2.270180940628051758e+00 7.503308057785034180e-01 -9.016402363777160645e-01
4.211000000000000000e+03 6.089280700683593750e+01 -2.142552566528320312e+01 2.615056931972503662e-01 3.148715496063232422e+00 1.023066401481628418e+00 1.078741550445556641e+00
4.212000000000000000e+03 4.019442367553710938e+01 1.012206077575683594e+01 -1.160090193152427673e-01 2.324067205190658569e-01 3.491931036114692688e-02 5.686510801315307617e-01
4.213000000000000000e+03 3.378688049316406250e+01 1.144692039489746094e+01 -2.188512533903121948e-01 2.987176552414894104e-02 -5.669384822249412537e-02 6.594425439834594727e-01
4.214000000000000000e+03 4.829419708251953125e+01 8.373569488525390625e+00 8.678631274960935116e-05 5.796602964401245117e-01 1.739241331815719604e-01 2.031994462013244629e-01
4.215000000000000000e+03 4.757632064819335938e+01 1.009622859954833984e+01 1.215345486998558044e-01 6.730913519859313965e-01 2.383877635002136230e-01 1.928185522556304932e-01
4.216000000000000000e+03 4.208160018920898438e+01 1.112554359436035156e+01 6.501579191535711288e-03 3.507276475429534912e-01 1.071687638759613037e-01 4.739734828472137451e-01
4.217000000000000000e+03 4.155081176757812500e+01 9.653146743774414062e+00 -1.127158477902412415e-01 2.693651318550109863e-01 4.699478670954704285e-02 5.370342135429382324e-01
4.218000000000000000e+03 4.546157455444335938e+01 7.979889392852783203e+00 -1.290545016527175903e-01 3.780741393566131592e-01 7.470589131116867065e-02 4.078994393348693848e-01
4.219000000000000000e+03 4.848358154296875000e+01 -2.389884757995605469e+01 4.711231887340545654e-01 6.453176736831665039e-01 3.349322676658630371e-01 -9.184645116329193115e-02
4.220000000000000000e+03 3.548743057250976562e+01 7.130356788635253906e+00 -4.033451378345489502e-01 3.366515785455703735e-02 -1.109039932489395142e-01 7.214857935905456543e-01
4.221000000000000000e+03 3.346549224853515625e+01 1.405036067962646484e+01 -1.045706868171691895e-01 4.489837214350700378e-02 -1.790169440209865570e-02 5.773448348045349121e-01
4.222000000000000000e+03 3.026607513427734375e+01 1.611974525451660156e+01 -1.322107017040252686e-01 -1.202865168452262878e-01 -7.574916630983352661e-02 5.207386016845703125e-01
4.223000000000000000e+03 3.066176414489746094e+01 1.743187522888183594e+01 -5.405572429299354553e-02 -9.687482565641403198e-02 -4.527916759252548218e-02 4.692134261131286621e-01
4.224000000000000000e+03 6.075936508178710938e+01 -2.777765274047851562e+01 4.652687013149261475e-01 3.535071611404418945e+00 1.200102090835571289e+00 6.681866049766540527e-01
4.225000000000000000e+03 6.167081069946289062e+01 -2.493370437622070312e+01 3.198532760143280029e-01 3.682064771652221680e+00 1.200575351715087891e+00 8.855482935905456543e-01
4.226000000000000000e+03 3.281628036499023438e+01 8.682282447814941406e+00 -3.572310507297515869e-01 -2.868136204779148102e-02 -1.157737299799919128e-01 7.233300805091857910e-01
4.227000000000000000e+03 6.181378555297851562e+01 -2.976004409790039062e+01 4.548873901367187500e-01 3.928051471710205078e+00 1.314881682395935059e+00 6.100859045982360840e-01
4.228000000000000000e+03 5.751577377319335938e+01 7.548964023590087891e+00 1.948552876710891724e-01 1.955483794212341309e+00 6.451017260551452637e-01 -8.180492520332336426e-01
4.229000000000000000e+03 5.876664352416992188e+01 9.973102569580078125e+00 2.573187947273254395e-01 2.599477052688598633e+00 8.570387959480285645e-01 -9.314215183258056641e-01
4.230000000000000000e+03 6.107744979858398438e+01 8.691259384155273438e+00 1.076834425330162048e-01 3.316941738128662109e+00 1.027387619018554688e+00 -1.219441056251525879e+00
4.231000000000000000e+03 6.257366943359375000e+01 1.001640987396240234e+01 5.152372270822525024e-02 3.925691604614257812e+00 1.193164587020874023e+00 -1.220369100570678711e+00
4.232000000000000000e+03 5.269599533081054688e+01 -2.391368675231933594e+01 5.478868484497070312e-01 1.212904810905456543e+00 5.282375216484069824e-01 2.164597660303115845e-01
4.233000000000000000e+03 5.572440338134765625e+01 -2.751134300231933594e+01 6.717680096626281738e-01 2.091551780700683594e+00 8.289959430694580078e-01 4.151372313499450684e-01
4.234000000000000000e+03 5.717350006103515625e+01 -2.470062065124511719e+01 5.417207479476928711e-01 2.242835760116577148e+00 8.353669643402099609e-01 5.927819609642028809e-01
4.235000000000000000e+03 6.030086135864257812e+01 1.230141067504882812e+01 2.479960173368453979e-01 3.312117576599121094e+00 1.068034052848815918e+00 -9.759950041770935059e-01
4.236000000000000000e+03 3.523669052124023438e+01 8.123246192932128906e+00 -3.524593114852905273e-01 3.758514672517776489e-02 -9.446224570274353027e-02 7.173622846603393555e-01
4.237000000000000000e+03 3.986510467529296875e+01 -2.657097816467285156e+01 4.515711069107055664e-01 1.148178130388259888e-01 1.699166744947433472e-01 -3.669157028198242188e-01
4.238000000000000000e+03 3.957027435302734375e+01 -2.333831596374511719e+01 2.174659371376037598e-01 5.377464368939399719e-02 8.137217909097671509e-02 -4.481043815612792969e-01
4.239000000000000000e+03 6.214165496826171875e+01 7.849127769470214844e+00 1.591084897518157959e-02 3.667701721191406250e+00 1.105083703994750977e+00 -1.367117047309875488e+00
4.240000000000000000e+03 4.098444366455078125e+01 -2.459709739685058594e+01 3.446523845195770264e-01 1.322959065437316895e-01 1.430844962596893311e-01 -3.890923261642456055e-01
4.241000000000000000e+03 3.483919525146484375e+01 -2.345531845092773438e+01 1.191155165433883667e-01 -7.769586890935897827e-02 1.242589671164751053e-02 -4.872057139873504639e-01
4.242000000000000000e+03 5.326181793212890625e+01 9.816100120544433594e+00 2.604554593563079834e-01 1.306998491287231445e+00 4.702361822128295898e-01 -3.112060427665710449e-01
4.243000000000000000e+03 6.776412963867187500e+01 -1.220780467987060547e+01 -1.184402108192443848e+00 8.903131484985351562e+00 2.315618753433227539e+00 2.703540563583374023e+00
4.244000000000000000e+03 6.761682128906250000e+01 5.010595917701721191e-01 -1.175708532333374023e+00 8.155444145202636719e+00 2.093920469284057617e+00 -2.483506679534912109e+00
4.245000000000000000e+03 6.810491180419921875e+01 3.118737414479255676e-02 -1.348614692687988281e+00 9.038964271545410156e+00 2.307104825973510742e+00 -2.337089538574218750e+00
4.246000000000000000e+03 6.849425506591796875e+01 -1.273933219909667969e+01 -1.400065779685974121e+00 9.499099731445312500e+00 2.429710149765014648e+00 2.047218561172485352e+00
4.247000000000000000e+03 6.811212158203125000e+01 -1.244058513641357422e+01 -1.295559287071228027e+00 9.205664634704589844e+00 2.373031616210937500e+00 2.363440036773681641e+00
4.248000000000000000e+03 6.623339080810546875e+01 -1.385195827484130859e+01 -6.724507808685302734e-01 6.330944061279296875e+00 1.697548031806945801e+00 2.566746473312377930e+00
4.249000000000000000e+03 6.631077575683593750e+01 1.031218171119689941e-01 -6.988456845283508301e-01 6.500864028930664062e+00 1.740605592727661133e+00 -2.967664957046508789e+00
4.250000000000000000e+03 6.474482727050781250e+01 -1.516345119476318359e+01 -3.256110846996307373e-01 4.785919666290283203e+00 1.338092565536499023e+00 2.216572046279907227e+00
4.251000000000000000e+03 6.550157928466796875e+01 -1.569841480255126953e+01 -4.955623447895050049e-01 5.497401237487792969e+00 1.500551581382751465e+00 2.128161191940307617e+00
4.252000000000000000e+03 6.665175628662109375e+01 -1.242215824127197266e+01 -7.119732499122619629e-01 7.132199287414550781e+00 1.926067709922790527e+00 3.076624870300292969e+00
4.253000000000000000e+03 6.722150421142578125e+01 -1.245558738708496094e+01 -9.707962274551391602e-01 8.054719924926757812e+00 2.125176906585693359e+00 2.893981695175170898e+00
4.254000000000000000e+03 6.719490051269531250e+01 9.604294896125793457e-01 -1.043234229087829590e+00 7.477706909179687500e+00 1.930341720581054688e+00 -2.486200332641601562e+00
4.255000000000000000e+03 6.680152130126953125e+01 5.032392144203186035e-01 -8.992598056793212891e-01 7.098288536071777344e+00 1.859708547592163086e+00 -2.739098548889160156e+00
4.256000000000000000e+03 6.843083953857421875e+01 -1.418627071380615234e+01 -1.263695716857910156e+00 8.506425857543945312e+00 2.172819137573242188e+00 1.762839794158935547e+00
4.257000000000000000e+03 6.909684753417968750e+01 -1.403138160705566406e+01 -1.405652761459350586e+00 9.169641494750976562e+00 2.329196453094482422e+00 1.399856448173522949e+00
4.258000000000000000e+03 6.645577239990234375e+01 1.089067459106445312e+00 -8.140813112258911133e-01 6.600529670715332031e+00 1.735934495925903320e+00 -2.610935211181640625e+00
4.259000000000000000e+03 6.571862030029296875e+01 2.069013595581054688e+00 -6.250981092453002930e-01 5.691414356231689453e+00 1.519894957542419434e+00 -2.404581069946289062e+00
4.260000000000000000e+03 6.642642974853515625e+01 2.251879930496215820e+00 -8.000729084014892578e-01 6.330360412597656250e+00 1.659086227416992188e+00 -2.288596153259277344e+00
4.261000000000000000e+03 6.425331878662109375e+01 3.847413778305053711e+00 -3.393320441246032715e-01 4.548413276672363281e+00 1.262724399566650391e+00 -1.973303914070129395e+00
4.262000000000000000e+03 6.582940673828125000e+01 -1.636463165283203125e+01 -5.531763434410095215e-01 5.739272117614746094e+00 1.555828809738159180e+00 1.956359386444091797e+00
4.263000000000000000e+03 6.738578796386718750e+01 -1.502324581146240234e+01 -9.879143238067626953e-01 7.319313526153564453e+00 1.899419665336608887e+00 2.006658792495727539e+00
4.264000000000000000e+03 6.619735717773437500e+01 -1.433270454406738281e+01 -6.618155837059020996e-01 6.243088722229003906e+00 1.674381852149963379e+00 2.422078371047973633e+00
4.265000000000000000e+03 6.640483856201171875e+01 -1.593381500244140625e+01 -6.855205297470092773e-01 6.231729030609130859e+00 1.663862466812133789e+00 1.969936013221740723e+00
4.266000000000000000e+03 6.483995056152343750e+01 -1.589898872375488281e+01 -3.559095859527587891e-01 4.954270362854003906e+00 1.379508256912231445e+00 2.069879293441772461e+00
4.267000000000000000e+03 6.601053619384765625e+01 1.274341583251953125e+00 -6.749759912490844727e-01 6.050624847412109375e+00 1.612694621086120605e+00 -2.595408439636230469e+00
4.268000000000000000e+03 6.039768981933593750e+01 1.035940742492675781e+01 1.969834417104721069e-01 3.157383918762207031e+00 1.006310224533081055e+00 -1.076564908027648926e+00
4.269000000000000000e+03 5.192742538452148438e+01 1.266969585418701172e+01 3.811870515346527100e-01 1.380858540534973145e+00 5.286136865615844727e-01 -2.308926731348037720e-01
4.270000000000000000e+03 5.062643432617187500e+01 9.824098587036132812e+00 1.961854696273803711e-01 9.473937153816223145e-01 3.430737555027008057e-01 -5.339211225509643555e-02
4.271000000000000000e+03 5.938538360595703125e+01 8.009183883666992188e+00 1.858838647603988647e-01 2.571796417236328125e+00 8.273040652275085449e-01 -1.059436082839965820e+00
4.272000000000000000e+03 6.288432312011718750e+01 4.474929332733154297e+00 -1.497823596000671387e-01 3.741468191146850586e+00 1.077505826950073242e+00 -1.755585670471191406e+00
4.273000000000000000e+03 3.474971771240234375e+01 1.014110469818115234e+01 -2.573125660419464111e-01 4.625664278864860535e-02 -6.331677734851837158e-02 6.779981255531311035e-01
4.274000000000000000e+03 3.495895385742187500e+01 9.130163192749023438e+00 -2.965730428695678711e-01 4.020183905959129333e-02 -7.691136002540588379e-02 6.980507969856262207e-01
4.275000000000000000e+03 5.706905364990234375e+01 9.443975448608398438e+00 2.678246200084686279e-01 2.061140298843383789e+00 6.986894607543945312e-01 -7.454730868339538574e-01
4.276000000000000000e+03 6.025098419189453125e+01 6.520255565643310547e+00 9.481856226921081543e-02 2.714979648590087891e+00 8.429394364356994629e-01 -1.253298878669738770e+00
4.277000000000000000e+03 6.190012741088867188e+01 6.303628921508789062e+00 -3.413641825318336487e-03 3.380261898040771484e+00 1.013054490089416504e+00 -1.459258556365966797e+00
4.278000000000000000e+03 6.142142868041992188e+01 9.891470909118652344e+00 1.192015931010246277e-01 3.524262666702270508e+00 1.093039274215698242e+00 -1.171441316604614258e+00
4.279000000000000000e+03 4.535737609863281250e+01 1.117681598663330078e+01 1.115498393774032593e-01 5.524991750717163086e-01 1.992147117853164673e-01 3.084507286548614502e-01
4.280000000000000000e+03 4.407632446289062500e+01 1.193260955810546875e+01 1.231452301144599915e-01 5.063858032226562500e-01 1.888592988252639771e-01 3.555708527565002441e-01
4.281000000000000000e+03 4.269622421264648438e+01 1.266559028625488281e+01 1.210422888398170471e-01 4.511225819587707520e-01 1.716494560241699219e-01 3.966946601867675781e-01
4.282000000000000000e+03 3.387616348266601562e+01 1.268874168395996094e+01 -1.509733200073242188e-01 4.608041793107986450e-02 -3.146787360310554504e-02 6.188333034515380859e-01
4.283000000000000000e+03 3.281122207641601562e+01 1.216388416290283203e+01 -2.162124067544937134e-01 -6.684697698801755905e-03 -6.686913222074508667e-02 6.455904841423034668e-01
4.284000000000000000e+03 3.469156265258789062e+01 1.445284748077392578e+01 -4.451897740364074707e-02 9.928115457296371460e-02 1.642865315079689026e-02 5.510953664779663086e-01
4.285000000000000000e+03 3.259179306030273438e+01 1.703281974792480469e+01 -1.612719264812767506e-03 1.427575759589672089e-02 3.798911347985267639e-03 4.856450855731964111e-01
4.286000000000000000e+03 5.985687255859375000e+01 -2.580246734619140625e+01 4.624491631984710693e-01 3.140639543533325195e+00 1.080926656723022461e+00 7.417860627174377441e-01
4.287000000000000000e+03 5.910746383666992188e+01 -2.382841300964355469e+01 4.356239438056945801e-01 2.754511594772338867e+00 9.570406675338745117e-01 7.978785037994384766e-01
4.288000000000000000e+03 6.143337631225585938e+01 1.304843235015869141e+01 2.141798734664916992e-01 3.666943788528442383e+00 1.164337158203125000e+00 -9.942846298217773438e-01
4.289000000000000000e+03 5.697092056274414062e+01 1.298108386993408203e+01 3.805821835994720459e-01 2.409682273864746094e+00 8.370792865753173828e-01 -6.904901862144470215e-01
4.290000000000000000e+03 3.564785766601562500e+01 1.193865108489990234e+01 -1.472584903240203857e-01 9.751912206411361694e-02 -1.492180954664945602e-02 6.241187453269958496e-01
4.291000000000000000e+03 2.990080451965332031e+01 -2.560832595825195312e+01 1.727374047040939331e-01 -1.630271375179290771e-01 2.913083415478467941e-03 -4.330887198448181152e-01
4.292000000000000000e+03 3.549403381347656250e+01 -2.583531951904296875e+01 3.078875541687011719e-01 -4.698783531785011292e-02 7.826991379261016846e-02 -4.321852922439575195e-01
4.293000000000000000e+03 2.577262306213378906e+01 -2.543216705322265625e+01 1.008875668048858643e-01 -2.036902457475662231e-01 -3.084080480039119720e-02 -3.940351307392120361e-01
4.294000000000000000e+03 3.607072830200195312e+01 9.427788734436035156e+00 -2.517503798007965088e-01 8.551438897848129272e-02 -4.987080022692680359e-02 6.754149794578552246e-01
4.295000000000000000e+03 3.572804641723632812e+01 1.038999462127685547e+01 -2.180605530738830566e-01 8.547506481409072876e-02 -3.977564722299575806e-02 6.578202843666076660e-01
4.296000000000000000e+03 5.787807083129882812e+01 -2.669845390319824219e+01 5.870279073715209961e-01 2.599625110626220703e+00 9.559959769248962402e-01 5.849195122718811035e-01
4.297000000000000000e+03 6.580765533447265625e+01 -1.381416702270507812e+01 -5.220882892608642578e-01 5.787807941436767578e+00 1.579715967178344727e+00 2.603531360626220703e+00
4.298000000000000000e+03 6.636154174804687500e+01 5.997657179832458496e-01 -7.625167965888977051e-01 6.528523445129394531e+00 1.729802012443542480e+00 -2.787787199020385742e+00
4.299000000000000000e+03 6.677693939208984375e+01 2.854025736451148987e-02 -8.735539913177490234e-01 7.195718765258789062e+00 1.896649479866027832e+00 -2.914668560028076172e+00
4.300000000000000000e+03 6.574545288085937500e+01 -1.435338401794433594e+01 -5.283645391464233398e-01 5.729945182800292969e+00 1.560474276542663574e+00 2.449463605880737305e+00
4.301000000000000000e+03 6.754605102539062500e+01 -1.355280590057373047e+01 -1.105345010757446289e+00 7.982050895690917969e+00 2.063011884689331055e+00 2.360356330871582031e+00
4.302000000000000000e+03 6.628688049316406250e+01 -1.336169910430908203e+01 -6.555783748626708984e-01 6.425889492034912109e+00 1.731093406677246094e+00 2.751795053482055664e+00
4.303000000000000000e+03 6.700373840332031250e+01 1.334375858306884766e+00 -9.838374853134155273e-01 7.173423767089843750e+00 1.856875896453857422e+00 -2.436235427856445312e+00
4.304000000000000000e+03 6.671469116210937500e+01 -1.288864040374755859e+01 -8.014404177665710449e-01 7.162303447723388672e+00 1.908258795738220215e+00 2.879691123962402344e+00
4.305000000000000000e+03 6.704680633544921875e+01 -1.395250797271728516e+01 -9.454259276390075684e-01 7.323507785797119141e+00 1.913424491882324219e+00 2.392637968063354492e+00
4.306000000000000000e+03 6.825042724609375000e+01 -1.326007175445556641e+01 -1.300718307495117188e+00 8.871584892272949219e+00 2.271260023117065430e+00 2.069964885711669922e+00
4.307000000000000000e+03 6.602257537841796875e+01 -1.543432140350341797e+01 -6.129544377326965332e-01 5.955644607543945312e+00 1.602807044982910156e+00 2.145658254623413086e+00
4.308000000000000000e+03 6.662255096435546875e+01 1.558215498924255371e+00 -8.606878519058227539e-01 6.723493576049804688e+00 1.758841753005981445e+00 -2.425829172134399414e+00
4.309000000000000000e+03 6.776192474365234375e+01 -1.429102420806884766e+01 -1.120385050773620605e+00 7.857309818267822266e+00 2.021077394485473633e+00 2.065108776092529297e+00
4.310000000000000000e+03 6.656647491455078125e+01 -1.478629875183105469e+01 -7.854802608489990234e-01 6.611445903778076172e+00 1.747789740562438965e+00 2.230041742324829102e+00
4.311000000000000000e+03 3.501543807983398438e+01 1.304468059539794922e+01 -1.040553599596023560e-01 9.546922892332077026e-02 -2.575840801000595093e-03 5.946669578552246094e-01
4.312000000000000000e+03 5.445842361450195312e+01 1.016050529479980469e+01 2.959873080253601074e-01 1.574503064155578613e+00 5.611470937728881836e-01 -4.552758038043975830e-01
4.313000000000000000e+03 5.988977813720703125e+01 9.265421867370605469e+00 1.917502880096435547e-01 2.901149749755859375e+00 9.278700351715087891e-01 -1.057917952537536621e+00
4.314000000000000000e+03 6.052104949951171875e+01 7.597469329833984375e+00 1.163726896047592163e-01 2.975914239883422852e+00 9.276860952377319336e-01 -1.237529516220092773e+00
4.315000000000000000e+03 3.359162902832031250e+01 1.018745231628417969e+01 -2.781598567962646484e-01 5.841766949743032455e-03 -8.169542253017425537e-02 6.909410953521728516e-01
4.316000000000000000e+03 5.324423599243164062e+01 1.318327808380126953e+01 4.069987535476684570e-01 1.656201720237731934e+00 6.189601421356201172e-01 -3.459163904190063477e-01
4.317000000000000000e+03 5.157538223266601562e+01 1.057274150848388672e+01 2.646588981151580811e-01 1.140920639038085938e+00 4.216738343238830566e-01 -1.565155833959579468e-01
4.318000000000000000e+03 4.483996582031250000e+01 1.336787605285644531e+01 2.306694984436035156e-01 6.448062062263488770e-01 2.626427114009857178e-01 2.652114331722259521e-01
4.319000000000000000e+03 3.648990249633789062e+01 1.256850051879882812e+01 -7.443100214004516602e-02 1.454435288906097412e-01 2.130375802516937256e-02 5.820710062980651855e-01
4.320000000000000000e+03 3.987655639648437500e+01 1.391444301605224609e+01 9.904396533966064453e-02 3.340799212455749512e-01 1.299371719360351562e-01 4.576625525951385498e-01
4.321000000000000000e+03 4.070039367675781250e+01 1.168971729278564453e+01 -2.376212971284985542e-03 3.018542230129241943e-01 8.984340727329254150e-02 5.064581036567687988e-01
4.322000000000000000e+03 4.647574234008789062e+01 1.045197772979736328e+01 9.668922424316406250e-02 5.854259729385375977e-01 2.046345472335815430e-01 2.653841376304626465e-01
4.323000000000000000e+03 5.580051803588867188e+01 1.005062484741210938e+01 2.973713576793670654e-01 1.826050877571105957e+00 6.370266675949096680e-01 -6.003618836402893066e-01
4.324000000000000000e+03 5.068733215332031250e+01 1.193527412414550781e+01 3.222171366214752197e-01 1.149695992469787598e+00 4.415739178657531738e-01 -1.134343668818473816e-01
4.325000000000000000e+03 4.728421783447265625e+01 1.135815429687500000e+01 1.948697417974472046e-01 7.221688032150268555e-01 2.751115560531616211e-01 1.704109460115432739e-01
4.326000000000000000e+03 5.628005981445312500e+01 1.147783756256103516e+01 3.424655199050903320e-01 2.071004390716552734e+00 7.240409851074218750e-01 -6.422552466392517090e-01
4.327000000000000000e+03 5.589228057861328125e+01 1.511526203155517578e+01 4.454497694969177246e-01 2.330569744110107422e+00 8.328058719635009766e-01 -5.652185082435607910e-01
4.328000000000000000e+03 3.582278823852539062e+01 1.631216621398925781e+01 7.505279779434204102e-02 1.797236204147338867e-01 7.643292844295501709e-02 4.732367396354675293e-01
4.329000000000000000e+03 5.297040176391601562e+01 -2.590138816833496094e+01 6.477920413017272949e-01 1.413439869880676270e+00 6.183695793151855469e-01 2.469562441110610962e-01
4.330000000000000000e+03 5.649047088623046875e+01 -2.987548446655273438e+01 7.210810184478759766e-01 2.410001754760742188e+00 9.393248558044433594e-01 4.005391001701354980e-01
4.331000000000000000e+03 3.184635353088378906e+01 1.850063896179199219e+01 4.783914610743522644e-02 -2.772787772119045258e-02 6.033380050212144852e-03 4.294016659259796143e-01
4.332000000000000000e+03 2.845713615417480469e+01 1.746253776550292969e+01 -1.458543241024017334e-01 -2.361164838075637817e-01 -1.145912483334541321e-01 4.676061570644378662e-01
4.333000000000000000e+03 4.255592346191406250e+01 -2.751817893981933594e+01 5.877672433853149414e-01 3.065457344055175781e-01 2.682938873767852783e-01 -2.762301862239837646e-01
4.334000000000000000e+03 4.567703247070312500e+01 -2.558764457702636719e+01 5.189250707626342773e-01 4.637652337551116943e-01 2.948070764541625977e-01 -2.059264183044433594e-01
4.335000000000000000e+03 4.820310211181640625e+01 -2.602837944030761719e+01 6.073797345161437988e-01 7.352989315986633301e-01 4.028035998344421387e-01 -6.537485122680664062e-02
4.336000000000000000e+03 3.401078796386718750e+01 1.768365097045898438e+01 8.072361350059509277e-02 1.021785438060760498e-01 5.487065017223358154e-02 4.519953429698944092e-01
4.337000000000000000e+03 3.440657424926757812e+01 1.599197959899902344e+01 1.195262838155031204e-02 1.081750243902206421e-01 3.603829815983772278e-02 5.058504343032836914e-01
4.338000000000000000e+03 8.709902763366699219e+00 3.826209640502929688e+01 1.720165610313415527e-01 -7.215178608894348145e-01 -1.648503839969635010e-01 1.294219195842742920e-01
4.339000000000000000e+03 6.660933685302734375e+01 -1.435743045806884766e+01 -7.994045615196228027e-01 6.722242355346679688e+00 1.776851296424865723e+00 2.358239173889160156e+00
4.340000000000000000e+03 6.789572143554687500e+01 -1.287392902374267578e+01 -1.224205732345581055e+00 8.718290328979492188e+00 2.248225450515747070e+00 2.371480226516723633e+00
4.341000000000000000e+03 6.721327972412109375e+01 4.794597029685974121e-01 -1.038444161415100098e+00 7.657859802246093750e+00 1.985824704170227051e+00 -2.636352062225341797e+00
4.342000000000000000e+03 6.621824645996093750e+01 -1.478138256072998047e+01 -6.706323623657226562e-01 6.200936794281005859e+00 1.659091353416442871e+00 2.296634912490844727e+00
4.343000000000000000e+03 6.532399749755859375e+01 -1.505504703521728516e+01 -4.543331563472747803e-01 5.341867446899414062e+00 1.466260313987731934e+00 2.273338079452514648e+00
4.344000000000000000e+03 6.710061645507812500e+01 -1.345798587799072266e+01 -9.709579944610595703e-01 7.479488849639892578e+00 1.952559351921081543e+00 2.559515237808227539e+00
4.345000000000000000e+03 6.799721527099609375e+01 -1.379350662231445312e+01 -1.208935737609863281e+00 8.344326019287109375e+00 2.140616893768310547e+00 2.072980403900146484e+00
4.346000000000000000e+03 6.741953277587890625e+01 -1.449201869964599609e+01 -1.029527664184570312e+00 7.512051582336425781e+00 1.944757223129272461e+00 2.118037939071655273e+00
4.347000000000000000e+03 6.674917602539062500e+01 -1.541348838806152344e+01 -8.048456907272338867e-01 6.666455268859863281e+00 1.758482813835144043e+00 2.039667606353759766e+00
4.348000000000000000e+03 6.142297744750976562e+01 7.081616401672363281e+00 4.662000015377998352e-02 3.254744529724121094e+00 9.904093742370605469e-01 -1.364874482154846191e+00
4.349000000000000000e+03 3.882160949707031250e+01 1.053631877899169922e+01 -1.294862478971481323e-01 1.891952306032180786e-01 1.791269332170486450e-02 5.957043766975402832e-01
4.350000000000000000e+03 4.595579528808593750e+01 9.254141807556152344e+00 3.399749053642153740e-03 4.856340885162353516e-01 1.467101424932479858e-01 3.345030248165130615e-01
4.351000000000000000e+03 4.957155227661132812e+01 1.095132732391357422e+01 2.369423806667327881e-01 9.245954155921936035e-01 3.484613299369812012e-01 1.541729364544153214e-02
4.352000000000000000e+03 4.840375518798828125e+01 1.230278778076171875e+01 2.746665775775909424e-01 8.951768279075622559e-01 3.509530127048492432e-01 7.001813501119613647e-02
4.353000000000000000e+03 4.339790725708007812e+01 1.424959945678710938e+01 2.313205450773239136e-01 5.751591324806213379e-01 2.419439107179641724e-01 3.139982819557189941e-01
4.354000000000000000e+03 4.127835845947265625e+01 1.333685970306396484e+01 1.119184419512748718e-01 3.933168351650238037e-01 1.515705883502960205e-01 4.321146309375762939e-01
4.355000000000000000e+03 4.662905502319335938e+01 1.620945930480957031e+01 3.983188867568969727e-01 9.840306043624877930e-01 4.147048592567443848e-01 8.599920570850372314e-02
4.356000000000000000e+03 5.450115966796875000e+01 1.357718086242675781e+01 4.282873868942260742e-01 1.894613504409790039e+00 6.968702673912048340e-01 -4.558508992195129395e-01
4.357000000000000000e+03 3.493214416503906250e+01 1.111006164550781250e+01 -2.045653164386749268e-01 6.633338332176208496e-02 -4.146957769989967346e-02 6.510692238807678223e-01
4.358000000000000000e+03 3.604647445678710938e+01 1.344483280181884766e+01 -4.817898944020271301e-02 1.421625316143035889e-01 2.819506265223026276e-02 5.625537037849426270e-01
4.359000000000000000e+03 5.510587310791015625e+01 1.233992195129394531e+01 3.738318383693695068e-01 1.923094868659973145e+00 6.890779733657836914e-01 -5.202720165252685547e-01
4.360000000000000000e+03 4.631238174438476562e+01 -2.334866142272949219e+01 3.699540793895721436e-01 4.039728939533233643e-01 2.321780920028686523e-01 -2.334047704935073853e-01
4.361000000000000000e+03 3.076751899719238281e+01 1.988667869567871094e+01 7.651741057634353638e-02 -8.552647382020950317e-02 -2.702719764783978462e-03 3.927425444126129150e-01
4.362000000000000000e+03 2.905143928527832031e+01 1.598397731781005859e+01 -1.790021210908889771e-01 -1.882001608610153198e-01 -1.101606860756874084e-01 5.273367762565612793e-01
4.363000000000000000e+03 6.700840759277343750e+01 -1.443031406402587891e+01 -9.125823974609375000e-01 7.115036010742187500e+00 1.860736131668090820e+00 2.245738506317138672e+00
4.364000000000000000e+03 6.581649780273437500e+01 -1.490784645080566406e+01 -5.684351921081542969e-01 5.793442726135253906e+00 1.567502260208129883e+00 2.297185659408569336e+00
4.365000000000000000e+03 6.694010925292968750e+01 -1.491289234161376953e+01 -8.856574296951293945e-01 6.934629440307617188e+00 1.814691662788391113e+00 2.152121782302856445e+00
4.366000000000000000e+03 6.743025207519531250e+01 -1.403822898864746094e+01 -1.053637266159057617e+00 7.680198192596435547e+00 1.987968325614929199e+00 2.263209104537963867e+00
4.367000000000000000e+03 5.570083618164062500e+01 1.353134250640869141e+01 4.231567084789276123e-01 2.188302278518676758e+00 7.834377288818359375e-01 -5.793718099594116211e-01
4.368000000000000000e+03 3.750906372070312500e+01 1.070728111267089844e+01 -1.517349630594253540e-01 1.484545618295669556e-01 -9.841239079833030701e-04 6.222297549247741699e-01
4.369000000000000000e+03 3.727741241455078125e+01 1.181342220306396484e+01 -9.864834696054458618e-02 1.608795523643493652e-01 1.866936124861240387e-02 5.914131999015808105e-01
4.370000000000000000e+03 3.731561660766601562e+01 1.638613510131835938e+01 1.320367306470870972e-01 2.615520656108856201e-01 1.180766448378562927e-01 4.419115185737609863e-01
4.371000000000000000e+03 3.701415634155273438e+01 1.339674949645996094e+01 -2.221370115876197815e-02 1.866765469312667847e-01 4.933885484933853149e-02 5.460622310638427734e-01
4.372000000000000000e+03 4.616680908203125000e+01 1.242331981658935547e+01 2.245451658964157104e-01 7.006817460060119629e-01 2.775680720806121826e-01 2.144436091184616089e-01
4.373000000000000000e+03 3.806301116943359375e+01 1.282662200927734375e+01 -2.447865158319473267e-02 2.177995890378952026e-01 5.799628049135208130e-02 5.443461537361145020e-01
4.374000000000000000e+03 4.962170410156250000e+01 1.353934288024902344e+01 3.770737051963806152e-01 1.143487691879272461e+00 4.561684131622314453e-01 -6.315468996763229370e-02
4.375000000000000000e+03 4.570683670043945312e+01 1.479231262207031250e+01 3.300388157367706299e-01 8.067646622657775879e-01 3.410410583019256592e-01 1.716078072786331177e-01
4.376000000000000000e+03 4.189773559570312500e+01 1.504762077331542969e+01 2.218073457479476929e-01 4.971106052398681641e-01 2.156753838062286377e-01 3.496651947498321533e-01
4.377000000000000000e+03 5.407876968383789062e+01 1.694071960449218750e+01 4.881904423236846924e-01 2.093920946121215820e+00 7.746334075927734375e-01 -4.090387821197509766e-01
4.378000000000000000e+03 5.428191375732421875e+01 1.513052749633789062e+01 4.643117785453796387e-01 1.991693854331970215e+00 7.368016839027404785e-01 -4.402808845043182373e-01
4.379000000000000000e+03 5.065012741088867188e+01 -2.612641525268554688e+01 6.448082923889160156e-01 1.056095242500305176e+00 5.102710723876953125e-01 8.564021438360214233e-02
4.380000000000000000e+03 5.778653335571289062e+01 1.692984580993652344e+01 4.335004389286041260e-01 2.871465206146240234e+00 9.914897084236145020e-01 -6.621696352958679199e-01
4.381000000000000000e+03 2.960856056213378906e+01 1.841695594787597656e+01 -3.267715126276016235e-02 -1.519200801849365234e-01 -5.537917092442512512e-02 4.382383823394775391e-01
4.382000000000000000e+03 2.825849533081054688e+01 1.915333938598632812e+01 -5.055201053619384766e-02 -2.550738751888275146e-01 -9.168776869773864746e-02 4.067763686180114746e-01
4.383000000000000000e+03 3.336584091186523438e+01 1.946775436401367188e+01 1.452763825654983521e-01 6.692977249622344971e-02 6.366184353828430176e-02 3.983605802059173584e-01
4.384000000000000000e+03 3.238855743408203125e+01 2.126490974426269531e+01 1.850550472736358643e-01 1.192760933190584183e-02 5.909479781985282898e-02 3.386591374874114990e-01
4.385000000000000000e+03 3.561358642578125000e+01 1.816674232482910156e+01 1.544544249773025513e-01 2.017756998538970947e-01 1.068690344691276550e-01 4.151470065116882324e-01
4.386000000000000000e+03 6.748276519775390625e+01 -3.196850395202636719e+01 2.647356390953063965e-01 5.465623378753662109e+00 1.719107747077941895e+00 4.783352911472320557e-01
4.387000000000000000e+03 5.268643188476562500e+01 1.116840744018554688e+01 3.203849196434020996e-01 1.353420257568359375e+00 5.021415352821350098e-01 -2.764338850975036621e-01
4.388000000000000000e+03 4.511780166625976562e+01 1.746546363830566406e+01 4.030964970588684082e-01 8.818576335906982422e-01 3.854862451553344727e-01 1.356492191553115845e-01
4.389000000000000000e+03 3.883646774291992188e+01 1.616749382019042969e+01 1.669922024011611938e-01 3.399972915649414062e-01 1.520968526601791382e-01 4.149369299411773682e-01
4.390000000000000000e+03 4.713840103149414062e+01 1.364918231964111328e+01 3.118979036808013916e-01 8.709085583686828613e-01 3.548419475555419922e-01 1.163925603032112122e-01
4.391000000000000000e+03 3.103412246704101562e+01 2.300935173034667969e+01 2.378081232309341431e-01 -6.507836282253265381e-02 5.181892961263656616e-02 2.948130965232849121e-01
4.392000000000000000e+03 5.382440567016601562e+01 1.893082618713378906e+01 5.279958844184875488e-01 2.197868585586547852e+00 8.177593350410461426e-01 -3.884727954864501953e-01
4.393000000000000000e+03 3.852490615844726562e+01 1.439800834655761719e+01 8.028928190469741821e-02 2.785825133323669434e-01 1.076615378260612488e-01 4.795527160167694092e-01
4.394000000000000000e+03 5.109254837036132812e+01 1.443421077728271484e+01 4.289715290069580078e-01 1.398444533348083496e+00 5.482248067855834961e-01 -1.847914159297943115e-01
4.395000000000000000e+03 5.270520782470703125e+01 1.487401771545410156e+01 4.549231827259063721e-01 1.697495579719543457e+00 6.457256078720092773e-01 -3.096643090248107910e-01
4.396000000000000000e+03 4.036778259277343750e+01 1.570310211181640625e+01 1.982720345258712769e-01 4.220616221427917480e-01 1.861000955104827881e-01 3.844639062881469727e-01
4.397000000000000000e+03 4.627534866333007812e+01 1.903839302062988281e+01 4.778151214122772217e-01 1.083827257156372070e+00 4.684927165508270264e-01 4.353684559464454651e-02
4.398000000000000000e+03 4.089735412597656250e+01 1.764050483703613281e+01 2.970865666866302490e-01 5.174518823623657227e-01 2.443615347146987915e-01 3.080431520938873291e-01
4.399000000000000000e+03 3.912940216064453125e+01 1.818638610839843750e+01 2.659848332405090332e-01 4.147517383098602295e-01 2.042209804058074951e-01 3.398114740848541260e-01
4.400000000000000000e+03 4.755852890014648438e+01 1.755501747131347656e+01 4.622303843498229980e-01 1.145367264747619629e+00 4.822793006896972656e-01 3.723228815943002701e-03
4.401000000000000000e+03 4.820698165893554688e+01 1.499802017211914062e+01 3.995928168296813965e-01 1.082347512245178223e+00 4.445821046829223633e-01 3.281701589003205299e-03
4.402000000000000000e+03 5.205339431762695312e+01 1.877930068969726562e+01 5.270662903785705566e-01 1.834093451499938965e+00 7.083479166030883789e-01 -2.586046457290649414e-01
4.403000000000000000e+03 4.346533966064453125e+01 1.868193626403808594e+01 4.035475254058837891e-01 7.905519008636474609e-01 3.582298159599304199e-01 1.791233271360397339e-01
4.404000000000000000e+03 4.157127761840820312e+01 1.975293350219726562e+01 3.857227265834808350e-01 6.543684005737304688e-01 3.120273351669311523e-01 2.311247438192367554e-01
4.405000000000000000e+03 3.734791564941406250e+01 1.836434364318847656e+01 2.131231278181076050e-01 3.036064803600311279e-01 1.550188809633255005e-01 3.766750097274780273e-01
4.406000000000000000e+03 4.994216537475585938e+01 2.106105613708496094e+01 5.638304948806762695e-01 1.634906649589538574e+00 6.596211194992065430e-01 -1.693298816680908203e-01
4.407000000000000000e+03 4.804505157470703125e+01 -2.847076988220214844e+01 7.201287150382995605e-01 8.485159873962402344e-01 4.705934226512908936e-01 -3.646029904484748840e-02
4.408000000000000000e+03 5.078107070922851562e+01 -2.848634338378906250e+01 7.472851872444152832e-01 1.218261003494262695e+00 5.896638631820678711e-01 1.098209097981452942e-01
4.409000000000000000e+03 2.079181289672851562e+01 -2.777303695678710938e+01 1.260962188243865967e-01 -2.789190113544464111e-01 -4.584684222936630249e-02 -3.094120919704437256e-01
4.410000000000000000e+03 2.770056915283203125e+01 -2.427963066101074219e+01 7.618959248065948486e-02 -1.719372123479843140e-01 -2.872428484261035919e-02 -4.327641427516937256e-01
4.411000000000000000e+03 2.634464836120605469e+01 -2.244512367248535156e+01 -5.462811514735221863e-02 -1.606294512748718262e-01 -6.457727402448654175e-02 -4.380546808242797852e-01
4.412000000000000000e+03 3.262598419189453125e+01 -2.863216018676757812e+01 3.830569982528686523e-01 -1.246399804949760437e-01 7.752510160207748413e-02 -3.783499002456665039e-01
4.413000000000000000e+03 7.139023590087890625e+01 3.297303390502929688e+01 1.403836905956268311e-01 6.022627353668212891e+00 1.848903417587280273e+00 -2.613531649112701416e-01
4.414000000000000000e+03 7.150787353515625000e+01 -3.824419403076171875e+01 1.960037946701049805e-01 6.486744403839111328e+00 2.004824399948120117e+00 1.846974045038223267e-01
4.415000000000000000e+03 3.578662872314453125e+01 -2.855874061584472656e+01 4.670359194278717041e-01 -2.274364233016967773e-02 1.332876831293106079e-01 -3.714652657508850098e-01
4.416000000000000000e+03 2.409757041931152344e+01 2.607077789306640625e+01 2.500987946987152100e-01 -5.081433057785034180e-01 -7.741335779428482056e-02 2.530452013015747070e-01
4.417000000000000000e+03 5.741614532470703125e+01 1.928052902221679688e+01 4.959480166435241699e-01 2.923546075820922852e+00 1.025848269462585449e+00 -5.962104797363281250e-01
4.418000000000000000e+03 5.560967636108398438e+01 1.914079284667968750e+01 5.176993608474731445e-01 2.540892362594604492e+00 9.175775051116943359e-01 -5.032138824462890625e-01
4.419000000000000000e+03 1.175754547119140625e+01 3.081261062622070312e+01 1.922254860401153564e-01 -7.333056330680847168e-01 -1.623240411281585693e-01 3.482352793216705322e-01
4.420000000000000000e+03 1.090216350555419922e+01 3.454260635375976562e+01 2.208091318607330322e-01 -7.150243520736694336e-01 -1.482645720243453979e-01 2.507053017616271973e-01
4.421000000000000000e+03 6.685389709472656250e+01 3.174262237548828125e+01 2.605636417865753174e-01 5.075625896453857422e+00 1.600856781005859375e+00 -3.422409892082214355e-01
4.422000000000000000e+03 6.992086029052734375e+01 3.198903846740722656e+01 1.588977575302124023e-01 5.751241207122802734e+00 1.773041605949401855e+00 -2.913895249366760254e-01
4.423000000000000000e+03 6.126123046875000000e+01 -3.304138565063476562e+01 5.744278430938720703e-01 3.836885452270507812e+00 1.323394060134887695e+00 4.040226340293884277e-01
4.424000000000000000e+03 3.947136306762695312e+01 2.050879478454589844e+01 3.589925467967987061e-01 4.892644286155700684e-01 2.544770836830139160e-01 2.703472971916198730e-01
4.425000000000000000e+03 5.394673919677734375e+01 -3.070574188232421875e+01 7.859491109848022461e-01 1.898425102233886719e+00 8.053122758865356445e-01 2.645494043827056885e-01
4.426000000000000000e+03 5.981727600097656250e+01 -3.103193855285644531e+01 6.034028530120849609e-01 3.358484983444213867e+00 1.188566327095031738e+00 4.490810334682464600e-01
4.427000000000000000e+03 2.789637756347656250e+01 1.554477310180664062e+01 -2.390622943639755249e-01 -2.563345730304718018e-01 -1.486190557479858398e-01 5.344983339309692383e-01
4.428000000000000000e+03 2.878116226196289062e+01 1.327573680877685547e+01 -2.937025725841522217e-01 -1.952673643827438354e-01 -1.466909795999526978e-01 6.174636483192443848e-01
4.429000000000000000e+03 5.336070632934570312e+01 -2.814811515808105469e+01 7.291349172592163086e-01 1.643194675445556641e+00 7.116988897323608398e-01 2.617059350013732910e-01
4.430000000000000000e+03 5.346685409545898438e+01 2.092723274230957031e+01 5.675414800643920898e-01 2.253190517425537109e+00 8.462195992469787598e-01 -3.464512825012207031e-01
4.431000000000000000e+03 2.942783164978027344e+01 -2.095243072509765625e+01 -1.097372025251388550e-01 -1.215358972549438477e-01 -6.938192993402481079e-02 -4.935515820980072021e-01
4.432000000000000000e+03 1.091558265686035156e+01 -3.468347930908203125e+01 1.229137703776359558e-01 -3.776164948940277100e-01 -7.641082257032394409e-02 -1.582157462835311890e-01
4.433000000000000000e+03 1.618608856201171875e+01 -2.701393127441406250e+01 6.746864318847656250e-02 -3.217052817344665527e-01 -7.627099007368087769e-02 -2.713069915771484375e-01
4.434000000000000000e+03 1.393248462677001953e+01 -2.833237838745117188e+01 8.454874157905578613e-02 -3.438003361225128174e-01 -7.777547091245651245e-02 -2.503310441970825195e-01
4.435000000000000000e+03 1.468601226806640625e+01 -3.120554161071777344e+01 1.445008516311645508e-01 -3.547217547893524170e-01 -6.306626647710800171e-02 -2.219371795654296875e-01
4.436000000000000000e+03 5.233422470092773438e+01 1.675378417968750000e+01 4.968015253543853760e-01 1.760652422904968262e+00 6.772361993789672852e-01 -2.892123460769653320e-01
4.437000000000000000e+03 6.048915481567382812e+01 2.059395027160644531e+01 3.968031108379364014e-01 3.663339376449584961e+00 1.218042731285095215e+00 -6.399351954460144043e-01
4.438000000000000000e+03 7.386867523193359375e+01 -3.849438476562500000e+01 8.269172906875610352e-02 7.056062221527099609e+00 2.141626119613647461e+00 4.254768788814544678e-02
4.439000000000000000e+03 1.324468135833740234e+01 2.923940277099609375e+01 2.024543285369873047e-01 -7.744681239128112793e-01 -1.716041415929794312e-01 3.790567219257354736e-01
4.440000000000000000e+03 1.654993820190429688e+01 3.087779808044433594e+01 3.109363317489624023e-01 -7.463082075119018555e-01 -1.306115537881851196e-01 2.886519134044647217e-01
4.441000000000000000e+03 2.304025459289550781e+01 -2.356462097167968750e+01 -2.099665254354476929e-02 -2.018844783306121826e-01 -6.686433404684066772e-02 -3.829439878463745117e-01
4.442000000000000000e+03 8.106481552124023438e+00 -4.100753784179687500e+01 7.921077311038970947e-02 -4.159755706787109375e-01 -1.010294333100318909e-01 -2.617134898900985718e-02
4.443000000000000000e+03 1.309444618225097656e+01 -3.313880157470703125e+01 1.402273476123809814e-01 -3.681022524833679199e-01 -6.836247444152832031e-02 -1.894432008266448975e-01
4.444000000000000000e+03 6.132911300659179688e+01 2.257011795043945312e+01 3.910435140132904053e-01 3.941687107086181641e+00 1.299819111824035645e+00 -5.990589857101440430e-01
4.445000000000000000e+03 6.404015350341796875e+01 2.291426658630371094e+01 3.133235275745391846e-01 4.568878650665283203e+00 1.464660644531250000e+00 -6.283833980560302734e-01
4.446000000000000000e+03 2.425661277770996094e+01 2.879020881652832031e+01 3.633362650871276855e-01 -4.875040352344512939e-01 -3.725032880902290344e-02 2.200758755207061768e-01
4.447000000000000000e+03 1.575712013244628906e+01 2.935177040100097656e+01 2.642761170864105225e-01 -7.852085828781127930e-01 -1.562797427177429199e-01 3.362269699573516846e-01
4.448000000000000000e+03 6.288743591308593750e+01 -3.172620010375976562e+01 4.554881155490875244e-01 4.255016326904296875e+00 1.413151264190673828e+00 5.659202933311462402e-01
4.449000000000000000e+03 3.887796401977539062e+01 -2.916612434387207031e+01 5.740641951560974121e-01 1.116625070571899414e-01 2.057180106639862061e-01 -3.225830197334289551e-01
4.450000000000000000e+03 4.527634429931640625e+01 -2.812100601196289062e+01 6.686446070671081543e-01 5.368444919586181641e-01 3.616467118263244629e-01 -1.732628643512725830e-01
4.451000000000000000e+03 1.223433208465576172e+01 -3.744567871093750000e+01 1.631612628698348999e-01 -3.848691880702972412e-01 -6.651237607002258301e-02 -1.081605479121208191e-01
4.452000000000000000e+03 2.255451011657714844e+01 -3.745589065551757812e+01 3.972257375717163086e-01 -3.228007256984710693e-01 2.232750132679939270e-02 -1.261714249849319458e-01
4.453000000000000000e+03 3.492655944824218750e+01 -3.845929336547851562e+01 7.477367520332336426e-01 -5.593605339527130127e-03 2.226429432630538940e-01 -9.791159629821777344e-02
4.454000000000000000e+03 4.364000320434570312e+01 -3.722267150878906250e+01 9.084122776985168457e-01 5.944187641143798828e-01 4.508492946624755859e-01 -6.952077895402908325e-02
4.455000000000000000e+03 5.948366546630859375e+01 -3.519777679443359375e+01 6.916514039039611816e-01 3.324387550354003906e+00 1.204811692237854004e+00 2.828699946403503418e-01
4.456000000000000000e+03 5.626436996459960938e+01 -3.689165496826171875e+01 8.089295625686645508e-01 2.658740282058715820e+00 1.040300965309143066e+00 1.861181259155273438e-01
4.457000000000000000e+03 6.653490447998046875e+01 3.740000915527343750e+01 2.742462456226348877e-01 5.095946788787841797e+00 1.611057877540588379e+00 -1.648258119821548462e-01
4.458000000000000000e+03 5.725460815429687500e+01 3.681468963623046875e+01 5.445570945739746094e-01 3.350746631622314453e+00 1.168591141700744629e+00 -1.495929658412933350e-01
4.459000000000000000e+03 3.597763061523437500e+01 3.641562652587890625e+01 6.922776699066162109e-01 4.401062726974487305e-01 3.397151827812194824e-01 4.345390573143959045e-02
4.460000000000000000e+03 1.885328674316406250e+01 3.716624832153320312e+01 4.485476315021514893e-01 -6.300314664840698242e-01 -5.444515496492385864e-02 1.233119815587997437e-01
4.461000000000000000e+03 2.305978202819824219e+01 3.782566070556640625e+01 5.379349589347839355e-01 -4.689604938030242920e-01 2.069233730435371399e-02 8.240407705307006836e-02
4.462000000000000000e+03 1.559039688110351562e+01 3.527940750122070312e+01 3.539358973503112793e-01 -7.046678662300109863e-01 -1.052195951342582703e-01 1.968561857938766479e-01
4.463000000000000000e+03 5.704873275756835938e+01 2.169467926025390625e+01 5.159584283828735352e-01 2.922063827514648438e+00 1.031406641006469727e+00 -5.076397061347961426e-01
4.464000000000000000e+03 5.763743591308593750e+01 2.770290184020996094e+01 5.279147624969482422e-01 3.193915605545043945e+00 1.116549134254455566e+00 -3.743640482425689697e-01
4.465000000000000000e+03 1.520082759857177734e+01 -3.539481735229492188e+01 2.062625735998153687e-01 -3.684504926204681396e-01 -4.865637421607971191e-02 -1.534633338451385498e-01
4.466000000000000000e+03 1.834705162048339844e+01 -2.733518791198730469e+01 9.272342920303344727e-02 -3.020144402980804443e-01 -6.278730928897857666e-02 -2.912156581878662109e-01
4.467000000000000000e+03 1.985872077941894531e+01 -2.439530944824218750e+01 -7.552423048764467239e-04 -2.525108456611633301e-01 -7.597982883453369141e-02 -3.243773281574249268e-01
4.468000000000000000e+03 2.342046737670898438e+01 -2.816172599792480469e+01 1.745625138282775879e-01 -2.563181221485137939e-01 -2.452668175101280212e-02 -3.307751715183258057e-01
4.469000000000000000e+03 5.032634735107421875e+01 1.866901016235351562e+01 5.285842418670654297e-01 1.545082092285156250e+00 6.220998764038085938e-01 -1.713260263204574585e-01
4.470000000000000000e+03 2.940124320983886719e+01 -2.838987922668457031e+01 2.937756180763244629e-01 -1.848459988832473755e-01 3.267888724803924561e-02 -3.710847198963165283e-01
4.471000000000000000e+03 2.930469703674316406e+01 2.114359664916992188e+01 8.502975106239318848e-02 -1.891912519931793213e-01 -3.124845027923583984e-02 3.464549779891967773e-01
4.472000000000000000e+03 6.392234039306640625e+01 2.624353790283203125e+01 3.411740660667419434e-01 4.546280384063720703e+00 1.466236352920532227e+00 -5.288771986961364746e-01
4.473000000000000000e+03 6.621582031250000000e+01 3.425583648681640625e+01 2.768369019031524658e-01 5.016174793243408203e+00 1.587903499603271484e+00 -2.664138972759246826e-01
4.474000000000000000e+03 2.773348999023437500e+01 2.246252250671386719e+01 1.111510768532752991e-01 -2.890232801437377930e-01 -5.336165800690650940e-02 3.117368519306182861e-01
4.475000000000000000e+03 4.109041976928710938e+01 -3.311783981323242188e+01 7.825083732604980469e-01 3.129304945468902588e-01 3.286316394805908203e-01 -1.865829527378082275e-01
4.476000000000000000e+03 4.432161712646484375e+01 -3.389355087280273438e+01 8.639016151428222656e-01 6.141071319580078125e-01 4.434026181697845459e-01 -1.067592427134513855e-01
4.477000000000000000e+03 2.038189697265625000e+01 3.407147598266601562e+01 4.480546116828918457e-01 -6.063742637634277344e-01 -4.749588295817375183e-02 1.810436099767684937e-01
4.478000000000000000e+03 4.788793945312500000e+01 2.047664642333984375e+01 5.438719391822814941e-01 1.351829767227172852e+00 5.687105059623718262e-01 -7.610192149877548218e-02
4.479000000000000000e+03 2.361749458312988281e+01 3.472984695434570312e+01 5.128217339515686035e-01 -4.650803208351135254e-01 1.432242989540100098e-02 1.328317075967788696e-01
4.480000000000000000e+03 4.390873336791992188e+01 2.416596221923828125e+01 5.736425518989562988e-01 1.049247264862060547e+00 4.868669509887695312e-01 5.430989712476730347e-02
4.481000000000000000e+03 4.252507400512695312e+01 2.199088287353515625e+01 4.988911151885986328e-01 8.381039500236511230e-01 4.010985195636749268e-01 1.394428461790084839e-01
4.482000000000000000e+03 4.785578918457031250e+01 -3.430073928833007812e+01 9.065620303153991699e-01 1.040357112884521484e+00 5.840757489204406738e-01 -1.550579816102981567e-02
4.483000000000000000e+03 1.962849998474121094e+01 -3.358556365966796875e+01 2.682546675205230713e-01 -3.362984061241149902e-01 -2.041312307119369507e-02 -2.131547927856445312e-01
4.484000000000000000e+03 3.460848236083984375e+01 -3.347886657714843750e+01 6.370559930801391602e-01 -4.119110479950904846e-02 1.787594705820083618e-01 -2.362100630998611450e-01
4.485000000000000000e+03 5.630661392211914062e+01 3.288532638549804688e+01 5.642615556716918945e-01 3.152826309204101562e+00 1.115126371383666992e+00 -2.350648343563079834e-01
4.486000000000000000e+03 3.309239196777343750e+01 -3.134129905700683594e+01 5.090726017951965332e-01 -1.203612089157104492e-01 1.166134253144264221e-01 -3.121787309646606445e-01
4.487000000000000000e+03 3.709646224975585938e+01 2.344361877441406250e+01 4.151940047740936279e-01 3.803018629550933838e-01 2.386487573385238647e-01 2.349941581487655640e-01
4.488000000000000000e+03 3.322860717773437500e+01 2.468911170959472656e+01 3.466374576091766357e-01 8.177110552787780762e-02 1.285225749015808105e-01 2.477552145719528198e-01
4.489000000000000000e+03 3.996073150634765625e+01 2.326340484619140625e+01 4.739378392696380615e-01 6.127694249153137207e-01 3.260121941566467285e-01 1.861653029918670654e-01
4.490000000000000000e+03 2.703412818908691406e+01 3.179177474975585938e+01 5.085892677307128906e-01 -2.826459109783172607e-01 6.778299808502197266e-02 1.555781364440917969e-01
4.491000000000000000e+03 5.515412902832031250e+01 2.146096420288085938e+01 5.610219836235046387e-01 2.587411642074584961e+00 9.445300698280334473e-01 -4.514511525630950928e-01
4.492000000000000000e+03 2.626138305664062500e+01 -2.812661743164062500e+01 2.164172232151031494e-01 -2.249607592821121216e-01 -2.563060959801077843e-03 -3.584481179714202881e-01
4.493000000000000000e+03 2.283758354187011719e+01 -3.408894348144531250e+01 3.485283255577087402e-01 -3.063996732234954834e-01 1.263859402388334274e-02 -2.176914960145950317e-01
4.494000000000000000e+03 6.032867431640625000e+01 2.618894767761230469e+01 4.459424018859863281e-01 3.782041549682617188e+00 1.268395185470581055e+00 -4.674378037452697754e-01
4.495000000000000000e+03 4.462535476684570312e+01 2.056956863403320312e+01 4.871838986873626709e-01 9.781209826469421387e-01 4.395914673805236816e-01 8.772083371877670288e-02
4.496000000000000000e+03 6.205281829833984375e+01 2.848969268798828125e+01 3.976606428623199463e-01 4.184456348419189453e+00 1.374635100364685059e+00 -4.424313306808471680e-01
4.497000000000000000e+03 3.557116699218750000e+01 -3.123503684997558594e+01 5.832837224006652832e-01 -4.897234030067920685e-03 1.735159456729888916e-01 -3.072629868984222412e-01
4.498000000000000000e+03 2.999287033081054688e+01 2.911692428588867188e+01 4.556940495967864990e-01 -1.159716397523880005e-01 1.019167229533195496e-01 1.756734997034072876e-01
4.499000000000000000e+03 5.233858489990234375e+01 3.372092056274414062e+01 6.465078592300415039e-01 2.445484638214111328e+00 9.275977015495300293e-01 -1.453344523906707764e-01
4.500000000000000000e+03 5.461708450317382812e+01 2.926112937927246094e+01 5.929626226425170898e-01 2.738298654556274414e+00 9.993783235549926758e-01 -2.802177965641021729e-01
4.501000000000000000e+03 5.105173873901367188e+01 -3.118884468078613281e+01 8.214484453201293945e-01 1.410780549049377441e+00 6.696687340736389160e-01 1.216118484735488892e-01
4.502000000000000000e+03 2.609077453613281250e+01 -3.105346488952636719e+01 3.284525871276855469e-01 -2.476695030927658081e-01 2.423492819070816040e-02 -3.021557331085205078e-01
4.503000000000000000e+03 5.433440017700195312e+01 2.406241416931152344e+01 5.767225623130798340e-01 2.517733812332153320e+00 9.283369183540344238e-01 -3.566320836544036865e-01
4.504000000000000000e+03 1.787023544311523438e+01 -2.990415000915527344e+01 1.608085483312606812e-01 -3.267749547958374023e-01 -4.978992417454719543e-02 -2.593894004821777344e-01
4.505000000000000000e+03 5.686383056640625000e+01 2.452049636840820312e+01 5.274626612663269043e-01 2.972863435745239258e+00 1.050097823143005371e+00 -4.210093319416046143e-01
4.506000000000000000e+03 5.889628219604492188e+01 2.151019477844238281e+01 4.607822299003601074e-01 3.287593603134155273e+00 1.124512791633605957e+00 -5.450103878974914551e-01
4.507000000000000000e+03 6.271536636352539062e+01 3.331277847290039062e+01 4.005333185195922852e-01 4.294814586639404297e+00 1.408604383468627930e+00 -2.802450656890869141e-01
4.508000000000000000e+03 3.143837547302246094e+01 2.681531333923339844e+01 3.990923166275024414e-01 -3.592665493488311768e-02 1.089496910572052002e-01 2.100756317377090454e-01
4.509000000000000000e+03 6.669337463378906250e+01 -3.761026382446289062e+01 3.760736286640167236e-01 5.274521350860595703e+00 1.695178508758544922e+00 2.154975533485412598e-01
4.510000000000000000e+03 2.732873153686523438e+01 3.792084884643554688e+01 6.119565963745117188e-01 -2.495797723531723022e-01 1.087130457162857056e-01 6.041563674807548523e-02
4.511000000000000000e+03 3.262665557861328125e+01 -3.540607833862304688e+01 6.194597482681274414e-01 -1.155490279197692871e-01 1.511732190847396851e-01 -1.978986114263534546e-01
4.512000000000000000e+03 5.199608230590820312e+01 -3.749822235107421875e+01 9.293571710586547852e-01 1.778427600860595703e+00 8.123354315757751465e-01 6.059954687952995300e-02
4.513000000000000000e+03 2.993330383300781250e+01 -3.679483032226562500e+01 5.803874731063842773e-01 -1.867351979017257690e-01 1.180956736207008362e-01 -1.694010049104690552e-01
4.514000000000000000e+03 2.648738861083984375e+01 -3.739796447753906250e+01 5.095462203025817871e-01 -2.597188055515289307e-01 7.494822889566421509e-02 -1.404498070478439331e-01
4.515000000000000000e+03 4.758871841430664062e+01 4.063857269287109375e+01 7.278479337692260742e-01 1.784828543663024902e+00 7.538029551506042480e-01 -9.834298864006996155e-03
4.516000000000000000e+03 5.249320602416992188e+01 2.257764244079589844e+01 5.959572792053222656e-01 2.126637458801269531e+00 8.167784214019775391e-01 -2.846758365631103516e-01
4.517000000000000000e+03 3.888489913940429688e+01 2.845093917846679688e+01 5.912094116210937500e-01 6.088457107543945312e-01 3.600165247917175293e-01 1.196203976869583130e-01
4.518000000000000000e+03 3.447011184692382812e+01 2.247905158996582031e+01 3.059850931167602539e-01 1.563754528760910034e-01 1.387081593275070190e-01 2.931514084339141846e-01
4.519000000000000000e+03 5.243471527099609375e+01 2.638627052307128906e+01 6.048766374588012695e-01 2.264272212982177734e+00 8.607446551322937012e-01 -2.592649757862091064e-01
4.520000000000000000e+03 4.556498336791992188e+01 2.610335159301757812e+01 6.066390275955200195e-01 1.256696820259094238e+00 5.590007305145263672e-01 -1.068882923573255539e-02
4.521000000000000000e+03 3.217822647094726562e+01 3.067226791381835938e+01 5.339039564132690430e-01 6.892978399991989136e-02 1.808501183986663818e-01 1.342592686414718628e-01
4.522000000000000000e+03 2.892562484741210938e+01 -3.122131347656250000e+01 3.961559534072875977e-01 -2.033638209104537964e-01 5.783763900399208069e-02 -3.108299970626831055e-01
4.523000000000000000e+03 4.795288467407226562e+01 3.703579711914062500e+01 7.108737826347351074e-01 1.814586162567138672e+00 7.576379776000976562e-01 -4.060117900371551514e-02
4.524000000000000000e+03 3.069256019592285156e+01 3.440740203857421875e+01 6.135575175285339355e-01 -2.267348393797874451e-02 1.772651970386505127e-01 9.794583171606063843e-02
4.525000000000000000e+03 5.016694259643554688e+01 2.842108154296875000e+01 6.503867506980895996e-01 1.999975204467773438e+00 7.951085567474365234e-01 -1.613447666168212891e-01
4.526000000000000000e+03 4.769887542724609375e+01 2.728127098083496094e+01 6.576239466667175293e-01 1.628854155540466309e+00 6.859434247016906738e-01 -1.132118180394172668e-01
4.527000000000000000e+03 5.173617935180664062e+01 3.066591835021972656e+01 6.441799402236938477e-01 2.302630186080932617e+00 8.840430378913879395e-01 -1.788445264101028442e-01
4.528000000000000000e+03 3.394746780395507812e+01 3.318820953369140625e+01 6.179383397102355957e-01 2.276226580142974854e-01 2.536683082580566406e-01 8.875433355569839478e-02
4.529000000000000000e+03 4.625930786132812500e+01 2.985312652587890625e+01 6.903194785118103027e-01 1.491578578948974609e+00 6.545693874359130859e-01 -6.391825526952743530e-02
4.530000000000000000e+03 4.780426406860351562e+01 2.473634147644042969e+01 6.069734096527099609e-01 1.554818987846374512e+00 6.485376954078674316e-01 -9.222982078790664673e-02
4.531000000000000000e+03 4.365645217895507812e+01 2.827461051940917969e+01 6.487866640090942383e-01 1.116175293922424316e+00 5.294885635375976562e-01 1.341012399643659592e-02
4.532000000000000000e+03 3.602108764648437500e+01 2.629785728454589844e+01 4.762108922004699707e-01 3.243183493614196777e-01 2.401587665081024170e-01 1.811335980892181396e-01
4.533000000000000000e+03 4.166008377075195312e+01 3.092468070983886719e+01 6.801707148551940918e-01 9.635312557220458984e-01 4.931105971336364746e-01 3.153960034251213074e-02
4.534000000000000000e+03 3.941682052612304688e+01 3.401776885986328125e+01 6.922288537025451660e-01 7.380453348159790039e-01 4.290822744369506836e-01 3.960724920034408569e-02
4.535000000000000000e+03 1.787289428710937500e+01 -7.294122219085693359e+00 -3.501147031784057617e-02 -2.136628329753875732e-02 -1.691332645714282990e-02 -3.227053210139274597e-02
4.536000000000000000e+03 1.858609580993652344e+01 -3.509207010269165039e+00 -1.607210957445204258e-03 1.268708799034357071e-02 3.323963144794106483e-03 3.486048895865678787e-03
4.537000000000000000e+03 3.982618451118469238e-01 -2.190594196319580078e+00 1.893046282930299640e-04 -8.379499377042520791e-06 5.427754149422980845e-05 3.809275585808791220e-05
4.538000000000000000e+03 6.581743621826171875e+01 -4.694005966186523438e+00 6.803093552589416504e-01 1.867031574249267578e+00 7.642022967338562012e-01 -2.790076732635498047e+00
4.539000000000000000e+03 6.661114501953125000e+01 -4.778585433959960938e+00 1.962598681449890137e+00 4.230916023254394531e+00 1.858054518699645996e+00 -4.833371639251708984e+00
4.540000000000000000e+03 6.680625152587890625e+01 -4.766399860382080078e+00 2.033158540725708008e+00 5.271956443786621094e+00 2.191534519195556641e+00 -5.423136711120605469e+00
4.541000000000000000e+03 6.699094390869140625e+01 -4.550640583038330078e+00 1.674228072166442871e+00 6.923852920532226562e+00 2.579424142837524414e+00 -5.910917282104492188e+00
4.542000000000000000e+03 6.800350952148437500e+01 -4.714492797851562500e+00 2.899075150489807129e-01 1.643710708618164062e+01 5.018104553222656250e+00 -5.803245067596435547e+00
4.543000000000000000e+03 6.863034820556640625e+01 -4.778981685638427734e+00 7.542142271995544434e-02 2.011923599243164062e+01 6.058397293090820312e+00 -2.075666427612304688e+00
4.544000000000000000e+03 6.843231964111328125e+01 -4.406002521514892578e+00 -4.386226832866668701e-01 1.757634544372558594e+01 5.141316413879394531e+00 -3.385802745819091797e+00
4.545000000000000000e+03 6.919939422607421875e+01 -4.219009876251220703e+00 5.577199533581733704e-02 1.742664718627929688e+01 5.244726181030273438e+00 -3.155626952648162842e-01
4.546000000000000000e+03 6.952326965332031250e+01 -4.785086631774902344e+00 2.309779644012451172e+00 1.811623001098632812e+01 6.127802848815917969e+00 1.607909560203552246e+00
4.547000000000000000e+03 6.984712219238281250e+01 -5.234447002410888672e+00 4.878385066986083984e+00 1.703780937194824219e+01 6.574858665466308594e+00 2.504266977310180664e+00
4.548000000000000000e+03 7.017900085449218750e+01 -5.976478576660156250e+00 7.760738849639892578e+00 1.497030925750732422e+01 6.819314479827880859e+00 1.278142213821411133e+00
4.549000000000000000e+03 7.023996734619140625e+01 -6.244016647338867188e+00 8.050642013549804688e+00 1.469066429138183594e+01 6.822391986846923828e+00 4.271827042102813721e-01
4.550000000000000000e+03 6.988899993896484375e+01 -7.370947837829589844e+00 5.964248657226562500e+00 1.681702804565429688e+01 6.834382534027099609e+00 -2.515022993087768555e+00
4.551000000000000000e+03 6.971051788330078125e+01 -7.505798339843750000e+00 5.124094963073730469e+00 1.770225143432617188e+01 6.847904205322265625e+00 -2.532355785369873047e+00
4.552000000000000000e+03 6.952300262451171875e+01 -7.906823635101318359e+00 2.709262132644653320e+00 1.835068130493164062e+01 6.317982673645019531e+00 -1.800700187683105469e+00
4.553000000000000000e+03 6.947875213623046875e+01 -8.266611099243164062e+00 1.312127947807312012e+00 1.772603416442871094e+01 5.711448669433593750e+00 -9.902263283729553223e-01
4.554000000000000000e+03 6.884120178222656250e+01 -7.870636940002441406e+00 8.924297094345092773e-01 2.095871734619140625e+01 6.555344581604003906e+00 4.491549134254455566e-01
4.555000000000000000e+03 6.803223419189453125e+01 -8.414946556091308594e+00 -1.481995731592178345e-01 1.533587837219238281e+01 4.556303977966308594e+00 5.100644111633300781e+00
4.556000000000000000e+03 6.761845397949218750e+01 -8.042327880859375000e+00 1.301847457885742188e+00 1.233410930633544922e+01 4.090786933898925781e+00 6.826213836669921875e+00
4.557000000000000000e+03 6.762045288085937500e+01 -8.325365066528320312e+00 8.222523927688598633e-01 1.207080173492431641e+01 3.867916107177734375e+00 6.289073944091796875e+00
4.558000000000000000e+03 6.723506927490234375e+01 -8.351435661315917969e+00 1.359148979187011719e+00 9.054090499877929688e+00 3.123971939086914062e+00 6.147611141204833984e+00
4.559000000000000000e+03 6.681246948242187500e+01 -8.454656600952148438e+00 1.463681101799011230e+00 6.418440818786621094e+00 2.364636421203613281e+00 5.441917896270751953e+00
4.560000000000000000e+03 6.619691467285156250e+01 -8.066058158874511719e+00 1.304385662078857422e+00 2.594355106353759766e+00 1.169622182846069336e+00 3.580027818679809570e+00
4.561000000000000000e+03 6.618051147460937500e+01 -8.433841705322265625e+00 1.296745181083679199e+00 3.551704645156860352e+00 1.454534888267517090e+00 4.045791149139404297e+00
4.562000000000000000e+03 6.567984008789062500e+01 -8.291842460632324219e+00 6.175153255462646484e-01 1.972430825233459473e+00 7.769838571548461914e-01 2.848579645156860352e+00
4.563000000000000000e+03 1.808260154724121094e+01 -7.655762195587158203e+00 -4.755095392465591431e-02 -2.261660061776638031e-02 -2.105026692152023315e-02 -3.657927736639976501e-02
4.564000000000000000e+03 1.839802932739257812e+01 -7.929240226745605469e+00 -8.342203497886657715e-02 -4.847497865557670593e-02 -3.956910595297813416e-02 -7.997077703475952148e-02
4.565000000000000000e+03 1.781079673767089844e+01 -8.027554512023925781e+00 -5.758129060268402100e-02 -4.704471677541732788e-02 -3.138780221343040466e-02 -6.011021137237548828e-02
4.566000000000000000e+03 1.761120986938476562e+01 -7.480706214904785156e+00 -2.295308932662010193e-02 -3.859774395823478699e-02 -1.846525073051452637e-02 -3.070592321455478668e-02
4.567000000000000000e+03 7.804985809326171875e+01 4.162417602539062500e+01 6.674180179834365845e-02 6.989115715026855469e+00 2.116757154464721680e+00 -1.871782913804054260e-02
4.568000000000000000e+03 9.990197181701660156e+00 -2.134831428527832031e+01 -1.201444715261459351e-01 -2.965597212314605713e-01 -1.250112652778625488e-01 -2.515968084335327148e-01
4.569000000000000000e+03 7.037619781494140625e+01 -7.051057815551757812e+00 6.608194351196289062e+00 1.457868766784667969e+01 6.356064796447753906e+00 -1.694149374961853027e+00
4.570000000000000000e+03 6.571674346923828125e+01 -3.746927976608276367e+00 7.314680814743041992e-01 3.331022977828979492e+00 1.218747377395629883e+00 -3.634005784988403320e+00
4.571000000000000000e+03 6.626918029785156250e+01 -8.811634063720703125e+00 1.056322216987609863e+00 4.491610050201416016e+00 1.664379715919494629e+00 4.343464374542236328e+00
4.572000000000000000e+03 6.617324066162109375e+01 -4.211298942565917969e+00 1.099265456199645996e+00 3.897966861724853516e+00 1.499169707298278809e+00 -4.123450756072998047e+00
4.573000000000000000e+03 6.598699188232421875e+01 -3.930263280868530273e+00 9.440150856971740723e-01 3.787616014480590820e+00 1.419489264488220215e+00 -3.967080831527709961e+00
4.574000000000000000e+03 6.590822601318359375e+01 -8.426379203796386719e+00 9.713314175605773926e-01 2.811764717102050781e+00 1.134928822517395020e+00 3.502880096435546875e+00
4.575000000000000000e+03 6.652749633789062500e+01 -4.592836856842041016e+00 1.691157221794128418e+00 4.348684310913085938e+00 1.811952471733093262e+00 -4.740806102752685547e+00
4.576000000000000000e+03 2.170341110229492188e+01 -1.973976850509643555e+00 -8.575102686882019043e-02 -1.390338391065597534e-01 -6.743545830249786377e-02 1.529338061809539795e-01
4.577000000000000000e+03 7.009169006347656250e+01 -7.652436733245849609e+00 4.540397644042968750e+00 1.597593402862548828e+01 6.154899597167968750e+00 -2.372997045516967773e+00
4.578000000000000000e+03 6.983466339111328125e+01 -7.720273494720458984e+00 4.047660350799560547e+00 1.707245063781738281e+01 6.336033344268798828e+00 -2.317804574966430664e+00
4.579000000000000000e+03 6.883734130859375000e+01 -4.028133392333984375e+00 -6.456694602966308594e-01 1.661606025695800781e+01 4.791117191314697266e+00 -1.835667014122009277e+00
4.580000000000000000e+03 6.820905303955078125e+01 -4.386126041412353516e+00 -3.480867743492126465e-01 1.635102653503417969e+01 4.800881862640380859e+00 -4.388463020324707031e+00
4.581000000000000000e+03 6.762026977539062500e+01 -4.113797187805175781e+00 1.741977781057357788e-01 1.183606719970703125e+01 3.603079319000244141e+00 -5.665905475616455078e+00
4.582000000000000000e+03 6.700416564941406250e+01 -4.357686519622802734e+00 1.374686598777770996e+00 7.531761169433593750e+00 2.671934366226196289e+00 -5.783005714416503906e+00
4.583000000000000000e+03 6.722025299072265625e+01 -4.070493698120117188e+00 6.763961315155029297e-01 9.326503753662109375e+00 3.000869989395141602e+00 -5.665614604949951172e+00
4.584000000000000000e+03 6.681803131103515625e+01 -4.545495510101318359e+00 1.719231367111206055e+00 5.946872711181640625e+00 2.299831390380859375e+00 -5.434891223907470703e+00
4.585000000000000000e+03 6.951082611083984375e+01 -8.740831375122070312e+00 1.478200107812881470e-01 1.661078643798828125e+01 5.027581691741943359e+00 -2.580414116382598877e-01
4.586000000000000000e+03 6.841437530517578125e+01 -8.377999305725097656e+00 -3.717182576656341553e-01 1.740565872192382812e+01 5.110182285308837891e+00 3.605032205581665039e+00
4.587000000000000000e+03 6.865579986572265625e+01 -8.624306678771972656e+00 -6.312547326087951660e-01 1.688036537170410156e+01 4.874732971191406250e+00 2.344516277313232422e+00
4.588000000000000000e+03 6.826317596435546875e+01 -8.583537101745605469e+00 -4.809809029102325439e-01 1.588212299346923828e+01 4.620342731475830078e+00 4.112654209136962891e+00
4.589000000000000000e+03 7.815576171875000000e+01 -3.588106155395507812e+01 -2.256809733808040619e-02 8.176727294921875000e+00 2.446247816085815430e+00 1.011056676506996155e-01
4.590000000000000000e+03 6.521956634521484375e+01 -8.855023384094238281e+00 5.186223983764648438e-01 2.153748750686645508e+00 8.017113804817199707e-01 2.803615808486938477e+00
4.591000000000000000e+03 6.745243072509765625e+01 -8.604580879211425781e+00 6.885123848915100098e-01 1.060733509063720703e+01 3.388754367828369141e+00 5.935797214508056641e+00
4.592000000000000000e+03 6.778131866455078125e+01 -8.599179267883300781e+00 5.724015831947326660e-02 1.305630493164062500e+01 3.934063434600830078e+00 5.385343074798583984e+00
4.593000000000000000e+03 6.814648437500000000e+01 -8.824309349060058594e+00 -5.989704132080078125e-01 1.439445400238037109e+01 4.138645172119140625e+00 4.355713367462158203e+00
4.594000000000000000e+03 2.040596485137939453e+00 3.719559860229492188e+01 1.054453290998935699e-02 -7.946988940238952637e-01 -2.352463155984878540e-01 5.085407942533493042e-02
4.595000000000000000e+03 7.684436798095703125e+01 -3.321694564819335938e+01 1.738700270652770996e-02 7.956372261047363281e+00 2.392127752304077148e+00 1.473556458950042725e-01
4.596000000000000000e+03 7.058107757568359375e+01 -5.871325016021728516e+00 6.540914535522460938e+00 1.384407806396484375e+01 6.115497589111328125e+00 1.249560713768005371e+00
4.597000000000000000e+03 1.557188606262207031e+01 2.181668281555175781e+01 -1.533948630094528198e-01 -9.932109713554382324e-01 -3.439817428588867188e-01 4.760258197784423828e-01
4.598000000000000000e+03 6.542462158203125000e+01 -9.103305816650390625e+00 6.366373896598815918e-01 2.799811840057373047e+00 1.030934810638427734e+00 3.210855722427368164e+00
4.599000000000000000e+03 6.042685508728027344e+00 -3.371807098388671875e+00 1.290352156502194703e-05 -1.542422105558216572e-04 -4.240160706103779376e-05 -1.896452886285260320e-04
4.600000000000000000e+03 6.915074157714843750e+01 -8.769111633300781250e+00 -2.895820736885070801e-01 1.672088050842285156e+01 4.929389953613281250e+00 7.225083112716674805e-01
4.601000000000000000e+03 6.876599884033203125e+01 -8.402607917785644531e+00 -2.228519469499588013e-01 1.799721717834472656e+01 5.332309722900390625e+00 1.785931944847106934e+00
4.602000000000000000e+03 6.775859832763671875e+01 -3.831259489059448242e+00 -2.360443770885467529e-01 1.211778450012207031e+01 3.564522027969360352e+00 -5.029334545135498047e+00
4.603000000000000000e+03 7.017991638183593750e+01 -5.024549484252929688e+00 4.066716194152832031e+00 1.570310211181640625e+01 5.930945396423339844e+00 2.287513256072998047e+00
4.604000000000000000e+03 6.665822601318359375e+01 -3.861725330352783203e+00 9.599813818931579590e-01 6.291643142700195312e+00 2.175487279891967773e+00 -5.112857818603515625e+00
4.605000000000000000e+03 9.050023078918457031e+00 -2.253465843200683594e+01 -7.920973002910614014e-02 -2.716777920722961426e-01 -1.052662581205368042e-01 -2.494014352560043335e-01
4.606000000000000000e+03 6.832888793945312500e+01 -3.866272687911987305e+00 -8.128609657287597656e-01 1.506768417358398438e+01 4.276446819305419922e+00 -3.596640348434448242e+00
4.607000000000000000e+03 3.529170989990234375e+00 3.607408905029296875e+01 4.632989689707756042e-02 -7.426995635032653809e-01 -2.089108973741531372e-01 1.091079935431480408e-01
4.608000000000000000e+03 6.619443511962890625e+01 -9.445851325988769531e+00 6.156598925590515137e-01 5.331569671630859375e+00 1.784168958663940430e+00 4.302463531494140625e+00
4.609000000000000000e+03 6.768254852294921875e+01 -8.779254913330078125e+00 -1.352086383849382401e-02 1.200976943969726562e+01 3.598874568939208984e+00 5.268621444702148438e+00
4.610000000000000000e+03 6.808545684814453125e+01 -9.091339111328125000e+00 -6.570618152618408203e-01 1.345150184631347656e+01 3.838331937789916992e+00 4.157196044921875000e+00
4.611000000000000000e+03 6.815244293212890625e+01 -9.460957527160644531e+00 -8.784788250923156738e-01 1.282392120361328125e+01 3.583632707595825195e+00 3.719654560089111328e+00
4.612000000000000000e+03 6.508290863037109375e+01 -9.411300659179687500e+00 3.924852907657623291e-01 2.547439098358154297e+00 8.819773197174072266e-01 2.950567960739135742e+00
4.613000000000000000e+03 7.061412048339843750e+01 -8.544993400573730469e+00 1.909855961799621582e+00 1.429992198944091797e+01 4.862933158874511719e+00 -1.864723920822143555e+00
4.614000000000000000e+03 6.556146240234375000e+01 -3.041775465011596680e+00 4.281657040119171143e-01 3.824187278747558594e+00 1.275705933570861816e+00 -3.566677331924438477e+00
4.615000000000000000e+03 6.540570068359375000e+01 -2.497637271881103516e+00 2.443723082542419434e-01 3.990987300872802734e+00 1.270607829093933105e+00 -3.479929685592651367e+00
4.616000000000000000e+03 4.207570552825927734e+00 -2.257975006103515625e+01 -3.959333896636962891e-02 -1.242116317152976990e-01 -4.914148896932601929e-02 -1.177643761038780212e-01
4.617000000000000000e+03 6.819982147216796875e+01 2.787783432006835938e+01 2.245976477861404419e-01 5.414888381958007812e+00 1.691845774650573730e+00 -4.361486732959747314e-01
4.618000000000000000e+03 6.483290100097656250e+01 -2.474090337753295898e+00 1.520312875509262085e-01 3.107673645019531250e+00 9.779114723205566406e-01 -2.974629163742065430e+00
4.619000000000000000e+03 1.476804447174072266e+01 3.084026336669921875e+01 2.822639942169189453e-01 -7.615928649902343750e-01 -1.437986642122268677e-01 3.142649829387664795e-01
4.620000000000000000e+03 7.052795410156250000e+01 -4.856078624725341797e+00 3.599260807037353516e+00 1.463274288177490234e+01 5.469601154327392578e+00 2.161205291748046875e+00
4.621000000000000000e+03 7.101215362548828125e+01 -4.940446853637695312e+00 3.803482294082641602e+00 1.335107135772705078e+01 5.146366119384765625e+00 1.992336273193359375e+00
4.622000000000000000e+03 7.047460174560546875e+01 -4.569760322570800781e+00 2.685736656188964844e+00 1.483075046539306641e+01 5.254946231842041016e+00 2.036650896072387695e+00
4.623000000000000000e+03 6.690645599365234375e+01 -8.779994964599609375e+00 9.526963233947753906e-01 7.409527778625488281e+00 2.508667230606079102e+00 5.408308982849121094e+00
4.624000000000000000e+03 6.726716613769531250e+01 -8.888998031616210938e+00 4.346444010734558105e-01 9.462073326110839844e+00 2.969015359878540039e+00 5.478312969207763672e+00
4.625000000000000000e+03 6.727389526367187500e+01 -8.625867843627929688e+00 8.355999588966369629e-01 9.654852867126464844e+00 3.147135972976684570e+00 5.897279739379882812e+00
4.626000000000000000e+03 6.986406707763671875e+01 -7.998943805694580078e+00 2.802877664566040039e+00 1.682944488525390625e+01 5.889696598052978516e+00 -2.031189918518066406e+00
4.627000000000000000e+03 4.364564895629882812e+00 4.488820075988769531e+00 3.508057561703026295e-04 -3.404149611014872789e-04 3.117243750239140354e-06 5.654283086187206209e-05
4.628000000000000000e+03 6.580685424804687500e+01 -1.017893695831298828e+01 2.904833853244781494e-01 4.792219638824462891e+00 1.524810910224914551e+00 3.721657991409301758e+00
4.629000000000000000e+03 6.603979492187500000e+01 -9.999408721923828125e+00 3.140640258789062500e-01 5.336671829223632812e+00 1.695220708847045898e+00 4.038035392761230469e+00
4.630000000000000000e+03 6.749884796142578125e+01 -8.890840530395507812e+00 1.160845458507537842e-01 1.074744701385498047e+01 3.259059429168701172e+00 5.327655792236328125e+00
4.631000000000000000e+03 6.643334197998046875e+01 -2.468059062957763672e+00 -5.600886046886444092e-02 6.609322071075439453e+00 1.965994000434875488e+00 -4.115427017211914062e+00
4.632000000000000000e+03 6.535276794433593750e+01 -9.674412727355957031e+00 4.539037048816680908e-01 3.351196289062500000e+00 1.141530036926269531e+00 3.331156969070434570e+00
4.633000000000000000e+03 6.858551788330078125e+01 -3.369656801223754883e+00 -1.107105374336242676e+00 1.416227722167968750e+01 3.916551589965820312e+00 -2.704982757568359375e+00
4.634000000000000000e+03 1.920213890075683594e+01 -1.441301536560058594e+01 -3.572818636894226074e-01 -9.443311393260955811e-02 -1.355144977569580078e-01 -3.132697939872741699e-01
4.635000000000000000e+03 7.027530670166015625e+01 -4.272515296936035156e+00 1.641672968864440918e+00 1.514260768890380859e+01 5.035284042358398438e+00 1.696298599243164062e+00
4.636000000000000000e+03 4.900129318237304688e+01 3.082389259338378906e+01 6.725339889526367188e-01 1.856634378433227539e+00 7.587504982948303223e-01 -1.020485460758209229e-01
4.637000000000000000e+03 2.988694953918457031e+01 3.164485740661621094e+01 5.282257199287414551e-01 -1.055568754673004150e-01 1.268006563186645508e-01 1.380876898765563965e-01
4.638000000000000000e+03 4.824374198913574219e+00 -2.458721160888671875e+01 -2.138043940067291260e-02 -1.928883790969848633e-01 -6.428064405918121338e-02 -1.562444716691970825e-01
4.639000000000000000e+03 5.477026462554931641e+00 3.520946121215820312e+01 8.966486155986785889e-02 -6.950526237487792969e-01 -1.816163212060928345e-01 1.724462062120437622e-01
4.640000000000000000e+03 6.782741546630859375e+01 -9.521457672119140625e+00 -6.839171648025512695e-01 1.156190490722656250e+01 3.263396263122558594e+00 4.277851581573486328e+00
4.641000000000000000e+03 7.181495666503906250e+01 -7.576300621032714844e+00 3.798865556716918945e+00 1.169572925567626953e+01 4.648378372192382812e+00 -1.497976303100585938e+00
4.642000000000000000e+03 6.636758422851562500e+01 -1.950822353363037109e+00 -2.615591883659362793e-01 6.593524456024169922e+00 1.899589538574218750e+00 -3.857748031616210938e+00
4.643000000000000000e+03 6.632376098632812500e+01 -1.431832909584045410e+00 -4.272014498710632324e-01 6.545226573944091797e+00 1.835407614707946777e+00 -3.607128143310546875e+00
4.644000000000000000e+03 7.026600646972656250e+01 -8.370387077331542969e+00 2.124387502670288086e+00 1.525647830963134766e+01 5.214259624481201172e+00 -1.845327377319335938e+00
4.645000000000000000e+03 7.023457336425781250e+01 -8.000221252441406250e+00 3.172251701354980469e+00 1.545385456085205078e+01 5.587831974029541016e+00 -2.153763532638549805e+00
4.646000000000000000e+03 6.489942169189453125e+01 -1.050663661956787109e+01 2.437907755374908447e-01 3.365033388137817383e+00 1.082647323608398438e+00 3.024224042892456055e+00
4.647000000000000000e+03 6.737577056884765625e+01 -9.398730278015136719e+00 -1.787016242742538452e-01 9.903887748718261719e+00 2.917555809020996094e+00 4.853137493133544922e+00
4.648000000000000000e+03 1.112884044647216797e+01 -2.602829551696777344e+01 2.196441404521465302e-02 -3.319322168827056885e-01 -9.299033880233764648e-02 -2.547889947891235352e-01
4.649000000000000000e+03 1.440967464447021484e+01 -2.481364440917968750e+01 -1.995390513911843300e-03 -3.230393826961517334e-01 -9.751043468713760376e-02 -2.678351402282714844e-01
4.650000000000000000e+03 6.728266143798828125e+01 -3.675402641296386719e+00 1.923966109752655029e-01 9.563116073608398438e+00 2.926653623580932617e+00 -5.273595333099365234e+00
4.651000000000000000e+03 2.403398132324218750e+01 1.114938735961914062e+01 -4.808360934257507324e-01 -5.158393979072570801e-01 -2.990026473999023438e-01 6.705937385559082031e-01
4.652000000000000000e+03 2.428191566467285156e+01 1.565220451354980469e+01 -3.712719976902008057e-01 -4.952979087829589844e-01 -2.599709630012512207e-01 5.199862718582153320e-01
4.653000000000000000e+03 2.712728500366210938e+01 2.873190307617187500e+01 4.022323489189147949e-01 -3.025025129318237305e-01 2.991895563900470734e-02 1.995586156845092773e-01
4.654000000000000000e+03 3.059067153930664062e+01 -2.336240386962890625e+01 5.309942364692687988e-02 -1.368791311979293823e-01 -2.513391338288784027e-02 -4.776680171489715576e-01
4.655000000000000000e+03 7.094348144531250000e+01 -4.318747520446777344e+00 2.281064987182617188e+00 1.356195831298828125e+01 4.752907276153564453e+00 1.964994788169860840e+00
4.656000000000000000e+03 6.537754821777343750e+01 -1.020591068267822266e+01 2.965357899665832520e-01 3.886196374893188477e+00 1.254819631576538086e+00 3.404560327529907227e+00
4.657000000000000000e+03 7.113955688476562500e+01 -4.468317985534667969e+00 2.644301176071166992e+00 1.321808147430419922e+01 4.758714675903320312e+00 1.999478936195373535e+00
4.658000000000000000e+03 7.074951171875000000e+01 -4.492949962615966797e+00 2.670156955718994141e+00 1.401469326019287109e+01 5.005455017089843750e+00 2.054799795150756836e+00
4.659000000000000000e+03 6.691127014160156250e+01 -2.441437959671020508e+00 -3.626639842987060547e-01 7.969391345977783203e+00 2.282018184661865234e+00 -4.209336280822753906e+00
4.660000000000000000e+03 6.059463977813720703e+00 2.604425239562988281e+01 -3.005634993314743042e-02 -4.344512820243835449e-01 -1.393522918224334717e-01 3.379434943199157715e-01
4.661000000000000000e+03 6.604306030273437500e+01 -1.037280178070068359e+01 1.581740081310272217e-01 5.670148849487304688e+00 1.748496890068054199e+00 3.947161674499511719e+00
4.662000000000000000e+03 7.373298645019531250e+00 2.880366516113281250e+01 5.545342713594436646e-02 -5.824345946311950684e-01 -1.580943614244461060e-01 3.524077236652374268e-01
4.663000000000000000e+03 6.716404724121093750e+01 -9.171095848083496094e+00 2.581915855407714844e-01 8.988699913024902344e+00 2.774067401885986328e+00 5.138912677764892578e+00
4.664000000000000000e+03 7.030105590820312500e+01 -3.971457004547119141e+00 9.926884174346923828e-01 1.482920169830322266e+01 4.746566772460937500e+00 1.437417745590209961e+00
4.665000000000000000e+03 7.006984710693359375e+01 -9.662217140197753906e+00 -4.753803908824920654e-01 1.419405174255371094e+01 4.115601062774658203e+00 -3.505306541919708252e-01
4.666000000000000000e+03 6.528716278076171875e+01 -1.054476356506347656e+01 2.561257183551788330e-01 4.082305431365966797e+00 1.301529407501220703e+00 3.358178138732910156e+00
4.667000000000000000e+03 6.299833679199218750e+01 -9.958660125732421875e+00 -4.468830227851867676e-01 1.109791517257690430e+00 1.988725513219833374e-01 1.444761395454406738e+00
4.668000000000000000e+03 6.754592895507812500e+01 -9.680548667907714844e+00 -4.842857718467712402e-01 1.031914710998535156e+01 2.950458526611328125e+00 4.457026958465576172e+00
4.669000000000000000e+03 7.228641510009765625e+01 -5.309825420379638672e+00 3.580353736877441406e+00 1.096046924591064453e+01 4.362246990203857422e+00 1.219515442848205566e+00
4.670000000000000000e+03 7.528437042236328125e+01 -3.102237319946289062e+01 1.339296344667673111e-02 7.643456935882568359e+00 2.297055006027221680e+00 2.429666072130203247e-01
4.671000000000000000e+03 7.478187561035156250e+01 -3.308668518066406250e+01 5.349284783005714417e-02 7.522660732269287109e+00 2.272845983505249023e+00 2.231281548738479614e-01
4.672000000000000000e+03 2.748126792907714844e+01 -2.148797607421875000e+01 -8.093820512294769287e-02 -1.375754922628402710e-01 -6.555411219596862793e-02 -4.636759757995605469e-01
4.673000000000000000e+03 7.116830444335937500e+01 -8.547821044921875000e+00 2.171008825302124023e+00 1.311865139007568359e+01 4.586898326873779297e+00 -1.931415796279907227e+00
4.674000000000000000e+03 7.077252960205078125e+01 -4.042191028594970703e+00 1.443413257598876953e+00 1.399719333648681641e+01 4.632182121276855469e+00 1.760507464408874512e+00
4.675000000000000000e+03 6.740843963623046875e+01 -9.966441154479980469e+00 -4.628549814224243164e-01 9.661775588989257812e+00 2.759675979614257812e+00 4.330740451812744141e+00
4.676000000000000000e+03 7.995203971862792969e+00 -2.799994087219238281e+01 2.716960199177265167e-02 -3.138639330863952637e-01 -8.600829541683197021e-02 -2.154650241136550903e-01
4.677000000000000000e+03 6.777012634277343750e+01 -1.028260803222656250e+01 -9.045524597167968750e-01 1.065466308593750000e+01 2.925033092498779297e+00 3.727726936340332031e+00
4.678000000000000000e+03 6.819338226318359375e+01 -9.859020233154296875e+00 -1.085045695304870605e+00 1.225081348419189453e+01 3.349730253219604492e+00 3.413322687149047852e+00
4.679000000000000000e+03 2.316839218139648438e+01 -1.868367671966552734e+00 -1.616880446672439575e-01 -1.486307829618453979e-01 -9.309564530849456787e-02 2.378501892089843750e-01
4.680000000000000000e+03 2.359762573242187500e+01 -1.433936238288879395e+00 -1.958252191543579102e-01 -1.589846014976501465e-01 -1.064429432153701782e-01 2.843104004859924316e-01
4.681000000000000000e+03 7.050308227539062500e+01 -4.290228843688964844e+00 1.757696509361267090e+00 1.462108325958251953e+01 4.913633823394775391e+00 1.770985484123229980e+00
4.682000000000000000e+03 7.094713592529296875e+01 -1.014880847930908203e+01 -3.571598231792449951e-01 1.272198200225830078e+01 3.709446668624877930e+00 -9.390887022018432617e-01
4.683000000000000000e+03 7.138244628906250000e+01 -4.130106449127197266e+00 1.955647706985473633e+00 1.275460243225097656e+01 4.413074970245361328e+00 1.888988256454467773e+00
4.684000000000000000e+03 2.551668548583984375e+01 -2.080485725402832031e+01 -1.460284888744354248e-01 -1.394737362861633301e-01 -8.565066754817962646e-02 -4.390829801559448242e-01
4.685000000000000000e+03 6.796683502197265625e+01 -1.779175162315368652e+00 -1.220009803771972656e+00 1.026548194885253906e+01 2.713641643524169922e+00 -3.110272645950317383e+00
4.686000000000000000e+03 7.101805114746093750e+01 -3.646331787109375000e+00 9.580650925636291504e-01 1.338533687591552734e+01 4.303020477294921875e+00 1.668301820755004883e+00
4.687000000000000000e+03 7.054872131347656250e+01 -4.035878658294677734e+00 1.330751895904541016e+00 1.434769535064697266e+01 4.703534126281738281e+00 1.661742091178894043e+00
4.688000000000000000e+03 6.363897323608398438e+01 -1.029837512969970703e+01 -9.066567569971084595e-02 1.762735605239868164e+00 5.016209483146667480e-01 2.018326997756958008e+00
4.689000000000000000e+03 2.742108535766601562e+01 6.051820755004882812e+00 -4.244900345802307129e-01 -2.415615171194076538e-01 -1.998154670000076294e-01 7.219431996345520020e-01
4.690000000000000000e+03 7.288218688964843750e+01 -5.723635673522949219e+00 3.303072929382324219e+00 1.015868568420410156e+01 4.038527488708496094e+00 6.493319272994995117e-01
4.691000000000000000e+03 6.763478851318359375e+01 -4.323185980319976807e-01 -1.161124348640441895e+00 8.552816390991210938e+00 2.217507600784301758e+00 -2.783187389373779297e+00
4.692000000000000000e+03 7.269871520996093750e+01 -6.545148849487304688e+00 3.580464124679565430e+00 1.028093910217285156e+01 4.158421039581298828e+00 -1.472602635622024536e-01
4.693000000000000000e+03 7.143060302734375000e+01 -3.419808864593505859e+00 8.119581341743469238e-01 1.264210224151611328e+01 4.036218166351318359e+00 1.647764086723327637e+00
4.694000000000000000e+03 4.319680404663085938e+01 -2.151703834533691406e+01 1.232348456978797913e-01 1.404252201318740845e-01 7.909801602363586426e-02 -3.987649679183959961e-01
4.695000000000000000e+03 6.312714385986328125e+01 -1.064637851715087891e+01 -1.539581567049026489e-01 1.591231584548950195e+00 4.311820268630981445e-01 1.788512706756591797e+00
4.696000000000000000e+03 6.851239776611328125e+01 -1.093015861511230469e+01 -1.392822861671447754e+00 1.138622188568115234e+01 2.998019695281982422e+00 2.484147548675537109e+00
4.697000000000000000e+03 3.014940452575683594e+01 -1.817436027526855469e+01 -2.968518137931823730e-01 -8.925818651914596558e-02 -1.158329993486404419e-01 -5.042681097984313965e-01
4.698000000000000000e+03 2.979565620422363281e+01 -1.950210571289062500e+01 -1.984473019838333130e-01 -1.012456789612770081e-01 -8.990789949893951416e-02 -5.061048865318298340e-01
4.699000000000000000e+03 6.157561874389648438e+01 -4.233400523662567139e-01 -2.981109619140625000e-01 1.547227263450622559e+00 3.747349083423614502e-01 -1.460327863693237305e+00
4.700000000000000000e+03 7.070162963867187500e+01 -3.828262567520141602e+00 1.119683742523193359e+00 1.404860591888427734e+01 4.550486564636230469e+00 1.649131536483764648e+00
4.701000000000000000e+03 2.859009361267089844e+01 7.269670963287353516e+00 -4.299161732196807861e-01 -1.910912692546844482e-01 -1.863022446632385254e-01 7.357761859893798828e-01
4.702000000000000000e+03 7.010247039794921875e+01 -1.129075908660888672e+01 -1.316050171852111816e+00 1.195309352874755859e+01 3.191112995147705078e+00 4.027827978134155273e-01
4.703000000000000000e+03 2.868328285217285156e+01 6.449597835540771484e+00 -4.361623525619506836e-01 -1.841778606176376343e-01 -1.861020624637603760e-01 7.325344085693359375e-01
4.704000000000000000e+03 4.892724227905273438e+01 1.660135459899902344e+01 4.584046602249145508e-01 1.261392116546630859e+00 5.159390568733215332e-01 -7.776724547147750854e-02
4.705000000000000000e+03 6.764645385742187500e+01 2.184752002358436584e-02 -1.182196021080017090e+00 8.382360458374023438e+00 2.160049200057983398e+00 -2.637777805328369141e+00
4.706000000000000000e+03 3.307511901855468750e+01 1.551568984985351562e+01 -4.833426699042320251e-02 3.323642909526824951e-02 -4.529350902885198593e-03 5.330677628517150879e-01
4.707000000000000000e+03 6.043461608886718750e+01 -3.121032118797302246e-01 -4.543353915214538574e-01 1.130600094795227051e+00 2.028793990612030029e-01 -1.063363909721374512e+00
4.708000000000000000e+03 7.230272674560546875e+01 -2.951487541198730469e+00 5.665885210037231445e-01 1.136649608612060547e+01 3.579925298690795898e+00 1.648108124732971191e+00
4.709000000000000000e+03 7.211554718017578125e+01 -2.483558654785156250e+00 8.511888980865478516e-02 1.152252483367919922e+01 3.482293128967285156e+00 1.484634041786193848e+00
4.710000000000000000e+03 6.644525909423828125e+01 -1.209741020202636719e+01 -5.790804624557495117e-01 6.806871891021728516e+00 1.868337392807006836e+00 3.231643438339233398e+00
4.711000000000000000e+03 7.246032714843750000e+01 -9.310667037963867188e+00 1.177575707435607910e+00 1.117421722412109375e+01 3.705537796020507812e+00 -1.744144320487976074e+00
4.712000000000000000e+03 7.354570007324218750e+01 -9.952773094177246094e+00 6.586495041847229004e-01 1.003466892242431641e+01 3.207995653152465820e+00 -1.666695475578308105e+00
4.713000000000000000e+03 2.688729858398437500e+01 8.714246749877929688e+00 -4.286390841007232666e-01 -2.961813211441040039e-01 -2.174461185932159424e-01 7.228749990463256836e-01
4.714000000000000000e+03 7.317334747314453125e+01 -1.026417827606201172e+01 3.665688037872314453e-01 1.038751029968261719e+01 3.226223707199096680e+00 -1.645148754119873047e+00
4.715000000000000000e+03 6.080445861816406250e+01 8.285793662071228027e-02 -3.148933351039886475e-01 1.386088132858276367e+00 3.213584125041961670e-01 -1.253656268119812012e+00
4.716000000000000000e+03 6.802983856201171875e+01 5.744729638099670410e-01 -1.297703146934509277e+00 8.579246520996093750e+00 2.184463024139404297e+00 -2.215265750885009766e+00
4.717000000000000000e+03 6.907776641845703125e+01 -1.250251102447509766e+01 -1.515622138977050781e+00 1.025831031799316406e+01 2.622806549072265625e+00 1.586008787155151367e+00
4.718000000000000000e+03 2.769438934326171875e+01 8.792775154113769531e+00 -4.156684577465057373e-01 -2.404258102178573608e-01 -1.968282759189605713e-01 7.239911556243896484e-01
4.719000000000000000e+03 7.188085174560546875e+01 -5.386376380920410156e-01 -1.038619518280029297e+00 1.069999599456787109e+01 2.898412942886352539e+00 6.595973372459411621e-01
4.720000000000000000e+03 6.665255737304687500e+01 2.024161338806152344e+01 1.751791536808013916e-01 5.197618007659912109e+00 1.611839175224304199e+00 -7.184771299362182617e-01
4.721000000000000000e+03 7.353147125244140625e+01 -1.329487514495849609e+01 -8.102177977561950684e-01 9.609024047851562500e+00 2.639641761779785156e+00 -1.021533846855163574e+00
4.722000000000000000e+03 6.684281921386718750e+01 9.550704360008239746e-01 -9.289860725402832031e-01 7.044052124023437500e+00 1.834519743919372559e+00 -2.600588798522949219e+00
4.723000000000000000e+03 7.330139923095703125e+01 -1.193244266510009766e+01 -5.163078904151916504e-01 1.008044815063476562e+01 2.869241952896118164e+00 -1.312028050422668457e+00
4.724000000000000000e+03 7.282616424560546875e+01 -1.218616771697998047e+01 -7.294754981994628906e-01 1.027872180938720703e+01 2.864773988723754883e+00 -1.100763916969299316e+00
4.725000000000000000e+03 7.339273071289062500e+01 -1.078030586242675781e+01 7.037886977195739746e-02 1.017366790771484375e+01 3.073214054107666016e+00 -1.585074186325073242e+00
4.726000000000000000e+03 7.234764862060546875e+01 -1.728774785995483398e+00 -3.655439913272857666e-01 1.097715950012207031e+01 3.183484792709350586e+00 1.292793154716491699e+00
4.727000000000000000e+03 2.777901077270507812e+01 -1.492575645446777344e+01 -4.715634286403656006e-01 -5.049270763993263245e-02 -1.566168367862701416e-01 -4.418773949146270752e-01
4.728000000000000000e+03 6.590458679199218750e+01 -1.332080459594726562e+01 -5.144861340522766113e-01 5.905617713928222656e+00 1.617339372634887695e+00 2.779743194580078125e+00
4.729000000000000000e+03 3.054403686523437500e+01 8.315142631530761719e+00 -4.035320580005645752e-01 -1.153296232223510742e-01 -1.556584984064102173e-01 7.362422943115234375e-01
4.730000000000000000e+03 3.165744400024414062e+01 1.139573383331298828e+01 -2.773177325725555420e-01 -5.804981291294097900e-02 -1.006102636456489563e-01 6.764854788780212402e-01
4.731000000000000000e+03 6.049866867065429688e+01 1.481702232360839844e+01 3.096391856670379639e-01 3.460077762603759766e+00 1.130915045738220215e+00 -8.577321767807006836e-01
4.732000000000000000e+03 7.349495697021484375e+01 -2.934011697769165039e+00 6.832329630851745605e-01 1.009581184387207031e+01 3.233713388442993164e+00 1.669333696365356445e+00
4.733000000000000000e+03 7.203789520263671875e+01 -2.007067871093750000e+01 -6.432963013648986816e-01 7.866837978363037109e+00 2.167062520980834961e+00 2.917532622814178467e-01
4.734000000000000000e+03 6.944926452636718750e+01 -1.326371097564697266e+01 -1.500544786453247070e+00 9.876817703247070312e+00 2.512881994247436523e+00 1.248698949813842773e+00
4.735000000000000000e+03 6.952932739257812500e+01 -1.270704460144042969e+01 -1.529942750930786133e+00 1.031793117523193359e+01 2.636396408081054688e+00 1.210904598236083984e+00
4.736000000000000000e+03 6.978938293457031250e+01 2.185533493757247925e-01 -1.539718270301818848e+00 1.018332672119140625e+01 2.593082427978515625e+00 -9.980913400650024414e-01
4.737000000000000000e+03 3.168921852111816406e+01 6.719507575035095215e-01 -6.374776959419250488e-01 -4.206217825412750244e-02 -2.038619667291641235e-01 6.027611494064331055e-01
4.738000000000000000e+03 6.758544158935546875e+01 -1.258339691162109375e+01 -1.123517990112304688e+00 8.495192527770996094e+00 2.211502552032470703e+00 2.669796943664550781e+00
4.739000000000000000e+03 6.713208770751953125e+01 -1.293804550170898438e+01 -9.503489732742309570e-01 7.692787170410156250e+00 2.022731304168701172e+00 2.710353374481201172e+00
4.740000000000000000e+03 3.074509048461914062e+01 -1.486424064636230469e+01 -5.475519895553588867e-01 -5.961684510111808777e-02 -1.821506470441818237e-01 -4.700299203395843506e-01
4.741000000000000000e+03 6.664542388916015625e+01 -1.389126586914062500e+01 -8.053743243217468262e-01 6.826744556427001953e+00 1.806411027908325195e+00 2.501232147216796875e+00
4.742000000000000000e+03 6.870397186279296875e+01 -1.979988288879394531e+01 -6.379185914993286133e-01 6.859254360198974609e+00 1.866400599479675293e+00 9.951050281524658203e-01
4.743000000000000000e+03 6.755665588378906250e+01 -1.303592300415039062e+01 -1.110831379890441895e+00 8.233417510986328125e+00 2.136775970458984375e+00 2.491546869277954102e+00
4.744000000000000000e+03 6.931082916259765625e+01 2.319494962692260742e+00 -1.355259537696838379e+00 8.619512557983398438e+00 2.179275751113891602e+00 -1.260202288627624512e+00
4.745000000000000000e+03 6.745465087890625000e+01 1.814684677124023438e+01 1.183126419782638550e-01 5.481754302978515625e+00 1.680020093917846680e+00 -7.490656375885009766e-01
4.746000000000000000e+03 4.162302398681640625e+01 -1.489317417144775391e+01 -7.626736760139465332e-01 -1.309539750218391418e-02 -2.327307313680648804e-01 -4.976839721202850342e-01
4.747000000000000000e+03 3.192410087585449219e+01 8.261541366577148438e+00 -3.793432712554931641e-01 -5.740141868591308594e-02 -1.310234069824218750e-01 7.331832051277160645e-01
4.748000000000000000e+03 6.683637237548828125e+01 2.047948122024536133e+00 -9.125913977622985840e-01 6.809021472930908203e+00 1.768929004669189453e+00 -2.238665103912353516e+00
4.749000000000000000e+03 5.886199569702148438e+01 2.128117322921752930e+00 -1.870776414871215820e-01 1.333878278732299805e+00 3.440401852130889893e-01 -9.271203875541687012e-01
4.750000000000000000e+03 6.804653167724609375e+01 1.603380966186523438e+01 1.739992387592792511e-02 5.697168827056884766e+00 1.714370608329772949e+00 -8.042992353439331055e-01
4.751000000000000000e+03 6.955332946777343750e+01 1.066189479827880859e+01 -3.581694364547729492e-01 6.538871288299560547e+00 1.854210495948791504e+00 -8.231396079063415527e-01
4.752000000000000000e+03 4.991463088989257812e+01 -1.530496025085449219e+01 -6.010670661926269531e-01 1.929651051759719849e-01 -1.224305778741836548e-01 -2.780379951000213623e-01
4.753000000000000000e+03 3.648749542236328125e+01 1.109933853149414062e+01 -1.765116304159164429e-01 1.077634021639823914e-01 -2.062446810305118561e-02 6.346702575683593750e-01
4.754000000000000000e+03 3.358094787597656250e+01 2.530942201614379883e+00 -6.316311359405517578e-01 -2.361205965280532837e-02 -1.965729594230651855e-01 6.888430714607238770e-01
4.755000000000000000e+03 7.023770141601562500e+01 -1.417194080352783203e+01 -1.416358470916748047e+00 9.548637390136718750e+00 2.439683675765991211e+00 7.059518694877624512e-01
4.756000000000000000e+03 3.361827468872070312e+01 3.112615942955017090e-01 -7.481204867362976074e-01 -1.130832359194755554e-02 -2.278286367654800415e-01 6.001970767974853516e-01
4.757000000000000000e+03 6.678218841552734375e+01 2.575657129287719727e+00 -8.826056122779846191e-01 6.648832798004150391e+00 1.729868173599243164e+00 -2.147515296936035156e+00
4.758000000000000000e+03 6.544600677490234375e+01 -1.366160106658935547e+01 -4.069320261478424072e-01 5.358392238616943359e+00 1.485438108444213867e+00 2.614050865173339844e+00
4.759000000000000000e+03 6.782794189453125000e+01 3.256429195404052734e+00 -1.034673333168029785e+00 7.294445514678955078e+00 1.877931714057922363e+00 -1.711925625801086426e+00
4.760000000000000000e+03 6.639057922363281250e+01 -1.513942909240722656e+01 -7.176874876022338867e-01 6.336766719818115234e+00 1.685723781585693359e+00 2.161082029342651367e+00
4.761000000000000000e+03 5.684313964843750000e+01 3.147607326507568359e+00 -1.972965598106384277e-01 1.028763651847839355e+00 2.494401186704635620e-01 -5.834502577781677246e-01
4.762000000000000000e+03 3.641426849365234375e+01 8.493688583374023438e+00 -3.083432912826538086e-01 7.636416703462600708e-02 -6.959374248981475830e-02 6.914381980895996094e-01
4.763000000000000000e+03 3.716725921630859375e+01 9.371167182922363281e+00 -2.418286800384521484e-01 1.076213121414184570e-01 -4.026221111416816711e-02 6.603883504867553711e-01
4.764000000000000000e+03 6.021202468872070312e+01 5.525107860565185547e+00 5.872025713324546814e-02 2.508331775665283203e+00 7.701156139373779297e-01 -1.270455121994018555e+00
4.765000000000000000e+03 4.903908157348632812e+01 6.836618423461914062e+00 -1.277433931827545166e-01 5.236818194389343262e-01 1.187815293669700623e-01 2.054621875286102295e-01
4.766000000000000000e+03 5.005779266357421875e+01 6.520807266235351562e+00 -1.364678740501403809e-01 5.640332698822021484e-01 1.282696276903152466e-01 1.349408030509948730e-01
4.767000000000000000e+03 4.736157989501953125e+01 1.871409893035888672e+00 -9.397841691970825195e-01 1.123092994093894958e-01 -2.482424527406692505e-01 4.553433060646057129e-01
4.768000000000000000e+03 6.280185317993164062e+01 6.620612144470214844e+00 -8.592240512371063232e-02 3.882195234298706055e+00 1.138881802558898926e+00 -1.543634176254272461e+00
4.769000000000000000e+03 4.832224273681640625e+01 2.343338012695312500e+00 -8.115875124931335449e-01 1.764294952154159546e-01 -1.905474066734313965e-01 4.016110599040985107e-01
4.770000000000000000e+03 3.952850341796875000e+01 3.212334394454956055e+00 -7.086682319641113281e-01 5.319387838244438171e-02 -1.966423094272613525e-01 6.701710820198059082e-01
4.771000000000000000e+03 4.070414352416992188e+01 3.148955345153808594e+00 -7.305894494056701660e-01 6.274743378162384033e-02 -2.003526091575622559e-01 6.523062586784362793e-01
4.772000000000000000e+03 4.079297256469726562e+01 2.351325988769531250e+00 -8.206187486648559570e-01 4.900026321411132812e-02 -2.314855456352233887e-01 6.363534331321716309e-01
4.773000000000000000e+03 3.680677795410156250e+01 5.419640541076660156e+00 -5.004577040672302246e-01 4.453743249177932739e-02 -1.367760747671127319e-01 7.148874998092651367e-01
4.774000000000000000e+03 5.097706604003906250e+01 5.504547119140625000e+00 -1.912612766027450562e-01 5.775914192199707031e-01 1.158990412950515747e-01 8.002617955207824707e-02
4.775000000000000000e+03 1.488040065765380859e+01 1.046121835708618164e+00 2.656766155268996954e-04 3.607148537412285805e-04 1.879174378700554371e-04 -1.164109107776312158e-05
4.776000000000000000e+03 1.433596038818359375e+01 8.109902739524841309e-01 1.978497748496010900e-04 -1.187079542432911694e-04 2.374254654569085687e-05 2.204709744546562433e-04
4.777000000000000000e+03 1.339948463439941406e+01 9.943951964378356934e-01 8.323252404807135463e-05 -6.103990017436444759e-05 6.657786343566840515e-06 -2.145131657016463578e-05
4.778000000000000000e+03 1.399857616424560547e+01 1.078236818313598633e+00 -1.163859342341311276e-04 -1.276404946111142635e-04 -7.320792792597785592e-05 -6.356751691782847047e-05
4.779000000000000000e+03 1.342517852783203125e+01 2.516243755817413330e-01 -1.825401704991236329e-05 5.801157021778635681e-05 1.192726540466537699e-05 2.441008291498292238e-06
4.780000000000000000e+03 1.503903388977050781e+01 3.840551078319549561e-01 -1.862791395979002118e-05 -3.022410237463191152e-05 -1.465560490032657981e-05 -3.164623922202736139e-05
4.781000000000000000e+03 1.424006271362304688e+01 2.423980534076690674e-01 -2.732422944973222911e-05 -6.477590886788675562e-06 -1.014054669212782755e-05 1.571402208355721086e-05
4.782000000000000000e+03 1.447602939605712891e+01 1.142013788223266602e+00 1.306143676629289985e-04 -6.832386134192347527e-05 1.868715116870589554e-05 2.516625681892037392e-05
4.783000000000000000e+03 1.113503360748291016e+01 3.384475409984588623e-01 -1.038214031723327935e-04 -1.855253794929012656e-04 -8.680403698235750198e-05 1.298846291319932789e-05
4.784000000000000000e+03 1.115649890899658203e+01 1.078244447708129883e+00 -1.488849811721593142e-04 1.278918789466843009e-04 -6.297931577137205750e-06 -1.561282551847398281e-04
4.785000000000000000e+03 1.038435840606689453e+01 3.729175329208374023e-01 -1.751962699927389622e-04 1.842642959672957659e-04 2.720406882872339338e-06 -5.992957085254602134e-05
4.786000000000000000e+03 1.188578510284423828e+01 3.038018345832824707e-01 -7.675412780372425914e-05 1.742307504173368216e-04 2.924298678408376873e-05 -4.208570680930279195e-05
4.787000000000000000e+03 1.263660717010498047e+01 2.689834535121917725e-01 -1.441204767616000026e-05 -1.419405889464542270e-04 -4.690578862209804356e-05 -5.362744104786543176e-06
4.788000000000000000e+03 1.266393947601318359e+01 1.008509635925292969e+00 -7.975295011419802904e-05 5.220935418037697673e-05 -8.263078598247375339e-06 -1.084119357983581722e-04
4.789000000000000000e+03 1.040289020538330078e+01 1.112849831581115723e+00 -5.550091373152099550e-05 -1.047662299242801964e-04 -4.808014273294247687e-05 1.043789088726043701e-04
4.790000000000000000e+03 1.191018390655517578e+01 1.043463349342346191e+00 -4.188908860669471323e-05 -9.068555664271116257e-05 -3.977239248342812061e-05 1.758706093824002892e-05
4.791000000000000000e+03 9.630480766296386719e+00 3.871794641017913818e-01 -1.806938671506941319e-04 -1.395272120134904981e-04 -9.606632374925538898e-05 5.053843051427975297e-05
4.792000000000000000e+03 8.873666763305664062e+00 3.829238712787628174e-01 -2.371360751567408442e-04 7.186694710981100798e-05 -4.958073986927047372e-05 -8.957720274338498712e-05
4.793000000000000000e+03 9.660673141479492188e+00 1.127179503440856934e+00 -1.903493975987657905e-04 7.250509224832057953e-05 -3.535329233272932470e-05 -2.382197126280516386e-04
4.794000000000000000e+03 8.116720199584960938e+00 3.805542886257171631e-01 -2.265080838697031140e-04 1.492762385169044137e-05 -6.347413727780804038e-05 7.934125460451468825e-05
4.795000000000000000e+03 7.360193252563476562e+00 3.795430362224578857e-01 -2.734342415351420641e-04 -9.132263221545144916e-05 -1.094270628527738154e-04 -9.842172585194930434e-05
4.796000000000000000e+03 5.847065925598144531e+00 3.768712580204010010e-01 -2.663880295585840940e-04 -2.027317823376506567e-04 -1.407359523000195622e-04 -9.621729986974969506e-05
4.797000000000000000e+03 5.091114044189453125e+00 3.758820295333862305e-01 -1.909227285068482161e-04 2.309075498487800360e-04 1.199544658447848633e-05 1.204280924866907299e-04
4.798000000000000000e+03 3.579006433486938477e+00 3.681437373161315918e-01 -1.081341833923943341e-04 2.213812549598515034e-04 3.397412365302443504e-05 1.277377887163311243e-04
4.799000000000000000e+03 2.823871612548828125e+00 3.614119887351989746e-01 -1.203604770125821233e-04 -1.940230140462517738e-04 -9.431504440726712346e-05 -7.860489859012886882e-05
4.800000000000000000e+03 2.070111274719238281e+00 3.578882515430450439e-01 -1.979387343453709036e-05 1.524265971966087818e-04 3.978981840191408992e-05 1.075437685358338058e-04
4.801000000000000000e+03 2.362852334976196289e+00 1.097888231277465820e+00 -6.095711069065146148e-05 -9.126467193709686399e-05 -4.566653660731390119e-05 -3.544389619491994381e-05
4.802000000000000000e+03 1.328713655471801758e+00 3.659794926643371582e-01 -4.378106314106844366e-05 -1.169847237179055810e-04 -4.822973642149008811e-05 -6.718500662827864289e-05
4.803000000000000000e+03 1.647709608078002930e+00 1.105979442596435547e+00 -3.952366751036606729e-05 2.811219565046485513e-05 -3.423440830374602228e-06 1.186267836601473391e-04
4.804000000000000000e+03 6.516475677490234375e-01 3.939257264137268066e-01 2.888316703320015222e-05 7.069719140417873859e-05 2.987410698551684618e-05 7.301866571651771665e-05
4.805000000000000000e+03 3.489431142807006836e-01 9.570703506469726562e-01 -6.273095641518011689e-05 -3.113173443125560880e-05 -2.815880725393071771e-05 1.092455568141303957e-05
4.806000000000000000e+03 3.090358018875122070e+00 1.101411938667297363e+00 -8.264774078270420432e-05 1.152794939116574824e-04 9.789525392989162356e-06 1.726002519717440009e-04
4.807000000000000000e+03 3.819237709045410156e+00 1.108143687248229980e+00 -1.404820650350302458e-04 -1.240260462509468198e-04 -7.935243775136768818e-05 -7.597911462653428316e-05
4.808000000000000000e+03 4.335169315338134766e+00 3.733847737312316895e-01 -2.124796446878463030e-04 -2.306115347892045975e-04 -1.329273509327322245e-04 -9.015538671519607306e-05
4.809000000000000000e+03 6.008533000946044922e+00 1.116871237754821777e+00 -1.463118678657338023e-04 1.494169264333322644e-04 9.315164675172127318e-07 2.081757265841588378e-04
4.810000000000000000e+03 6.603851795196533203e+00 3.786112964153289795e-01 -2.336221950827166438e-04 1.630522601772099733e-04 -2.117097938025835901e-05 1.027482721838168800e-04
4.811000000000000000e+03 8.930113792419433594e+00 1.122923851013183594e+00 -1.143688787124119699e-04 -1.537985735922120512e-05 -3.892462336807511747e-05 1.890036219265311956e-04
4.812000000000000000e+03 8.199422836303710938e+00 1.120554327964782715e+00 -2.181494492106139660e-04 -1.677049112913664430e-05 -7.047598046483471990e-05 -2.534183440729975700e-04
4.813000000000000000e+03 7.469150543212890625e+00 1.119543075561523438e+00 -1.431881973985582590e-04 8.546617755200713873e-05 -1.731660813675262034e-05 2.169075451092794538e-04
4.814000000000000000e+03 6.739063739776611328e+00 1.118611335754394531e+00 -2.185944467782974243e-04 -9.900087752612307668e-05 -9.527859947411343455e-05 -2.059638063656166196e-04
4.815000000000000000e+03 5.278835773468017578e+00 1.115882039070129395e+00 -1.961289526661857963e-04 -1.317802089033648372e-04 -9.837275138124823570e-05 -1.328382932115346193e-04
4.816000000000000000e+03 4.549146175384521484e+00 1.113384723663330078e+00 -1.161288746516220272e-04 1.521908707218244672e-04 1.081859682017238811e-05 1.968530996236950159e-04
4.817000000000000000e+03 9.968983530998229980e-01 1.133925795555114746e+00 7.260347501869546250e-06 -2.895283432735595852e-05 -6.507746093120658770e-06 -5.791840521851554513e-05
4.818000000000000000e+03 7.947246074676513672e+00 -3.790149092674255371e-01 -4.960901060258038342e-05 1.700535794952884316e-04 3.613336957641877234e-05 1.108855576603673398e-05
4.819000000000000000e+03 8.798082351684570312e+00 -1.121163964271545410e+00 -4.184852514299564064e-06 1.444227964384481311e-04 4.207138408673927188e-05 5.544174564420245588e-05
4.820000000000000000e+03 9.582462310791015625e+00 -3.862577378749847412e-01 -2.750259045569691807e-05 1.731437660055235028e-04 4.369235466583631933e-05 1.209795027534710243e-05
4.821000000000000000e+03 7.128131389617919922e+00 -3.778152763843536377e-01 -8.598272688686847687e-05 -1.517246855655685067e-04 -7.131222810130566359e-05 -3.598951252570259385e-06
4.822000000000000000e+03 6.302709579467773438e+00 -3.771458566188812256e-01 -7.384141645161435008e-05 1.247470790985971689e-04 1.527169843029696494e-05 1.687470648903399706e-05
4.823000000000000000e+03 5.439445972442626953e+00 -3.834656774997711182e-01 -7.066920807119458914e-05 -7.595571514684706926e-05 -4.398747842060402036e-05 -4.082961822859942913e-05
4.824000000000000000e+03 4.549984931945800781e+00 -3.402172923088073730e-01 -2.467799822625238448e-05 4.132593676331453025e-05 4.994381924916524440e-06 3.007225859619211406e-05
4.825000000000000000e+03 4.365737915039062500e+00 -8.721476197242736816e-01 -2.393833710812032223e-04 9.799316103453747928e-06 -6.887521885801106691e-05 -8.926884765969589353e-05
4.826000000000000000e+03 2.784216165542602539e+00 -7.810403704643249512e-01 -1.151193646364845335e-04 4.013412763015367091e-05 -2.249557292088866234e-05 -1.382546033710241318e-04
4.827000000000000000e+03 1.180924773216247559e+00 -3.613742887973785400e-01 6.697737262584269047e-05 -1.869407424237579107e-05 1.448499006073689088e-05 1.896120556921232492e-05
4.828000000000000000e+03 4.100910127162933350e-01 -5.529776215553283691e-01 -7.166494015109492466e-06 4.813884970644721761e-06 -7.057827247081149835e-07 -1.923788886415422894e-06
4.829000000000000000e+03 7.475960254669189453e-01 -1.101374268531799316e+00 -2.300746273249387741e-04 1.898916707432363182e-05 -6.332563498290255666e-05 -3.550177643774077296e-05
4.830000000000000000e+03 9.582078933715820312e+00 -1.126257777214050293e+00 -5.727025200030766428e-05 -1.503041130490601063e-04 -6.227230915101245046e-05 -1.073031580745009705e-05
4.831000000000000000e+03 8.013586997985839844e+00 -1.119014978408813477e+00 -8.089477341854944825e-05 -1.287660852540284395e-04 -6.289825978456065059e-05 -3.506969005684368312e-05
4.832000000000000000e+03 7.227835178375244141e+00 -1.117815256118774414e+00 -2.401183155598118901e-05 1.185270666610449553e-04 2.835457053151912987e-05 6.365494482452049851e-05
4.833000000000000000e+03 6.435775756835937500e+00 -1.117145895957946777e+00 -5.700471228919923306e-05 -8.977748802863061428e-05 -4.403465936775319278e-05 -6.391882925527170300e-05
4.834000000000000000e+03 5.605874538421630859e+00 -1.123465657234191895e+00 -9.235124161932617426e-05 7.430469850078225136e-05 -5.413963208411587402e-06 7.809157250449061394e-05
4.835000000000000000e+03 4.870606899261474609e+00 -1.221678614616394043e+00 7.553912291768938303e-05 -3.943476258427836001e-05 1.083130700862966478e-05 -7.829812966519966722e-05
4.836000000000000000e+03 4.215381145477294922e+00 -1.291930317878723145e+00 6.238611968001350760e-05 -1.889312261482700706e-05 1.304789930145489052e-05 1.143617628258652985e-04
4.837000000000000000e+03 3.483533143997192383e+00 -1.264367222785949707e+00 -1.943759125424548984e-04 2.410031265753787011e-05 -5.108267941977828741e-05 -2.066456218017265201e-04
4.838000000000000000e+03 2.720056772232055664e+00 -1.259521603584289551e+00 1.192220515804365277e-04 4.942512077832361683e-06 3.724936686921864748e-05 1.640512200538069010e-04
4.839000000000000000e+03 1.356012225151062012e+00 -1.203287243843078613e+00 2.864067209884524345e-04 4.048170467285672203e-06 8.713646820979192853e-05 2.259525535919237882e-05
4.840000000000000000e+03 1.973117947578430176e+00 -8.476541042327880859e-01 -7.304918835870921612e-05 -3.818369077634997666e-05 -3.336986264912411571e-05 1.313474786002188921e-04
4.841000000000000000e+03 8.765102386474609375e+00 -3.811639845371246338e-01 -6.647083500865846872e-05 -1.773452822817489505e-04 -7.314483809750527143e-05 -1.940571564773563296e-06
4.842000000000000000e+03 3.694828748703002930e+00 -2.827752828598022461e-01 -8.031109609873965383e-05 -3.863988240482285619e-05 -3.568529427866451442e-05 -3.742014087038114667e-05
4.843000000000000000e+03 2.863922595977783203e+00 -2.815187871456146240e-01 1.846939653660228942e-06 3.612224099924787879e-05 1.139075448008952662e-05 2.954515548481140286e-05
4.844000000000000000e+03 1.994147539138793945e+00 -3.323310017585754395e-01 -3.426158582442440093e-05 -2.033525743172504008e-05 -1.637905370444059372e-05 -5.446160866995342076e-05
4.845000000000000000e+03 1.978801369667053223e+00 -1.275323033332824707e+00 -1.726827758830040693e-04 -5.781865183962509036e-05 -6.915042467880994081e-05 -1.662095455685630441e-04
4.846000000000000000e+03 3.578665971755981445e+00 -7.871425151824951172e-01 6.018769272486679256e-05 -4.930275849801546428e-07 1.790839996829163283e-05 9.300807869294658303e-05
4.847000000000000000e+03 1.511178874969482422e+01 -1.151870131492614746e+00 -5.467522714752703905e-05 -4.298993371776305139e-05 -2.929954825958702713e-05 -8.748850632400717586e-06
4.848000000000000000e+03 1.328532791137695312e+01 -1.267471551895141602e+00 3.572635614546015859e-05 7.015833398327231407e-05 3.176540849381126463e-05 3.229431968065910041e-05
4.849000000000000000e+03 1.480503654479980469e+01 -5.744030475616455078e-01 2.994611531903501600e-05 -1.111262554331915453e-05 5.650047114613698795e-06 2.519764711905736476e-05
4.850000000000000000e+03 1.453040313720703125e+01 -1.313965797424316406e+00 -1.592110311321448535e-05 9.541831241222098470e-05 2.384916115261148661e-05 -2.479778231645468622e-05
4.851000000000000000e+03 1.393833351135253906e+01 -1.278923630714416504e+00 -1.075299769581761211e-05 -7.186988659668713808e-05 -2.478686474205460399e-05 -6.953105639695422724e-06
4.852000000000000000e+03 1.336329460144042969e+01 -5.279909372329711914e-01 -1.385081577609525993e-05 -9.484706242801621556e-05 -3.260936500737443566e-05 -1.736096055537927896e-05
4.853000000000000000e+03 1.411463356018066406e+01 -5.394020080566406250e-01 9.346207662019878626e-06 7.170709432102739811e-05 2.431599023111630231e-05 9.824791959545109421e-06
4.854000000000000000e+03 1.111242771148681641e+01 -4.403275847434997559e-01 -3.311342197775957175e-06 1.393885322613641620e-04 4.082315717823803425e-05 7.251813258335459977e-06
4.855000000000000000e+03 1.260764503479003906e+01 -5.095726251602172852e-01 1.608261663932353258e-05 1.001805067062377930e-04 3.487893627607263625e-05 1.542995232739485800e-05
4.856000000000000000e+03 1.185993289947509766e+01 -4.741277396678924561e-01 -2.564117494330275804e-05 -1.159590974566526711e-04 -4.248008190188556910e-05 -1.134288936555094551e-06
4.857000000000000000e+03 1.109096240997314453e+01 -1.180124521255493164e+00 -5.214074190007522702e-05 -1.413413410773500800e-04 -5.804462489322759211e-05 1.603793680260423571e-05
4.858000000000000000e+03 1.036482620239257812e+01 -4.067706167697906494e-01 -3.912010288331657648e-05 -1.688222400844097137e-04 -6.238269997993484139e-05 3.379301688255509362e-06
4.859000000000000000e+03 1.034629440307617188e+01 -1.146702885627746582e+00 7.002468009886797518e-06 1.547744177514687181e-04 4.853306381846778095e-05 2.463425698806531727e-05
4.860000000000000000e+03 1.258031177520751953e+01 -1.249099493026733398e+00 -6.101475810282863677e-05 -8.658850128995254636e-05 -4.428097599884495139e-05 -1.438192794012138620e-05
4.861000000000000000e+03 1.183553314208984375e+01 -1.213789224624633789e+00 4.876331877312622964e-05 1.059537898981943727e-04 4.641513442038558424e-05 1.454954417567932978e-05
4.862000000000000000e+03 6.801589965820312500e+01 -6.402975559234619141e+00 3.267691040039062500e+01 6.375504493713378906e+00 1.171572399139404297e+01 1.226921272277832031e+01
4.863000000000000000e+03 6.801981353759765625e+01 -6.422045230865478516e+00 2.983954811096191406e+01 1.881997299194335938e+01 1.459785652160644531e+01 2.353148841857910156e+01
4.864000000000000000e+03 6.802737426757812500e+01 -6.439987182617187500e+00 2.734996032714843750e+01 3.090766716003417969e+01 1.747728729248046875e+01 2.745174598693847656e+01
4.865000000000000000e+03 6.803827667236328125e+01 -6.456115245819091797e+00 2.338584327697753906e+01 4.336194610595703125e+01 2.002433776855468750e+01 2.854989624023437500e+01
4.866000000000000000e+03 6.805211639404296875e+01 -6.469811439514160156e+00 1.993482780456542969e+01 5.479504394531250000e+01 2.241896057128906250e+01 2.659427070617675781e+01
4.867000000000000000e+03 6.806835174560546875e+01 -6.480551719665527344e+00 1.659768486022949219e+01 6.447868347167968750e+01 2.432291030883789062e+01 2.217111015319824219e+01
4.868000000000000000e+03 6.808637237548828125e+01 -6.487926006317138672e+00 1.499232578277587891e+01 7.152869415283203125e+01 2.595630645751953125e+01 1.592211437225341797e+01
4.869000000000000000e+03 6.810547637939453125e+01 -6.491651058197021484e+00 1.502494335174560547e+01 7.544530487060546875e+01 2.714107322692871094e+01 8.585963249206542969e+00
4.870000000000000000e+03 6.812494659423828125e+01 -6.491584777832031250e+00 1.718870353698730469e+01 7.613112640380859375e+01 2.799594879150390625e+01 1.414551496505737305e+00
4.871000000000000000e+03 6.814402770996093750e+01 -6.487730026245117188e+00 2.109408378601074219e+01 7.390271759033203125e+01 2.849904060363769531e+01 -4.789445400238037109e+00
4.872000000000000000e+03 6.816199493408203125e+01 -6.480233669281005859e+00 2.625885009765625000e+01 6.964912414550781250e+01 2.877239036560058594e+01 -9.123689651489257812e+00
4.873000000000000000e+03 6.817816162109375000e+01 -6.469383239746093750e+00 3.189947128295898438e+01 6.416756439208984375e+01 2.882011032104492188e+01 -1.133547973632812500e+01
4.874000000000000000e+03 6.819190216064453125e+01 -6.455593109130859375e+00 3.721092605590820312e+01 5.863429641723632812e+01 2.875356674194335938e+01 -1.134965991973876953e+01
4.875000000000000000e+03 6.820269775390625000e+01 -6.439392089843750000e+00 4.169474029541015625e+01 5.377851486206054688e+01 2.864197540283203125e+01 -9.478409767150878906e+00
4.876000000000000000e+03 6.821012878417968750e+01 -6.421399116516113281e+00 4.483301925659179688e+01 5.024149703979492188e+01 2.852235603332519531e+01 -6.242755413055419922e+00
4.877000000000000000e+03 6.821392059326171875e+01 -6.402303218841552734e+00 4.645301818847656250e+01 4.837984085083007812e+01 2.844985771179199219e+01 -2.159392833709716797e+00
4.878000000000000000e+03 6.821391296386718750e+01 -6.382834911346435547e+00 4.645815277099609375e+01 4.838973236083984375e+01 2.845436477661132812e+01 2.174495220184326172e+00
4.879000000000000000e+03 6.821012878417968750e+01 -6.363739490509033203e+00 4.483232879638671875e+01 5.024598312377929688e+01 2.852349472045898438e+01 6.267548561096191406e+00
4.880000000000000000e+03 6.820269012451171875e+01 -6.345747470855712891e+00 4.169115447998046875e+01 5.375652313232421875e+01 2.863430213928222656e+01 9.501655578613281250e+00
4.881000000000000000e+03 6.819189453125000000e+01 -6.329547405242919922e+00 3.723088836669921875e+01 5.864759063720703125e+01 2.876354408264160156e+01 1.136438846588134766e+01
4.882000000000000000e+03 6.817814636230468750e+01 -6.315759181976318359e+00 3.187492752075195312e+01 6.417781829833984375e+01 2.881582260131835938e+01 1.136153697967529297e+01
4.883000000000000000e+03 6.816198730468750000e+01 -6.304910659790039062e+00 2.625093460083007812e+01 6.962741851806640625e+01 2.876350593566894531e+01 9.164685249328613281e+00
4.884000000000000000e+03 6.814402008056640625e+01 -6.297416687011718750e+00 2.110562324523925781e+01 7.392849731445312500e+01 2.851023483276367188e+01 4.800857543945312500e+00
4.885000000000000000e+03 6.812493133544921875e+01 -6.293564319610595703e+00 1.714634513854980469e+01 7.613048553466796875e+01 2.798304939270019531e+01 -1.390134096145629883e+00
4.886000000000000000e+03 6.810546875000000000e+01 -6.293500423431396484e+00 1.497276401519775391e+01 7.544362640380859375e+01 2.712491798400878906e+01 -8.554230690002441406e+00
4.887000000000000000e+03 6.808635711669921875e+01 -6.297228336334228516e+00 1.498467636108398438e+01 7.154982757568359375e+01 2.596035194396972656e+01 -1.588807964324951172e+01
4.888000000000000000e+03 6.806834411621093750e+01 -6.304604530334472656e+00 1.655068397521972656e+01 6.446833038330078125e+01 2.430570411682128906e+01 -2.215711975097656250e+01
4.889000000000000000e+03 6.805210876464843750e+01 -6.315347194671630859e+00 1.984896278381347656e+01 5.478089523315429688e+01 2.238895797729492188e+01 -2.658459663391113281e+01
4.890000000000000000e+03 6.803826904296875000e+01 -6.329045295715332031e+00 2.332099723815917969e+01 4.340987014770507812e+01 2.001926040649414062e+01 -2.852466011047363281e+01
4.891000000000000000e+03 6.802736663818359375e+01 -6.345174312591552734e+00 2.730146789550781250e+01 3.090415191650390625e+01 1.746168518066406250e+01 -2.742492866516113281e+01
4.892000000000000000e+03 6.801981353759765625e+01 -6.363117218017578125e+00 2.976464843750000000e+01 1.881556701660156250e+01 1.457406425476074219e+01 -2.352664947509765625e+01
4.893000000000000000e+03 6.801589965820312500e+01 -6.382187366485595703e+00 3.260680770874023438e+01 6.386690616607666016e+00 1.169804954528808594e+01 -1.227499198913574219e+01
