# el_label, x, y, sXX, sYY, sZZ, sXY
1.000000000000000000e+00 5.881795120239257812e+01 -6.419198513031005859e+00 -4.905591011047363281e+00 -2.677090167999267578e+00 -2.274804353713989258e+00 -2.707090139389038086e+00
2.000000000000000000e+00 5.861999893188476562e+01 -6.440005779266357422e+00 -7.603456974029541016e-01 1.076764464378356934e+00 9.492562711238861084e-02 7.479106187820434570e-01
3.000000000000000000e+00 5.842205047607421875e+01 -6.460813045501708984e+00 -2.000681638717651367e+00 -4.930287301540374756e-01 -7.481131553649902344e-01 -2.564166858792304993e-02
4.000000000000000000e+00 5.822409820556640625e+01 -6.481620788574218750e+00 -2.251996755599975586e+00 3.053058385848999023e-01 -5.840072631835937500e-01 1.193722561001777649e-01
5.000000000000000000e+00 5.882970809936523438e+01 -6.476407527923583984e+00 1.037513637542724609e+01 -2.387470960617065430e+00 2.396299600601196289e+00 1.990790009498596191e+00
6.000000000000000000e+00 5.863959503173828125e+01 -6.535353660583496094e+00 3.169751644134521484e+00 3.348987102508544922e-01 1.051395058631896973e+00 1.442220211029052734e+00
7.000000000000000000e+00 5.844948577880859375e+01 -6.594300270080566406e+00 2.932643413543701172e+00 9.634874463081359863e-01 1.168839216232299805e+00 2.055950880050659180e+00
8.000000000000000000e+00 5.825937271118164062e+01 -6.653246879577636719e+00 1.473999142646789551e+00 1.102763712406158447e-01 4.752826690673828125e-01 1.406900525093078613e+00
9.000000000000000000e+00 5.885237884521484375e+01 -6.530232429504394531e+00 1.531706142425537109e+01 2.738206148147583008e+00 5.416580200195312500e+00 9.096360206604003906e+00
1.000000000000000000e+01 5.867737960815429688e+01 -6.625062465667724609e+00 9.045350074768066406e+00 1.596418380737304688e+00 3.192530632019042969e+00 5.258895397186279297e+00
1.100000000000000000e+01 5.850238037109375000e+01 -6.719892501831054688e+00 5.681987762451171875e+00 2.219884157180786133e+00 2.370561599731445312e+00 4.252975940704345703e+00
1.200000000000000000e+01 5.832738113403320312e+01 -6.814722537994384766e+00 4.724757671356201172e+00 1.981635212898254395e+00 2.011917829513549805e+00 3.998494148254394531e+00
1.300000000000000000e+01 5.888509368896484375e+01 -6.578614234924316406e+00 1.685549926757812500e+01 9.704154014587402344e+00 7.967896461486816406e+00 1.444557857513427734e+01
1.400000000000000000e+01 5.873190307617187500e+01 -6.705698966979980469e+00 1.057255744934082031e+01 6.095217227935791016e+00 5.000332355499267578e+00 9.381349563598632812e+00
1.500000000000000000e+01 5.857871627807617188e+01 -6.832783699035644531e+00 8.146678924560546875e+00 4.864268779754638672e+00 3.903284311294555664e+00 7.522805690765380859e+00
1.600000000000000000e+01 5.842552947998046875e+01 -6.959868431091308594e+00 6.276001930236816406e+00 4.585772037506103516e+00 3.258532285690307617e+00 6.446938514709472656e+00
1.700000000000000000e+01 5.892660140991210938e+01 -6.619701862335205078e+00 1.489603805541992188e+01 1.844392395019531250e+01 1.000198841094970703e+01 1.763232040405273438e+01
1.800000000000000000e+01 5.880108642578125000e+01 -6.774177551269531250e+00 1.054080390930175781e+01 1.198137474060058594e+01 6.756653785705566406e+00 1.241742038726806641e+01
1.900000000000000000e+01 5.867556762695312500e+01 -6.928653717041015625e+00 8.068192481994628906e+00 9.438510894775390625e+00 5.252010822296142578e+00 9.886698722839355469e+00
2.000000000000000000e+01 5.855005264282226562e+01 -7.083129882812500000e+00 6.783944606781005859e+00 8.005915641784667969e+00 4.436958312988281250e+00 8.768472671508789062e+00
2.100000000000000000e+01 5.897531509399414062e+01 -6.651921749114990234e+00 1.204942989349365234e+01 2.736837196350097656e+01 1.182534027099609375e+01 1.818781852722167969e+01
2.200000000000000000e+01 5.888227462768554688e+01 -6.827877998352050781e+00 8.729773521423339844e+00 1.866259384155273438e+01 8.217710494995117188e+00 1.350587081909179688e+01
2.300000000000000000e+01 5.878923034667968750e+01 -7.003834247589111328e+00 7.076787948608398438e+00 1.497584438323974609e+01 6.615789413452148438e+00 1.121388912200927734e+01
2.400000000000000000e+01 5.869618988037109375e+01 -7.179790496826171875e+00 5.630613803863525391e+00 1.253459167480468750e+01 5.449561595916748047e+00 9.562006950378417969e+00
2.500000000000000000e+01 5.902936935424804688e+01 -6.674042224884033203e+00 8.877401351928710938e+00 3.543619537353515625e+01 1.329407882690429688e+01 1.609767723083496094e+01
2.600000000000000000e+01 5.897236251831054688e+01 -6.864745140075683594e+00 6.896454334259033203e+00 2.517262840270996094e+01 9.620724678039550781e+00 1.277553367614746094e+01
2.700000000000000000e+01 5.891535568237304688e+01 -7.055448055267333984e+00 5.267632007598876953e+00 2.044021797180175781e+01 7.712354660034179688e+00 1.081929111480712891e+01
2.800000000000000000e+01 5.885834884643554688e+01 -7.246151447296142578e+00 4.268788337707519531e+00 1.794544601440429688e+01 6.664270401000976562e+00 9.561689376831054688e+00
2.900000000000000000e+01 5.908669281005859375e+01 -6.685215950012207031e+00 7.086905002593994141e+00 4.169909286499023438e+01 1.463579940795898438e+01 1.208637809753417969e+01
3.000000000000000000e+01 5.906790542602539062e+01 -6.883368015289306641e+00 5.292576313018798828e+00 3.060320281982421875e+01 1.076873397827148438e+01 1.031908416748046875e+01
3.100000000000000000e+01 5.904911422729492188e+01 -7.081520080566406250e+00 3.931495904922485352e+00 2.539839744567871094e+01 8.798968315124511719e+00 9.086454391479492188e+00
3.200000000000000000e+01 5.903032684326171875e+01 -7.279672622680664062e+00 3.175938606262207031e+00 2.217356681823730469e+01 7.604851722717285156e+00 8.266102790832519531e+00
3.300000000000000000e+01 5.914509963989257812e+01 -6.685015678405761719e+00 7.037698745727539062e+00 4.552249526977539062e+01 1.576805782318115234e+01 6.949337959289550781e+00
3.400000000000000000e+01 5.916524505615234375e+01 -6.883034229278564453e+00 4.770388126373291016e+00 3.452075576782226562e+01 1.178734302520751953e+01 6.832394599914550781e+00
3.500000000000000000e+01 5.918539047241210938e+01 -7.081053256988525391e+00 3.498061418533325195e+00 2.896449851989746094e+01 9.738767623901367188e+00 6.262849330902099609e+00
3.600000000000000000e+01 5.920553970336914062e+01 -7.279071807861328125e+00 2.642851591110229492e+00 2.533021926879882812e+01 8.391921043395996094e+00 5.732764720916748047e+00
3.700000000000000000e+01 5.920234680175781250e+01 -6.673449039459228516e+00 8.814330101013183594e+00 4.684653472900390625e+01 1.669825935363769531e+01 1.835528850555419922e+00
3.800000000000000000e+01 5.926065826416015625e+01 -6.863756656646728516e+00 5.722726821899414062e+00 3.656818389892578125e+01 1.268727302551269531e+01 2.940594434738159180e+00
3.900000000000000000e+01 5.931896972656250000e+01 -7.054064273834228516e+00 4.079207420349121094e+00 3.095779609680175781e+01 1.051110076904296875e+01 2.915074586868286133e+00
4.000000000000000000e+01 5.937728118896484375e+01 -7.244371414184570312e+00 3.140763282775878906e+00 2.738820266723632812e+01 9.158689498901367188e+00 2.772332906723022461e+00
4.100000000000000000e+01 5.925624847412109375e+01 -6.650958538055419922e+00 1.223518943786621094e+01 4.609833145141601562e+01 1.750005531311035156e+01 -2.347795963287353516e+00
4.200000000000000000e+01 5.935049438476562500e+01 -6.826272487640380859e+00 7.931161403656005859e+00 3.679473114013671875e+01 1.341776847839355469e+01 -6.723174452781677246e-01
4.300000000000000000e+01 5.944474029541015625e+01 -7.001586437225341797e+00 5.886780261993408203e+00 3.144020843505859375e+01 1.119809627532958984e+01 -2.343527078628540039e-01
4.400000000000000000e+01 5.953898620605468750e+01 -7.176900386810302734e+00 4.627704143524169922e+00 2.793194770812988281e+01 9.767895698547363281e+00 -1.740826107561588287e-02
4.500000000000000000e+01 5.930473709106445312e+01 -6.618404865264892578e+00 1.655037879943847656e+01 4.392238235473632812e+01 1.814182853698730469e+01 -5.042167186737060547e+00
4.600000000000000000e+01 5.943130874633789062e+01 -6.772016525268554688e+00 1.115507507324218750e+01 3.559434890747070312e+01 1.402482700347900391e+01 -3.376050233840942383e+00
4.700000000000000000e+01 5.955788421630859375e+01 -6.925628185272216797e+00 8.617317199707031250e+00 3.059939193725585938e+01 1.176501274108886719e+01 -2.628699302673339844e+00
4.800000000000000000e+01 5.968445587158203125e+01 -7.079239845275878906e+00 7.007042407989501953e+00 2.719657135009765625e+01 1.026108360290527344e+01 -2.230821371078491211e+00
4.900000000000000000e+01 5.934596252441406250e+01 -6.577033996582031250e+00 2.099734878540039062e+01 4.111000442504882812e+01 1.863220596313476562e+01 -6.061670303344726562e+00
5.000000000000000000e+01 5.950001907348632812e+01 -6.703064918518066406e+00 1.484654998779296875e+01 3.352984237670898438e+01 1.451291751861572266e+01 -4.745440006256103516e+00
5.100000000000000000e+01 5.965407562255859375e+01 -6.829095840454101562e+00 1.182504367828369141e+01 2.886192703247070312e+01 1.220609188079833984e+01 -3.947174072265625000e+00
5.200000000000000000e+01 5.980813217163085938e+01 -6.955126762390136719e+00 9.866913795471191406e+00 2.578171730041503906e+01 1.069458961486816406e+01 -3.463623046875000000e+00
5.300000000000000000e+01 5.937834548950195312e+01 -6.528428554534912109e+00 2.489480400085449219e+01 3.844594192504882812e+01 1.900222396850585938e+01 -5.525316238403320312e+00
5.400000000000000000e+01 5.955398941040039062e+01 -6.622056007385253906e+00 1.837692642211914062e+01 3.117418289184570312e+01 1.486533260345458984e+01 -4.698307037353515625e+00
5.500000000000000000e+01 5.972963333129882812e+01 -6.715683937072753906e+00 1.491589832305908203e+01 2.690233612060546875e+01 1.254547023773193359e+01 -4.009503364562988281e+00
5.600000000000000000e+01 5.990528106689453125e+01 -6.809311389923095703e+00 1.267998790740966797e+01 2.406956863403320312e+01 1.102486610412597656e+01 -3.562388420104980469e+00
5.700000000000000000e+01 5.940064620971679688e+01 -6.474449157714843750e+00 2.774474143981933594e+01 3.637416076660156250e+01 1.923567008972167969e+01 -3.792623519897460938e+00
5.800000000000000000e+01 5.959115600585937500e+01 -6.532090187072753906e+00 2.112048912048339844e+01 2.923191833496093750e+01 1.510572242736816406e+01 -3.398114442825317383e+00
5.900000000000000000e+01 5.978166961669921875e+01 -6.589731693267822266e+00 1.736073493957519531e+01 2.519205856323242188e+01 1.276583766937255859e+01 -2.929054021835327148e+00
6.000000000000000000e+01 5.997217941284179688e+01 -6.647372722625732422e+00 1.486988830566406250e+01 2.259075927734375000e+01 1.123819446563720703e+01 -2.604974031448364258e+00
6.100000000000000000e+01 5.941201019287109375e+01 -6.417160987854003906e+00 2.923362159729003906e+01 3.529079055786132812e+01 1.935732460021972656e+01 -1.347983479499816895e+00
6.200000000000000000e+01 5.961009979248046875e+01 -6.436610221862792969e+00 2.262363243103027344e+01 2.810513114929199219e+01 1.521862888336181641e+01 -1.221549034118652344e+00
6.300000000000000000e+01 5.980818557739257812e+01 -6.456059455871582031e+00 1.868816947937011719e+01 2.424256706237792969e+01 1.287922096252441406e+01 -1.071723222732543945e+00
6.400000000000000000e+01 6.000627517700195312e+01 -6.475508213043212891e+00 1.609349632263183594e+01 2.166329193115234375e+01 1.132703685760498047e+01 -9.107827544212341309e-01
6.500000000000000000e+01 5.941200637817382812e+01 -6.358756542205810547e+00 2.922855377197265625e+01 3.527472305297851562e+01 1.935098266601562500e+01 1.365904569625854492e+00
6.600000000000000000e+01 5.961008834838867188e+01 -6.339269638061523438e+00 2.261830902099609375e+01 2.812002754211425781e+01 1.522150039672851562e+01 1.233597517013549805e+00
6.700000000000000000e+01 5.980817413330078125e+01 -6.319782257080078125e+00 1.868769454956054688e+01 2.422140693664550781e+01 1.287273025512695312e+01 1.094559431076049805e+00
6.800000000000000000e+01 6.000625610351562500e+01 -6.300294876098632812e+00 1.608959579467773438e+01 2.163492774963378906e+01 1.131735706329345703e+01 9.957070946693420410e-01
6.900000000000000000e+01 5.940062713623046875e+01 -6.301470756530761719e+00 2.774532127380371094e+01 3.637626647949218750e+01 1.923647499084472656e+01 3.800223112106323242e+00
7.000000000000000000e+01 5.959112930297851562e+01 -6.243793010711669922e+00 2.110532569885253906e+01 2.922013664245605469e+01 1.509763908386230469e+01 3.425084590911865234e+00
7.100000000000000000e+01 5.978163146972656250e+01 -6.186115264892578125e+00 1.733843803405761719e+01 2.519787216186523438e+01 1.276089382171630859e+01 2.935736894607543945e+00
7.200000000000000000e+01 5.997212982177734375e+01 -6.128437519073486328e+00 1.489603996276855469e+01 2.246718215942382812e+01 1.120896720886230469e+01 2.658677577972412109e+00
7.300000000000000000e+01 5.937831878662109375e+01 -6.247495651245117188e+00 2.487480545043945312e+01 3.844190979003906250e+01 1.899501419067382812e+01 5.549124240875244141e+00
7.400000000000000000e+01 5.955394363403320312e+01 -6.153834342956542969e+00 1.836649703979492188e+01 3.116409683227539062e+01 1.485917854309082031e+01 4.708173274993896484e+00
7.500000000000000000e+01 5.972957229614257812e+01 -6.060173034667968750e+00 1.487830734252929688e+01 2.689991760253906250e+01 1.253346729278564453e+01 4.046575546264648438e+00
7.600000000000000000e+01 5.990520095825195312e+01 -5.966511726379394531e+00 1.268729209899902344e+01 2.400227355957031250e+01 1.100686931610107422e+01 3.520127773284912109e+00
7.700000000000000000e+01 5.934592437744140625e+01 -6.198896884918212891e+00 2.099118041992187500e+01 4.109479522705078125e+01 1.862579345703125000e+01 6.078427314758300781e+00
7.800000000000000000e+01 5.949995803833007812e+01 -6.072835922241210938e+00 1.480882263183593750e+01 3.353075790405273438e+01 1.450187397003173828e+01 4.766805171966552734e+00
7.900000000000000000e+01 5.965399169921875000e+01 -5.946775436401367188e+00 1.180607509613037109e+01 2.883496093750000000e+01 1.219231128692626953e+01 3.968147039413452148e+00
8.000000000000000000e+01 5.980802536010742188e+01 -5.820714950561523438e+00 9.818685531616210938e+00 2.582369041442871094e+01 1.069271278381347656e+01 3.453471899032592773e+00
8.100000000000000000e+01 5.930469131469726562e+01 -6.157533645629882812e+00 1.651704025268554688e+01 4.391844558715820312e+01 1.813064575195312500e+01 5.060703277587890625e+00
8.200000000000000000e+01 5.943123626708984375e+01 -6.003897666931152344e+00 1.113354587554931641e+01 3.557844161987304688e+01 1.401359653472900391e+01 3.397147178649902344e+00
8.300000000000000000e+01 5.955778121948242188e+01 -5.850261688232421875e+00 8.569980621337890625e+00 3.059356689453125000e+01 1.174906444549560547e+01 2.646776676177978516e+00
8.400000000000000000e+01 5.968432617187500000e+01 -5.696625709533691406e+00 6.967575550079345703e+00 2.720613861083984375e+01 1.025211429595947266e+01 2.249043464660644531e+00
8.500000000000000000e+01 5.925619506835937500e+01 -6.124989509582519531e+00 1.222368907928466797e+01 4.608407974243164062e+01 1.749233055114746094e+01 2.365371227264404297e+00
8.600000000000000000e+01 5.935040664672851562e+01 -5.949657440185546875e+00 7.879993438720703125e+00 3.678760147094726562e+01 1.340027809143066406e+01 6.951082348823547363e-01
8.700000000000000000e+01 5.944462203979492188e+01 -5.774325370788574219e+00 5.851327419281005859e+00 3.142632293701171875e+01 1.118329524993896484e+01 2.497974187135696411e-01
8.800000000000000000e+01 5.953883361816406250e+01 -5.598992824554443359e+00 4.549093246459960938e+00 2.791971206665039062e+01 9.740641593933105469e+00 2.989266999065876007e-02
8.900000000000000000e+01 5.920228958129882812e+01 -6.102509021759033203e+00 8.770492553710937500e+00 4.685347366333007812e+01 1.668718910217285156e+01 -1.837033271789550781e+00
9.000000000000000000e+01 5.926056671142578125e+01 -5.912190437316894531e+00 5.702832221984863281e+00 3.653292083740234375e+01 1.267072677612304688e+01 -2.910717248916625977e+00
9.100000000000000000e+01 5.931884384155273438e+01 -5.721871852874755859e+00 3.994125127792358398e+00 3.096200942993164062e+01 1.048684024810791016e+01 -2.895851612091064453e+00
9.200000000000000000e+01 5.937711715698242188e+01 -5.531552791595458984e+00 3.070156574249267578e+00 2.737603187561035156e+01 9.133856773376464844e+00 -2.774744272232055664e+00
9.300000000000000000e+01 5.914504241943359375e+01 -6.090953826904296875e+00 6.990882396697998047e+00 4.552073287963867188e+01 1.575348472595214844e+01 -6.927353858947753906e+00
9.400000000000000000e+01 5.916514968872070312e+01 -5.892930984497070312e+00 4.745277881622314453e+00 3.450069046020507812e+01 1.177379035949707031e+01 -6.847344398498535156e+00
9.500000000000000000e+01 5.918526077270507812e+01 -5.694908618927001953e+00 3.439503192901611328e+00 2.891484642028808594e+01 9.706304550170898438e+00 -6.199943542480468750e+00
9.600000000000000000e+01 5.920536804199218750e+01 -5.496885776519775391e+00 2.487378358840942383e+00 2.537738609313964844e+01 8.359429359436035156e+00 -5.725863933563232422e+00
9.700000000000000000e+01 5.908663558959960938e+01 -6.090764522552490234e+00 7.040652751922607422e+00 4.169350051879882812e+01 1.462024593353271484e+01 -1.208461952209472656e+01
9.800000000000000000e+01 5.906781005859375000e+01 -5.892615795135498047e+00 5.247723579406738281e+00 3.060790061950683594e+01 1.075668716430664062e+01 -1.032089614868164062e+01
9.900000000000000000e+01 5.904898452758789062e+01 -5.694467067718505859e+00 3.925454139709472656e+00 2.532710075378417969e+01 8.775766372680664062e+00 -9.095405578613281250e+00
1.000000000000000000e+02 5.903015518188476562e+01 -5.496318817138671875e+00 3.025704860687255859e+00 2.208685684204101562e+01 7.533768177032470703e+00 -8.141404151916503906e+00
1.010000000000000000e+02 5.902931213378906250e+01 -6.101949214935302734e+00 8.847836494445800781e+00 3.544644165039062500e+01 1.328828334808349609e+01 -1.609030342102050781e+01
1.020000000000000000e+02 5.897227096557617188e+01 -5.911257266998291016e+00 6.827341556549072266e+00 2.516779899597167969e+01 9.598542213439941406e+00 -1.278787612915039062e+01
1.030000000000000000e+02 5.891522979736328125e+01 -5.720565319061279297e+00 5.258122444152832031e+00 2.045755958557128906e+01 7.714704513549804688e+00 -1.086286544799804688e+01
1.040000000000000000e+02 5.885818481445312500e+01 -5.529872894287109375e+00 4.277549266815185547e+00 1.774825477600097656e+01 6.607741355895996094e+00 -9.589558601379394531e+00
1.050000000000000000e+02 5.897526550292968750e+01 -6.124079704284667969e+00 1.200459671020507812e+01 2.736856079101562500e+01 1.181194782257080078e+01 -1.819351387023925781e+01
1.060000000000000000e+02 5.888218688964843750e+01 -5.948141574859619141e+00 8.674506187438964844e+00 1.868442916870117188e+01 8.207680702209472656e+00 -1.351297187805175781e+01
1.070000000000000000e+02 5.878911209106445312e+01 -5.772203445434570312e+00 7.005638599395751953e+00 1.499539661407470703e+01 6.600310802459716797e+00 -1.125247287750244141e+01
1.080000000000000000e+02 5.869603729248046875e+01 -5.596264839172363281e+00 5.635536670684814453e+00 1.277883720397949219e+01 5.524312019348144531e+00 -9.734304428100585938e+00
1.090000000000000000e+02 5.892655563354492188e+01 -6.156309604644775391e+00 1.481008338928222656e+01 1.842680740356445312e+01 9.971067428588867188e+00 -1.765728187561035156e+01
1.100000000000000000e+02 5.880101013183593750e+01 -6.001857757568359375e+00 1.051993846893310547e+01 1.201738452911376953e+01 6.761197090148925781e+00 -1.239549922943115234e+01
1.110000000000000000e+02 5.867546463012695312e+01 -5.847405433654785156e+00 7.942889690399169922e+00 9.502537727355957031e+00 5.233628273010253906e+00 -9.941817283630371094e+00
1.120000000000000000e+02 5.854991912841796875e+01 -5.692953586578369141e+00 6.651685237884521484e+00 8.351791381835937500e+00 4.501042842864990234e+00 -8.667020797729492188e+00
1.130000000000000000e+02 5.888505935668945312e+01 -6.197404861450195312e+00 1.679848289489746094e+01 9.773260116577148438e+00 7.971522808074951172e+00 -1.443006420135498047e+01
1.140000000000000000e+02 5.873184585571289062e+01 -6.070349693298339844e+00 1.052215385437011719e+01 6.048502445220947266e+00 4.971196651458740234e+00 -9.423199653625488281e+00
1.150000000000000000e+02 5.857863235473632812e+01 -5.943294525146484375e+00 8.069795608520507812e+00 5.035838127136230469e+00 3.931690216064453125e+00 -7.446178913116455078e+00
1.160000000000000000e+02 5.842541885375976562e+01 -5.816239356994628906e+00 6.149171352386474609e+00 4.465844154357910156e+00 3.184504747390747070e+00 -6.281782150268554688e+00
1.170000000000000000e+02 5.885235214233398438e+01 -6.245792865753173828e+00 1.528539848327636719e+01 2.713547706604003906e+00 5.399683952331542969e+00 -9.081551551818847656e+00
1.180000000000000000e+02 5.867733383178710938e+01 -6.150996685028076172e+00 8.953372001647949219e+00 1.651815891265869141e+00 3.181556463241577148e+00 -5.290612220764160156e+00
1.190000000000000000e+02 5.850231552124023438e+01 -6.056200027465820312e+00 5.687373161315917969e+00 2.192983388900756836e+00 2.364106893539428711e+00 -4.157643318176269531e+00
1.200000000000000000e+02 5.832730102539062500e+01 -5.961403846740722656e+00 4.751153945922851562e+00 1.948291182518005371e+00 2.009833574295043945e+00 -3.970389842987060547e+00
1.210000000000000000e+02 5.882969284057617188e+01 -6.299622535705566406e+00 1.028110694885253906e+01 -2.430804491043090820e+00 2.355090618133544922e+00 -2.031313180923461914e+00
1.220000000000000000e+02 5.863956832885742188e+01 -6.240712642669677734e+00 3.120418548583984375e+00 4.085048437118530273e-01 1.058677077293395996e+00 -1.396069407463073730e+00
1.230000000000000000e+02 5.844944381713867188e+01 -6.181802749633789062e+00 2.913816452026367188e+00 8.561129570007324219e-01 1.130978822708129883e+00 -2.091825485229492188e+00
1.240000000000000000e+02 5.825931930541992188e+01 -6.122892856597900391e+00 1.555015325546264648e+00 2.489243447780609131e-01 5.411819219589233398e-01 -1.359580755233764648e+00
1.250000000000000000e+02 5.881794738769531250e+01 -6.356833457946777344e+00 -4.952984333038330078e+00 -2.573718309402465820e+00 -2.258010864257812500e+00 2.712907314300537109e+00
1.260000000000000000e+02 5.861999130249023438e+01 -6.336064338684082031e+00 -8.179227113723754883e-01 9.779753088951110840e-01 4.801576584577560425e-02 -7.512418031692504883e-01
1.270000000000000000e+02 5.842203521728515625e+01 -6.315295219421386719e+00 -2.065752506256103516e+00 -4.032246470451354980e-01 -7.406930923461914062e-01 2.799835987389087677e-02
1.280000000000000000e+02 5.822408294677734375e+01 -6.294526100158691406e+00 -2.318778991699218750e+00 2.289275974035263062e-01 -6.269553899765014648e-01 -1.184950172901153564e-01
1.290000000000000000e+02 2.196186065673828125e+01 -6.700578212738037109e+00 -3.209822475910186768e-01 5.287976469844579697e-03 -9.470828622579574585e-02 -2.941391896456480026e-03
1.300000000000000000e+02 2.033289909362792969e+01 -7.179516792297363281e+00 -2.187702357769012451e-01 1.358558982610702515e-02 -6.155539304018020630e-02 -7.683468610048294067e-02
1.310000000000000000e+02 2.261169624328613281e+01 -7.556783676147460938e+00 -4.828677177429199219e-01 1.406893134117126465e-02 -1.406396329402923584e-01 -1.022887974977493286e-01
1.320000000000000000e+02 2.185197448730468750e+01 -7.432458400726318359e+00 -3.929570317268371582e-01 2.051264233887195587e-02 -1.117333173751831055e-01 -9.354174882173538208e-02
1.330000000000000000e+02 2.270871162414550781e+01 -6.822772979736328125e+00 -4.491511583328247070e-01 2.480963303241878748e-04 -1.346709281206130981e-01 1.698952517472207546e-03
1.340000000000000000e+02 2.121509361267089844e+01 -6.576943874359130859e+00 -2.183435708284378052e-01 5.457100924104452133e-03 -6.386593729257583618e-02 -1.133157871663570404e-02
1.350000000000000000e+02 2.046852302551269531e+01 -6.451897144317626953e+00 -1.313298195600509644e-01 6.734102964401245117e-03 -3.737871348857879639e-02 -1.844419725239276886e-02
1.360000000000000000e+02 2.109233665466308594e+01 -7.306693553924560547e+00 -2.993587255477905273e-01 1.841194182634353638e-02 -8.428403735160827637e-02 -8.622059226036071777e-02
1.370000000000000000e+02 2.421343040466308594e+01 -6.977969646453857422e+00 -6.723318099975585938e-01 2.612079726532101631e-03 -2.009159177541732788e-01 1.051933577400632203e-05
1.380000000000000000e+02 2.414235687255859375e+01 -7.714632511138916016e+00 -6.801317334175109863e-01 9.914755821228027344e-03 -2.010650932788848877e-01 -9.767269343137741089e-02
1.390000000000000000e+02 2.337517356872558594e+01 -7.650850772857666016e+00 -5.775211453437805176e-01 9.513437747955322266e-03 -1.704023033380508423e-01 -1.002234816551208496e-01
1.400000000000000000e+02 2.490980529785156250e+01 -7.777047634124755859e+00 -7.808266878128051758e-01 7.914111018180847168e-03 -2.318737804889678955e-01 -1.057628616690635681e-01
1.410000000000000000e+02 2.496787261962890625e+01 -7.039327144622802734e+00 -7.865117192268371582e-01 1.552817295305430889e-03 -2.354876697063446045e-01 4.470373969525098801e-03
1.420000000000000000e+02 2.567740631103515625e+01 -7.838097095489501953e+00 -8.711016178131103516e-01 -3.572675865143537521e-03 -2.624022960662841797e-01 -1.116956174373626709e-01
1.430000000000000000e+02 2.572246742248535156e+01 -7.099318504333496094e+00 -9.213541150093078613e-01 -5.724929273128509521e-03 -2.781237065792083740e-01 1.456941536162048578e-04
1.440000000000000000e+02 2.345925331115722656e+01 -6.915245532989501953e+00 -5.701756477355957031e-01 -2.444085199385881424e-03 -1.717859208583831787e-01 -6.452880334109067917e-04
1.450000000000000000e+02 2.796761512756347656e+01 -7.914083957672119141e+00 -1.151632785797119141e+00 -4.338165745139122009e-03 -3.467912673950195312e-01 -1.201093867421150208e-01
1.460000000000000000e+02 2.720497512817382812e+01 -7.896495819091796875e+00 -1.063108801841735840e+00 -4.549389705061912537e-03 -3.202974498271942139e-01 -1.094859838485717773e-01
1.470000000000000000e+02 2.644245719909667969e+01 -7.877746582031250000e+00 -9.638937115669250488e-01 -7.745049893856048584e-03 -2.914916276931762695e-01 -1.078126654028892517e-01
1.480000000000000000e+02 2.873032188415527344e+01 -7.930514812469482422e+00 -1.231721997261047363e+00 -1.368807815015316010e-02 -3.736230432987213135e-01 -1.271685510873794556e-01
1.490000000000000000e+02 2.798519706726074219e+01 -7.174292564392089844e+00 -1.218366742134094238e+00 -9.503918117843568325e-04 -3.657951354980468750e-01 -2.326432615518569946e-02
1.500000000000000000e+02 2.723094940185546875e+01 -7.156898498535156250e+00 -1.119870424270629883e+00 6.229543942026793957e-05 -3.359424173831939697e-01 -2.131843008100986481e-02
1.510000000000000000e+02 2.873951339721679688e+01 -7.190530300140380859e+00 -1.332256436347961426e+00 -6.025471724569797516e-03 -4.014845490455627441e-01 -3.164658695459365845e-02
1.520000000000000000e+02 2.647681999206542969e+01 -7.138342857360839844e+00 -1.034995913505554199e+00 -7.346060592681169510e-03 -3.127025961875915527e-01 -1.347540039569139481e-02
1.530000000000000000e+02 2.949276733398437500e+01 -7.195246696472167969e+00 -1.427923202514648438e+00 -8.570211939513683319e-03 -4.309480488300323486e-01 -4.669611155986785889e-02
1.540000000000000000e+02 2.948995018005371094e+01 -7.935307502746582031e+00 -1.314703941345214844e+00 -1.420707907527685165e-02 -3.986732959747314453e-01 -1.269197613000869751e-01
1.550000000000000000e+02 3.024649810791015625e+01 -7.928795814514160156e+00 -1.401899576187133789e+00 -1.147792953997850418e-02 -4.240132272243499756e-01 -1.322886347770690918e-01
1.560000000000000000e+02 3.099722290039062500e+01 -7.181584835052490234e+00 -1.587647676467895508e+00 -3.657180350273847580e-03 -4.773914813995361328e-01 -5.993002280592918396e-02
1.570000000000000000e+02 3.175983238220214844e+01 -7.913609027862548828e+00 -1.553273200988769531e+00 -1.486757583916187286e-02 -4.704422354698181152e-01 -1.480400860309600830e-01
1.580000000000000000e+02 3.174956512451171875e+01 -7.173673152923583984e+00 -1.682882308959960938e+00 -4.871530458331108093e-03 -5.063261389732360840e-01 -6.725641340017318726e-02
1.590000000000000000e+02 3.024495315551757812e+01 -7.188776493072509766e+00 -1.502026796340942383e+00 -1.539288554340600967e-03 -4.510698318481445312e-01 -5.587696284055709839e-02
1.600000000000000000e+02 3.100312805175781250e+01 -7.921562194824218750e+00 -1.479822278022766113e+00 -8.807200938463211060e-03 -4.465888440608978271e-01 -1.420309245586395264e-01
1.610000000000000000e+02 3.325168609619140625e+01 -7.142140388488769531e+00 -1.841928005218505859e+00 -2.662135986611247063e-03 -5.533770322799682617e-01 -8.440697193145751953e-02
1.620000000000000000e+02 3.401905441284179688e+01 -7.863194465637207031e+00 -1.778660058975219727e+00 -8.854894898831844330e-03 -5.362544655799865723e-01 -1.608847826719284058e-01
1.630000000000000000e+02 3.251437759399414062e+01 -7.900443077087402344e+00 -1.628903746604919434e+00 -1.287329941987991333e-02 -4.925331175327301025e-01 -1.500774919986724854e-01
1.640000000000000000e+02 3.477159881591796875e+01 -7.845397949218750000e+00 -1.848670959472656250e+00 -1.213208865374326706e-02 -5.582408905029296875e-01 -1.642657369375228882e-01
1.650000000000000000e+02 3.475299453735351562e+01 -7.105631351470947266e+00 -2.006376028060913086e+00 -4.402007441967725754e-03 -6.032333970069885254e-01 -9.253576397895812988e-02
1.660000000000000000e+02 3.400221252441406250e+01 -7.123385429382324219e+00 -1.922105550765991211e+00 -4.837573971599340439e-03 -5.780829191207885742e-01 -8.763176202774047852e-02
1.670000000000000000e+02 3.250104904174804688e+01 -7.160549640655517578e+00 -1.768128514289855957e+00 -7.963644340634346008e-03 -5.328276753425598145e-01 -7.756217569112777710e-02
1.680000000000000000e+02 3.326676940917968750e+01 -7.881991863250732422e+00 -1.706379413604736328e+00 -1.212240383028984070e-02 -5.155505537986755371e-01 -1.542040258646011353e-01
1.690000000000000000e+02 3.550323104858398438e+01 -7.085636138916015625e+00 -2.086940288543701172e+00 -6.228419020771980286e-03 -6.279506683349609375e-01 -9.798962622880935669e-02
1.700000000000000000e+02 3.627172470092773438e+01 -7.801253795623779297e+00 -1.991453647613525391e+00 -9.832138195633888245e-03 -6.003857254981994629e-01 -1.680356860160827637e-01
1.710000000000000000e+02 3.552280426025390625e+01 -7.825378894805908203e+00 -1.919189929962158203e+00 -9.702958166599273682e-03 -5.786678791046142578e-01 -1.663656681776046753e-01
1.720000000000000000e+02 3.700176620483398438e+01 -7.040159225463867188e+00 -2.241011857986450195e+00 -4.858856089413166046e-03 -6.737611889839172363e-01 -1.035613194108009338e-01
1.730000000000000000e+02 3.775260925292968750e+01 -7.021411418914794922e+00 -2.316967248916625977e+00 -2.920716768130660057e-03 -6.959664225578308105e-01 -1.053160354495048523e-01
1.740000000000000000e+02 3.777272796630859375e+01 -7.761138439178466797e+00 -2.127980709075927734e+00 -6.965139415115118027e-03 -6.404837369918823242e-01 -1.720391809940338135e-01
1.750000000000000000e+02 3.702170562744140625e+01 -7.779891967773437500e+00 -2.059454441070556641e+00 -6.654655095189809799e-03 -6.198326945304870605e-01 -1.709264665842056274e-01
1.760000000000000000e+02 3.625196838378906250e+01 -7.061516284942626953e+00 -2.163171529769897461e+00 -3.107523312792181969e-03 -6.498837471008300781e-01 -1.016511395573616028e-01
1.770000000000000000e+02 3.925203704833984375e+01 -6.983466625213623047e+00 -2.477735042572021484e+00 -3.180986503139138222e-03 -7.442747950553894043e-01 -1.068993434309959412e-01
1.780000000000000000e+02 3.850259399414062500e+01 -7.002532482147216797e+00 -2.396102905273437500e+00 -3.589623607695102692e-03 -7.199077606201171875e-01 -1.058116257190704346e-01
1.790000000000000000e+02 3.852244567871093750e+01 -7.742266178131103516e+00 -2.194839000701904297e+00 -4.964355845004320145e-03 -6.599409580230712891e-01 -1.738975197076797485e-01
1.800000000000000000e+02 4.076818847656250000e+01 -7.683057308197021484e+00 -2.394357442855834961e+00 -1.975937047973275185e-03 -7.189000248908996582e-01 -1.706632077693939209e-01
1.810000000000000000e+02 4.001962661743164062e+01 -7.703031063079833984e+00 -2.326545953750610352e+00 -3.672252874821424484e-03 -6.990655064582824707e-01 -1.719283908605575562e-01
1.820000000000000000e+02 4.075049972534179688e+01 -6.943266868591308594e+00 -2.631799936294555664e+00 -6.756518268957734108e-04 -7.897427082061767578e-01 -1.068100780248641968e-01
1.830000000000000000e+02 3.927116775512695312e+01 -7.723219394683837891e+00 -2.260547399520874023e+00 -6.309770047664642334e-03 -6.800571680068969727e-01 -1.737283617258071899e-01
1.840000000000000000e+02 4.000121688842773438e+01 -6.963259696960449219e+00 -2.556987285614013672e+00 -3.825578140094876289e-03 -7.682438492774963379e-01 -1.080299839377403259e-01
1.850000000000000000e+02 4.226616287231445312e+01 -7.653321743011474609e+00 -2.517876148223876953e+00 -2.773436019197106361e-03 -7.561948299407958984e-01 -1.693615615367889404e-01
1.860000000000000000e+02 4.225036239624023438e+01 -6.913490295410156250e+00 -2.797375679016113281e+00 -2.505849348381161690e-03 -8.399644494056701660e-01 -1.027291342616081238e-01
1.870000000000000000e+02 4.151683807373046875e+01 -7.666196823120117188e+00 -2.459004878997802734e+00 -3.610475396271795034e-04 -7.378097176551818848e-01 -1.714944541454315186e-01
1.880000000000000000e+02 4.299967193603515625e+01 -6.897992610931396484e+00 -2.877774477005004883e+00 -2.851682249456644058e-03 -8.641878366470336914e-01 -1.034604012966156006e-01
1.890000000000000000e+02 4.301445007324218750e+01 -7.637845039367675781e+00 -2.579019784927368164e+00 -7.881482597440481186e-04 -7.739423513412475586e-01 -1.641194373369216919e-01
1.900000000000000000e+02 4.376168441772460938e+01 -7.619610786437988281e+00 -2.642773866653442383e+00 1.853266847319900990e-03 -7.922761440277099609e-01 -1.603020429611206055e-01
1.910000000000000000e+02 4.374792480468750000e+01 -6.879736900329589844e+00 -2.953163862228393555e+00 1.054779975675046444e-03 -8.856326937675476074e-01 -1.008395925164222717e-01
1.920000000000000000e+02 4.150001907348632812e+01 -6.926386356353759766e+00 -2.711884498596191406e+00 -1.275925547815859318e-03 -8.139481544494628906e-01 -1.034754887223243713e-01
1.930000000000000000e+02 4.524763870239257812e+01 -6.857576370239257812e+00 -3.120724201202392578e+00 -1.754429191350936890e-03 -9.367436170578002930e-01 -9.317082911729812622e-02
1.940000000000000000e+02 4.600764846801757812e+01 -7.586318016052246094e+00 -2.798022270202636719e+00 3.088040277361869812e-03 -8.384802937507629395e-01 -1.460172384977340698e-01
1.950000000000000000e+02 4.450997543334960938e+01 -7.606111049652099609e+00 -2.700360059738159180e+00 3.337932284921407700e-03 -8.091066479682922363e-01 -1.601100862026214600e-01
1.960000000000000000e+02 4.675494384765625000e+01 -7.572458744049072266e+00 -2.847826004028320312e+00 7.442925125360488892e-03 -8.521149158477783203e-01 -1.378443241119384766e-01
1.970000000000000000e+02 4.525932312011718750e+01 -7.597484111785888672e+00 -2.748764276504516602e+00 1.307582366280257702e-03 -8.242370486259460449e-01 -1.548258066177368164e-01
1.980000000000000000e+02 4.674534988403320312e+01 -6.832519531250000000e+00 -3.273567676544189453e+00 2.078024204820394516e-03 -9.814469218254089355e-01 -8.889780938625335693e-02
1.990000000000000000e+02 4.449724578857421875e+01 -6.866219043731689453e+00 -3.034127473831176758e+00 6.351367919705808163e-04 -9.100477099418640137e-01 -9.519107639789581299e-02
2.000000000000000000e+02 4.599700927734375000e+01 -6.846394062042236328e+00 -3.200553655624389648e+00 -1.100675435736775398e-03 -9.604963064193725586e-01 -9.286250174045562744e-02
2.010000000000000000e+02 4.824522781372070312e+01 -6.818868637084960938e+00 -3.430248022079467773e+00 -9.368410101160407066e-04 -1.029355525970458984e+00 -7.709747552871704102e-02
2.020000000000000000e+02 4.825285720825195312e+01 -7.558829784393310547e+00 -2.908666372299194336e+00 7.774902973324060440e-03 -8.702674508094787598e-01 -1.220588982105255127e-01
2.030000000000000000e+02 4.750334548950195312e+01 -7.563237667083740234e+00 -2.886139869689941406e+00 8.711778558790683746e-03 -8.632284402847290039e-01 -1.332236081361770630e-01
2.040000000000000000e+02 4.899468994140625000e+01 -6.811831474304199219e+00 -3.500701665878295898e+00 7.717887638136744499e-04 -1.049978971481323242e+00 -7.543797791004180908e-02
2.050000000000000000e+02 4.900135803222656250e+01 -7.551801681518554688e+00 -2.926477193832397461e+00 9.808432310819625854e-03 -8.750006556510925293e-01 -1.050123423337936401e-01
2.060000000000000000e+02 4.974884033203125000e+01 -7.541996002197265625e+00 -2.938671350479125977e+00 1.683468930423259735e-02 -8.765509724617004395e-01 -8.847131580114364624e-02
2.070000000000000000e+02 4.974313354492187500e+01 -6.802017211914062500e+00 -3.560945272445678711e+00 4.052381031215190887e-03 -1.067067861557006836e+00 -6.893313676118850708e-02
2.080000000000000000e+02 4.749475479125976562e+01 -6.823286056518554688e+00 -3.350292444229125977e+00 3.101572627201676369e-03 -1.004157185554504395e+00 -8.113421499729156494e-02
2.090000000000000000e+02 5.124328231811523438e+01 -6.795847415924072266e+00 -3.672326087951660156e+00 2.344375941902399063e-03 -1.100994467735290527e+00 -4.976315051317214966e-02
2.100000000000000000e+02 5.199635314941406250e+01 -7.532447814941406250e+00 -2.808852434158325195e+00 2.590713463723659515e-02 -8.348835706710815430e-01 -3.999682143330574036e-03
2.110000000000000000e+02 5.049753570556640625e+01 -7.536636352539062500e+00 -2.926672220230102539e+00 2.009010687470436096e-02 -8.719746470451354980e-01 -7.106070220470428467e-02
2.120000000000000000e+02 5.274426269531250000e+01 -7.526317596435546875e+00 -2.709925174713134766e+00 5.128987133502960205e-02 -7.975905537605285645e-01 3.901655599474906921e-02
2.130000000000000000e+02 5.124744033813476562e+01 -7.535836219787597656e+00 -2.881576299667358398e+00 2.113765664398670197e-02 -8.581316471099853516e-01 -4.510955139994621277e-02
2.140000000000000000e+02 5.274152374267578125e+01 -6.786322593688964844e+00 -3.726572275161743164e+00 1.596884243190288544e-02 -1.113180994987487793e+00 -2.953299134969711304e-02
2.150000000000000000e+02 5.049266433715820312e+01 -6.796650886535644531e+00 -3.618849515914916992e+00 5.241679027676582336e-03 -1.084082365036010742e+00 -5.820037797093391418e-02
2.160000000000000000e+02 5.199290466308593750e+01 -6.792455673217773438e+00 -3.710620164871215820e+00 2.832010504789650440e-04 -1.113101124763488770e+00 -4.630567505955696106e-02
2.170000000000000000e+02 5.411945724487304688e+01 -6.804721355438232422e+00 -3.713515758514404297e+00 -4.311457648873329163e-02 -1.126989126205444336e+00 -3.469088673591613770e-02
2.180000000000000000e+02 5.348282241821289062e+01 -7.532410144805908203e+00 -2.532761573791503906e+00 1.571821235120296478e-02 -7.551130056381225586e-01 7.121839374303817749e-02
2.190000000000000000e+02 5.552855300903320312e+01 -6.892652988433837891e+00 -3.103297472000122070e+00 3.619783557951450348e-03 -9.299033284187316895e-01 1.861887425184249878e-02
2.200000000000000000e+02 5.518665695190429688e+01 -7.186300754547119141e+00 -2.414083719253540039e+00 7.551452517509460449e-02 -7.015707492828369141e-01 2.596825063228607178e-01
2.210000000000000000e+02 5.605002593994140625e+01 -7.554965496063232422e+00 -3.307582437992095947e-01 4.979439675807952881e-01 5.015571787953376770e-02 9.835724234580993652e-01
2.220000000000000000e+02 5.593057632446289062e+01 -7.208403587341308594e+00 -1.684900283813476562e+00 2.575784325599670410e-01 -4.281965494155883789e-01 4.268578886985778809e-01
2.230000000000000000e+02 5.589636230468750000e+01 -6.751763820648193359e+00 -3.424028635025024414e+00 4.785877093672752380e-02 -1.012850999832153320e+00 -3.087490983307361603e-02
2.240000000000000000e+02 5.529681396484375000e+01 -6.587843418121337891e+00 -3.910854339599609375e+00 1.096875406801700592e-02 -1.169965624809265137e+00 -8.658052235841751099e-02
2.250000000000000000e+02 5.583926391601562500e+01 -6.527585983276367188e+00 -4.122500896453857422e+00 -3.540948266163468361e-03 -1.237812519073486328e+00 -6.170868128538131714e-02
2.260000000000000000e+02 5.423371124267578125e+01 -7.544514656066894531e+00 -2.101746082305908203e+00 2.968289516866207123e-02 -6.216189265251159668e-01 2.077561616897583008e-01
2.270000000000000000e+02 5.344314575195312500e+01 -6.792480945587158203e+00 -3.716601371765136719e+00 2.768398029729723930e-03 -1.114149808883666992e+00 -1.063311006873846054e-02
2.280000000000000000e+02 5.589689636230468750e+01 -6.978189468383789062e+00 -2.585102319717407227e+00 1.566526442766189575e-01 -7.285348773002624512e-01 2.084183394908905029e-01
2.290000000000000000e+02 5.567469024658203125e+01 -7.422665119171142578e+00 -1.299469351768493652e+00 1.471276730298995972e-01 -3.457024991512298584e-01 5.892851352691650391e-01
2.300000000000000000e+02 5.567278289794921875e+01 -7.732878208160400391e+00 -6.593374013900756836e-01 3.627966642379760742e-01 -8.896221965551376343e-02 9.574037194252014160e-01
2.310000000000000000e+02 5.499316406250000000e+01 -7.627861499786376953e+00 -1.539309024810791016e+00 2.003008872270584106e-01 -4.017024636268615723e-01 4.457707405090332031e-01
2.320000000000000000e+02 5.474942398071289062e+01 -6.721356868743896484e+00 -3.749356508255004883e+00 -5.822436418384313583e-03 -1.126553654670715332e+00 -8.569575101137161255e-02
2.330000000000000000e+02 5.602536010742187500e+01 -7.395394325256347656e+00 -9.365132451057434082e-01 4.240847229957580566e-01 -1.537285447120666504e-01 6.980561614036560059e-01
2.340000000000000000e+02 5.601266479492187500e+01 -7.697357654571533203e+00 -2.516372799873352051e-01 6.125530004501342773e-01 1.082747206091880798e-01 1.102539777755737305e+00
2.350000000000000000e+02 5.592201232910156250e+01 -7.521618843078613281e+00 -7.856597304344177246e-01 5.373081564903259277e-01 -7.450547069311141968e-02 7.735149264335632324e-01
2.360000000000000000e+02 5.621803665161132812e+01 -6.517621517181396484e+00 -4.197431087493896484e+00 2.986813895404338837e-02 -1.250268816947937012e+00 -4.288077354431152344e-02
2.370000000000000000e+02 5.725409317016601562e+01 -6.765153884887695312e+00 -1.728007316589355469e+00 7.192676514387130737e-02 -4.968241453170776367e-01 3.540786504745483398e-01
2.380000000000000000e+02 5.741418838500976562e+01 -6.504056453704833984e+00 -3.634669542312622070e+00 3.450103104114532471e-02 -1.080050587654113770e+00 5.416158214211463928e-02
2.390000000000000000e+02 6.031669998168945312e+01 -6.173171520233154297e+00 1.271812248229980469e+01 1.898927879333496094e+01 9.512220382690429688e+00 1.611351490020751953e+00
2.400000000000000000e+02 5.765105438232421875e+01 -5.265939235687255859e+00 2.842439413070678711e+00 2.498577594757080078e+00 1.602305173873901367e+00 -3.894181966781616211e+00
2.410000000000000000e+02 5.939934539794921875e+01 -5.047305107116699219e+00 1.476780772209167480e+00 2.166633415222167969e+01 6.942934513092041016e+00 -3.623186588287353516e+00
2.420000000000000000e+02 5.621387100219726562e+01 -7.782642364501953125e+00 1.788797527551651001e-01 8.798352479934692383e-01 3.176144957542419434e-01 1.474270582199096680e+00
2.430000000000000000e+02 5.652592468261718750e+01 -7.327588081359863281e+00 -4.926170706748962402e-01 4.117562770843505859e-01 -2.425824478268623352e-02 1.014070034027099609e+00
2.440000000000000000e+02 5.783337783813476562e+01 -7.763486385345458984e+00 3.309185028076171875e+00 4.419095516204833984e+00 2.318484067916870117e+00 5.192021369934082031e+00
2.450000000000000000e+02 5.858359527587890625e+01 -7.781387805938720703e+00 3.005204439163208008e+00 1.207787513732910156e+01 4.524923801422119141e+00 7.669811725616455078e+00
2.460000000000000000e+02 5.843622589111328125e+01 -7.253183364868164062e+00 5.555404186248779297e+00 7.609101295471191406e+00 3.949351549148559570e+00 7.814692020416259766e+00
2.470000000000000000e+02 5.815821838378906250e+01 -6.914044380187988281e+00 3.829929113388061523e+00 1.477523684501647949e+00 1.592235803604125977e+00 3.416379213333129883e+00
2.480000000000000000e+02 5.802860641479492188e+01 -7.794164180755615234e+00 3.490011930465698242e+00 5.935742855072021484e+00 2.827726364135742188e+00 6.034997940063476562e+00
2.490000000000000000e+02 5.720203018188476562e+01 -7.441885948181152344e+00 1.365026950836181641e+00 1.112190365791320801e+00 7.431651949882507324e-01 2.266215324401855469e+00
2.500000000000000000e+02 5.660694122314453125e+01 -7.771723270416259766e+00 8.199383616447448730e-01 1.052583456039428711e+00 5.617565512657165527e-01 1.943694710731506348e+00
2.510000000000000000e+02 5.921376419067382812e+01 -5.275082111358642578e+00 1.935841560363769531e+00 2.277384757995605469e+01 7.412906646728515625e+00 -5.385867118835449219e+00
2.520000000000000000e+02 5.969060897827148438e+01 -5.318948268890380859e+00 3.484581470489501953e+00 2.377388000488281250e+01 8.177537918090820312e+00 -1.507450938224792480e-01
2.530000000000000000e+02 6.003616333007812500e+01 -5.352732658386230469e+00 5.225702762603759766e+00 2.210585594177246094e+01 8.199467658996582031e+00 2.065395116806030273e+00
2.540000000000000000e+02 6.019291687011718750e+01 -5.935164928436279297e+00 1.169447326660156250e+01 2.079537010192871094e+01 9.746953010559082031e+00 2.806796312332153320e+00
2.550000000000000000e+02 6.023546600341796875e+01 -6.490504741668701172e+00 1.405998611450195312e+01 1.970077896118164062e+01 1.012822914123535156e+01 -7.727494835853576660e-01
2.560000000000000000e+02 5.996849060058593750e+01 -7.104077339172363281e+00 8.313493728637695312e+00 2.353700256347656250e+01 9.555149078369140625e+00 -3.066298723220825195e+00
2.570000000000000000e+02 5.957951354980468750e+01 -7.507019042968750000e+00 2.724752187728881836e+00 2.407447242736816406e+01 8.039767265319824219e+00 1.379372000694274902e+00
2.580000000000000000e+02 5.621809005737304688e+01 -4.997478485107421875e+00 2.217336893081665039e-01 8.091535568237304688e-01 3.092661798000335693e-01 -1.535316228866577148e+00
2.590000000000000000e+02 5.662316894531250000e+01 -5.001550197601318359e+00 7.098997831344604492e-01 9.860341548919677734e-01 5.087801814079284668e-01 -1.919690847396850586e+00
2.600000000000000000e+02 5.742448806762695312e+01 -5.018466949462890625e+00 2.505894422531127930e+00 2.596347570419311523e+00 1.530672550201416016e+00 -3.787043571472167969e+00
2.610000000000000000e+02 5.826101684570312500e+01 -5.693479061126708984e+00 5.197169303894042969e+00 3.863690376281738281e+00 2.718257904052734375e+00 -5.752894878387451172e+00
2.620000000000000000e+02 5.866102600097656250e+01 -5.186899662017822266e+00 3.522547006607055664e+00 1.290436363220214844e+01 4.928072929382324219e+00 -8.179931640625000000e+00
2.630000000000000000e+02 5.883708190917968750e+01 -5.221091270446777344e+00 2.955644369125366211e+00 1.649233627319335938e+01 5.834393978118896484e+00 -8.063716888427734375e+00
2.640000000000000000e+02 5.621256637573242188e+01 -6.266201019287109375e+00 -4.308144569396972656e+00 -1.652198880910873413e-01 -1.342009305953979492e+00 -3.995963186025619507e-02
2.650000000000000000e+02 5.640818405151367188e+01 -6.271420955657958984e+00 -4.211229801177978516e+00 5.746001005172729492e-02 -1.246130943298339844e+00 5.765634775161743164e-02
2.660000000000000000e+02 5.622034454345703125e+01 -5.856866359710693359e+00 -2.329692840576171875e+00 8.446531742811203003e-02 -6.735683083534240723e-01 -1.707632839679718018e-01
2.670000000000000000e+02 5.815201187133789062e+01 -5.870389461517333984e+00 3.575485944747924805e+00 1.509200692176818848e+00 1.525406002998352051e+00 -3.331087350845336914e+00
2.680000000000000000e+02 5.807163619995117188e+01 -6.063813209533691406e+00 9.558334946632385254e-01 4.852334856986999512e-01 4.323200881481170654e-01 -1.369471192359924316e+00
2.690000000000000000e+02 5.802714538574218750e+01 -6.272634506225585938e+00 -2.579361677169799805e+00 -1.177102848887443542e-01 -8.091215491294860840e-01 -5.080180987715721130e-02
2.700000000000000000e+02 6.017286682128906250e+01 -6.241083145141601562e+00 1.446873283386230469e+01 2.013933753967285156e+01 1.038242149353027344e+01 1.143436312675476074e+00
2.710000000000000000e+02 5.955767440795898438e+01 -5.307843685150146484e+00 2.768010377883911133e+00 2.460655975341796875e+01 8.212370872497558594e+00 -1.432474017143249512e+00
2.720000000000000000e+02 5.902340316772460938e+01 -5.265662670135498047e+00 2.420859098434448242e+00 1.987027740478515625e+01 6.687340736389160156e+00 -7.263324260711669922e+00
2.730000000000000000e+02 5.882680130004882812e+01 -4.999016284942626953e+00 2.296949386596679688e+00 1.573599624633789062e+01 5.409883975982666016e+00 -7.302839279174804688e+00
2.740000000000000000e+02 5.857255935668945312e+01 -5.418854713439941406e+00 4.853226184844970703e+00 1.091796016693115234e+01 4.731355667114257812e+00 -8.637364387512207031e+00
2.750000000000000000e+02 5.801865768432617188e+01 -6.512894153594970703e+00 -2.555344820022583008e+00 -2.137940376996994019e-01 -8.307416439056396484e-01 9.213400632143020630e-02
2.760000000000000000e+02 5.798880004882812500e+01 -7.031741619110107422e+00 3.317300319671630859e+00 1.754865765571594238e+00 1.521649837493896484e+00 3.323869705200195312e+00
2.770000000000000000e+02 5.880412292480468750e+01 -7.428190231323242188e+00 3.647694110870361328e+00 1.607690620422363281e+01 5.917380332946777344e+00 8.773048400878906250e+00
2.780000000000000000e+02 5.920730209350585938e+01 -7.748265266418457031e+00 1.500567436218261719e+00 2.023765754699707031e+01 6.521467685699462891e+00 5.197268009185791016e+00
2.790000000000000000e+02 5.972468566894531250e+01 -7.644363403320312500e+00 2.654582262039184570e+00 2.276805496215820312e+01 7.626791000366210938e+00 4.365198612213134766e-01
2.800000000000000000e+02 6.023557662963867188e+01 -6.852046966552734375e+00 1.137254810333251953e+01 2.046466636657714844e+01 9.551164627075195312e+00 -2.663850307464599609e+00
2.810000000000000000e+02 6.020441055297851562e+01 -6.670681476593017578e+00 1.318473911285400391e+01 2.031264305114746094e+01 1.004921531677246094e+01 -2.173210144042968750e+00
2.820000000000000000e+02 5.721121597290039062e+01 -7.740772724151611328e+00 2.146552324295043945e+00 1.870699286460876465e+00 1.205175518989562988e+00 3.144361019134521484e+00
2.830000000000000000e+02 5.620345687866210938e+01 -7.364316940307617188e+00 -6.973708868026733398e-01 2.664643228054046631e-01 -1.292719691991806030e-01 8.602467179298400879e-01
2.840000000000000000e+02 5.662338256835937500e+01 -6.526076793670654297e+00 -4.035541534423828125e+00 -2.971649728715419769e-02 -1.219577312469482422e+00 4.147414118051528931e-03
2.850000000000000000e+02 5.622210693359375000e+01 -6.736590385437011719e+00 -3.244058132171630859e+00 6.216429546475410461e-02 -9.545681476593017578e-01 1.082673296332359314e-01
2.860000000000000000e+02 6.048704147338867188e+01 -6.490757465362548828e+00 1.222714614868164062e+01 1.777074241638183594e+01 8.999366760253906250e+00 -6.287614107131958008e-01
2.870000000000000000e+02 5.939711380004882812e+01 -7.473044395446777344e+00 2.236653566360473633e+00 2.445383262634277344e+01 8.007145881652832031e+00 3.074651956558227539e+00
2.880000000000000000e+02 5.862753295898437500e+01 -7.348164081573486328e+00 4.741826534271240234e+00 1.185428619384765625e+01 4.978833675384521484e+00 8.852670669555664062e+00
2.890000000000000000e+02 6.026541519165039062e+01 -7.137981414794921875e+00 8.282886505126953125e+00 2.036058235168457031e+01 8.593040466308593750e+00 -2.855609416961669922e+00
2.900000000000000000e+02 5.900060653686523438e+01 -7.492774009704589844e+00 2.570898056030273438e+00 1.953928565979003906e+01 6.633055210113525391e+00 7.523486614227294922e+00
2.910000000000000000e+02 6.001000213623046875e+01 -7.418516635894775391e+00 5.219321250915527344e+00 2.234040451049804688e+01 8.267917633056640625e+00 -1.876642704010009766e+00
2.920000000000000000e+02 5.760714721679687500e+01 -6.502945899963378906e+00 -3.310405969619750977e+00 6.786543130874633789e-02 -9.727621674537658691e-01 1.560299545526504517e-01
2.930000000000000000e+02 5.867819595336914062e+01 -7.527136325836181641e+00 3.807146072387695312e+00 1.353088569641113281e+01 5.201409339904785156e+00 8.387763023376464844e+00
2.940000000000000000e+02 5.981281661987304688e+01 -5.388371467590332031e+00 4.239811897277832031e+00 2.359129142761230469e+01 8.349330902099609375e+00 9.144796133041381836e-01
2.950000000000000000e+02 5.939910125732421875e+01 -5.305536270141601562e+00 2.170627593994140625e+00 2.442151260375976562e+01 7.977642059326171875e+00 -3.119465827941894531e+00
2.960000000000000000e+02 5.722351837158203125e+01 -5.021255016326904297e+00 1.986831665039062500e+00 2.005936861038208008e+00 1.197830557823181152e+00 -3.189723968505859375e+00
2.970000000000000000e+02 6.036424636840820312e+01 -5.790334701538085938e+00 9.819900512695312500e+00 1.935633277893066406e+01 8.752869606018066406e+00 2.830603837966918945e+00
2.980000000000000000e+02 5.782676696777343750e+01 -6.246369838714599609e+00 -2.772854089736938477e+00 5.755606666207313538e-02 -8.145893812179565430e-01 -7.861481606960296631e-02
2.990000000000000000e+02 6.008333206176757812e+01 -5.821656227111816406e+00 1.055022907257080078e+01 2.210376930236816406e+01 9.796198844909667969e+00 3.238157749176025391e+00
3.000000000000000000e+02 5.997859191894531250e+01 -5.670766830444335938e+00 8.241462707519531250e+00 2.342093467712402344e+01 9.498719215393066406e+00 3.049735307693481445e+00
3.010000000000000000e+02 5.806694793701171875e+01 -5.229932308197021484e+00 4.024991989135742188e+00 4.951881885528564453e+00 2.693062305450439453e+00 -5.836684226989746094e+00
3.020000000000000000e+02 5.847254562377929688e+01 -5.217194557189941406e+00 4.089372158050537109e+00 9.923482894897460938e+00 4.203856468200683594e+00 -7.783868789672851562e+00
3.030000000000000000e+02 5.921236801147460938e+01 -5.023342132568359375e+00 1.480518698692321777e+00 2.025964355468750000e+01 6.522048950195312500e+00 -5.100249290466308594e+00
3.040000000000000000e+02 5.957258605957031250e+01 -7.707306861877441406e+00 1.743108510971069336e+00 2.237665748596191406e+01 7.235929489135742188e+00 2.207592487335205078e+00
3.050000000000000000e+02 6.014606857299804688e+01 -7.282396316528320312e+00 6.900644302368164062e+00 2.163326263427734375e+01 8.560172080993652344e+00 -2.662536859512329102e+00
3.060000000000000000e+02 6.015613555908203125e+01 -5.492413520812988281e+00 6.819611072540283203e+00 2.136050415039062500e+01 8.454034805297851562e+00 2.724657535552978516e+00
3.070000000000000000e+02 6.043528366088867188e+01 -6.845965862274169922e+00 1.106928825378417969e+01 1.869241523742675781e+01 8.928510665893554688e+00 -2.321177959442138672e+00
3.080000000000000000e+02 6.028802108764648438e+01 -6.320832252502441406e+00 1.384795475006103516e+01 1.926021385192871094e+01 9.932450294494628906e+00 4.840024709701538086e-01
3.090000000000000000e+02 6.048791885375976562e+01 -6.125282287597656250e+00 1.181872272491455078e+01 1.829662704467773438e+01 9.034605026245117188e+00 1.513808727264404297e+00
3.100000000000000000e+02 6.027929306030273438e+01 -6.037221431732177734e+00 1.212485694885253906e+01 1.943307495117187500e+01 9.467379570007324219e+00 2.116297245025634766e+00
3.110000000000000000e+02 6.046215820312500000e+01 -6.672512531280517578e+00 1.168070697784423828e+01 1.807070350646972656e+01 8.925422668457031250e+00 -1.533544659614562988e+00
3.120000000000000000e+02 6.013767242431640625e+01 -6.090123176574707031e+00 1.346616744995117188e+01 2.094282150268554688e+01 1.032269668579101562e+01 2.414970397949218750e+00
3.130000000000000000e+02 5.983293151855468750e+01 -7.239920616149902344e+00 6.041915893554687500e+00 2.468924331665039062e+01 9.219347953796386719e+00 -2.033133268356323242e+00
3.140000000000000000e+02 6.044140243530273438e+01 -5.950259685516357422e+00 1.112765884399414062e+01 1.870047569274902344e+01 8.948440551757812500e+00 2.243465662002563477e+00
3.150000000000000000e+02 5.957590103149414062e+01 -5.083475589752197266e+00 1.734155893325805664e+00 2.237797927856445312e+01 7.233640193939208984e+00 -2.071721315383911133e+00
3.160000000000000000e+02 6.037198257446289062e+01 -6.997584819793701172e+00 9.662250518798828125e+00 1.960018157958984375e+01 8.778729438781738281e+00 -2.877712488174438477e+00
3.170000000000000000e+02 5.968523025512695312e+01 -7.353957653045654297e+00 4.015564441680908203e+00 2.519815826416015625e+01 8.764117240905761719e+00 -2.240061610937118530e-01
3.180000000000000000e+02 5.939740753173828125e+01 -7.731275081634521484e+00 1.490023493766784668e+00 2.136332893371582031e+01 6.856005668640136719e+00 3.567404031753540039e+00
3.190000000000000000e+02 5.920864868164062500e+01 -7.496524810791015625e+00 2.007688999176025391e+00 2.259704017639160156e+01 7.381418704986572266e+00 5.385951042175292969e+00
3.200000000000000000e+02 5.899766921997070312e+01 -7.747398376464843750e+00 1.955680608749389648e+00 1.775690650939941406e+01 5.913776397705078125e+00 6.710419654846191406e+00
3.210000000000000000e+02 5.820487213134765625e+01 -7.808269977569580078e+00 3.525826930999755859e+00 7.741539001464843750e+00 3.380209922790527344e+00 6.584090232849121094e+00
3.220000000000000000e+02 5.878307342529296875e+01 -7.756864547729492188e+00 2.507368803024291992e+00 1.494868659973144531e+01 5.236816883087158203e+00 7.437986373901367188e+00
3.230000000000000000e+02 5.742646026611328125e+01 -7.463237285614013672e+00 2.229521274566650391e+00 1.580572247505187988e+00 1.143028140068054199e+00 2.948226690292358398e+00
3.240000000000000000e+02 5.620828628540039062e+01 -7.572391510009765625e+00 -2.793361544609069824e-01 5.165431499481201172e-01 7.116210460662841797e-02 1.057743787765502930e+00
3.250000000000000000e+02 5.810128784179687500e+01 -7.186224460601806641e+00 4.732609748840332031e+00 3.418196678161621094e+00 2.445241928100585938e+00 5.002797126770019531e+00
3.260000000000000000e+02 5.723141479492187500e+01 -7.158855438232421875e+00 5.180983543395996094e-01 5.755986571311950684e-01 3.281091153621673584e-01 1.506842374801635742e+00
3.270000000000000000e+02 5.705130004882812500e+01 -6.788282394409179688e+00 -1.845224976539611816e+00 7.615394890308380127e-02 -5.307213068008422852e-01 3.771267533302307129e-01
3.280000000000000000e+02 5.684140396118164062e+01 -6.773403644561767578e+00 -2.374168634414672852e+00 8.897898346185684204e-02 -6.855568885803222656e-01 3.170773088932037354e-01
3.290000000000000000e+02 5.677009201049804688e+01 -7.504992961883544922e+00 5.614978671073913574e-01 8.000594377517700195e-01 4.084672033786773682e-01 1.717054367065429688e+00
3.300000000000000000e+02 5.682495880126953125e+01 -6.527209758758544922e+00 -3.972202539443969727e+00 -2.795434184372425079e-02 -1.200047016143798828e+00 -4.181243106722831726e-02
3.310000000000000000e+02 5.742800140380859375e+01 -6.704335212707519531e+00 -1.866175651550292969e+00 1.427650451660156250e-01 -5.170232057571411133e-01 4.011273980140686035e-01
3.320000000000000000e+02 5.648743438720703125e+01 -5.708096981048583984e+00 -1.520059585571289062e+00 1.457162499427795410e-01 -4.123029708862304688e-01 -5.229359865188598633e-01
3.330000000000000000e+02 5.729216766357421875e+01 -5.938202857971191406e+00 -1.146347641944885254e+00 1.484313309192657471e-01 -2.993748784065246582e-01 -5.355107784271240234e-01
3.340000000000000000e+02 5.902037811279296875e+01 -5.011038780212402344e+00 1.765396237373352051e+00 1.799446296691894531e+01 5.927958011627197266e+00 -6.385426044464111328e+00
3.350000000000000000e+02 5.702235412597656250e+01 -5.019939422607421875e+00 1.564469218254089355e+00 1.639995694160461426e+00 9.613394737243652344e-01 -2.719011068344116211e+00
3.360000000000000000e+02 5.802901077270507812e+01 -5.003100872039794922e+00 3.518435955047607422e+00 5.775389194488525391e+00 2.788147687911987305e+00 -6.004271984100341797e+00
3.370000000000000000e+02 5.786438751220703125e+01 -5.261180400848388672e+00 3.526731252670288086e+00 3.630078077316284180e+00 2.147042751312255859e+00 -4.838111877441406250e+00
3.380000000000000000e+02 5.739583969116210938e+01 -6.214224338531494141e+00 -3.207143545150756836e+00 -1.461444236338138580e-02 -9.665274024009704590e-01 -2.019328922033309937e-01
3.390000000000000000e+02 5.642316818237304688e+01 -5.001134395599365234e+00 3.450689315795898438e-01 7.983456850051879883e-01 3.430243730545043945e-01 -1.669493556022644043e+00
3.400000000000000000e+02 5.622740936279296875e+01 -5.216466426849365234e+00 -4.664116799831390381e-01 5.023425221443176270e-01 1.077926158905029297e-02 -1.094500303268432617e+00
3.410000000000000000e+02 5.762584304809570312e+01 -5.015077114105224609e+00 2.999906063079833984e+00 3.370529413223266602e+00 1.911130547523498535e+00 -4.513682842254638672e+00
3.420000000000000000e+02 5.807098770141601562e+01 -5.575811386108398438e+00 4.336867332458496094e+00 3.132879257202148438e+00 2.240924119949340820e+00 -4.891194820404052734e+00
3.430000000000000000e+02 5.621979141235351562e+01 -6.952306747436523438e+00 -2.270518541336059570e+00 1.130951270461082458e-01 -6.472270488739013672e-01 2.710006833076477051e-01
3.440000000000000000e+02 5.620918273925781250e+01 -7.159972667694091797e+00 -1.698871970176696777e+00 6.906978040933609009e-02 -4.889406561851501465e-01 4.731847643852233887e-01
3.450000000000000000e+02 5.639413070678710938e+01 -7.567890644073486328e+00 9.110010229051113129e-03 6.110230684280395508e-01 1.860399246215820312e-01 1.312157511711120605e+00
3.460000000000000000e+02 5.623482894897460938e+01 -5.650631904602050781e+00 -1.630734920501708984e+00 1.359906196594238281e-01 -4.484232962131500244e-01 -5.059823393821716309e-01
3.470000000000000000e+02 5.642817306518554688e+01 -5.910422325134277344e+00 -2.463561534881591797e+00 -5.416973680257797241e-02 -7.553194165229797363e-01 -2.734609544277191162e-01
3.480000000000000000e+02 5.621067810058593750e+01 -6.060332298278808594e+00 -3.431589365005493164e+00 -1.300212889909744263e-01 -1.068483114242553711e+00 -6.433054059743881226e-02
3.490000000000000000e+02 5.679277420043945312e+01 -6.259494304656982422e+00 -4.080939769744873047e+00 2.982514351606369019e-02 -1.215334415435791016e+00 8.902917616069316864e-04
3.500000000000000000e+02 5.639440155029296875e+01 -6.080225944519042969e+00 -3.426937580108642578e+00 -1.231683231890201569e-02 -1.031776309013366699e+00 -1.248743459582328796e-01
3.510000000000000000e+02 5.767351150512695312e+01 -7.198882102966308594e+00 2.313132762908935547e+00 1.465964794158935547e+00 1.133729219436645508e+00 2.814645528793334961e+00
3.520000000000000000e+02 5.660047531127929688e+01 -6.267138004302978516e+00 -4.171154499053955078e+00 -1.636921986937522888e-02 -1.256257176399230957e+00 2.219290100038051605e-02
3.530000000000000000e+02 5.719173049926757812e+01 -6.245827674865722656e+00 -3.564958095550537109e+00 6.516477465629577637e-02 -1.049937963485717773e+00 -1.834241449832916260e-01
3.540000000000000000e+02 5.699097442626953125e+01 -6.255761146545410156e+00 -3.894871950149536133e+00 6.068126112222671509e-02 -1.150257229804992676e+00 -8.105633407831192017e-02
3.550000000000000000e+02 5.682213211059570312e+01 -5.251390457153320312e+00 6.057562828063964844e-01 8.359901905059814453e-01 4.325239360332489014e-01 -1.746652722358703613e+00
3.560000000000000000e+02 5.729093551635742188e+01 -5.551468372344970703e+00 7.293615937232971191e-01 7.444599866867065430e-01 4.421464800834655762e-01 -1.757863044738769531e+00
3.570000000000000000e+02 5.703005599975585938e+01 -5.294257640838623047e+00 1.020335197448730469e+00 9.948778152465820312e-01 6.045638918876647949e-01 -1.991272926330566406e+00
3.580000000000000000e+02 5.839802932739257812e+01 -5.533428668975830078e+00 5.380835533142089844e+00 6.969935417175292969e+00 3.705231428146362305e+00 -7.487590312957763672e+00
3.590000000000000000e+02 5.639661026000976562e+01 -7.197407245635986328e+00 -1.061612486839294434e+00 2.309005111455917358e-01 -2.492135763168334961e-01 6.807352304458618164e-01
3.600000000000000000e+02 5.806412887573242188e+01 -6.729618072509765625e+00 1.179623126983642578e+00 5.774067044258117676e-01 5.271089673042297363e-01 1.554380416870117188e+00
3.610000000000000000e+02 5.796941757202148438e+01 -5.782906532287597656e+00 2.798373699188232422e+00 1.352128744125366211e+00 1.245150685310363770e+00 -3.069253683090209961e+00
3.620000000000000000e+02 5.826281738281250000e+01 -5.216310024261474609e+00 4.272563457489013672e+00 7.346575260162353516e+00 3.485741615295410156e+00 -7.010504722595214844e+00
3.630000000000000000e+02 5.819952392578125000e+01 -5.396442890167236328e+00 4.627910137176513672e+00 5.632358074188232422e+00 3.078080415725708008e+00 -6.366140365600585938e+00
3.640000000000000000e+02 5.703343200683593750e+01 -7.052765369415283203e+00 -4.378608167171478271e-01 3.253124356269836426e-01 -3.376451134681701660e-02 1.029111027717590332e+00
3.650000000000000000e+02 5.785624694824218750e+01 -7.529260635375976562e+00 3.660551786422729492e+00 3.588123083114624023e+00 2.174602508544921875e+00 4.797456741333007812e+00
3.660000000000000000e+02 5.697880935668945312e+01 -7.455780029296875000e+00 8.764268755912780762e-01 8.691795468330383301e-01 5.236819386482238770e-01 1.911038994789123535e+00
3.670000000000000000e+02 5.691339111328125000e+01 -5.821121215820312500e+00 -1.231648087501525879e+00 1.931792646646499634e-01 -3.115406334400177002e-01 -5.467614531517028809e-01
3.680000000000000000e+02 5.684167480468750000e+01 -5.621432304382324219e+00 -4.857451021671295166e-01 3.001033067703247070e-01 -5.569253861904144287e-02 -1.015563249588012695e+00
3.690000000000000000e+02 5.694211578369140625e+01 -6.028096199035644531e+00 -2.436750650405883789e+00 1.585651487112045288e-01 -6.834556460380554199e-01 -2.636955082416534424e-01
3.700000000000000000e+02 5.744907379150390625e+01 -5.276295661926269531e+00 2.236805915832519531e+00 1.847151875495910645e+00 1.225187420845031738e+00 -3.188969373703002930e+00
3.710000000000000000e+02 5.748423004150390625e+01 -5.532566547393798828e+00 1.822279453277587891e+00 1.143469572067260742e+00 8.897247314453125000e-01 -2.418049812316894531e+00
3.720000000000000000e+02 5.761196517944335938e+01 -6.211106777191162109e+00 -2.981995582580566406e+00 -1.073702573776245117e-01 -9.268097877502441406e-01 -1.281671524047851562e-01
3.730000000000000000e+02 5.684564208984375000e+01 -7.004631519317626953e+00 -1.270676493644714355e+00 1.009566411375999451e-01 -3.509159684181213379e-01 6.039731502532958984e-01
3.740000000000000000e+02 5.768969345092773438e+01 -6.945167541503906250e+00 1.250560998916625977e+00 7.185843586921691895e-01 5.907436013221740723e-01 1.850166797637939453e+00
3.750000000000000000e+02 5.707357025146484375e+01 -5.579316139221191406e+00 1.553110629320144653e-01 6.504505276679992676e-01 2.417284846305847168e-01 -1.475630164146423340e+00
3.760000000000000000e+02 5.775136184692382812e+01 -6.742529869079589844e+00 -5.457899570465087891e-01 6.410399917513132095e-03 -1.618138700723648071e-01 5.683313608169555664e-01
3.770000000000000000e+02 5.623608398437500000e+01 -5.435483932495117188e+00 -9.593704342842102051e-01 2.311654090881347656e-01 -2.184615135192871094e-01 -6.917459368705749512e-01
3.780000000000000000e+02 5.644554519653320312e+01 -5.228914737701416016e+00 6.044346839189529419e-02 6.121965646743774414e-01 2.017920017242431641e-01 -1.396100759506225586e+00
3.790000000000000000e+02 5.682216644287109375e+01 -5.009658336639404297e+00 1.150907993316650391e+00 1.233261823654174805e+00 7.152509689331054688e-01 -2.284505367279052734e+00
3.800000000000000000e+02 5.663928222656250000e+01 -5.219978809356689453e+00 2.778448462486267090e-01 7.152325510978698730e-01 2.979232072830200195e-01 -1.566511034965515137e+00
3.810000000000000000e+02 5.724635314941406250e+01 -5.287374019622802734e+00 1.668342351913452148e+00 1.303652524948120117e+00 8.915984630584716797e-01 -2.541420698165893555e+00
3.820000000000000000e+02 5.782803726196289062e+01 -5.011265277862548828e+00 3.311894893646240234e+00 4.447645187377929688e+00 2.327862024307250977e+00 -5.216806888580322266e+00
3.830000000000000000e+02 5.823073196411132812e+01 -4.998493671417236328e+00 3.551901578903198242e+00 7.861595630645751953e+00 3.424049139022827148e+00 -6.857798099517822266e+00
3.840000000000000000e+02 5.843194961547851562e+01 -4.996514797210693359e+00 3.280693054199218750e+00 9.989618301391601562e+00 3.981093406677246094e+00 -7.223498344421386719e+00
3.850000000000000000e+02 5.863005828857421875e+01 -4.992023468017578125e+00 2.964330196380615234e+00 1.249853801727294922e+01 4.638860702514648438e+00 -7.682051658630371094e+00
3.860000000000000000e+02 5.875305938720703125e+01 -5.356157779693603516e+00 3.803919553756713867e+00 1.525123977661132812e+01 5.716547966003417969e+00 -8.781800270080566406e+00
3.870000000000000000e+02 5.974354171752929688e+01 -5.141541004180908203e+00 2.687765836715698242e+00 2.234076118469238281e+01 7.508557796478271484e+00 -3.256165087223052979e-01
3.880000000000000000e+02 5.989987945556640625e+01 -5.232343673706054688e+00 3.705232620239257812e+00 2.242955589294433594e+01 7.840436935424804688e+00 8.625770211219787598e-01
3.890000000000000000e+02 6.026649093627929688e+01 -5.639964103698730469e+00 8.194486618041992188e+00 2.043786811828613281e+01 8.589706420898437500e+00 2.907669782638549805e+00
3.900000000000000000e+02 6.049976348876953125e+01 -6.307093620300292969e+00 1.233148860931396484e+01 1.779814910888671875e+01 9.038891792297363281e+00 4.499883949756622314e-01
3.910000000000000000e+02 5.986546325683593750e+01 -7.537899971008300781e+00 3.608866453170776367e+00 2.244816207885742188e+01 7.817108154296875000e+00 -6.787016391754150391e-01
3.920000000000000000e+02 5.850408554077148438e+01 -7.576880931854248047e+00 4.050437450408935547e+00 1.060316944122314453e+01 4.396081924438476562e+00 7.934712409973144531e+00
3.930000000000000000e+02 5.839052963256835938e+01 -7.794262409210205078e+00 3.434480428695678711e+00 9.432003021240234375e+00 3.859945297241210938e+00 7.169147491455078125e+00
3.940000000000000000e+02 5.833128738403320312e+01 -7.610630512237548828e+00 3.872334003448486328e+00 7.975668430328369141e+00 3.554400682449340820e+00 7.018556594848632812e+00
3.950000000000000000e+02 5.834099960327148438e+01 -7.433394432067871094e+00 4.721573352813720703e+00 7.671838283538818359e+00 3.718023538589477539e+00 7.244686603546142578e+00
3.960000000000000000e+02 5.648207473754882812e+01 -5.463507652282714844e+00 -6.499446034431457520e-01 3.126551806926727295e-01 -1.011868417263031006e-01 -8.983158469200134277e-01
3.970000000000000000e+02 5.813705825805664062e+01 -7.653564453125000000e+00 3.739958524703979492e+00 6.478742599487304688e+00 3.065610408782958984e+00 6.246780395507812500e+00
3.980000000000000000e+02 5.762373352050781250e+01 -7.752444744110107422e+00 2.928048849105834961e+00 3.314469337463378906e+00 1.872755408287048340e+00 4.405706405639648438e+00
3.990000000000000000e+02 5.655804061889648438e+01 -6.054765224456787109e+00 -3.004451990127563477e+00 5.675422400236129761e-02 -8.843092918395996094e-01 -9.960498660802841187e-02
4.000000000000000000e+02 5.713090515136718750e+01 -6.015226364135742188e+00 -2.399471998214721680e+00 4.198658466339111328e-02 -7.072456479072570801e-01 -1.970603913068771362e-01
4.010000000000000000e+02 5.743445205688476562e+01 -5.766412258148193359e+00 4.167099297046661377e-01 5.233051776885986328e-01 2.820045351982116699e-01 -1.355875253677368164e+00
4.020000000000000000e+02 5.787801361083984375e+01 -5.998331546783447266e+00 4.844933450222015381e-01 2.400979995727539062e-01 2.173774093389511108e-01 -1.323094010353088379e+00
4.030000000000000000e+02 5.766181564331054688e+01 -5.906384944915771484e+00 3.627988100051879883e-01 3.439506590366363525e-01 2.120248377323150635e-01 -1.342373251914978027e+00
4.040000000000000000e+02 5.643284225463867188e+01 -6.756896495819091797e+00 -2.956947565078735352e+00 4.627930000424385071e-02 -8.732004761695861816e-01 1.227848380804061890e-01
4.050000000000000000e+02 5.642210769653320312e+01 -6.523238182067871094e+00 -4.136409759521484375e+00 2.393474802374839783e-02 -1.233742475509643555e+00 5.753810051828622818e-03
4.060000000000000000e+02 5.664859390258789062e+01 -7.015857219696044922e+00 -1.480234861373901367e+00 1.978387087583541870e-01 -3.847188651561737061e-01 5.448641180992126465e-01
4.070000000000000000e+02 5.702559661865234375e+01 -6.526484489440917969e+00 -3.930060148239135742e+00 7.295119017362594604e-02 -1.157132744789123535e+00 -1.577057689428329468e-02
4.080000000000000000e+02 5.722166442871093750e+01 -6.517685413360595703e+00 -3.824065208435058594e+00 -1.405601762235164642e-02 -1.151436328887939453e+00 3.991847112774848938e-02
4.090000000000000000e+02 5.758387374877929688e+01 -6.699214935302734375e+00 -1.502522826194763184e+00 1.737975627183914185e-01 -3.986175656318664551e-01 5.104350447654724121e-01
4.100000000000000000e+02 5.637256240844726562e+01 -7.371367454528808594e+00 -6.037881970405578613e-01 3.691874146461486816e-01 -7.038022577762603760e-02 1.008393049240112305e+00
4.110000000000000000e+02 5.643442153930664062e+01 -6.994724273681640625e+00 -1.901180982589721680e+00 6.785768270492553711e-02 -5.499969720840454102e-01 3.778730928897857666e-01
4.120000000000000000e+02 5.641002655029296875e+01 -7.780111312866210938e+00 5.499758720397949219e-01 7.739855647087097168e-01 3.971884250640869141e-01 1.679485559463500977e+00
4.130000000000000000e+02 5.680544662475585938e+01 -7.758865833282470703e+00 1.187720417976379395e+00 1.194560050964355469e+00 7.146841287612915039e-01 2.271659851074218750e+00
4.140000000000000000e+02 5.700708770751953125e+01 -7.745749473571777344e+00 1.655619144439697266e+00 1.486624121665954590e+00 9.426729679107666016e-01 2.671864509582519531e+00
4.150000000000000000e+02 5.787761688232421875e+01 -6.867631435394287109e+00 1.445210695266723633e+00 5.701432824134826660e-01 6.046062111854553223e-01 1.815950512886047363e+00
4.160000000000000000e+02 5.780825805664062500e+01 -6.520716667175292969e+00 -2.858083486557006836e+00 2.772691473364830017e-02 -8.491069674491882324e-01 2.321936339139938354e-01
4.170000000000000000e+02 5.741737747192382812e+01 -7.744423866271972656e+00 2.575276374816894531e+00 2.528049707412719727e+00 1.530997872352600098e+00 3.764604091644287109e+00
4.180000000000000000e+02 5.744089126586914062e+01 -7.199138164520263672e+00 1.467495322227478027e+00 9.992382526397705078e-01 7.400200366973876953e-01 2.168285846710205078e+00
4.190000000000000000e+02 5.803532409667968750e+01 -7.513233184814453125e+00 4.302574634552001953e+00 5.050173282623291016e+00 2.805824279785156250e+00 6.046249866485595703e+00
4.200000000000000000e+02 5.765027236938476562e+01 -7.482295989990234375e+00 3.039889097213745117e+00 2.484587430953979492e+00 1.657342910766601562e+00 3.836128711700439453e+00
4.210000000000000000e+02 5.827238464355468750e+01 -7.091354846954345703e+00 5.319942951202392578e+00 4.125862598419189453e+00 2.833741664886474609e+00 5.802949905395507812e+00
4.220000000000000000e+02 5.813049316406250000e+01 -7.371212482452392578e+00 4.444487571716308594e+00 4.742340087890625000e+00 2.756048202514648438e+00 5.898368358612060547e+00
4.230000000000000000e+02 5.962842178344726562e+01 -5.455818653106689453e+00 3.873736619949340820e+00 2.579799079895019531e+01 8.901517868041992188e+00 -3.244524449110031128e-02
4.240000000000000000e+02 5.975990295410156250e+01 -5.537618160247802734e+00 5.721562862396240234e+00 2.535927772521972656e+01 9.324252128601074219e+00 1.759183168411254883e+00
4.250000000000000000e+02 5.989651870727539062e+01 -5.512920856475830078e+00 6.173371791839599609e+00 2.389657402038574219e+01 9.020983695983886719e+00 2.275420904159545898e+00
4.260000000000000000e+02 6.008222198486328125e+01 -6.956324577331542969e+00 1.060341644287109375e+01 2.213949203491210938e+01 9.822872161865234375e+00 -3.251347780227661133e+00
4.270000000000000000e+02 5.663711547851562500e+01 -6.768113136291503906e+00 -2.770438194274902344e+00 -2.000532858073711395e-02 -8.371330499649047852e-01 1.658912450075149536e-01
4.280000000000000000e+02 5.670980453491210938e+01 -5.422284126281738281e+00 -5.751798301935195923e-02 5.066933631896972656e-01 1.347526162862777710e-01 -1.241495132446289062e+00
4.290000000000000000e+02 5.786870574951171875e+01 -5.496728897094726562e+00 3.631862163543701172e+00 2.633805274963378906e+00 1.879700303077697754e+00 -4.166378021240234375e+00
4.300000000000000000e+02 5.767751693725585938e+01 -5.512510299682617188e+00 2.574939489364624023e+00 1.673302292823791504e+00 1.274472475051879883e+00 -3.048977375030517578e+00
4.310000000000000000e+02 5.736381149291992188e+01 -6.984136581420898438e+00 1.545264869928359985e-01 3.839439451694488525e-01 1.615411341190338135e-01 1.272670865058898926e+00
4.320000000000000000e+02 5.670006561279296875e+01 -7.261605262756347656e+00 -2.730631530284881592e-01 3.289562761783599854e-01 1.676793582737445831e-02 1.066509485244750977e+00
4.330000000000000000e+02 5.657958984375000000e+01 -7.543624877929687500e+00 3.247956931591033936e-01 5.954339504241943359e-01 2.760688960552215576e-01 1.516277790069580078e+00
4.340000000000000000e+02 5.794826507568359375e+01 -7.387159347534179688e+00 3.656696557998657227e+00 2.964587688446044922e+00 1.986385226249694824e+00 4.613513469696044922e+00
4.350000000000000000e+02 5.778256225585937500e+01 -5.687101840972900391e+00 2.435808181762695312e+00 1.294431924819946289e+00 1.119072079658508301e+00 -2.776714801788330078e+00
4.360000000000000000e+02 5.710556793212890625e+01 -5.818053722381591797e+00 -5.718474388122558594e-01 1.613509058952331543e-01 -1.231489628553390503e-01 -7.198439836502075195e-01
4.370000000000000000e+02 5.690143203735351562e+01 -7.210792064666748047e+00 3.093682415783405304e-02 4.343517720699310303e-01 1.395865827798843384e-01 1.187639474868774414e+00
4.380000000000000000e+02 5.790335464477539062e+01 -7.212023735046386719e+00 3.459317207336425781e+00 2.168589830398559570e+00 1.688372135162353516e+00 3.908849239349365234e+00
4.390000000000000000e+02 5.673861312866210938e+01 -6.024627685546875000e+00 -2.694499731063842773e+00 7.182314246892929077e-02 -7.868029475212097168e-01 -1.864867210388183594e-01
4.400000000000000000e+02 5.751530838012695312e+01 -6.865814208984375000e+00 -5.015601054765284061e-04 2.997306585311889648e-01 8.976873010396957397e-02 9.392794966697692871e-01
4.410000000000000000e+02 5.672127151489257812e+01 -5.787058353424072266e+00 -1.479281306266784668e+00 1.492499411106109619e-01 -3.990094363689422607e-01 -5.639722943305969238e-01
4.420000000000000000e+02 5.544488143920898438e+01 -5.706167697906494141e+00 -2.652187108993530273e+00 6.934175640344619751e-02 -7.748536467552185059e-01 -1.827207505702972412e-01
4.430000000000000000e+02 5.459904479980468750e+01 -5.119088172912597656e+00 -1.724401235580444336e+00 1.768852621316909790e-01 -4.642547667026519775e-01 -3.765503168106079102e-01
4.440000000000000000e+02 5.577533721923828125e+01 -5.904589176177978516e+00 -2.944538116455078125e+00 1.100623458623886108e-01 -8.503426909446716309e-01 -1.398106217384338379e-01
4.450000000000000000e+02 5.559948730468750000e+01 -5.201279640197753906e+00 -1.093644738197326660e+00 2.756990790367126465e-01 -2.453836947679519653e-01 -7.155458331108093262e-01
4.460000000000000000e+02 5.593954467773437500e+01 -5.221518993377685547e+00 -7.636691331863403320e-01 1.555923521518707275e-01 -1.824230402708053589e-01 -8.027055263519287109e-01
4.470000000000000000e+02 5.587755966186523438e+01 -5.001149654388427734e+00 -4.495993852615356445e-01 3.882613778114318848e-01 -1.840139925479888916e-02 -1.131250619888305664e+00
4.480000000000000000e+02 5.346399688720703125e+01 -5.266116619110107422e+00 -2.583910942077636719e+00 4.013974219560623169e-02 -7.631313204765319824e-01 -1.141325458884239197e-01
4.490000000000000000e+02 5.501932907104492188e+01 -5.651854038238525391e+00 -2.769978523254394531e+00 3.669521957635879517e-02 -8.199850320816040039e-01 -1.481748074293136597e-01
4.500000000000000000e+02 5.350371551513671875e+01 -6.006045341491699219e+00 -3.866548538208007812e+00 -1.423430535942316055e-02 -1.164234876632690430e+00 2.697213180363178253e-02
4.510000000000000000e+02 5.583392715454101562e+01 -6.243712425231933594e+00 -4.266849517822265625e+00 7.145231217145919800e-02 -1.258619070053100586e+00 5.680390819907188416e-02
4.520000000000000000e+02 5.596803283691406250e+01 -6.026541233062744141e+00 -3.164270639419555664e+00 1.465157419443130493e-01 -9.053264260292053223e-01 -2.191462926566600800e-02
4.530000000000000000e+02 5.571931457519531250e+01 -5.700267791748046875e+00 -2.534778356552124023e+00 -3.957209363579750061e-02 -7.723051309585571289e-01 -2.852681279182434082e-01
4.540000000000000000e+02 5.597982025146484375e+01 -5.645167350769042969e+00 -2.010075330734252930e+00 2.015115916728973389e-01 -5.425691604614257812e-01 -3.986168503761291504e-01
4.550000000000000000e+02 5.595397186279296875e+01 -5.435334682464599609e+00 -1.232985377311706543e+00 1.571234166622161865e-01 -3.227586150169372559e-01 -7.326279878616333008e-01
4.560000000000000000e+02 5.563342666625976562e+01 -5.493779182434082031e+00 -1.858159661293029785e+00 1.634746044874191284e-01 -5.084055066108703613e-01 -5.113229751586914062e-01
4.570000000000000000e+02 5.514963150024414062e+01 -5.152450561523437500e+00 -1.390006303787231445e+00 2.183840870857238770e-01 -3.514866530895233154e-01 -5.909645557403564453e-01
4.580000000000000000e+02 5.426682281494140625e+01 -6.064490318298339844e+00 -3.923457622528076172e+00 -1.203132048249244690e-02 -1.180646657943725586e+00 5.386037006974220276e-02
4.590000000000000000e+02 5.407460021972656250e+01 -5.183357715606689453e+00 -2.266119956970214844e+00 3.506486490368843079e-02 -6.693165302276611328e-01 -2.234308719635009766e-01
4.600000000000000000e+02 5.444007873535156250e+01 -5.552233695983886719e+00 -2.755618095397949219e+00 5.197241902351379395e-02 -8.110937476158142090e-01 -1.430638134479522705e-01
4.610000000000000000e+02 5.497082901000976562e+01 -6.129520893096923828e+00 -4.033954143524169922e+00 1.828188635408878326e-02 -1.204701662063598633e+00 4.732880741357803345e-02
4.620000000000000000e+02 5.599841690063476562e+01 -5.841920375823974609e+00 -2.585108995437622070e+00 7.791797071695327759e-02 -7.521572709083557129e-01 -1.082134172320365906e-01
4.630000000000000000e+02 5.548500442504882812e+01 -6.051731109619140625e+00 -3.752706766128540039e+00 -6.050238758325576782e-02 -1.143962740898132324e+00 -1.418844517320394516e-02
4.640000000000000000e+02 5.048752975463867188e+01 -6.016662120819091797e+00 -3.717663526535034180e+00 -1.241764402948319912e-03 -1.115671515464782715e+00 2.108163945376873016e-02
4.650000000000000000e+02 5.123381042480468750e+01 -5.273665904998779297e+00 -2.965063095092773438e+00 1.302323769778013229e-02 -8.856119513511657715e-01 2.077139168977737427e-02
4.660000000000000000e+02 5.123796844482421875e+01 -6.013654708862304688e+00 -3.767556190490722656e+00 2.613989636301994324e-03 -1.129482626914978027e+00 1.974182203412055969e-02
4.670000000000000000e+02 5.198816299438476562e+01 -6.009502887725830078e+00 -3.807828664779663086e+00 3.453683573752641678e-03 -1.141312479972839355e+00 1.359496451914310455e-02
4.680000000000000000e+02 5.273845672607421875e+01 -6.005567073822021484e+00 -3.837493419647216797e+00 -1.263383193872869015e-03 -1.151627063751220703e+00 1.140338927507400513e-02
4.690000000000000000e+02 5.273571777343750000e+01 -5.265571594238281250e+00 -2.792376518249511719e+00 3.140938235446810722e-03 -8.367706537246704102e-01 -3.747007995843887329e-02
4.700000000000000000e+02 5.048266220092773438e+01 -5.276676654815673828e+00 -2.991881370544433594e+00 1.120223943144083023e-02 -8.942037224769592285e-01 4.262401908636093140e-02
4.710000000000000000e+02 5.198471069335937500e+01 -5.269510746002197266e+00 -2.898265600204467773e+00 2.883995696902275085e-02 -8.608276844024658203e-01 -9.307801723480224609e-03
4.720000000000000000e+02 4.748569488525390625e+01 -6.043330192565917969e+00 -3.399830341339111328e+00 -3.004950238391757011e-03 -1.020850539207458496e+00 1.700739189982414246e-02
4.730000000000000000e+02 4.822861480712890625e+01 -5.296689510345458984e+00 -2.957947492599487305e+00 3.158540464937686920e-03 -8.864367008209228516e-01 8.114527910947799683e-02
4.740000000000000000e+02 4.823624420166015625e+01 -6.036650180816650391e+00 -3.483129501342773438e+00 1.844601007178425789e-03 -1.044385433197021484e+00 1.840081252157688141e-02
4.750000000000000000e+02 4.898653793334960938e+01 -6.028829574584960938e+00 -3.566323041915893555e+00 -3.483488981146365404e-04 -1.070001482963562012e+00 1.712272875010967255e-02
4.760000000000000000e+02 4.973693847656250000e+01 -6.021259307861328125e+00 -3.649443149566650391e+00 -9.747773292474448681e-04 -1.095125436782836914e+00 1.871123537421226501e-02
4.770000000000000000e+02 4.973123168945312500e+01 -5.281280040740966797e+00 -2.996839284896850586e+00 3.530128626152873039e-03 -8.979927301406860352e-01 6.193564459681510925e-02
4.780000000000000000e+02 4.747710418701171875e+01 -5.303378582000732422e+00 -2.911778926849365234e+00 1.434382982552051544e-03 -8.731033802032470703e-01 8.767106384038925171e-02
4.790000000000000000e+02 4.897986984252929688e+01 -5.288859844207763672e+00 -2.987261295318603516e+00 6.974526681005954742e-03 -8.940860033035278320e-01 7.471934705972671509e-02
4.800000000000000000e+02 4.448383331298828125e+01 -6.086326122283935547e+00 -2.998095512390136719e+00 -2.345849061384797096e-03 -9.001324176788330078e-01 9.033229202032089233e-03
4.810000000000000000e+02 4.522269439697265625e+01 -5.335564136505126953e+00 -2.730289459228515625e+00 1.655025873333215714e-03 -8.185903429985046387e-01 1.004982441663742065e-01
4.820000000000000000e+02 4.523437500000000000e+01 -6.075472354888916016e+00 -3.097299814224243164e+00 1.222325023263692856e-03 -9.288232922554016113e-01 1.037522684782743454e-02
4.830000000000000000e+02 4.598466110229492188e+01 -6.063519477844238281e+00 -3.199181795120239258e+00 -6.013718084432184696e-04 -9.599349498748779297e-01 1.003281865268945694e-02
4.840000000000000000e+02 4.673505020141601562e+01 -6.051823139190673828e+00 -3.304700851440429688e+00 -1.356906141154468060e-03 -9.918173551559448242e-01 1.230907533317804337e-02
4.850000000000000000e+02 4.672545623779296875e+01 -5.311883449554443359e+00 -2.857619285583496094e+00 -9.520467719994485378e-04 -8.575714230537414551e-01 9.599314630031585693e-02
4.860000000000000000e+02 4.447110748291015625e+01 -5.346434116363525391e+00 -2.651790857315063477e+00 1.352092840534169227e-05 -7.955331802368164062e-01 1.025499999523162842e-01
4.870000000000000000e+02 4.597402191162109375e+01 -5.323595523834228516e+00 -2.799276113510131836e+00 2.772063249722123146e-03 -8.389512300491333008e-01 9.963068366050720215e-02
4.880000000000000000e+02 4.223370742797851562e+01 -6.133643150329589844e+00 -2.662072658538818359e+00 1.633565756492316723e-03 -7.981317043304443359e-01 4.321790765970945358e-03
4.890000000000000000e+02 4.148229217529296875e+01 -6.146579742431640625e+00 -2.552547693252563477e+00 -1.372896367684006691e-03 -7.661762237548828125e-01 4.487501457333564758e-03
4.900000000000000000e+02 4.221790695190429688e+01 -5.393811225891113281e+00 -2.401030540466308594e+00 3.089321777224540710e-03 -7.193824052810668945e-01 1.076418235898017883e-01
4.910000000000000000e+02 4.298408889770507812e+01 -6.118122577667236328e+00 -2.774673461914062500e+00 1.503280655015259981e-04 -8.323569893836975098e-01 2.653124975040555000e-03
4.920000000000000000e+02 4.373342132568359375e+01 -6.099862575531005859e+00 -2.890321731567382812e+00 -1.861476688645780087e-03 -8.676549792289733887e-01 4.557560663670301437e-03
4.930000000000000000e+02 4.371966552734375000e+01 -5.359988689422607422e+00 -2.570821762084960938e+00 -2.572157536633312702e-04 -7.713236808776855469e-01 1.077689379453659058e-01
4.940000000000000000e+02 4.146547317504882812e+01 -5.406769752502441406e+00 -2.304582357406616211e+00 1.885605510324239731e-03 -6.908090114593505859e-01 1.097954213619232178e-01
4.950000000000000000e+02 4.296931076049804688e+01 -5.378270149230957031e+00 -2.490491151809692383e+00 3.176427213475108147e-03 -7.461944222450256348e-01 1.087247803807258606e-01
4.960000000000000000e+02 3.846181488037109375e+01 -5.483074665069580078e+00 -1.913308858871459961e+00 5.505017004907131195e-03 -5.723411440849304199e-01 1.175448596477508545e-01
4.970000000000000000e+02 3.848166656494140625e+01 -6.222808361053466797e+00 -2.080730199813842773e+00 7.999671506695449352e-04 -6.239790320396423340e-01 5.799970123916864395e-03
4.980000000000000000e+02 3.923187255859375000e+01 -6.203719139099121094e+00 -2.197140693664550781e+00 1.314127002842724323e-03 -6.587479710578918457e-01 3.863798920065164566e-03
4.990000000000000000e+02 3.998181152343750000e+01 -6.183495998382568359e+00 -2.315010070800781250e+00 7.230974151752889156e-04 -6.942860484123229980e-01 1.969691598787903786e-03
5.000000000000000000e+02 4.073185729980468750e+01 -6.163486957550048828e+00 -2.436582565307617188e+00 -7.769209914840757847e-04 -7.312078475952148438e-01 2.145807724446058273e-03
5.010000000000000000e+02 4.071416854858398438e+01 -5.423696517944335938e+00 -2.209959983825683594e+00 1.994388410821557045e-03 -6.623896956443786621e-01 1.138464957475662231e-01
5.020000000000000000e+02 3.921274185180664062e+01 -5.463966846466064453e+00 -2.015171289443969727e+00 5.614005494862794876e-03 -6.028671860694885254e-01 1.156450062990188599e-01
5.030000000000000000e+02 3.996340179443359375e+01 -5.443724155426025391e+00 -2.114887237548828125e+00 4.821163602173328400e-03 -6.330198049545288086e-01 1.150171756744384766e-01
5.040000000000000000e+02 3.698171997070312500e+01 -6.262598514556884766e+00 -1.841145038604736328e+00 1.463764114305377007e-03 -5.519043803215026855e-01 9.365603327751159668e-03
5.050000000000000000e+02 3.621255493164062500e+01 -5.544963359832763672e+00 -1.605250000953674316e+00 8.124196901917457581e-03 -4.791377186775207520e-01 1.258659511804580688e-01
5.060000000000000000e+02 3.548279571533203125e+01 -6.306656837463378906e+00 -1.601815462112426758e+00 2.753620268777012825e-03 -4.797185361385345459e-01 1.602324843406677246e-02
5.070000000000000000e+02 3.771127700805664062e+01 -5.501970291137695312e+00 -1.810735225677490234e+00 5.857046693563461304e-03 -5.414634346961975098e-01 1.207958087325096130e-01
5.080000000000000000e+02 3.773139953613281250e+01 -6.241697311401367188e+00 -1.961936831474304199e+00 1.037903362885117531e-03 -5.882696509361267090e-01 7.295834366232156754e-03
5.090000000000000000e+02 3.546322250366210938e+01 -5.566914081573486328e+00 -1.502927064895629883e+00 9.200817905366420746e-03 -4.481178820133209229e-01 1.281798630952835083e-01
5.100000000000000000e+02 3.696178054809570312e+01 -5.522866249084472656e+00 -1.708763599395751953e+00 7.085676304996013641e-03 -5.105033516883850098e-01 1.232984066009521484e-01
5.110000000000000000e+02 3.623231124877929688e+01 -6.284700870513916016e+00 -1.721733570098876953e+00 1.875659218057990074e-03 -5.159573554992675781e-01 1.212102361023426056e-02
5.120000000000000000e+02 3.323463058471679688e+01 -6.359344959259033203e+00 -1.258716106414794922e+00 1.746868016198277473e-03 -3.770907819271087646e-01 2.850774303078651428e-02
5.130000000000000000e+02 3.321954727172851562e+01 -5.619493961334228516e+00 -1.195646762847900391e+00 7.913221605122089386e-03 -3.563200533390045166e-01 1.373682320117950439e-01
5.140000000000000000e+02 3.248681640625000000e+01 -6.379900932312011719e+00 -1.141914844512939453e+00 3.702442161738872528e-03 -3.414637148380279541e-01 3.257535770535469055e-02
5.150000000000000000e+02 3.398349380493164062e+01 -6.341384410858154297e+00 -1.372822642326354980e+00 2.246552379801869392e-03 -4.111728370189666748e-01 2.575806528329849243e-02
5.160000000000000000e+02 3.471478271484375000e+01 -5.586100101470947266e+00 -1.399976968765258789e+00 8.942847140133380890e-03 -4.173102378845214844e-01 1.299737095832824707e-01
5.170000000000000000e+02 3.473338699340820312e+01 -6.325866699218750000e+00 -1.485814213752746582e+00 3.302688244730234146e-03 -4.447534382343292236e-01 2.119543030858039856e-02
5.180000000000000000e+02 3.247348785400390625e+01 -5.640007495880126953e+00 -1.099414944648742676e+00 9.178141131997108459e-03 -3.270710408687591553e-01 1.385001838207244873e-01
5.190000000000000000e+02 3.396664810180664062e+01 -5.601575374603271484e+00 -1.296761274337768555e+00 7.761509157717227936e-03 -3.866999149322509766e-01 1.332129836082458496e-01
5.200000000000000000e+02 3.099083137512207031e+01 -6.399948596954345703e+00 -9.347059130668640137e-01 8.916916558519005775e-04 -2.801442742347717285e-01 4.316126555204391479e-02
5.210000000000000000e+02 3.024179267883300781e+01 -5.667771339416503906e+00 -8.124495148658752441e-01 3.117160871624946594e-03 -2.427996993064880371e-01 1.425610482692718506e-01
5.220000000000000000e+02 2.949573898315429688e+01 -6.414954185485839844e+00 -7.247362136840820312e-01 2.780081704258918762e-03 -2.165868431329727173e-01 4.753674194216728210e-02
5.230000000000000000e+02 3.172830200195312500e+01 -5.652883052825927734e+00 -1.001711249351501465e+00 7.718847133219242096e-03 -2.981977164745330811e-01 1.380677819252014160e-01
5.240000000000000000e+02 3.173856925964355469e+01 -6.392818927764892578e+00 -1.034339189529418945e+00 3.795531112700700760e-03 -3.091630935668945312e-01 3.906875848770141602e-02
5.250000000000000000e+02 2.949855422973632812e+01 -5.674893379211425781e+00 -7.259497642517089844e-01 4.069599322974681854e-03 -2.165640592575073242e-01 1.411200165748596191e-01
5.260000000000000000e+02 3.098492622375488281e+01 -5.659971237182617188e+00 -9.046976566314697266e-01 4.556341562420129776e-03 -2.700423896312713623e-01 1.400056183338165283e-01
5.270000000000000000e+02 3.024333572387695312e+01 -6.407790660858154297e+00 -8.311498761177062988e-01 1.068741083145141602e-03 -2.490243464708328247e-01 4.438909143209457397e-02
5.280000000000000000e+02 2.800358009338378906e+01 -6.392907142639160156e+00 -5.514407753944396973e-01 -2.377849305048584938e-03 -1.661455780267715454e-01 5.526618659496307373e-02
5.290000000000000000e+02 2.728431129455566406e+01 -5.636834621429443359e+00 -4.795406460762023926e-01 -7.433847524225711823e-03 -1.460923552513122559e-01 1.346170604228973389e-01
5.300000000000000000e+02 2.651304817199707031e+01 -6.358762741088867188e+00 -3.802181184291839600e-01 -1.527117448858916759e-03 -1.145235672593116760e-01 5.209645628929138184e-02
5.310000000000000000e+02 2.875823974609375000e+01 -5.669638156890869141e+00 -6.402208805084228516e-01 8.475445210933685303e-04 -1.918120086193084717e-01 1.371776759624481201e-01
5.320000000000000000e+02 2.874904632568359375e+01 -6.409622669219970703e+00 -6.321710348129272461e-01 1.894094748422503471e-03 -1.890830844640731812e-01 5.314869433641433716e-02
5.330000000000000000e+02 2.654741096496582031e+01 -5.619358539581298828e+00 -4.088705480098724365e-01 -7.429543882608413696e-03 -1.248900294303894043e-01 1.286794096231460571e-01
5.340000000000000000e+02 2.802116203308105469e+01 -5.653115749359130859e+00 -5.563141703605651855e-01 -4.039506427943706512e-03 -1.681060940027236938e-01 1.359251439571380615e-01
5.350000000000000000e+02 2.725833702087402344e+01 -6.376431941986083984e+00 -4.664114415645599365e-01 -2.222278155386447906e-03 -1.405901163816452026e-01 5.325525626540184021e-02
5.360000000000000000e+02 2.428754043579101562e+01 -6.197861671447753906e+00 -1.881186217069625854e-01 -6.435244809836149216e-03 -5.836616083979606628e-02 4.569277912378311157e-02
5.370000000000000000e+02 2.435861396789550781e+01 -5.461198806762695312e+00 -2.213087379932403564e-01 -2.138550393283367157e-02 -7.280827313661575317e-02 1.063776612281799316e-01
5.380000000000000000e+02 2.354777717590332031e+01 -6.138960838317871094e+00 -1.303618848323822021e-01 -7.770558819174766541e-03 -4.143973067402839661e-02 3.818418085575103760e-02
5.390000000000000000e+02 2.502826499938964844e+01 -6.258197307586669922e+00 -2.490424513816833496e-01 -7.407195866107940674e-03 -7.693489640951156616e-02 5.148704349994659424e-02
5.400000000000000000e+02 2.581491851806640625e+01 -5.581003189086914062e+00 -3.413038253784179688e-01 -1.158185582607984543e-02 -1.058657094836235046e-01 1.199980750679969788e-01
5.410000000000000000e+02 2.576985549926757812e+01 -6.319781780242919922e+00 -3.085664212703704834e-01 -2.804375020787119865e-03 -9.341123700141906738e-02 5.335934087634086609e-02
5.420000000000000000e+02 2.363185691833496094e+01 -5.403356075286865234e+00 -1.705215424299240112e-01 -2.129130251705646515e-02 -5.754385143518447876e-02 9.458038955926895142e-02
5.430000000000000000e+02 2.508633232116699219e+01 -5.520476818084716797e+00 -2.773701250553131104e-01 -1.640920527279376984e-02 -8.813380450010299683e-02 1.145363748073577881e-01
5.440000000000000000e+02 2.146717453002929688e+01 -5.077126979827880859e+00 -5.813296511769294739e-02 -2.701161615550518036e-02 -2.554337494075298309e-02 4.925652965903282166e-02
5.450000000000000000e+02 2.134441947937011719e+01 -5.806876659393310547e+00 -2.133377455174922943e-02 -4.307359922677278519e-03 -7.692340295761823654e-03 1.742243580520153046e-02
5.460000000000000000e+02 2.061148262023925781e+01 -5.684748649597167969e+00 -1.897811598610132933e-04 -8.195927366614341736e-03 -2.515712520107626915e-03 8.424561470746994019e-03
5.470000000000000000e+02 2.207760429382324219e+01 -5.928263664245605469e+00 -5.056892707943916321e-02 -1.060751639306545258e-02 -1.835293322801589966e-02 2.450404502451419830e-02
5.480000000000000000e+02 2.290797805786132812e+01 -5.314875125885009766e+00 -1.259863525629043579e-01 -2.549880743026733398e-02 -4.544554650783538818e-02 7.969527691602706909e-02
5.490000000000000000e+02 2.281096076965332031e+01 -6.048885822296142578e+00 -8.456782251596450806e-02 -6.415314041078090668e-03 -2.729494124650955200e-02 3.265794739127159119e-02
5.500000000000000000e+02 2.074710655212402344e+01 -4.957129478454589844e+00 -3.839071467518806458e-02 -1.958063989877700806e-02 -1.739140599966049194e-02 3.460678830742835999e-02
5.510000000000000000e+02 2.218749046325683594e+01 -5.196383476257324219e+00 -8.683859556913375854e-02 -2.642782777547836304e-02 -3.397992625832557678e-02 6.707881391048431396e-02
5.520000000000000000e+02 1.905580329895019531e+01 -4.613489627838134766e+00 -2.512417268007993698e-03 -2.915129764005541801e-03 -1.628264086320996284e-03 -2.974273636937141418e-03
5.530000000000000000e+02 1.978026580810546875e+01 -5.523462295532226562e+00 7.210730575025081635e-03 -2.497600158676505089e-03 1.413939055055379868e-03 -1.076685730367898941e-03
5.540000000000000000e+02 1.992511749267578125e+01 -4.797539234161376953e+00 -1.686145737767219543e-02 -2.366955205798149109e-02 -1.215930283069610596e-02 1.589817181229591370e-02
5.550000000000000000e+02 1.847771644592285156e+01 -4.667171001434326172e+00 -8.960541890701279044e-05 1.324322354048490524e-02 3.946085460484027863e-03 -2.806965261697769165e-03
5.560000000000000000e+02 1.890536689758300781e+01 -5.338151454925537109e+00 3.399827051907777786e-03 9.768442250788211823e-04 1.313001383095979691e-03 -3.531475318595767021e-03
5.570000000000000000e+02 1.882146453857421875e+01 -6.111851215362548828e+00 -4.073100164532661438e-03 -1.878232695162296295e-03 -1.785399741493165493e-03 -7.110102102160453796e-03
5.580000000000000000e+02 1.800308799743652344e+01 -6.754832744598388672e+00 1.788539998233318329e-02 -4.257496818900108337e-02 -7.406870834529399872e-03 -8.141378872096538544e-03
5.590000000000000000e+02 1.831862449645996094e+01 -6.817986488342285156e+00 -2.973306924104690552e-02 -2.621198818087577820e-02 -1.678351685404777527e-02 -3.587703779339790344e-02
5.600000000000000000e+02 1.959215354919433594e+01 -7.028707504272460938e+00 -1.449950486421585083e-01 -3.114224411547183990e-03 -4.443278536200523376e-02 -6.389892101287841797e-02
5.610000000000000000e+02 1.890554809570312500e+01 -6.889476776123046875e+00 -8.284486085176467896e-02 -1.666781865060329437e-02 -2.985380217432975769e-02 -4.494500905275344849e-02
5.620000000000000000e+02 1.965883255004882812e+01 -6.285129547119140625e+00 -5.143866315484046936e-02 -6.028720526956021786e-04 -1.561246067285537720e-02 -1.756188459694385529e-02
5.630000000000000000e+02 1.828899765014648438e+01 -6.266255378723144531e+00 -1.978806685656309128e-03 6.442095618695020676e-03 1.338986679911613464e-03 5.320891272276639938e-03
5.640000000000000000e+02 1.796524238586425781e+01 -6.500696659088134766e+00 1.063963863998651505e-02 1.812229049392044544e-03 3.735560225322842598e-03 1.410159002989530563e-02
5.650000000000000000e+02 1.788060569763183594e+01 -7.441975593566894531e+00 -6.474567204713821411e-02 -5.495151132345199585e-02 -3.590915352106094360e-02 -6.450855731964111328e-02
5.660000000000000000e+02 1.888218116760253906e+01 -7.520627498626708984e+00 -1.397221386432647705e-01 -2.836461551487445831e-02 -5.042602866888046265e-02 -9.120628237724304199e-02
5.670000000000000000e+02 1.716694068908691406e+01 -9.249889373779296875e+00 -1.425483077764511108e-01 -1.806792616844177246e-01 -9.696827083826065063e-02 -1.694336682558059692e-01
5.680000000000000000e+02 2.230932235717773438e+01 -9.027533531188964844e+00 -5.216287374496459961e-01 2.088641747832298279e-02 -1.502227038145065308e-01 -2.451811134815216064e-01
5.690000000000000000e+02 2.792053604125976562e+01 -8.656040191650390625e+00 -1.072238802909851074e+00 -1.120038796216249466e-02 -3.250317573547363281e-01 -1.984347254037857056e-01
5.700000000000000000e+02 2.404915237426757812e+01 -8.446214675903320312e+00 -6.734762191772460938e-01 1.494895666837692261e-02 -1.975581794977188110e-01 -1.879504770040512085e-01
5.710000000000000000e+02 1.509000301361083984e+01 -1.275299930572509766e+01 -3.669365644454956055e-01 -5.353712439537048340e-01 -2.706923186779022217e-01 -4.313448071479797363e-01
5.720000000000000000e+02 1.246410369873046875e+01 -1.605693817138671875e+01 -5.484708547592163086e-01 -5.781627297401428223e-01 -3.379900753498077393e-01 -5.575324296951293945e-01
5.730000000000000000e+02 1.455730915069580078e+01 -1.601736450195312500e+01 -4.859416186809539795e-01 -4.346016645431518555e-01 -2.761629819869995117e-01 -4.412221908569335938e-01
5.740000000000000000e+02 1.502966022491455078e+01 -2.527642250061035156e+01 4.151987284421920776e-02 -3.750618398189544678e-01 -1.000625938177108765e-01 -3.386444449424743652e-01
5.750000000000000000e+02 2.221863365173339844e+01 -3.161471557617187500e+01 3.559936881065368652e-01 -1.469439417123794556e-01 6.271491944789886475e-02 -2.521306574344635010e-01
5.760000000000000000e+02 1.753677368164062500e+01 -4.071046066284179688e+01 3.667654097080230713e-01 -3.065336048603057861e-01 1.806953921914100647e-02 -5.138350650668144226e-02
5.770000000000000000e+02 2.238214302062988281e+01 -4.094458770751953125e+01 5.006027221679687500e-01 -1.215967014431953430e-01 1.137018054723739624e-01 -3.444803878664970398e-02
5.780000000000000000e+02 1.822240257263183594e+01 -3.719930648803710938e+01 3.650701940059661865e-01 -2.882318198680877686e-01 2.305151522159576416e-02 -1.392311155796051025e-01
5.790000000000000000e+02 2.254072761535644531e+01 -3.444071197509765625e+01 4.228830635547637939e-01 -1.295247077941894531e-01 8.800750970840454102e-02 -1.998578161001205444e-01
5.800000000000000000e+02 2.007912826538085938e+01 -2.051271247863769531e+01 -1.941250264644622803e-01 -1.749861836433410645e-01 -1.107333675026893616e-01 -4.032620489597320557e-01
5.810000000000000000e+02 2.334649658203125000e+01 -1.331333827972412109e+01 -5.548583865165710449e-01 -3.734793572220951319e-04 -1.665695607662200928e-01 -4.612308740615844727e-01
5.820000000000000000e+02 2.365516281127929688e+01 -1.448697948455810547e+01 -5.169459581375122070e-01 -9.644304402172565460e-03 -1.579770743846893311e-01 -4.793530404567718506e-01
5.830000000000000000e+02 1.340288925170898438e+01 -1.501419067382812500e+01 -5.195098519325256348e-01 -5.765277743339538574e-01 -3.288112878799438477e-01 -5.371944308280944824e-01
5.840000000000000000e+02 1.149171543121337891e+01 -1.715545463562011719e+01 -6.597949862480163574e-01 -5.586231350898742676e-01 -3.655254244804382324e-01 -5.438632369041442871e-01
5.850000000000000000e+02 1.029160499572753906e+01 -1.805890274047851562e+01 -8.075119256973266602e-01 -4.490632712841033936e-01 -3.769725561141967773e-01 -4.540280401706695557e-01
5.860000000000000000e+02 8.967609405517578125e+00 -1.836699485778808594e+01 -5.733996629714965820e-01 -1.545820236206054688e-01 -2.183945178985595703e-01 -2.423442453145980835e-01
5.870000000000000000e+02 7.184203147888183594e+00 -1.732349395751953125e+01 -8.869296312332153320e-02 4.418971017003059387e-02 -1.335097569972276688e-02 -1.775700971484184265e-02
5.880000000000000000e+02 6.362335205078125000e+00 -1.633015632629394531e+01 7.358924951404333115e-03 8.430569432675838470e-03 4.736848175525665283e-03 -1.181885041296482086e-02
5.890000000000000000e+02 7.054012298583984375e+00 -1.510619449615478516e+01 6.132509559392929077e-03 3.301747888326644897e-02 1.174499653279781342e-02 -9.974093176424503326e-03
5.900000000000000000e+02 8.911071777343750000e+00 -1.145861148834228516e+01 -4.877951869275420904e-04 -7.546407287009060383e-04 -3.727307775989174843e-04 4.423058417160063982e-04
5.910000000000000000e+02 9.679027557373046875e+00 -1.031751155853271484e+01 -2.440915977786062285e-06 1.785291096894070506e-04 5.282645724946632981e-05 -4.692454531323164701e-04
5.920000000000000000e+02 1.212712955474853516e+01 -7.058146476745605469e+00 2.554720849730074406e-04 -7.359548908425495028e-05 5.456297731143422425e-05 -8.945925947045907378e-05
5.930000000000000000e+02 1.172441387176513672e+01 -2.755220651626586914e+00 1.392826961819082499e-04 1.694982638582587242e-04 9.263429092243313789e-05 -2.611759191495366395e-05
5.940000000000000000e+02 1.223813533782958984e+01 -4.648029804229736328e+00 -2.214748383266851306e-04 -1.309810904785990715e-04 -1.057367771863937378e-04 1.853238427429459989e-05
5.950000000000000000e+02 1.104884815216064453e+01 -1.914322137832641602e+00 5.828841676702722907e-05 1.949288853211328387e-04 7.596518844366073608e-05 2.868019146262668073e-05
5.960000000000000000e+02 4.279527664184570312e+00 -1.922477006912231445e+00 -4.425633960636332631e-05 -6.307071453193202615e-05 -3.219811696908436716e-05 -1.708510535536333919e-04
5.970000000000000000e+02 1.578436732292175293e+00 -1.474219036102294922e+01 3.313869703561067581e-03 5.462648812681436539e-03 2.632955554872751236e-03 8.865934796631336212e-03
5.980000000000000000e+02 4.577124595642089844e+00 -1.829903984069824219e+01 -1.019238531589508057e-01 -2.747283130884170532e-02 -3.881900385022163391e-02 -3.766342625021934509e-02
5.990000000000000000e+02 6.415513753890991211e-01 -2.479972457885742188e+01 -3.362850518897175789e-03 -1.799774467945098877e-01 -5.500208586454391479e-02 -3.834080323576927185e-02
6.000000000000000000e+02 7.745364904403686523e-01 -3.189056396484375000e+01 3.165788715705275536e-03 -5.902401804924011230e-01 -1.761223226785659790e-01 -3.690781071782112122e-02
6.010000000000000000e+02 2.786411046981811523e+00 -3.793906402587890625e+01 2.303147129714488983e-02 -6.956186294555664062e-01 -2.017761468887329102e-01 -3.654874488711357117e-02
6.020000000000000000e+02 7.957435846328735352e-01 -3.729203033447265625e+01 2.001974498853087425e-03 -7.635409832000732422e-01 -2.284616976976394653e-01 -5.106726195663213730e-03
6.030000000000000000e+02 8.658302307128906250e+00 -3.822660064697265625e+01 1.351453959941864014e-01 -5.105831027030944824e-01 -1.126313060522079468e-01 -1.036307513713836670e-01
6.040000000000000000e+02 7.689932823181152344e+00 -3.319672775268554688e+01 9.378834813833236694e-02 -4.834077954292297363e-01 -1.168858334422111511e-01 -2.114560008049011230e-01
6.050000000000000000e+02 1.255419158935546875e+01 -2.284459304809570312e+01 -8.293741941452026367e-02 -4.287925064563751221e-01 -1.535189747810363770e-01 -3.446772098541259766e-01
6.060000000000000000e+02 1.124682140350341797e+01 -2.272008705139160156e+01 -7.379683107137680054e-02 -4.346068203449249268e-01 -1.525210887193679810e-01 -3.499889969825744629e-01
6.070000000000000000e+02 6.228867173194885254e-01 -2.338213920593261719e+01 -2.235542517155408859e-03 -1.007902324199676514e-01 -3.090773336589336395e-02 -3.190751001238822937e-02
6.080000000000000000e+02 1.254470443725585938e+01 -2.000836133956909180e+00 1.503063831478357315e-04 6.530632526846602559e-05 6.468381616286933422e-05 5.055262954556383193e-05
6.090000000000000000e+02 2.700339698791503906e+01 -4.093223190307617188e+01 6.004960536956787109e-01 1.165764555335044861e-01 2.151217609643936157e-01 -2.647377550601959229e-02
6.100000000000000000e+02 2.939868736267089844e+01 -3.748221969604492188e+01 6.225401163101196289e-01 2.701077461242675781e-01 2.677943706512451172e-01 -8.302710950374603271e-02
6.110000000000000000e+02 3.210796356201171875e+01 -3.306383895874023438e+01 5.939128398895263672e-01 3.938277661800384521e-01 2.963221669197082520e-01 -1.251876503229141235e-01
6.120000000000000000e+02 2.882429695129394531e+01 -2.253647041320800781e+01 6.712051481008529663e-02 3.384028375148773193e-02 3.028823994100093842e-02 -4.201892316341400146e-01
6.130000000000000000e+02 3.129891014099121094e+01 -1.434620475769042969e+01 -6.342630982398986816e-01 -5.665602628141641617e-03 -1.919786185026168823e-01 -4.810235798358917236e-01
6.140000000000000000e+02 3.098087501525878906e+01 -8.661616325378417969e+00 -1.364616274833679199e+00 -1.839985325932502747e-02 -4.149048626422882080e-01 -2.111619710922241211e-01
6.150000000000000000e+02 2.940226173400878906e+01 -9.424853324890136719e+00 -1.125947594642639160e+00 -1.767494156956672668e-02 -3.430867791175842285e-01 -2.709759473800659180e-01
6.160000000000000000e+02 3.827894592285156250e+01 -4.000441741943359375e+01 7.033414244651794434e-01 1.172152280807495117e+00 5.626481175422668457e-01 1.630110666155815125e-02
6.170000000000000000e+02 3.390232467651367188e+01 -2.874178314208984375e+01 5.136173963546752930e-01 4.551212191581726074e-01 2.906215786933898926e-01 -1.623240411281585693e-01
6.180000000000000000e+02 3.525819396972656250e+01 -2.375087928771972656e+01 3.136741220951080322e-01 3.868535757064819336e-01 2.101583182811737061e-01 -2.251454442739486694e-01
6.190000000000000000e+02 3.844103622436523438e+01 -1.367064285278320312e+01 -7.500527501106262207e-01 8.495581895112991333e-02 -1.995290815830230713e-01 -3.469574451446533203e-01
6.200000000000000000e+02 3.926029205322265625e+01 -8.449672698974609375e+00 -2.050309419631958008e+00 -4.927999805659055710e-03 -6.165712475776672363e-01 -2.266503721475601196e-01
6.210000000000000000e+02 3.773237228393554688e+01 -9.214025497436523438e+00 -1.753191947937011719e+00 -1.011868380010128021e-02 -5.289931893348693848e-01 -2.732601463794708252e-01
6.220000000000000000e+02 3.626526260375976562e+01 -8.536787986755371094e+00 -1.818793416023254395e+00 -1.135833095759153366e-02 -5.490455031394958496e-01 -2.279052734375000000e-01
6.230000000000000000e+02 4.289178466796875000e+01 -4.042072296142578125e+01 6.451579928398132324e-01 1.879547953605651855e+00 7.574117779731750488e-01 4.205492511391639709e-02
6.240000000000000000e+02 4.561853408813476562e+01 -2.843906974792480469e+01 5.197998881340026855e-01 2.097619056701660156e+00 7.852256894111633301e-01 4.438331425189971924e-01
6.250000000000000000e+02 4.092050933837890625e+01 -2.340439796447753906e+01 4.222212433815002441e-01 8.271651268005371094e-01 3.748159110546112061e-01 1.112457588315010071e-01
6.260000000000000000e+02 4.415776062011718750e+01 -1.401405239105224609e+01 -4.620459377765655518e-01 2.997696995735168457e-01 -4.868287220597267151e-02 -3.508647438138723373e-03
6.270000000000000000e+02 4.672495269775390625e+01 -8.288356781005859375e+00 -2.441014766693115234e+00 1.734229922294616699e-02 -7.271017432212829590e-01 -1.607165932655334473e-01
6.280000000000000000e+02 4.299372482299804688e+01 -8.358604431152343750e+00 -2.296903610229492188e+00 2.270138589665293694e-03 -6.883900165557861328e-01 -2.088936567306518555e-01
6.290000000000000000e+02 4.368408584594726562e+01 -9.050731658935546875e+00 -2.046876430511474609e+00 1.188357174396514893e-02 -6.104978919029235840e-01 -2.242736220359802246e-01
6.300000000000000000e+02 4.224721145629882812e+01 -8.374481201171875000e+00 -2.253104925155639648e+00 2.122155390679836273e-03 -6.752948164939880371e-01 -2.140725702047348022e-01
6.310000000000000000e+02 4.765848159790039062e+01 -4.068311691284179688e+01 5.034339427947998047e-01 2.781314373016357422e+00 9.854245185852050781e-01 6.758479773998260498e-02
6.320000000000000000e+02 4.800438308715820312e+01 -3.716662979125976562e+01 4.831080138683319092e-01 2.860443830490112305e+00 1.003065466880798340e+00 1.910763233900070190e-01
6.330000000000000000e+02 4.986395263671875000e+01 -3.114688110351562500e+01 3.523544967174530029e-01 3.111531496047973633e+00 1.039165854454040527e+00 5.417842864990234375e-01
6.340000000000000000e+02 5.188625335693359375e+01 -2.273097229003906250e+01 2.241214215755462646e-01 3.335151433944702148e+00 1.067781925201416016e+00 1.179785132408142090e+00
6.350000000000000000e+02 5.001039505004882812e+01 -1.420148372650146484e+01 1.808330863714218140e-01 1.205268979072570801e+00 4.158306419849395752e-01 1.010137200355529785e+00
6.360000000000000000e+02 5.268188858032226562e+01 -8.200016021728515625e+00 -1.889446854591369629e+00 1.040610969066619873e-01 -5.356157422065734863e-01 1.842228323221206665e-01
6.370000000000000000e+02 5.184759140014648438e+01 -8.849811553955078125e+00 -1.493156433105468750e+00 1.675844341516494751e-01 -3.976716101169586182e-01 2.612537145614624023e-01
6.380000000000000000e+02 4.971334075927734375e+01 -8.245194435119628906e+00 -2.371665000915527344e+00 4.035016894340515137e-02 -6.993944644927978516e-01 -6.217267736792564392e-02
6.390000000000000000e+02 5.765543365478515625e+01 -4.063366317749023438e+01 7.522906363010406494e-02 4.986580848693847656e+00 1.518543004989624023e+00 7.806150615215301514e-02
6.400000000000000000e+02 5.862311172485351562e+01 -2.298866653442382812e+01 -4.893742799758911133e-01 6.092609405517578125e+00 1.680970549583435059e+00 1.035479903221130371e+00
6.410000000000000000e+02 5.419202041625976562e+01 -1.426883125305175781e+01 3.622370660305023193e-01 3.383816719055175781e+00 1.123816132545471191e+00 2.276599168777465820e+00
6.420000000000000000e+02 5.412405395507812500e+01 -8.220983505249023438e+00 -1.193175077438354492e+00 2.534966468811035156e-01 -2.819035053253173828e-01 6.125212907791137695e-01
6.430000000000000000e+02 6.269684219360351562e+01 -4.076860427856445312e+01 -7.833041250705718994e-02 6.135073661804199219e+00 1.817022919654846191e+00 2.167903073132038116e-02
6.440000000000000000e+02 5.853368377685546875e+01 -3.711297607421875000e+01 1.595902629196643829e-02 5.223540782928466797e+00 1.571849942207336426e+00 1.931233257055282593e-01
6.450000000000000000e+02 6.158520889282226562e+01 -2.907924842834472656e+01 -3.893753886222839355e-01 6.321637153625488281e+00 1.779678583145141602e+00 3.849671781063079834e-01
6.460000000000000000e+02 6.387227249145507812e+01 -2.593820381164550781e+01 -5.941755175590515137e-01 7.109788417816162109e+00 1.954683899879455566e+00 2.012795656919479370e-01
6.470000000000000000e+02 6.696759796142578125e+01 -1.797532081604003906e+01 -6.552731394767761230e-01 8.636132240295410156e+00 2.394257545471191406e+00 -6.207523345947265625e-01
6.480000000000000000e+02 6.007917785644531250e+01 -8.154055595397949219e+00 1.732110619544982910e+00 1.912104606628417969e+01 6.255947113037109375e+00 2.384349852800369263e-01
6.490000000000000000e+02 6.762127685546875000e+01 -4.096044158935546875e+01 -1.118127331137657166e-01 6.992772102355957031e+00 2.064287900924682617e+00 3.698664368130266666e-04
6.500000000000000000e+02 6.608140563964843750e+01 -3.632932662963867188e+01 -1.774013042449951172e-01 6.815495967864990234e+00 1.991428375244140625e+00 -2.297184895724058151e-03
6.510000000000000000e+02 7.349913787841796875e+01 -3.051796150207519531e+01 -1.558274477720260620e-01 7.982325077056884766e+00 2.347949266433715820e+00 -2.426914274692535400e-01
6.520000000000000000e+02 7.033312225341796875e+01 -2.203621292114257812e+01 -4.716232120990753174e-01 8.012733459472656250e+00 2.262332916259765625e+00 -6.520001292228698730e-01
6.530000000000000000e+02 7.287055969238281250e+01 -1.844873428344726562e+01 -2.253522127866744995e-01 7.864521503448486328e+00 2.291750907897949219e+00 -9.347858428955078125e-01
6.540000000000000000e+02 7.295679473876953125e+01 -1.347282505035400391e+01 2.137353569269180298e-01 7.591066360473632812e+00 2.341440439224243164e+00 -1.035303354263305664e+00
6.550000000000000000e+02 7.379584503173828125e+01 -5.701807498931884766e+00 7.026525735855102539e-01 6.955931186676025391e+00 2.297575235366821289e+00 1.346900314092636108e-01
6.560000000000000000e+02 7.352499389648437500e+01 2.967176198959350586e+00 -3.001247905194759369e-02 7.600386619567871094e+00 2.271112203598022461e+00 9.977488517761230469e-01
6.570000000000000000e+02 7.206137847900390625e+01 1.173354911804199219e+01 -3.494550287723541260e-01 7.877973556518554688e+00 2.258555412292480469e+00 5.067853331565856934e-01
6.580000000000000000e+02 7.339019012451171875e+01 1.830913162231445312e+01 -1.534304767847061157e-01 7.897119522094726562e+00 2.323106765747070312e+00 1.785635650157928467e-01
6.590000000000000000e+02 7.217015838623046875e+01 2.469022178649902344e+01 -8.796010166406631470e-02 7.679966449737548828e+00 2.277601957321166992e+00 6.995480041950941086e-03
6.600000000000000000e+02 6.901361846923828125e+01 3.113735961914062500e+01 -1.672735996544361115e-02 7.085523605346679688e+00 2.120638847351074219e+00 -7.524292171001434326e-02
6.610000000000000000e+02 7.185548400878906250e+01 3.617847442626953125e+01 -4.290613345801830292e-03 7.498466491699218750e+00 2.248252868652343750e+00 -1.987158879637718201e-02
6.620000000000000000e+02 7.149949645996093750e+01 3.840396881103515625e+01 2.499203011393547058e-02 7.459354877471923828e+00 2.245304107666015625e+00 3.758030012249946594e-03
6.630000000000000000e+02 6.221849822998046875e+01 4.049458312988281250e+01 1.177563741803169250e-01 5.838793754577636719e+00 1.786965012550354004e+00 -3.391535207629203796e-02
6.640000000000000000e+02 6.290116500854492188e+01 2.169305038452148438e+01 -2.223391383886337280e-01 6.275320053100585938e+00 1.815894365310668945e+00 -2.512655854225158691e-01
6.650000000000000000e+02 6.918020629882812500e+01 1.846226310729980469e+01 -3.006507754325866699e-01 7.412719249725341797e+00 2.133620500564575195e+00 7.170200347900390625e-02
6.660000000000000000e+02 6.745034027099609375e+01 1.000557994842529297e+01 -6.802019476890563965e-01 7.940620899200439453e+00 2.178125619888305664e+00 3.012556433677673340e-01
6.670000000000000000e+02 6.743854522705078125e+01 3.522308826446533203e+00 -4.597814977169036865e-01 8.854922294616699219e+00 2.518542289733886719e+00 8.580829501152038574e-01
6.680000000000000000e+02 6.048884201049804688e+01 -5.489109516143798828e+00 7.230464458465576172e+00 1.892285537719726562e+01 7.845996379852294922e+00 2.681352853775024414e+00
6.690000000000000000e+02 6.071356582641601562e+01 -8.016054153442382812e+00 3.585204124450683594e+00 1.750739097595214844e+01 6.327778816223144531e+00 -1.704648733139038086e+00
6.700000000000000000e+02 7.392713165283203125e+01 -9.626258850097656250e+00 5.372243523597717285e-01 7.031052589416503906e+00 2.270483016967773438e+00 -5.808068513870239258e-01
6.710000000000000000e+02 7.809967803955078125e+01 -4.167694854736328125e+01 7.244803756475448608e-02 8.816366195678710938e+00 2.666644096374511719e+00 2.036478370428085327e-02
6.720000000000000000e+02 7.782894134521484375e+01 -3.055834007263183594e+01 -2.342630550265312195e-02 8.530578613281250000e+00 2.552145719528198242e+00 -1.305605173110961914e-01
6.730000000000000000e+02 7.806816864013671875e+01 -2.354685783386230469e+01 -3.374713286757469177e-02 7.974033832550048828e+00 2.382086038589477539e+00 -2.840554416179656982e-01
6.740000000000000000e+02 7.827340698242187500e+01 -1.653754997253417969e+01 -5.335047841072082520e-03 6.798490047454833984e+00 2.037946462631225586e+00 -4.093572497367858887e-01
6.750000000000000000e+02 7.829332733154296875e+01 -9.649411201477050781e+00 5.923719331622123718e-02 5.590461254119873047e+00 1.694909572601318359e+00 -2.268433868885040283e-01
6.760000000000000000e+02 7.819580078125000000e+01 -2.705832958221435547e+00 6.019641458988189697e-02 5.671495437622070312e+00 1.719507575035095215e+00 2.648857533931732178e-01
6.770000000000000000e+02 7.812749481201171875e+01 4.275693893432617188e+00 -1.251523569226264954e-02 6.900510787963867188e+00 2.066398620605468750e+00 4.313793480396270752e-01
6.780000000000000000e+02 7.796898651123046875e+01 1.124895000457763672e+01 -3.517577797174453735e-02 7.968339443206787109e+00 2.379949092864990234e+00 2.737522721290588379e-01
6.790000000000000000e+02 7.802453613281250000e+01 1.963161087036132812e+01 -1.714009046554565430e-02 8.521585464477539062e+00 2.551333665847778320e+00 7.219008356332778931e-02
6.800000000000000000e+02 7.663372039794921875e+01 2.243843460083007812e+01 -3.083416633307933807e-02 8.354541778564453125e+00 2.497112512588500977e+00 5.470245331525802612e-02
6.810000000000000000e+02 7.931761169433593750e+01 3.201128387451171875e+01 5.422313697636127472e-03 8.824177742004394531e+00 2.648880004882812500e+00 1.052250154316425323e-03
6.820000000000000000e+02 7.903015136718750000e+01 3.742789840698242188e+01 1.067458069883286953e-03 8.713965415954589844e+00 2.614509820938110352e+00 -3.303514793515205383e-02
6.830000000000000000e+02 5.723604583740234375e+01 4.069936752319335938e+01 2.083919048309326172e-01 4.869446754455566406e+00 1.523351550102233887e+00 -3.312067687511444092e-02
6.840000000000000000e+02 6.104982757568359375e+01 3.654002761840820312e+01 1.103712841868400574e-01 5.640267848968505859e+00 1.725191831588745117e+00 -9.733047336339950562e-02
6.850000000000000000e+02 5.864006423950195312e+01 2.984290122985839844e+01 6.679990887641906738e-02 5.204073905944824219e+00 1.581262230873107910e+00 -2.467885315418243408e-01
6.860000000000000000e+02 5.827866363525390625e+01 2.502253532409667969e+01 -2.607177570462226868e-02 5.230674266815185547e+00 1.561380743980407715e+00 -3.456267416477203369e-01
6.870000000000000000e+02 5.776645660400390625e+01 1.651049804687500000e+01 -2.635080516338348389e-01 5.398272037506103516e+00 1.540429234504699707e+00 -7.024207115173339844e-01
6.880000000000000000e+02 6.121130371093750000e+01 9.195822715759277344e+00 -8.033111095428466797e-01 7.157655715942382812e+00 1.906303405761718750e+00 -7.575398087501525879e-01
6.890000000000000000e+02 5.362366867065429688e+01 -1.609662175178527832e-01 4.431169033050537109e-01 2.299760341644287109e+00 8.228631615638732910e-01 -2.060751676559448242e+00
6.900000000000000000e+02 5.401154708862304688e+01 -4.690317630767822266e+00 -1.511467814445495605e+00 1.674129664897918701e-01 -4.032164514064788818e-01 -4.881615042686462402e-01
6.910000000000000000e+02 5.637534332275390625e+01 -4.664482593536376953e+00 9.357264041900634766e-01 1.331456780433654785e+00 6.801549792289733887e-01 -2.208993911743164062e+00
6.920000000000000000e+02 5.235447311401367188e+01 4.075751876831054688e+01 3.040615022182464600e-01 3.985520124435424805e+00 1.286874413490295410e+00 -3.418917953968048096e-02
6.930000000000000000e+02 5.165802764892578125e+01 3.339771270751953125e+01 2.804517745971679688e-01 3.846391677856445312e+00 1.238052964210510254e+00 -1.927038431167602539e-01
6.940000000000000000e+02 5.121285247802734375e+01 2.322605323791503906e+01 1.719473749399185181e-01 3.735161542892456055e+00 1.172132730484008789e+00 -4.648257493972778320e-01
6.950000000000000000e+02 4.904137420654296875e+01 1.466219329833984375e+01 2.026802748441696167e-01 2.958561897277832031e+00 9.483726024627685547e-01 -7.110028862953186035e-01
6.960000000000000000e+02 5.028786468505859375e+01 6.472256660461425781e+00 2.581690549850463867e-01 2.494702816009521484e+00 8.258615732192993164e-01 -1.180700659751892090e+00
6.970000000000000000e+02 4.916134643554687500e+01 6.958922743797302246e-01 -5.994227156043052673e-02 8.498415946960449219e-01 2.369697988033294678e-01 -6.664150357246398926e-01
6.980000000000000000e+02 4.825359344482421875e+01 -4.603786945343017578e+00 -2.480853557586669922e+00 1.796956360340118408e-02 -7.388651967048645020e-01 1.015688180923461914e-01
6.990000000000000000e+02 5.050631713867187500e+01 -4.607480525970458984e+00 -2.375672578811645508e+00 3.479881584644317627e-02 -7.022621035575866699e-01 7.578895427286624908e-03
7.000000000000000000e+02 5.125445175170898438e+01 -4.614209651947021484e+00 -2.281527280807495117e+00 5.492654815316200256e-02 -6.679802536964416504e-01 -4.673865810036659241e-02
7.010000000000000000e+02 4.247826385498046875e+01 4.054833221435546875e+01 4.941155314445495605e-01 2.278082847595214844e+00 8.316594958305358887e-01 -2.923572622239589691e-02
7.020000000000000000e+02 4.628073501586914062e+01 2.994187736511230469e+01 3.691712021827697754e-01 2.894263744354248047e+00 9.790304899215698242e-01 -2.592135369777679443e-01
7.030000000000000000e+02 4.366319274902343750e+01 2.130369949340820312e+01 3.266166448593139648e-01 2.166838884353637695e+00 7.480366230010986328e-01 -2.969336807727813721e-01
7.040000000000000000e+02 4.270365524291992188e+01 1.511134624481201172e+01 2.858696281909942627e-01 1.650383830070495605e+00 5.808760523796081543e-01 -2.596144676208496094e-01
7.050000000000000000e+02 4.205051422119140625e+01 7.657569408416748047e+00 1.366615295410156250e-01 8.720362782478332520e-01 3.026093244552612305e-01 -2.447582781314849854e-02
7.060000000000000000e+02 4.384962463378906250e+01 -4.672894179821014404e-01 -8.473564982414245605e-01 1.829365491867065430e-01 -1.993259787559509277e-01 2.157103121280670166e-01
7.070000000000000000e+02 3.998542022705078125e+01 -4.731514453887939453e+00 -1.925424814224243164e+00 8.521182462573051453e-03 -5.750710964202880859e-01 2.042014449834823608e-01
7.080000000000000000e+02 4.374301910400390625e+01 -4.649191856384277344e+00 -2.281360864639282227e+00 6.854533683508634567e-03 -6.823518872261047363e-01 1.779231727123260498e-01
7.090000000000000000e+02 4.524685287475585938e+01 -4.627283096313476562e+00 -2.385736227035522461e+00 7.889924570918083191e-03 -7.133539319038391113e-01 1.613879352807998657e-01
7.100000000000000000e+02 3.744643020629882812e+01 4.062494659423828125e+01 5.630521774291992188e-01 1.546203851699829102e+00 6.327767968177795410e-01 -2.986083738505840302e-02
7.110000000000000000e+02 3.987393569946289062e+01 3.505792617797851562e+01 5.110860466957092285e-01 1.822271108627319336e+00 7.000071406364440918e-01 -7.460458576679229736e-02
7.120000000000000000e+02 3.573379135131835938e+01 2.022277069091796875e+01 2.397052347660064697e-01 9.437099099159240723e-01 3.550245463848114014e-01 1.003099512308835983e-02
7.130000000000000000e+02 3.720031356811523438e+01 1.442192077636718750e+01 1.536817699670791626e-01 8.634308576583862305e-01 3.051337897777557373e-01 1.204608455300331116e-01
7.140000000000000000e+02 3.343181228637695312e+01 8.293313980102539062e+00 -1.797852367162704468e-01 2.396468371152877808e-01 1.795847713947296143e-02 5.410551428794860840e-01
7.150000000000000000e+02 3.720513916015625000e+01 -6.827282905578613281e-01 -9.057458639144897461e-01 6.706492602825164795e-02 -2.516042888164520264e-01 5.145067572593688965e-01
7.160000000000000000e+02 3.399402999877929688e+01 -4.891383647918701172e+00 -1.229076504707336426e+00 1.271325163543224335e-02 -3.649089932441711426e-01 2.264162153005599976e-01
7.170000000000000000e+02 3.474031829833984375e+01 -4.873084545135498047e+00 -1.318552732467651367e+00 1.326299086213111877e-02 -3.915869295597076416e-01 2.244637757539749146e-01
7.180000000000000000e+02 3.698499679565429688e+01 -4.811044692993164062e+00 -1.585585474967956543e+00 1.210124325007200241e-02 -4.720452725887298584e-01 2.176114320755004883e-01
7.190000000000000000e+02 3.257939147949218750e+01 4.092047882080078125e+01 5.932431221008300781e-01 8.071851134300231934e-01 4.201284646987915039e-01 1.065367087721824646e-02
7.200000000000000000e+02 3.265172576904296875e+01 3.781296157836914062e+01 5.701432228088378906e-01 8.518553972244262695e-01 4.265995919704437256e-01 8.847676217555999756e-03
7.210000000000000000e+02 2.963200378417968750e+01 3.414077758789062500e+01 5.399947166442871094e-01 4.543627202510833740e-01 2.983072400093078613e-01 1.396052539348602295e-02
7.220000000000000000e+02 3.367661666870117188e+01 2.289123535156250000e+01 2.764852941036224365e-01 7.798805236816406250e-01 3.169097602367401123e-01 2.466658875346183777e-02
7.230000000000000000e+02 2.991820335388183594e+01 2.058917999267578125e+01 1.143805012106895447e-01 2.893456518650054932e-01 1.211178451776504517e-01 1.595052331686019897e-01
7.240000000000000000e+02 2.941835975646972656e+01 1.006209373474121094e+01 -2.769825756549835205e-01 2.752765454351902008e-02 -7.483647763729095459e-02 5.989224910736083984e-01
7.250000000000000000e+02 2.509541511535644531e+01 2.677673339843750000e+00 -3.152861595153808594e-01 -2.903665900230407715e-01 -1.816958189010620117e-01 6.352918744087219238e-01
7.260000000000000000e+02 2.734993743896484375e+01 -4.932140350341796875e+00 -4.927405416965484619e-01 -1.322747394442558289e-02 -1.517903953790664673e-01 2.039805054664611816e-01
7.270000000000000000e+02 3.028034591674804688e+01 -4.955223560333251953e+00 -7.977162003517150879e-01 3.908548504114151001e-03 -2.381422966718673706e-01 2.247724533081054688e-01
7.280000000000000000e+02 2.889523315429687500e+01 -4.278013706207275391e+00 -6.366583704948425293e-01 -9.741300716996192932e-03 -1.939198970794677734e-01 2.856669723987579346e-01
7.290000000000000000e+02 3.324789428710937500e+01 -4.909226894378662109e+00 -1.140597343444824219e+00 1.216562185436487198e-02 -3.385294973850250244e-01 2.273614406585693359e-01
7.300000000000000000e+02 1.779389762878417969e+01 4.059273147583007812e+01 4.633871912956237793e-01 -4.411485493183135986e-01 6.671593524515628815e-03 4.582487046718597412e-02
7.310000000000000000e+02 2.287347412109375000e+01 4.057287979125976562e+01 5.449804067611694336e-01 -1.431444585323333740e-01 1.205507814884185791e-01 2.028164267539978027e-02
7.320000000000000000e+02 2.349252128601074219e+01 3.237974166870117188e+01 4.732042551040649414e-01 -1.590073108673095703e-01 9.425908327102661133e-02 1.016805246472358704e-01
7.330000000000000000e+02 2.305732536315917969e+01 2.251969337463378906e+01 4.026576504111289978e-02 -4.083345234394073486e-01 -1.104206293821334839e-01 2.056380808353424072e-01
7.340000000000000000e+02 1.986278343200683594e+01 1.635766410827636719e+01 -5.424853563308715820e-01 -9.239575862884521484e-01 -4.399328827857971191e-01 4.945252835750579834e-01
7.350000000000000000e+02 2.165902709960937500e+01 1.100998306274414062e+01 -5.372352600097656250e-01 -8.437409400939941406e-01 -4.142928421497344971e-01 6.791830658912658691e-01
7.360000000000000000e+02 1.975800895690917969e+01 4.936782360076904297e+00 -1.339552700519561768e-01 -9.352149963378906250e-01 -3.207510709762573242e-01 3.785153329372406006e-01
7.370000000000000000e+02 2.166921043395996094e+01 -4.335345745086669922e+00 -8.625792711973190308e-02 -5.433786287903785706e-02 -4.217873513698577881e-02 9.050669521093368530e-02
7.380000000000000000e+02 2.464569282531738281e+01 -4.166575431823730469e+00 -2.738435864448547363e-01 -5.166236311197280884e-02 -9.765178710222244263e-02 2.092173397541046143e-01
7.390000000000000000e+02 2.377522850036621094e+01 -4.717526435852050781e+00 -2.014646977186203003e-01 -4.093499109148979187e-02 -7.271990925073623657e-02 1.444423049688339233e-01
7.400000000000000000e+02 1.755476951599121094e+01 3.706498336791992188e+01 4.486978352069854736e-01 -4.782944619655609131e-01 -8.878986351191997528e-03 1.219155192375183105e-01
7.410000000000000000e+02 1.613657760620117188e+01 3.112052154541015625e+01 3.380636572837829590e-01 -6.602243781089782715e-01 -9.664821624755859375e-02 2.771354019641876221e-01
7.420000000000000000e+02 1.615984153747558594e+01 2.221194648742675781e+01 -1.096905544400215149e-01 -9.808153510093688965e-01 -3.271517753601074219e-01 4.307541549205780029e-01
7.430000000000000000e+02 1.297999572753906250e+01 1.736137008666992188e+01 -1.437618851661682129e+00 -1.120610952377319336e+00 -7.674689292907714844e-01 1.147540569305419922e+00
7.440000000000000000e+02 1.496107959747314453e+01 1.536549949645996094e+01 -1.218935370445251465e+00 -1.830515384674072266e+00 -9.148352146148681641e-01 1.363899588584899902e+00
7.450000000000000000e+02 1.767520332336425781e+01 1.552971172332763672e+01 -7.502282261848449707e-01 -1.357419252395629883e+00 -6.322942376136779785e-01 7.446075081825256348e-01
7.460000000000000000e+02 1.578081512451171875e+01 1.422797298431396484e+01 -9.437365531921386719e-01 -2.126433610916137695e+00 -9.210510253906250000e-01 1.290618419647216797e+00
7.470000000000000000e+02 1.818189430236816406e+01 9.080884933471679688e+00 -2.818572521209716797e-01 -1.887356519699096680e+00 -6.507641077041625977e-01 6.204893589019775391e-01
7.480000000000000000e+02 1.859879493713378906e+01 6.269025325775146484e+00 -9.834899008274078369e-02 -1.332458853721618652e+00 -4.292423427104949951e-01 3.214148283004760742e-01
7.490000000000000000e+02 1.881849288940429688e+01 2.170879125595092773e+00 -1.335632149130105972e-02 -5.528682470321655273e-01 -1.698673665523529053e-01 8.063413202762603760e-02
7.500000000000000000e+02 1.886008834838867188e+01 -4.781097173690795898e-01 -7.193197496235370636e-03 -1.905652135610580444e-01 -5.932752415537834167e-02 4.446072503924369812e-02
7.510000000000000000e+02 1.979773712158203125e+01 -2.919959306716918945e+00 -3.402812406420707703e-02 -7.443411648273468018e-02 -3.253867477178573608e-02 6.244822964072227478e-02
7.520000000000000000e+02 1.283243370056152344e+01 4.091089248657226562e+01 3.210406899452209473e-01 -6.417507529258728027e-01 -9.621300548315048218e-02 4.897029325366020203e-02
7.530000000000000000e+02 8.227826118469238281e+00 3.110386466979980469e+01 1.266271770000457764e-01 -6.797679066658020020e-01 -1.659422218799591064e-01 3.593086898326873779e-01
7.540000000000000000e+02 7.011406421661376953e+00 2.360141754150390625e+01 -1.579241156578063965e-01 -3.851294517517089844e-01 -1.629160642623901367e-01 4.201066195964813232e-01
7.550000000000000000e+02 1.048370170593261719e+01 1.884965133666992188e+01 -1.153847813606262207e+00 -4.106001555919647217e-01 -4.693343937397003174e-01 5.581772327423095703e-01
7.560000000000000000e+02 1.180984878540039062e+01 1.819145965576171875e+01 -1.410379648208618164e+00 -7.342165112495422363e-01 -6.433788537979125977e-01 9.161838293075561523e-01
7.570000000000000000e+02 2.030647277832031250e+00 4.163803100585937500e+01 1.935094594955444336e-03 -1.011373281478881836e+00 -3.028314709663391113e-01 5.431182798929512501e-04
7.580000000000000000e+02 4.684992313385009766e+00 3.753682708740234375e+01 7.078814506530761719e-02 -8.361778259277343750e-01 -2.296169102191925049e-01 1.318772137165069580e-01
7.590000000000000000e+02 2.169239521026611328e+00 3.581889343261718750e+01 2.201769687235355377e-02 -8.732936382293701172e-01 -2.553827762603759766e-01 7.526103407144546509e-02
7.600000000000000000e+02 1.933949589729309082e+00 2.886282920837402344e+01 4.700873978435993195e-03 -5.072271823883056641e-01 -1.507578939199447632e-01 1.503925025463104248e-01
7.610000000000000000e+02 1.834394931793212891e+00 2.310601425170898438e+01 -2.466531470417976379e-02 -1.231271848082542419e-01 -4.433774948120117188e-02 9.822840988636016846e-02
7.620000000000000000e+02 4.276427268981933594e+00 1.575174331665039062e+01 1.513593015260994434e-03 -2.984926477074623108e-02 -8.500701747834682465e-03 -6.188216619193553925e-03
7.630000000000000000e+02 4.814388453960418701e-01 6.434049129486083984e+00 1.932411687448620796e-04 -2.858418447431176901e-04 -2.778019916149787605e-05 2.307549584656953812e-05
7.640000000000000000e+02 6.063162803649902344e+00 1.864021778106689453e+00 -2.187201753258705139e-04 -5.705545772798359394e-04 -2.367824345128610730e-04 -6.131146801635622978e-05
7.650000000000000000e+02 8.124379158020019531e+00 2.587460994720458984e+00 -2.057629899354651570e-04 -7.944498793222010136e-04 -3.000638680532574654e-04 -4.661167331505566835e-04
7.660000000000000000e+02 9.637555122375488281e+00 1.866789221763610840e+00 1.614556385902687907e-04 4.962398088537156582e-04 1.973086327780038118e-04 4.117142234463244677e-04
7.670000000000000000e+02 1.392719173431396484e+01 1.749256134033203125e+00 5.093187210150063038e-04 -1.136636492446996272e-04 1.186965237138792872e-04 6.358555401675403118e-05
7.680000000000000000e+02 1.446177101135253906e+01 6.255803108215332031e+00 -2.058775862678885460e-03 -4.337074642535299063e-04 -7.477449835278093815e-04 -4.739748837891966105e-04
7.690000000000000000e+02 1.185778045654296875e+01 9.568508148193359375e+00 -1.857978524640202522e-03 -2.760644070804119110e-03 -1.385586801916360855e-03 -1.994017744436860085e-03
7.700000000000000000e+02 1.133688926696777344e+01 1.234160041809082031e+01 4.654040094465017319e-03 3.230283036828041077e-03 2.365296939387917519e-03 4.054134711623191833e-03
7.710000000000000000e+02 1.218261909484863281e+01 1.123788833618164062e+01 -4.371116403490304947e-03 -2.677847165614366531e-03 -2.114688977599143982e-03 -2.650342416018247604e-03
7.720000000000000000e+02 9.424233436584472656e+00 1.445939636230468750e+01 6.627080962061882019e-03 6.072820629924535751e-03 3.809970570728182793e-03 4.977145232260227203e-03
7.730000000000000000e+02 7.878448009490966797e+00 1.689312934875488281e+01 1.978037133812904358e-02 1.021090969443321228e-01 3.656683862209320068e-02 1.265490986406803131e-02
7.740000000000000000e+02 1.727316260337829590e+00 2.171764373779296875e+01 -2.709013037383556366e-02 -5.867517739534378052e-02 -2.572959288954734802e-02 6.423233449459075928e-02
7.750000000000000000e+02 1.145576000213623047e+00 3.865159034729003906e+00 -2.621566236484795809e-04 -2.204000920755788684e-04 -1.447670219931751490e-04 2.115763491019606590e-04
7.760000000000000000e+02 1.386153697967529297e+01 2.570510625839233398e+00 -7.833922863937914371e-04 -7.130202138796448708e-04 -4.489237617235630751e-04 -8.467930601909756660e-04
7.770000000000000000e+02 2.247975921630859375e+01 -8.286396980285644531e+00 -5.089578628540039062e-01 2.174831926822662354e-02 -1.461628526449203491e-01 -1.782710105180740356e-01
7.780000000000000000e+02 7.943186950683593750e+01 -1.249638366699218750e+01 6.738517899066209793e-03 5.605377197265625000e+00 1.683634757995605469e+00 -1.304048448801040649e-01
7.790000000000000000e+02 7.941455841064453125e+01 -5.543324947357177734e+00 1.640140451490879059e-02 4.852663516998291016e+00 1.460719466209411621e+00 2.721515111625194550e-02
7.800000000000000000e+02 7.360784149169921875e+01 -4.401819705963134766e+00 6.729302406311035156e-01 7.037908554077148438e+00 2.313251495361328125e+00 3.793686330318450928e-01
7.810000000000000000e+02 2.541565704345703125e+01 -2.491991233825683594e+01 1.433082222938537598e-01 -4.541952535510063171e-02 2.936660684645175934e-02 -3.846379518508911133e-01
7.820000000000000000e+02 1.543587684631347656e+01 -2.350500297546386719e+01 -4.127558320760726929e-02 -3.633876442909240723e-01 -1.213989704847335815e-01 -3.373469412326812744e-01
7.830000000000000000e+02 3.054986763000488281e+01 -1.461506748199462891e+01 -6.006228923797607422e-01 -5.352315492928028107e-03 -1.817925572395324707e-01 -4.928282499313354492e-01
7.840000000000000000e+02 4.347667312622070312e+01 -1.417495441436767578e+01 -4.681798517704010010e-01 2.646191716194152832e-01 -6.106820330023765564e-02 -4.887268319725990295e-02
7.850000000000000000e+02 4.935189437866210938e+01 -1.406715011596679688e+01 7.569009065628051758e-02 1.002888917922973633e+00 3.235737085342407227e-01 8.325349688529968262e-01
7.860000000000000000e+02 5.363754653930664062e+01 -1.435201930999755859e+01 3.744675517082214355e-01 2.971934795379638672e+00 1.003920674324035645e+00 2.094584226608276367e+00
7.870000000000000000e+02 6.672519683837890625e+01 -1.955951309204101562e+01 -7.260382175445556641e-01 8.376753807067871094e+00 2.295214653015136719e+00 -4.456737041473388672e-01
7.880000000000000000e+02 7.384082794189453125e+01 -1.861350440979003906e+01 -1.749637275934219360e-01 7.742964744567871094e+00 2.270400285720825195e+00 -8.974991440773010254e-01
7.890000000000000000e+02 7.936976623535156250e+01 -2.224236297607421875e+01 -6.260265130549669266e-03 7.843557834625244141e+00 2.351189136505126953e+00 -1.189118549227714539e-01
7.900000000000000000e+02 5.341649532318115234e+00 -1.557101821899414062e+01 3.027638420462608337e-03 -2.217770181596279144e-02 -5.745018832385540009e-03 -6.332607008516788483e-03
7.910000000000000000e+02 1.835225343704223633e+00 -1.745080757141113281e+01 -8.117883466184139252e-03 -1.879513380117714405e-03 -2.999219112098217010e-03 4.693857394158840179e-03
7.920000000000000000e+02 5.544310808181762695e-01 -1.068278598785400391e+01 1.200056518428027630e-03 1.104102702811360359e-03 6.912477547302842140e-04 5.623603938147425652e-04
7.930000000000000000e+02 2.589016914367675781e+01 -3.468870544433593750e+01 4.870785176753997803e-01 1.318331435322761536e-02 1.500785499811172485e-01 -1.715030372142791748e-01
7.940000000000000000e+02 1.918909072875976562e+01 -2.841924667358398438e+01 1.949187070131301880e-01 -2.590607404708862305e-01 -1.924260891973972321e-02 -3.154243230819702148e-01
7.950000000000000000e+02 3.117267608642578125e+01 -2.405375862121582031e+01 2.274006605148315430e-01 1.452279388904571533e-01 1.117885783314704895e-01 -3.458718955516815186e-01
7.960000000000000000e+02 4.279816055297851562e+01 -2.286250877380371094e+01 4.414508640766143799e-01 1.061957001686096191e+00 4.510223567485809326e-01 2.560259997844696045e-01
7.970000000000000000e+02 6.003518676757812500e+01 -2.366002464294433594e+01 -5.679113864898681641e-01 6.475398540496826172e+00 1.772246122360229492e+00 7.997559905052185059e-01
7.980000000000000000e+02 6.570327758789062500e+01 -2.752088546752929688e+01 -5.002791285514831543e-01 7.188013553619384766e+00 2.006320476531982422e+00 2.454593591392040253e-02
7.990000000000000000e+02 7.211617279052734375e+01 -2.378104782104492188e+01 -3.392044603824615479e-01 7.932834148406982422e+00 2.278088808059692383e+00 -5.954906940460205078e-01
8.000000000000000000e+02 7.933062744140625000e+01 -2.644512939453125000e+01 -4.554580897092819214e-03 8.427013397216796875e+00 2.526737451553344727e+00 -8.027423173189163208e-02
8.010000000000000000e+02 7.455917000770568848e-01 -3.045796203613281250e+01 -2.532906946726143360e-04 -5.188889503479003906e-01 -1.557426750659942627e-01 -3.972078859806060791e-02
8.020000000000000000e+02 8.312315940856933594e+00 -3.561990737915039062e+01 1.293112039566040039e-01 -4.937720596790313721e-01 -1.093382611870765686e-01 -1.649447381496429443e-01
8.030000000000000000e+02 3.136110496520996094e+01 -3.592887115478515625e+01 6.335652470588684082e-01 3.734567463397979736e-01 3.021066188812255859e-01 -9.023741632699966431e-02
8.040000000000000000e+02 3.656942367553710938e+01 -3.076834297180175781e+01 6.057898998260498047e-01 7.700031399726867676e-01 4.127379059791564941e-01 -4.059643298387527466e-02
8.050000000000000000e+02 3.962199783325195312e+01 -3.537057495117187500e+01 6.720305681228637695e-01 1.308580636978149414e+00 5.941833853721618652e-01 7.289168983697891235e-02
8.060000000000000000e+02 5.160078430175781250e+01 -3.432904815673828125e+01 2.914519608020782471e-01 3.615882396697998047e+00 1.172200322151184082e+00 4.167655408382415771e-01
8.070000000000000000e+02 5.540852737426757812e+01 -3.145833587646484375e+01 3.501896187663078308e-02 4.613620281219482422e+00 1.394591808319091797e+00 4.866601228713989258e-01
8.080000000000000000e+02 6.277646255493164062e+01 -3.189719200134277344e+01 -2.769602239131927490e-01 6.350237369537353516e+00 1.821983098983764648e+00 2.195606678724288940e-01
8.090000000000000000e+02 7.400770568847656250e+01 -3.270538330078125000e+01 -1.087243333458900452e-01 8.052570343017578125e+00 2.383153915405273438e+00 -1.645099520683288574e-01
8.100000000000000000e+02 7.912267303466796875e+01 -3.346010208129882812e+01 -1.449488382786512375e-02 8.889712333679199219e+00 2.662565231323242188e+00 -3.101009689271450043e-02
8.110000000000000000e+02 7.938293457031250000e+01 2.819624185562133789e+00 1.859060488641262054e-03 6.349572658538818359e+00 1.905429482460021973e+00 1.642877012491226196e-01
8.120000000000000000e+02 6.690718078613281250e+01 4.479798793792724609e+00 -6.349527239799499512e-01 8.784340858459472656e+00 2.444816350936889648e+00 6.591687202453613281e-01
8.130000000000000000e+02 7.353245544433593750e+01 1.721343278884887695e+00 8.436208218336105347e-02 7.509486198425292969e+00 2.278154611587524414e+00 1.000589251518249512e+00
8.140000000000000000e+02 7.933784484863281250e+01 8.397507667541503906e+00 -5.498241167515516281e-03 7.605651378631591797e+00 2.280045986175537109e+00 1.351788938045501709e-01
8.150000000000000000e+02 6.605245208740234375e+01 1.042465400695800781e+01 -7.416496276855468750e-01 7.776552677154541016e+00 2.110471010208129883e+00 6.780637055635452271e-02
8.160000000000000000e+02 7.192850494384765625e+01 1.016633510589599609e+01 -3.711211979389190674e-01 7.915492057800292969e+00 2.263311147689819336e+00 6.149086356163024902e-01
8.170000000000000000e+02 5.370294952392578125e+01 6.472172737121582031e-01 4.018099606037139893e-01 2.720761060714721680e+00 9.367712736129760742e-01 -2.137940406799316406e+00
8.180000000000000000e+02 4.915565872192382812e+01 3.419563919305801392e-02 -2.050977796316146851e-01 7.021780014038085938e-01 1.491240710020065308e-01 -5.704390406608581543e-01
8.190000000000000000e+02 4.235031890869140625e+01 -5.303171277046203613e-01 -9.145365357398986816e-01 1.367393434047698975e-01 -2.333391457796096802e-01 3.186630904674530029e-01
8.200000000000000000e+02 3.572303009033203125e+01 1.322594285011291504e-02 -7.699795961380004883e-01 6.444504112005233765e-02 -2.116603702306747437e-01 5.632991194725036621e-01
8.210000000000000000e+02 2.956998443603515625e+01 -2.905240058898925781e-01 -5.530459880828857422e-01 -4.496077075600624084e-02 -1.794020235538482666e-01 5.862749814987182617e-01
8.220000000000000000e+02 1.975018692016601562e+01 3.590509176254272461e+00 -8.419928699731826782e-02 -7.558483481407165527e-01 -2.520142793655395508e-01 2.990826964378356934e-01
8.230000000000000000e+02 1.879759025573730469e+01 3.525941133499145508e+00 -2.810202911496162415e-02 -8.200111389160156250e-01 -2.544339597225189209e-01 1.336252093315124512e-01
8.240000000000000000e+02 7.934467315673828125e+01 1.675959587097167969e+01 -4.757415037602186203e-03 8.609714508056640625e+00 2.581486940383911133e+00 5.170009657740592957e-02
8.250000000000000000e+02 6.379516983032226562e+01 1.908187484741210938e+01 -3.351930677890777588e-01 6.576425075531005859e+00 1.872369647026062012e+00 -2.242610901594161987e-01
8.260000000000000000e+02 7.337473297119140625e+01 1.731791114807128906e+01 -1.681582182645797729e-01 7.897959709167480469e+00 2.318940401077270508e+00 2.216168493032455444e-01
8.270000000000000000e+02 6.051995849609375000e+01 1.386378288269042969e+01 -5.141831636428833008e-01 6.312111377716064453e+00 1.739378452301025391e+00 -6.412785649299621582e-01
8.280000000000000000e+02 4.934563827514648438e+01 7.375784397125244141e+00 2.699786424636840820e-01 2.301832914352416992e+00 7.715435028076171875e-01 -9.861281514167785645e-01
8.290000000000000000e+02 4.426850128173828125e+01 6.971283912658691406e+00 1.841214597225189209e-01 1.074264049530029297e+00 3.775156736373901367e-01 -2.423622757196426392e-01
8.300000000000000000e+02 3.466147232055664062e+01 1.204098510742187500e+01 -1.721482723951339722e-02 4.932958185672760010e-01 1.428242921829223633e-01 3.409606814384460449e-01
8.310000000000000000e+02 2.853388595581054688e+01 1.104922485351562500e+01 -2.963879406452178955e-01 -2.274165675044059753e-02 -9.573888033628463745e-02 5.800490379333496094e-01
8.320000000000000000e+02 2.038734054565429688e+01 1.200620365142822266e+01 -5.876265168190002441e-01 -1.072893023490905762e+00 -4.981558620929718018e-01 6.920966506004333496e-01
8.330000000000000000e+02 7.931859588623046875e+01 2.372246551513671875e+01 -1.508934539742767811e-03 8.820730209350585938e+00 2.645766496658325195e+00 1.384913455694913864e-02
8.340000000000000000e+02 6.393528747558593750e+01 2.371115303039550781e+01 -1.667593866586685181e-01 6.358905315399169922e+00 1.857643842697143555e+00 -1.977399885654449463e-01
8.350000000000000000e+02 7.285804748535156250e+01 2.322974205017089844e+01 -9.252911806106567383e-02 7.789381027221679688e+00 2.309055566787719727e+00 4.392985627055168152e-02
8.360000000000000000e+02 5.916072082519531250e+01 1.782989692687988281e+01 -2.826385498046875000e-01 5.646858215332031250e+00 1.609265923500061035e+00 -5.693873763084411621e-01
8.370000000000000000e+02 4.786105728149414062e+01 1.621989440917968750e+01 2.359168231487274170e-01 2.741783618927001953e+00 8.933101296424865723e-01 -5.842850804328918457e-01
8.380000000000000000e+02 4.539337539672851562e+01 1.368431282043457031e+01 2.873168289661407471e-01 2.030104637145996094e+00 6.952264308929443359e-01 -4.606170952320098877e-01
8.390000000000000000e+02 3.793022537231445312e+01 1.712316894531250000e+01 2.308016717433929443e-01 1.097388982772827148e+00 3.984571993350982666e-01 2.583557972684502602e-03
8.400000000000000000e+02 3.086633491516113281e+01 1.679524230957031250e+01 -2.442478574812412262e-02 3.083985447883605957e-01 8.519212901592254639e-02 2.668593227863311768e-01
8.410000000000000000e+02 1.960271453857421875e+01 1.787208938598632812e+01 -4.538660943508148193e-01 -8.981271982192993164e-01 -4.055979847908020020e-01 4.339772462844848633e-01
8.420000000000000000e+02 2.662177085876464844e+00 2.096805763244628906e+01 -4.804158955812454224e-02 -7.798726111650466919e-02 -3.780865669250488281e-02 6.990478187799453735e-02
8.430000000000000000e+02 7.933203125000000000e+01 2.926250839233398438e+01 3.197517478838562965e-03 8.830084800720214844e+00 2.649984836578369141e+00 8.341607637703418732e-03
8.440000000000000000e+02 5.958267974853515625e+01 3.293619918823242188e+01 1.002188026905059814e-01 5.373834609985351562e+00 1.642215967178344727e+00 -1.738330572843551636e-01
8.450000000000000000e+02 7.215526580810546875e+01 3.155972862243652344e+01 -2.009706385433673859e-02 7.586138248443603516e+00 2.269812345504760742e+00 -6.056200340390205383e-02
8.460000000000000000e+02 5.360560226440429688e+01 2.418139648437500000e+01 1.058423370122909546e-01 4.286968231201171875e+00 1.317843079566955566e+00 -4.542984366416931152e-01
8.470000000000000000e+02 5.288676834106445312e+01 2.676459884643554688e+01 1.720681637525558472e-01 4.113138198852539062e+00 1.285561919212341309e+00 -3.920472264289855957e-01
8.480000000000000000e+02 4.589875030517578125e+01 2.062185287475585938e+01 2.919637560844421387e-01 2.557518005371093750e+00 8.548445701599121094e-01 -4.038895368576049805e-01
8.490000000000000000e+02 3.358709716796875000e+01 2.482980728149414062e+01 3.373051583766937256e-01 8.429047465324401855e-01 3.540629744529724121e-01 6.847219541668891907e-03
8.500000000000000000e+02 2.174750328063964844e+01 2.410001182556152344e+01 1.347507387399673462e-01 -4.968684613704681396e-01 -1.086353138089179993e-01 2.119000554084777832e-01
8.510000000000000000e+02 1.728681755065917969e+01 2.300869941711425781e+01 3.608139231801033020e-03 -8.977996110916137695e-01 -2.682574391365051270e-01 3.639634251594543457e-01
8.520000000000000000e+02 7.996388912200927734e+00 2.348437500000000000e+01 -1.636712551116943359e-01 -4.531999826431274414e-01 -1.850613802671432495e-01 4.880456924438476562e-01
8.530000000000000000e+02 5.202171325683593750e+01 3.717721939086914062e+01 2.981484830379486084e-01 3.911509037017822266e+00 1.262897253036499023e+00 -1.112543717026710510e-01
8.540000000000000000e+02 4.331581115722656250e+01 3.393310165405273438e+01 4.512736499309539795e-01 2.385232686996459961e+00 8.509518504142761230e-01 -1.643398702144622803e-01
8.550000000000000000e+02 3.457932281494140625e+01 3.136064720153808594e+01 4.825672209262847900e-01 1.022650837898254395e+00 4.515654146671295166e-01 -5.823031440377235413e-02
8.560000000000000000e+02 2.013199615478515625e+01 2.918615341186523438e+01 3.457445800304412842e-01 -5.174467563629150391e-01 -5.151065811514854431e-02 2.025282233953475952e-01
8.570000000000000000e+02 1.343256187438964844e+01 3.453233337402343750e+01 3.307471871376037598e-01 -6.530775427818298340e-01 -9.669910371303558350e-02 2.440936416387557983e-01
8.580000000000000000e+02 6.889223098754882812e+00 3.266010665893554688e+01 1.093781962990760803e-01 -6.933806538581848145e-01 -1.752007454633712769e-01 2.925613522529602051e-01
8.590000000000000000e+02 2.140077590942382812e+00 3.167091369628906250e+01 1.409721281379461288e-02 -6.800460219383239746e-01 -1.997846513986587524e-01 1.389124840497970581e-01
8.600000000000000000e+02 1.504904747009277344e+00 9.121495246887207031e+00 -4.788730584550648928e-04 7.570783491246402264e-04 8.346159302163869143e-05 -8.084043511189520359e-04
8.610000000000000000e+02 1.759855461120605469e+01 -7.546091556549072266e+00 -3.856921941041946411e-02 -7.502504438161849976e-02 -3.407827764749526978e-02 -5.685454979538917542e-02
8.620000000000000000e+02 1.950818443298339844e+01 -7.675817012786865234e+00 -2.021540254354476929e-01 -1.009206380695104599e-02 -6.367383152246475220e-02 -1.108558475971221924e-01
8.630000000000000000e+02 1.428287029266357422e+01 -1.391324329376220703e+01 -4.712747931480407715e-01 -5.855582356452941895e-01 -3.170499205589294434e-01 -5.027294158935546875e-01
8.640000000000000000e+02 7.519591331481933594e+00 -1.384496116638183594e+01 -1.490331604145467281e-03 5.440897308290004730e-03 1.185169676318764687e-03 2.067734953016042709e-03
8.650000000000000000e+02 1.131486892700195312e+01 -8.129922866821289062e+00 -2.317975886398926377e-04 -7.110591832315549254e-05 -9.087104990612715483e-05 -6.246191333048045635e-05
8.660000000000000000e+02 1.014443397521972656e+01 -3.138971090316772461e+00 -1.057903773471480235e-05 -2.250420220661908388e-04 -7.068632112350314856e-05 -1.272066147066652775e-04
8.670000000000000000e+02 1.320898342132568359e+01 -1.961986303329467773e+00 -7.926443504402413964e-05 -1.240213168784976006e-04 -6.098572703194804490e-05 -7.943130913190543652e-05
8.680000000000000000e+02 1.491103553771972656e+01 -2.293913602828979492e+00 9.434077946934849024e-05 2.890924588427878916e-05 3.697500869748182595e-05 -4.634027391148265451e-06
8.690000000000000000e+02 1.430464744567871094e+01 -2.141186952590942383e+00 -3.831700087175704539e-05 -4.398793316795490682e-05 -2.469148057571146637e-05 -1.214806070493068546e-05
8.700000000000000000e+02 1.375109577178955078e+01 -1.996684551239013672e+00 1.480083574278978631e-05 6.877417763462290168e-05 2.507250246708281338e-05 1.605837314855307341e-05
8.710000000000000000e+02 1.179543685913085938e+01 -1.972472667694091797e+00 -1.365539064863696694e-04 -1.451950374757871032e-04 -8.452468318864703178e-05 3.652232408057898283e-05
8.720000000000000000e+02 1.031197738647460938e+01 -1.857623100280761719e+00 -6.868936179671436548e-05 -2.360737707931548357e-04 -9.142894123215228319e-05 -1.988830990740098059e-05
8.730000000000000000e+02 9.570726394653320312e+00 -1.832953333854675293e+00 2.299357947777025402e-05 2.214937703683972359e-04 7.334620750043541193e-05 1.364837662549689412e-04
8.740000000000000000e+02 8.822092056274414062e+00 -1.839698553085327148e+00 -1.174169956357218325e-04 -1.896923204185441136e-04 -9.213279554387554526e-05 -9.991275874199345708e-05
8.750000000000000000e+02 7.315017223358154297e+00 -1.855904221534729004e+00 -1.362358307233080268e-04 -1.268408377654850483e-04 -7.892300345702096820e-05 -1.159774546977132559e-04
8.760000000000000000e+02 5.796236038208007812e+00 -1.865318775177001953e+00 -4.005626396974548697e-05 -1.339001028100028634e-04 -5.218690785113722086e-05 -1.656285458011552691e-04
8.770000000000000000e+02 3.519576549530029297e+00 -1.973578691482543945e+00 2.249207136628683656e-05 5.054079520050436258e-05 2.190986015193630010e-05 1.240130222868174314e-04
8.780000000000000000e+02 5.036849021911621094e+00 -1.885920286178588867e+00 -1.150490425061434507e-04 1.643978466745465994e-04 1.480464106862200424e-05 1.277255068998783827e-04
8.790000000000000000e+02 4.440109729766845703e+00 -2.748253107070922852e+00 -4.137423093197867274e-05 1.858578907558694482e-04 4.334509503678418696e-05 1.918061461765319109e-04
8.800000000000000000e+02 2.753703594207763672e+00 -2.032211542129516602e+00 -1.656273961998522282e-04 -2.786894037853926420e-05 -5.804890315630473197e-05 -1.757357240421697497e-04
8.810000000000000000e+02 1.978650927543640137e+00 -2.078696966171264648e+00 1.300679723499342799e-04 3.221062070224434137e-05 4.868358155363239348e-05 2.703700602069147862e-06
8.820000000000000000e+02 1.197052836418151855e+00 -2.137058496475219727e+00 -2.010974276345223188e-04 -1.005193335004150867e-04 -9.048503125086426735e-05 -1.179626706289127469e-04
8.830000000000000000e+02 2.026218414306640625e+00 -4.163454055786132812e+01 -5.073166452348232269e-03 -7.712723016738891602e-01 -2.329036444425582886e-01 1.432759338058531284e-03
8.840000000000000000e+02 6.091973304748535156e+00 -3.818183898925781250e+01 8.220491558313369751e-02 -5.627790689468383789e-01 -1.441722363233566284e-01 -9.122700244188308716e-02
8.850000000000000000e+02 1.004697084426879883e+00 -3.866075897216796875e+01 -1.793978619389235973e-03 -7.727516889572143555e-01 -2.323637008666992188e-01 -6.212896667420864105e-03
8.860000000000000000e+02 6.535089612007141113e-01 -3.476560211181640625e+01 8.720629848539829254e-03 -7.023961544036865234e-01 -2.081026583909988403e-01 -2.405108511447906494e-02
8.870000000000000000e+02 8.050789237022399902e-01 -3.336819839477539062e+01 1.954087289050221443e-03 -6.525237560272216797e-01 -1.951709091663360596e-01 -3.235173225402832031e-02
8.880000000000000000e+02 7.172418832778930664e-01 -2.903694915771484375e+01 2.659773454070091248e-03 -4.398630857467651367e-01 -1.311609894037246704e-01 -4.186149314045906067e-02
8.890000000000000000e+02 6.918672323226928711e-01 -2.762450599670410156e+01 -1.737138722091913223e-03 -3.545179367065429688e-01 -1.068765223026275635e-01 -4.302657768130302429e-02
8.900000000000000000e+02 6.663900017738342285e-01 -2.621407318115234375e+01 3.455837431829422712e-04 -2.665083110332489014e-01 -7.984881848096847534e-02 -4.140857607126235962e-02
8.910000000000000000e+02 6.169500946998596191e-01 -2.196392059326171875e+01 -3.840280231088399887e-03 -3.496931865811347961e-02 -1.164287980645895004e-02 -2.508839219808578491e-02
8.920000000000000000e+02 1.853562593460083008e+00 -2.046635246276855469e+01 -2.092799730598926544e-02 -4.330425709486007690e-02 -1.926967687904834747e-02 -4.750745743513107300e-02
8.930000000000000000e+02 5.534907579421997070e-01 -1.626273918151855469e+01 1.752343145199120045e-03 2.902909554541110992e-02 9.234431199729442596e-03 5.432323087006807327e-03
8.940000000000000000e+02 5.260356068611145020e-01 -1.487045097351074219e+01 -5.724030197598040104e-04 1.682009547948837280e-02 4.874307662248611450e-03 3.615820547565817833e-03
8.950000000000000000e+02 5.272617936134338379e-01 -1.348040962219238281e+01 1.519968034699559212e-03 8.421268314123153687e-03 2.982370788231492043e-03 2.449147636070847511e-03
8.960000000000000000e+02 4.370657444000244141e+00 -1.484174156188964844e+01 7.352256216108798981e-03 -1.561594009399414062e-02 -2.479105256497859955e-03 -2.225784584879875183e-03
8.970000000000000000e+02 5.539413094520568848e-01 -9.283224105834960938e+00 -8.957673562690615654e-04 1.330462691839784384e-04 -2.288163232151418924e-04 2.212344988947734237e-04
8.980000000000000000e+02 5.454803109169006348e-01 -7.889012336730957031e+00 9.527419460937380791e-04 -2.329407725483179092e-04 2.159403520636260509e-04 4.828158853342756629e-05
8.990000000000000000e+02 5.389954447746276855e-01 -6.495699882507324219e+00 -7.526322733610868454e-04 -1.993620389839634299e-04 -2.855982747860252857e-04 -4.883692236035130918e-05
9.000000000000000000e+02 5.260380554199218750e+01 -4.060206222534179688e+01 2.798475623130798340e-01 3.923622608184814453e+00 1.261041045188903809e+00 8.937375247478485107e-02
9.010000000000000000e+02 3.130971336364746094e+01 -4.061536026000976562e+01 6.844000220298767090e-01 4.782816767692565918e-01 3.488045036792755127e-01 -2.786857634782791138e-02
9.020000000000000000e+02 1.264355373382568359e+01 -4.077490997314453125e+01 2.432467192411422729e-01 -4.215835928916931152e-01 -5.350106209516525269e-02 -4.619157314300537109e-02
9.030000000000000000e+02 7.551044464111328125e+01 4.055366897583007812e+01 2.871786616742610931e-02 8.237238883972167969e+00 2.479787111282348633e+00 5.729902908205986023e-02
9.040000000000000000e+02 7.798871612548828125e+01 4.173222732543945312e+01 9.968055784702301025e-02 8.552127838134765625e+00 2.595542430877685547e+00 -2.791845612227916718e-02
9.050000000000000000e+02 7.862493896484375000e+01 3.877288818359375000e+01 -2.215741574764251709e-02 8.653442382812500000e+00 2.589385509490966797e+00 -5.131400376558303833e-02
9.060000000000000000e+02 7.664834594726562500e+01 3.793064498901367188e+01 -4.027259722352027893e-02 8.379698753356933594e+00 2.501827955245971680e+00 8.627825300209224224e-04
9.070000000000000000e+02 7.926660919189453125e+01 3.473645782470703125e+01 -2.664449857547879219e-03 8.803552627563476562e+00 2.640266418457031250e+00 -6.537256296724081039e-03
9.080000000000000000e+02 7.639766693115234375e+01 3.429016876220703125e+01 -1.362786721438169479e-02 8.301463127136230469e+00 2.486350774765014648e+00 2.191934268921613693e-03
9.090000000000000000e+02 7.929972076416015625e+01 3.337342453002929688e+01 -4.959541838616132736e-03 8.817461013793945312e+00 2.643750429153442383e+00 7.515270845033228397e-04
9.100000000000000000e+02 7.933303070068359375e+01 3.064083671569824219e+01 -7.905944250524044037e-03 8.830468177795410156e+00 2.646768808364868164e+00 3.215461503714323044e-03
9.110000000000000000e+02 7.661808013916015625e+01 2.934818267822265625e+01 -5.903851706534624100e-04 8.351630210876464844e+00 2.505311965942382812e+00 -4.431011155247688293e-03
9.120000000000000000e+02 7.931189727783203125e+01 2.650221061706542969e+01 4.415766161400824785e-04 8.828972816467285156e+00 2.648824453353881836e+00 6.970758549869060516e-03
9.130000000000000000e+02 7.652102661132812500e+01 2.520937728881835938e+01 -1.822905242443084717e-02 8.358399391174316406e+00 2.502051115036010742e+00 1.141535770148038864e-02
9.140000000000000000e+02 7.931273651123046875e+01 2.511381530761718750e+01 -2.781842602416872978e-03 8.827850341796875000e+00 2.647520542144775391e+00 9.471300989389419556e-03
9.150000000000000000e+02 7.933361816406250000e+01 2.094148445129394531e+01 -3.362469840794801712e-03 8.779675483703613281e+00 2.632893800735473633e+00 2.533135190606117249e-02
9.160000000000000000e+02 7.933987426757812500e+01 1.955097007751464844e+01 -3.230817150324583054e-03 8.740355491638183594e+00 2.621137380599975586e+00 3.230968490242958069e-02
9.170000000000000000e+02 7.800254821777343750e+01 2.101429557800292969e+01 -1.367741450667381287e-02 8.552313804626464844e+00 2.561590909957885742e+00 5.391393601894378662e-02
9.180000000000000000e+02 7.934390258789062500e+01 1.815700149536132812e+01 -4.936315119266510010e-03 8.684833526611328125e+00 2.603969097137451172e+00 4.126196354627609253e-02
9.190000000000000000e+02 7.933707427978515625e+01 1.396668815612792969e+01 -5.348720122128725052e-03 8.387427330017089844e+00 2.514623641967773438e+00 7.715243101119995117e-02
9.200000000000000000e+02 7.933147430419921875e+01 1.257329463958740234e+01 -8.062415756285190582e-03 8.236595153808593750e+00 2.468559980392456055e+00 9.168842434883117676e-02
9.210000000000000000e+02 7.932843017578125000e+01 1.118068695068359375e+01 -5.773391574621200562e-03 8.056952476501464844e+00 2.415353775024414062e+00 1.062981039285659790e-01
9.220000000000000000e+02 7.934953308105468750e+01 7.005249500274658203e+00 -5.488018505275249481e-03 7.331306457519531250e+00 2.197745561599731445e+00 1.474171578884124756e-01
9.230000000000000000e+02 7.936222839355468750e+01 5.611263275146484375e+00 -3.491851501166820526e-03 7.026314735412597656e+00 2.106846809387207031e+00 1.575836837291717529e-01
9.240000000000000000e+02 7.808804321289062500e+01 5.673781394958496094e+00 -2.199796587228775024e-02 7.160249233245849609e+00 2.141475439071655273e+00 4.145282506942749023e-01
9.250000000000000000e+02 7.937400817871093750e+01 4.215748310089111328e+00 -1.810288522392511368e-03 6.695442199707031250e+00 2.008089542388916016e+00 1.639756113290786743e-01
9.260000000000000000e+02 7.939195251464843750e+01 2.863952517509460449e-02 8.029225282371044159e-03 5.674451828002929688e+00 1.704744338989257812e+00 1.454962193965911865e-01
9.270000000000000000e+02 7.939521789550781250e+01 -1.365104913711547852e+00 9.797768667340278625e-03 5.379418849945068359e+00 1.616764903068542480e+00 1.252867281436920166e-01
9.280000000000000000e+02 7.940658569335937500e+01 -4.149765014648437500e+00 1.570726744830608368e-02 4.953377246856689453e+00 1.490725398063659668e+00 6.523460149765014648e-02
9.290000000000000000e+02 7.942651367187500000e+01 -8.326647758483886719e+00 1.450423989444971085e-02 4.920011043548583984e+00 1.480354547500610352e+00 -5.022430419921875000e-02
9.300000000000000000e+02 7.943112945556640625e+01 -1.110648632049560547e+01 1.005206070840358734e-02 5.316151618957519531e+00 1.597861170768737793e+00 -1.102016493678092957e-01
9.310000000000000000e+02 7.942644500732421875e+01 -1.527303314208984375e+01 1.269968575797975063e-03 6.279693126678466797e+00 1.884288907051086426e+00 -1.504735797643661499e-01
9.320000000000000000e+02 7.941436767578125000e+01 -1.805061531066894531e+01 -1.971972174942493439e-03 6.970802307128906250e+00 2.090649127960205078e+00 -1.472062915563583374e-01
9.330000000000000000e+02 7.935414123535156250e+01 -2.364513587951660156e+01 -5.619031842797994614e-03 8.070056915283203125e+00 2.419331312179565430e+00 -1.056622937321662903e-01
9.340000000000000000e+02 7.934045410156250000e+01 -2.504710006713867188e+01 -6.708619184792041779e-03 8.263230323791503906e+00 2.476956605911254883e+00 -9.221088141202926636e-02
9.350000000000000000e+02 7.930586242675781250e+01 -2.923481178283691406e+01 -2.614357508718967438e-03 8.678508758544921875e+00 2.602768421173095703e+00 -5.781941488385200500e-02
9.360000000000000000e+02 7.919924926757812500e+01 -3.204441070556640625e+01 2.255271654576063156e-03 8.838049888610839844e+00 2.652091503143310547e+00 -4.111257195472717285e-02
9.370000000000000000e+02 7.902661895751953125e+01 -3.631352996826171875e+01 -3.970594331622123718e-02 8.949993133544921875e+00 2.673086166381835938e+00 -9.764554910361766815e-03
9.380000000000000000e+02 7.905654144287109375e+01 -3.771236419677734375e+01 -9.534728713333606720e-03 8.936385154724121094e+00 2.678055047988891602e+00 2.880196832120418549e-02
9.390000000000000000e+02 7.915985870361328125e+01 -3.901728057861328125e+01 4.580842703580856323e-02 8.903443336486816406e+00 2.684775590896606445e+00 5.656550172716379166e-03
9.400000000000000000e+02 7.896488952636718750e+01 -4.024428176879882812e+01 -7.716244459152221680e-02 8.850635528564453125e+00 2.632042169570922852e+00 4.670435190200805664e-02
9.410000000000000000e+02 2.777392387390136719e+01 4.087024688720703125e+01 5.783244371414184570e-01 3.135047852993011475e-01 2.675487697124481201e-01 -5.748491385020315647e-04
9.420000000000000000e+02 6.725202941894531250e+01 4.066485214233398438e+01 5.914820358157157898e-02 6.674592018127441406e+00 2.020122051239013672e+00 -1.849320903420448303e-02
9.430000000000000000e+02 1.123179793357849121e+00 1.948046326637268066e+00 1.141016127803595737e-05 1.767041103448718786e-04 5.643428085022605956e-05 4.546213313005864620e-05
9.440000000000000000e+02 3.175022363662719727e+00 2.748735904693603516e+00 3.099340538028627634e-04 3.272783651482313871e-04 1.911637227749451995e-04 6.032261353539070114e-06
9.450000000000000000e+02 5.301562309265136719e+00 2.623320579528808594e+00 -1.896953763207420707e-04 -5.492003983817994595e-04 -2.216687425971031189e-04 2.257230698887724429e-05
9.460000000000000000e+02 1.477991223335266113e+00 6.389030456542968750e+00 -4.056538746226578951e-04 -1.183768690680153668e-04 -1.572092151036486030e-04 -1.112517907131405082e-06
9.470000000000000000e+02 5.017006993293762207e-01 9.226586341857910156e+00 1.237923133885487914e-04 1.772852119756862521e-04 9.032325760927051306e-05 -7.960649236338213086e-05
9.480000000000000000e+02 5.690396428108215332e-01 1.202219390869140625e+01 2.115292154485359788e-04 5.284421145915985107e-03 1.648785080760717392e-03 -1.713449717499315739e-03
9.490000000000000000e+02 1.724057793617248535e+00 1.182115364074707031e+01 1.420929678715765476e-03 1.911559258587658405e-03 9.997467277571558952e-04 -4.401081707328557968e-03
9.500000000000000000e+02 6.339864134788513184e-01 1.766276931762695312e+01 -1.655047642998397350e-03 5.451698228716850281e-02 1.585858128964900970e-02 -5.789779126644134521e-03
9.510000000000000000e+02 7.788631916046142578e+00 1.848638153076171875e+01 -2.184579819440841675e-01 6.622173637151718140e-02 -4.567087069153785706e-02 5.736399814486503601e-02
9.520000000000000000e+02 5.765139460563659668e-01 2.191265296936035156e+01 -7.175298873335123062e-03 1.252452749758958817e-02 1.604768563993275166e-03 2.240820787847042084e-02
9.530000000000000000e+02 6.013483405113220215e-01 2.331893730163574219e+01 -3.201005980372428894e-03 -5.612826719880104065e-02 -1.779878139495849609e-02 3.403893485665321350e-02
9.540000000000000000e+02 5.996094942092895508e-01 2.474840545654296875e+01 -5.806375294923782349e-03 -1.501827687025070190e-01 -4.679674282670021057e-02 4.494599625468254089e-02
9.550000000000000000e+02 6.467677354812622070e-01 2.900810241699218750e+01 -7.881164783611893654e-04 -5.080663561820983887e-01 -1.526563465595245361e-01 5.365158244967460632e-02
9.560000000000000000e+02 6.797817945480346680e-01 3.041900253295898438e+01 2.397858072072267532e-03 -6.202166676521301270e-01 -1.853456348180770874e-01 5.162795260548591614e-02
9.570000000000000000e+02 2.047574520111083984e+00 3.026813888549804688e+01 9.192585013806819916e-03 -5.987626910209655762e-01 -1.768710315227508545e-01 1.482810080051422119e-01
9.580000000000000000e+02 7.066979408264160156e-01 3.182615280151367188e+01 1.188239315524697304e-03 -7.216087579727172852e-01 -2.161261439323425293e-01 4.816546291112899780e-02
9.590000000000000000e+02 7.242037057876586914e-01 3.602305221557617188e+01 1.297776703722774982e-03 -9.375102519989013672e-01 -2.808637320995330811e-01 2.628812007606029510e-02
9.600000000000000000e+02 3.359305858612060547e+00 3.707787322998046875e+01 4.456124827265739441e-02 -8.797472715377807617e-01 -2.505558133125305176e-01 9.434615075588226318e-02
9.610000000000000000e+02 9.374023079872131348e-01 3.873159027099609375e+01 -9.808833710849285126e-04 -1.001413822174072266e+00 -3.007183969020843506e-01 1.207812689244747162e-02
9.620000000000000000e+02 1.317842841148376465e+00 4.008283615112304688e+01 9.099372662603855133e-03 -1.010253190994262695e+00 -3.003461658954620361e-01 4.150125198066234589e-03
9.630000000000000000e+02 1.037635517120361328e+01 1.856243729591369629e+00 -4.166580911260098219e-04 -3.206908586435019970e-04 -2.212046820204705000e-04 -4.952435265295207500e-04
9.640000000000000000e+02 8.918063163757324219e+00 1.863908171653747559e+00 -2.998556592501699924e-04 -5.492870695888996124e-04 -2.547428302932530642e-04 -4.848262469749897718e-04
9.650000000000000000e+02 8.203875541687011719e+00 1.860199928283691406e+00 3.960527828894555569e-05 6.486196652986109257e-04 2.064674918074160814e-04 3.540210600476711988e-04
9.660000000000000000e+02 7.491137027740478516e+00 1.858046889305114746e+00 -2.361339284107089043e-04 -6.160032935440540314e-04 -2.556411491241306067e-04 -3.000186698045581579e-04
9.670000000000000000e+02 5.347395420074462891e+00 1.872753500938415527e+00 2.466453406668733805e-05 5.816475022584199905e-04 1.818936143536120653e-04 5.010148743167519569e-05
9.680000000000000000e+02 4.632277488708496094e+00 1.884988069534301758e+00 -2.444022975396364927e-04 -4.737535782624036074e-04 -2.154467656509950757e-04 1.097615022445097566e-04
9.690000000000000000e+02 3.918266534805297852e+00 1.897546410560607910e+00 1.121948589570820332e-04 4.461146891117095947e-04 1.674928644206374884e-04 -1.042059693645569496e-06
9.700000000000000000e+02 3.209381580352783203e+00 1.904758334159851074e+00 -3.187434922438114882e-04 -3.344984725117683411e-04 -1.959725923370569944e-04 1.256182877114042640e-04
9.710000000000000000e+02 2.511688232421875000e+00 1.902254819869995117e+00 1.676795509411022067e-04 2.921052509918808937e-04 1.379354362143203616e-04 1.250334025826305151e-04
9.720000000000000000e+02 1.819077014923095703e+00 1.900367736816406250e+00 -1.359283778583630919e-04 -3.028574574273079634e-04 -1.316357520408928394e-04 2.581595799711067230e-05
9.730000000000000000e+02 1.263601398468017578e+01 1.765602111816406250e+00 2.156477276002988219e-04 1.865354861365631223e-04 1.206549641210585833e-04 -3.817008837359026074e-05
9.740000000000000000e+02 1.331716728210449219e+01 1.740925908088684082e+00 -3.691937017720192671e-04 -2.659225719980895519e-04 -1.905348763102665544e-04 -2.889194583985954523e-04
9.750000000000000000e+02 1.513100910186767578e+01 1.858772039413452148e+00 2.179108123527839780e-04 4.726164625026285648e-04 2.071581839118152857e-04 3.724960261024534702e-04
9.760000000000000000e+02 1.326157188415527344e+01 2.477574348449707031e+00 5.853722177562303841e-05 3.725865972228348255e-04 1.293371460633352399e-04 -7.656843808945268393e-05
9.770000000000000000e+02 1.476466751098632812e+01 3.609330654144287109e+00 -8.228718652389943600e-04 2.555631363065913320e-05 -2.391946618445217609e-04 -1.612521591596305370e-04
9.780000000000000000e+02 1.407072257995605469e+01 7.558884143829345703e+00 2.643197542056441307e-03 2.709992986638098955e-04 8.742590434849262238e-04 9.819640545174479485e-04
9.790000000000000000e+02 1.353319072723388672e+01 8.821703910827636719e+00 -3.212685696780681610e-03 -1.213280716910958290e-03 -1.327789970673620701e-03 -1.351230661384761333e-03
9.800000000000000000e+02 1.289975070953369141e+01 1.005182361602783203e+01 3.662513103336095810e-03 1.131148310378193855e-03 1.438098377548158169e-03 2.260697307065129280e-03
9.810000000000000000e+02 1.032237434387207031e+01 1.167905426025390625e+01 -1.565303420647978783e-03 -3.198184305801987648e-03 -1.429046271368861198e-03 -2.376363612711429596e-03
9.820000000000000000e+02 9.422211647033691406e+00 1.271614360809326172e+01 9.475394035689532757e-04 5.593184847384691238e-03 1.962217269465327263e-03 2.982831560075283051e-03
9.830000000000000000e+02 8.458565711975097656e+00 1.557369804382324219e+01 -7.293137256056070328e-03 2.916413359344005585e-02 6.561298854649066925e-03 -1.056484878063201904e-02
9.840000000000000000e+02 1.588236713409423828e+01 1.605899238586425781e+01 -9.298406243324279785e-01 -1.569065928459167480e+00 -7.496719360351562500e-01 9.466055631637573242e-01
9.850000000000000000e+02 1.648970413208007812e+01 1.301389408111572266e+01 -6.475527882575988770e-01 -2.079930543899536133e+00 -8.182449936866760254e-01 1.103545308113098145e+00
9.860000000000000000e+02 1.775779724121093750e+01 1.046226119995117188e+01 -4.273058772087097168e-01 -2.032833337783813477e+00 -7.380417585372924805e-01 8.151669502258300781e-01
9.870000000000000000e+02 1.842305946350097656e+01 7.664181709289550781e+00 -1.474181264638900757e-01 -1.586499810218811035e+00 -5.201753973960876465e-01 4.388059973716735840e-01
9.880000000000000000e+02 1.872827148437500000e+01 4.892564296722412109e+00 -6.283881515264511108e-02 -1.095830798149108887e+00 -3.476008772850036621e-01 2.190771102905273438e-01
9.890000000000000000e+02 1.927837371826171875e+01 -3.752699851989746094e+00 -1.360821817070245743e-02 -3.680692613124847412e-02 -1.512454356998205185e-02 2.193621546030044556e-02
9.900000000000000000e+02 2.016006851196289062e+01 -3.994459152221679688e+00 -3.906604647636413574e-02 -4.331471025943756104e-02 -2.471422776579856873e-02 4.533023014664649963e-02
9.910000000000000000e+02 2.095930099487304688e+01 -4.181947231292724609e+00 -6.006028130650520325e-02 -5.092748627066612244e-02 -3.329633176326751709e-02 6.412383168935775757e-02
9.920000000000000000e+02 2.307338714599609375e+01 -4.618237495422363281e+00 -1.575222611427307129e-01 -4.510553553700447083e-02 -6.078833714127540588e-02 1.295793503522872925e-01
9.930000000000000000e+02 2.448111915588378906e+01 -4.783637523651123047e+00 -2.498888671398162842e-01 -3.459400311112403870e-02 -8.534486591815948486e-02 1.604297012090682983e-01
9.940000000000000000e+02 2.519104766845703125e+01 -4.837950706481933594e+00 -3.047681450843811035e-01 -2.971408888697624207e-02 -1.003446727991104126e-01 1.727263331413269043e-01
9.950000000000000000e+02 2.590403366088867188e+01 -4.885284423828125000e+00 -3.622411489486694336e-01 -2.343451604247093201e-02 -1.157027035951614380e-01 1.850461810827255249e-01
9.960000000000000000e+02 2.817051887512207031e+01 -4.274227619171142578e+00 -5.678577423095703125e-01 -1.564512215554714203e-02 -1.750508695840835571e-01 2.774994075298309326e-01
9.970000000000000000e+02 2.807938003540039062e+01 -4.945862293243408203e+00 -5.642279982566833496e-01 -8.957493118941783905e-03 -1.719556450843811035e-01 2.112208902835845947e-01
9.980000000000000000e+02 2.880942344665527344e+01 -4.958021163940429688e+00 -6.390922665596008301e-01 -3.609989071264863014e-03 -1.928106695413589478e-01 2.167487144470214844e-01
9.990000000000000000e+02 3.108997344970703125e+01 -4.261697769165039062e+00 -8.551905155181884766e-01 5.598776042461395264e-03 -2.548775374889373779e-01 3.014768660068511963e-01
1.000000000000000000e+03 3.101972579956054688e+01 -4.947791099548339844e+00 -8.802757859230041504e-01 6.167429964989423752e-03 -2.622325122356414795e-01 2.267509847879409790e-01
1.001000000000000000e+03 3.175967979431152344e+01 -4.939111709594726562e+00 -9.656673073768615723e-01 8.873173967003822327e-03 -2.870382368564605713e-01 2.276643067598342896e-01
1.002000000000000000e+03 3.331319427490234375e+01 -4.221711158752441406e+00 -1.085985898971557617e+00 1.414633449167013168e-02 -3.215518593788146973e-01 3.054946362972259521e-01
1.003000000000000000e+03 3.480566787719726562e+01 -4.185854911804199219e+00 -1.242548942565917969e+00 1.696517691016197205e-02 -3.676751255989074707e-01 3.033275306224822998e-01
1.004000000000000000e+03 3.623606491088867188e+01 -4.832336902618408203e+00 -1.497637033462524414e+00 1.317842397838830948e-02 -4.453375935554504395e-01 2.202781438827514648e-01
1.005000000000000000e+03 3.848435974121093750e+01 -4.769947528839111328e+00 -1.759499788284301758e+00 1.071511674672365189e-02 -5.246354341506958008e-01 2.112001478672027588e-01
1.006000000000000000e+03 3.773418807983398438e+01 -4.789961814880371094e+00 -1.673556208610534668e+00 1.143837627023458481e-02 -4.986353516578674316e-01 2.142349928617477417e-01
1.007000000000000000e+03 3.923488235473632812e+01 -4.750796318054199219e+00 -1.844088792800903320e+00 1.000660378485918045e-02 -5.502246618270874023e-01 2.076234668493270874e-01
1.008000000000000000e+03 4.223983764648437500e+01 -4.679215908050537109e+00 -2.152091979980468750e+00 7.371396292001008987e-03 -6.434161663055419922e-01 1.907868534326553345e-01
1.009000000000000000e+03 4.299141693115234375e+01 -4.663882732391357422e+00 -2.218756675720214844e+00 6.143337115645408630e-03 -6.637840270996093750e-01 1.848410964012145996e-01
1.010000000000000000e+03 4.449511337280273438e+01 -4.636965751647949219e+00 -2.336665630340576172e+00 6.339728366583585739e-03 -6.990977525711059570e-01 1.711335629224777222e-01
1.011000000000000000e+03 4.599793624877929688e+01 -4.618547916412353516e+00 -2.425987243652343750e+00 7.947639562189579010e-03 -7.254118323326110840e-01 1.511936634778976440e-01
1.012000000000000000e+03 4.674979782104492188e+01 -4.610795497894287109e+00 -2.456507682800292969e+00 1.086514070630073547e-02 -7.336927652359008789e-01 1.376999914646148682e-01
1.013000000000000000e+03 4.750200271606445312e+01 -4.605885982513427734e+00 -2.475067377090454102e+00 1.198134105652570724e-02 -7.389258146286010742e-01 1.224644333124160767e-01
1.014000000000000000e+03 4.975556945800781250e+01 -4.603669166564941406e+00 -2.434625387191772461e+00 3.009409084916114807e-02 -7.213594317436218262e-01 4.599303379654884338e-02
1.015000000000000000e+03 5.199963378906250000e+01 -4.624761581420898438e+00 -2.160271167755126953e+00 5.739280581474304199e-02 -6.308634877204895020e-01 -1.009693741798400879e-01
1.016000000000000000e+03 5.273649597167968750e+01 -4.640599727630615234e+00 -1.937770962715148926e+00 8.125583082437515259e-02 -5.569545626640319824e-01 -2.111476212739944458e-01
1.017000000000000000e+03 5.460084152221679688e+01 -4.711069107055664062e+00 -1.186186194419860840e+00 2.638466060161590576e-01 -2.767018675804138184e-01 -6.817474365234375000e-01
1.018000000000000000e+03 5.517499923706054688e+01 -4.713961124420166016e+00 -6.155455708503723145e-01 4.414390325546264648e-01 -5.223195999860763550e-02 -9.157907366752624512e-01
1.019000000000000000e+03 5.587450408935546875e+01 -4.109100818634033203e+00 8.520683050155639648e-01 1.357027649879455566e+00 6.627287864685058594e-01 -2.193100690841674805e+00
1.020000000000000000e+03 5.702598953247070312e+01 -4.737586975097656250e+00 1.983757138252258301e+00 2.271541833877563477e+00 1.276589751243591309e+00 -3.346338748931884766e+00
1.021000000000000000e+03 5.878657150268554688e+01 -4.426155567169189453e+00 1.250069618225097656e+00 1.364393520355224609e+01 4.468201160430908203e+00 -6.034945487976074219e+00
1.022000000000000000e+03 5.902365493774414062e+01 -4.712216854095458984e+00 1.225144624710083008e+00 1.652871322631835938e+01 5.326157569885253906e+00 -5.754500389099121094e+00
1.023000000000000000e+03 6.004212188720703125e+01 -5.051197052001953125e+00 3.243528366088867188e+00 2.101985359191894531e+01 7.279014587402343750e+00 9.172151088714599609e-01
1.024000000000000000e+03 6.057288742065429688e+01 -5.660461902618408203e+00 8.596597671508789062e+00 1.826154708862304688e+01 8.057443618774414062e+00 2.666546344757080078e+00
1.025000000000000000e+03 6.070637130737304688e+01 -6.919507026672363281e+00 9.692178726196289062e+00 1.716907310485839844e+01 8.058375358581542969e+00 -2.099741220474243164e+00
1.026000000000000000e+03 6.105536651611328125e+01 -7.008652687072753906e+00 8.482664108276367188e+00 1.581035232543945312e+01 7.287904739379882812e+00 -1.866068720817565918e+00
1.027000000000000000e+03 5.945539093017578125e+01 -8.030968666076660156e+00 9.767450690269470215e-01 1.945530128479003906e+01 6.129613876342773438e+00 3.379075050354003906e+00
1.028000000000000000e+03 5.840742492675781250e+01 -8.326831817626953125e+00 2.009605169296264648e+00 1.037958240509033203e+01 3.716756105422973633e+00 6.422236442565917969e+00
1.029000000000000000e+03 5.527207565307617188e+01 -8.560541152954101562e+00 8.084401488304138184e-02 7.705128788948059082e-01 2.554070651531219482e-01 1.439762115478515625e+00
1.030000000000000000e+03 5.340931320190429688e+01 -8.199193954467773438e+00 -1.575945854187011719e+00 1.185970529913902283e-01 -4.372046291828155518e-01 3.378203809261322021e-01
1.031000000000000000e+03 5.479086303710937500e+01 -8.279633522033691406e+00 -6.741014719009399414e-01 4.314446449279785156e-01 -7.279705256223678589e-02 9.320134520530700684e-01
1.032000000000000000e+03 5.194629287719726562e+01 -8.210928916931152344e+00 -2.076800107955932617e+00 8.063200116157531738e-02 -5.988504290580749512e-01 1.037658974528312683e-01
1.033000000000000000e+03 5.045965957641601562e+01 -8.234469413757324219e+00 -2.306424379348754883e+00 5.059035867452621460e-02 -6.767502427101135254e-01 -2.027744613587856293e-02
1.034000000000000000e+03 4.747164916992187500e+01 -8.276551246643066406e+00 -2.445156097412109375e+00 1.996762864291667938e-02 -7.275565862655639648e-01 -1.418964415788650513e-01
1.035000000000000000e+03 4.597846221923828125e+01 -8.301499366760253906e+00 -2.426112413406372070e+00 1.250752713531255722e-02 -7.240814566612243652e-01 -1.739697307348251343e-01
1.036000000000000000e+03 4.523212814331054688e+01 -8.314795494079589844e+00 -2.402400732040405273e+00 1.062057074159383774e-02 -7.175340652465820312e-01 -1.861515939235687256e-01
1.037000000000000000e+03 4.448603057861328125e+01 -8.328110694885253906e+00 -2.371477365493774414e+00 6.231002509593963623e-03 -7.095739245414733887e-01 -1.950151175260543823e-01
1.038000000000000000e+03 4.150069427490234375e+01 -8.390709877014160156e+00 -2.205867290496826172e+00 -1.072909682989120483e-03 -6.620820760726928711e-01 -2.185426801443099976e-01
1.039000000000000000e+03 4.294076538085937500e+01 -9.067379951477050781e+00 -2.024677276611328125e+00 1.028850022703409195e-02 -6.043165922164916992e-01 -2.356613427400588989e-01
1.040000000000000000e+03 4.000732803344726562e+01 -8.428815841674804688e+00 -2.104798316955566406e+00 -4.255548119544982910e-03 -6.327161788940429688e-01 -2.246083170175552368e-01
1.041000000000000000e+03 3.776499557495117188e+01 -8.492591857910156250e+00 -1.937825441360473633e+00 -7.870053872466087341e-03 -5.837086439132690430e-01 -2.285595089197158813e-01
1.042000000000000000e+03 3.476281356811523438e+01 -8.578688621520996094e+00 -1.695956349372863770e+00 -1.350696478039026260e-02 -5.128390192985534668e-01 -2.254370450973510742e-01
1.043000000000000000e+03 3.701532745361328125e+01 -8.514878273010253906e+00 -1.879541397094726562e+00 -1.115883421152830124e-02 -5.672100782394409180e-01 -2.276228964328765869e-01
1.044000000000000000e+03 3.851317214965820312e+01 -8.470769882202148438e+00 -1.995054841041564941e+00 -8.181839250028133392e-03 -6.009709835052490234e-01 -2.276752889156341553e-01
1.045000000000000000e+03 3.551489257812500000e+01 -8.558293342590332031e+00 -1.758567094802856445e+00 -1.472229044884443283e-02 -5.319867730140686035e-01 -2.265693098306655884e-01
1.046000000000000000e+03 3.400908279418945312e+01 -8.598261833190917969e+00 -1.632578849792480469e+00 -1.687786355614662170e-02 -4.948369860649108887e-01 -2.224837690591812134e-01
1.047000000000000000e+03 3.249949645996093750e+01 -8.636907577514648438e+00 -1.500568628311157227e+00 -1.872442103922367096e-02 -4.557878971099853516e-01 -2.181158810853958130e-01
1.048000000000000000e+03 2.945851898193359375e+01 -8.675998687744140625e+00 -1.220712184906005859e+00 -1.718993857502937317e-02 -3.713706135749816895e-01 -2.055509090423583984e-01
1.049000000000000000e+03 3.022025680541992188e+01 -8.669822692871093750e+00 -1.292702317237854004e+00 -1.672481000423431396e-02 -3.928281366825103760e-01 -2.070471793413162231e-01
1.050000000000000000e+03 2.715035247802734375e+01 -8.636468887329101562e+00 -9.939401149749755859e-01 -6.748451851308345795e-03 -3.002065718173980713e-01 -1.952998787164688110e-01
1.051000000000000000e+03 2.638049316406250000e+01 -8.611562728881835938e+00 -9.162796139717102051e-01 -3.429288044571876526e-03 -2.759126722812652588e-01 -1.948092728853225708e-01
1.052000000000000000e+03 2.326365089416503906e+01 -8.380712509155273438e+00 -5.905595421791076660e-01 1.841848716139793396e-02 -1.716423183679580688e-01 -1.846117526292800903e-01
1.053000000000000000e+03 2.094354820251464844e+01 -8.004465103149414062e+00 -3.503641188144683838e-01 1.829409599304199219e-02 -9.962100535631179810e-02 -1.509863287210464478e-01
1.054000000000000000e+03 2.019709777832031250e+01 -7.844081401824951172e+00 -2.710868716239929199e-01 4.927361384034156799e-03 -7.984785735607147217e-02 -1.318757832050323486e-01
1.055000000000000000e+03 1.828507614135742188e+01 -7.430760383605957031e+00 -8.986477553844451904e-02 -3.378670662641525269e-02 -3.709544613957405090e-02 -6.022629514336585999e-02
1.056000000000000000e+03 1.908408927917480469e+01 -8.780971527099609375e+00 -2.608851790428161621e-01 -4.077064245939254761e-02 -9.049674868583679199e-02 -1.902776211500167847e-01
1.057000000000000000e+03 6.024082946777343750e+01 -7.658987998962402344e+00 4.246922969818115234e+00 2.001263427734375000e+01 7.277866840362548828e+00 -1.705059051513671875e+00
1.058000000000000000e+03 6.077735519409179688e+01 -7.735770702362060547e+00 4.914569377899169922e+00 1.744511985778808594e+01 6.707906723022460938e+00 -2.191210985183715820e+00
1.059000000000000000e+03 6.079179763793945312e+01 -6.282622814178466797e+00 1.078837776184082031e+01 1.635123634338378906e+01 8.141883850097656250e+00 4.450089335441589355e-01
1.060000000000000000e+03 6.037360763549804688e+01 -5.009603023529052734e+00 4.087923526763916016e+00 1.939564132690429688e+01 7.045069217681884766e+00 1.772185802459716797e+00
1.061000000000000000e+03 6.077737426757812500e+01 -6.052913188934326172e+00 1.031235599517822266e+01 1.661285018920898438e+01 8.077562332153320312e+00 1.365599393844604492e+00
1.062000000000000000e+03 6.115922164916992188e+01 -6.288523197174072266e+00 9.503024101257324219e+00 1.510679340362548828e+01 7.382945060729980469e+00 3.220586478710174561e-01
1.063000000000000000e+03 6.022121810913085938e+01 -8.004424095153808594e+00 2.653839349746704102e+00 1.942098426818847656e+01 6.622447013854980469e+00 -7.382248044013977051e-01
1.064000000000000000e+03 6.054036331176757812e+01 -7.318925380706787109e+00 7.153860092163085938e+00 1.869393348693847656e+01 7.754337787628173828e+00 -2.634006500244140625e+00
1.065000000000000000e+03 6.069891738891601562e+01 -5.834218502044677734e+00 9.550554275512695312e+00 1.730917358398437500e+01 8.057918548583984375e+00 2.144567012786865234e+00
1.066000000000000000e+03 6.004677200317382812e+01 -7.769117832183837891e+00 3.109885454177856445e+00 2.069080352783203125e+01 7.140206336975097656e+00 -7.777575850486755371e-01
1.067000000000000000e+03 6.040234756469726562e+01 -8.149666786193847656e+00 2.467667102813720703e+00 1.810943412780761719e+01 6.173130512237548828e+00 -8.870242238044738770e-01
1.068000000000000000e+03 5.883217239379882812e+01 -8.069735527038574219e+00 1.655288934707641602e+00 1.474950122833251953e+01 4.921437263488769531e+00 6.492955684661865234e+00
1.069000000000000000e+03 5.620790863037109375e+01 -8.093862533569335938e+00 7.455453872680664062e-01 1.009154081344604492e+00 5.264098644256591797e-01 1.912771582603454590e+00
1.070000000000000000e+03 5.801708602905273438e+01 -8.024036407470703125e+00 3.015043258666992188e+00 6.538280010223388672e+00 2.865997076034545898e+00 5.996008872985839844e+00
1.071000000000000000e+03 5.762755966186523438e+01 -8.369476318359375000e+00 2.383641242980957031e+00 5.126182556152343750e+00 2.252947092056274414e+00 4.990606307983398438e+00
1.072000000000000000e+03 5.740127944946289062e+01 -8.039185523986816406e+00 2.495165109634399414e+00 3.424995660781860352e+00 1.776048183441162109e+00 4.242491722106933594e+00
1.073000000000000000e+03 5.682856750488281250e+01 -8.024442672729492188e+00 1.709326505661010742e+00 1.795700073242187500e+00 1.051507949829101562e+00 2.808807611465454102e+00
1.074000000000000000e+03 5.662943267822265625e+01 -8.031512260437011719e+00 1.346439361572265625e+00 1.425265312194824219e+00 8.315113782882690430e-01 2.436285495758056641e+00
1.075000000000000000e+03 5.648708724975585938e+01 -8.370281219482421875e+00 1.329189062118530273e+00 1.853385686874389648e+00 9.547724127769470215e-01 2.717193126678466797e+00
1.076000000000000000e+03 5.721631622314453125e+01 -8.017354011535644531e+00 2.177028417587280273e+00 2.549036741256713867e+00 1.417819619178771973e+00 3.644088745117187500e+00
1.077000000000000000e+03 5.841979980468750000e+01 -8.038737297058105469e+00 2.684367656707763672e+00 1.030087852478027344e+01 3.895574092864990234e+00 6.866905212402343750e+00
1.078000000000000000e+03 5.752443695068359375e+01 -4.494272232055664062e+00 2.388884305953979492e+00 4.607501029968261719e+00 2.098915576934814453e+00 -4.809527873992919922e+00
1.079000000000000000e+03 5.340777206420898438e+01 -4.663383007049560547e+00 -1.696334719657897949e+00 1.481118202209472656e-01 -4.644668698310852051e-01 -3.491793274879455566e-01
1.080000000000000000e+03 5.613939666748046875e+01 -4.679771423339843750e+00 4.609496295452117920e-01 9.256538748741149902e-01 4.159810543060302734e-01 -1.847465991973876953e+00
1.081000000000000000e+03 5.779085159301757812e+01 -4.745910167694091797e+00 2.867174148559570312e+00 5.156647682189941406e+00 2.407146692276000977e+00 -5.358926296234130859e+00
1.082000000000000000e+03 5.742193222045898438e+01 -4.202559471130371094e+00 2.191098451614379883e+00 4.838158130645751953e+00 2.108777046203613281e+00 -4.752708435058593750e+00
1.083000000000000000e+03 5.740373992919921875e+01 -4.777363777160644531e+00 2.584144353866577148e+00 3.253502130508422852e+00 1.751293897628784180e+00 -4.207021236419677734e+00
1.084000000000000000e+03 5.799404525756835938e+01 -4.743439197540283203e+00 2.987246990203857422e+00 6.504809856414794922e+00 2.847617149353027344e+00 -6.020721912384033203e+00
1.085000000000000000e+03 5.722112274169921875e+01 -4.754170417785644531e+00 2.303281784057617188e+00 2.611741781234741211e+00 1.474507093429565430e+00 -3.686951160430908203e+00
1.086000000000000000e+03 5.860555267333984375e+01 -4.741226673126220703e+00 2.196791410446166992e+00 1.231215190887451172e+01 4.352683067321777344e+00 -6.936042308807373047e+00
1.087000000000000000e+03 5.819815826416015625e+01 -4.745271682739257812e+00 2.848423480987548828e+00 8.136003494262695312e+00 3.295328140258789062e+00 -6.468708992004394531e+00
1.088000000000000000e+03 1.452394580841064453e+01 1.738910913467407227e+00 6.313477206276729703e-05 -2.007438743021339178e-04 -4.128272848902270198e-05 -8.437854557996615767e-05
1.089000000000000000e+03 1.463664150238037109e+01 2.563088893890380859e+00 1.557575451442971826e-04 -5.158339627087116241e-04 -1.080229267245158553e-04 -1.251701905857771635e-04
1.090000000000000000e+03 1.188870048522949219e+01 1.799864768981933594e+00 -4.887573886662721634e-04 -1.015670932247303426e-04 -1.770973321981728077e-04 -2.470502804499119520e-04
1.091000000000000000e+03 5.343085098266601562e+01 -4.196691989898681641e+00 -1.185963988304138184e+00 2.621442079544067383e-01 -2.771459221839904785e-01 -5.528647303581237793e-01
1.092000000000000000e+03 5.458953094482421875e+01 -4.346532344818115234e+00 -6.082232594490051270e-01 4.043680727481842041e-01 -6.115655601024627686e-02 -9.478270411491394043e-01
1.093000000000000000e+03 5.573276901245117188e+01 -4.681523323059082031e+00 2.611922658979892731e-02 7.068240642547607422e-01 2.198829799890518188e-01 -1.479989051818847656e+00
1.094000000000000000e+03 5.505728149414062500e+01 -4.032132625579833984e+00 1.626843512058258057e-01 8.674107789993286133e-01 3.090285360813140869e-01 -1.564859867095947266e+00
1.095000000000000000e+03 5.403110885620117188e+01 -4.285264492034912109e+00 -9.115846753120422363e-01 3.345290124416351318e-01 -1.731166988611221313e-01 -7.367064356803894043e-01
1.096000000000000000e+03 1.446651172637939453e+01 -3.374081611633300781e+00 -8.154942770488560200e-05 7.883183570811524987e-05 -8.152791792781499680e-07 6.481376658484805375e-06
1.097000000000000000e+03 1.384680747985839844e+01 -2.964134216308593750e+00 1.876558089861646295e-04 -9.165683150058612227e-05 2.879969360947143286e-05 -4.139025622862391174e-05
1.098000000000000000e+03 1.937127494812011719e+01 -8.230255126953125000e+00 -2.370641976594924927e-01 -2.305925823748111725e-02 -7.803703844547271729e-02 -1.533349156379699707e-01
1.099000000000000000e+03 1.858640670776367188e+01 -9.302705764770507812e+00 -2.640205621719360352e-01 -8.154290914535522461e-02 -1.036690399050712585e-01 -2.216557860374450684e-01
1.100000000000000000e+03 3.880943536758422852e+00 3.558126211166381836e+00 2.773230371531099081e-04 5.182026070542633533e-04 2.386576961725950241e-04 5.822519597131758928e-05
1.101000000000000000e+03 9.553265571594238281e+00 2.611552000045776367e+00 -3.363843134138733149e-04 -6.908387877047061920e-04 -3.081669274251908064e-04 -6.525257485918700695e-04
1.102000000000000000e+03 7.422261238098144531e+00 2.579477071762084961e+00 5.223292828304693103e-05 8.567307377234101295e-04 2.726890961639583111e-04 3.255840274505317211e-04
1.103000000000000000e+03 6.778017044067382812e+00 1.859212875366210938e+00 -4.853459813602967188e-06 6.591389537788927555e-04 1.962856476893648505e-04 1.965451228898018599e-04
1.104000000000000000e+03 6.719831466674804688e+00 2.581162929534912109e+00 -1.465787499910220504e-04 -7.026320672594010830e-04 -2.547632611822336912e-04 -2.043807908194139600e-04
1.105000000000000000e+03 8.039484977722167969e+00 3.334185123443603516e+00 1.184225911856628954e-04 1.118010724894702435e-03 3.709299780894070864e-04 4.068642447236925364e-04
1.106000000000000000e+03 5.961126327514648438e+00 4.041904926300048828e+00 2.319968771189451218e-04 8.271961705759167671e-04 3.177579201292246580e-04 2.365321270190179348e-04
1.107000000000000000e+03 1.489587783813476562e+00 7.766950607299804688e+00 8.076596423052251339e-04 2.467032572894822806e-05 2.496989909559488297e-04 -2.078648103633895516e-04
1.108000000000000000e+03 1.698962211608886719e+00 3.399482011795043945e+00 -1.114291299018077552e-04 -1.099820292438380420e-04 -6.642335210926830769e-05 -3.625274985097348690e-05
1.109000000000000000e+03 2.383350372314453125e+00 3.704323768615722656e+00 5.459536332637071609e-04 1.288573112105950713e-04 2.024432760663330555e-04 6.318181112874299288e-05
1.110000000000000000e+03 6.912170648574829102e-01 3.053470849990844727e+00 4.528486533672548831e-05 -8.512192289344966412e-05 -1.195111781271407381e-05 -2.201430033892393112e-04
1.111000000000000000e+03 1.113228416442871094e+01 1.830839514732360840e+00 3.293563495390117168e-04 2.193758555222302675e-04 1.646196615183725953e-04 2.785058168228715658e-04
1.112000000000000000e+03 8.736166000366210938e+00 3.357725858688354492e+00 -1.919508649734780192e-04 -1.022612443193793297e-03 -3.643690142780542374e-04 -5.988894263282418251e-04
1.113000000000000000e+03 2.662331199645996094e+01 -4.916415214538574219e+00 -4.254072010517120361e-01 -1.883012056350708008e-02 -1.332712024450302124e-01 1.944027692079544067e-01
1.114000000000000000e+03 2.550202560424804688e+01 -2.957328081130981445e+00 -3.406368494033813477e-01 -7.817042618989944458e-02 -1.256421804428100586e-01 3.212960064411163330e-01
1.115000000000000000e+03 2.331278800964355469e+01 -3.978169679641723633e+00 -1.858449727296829224e-01 -6.811075657606124878e-02 -7.618671655654907227e-02 1.771433949470520020e-01
1.116000000000000000e+03 2.532939720153808594e+01 -4.208697795867919922e+00 -3.242496550083160400e-01 -4.394592717289924622e-02 -1.104586720466613770e-01 2.267835885286331177e-01
1.117000000000000000e+03 2.397493743896484375e+01 -4.094029903411865234e+00 -2.268058955669403076e-01 -5.860358849167823792e-02 -8.562284708023071289e-02 1.941499114036560059e-01
1.118000000000000000e+03 2.356329917907714844e+01 -3.374229669570922852e+00 -2.092682570219039917e-01 -8.821357786655426025e-02 -8.924455195665359497e-02 2.251728177070617676e-01
1.119000000000000000e+03 2.237220573425292969e+01 -4.483427047729492188e+00 -1.206930726766586304e-01 -5.073327198624610901e-02 -5.142790451645851135e-02 1.110584810376167297e-01
1.120000000000000000e+03 1.918783950805664062e+01 -2.548949956893920898e+00 -1.025492791086435318e-02 -6.899081170558929443e-02 -2.377372048795223236e-02 4.115673527121543884e-02
1.121000000000000000e+03 2.264832115173339844e+01 -3.811440944671630859e+00 -1.470216363668441772e-01 -7.699102163314819336e-02 -6.720379739999771118e-02 1.601232588291168213e-01
1.122000000000000000e+03 2.954265975952148438e+01 -4.961215019226074219e+00 -7.167427539825439453e-01 -2.387208223808556795e-05 -2.150299847126007080e-01 2.208697795867919922e-01
1.123000000000000000e+03 2.673117065429687500e+01 -4.255056858062744141e+00 -4.382513463497161865e-01 -2.954174019396305084e-02 -1.403379291296005249e-01 2.550005316734313965e-01
1.124000000000000000e+03 2.830056190490722656e+01 -2.955175161361694336e+00 -5.555750727653503418e-01 -3.455600142478942871e-02 -1.770393252372741699e-01 3.936426341533660889e-01
1.125000000000000000e+03 2.744787406921386719e+01 -4.266578197479248047e+00 -5.013440251350402832e-01 -2.334395051002502441e-02 -1.574063897132873535e-01 2.670665085315704346e-01
1.126000000000000000e+03 3.250227355957031250e+01 -4.926219463348388672e+00 -1.051883459091186523e+00 1.055904012173414230e-02 -3.123973309993743896e-01 2.276686429977416992e-01
1.127000000000000000e+03 2.968892288208007812e+01 -3.596497774124145508e+00 -6.914608478546142578e-01 -9.308250620961189270e-03 -2.102307230234146118e-01 3.570600450038909912e-01
1.128000000000000000e+03 3.196601867675781250e+01 -2.158321619033813477e+00 -7.979805469512939453e-01 6.286774296313524246e-03 -2.375081330537796021e-01 4.874010384082794189e-01
1.129000000000000000e+03 2.962257766723632812e+01 -4.276781082153320312e+00 -7.074730396270751953e-01 -3.560317447409033775e-03 -2.133100032806396484e-01 2.925136089324951172e-01
1.130000000000000000e+03 1.345888233184814453e+01 -4.840618610382080078e+00 3.177069302182644606e-04 1.317234546149848029e-05 9.926377970259636641e-05 -3.436468614381738007e-05
1.131000000000000000e+03 1.286571598052978516e+01 -5.962902545928955078e+00 -2.956922107841819525e-04 -7.723578892182558775e-05 -1.118783911806531250e-04 4.953048846800811589e-05
1.132000000000000000e+03 8.126130104064941406e+00 -2.572376251220703125e+00 -1.667907199589535594e-04 -1.175658253487199545e-04 -8.530696504749357700e-05 -1.490656431997194886e-04
1.133000000000000000e+03 3.256827926635742188e+01 -4.237179756164550781e+00 -1.008289337158203125e+00 1.215309277176856995e-02 -2.988408803939819336e-01 3.052531778812408447e-01
1.134000000000000000e+03 3.548740386962890625e+01 -4.853398323059082031e+00 -1.408061623573303223e+00 1.340293698012828827e-02 -4.183976054191589355e-01 2.223090827465057373e-01
1.135000000000000000e+03 3.341783905029296875e+01 -2.841682434082031250e+00 -9.654791951179504395e-01 1.793826371431350708e-02 -2.842622697353363037e-01 4.347333312034606934e-01
1.136000000000000000e+03 3.405937957763671875e+01 -4.204445362091064453e+00 -1.164589166641235352e+00 1.599351316690444946e-02 -3.445787131786346436e-01 3.047312796115875244e-01
1.137000000000000000e+03 4.373996734619140625e+01 -8.342690467834472656e+00 -2.336961984634399414e+00 5.580125376582145691e-03 -6.994145512580871582e-01 -2.035820484161376953e-01
1.138000000000000000e+03 4.516961288452148438e+01 -9.016407012939453125e+00 -2.075111389160156250e+00 2.159513905644416809e-02 -6.160548925399780273e-01 -1.956064254045486450e-01
1.139000000000000000e+03 4.511006927490234375e+01 -9.717660903930664062e+00 -1.769444823265075684e+00 4.352753981947898865e-02 -5.177751779556274414e-01 -1.888901740312576294e-01
1.140000000000000000e+03 4.740134811401367188e+01 -8.964321136474609375e+00 -2.050868988037109375e+00 4.547338932752609253e-02 -6.016186475753784180e-01 -1.238704994320869446e-01
1.141000000000000000e+03 4.363053512573242188e+01 -9.759444236755371094e+00 -1.773008584976196289e+00 2.733107842504978180e-02 -5.237032771110534668e-01 -2.313759326934814453e-01
1.142000000000000000e+03 4.075415420532226562e+01 -8.408689498901367188e+00 -2.157043218612670898e+00 -9.141861228272318840e-04 -6.473872065544128418e-01 -2.223957777023315430e-01
1.143000000000000000e+03 4.136780548095703125e+01 -1.051592826843261719e+01 -1.513794422149658203e+00 2.609064429998397827e-02 -4.463111460208892822e-01 -2.835067510604858398e-01
1.144000000000000000e+03 4.219688415527343750e+01 -9.083686828613281250e+00 -1.996693968772888184e+00 5.817521829158067703e-03 -5.972629189491271973e-01 -2.443547248840332031e-01
1.145000000000000000e+03 4.963844299316406250e+01 -8.916510581970214844e+00 -1.885631084442138672e+00 8.145068585872650146e-02 -5.412541031837463379e-01 8.954650722444057465e-03
1.146000000000000000e+03 4.821874237060546875e+01 -8.266259193420410156e+00 -2.438171625137329102e+00 2.664622478187084198e-02 -7.234576344490051270e-01 -1.204141154885292053e-01
1.147000000000000000e+03 4.896618270874023438e+01 -8.255992889404296875e+00 -2.415148973464965820e+00 3.108093142509460449e-02 -7.152203917503356934e-01 -9.408485144376754761e-02
1.148000000000000000e+03 4.814673614501953125e+01 -8.948578834533691406e+00 -2.015275716781616211e+00 5.317578464746475220e-02 -5.886299610137939453e-01 -8.821117877960205078e-02
1.149000000000000000e+03 4.070997238159179688e+01 -9.119682312011718750e+00 -1.928676724433898926e+00 4.714574024546891451e-04 -5.784615874290466309e-01 -2.585127651691436768e-01
1.150000000000000000e+03 4.140852355957031250e+01 -9.809226989746093750e+00 -1.733349442481994629e+00 1.132477261126041412e-02 -5.166074037551879883e-01 -2.730203568935394287e-01
1.151000000000000000e+03 3.996681594848632812e+01 -9.141283035278320312e+00 -1.888841986656188965e+00 -7.636408554390072823e-04 -5.668816566467285156e-01 -2.640911638736724854e-01
1.152000000000000000e+03 3.922299194335937500e+01 -9.165039062500000000e+00 -1.845859050750732422e+00 -5.505128297954797745e-03 -5.554092526435852051e-01 -2.678458392620086670e-01
1.153000000000000000e+03 5.120455932617187500e+01 -8.223453521728515625e+00 -2.211749076843261719e+00 6.409259885549545288e-02 -6.442969441413879395e-01 3.508988022804260254e-02
1.154000000000000000e+03 5.244149017333984375e+01 -9.480922698974609375e+00 -7.675564885139465332e-01 3.741950988769531250e-01 -1.180084198713302612e-01 6.278772950172424316e-01
1.155000000000000000e+03 5.111981582641601562e+01 -8.876099586486816406e+00 -1.654840707778930664e+00 1.340845376253128052e-01 -4.562268555164337158e-01 1.565822213888168335e-01
1.156000000000000000e+03 5.038180160522460938e+01 -8.897789001464843750e+00 -1.783861398696899414e+00 1.058813259005546570e-01 -5.033940076828002930e-01 7.324290275573730469e-02
1.157000000000000000e+03 5.323802566528320312e+01 -8.817711830139160156e+00 -9.758445024490356445e-01 3.055096864700317383e-01 -2.011004537343978882e-01 5.919679403305053711e-01
1.158000000000000000e+03 5.388389587402343750e+01 -8.863701820373535156e+00 -5.532621741294860840e-01 4.486914277076721191e-01 -3.137122467160224915e-02 8.578845262527465820e-01
1.159000000000000000e+03 5.443893051147460938e+01 -8.987256050109863281e+00 -1.540101226419210434e-02 7.484096288681030273e-01 2.199025750160217285e-01 1.290036201477050781e+00
1.160000000000000000e+03 5.727326965332031250e+01 -8.268875122070312500e+00 2.359876394271850586e+00 3.462388753890991211e+00 1.746679544448852539e+00 4.221784114837646484e+00
1.161000000000000000e+03 5.579907226562500000e+01 -8.166651725769042969e+00 1.397138535976409912e-01 8.144182562828063965e-01 2.862396240234375000e-01 1.507530689239501953e+00
1.162000000000000000e+03 3.555170059204101562e+01 -4.166081428527832031e+00 -1.320129871368408203e+00 1.764714904129505157e-02 -3.907448351383209229e-01 3.011869490146636963e-01
1.163000000000000000e+03 3.560749053955078125e+01 -3.479102611541748047e+00 -1.228906154632568359e+00 2.190922014415264130e-02 -3.620990812778472900e-01 3.689602017402648926e-01
1.164000000000000000e+03 3.629895782470703125e+01 -4.145753383636474609e+00 -1.396392226219177246e+00 1.753806695342063904e-02 -4.136562645435333252e-01 2.983592450618743896e-01
1.165000000000000000e+03 3.845240783691406250e+01 -9.908004760742187500e+00 -1.612514376640319824e+00 -5.545231979340314865e-03 -4.854178726673126221e-01 -3.044115900993347168e-01
1.166000000000000000e+03 3.698315429687500000e+01 -9.238202095031738281e+00 -1.703323006629943848e+00 -1.041134446859359741e-02 -5.141203403472900391e-01 -2.759611606597900391e-01
1.167000000000000000e+03 3.548236465454101562e+01 -9.283290863037109375e+00 -1.599886536598205566e+00 -1.458173897117376328e-02 -4.843404889106750488e-01 -2.780162096023559570e-01
1.168000000000000000e+03 4.830919265747070312e+01 -3.957784652709960938e+00 -2.061871767044067383e+00 4.357893019914627075e-02 -6.054878234863281250e-01 8.211885392665863037e-02
1.169000000000000000e+03 4.900420761108398438e+01 -4.602836608886718750e+00 -2.468017339706420898e+00 1.956016570329666138e-02 -7.345371842384338379e-01 7.705473899841308594e-02
1.170000000000000000e+03 5.130514144897460938e+01 -4.026722908020019531e+00 -1.735496640205383301e+00 1.126869693398475647e-01 -4.868429005146026611e-01 -1.649513691663742065e-01
1.171000000000000000e+03 5.204496765136718750e+01 -4.061244010925292969e+00 -1.551077961921691895e+00 1.471436023712158203e-01 -4.211803078651428223e-01 -2.791824340820312500e-01
1.172000000000000000e+03 5.276602554321289062e+01 -4.115403175354003906e+00 -1.370357751846313477e+00 2.072420120239257812e-01 -3.489347100257873535e-01 -4.164327979087829590e-01
1.173000000000000000e+03 4.073659515380859375e+01 -4.712318897247314453e+00 -2.004386425018310547e+00 7.924390956759452820e-03 -5.989385843276977539e-01 1.995682567358016968e-01
1.174000000000000000e+03 3.779549789428710938e+01 -4.104733943939208984e+00 -1.545195698738098145e+00 1.680838502943515778e-02 -4.585162103176116943e-01 2.905505895614624023e-01
1.175000000000000000e+03 4.148828506469726562e+01 -4.694872856140136719e+00 -2.080609083175659180e+00 7.258238270878791809e-03 -6.220052838325500488e-01 1.955819129943847656e-01
1.176000000000000000e+03 4.004347610473632812e+01 -4.048713684082031250e+00 -1.751889586448669434e+00 1.541778165847063065e-02 -5.209415555000305176e-01 2.731159627437591553e-01
1.177000000000000000e+03 3.854578018188476562e+01 -4.085442543029785156e+00 -1.617306113243103027e+00 1.656182482838630676e-02 -4.802232980728149414e-01 2.852280139923095703e-01
1.178000000000000000e+03 4.755818176269531250e+01 -3.950385570526123047e+00 -2.085085868835449219e+00 3.603067994117736816e-02 -6.147165298461914062e-01 1.169848665595054626e-01
1.179000000000000000e+03 4.981018829345703125e+01 -3.983738422393798828e+00 -1.953377366065979004e+00 6.600723415613174438e-02 -5.662110447883605957e-01 -1.648850925266742706e-02
1.180000000000000000e+03 4.379939270019531250e+01 -3.968022823333740234e+00 -2.012355804443359375e+00 1.602417789399623871e-02 -5.988994836807250977e-01 2.253763824701309204e-01
1.181000000000000000e+03 3.929483795166015625e+01 -4.067232131958007812e+00 -1.686066508293151855e+00 1.560159400105476379e-02 -5.011394619941711426e-01 2.799111306667327881e-01
1.182000000000000000e+03 4.229759979248046875e+01 -3.996400356292724609e+00 -1.924649000167846680e+00 1.473722513765096664e-02 -5.729734897613525391e-01 2.488828897476196289e-01
1.183000000000000000e+03 4.304819869995117188e+01 -3.981333017349243164e+00 -1.972113013267517090e+00 1.626973599195480347e-02 -5.867530107498168945e-01 2.378013879060745239e-01
1.184000000000000000e+03 4.530376052856445312e+01 -3.951633930206298828e+00 -2.071895837783813477e+00 2.038806863129138947e-02 -6.154523491859436035e-01 1.930319964885711670e-01
1.185000000000000000e+03 4.680488204956054688e+01 -3.946956396102905273e+00 -2.092604875564575195e+00 2.804547175765037537e-02 -6.193678379058837891e-01 1.478879749774932861e-01
1.186000000000000000e+03 4.455224227905273438e+01 -3.958091735839843750e+00 -2.046461343765258789e+00 1.865869387984275818e-02 -6.083407402038574219e-01 2.097893655300140381e-01
1.187000000000000000e+03 3.325461196899414062e+01 -8.617741584777832031e+00 -1.567073106765747070e+00 -1.585919596254825592e-02 -4.748796820640563965e-01 -2.203177362680435181e-01
1.188000000000000000e+03 3.174147796630859375e+01 -8.651754379272460938e+00 -1.433304667472839355e+00 -1.633335463702678680e-02 -4.348914027214050293e-01 -2.149327397346496582e-01
1.189000000000000000e+03 3.321963882446289062e+01 -9.350506782531738281e+00 -1.432449698448181152e+00 -2.097602188587188721e-02 -4.360277056694030762e-01 -2.766177058219909668e-01
1.190000000000000000e+03 3.473006820678710938e+01 -9.305163383483886719e+00 -1.546167016029357910e+00 -1.842992566525936127e-02 -4.693790972232818604e-01 -2.772544622421264648e-01
1.191000000000000000e+03 8.831616401672363281e+00 2.600105285644531250e+00 1.544484839541837573e-04 8.542179130017757416e-04 3.025999176315963268e-04 4.843825299758464098e-04
1.192000000000000000e+03 1.362100696563720703e+01 3.924478054046630859e+00 1.315711997449398041e-03 -3.103774215560406446e-04 3.016003756783902645e-04 5.694048595614731312e-04
1.193000000000000000e+03 1.258086872100830078e+01 2.541620492935180664e+00 -7.058462942950427532e-04 4.969517249264754355e-05 -1.968453289009630680e-04 -1.284028840018436313e-04
1.194000000000000000e+03 1.106024551391601562e+01 2.603505373001098633e+00 -5.947716417722404003e-04 -3.427704214118421078e-04 -2.812626189552247524e-04 -6.543971830978989601e-04
1.195000000000000000e+03 2.869147872924804688e+01 -8.671523094177246094e+00 -1.146649599075317383e+00 -1.297203358262777328e-02 -3.478865027427673340e-01 -2.016963958740234375e-01
1.196000000000000000e+03 3.016988372802734375e+01 -9.419557571411132812e+00 -1.189787268638610840e+00 -2.079356648027896881e-02 -3.631742596626281738e-01 -2.732870280742645264e-01
1.197000000000000000e+03 3.093465423583984375e+01 -9.408262252807617188e+00 -1.251955270767211914e+00 -2.016206458210945129e-02 -3.816352188587188721e-01 -2.736231088638305664e-01
1.198000000000000000e+03 3.169947052001953125e+01 -9.393002510070800781e+00 -1.313313961029052734e+00 -2.198682725429534912e-02 -4.005902409553527832e-01 -2.752669751644134521e-01
1.199000000000000000e+03 3.397586059570312500e+01 -9.327457427978515625e+00 -1.490209102630615234e+00 -1.783093810081481934e-02 -4.524120092391967773e-01 -2.774873673915863037e-01
1.200000000000000000e+03 8.070868492126464844e+00 -1.850678443908691406e+00 5.197073187446221709e-05 1.669372431933879852e-04 6.567239324795082211e-05 1.667215983616188169e-04
1.201000000000000000e+03 1.253181362152099609e+01 -3.697664499282836914e+00 2.506326418370008469e-04 1.170860341517254710e-04 1.103156027966178954e-04 -1.766176865203306079e-05
1.202000000000000000e+03 7.382637977600097656e+00 -2.580119609832763672e+00 8.287652599392458797e-05 1.447401591576635838e-04 6.828500045230612159e-05 1.903063966892659664e-04
1.203000000000000000e+03 1.172765731811523438e+01 -5.621544837951660156e+00 2.232413680758327246e-04 -7.420258771162480116e-05 4.471163629204966128e-05 2.053501339105423540e-05
1.204000000000000000e+03 7.281405925750732422e+00 -4.785340309143066406e+00 -3.454506513662636280e-04 3.549830289557576180e-04 2.859709411495714448e-06 -1.605482975719496608e-04
1.205000000000000000e+03 6.556208610534667969e+00 -1.857990741729736328e+00 -1.850091211963444948e-05 1.597054942976683378e-04 4.236137465341016650e-05 1.582194818183779716e-04
1.206000000000000000e+03 6.636432647705078125e+00 -2.575396537780761719e+00 -1.040424685925245285e-04 -1.127654250012710690e-04 -6.504236807813867927e-05 -1.536283234599977732e-04
1.207000000000000000e+03 5.164004325866699219e+00 -2.644807338714599609e+00 -9.975390639738179743e-06 -1.450001291232183576e-04 -4.649265611078590155e-05 -2.252888953080400825e-04
1.208000000000000000e+03 1.662104368209838867e+00 -7.941813468933105469e+00 -5.422432441264390945e-04 8.357709884876385331e-05 -1.375998544972389936e-04 8.144217645167373121e-06
1.209000000000000000e+03 3.987682104110717773e+00 -3.733206272125244141e+00 6.778007809771224856e-05 1.702585432212799788e-04 7.141158857848495245e-05 2.992062363773584366e-04
1.210000000000000000e+03 1.634746193885803223e+00 -6.613327503204345703e+00 6.997407181188464165e-04 -1.231931528309360147e-04 1.729642681311815977e-04 8.830062142806127667e-05
1.211000000000000000e+03 5.034082531929016113e-01 -3.608157396316528320e+00 -4.008546529803425074e-04 -8.777095354162156582e-05 -1.465876848669722676e-04 -1.132674442487768829e-04
1.212000000000000000e+03 4.031931757926940918e-01 -2.192732334136962891e+00 2.967761538457125425e-04 -1.006700949801597744e-05 8.601274021202698350e-05 5.124366725794970989e-05
1.213000000000000000e+03 5.607762336730957031e-01 -5.064519882202148438e+00 5.535279633477330208e-04 -2.110292989527806640e-04 1.027496036840602756e-04 3.076135544688440859e-05
1.214000000000000000e+03 2.560733985900878906e+01 -8.568306922912597656e+00 -8.362081050872802734e-01 3.178276354447007179e-03 -2.499089539051055908e-01 -1.924722045660018921e-01
1.215000000000000000e+03 2.706491279602050781e+01 -9.386343002319335938e+00 -9.309215545654296875e-01 -6.376385688781738281e-03 -2.811893820762634277e-01 -2.678605318069458008e-01
1.216000000000000000e+03 2.862657928466796875e+01 -9.420809745788574219e+00 -1.062014222145080566e+00 -1.572472415864467621e-02 -3.233216702938079834e-01 -2.702669501304626465e-01
1.217000000000000000e+03 2.628733444213867188e+01 -9.350884437561035156e+00 -8.649339079856872559e-01 2.557374536991119385e-04 -2.594034373760223389e-01 -2.652840018272399902e-01
1.218000000000000000e+03 2.170559883117675781e+01 -8.154614448547363281e+00 -4.269957244396209717e-01 2.023031190037727356e-02 -1.220296248793601990e-01 -1.681647598743438721e-01
1.219000000000000000e+03 2.393769264221191406e+01 -9.170701026916503906e+00 -6.649987697601318359e-01 1.786391809582710266e-02 -1.941404640674591064e-01 -2.578333020210266113e-01
1.220000000000000000e+03 2.045907211303710938e+01 -9.395482063293457031e+00 -3.988892138004302979e-01 -9.351356886327266693e-03 -1.224721670150756836e-01 -2.591704130172729492e-01
1.221000000000000000e+03 2.073506736755371094e+01 -8.689357757568359375e+00 -3.788587450981140137e-01 6.232365965843200684e-03 -1.117879077792167664e-01 -2.082587033510208130e-01
1.222000000000000000e+03 2.312867355346679688e+01 -9.108404159545898438e+00 -5.940432548522949219e-01 2.182726189494132996e-02 -1.716647893190383911e-01 -2.538835406303405762e-01
1.223000000000000000e+03 2.483008956909179688e+01 -8.508249282836914062e+00 -7.560212612152099609e-01 8.280941285192966461e-03 -2.243221104145050049e-01 -1.902752220630645752e-01
1.224000000000000000e+03 2.551069641113281250e+01 -9.298743247985839844e+00 -7.996500134468078613e-01 5.426647607237100601e-03 -2.382670044898986816e-01 -2.634491920471191406e-01
1.225000000000000000e+03 2.473011016845703125e+01 -9.235260963439941406e+00 -7.326179742813110352e-01 1.311219204217195511e-02 -2.158517390489578247e-01 -2.605214715003967285e-01
1.226000000000000000e+03 2.784535408020019531e+01 -9.408060073852539062e+00 -9.957362413406372070e-01 -1.039327587932348251e-02 -3.018388450145721436e-01 -2.684875428676605225e-01
1.227000000000000000e+03 2.197823524475097656e+01 -3.604231119155883789e+00 -1.129055544734001160e-01 -8.765054494142532349e-02 -6.016682833433151245e-02 1.408883631229400635e-01
1.228000000000000000e+03 2.055891799926757812e+01 -3.144544839859008789e+00 -4.828336462378501892e-02 -8.744924515485763550e-02 -4.071978107094764709e-02 8.137308806180953979e-02
1.229000000000000000e+03 1.249360370635986328e+01 -1.958212852478027344e+01 -3.458564281463623047e-01 -4.595478475093841553e-01 -2.416212856769561768e-01 -3.303491771221160889e-01
1.230000000000000000e+03 4.202410221099853516e+00 -1.925520896911621094e+01 -8.499913662672042847e-02 -6.389419734477996826e-02 -4.466800391674041748e-02 -6.895799189805984497e-02
1.231000000000000000e+03 1.278351688385009766e+01 1.923247909545898438e+01 -8.268356323242187500e-01 -1.001247763633728027e+00 -5.484250187873840332e-01 7.447846531867980957e-01
1.232000000000000000e+03 9.071043968200683594e+00 2.042635154724121094e+01 -5.546908378601074219e-01 -3.265881538391113281e-01 -2.643837034702301025e-01 5.383117794990539551e-01
1.233000000000000000e+03 1.969338035583496094e+01 7.798905372619628906e+00 -2.857553660869598389e-01 -1.252426028251647949e+00 -4.614544212818145752e-01 5.934482812881469727e-01
1.234000000000000000e+03 1.960495376586914062e+01 9.424795150756835938e+00 -4.506488144397735596e-01 -1.305647492408752441e+00 -5.268889069557189941e-01 6.864028573036193848e-01
1.235000000000000000e+03 1.393644332885742188e+01 1.824911499023437500e+01 -9.358884096145629883e-01 -1.173672795295715332e+00 -6.328683495521545410e-01 8.538588881492614746e-01
1.236000000000000000e+03 1.402051258087158203e+01 1.640823173522949219e+01 -1.314842343330383301e+00 -1.423014760017395020e+00 -8.213571906089782715e-01 1.297048926353454590e+00
1.237000000000000000e+03 1.715527153015136719e+01 1.176490020751953125e+01 -5.242107510566711426e-01 -2.036569833755493164e+00 -7.682341337203979492e-01 9.700719714164733887e-01
1.238000000000000000e+03 1.670606040954589844e+01 1.486346626281738281e+01 -8.954120874404907227e-01 -1.616674304008483887e+00 -7.536258697509765625e-01 9.485654234886169434e-01
1.239000000000000000e+03 1.974519729614257812e+01 2.287023782730102539e+00 -4.514152929186820984e-02 -5.700452327728271484e-01 -1.845560222864151001e-01 2.324453443288803101e-01
1.240000000000000000e+03 6.334806084632873535e-01 1.623252296447753906e+01 4.401859187055379152e-04 3.996936231851577759e-02 1.212286390364170074e-02 -7.536628749221563339e-03
1.241000000000000000e+03 1.974044990539550781e+01 6.328684329986572266e+00 -1.906072944402694702e-01 -1.111152529716491699e+00 -3.905279338359832764e-01 4.677723348140716553e-01
1.242000000000000000e+03 1.829399108886718750e+01 1.239953613281250000e+01 -6.030858159065246582e-01 -1.611343979835510254e+00 -6.643289327621459961e-01 8.332699537277221680e-01
1.243000000000000000e+03 1.496821880340576172e+01 1.719470024108886719e+01 -9.767469763755798340e-01 -1.394874095916748047e+00 -7.114863395690917969e-01 9.399544596672058105e-01
1.244000000000000000e+03 1.882807731628417969e+01 8.320626616477966309e-01 -1.597714493982493877e-03 -3.380754292011260986e-01 -1.019019484519958496e-01 5.873607844114303589e-02
1.245000000000000000e+03 1.977971649169921875e+01 1.028489589691162109e+00 -2.873940020799636841e-02 -4.113133549690246582e-01 -1.320158243179321289e-01 1.824195832014083862e-01
1.246000000000000000e+03 1.749225997924804688e+01 1.364700508117675781e+01 -7.484757304191589355e-01 -1.659954547882080078e+00 -7.225291132926940918e-01 9.509726762771606445e-01
1.247000000000000000e+03 2.227353858947753906e+01 -1.903172492980957031e+00 -1.377949416637420654e-01 -1.719187796115875244e-01 -9.291411936283111572e-02 2.454015016555786133e-01
1.248000000000000000e+03 1.891934013366699219e+01 -1.704205393791198730e+00 -2.996906405314803123e-03 -9.228817373514175415e-02 -2.858552522957324982e-02 3.230870887637138367e-02
1.249000000000000000e+03 2.954976081848144531e+00 -1.693332290649414062e+01 -1.277765724807977676e-02 -1.891827583312988281e-02 -9.508779272437095642e-03 4.046638030558824539e-03
1.250000000000000000e+03 6.065248847007751465e-01 -1.767072486877441406e+01 -3.692494239658117294e-03 3.800195828080177307e-02 1.029283925890922546e-02 2.251103753224015236e-03
1.251000000000000000e+03 1.274119567871093750e+01 -1.808741569519042969e+01 -5.165374875068664551e-01 -4.473445117473602295e-01 -2.891646027565002441e-01 -3.952740430831909180e-01
1.252000000000000000e+03 1.024967479705810547e+01 -2.522817850112915039e+00 1.530572808405850083e-05 2.558648702688515186e-04 8.135117968777194619e-05 1.461608626414090395e-04
1.253000000000000000e+03 1.650479507446289062e+01 -1.038943767547607422e+01 -1.946774721145629883e-01 -2.987982928752899170e-01 -1.480427384376525879e-01 -2.486206591129302979e-01
1.254000000000000000e+03 1.744299316406250000e+01 -1.111366939544677734e+01 -3.306109309196472168e-01 -2.079115658998489380e-01 -1.615567505359649658e-01 -3.242658376693725586e-01
1.255000000000000000e+03 1.582383346557617188e+01 -1.156973075866699219e+01 -2.686956822872161865e-01 -4.277658462524414062e-01 -2.089384496212005615e-01 -3.380567729473114014e-01
1.256000000000000000e+03 1.358614730834960938e+01 -1.705368804931640625e+01 -5.338717699050903320e-01 -4.409311711788177490e-01 -2.924408912658691406e-01 -4.566898345947265625e-01
1.257000000000000000e+03 1.681870841979980469e+01 -1.228043079376220703e+01 -3.898335993289947510e-01 -2.758985161781311035e-01 -1.997196376323699951e-01 -3.738352656364440918e-01
1.258000000000000000e+03 1.363665390014648438e+01 -3.803761482238769531e+00 -3.392341604921966791e-04 -1.218877659994177520e-04 -1.383365743095055223e-04 2.485832010279409587e-05
1.259000000000000000e+03 1.610866928100585938e+01 -1.348524188995361328e+01 -4.522549510002136230e-01 -3.429063260555267334e-01 -2.385483831167221069e-01 -4.092493951320648193e-01
1.260000000000000000e+03 1.535233592987060547e+01 -1.473166942596435547e+01 -4.716431796550750732e-01 -3.990325033664703369e-01 -2.612027227878570557e-01 -4.257364869117736816e-01
1.261000000000000000e+03 1.048442745208740234e+01 -9.208459854125976562e+00 3.742747867363505065e-05 -3.934978740289807320e-04 -1.068211131496354938e-04 -2.790640110106323846e-06
1.262000000000000000e+03 1.332894706726074219e+01 -2.562232732772827148e+00 6.902799941599369049e-05 5.195966150495223701e-05 3.629629645729437470e-05 7.770547381369397044e-05
1.263000000000000000e+03 9.469267845153808594e+00 -8.691519737243652344e+00 -1.574274792801588774e-04 4.396269505377858877e-04 8.465984137728810310e-05 -2.345321845496073365e-04
1.264000000000000000e+03 1.104868316650390625e+01 -6.620593547821044922e+00 -1.543417893117293715e-04 2.956127718789502978e-05 -3.743415436474606395e-05 -6.369850598275661469e-05
1.265000000000000000e+03 1.027606964111328125e+01 -7.638485908508300781e+00 2.270855620736256242e-04 -3.892563108820468187e-04 -4.865122537012211978e-05 1.223284052684903145e-04
1.266000000000000000e+03 1.686049461364746094e+00 -1.067521190643310547e+01 1.802710721676703542e-05 6.414480740204453468e-04 1.978425570996478200e-04 1.467805705033242702e-03
1.267000000000000000e+03 8.174574851989746094e+00 -1.262613582611083984e+01 6.551243131980299950e-04 2.652806928381323814e-03 9.923793841153383255e-04 -1.091919490136206150e-03
1.268000000000000000e+03 1.039644908905029297e+01 -4.047924995422363281e+00 -7.568890578113496304e-05 3.146520248265005648e-05 -1.326711026194971055e-05 -3.877144627040252090e-05
1.269000000000000000e+03 7.787185668945312500e+01 3.322360229492187500e+01 -6.846825592219829559e-03 8.571184158325195312e+00 2.569301128387451172e+00 -3.820947837084531784e-03
1.270000000000000000e+03 7.919203186035156250e+01 3.608866500854492188e+01 -1.506183017045259476e-02 8.766742706298828125e+00 2.625504255294799805e+00 -2.470680512487888336e-02
1.271000000000000000e+03 7.794100952148437500e+01 -2.916040802001953125e+01 -2.835124917328357697e-02 8.468557357788085938e+00 2.532061815261840820e+00 -1.510750353336334229e-01
1.272000000000000000e+03 7.932320404052734375e+01 -2.783873558044433594e+01 -7.194728590548038483e-03 8.564503669738769531e+00 2.567192554473876953e+00 -6.784056872129440308e-02
1.273000000000000000e+03 7.905658721923828125e+01 -3.488663864135742188e+01 1.056599710136651993e-02 8.927362442016601562e+00 2.681378364562988281e+00 -2.699431031942367554e-02
1.274000000000000000e+03 7.938661193847656250e+01 -2.084145164489746094e+01 -3.595148213207721710e-03 7.583308219909667969e+00 2.273913860321044922e+00 -1.305154711008071899e-01
1.275000000000000000e+03 7.802038574218750000e+01 -2.496853828430175781e+01 -3.115518391132354736e-02 8.134694099426269531e+00 2.431061744689941406e+00 -2.471243143081665039e-01
1.276000000000000000e+03 7.798651885986328125e+01 -2.638045310974121094e+01 -2.889572083950042725e-02 8.266749382019042969e+00 2.471356153488159180e+00 -2.120349556207656860e-01
1.277000000000000000e+03 7.762729644775390625e+01 -3.197093772888183594e+01 -2.445210330188274384e-02 8.557426452636718750e+00 2.559892416000366211e+00 -1.089528948068618774e-01
1.278000000000000000e+03 7.926454925537109375e+01 -3.063723182678222656e+01 -8.410265669226646423e-03 8.768491744995117188e+00 2.628024339675903320e+00 -4.669182747602462769e-02
1.279000000000000000e+03 7.738331604003906250e+01 -3.342287445068359375e+01 -2.276729606091976166e-02 8.570109367370605469e+00 2.564202547073364258e+00 -1.015566810965538025e-01
1.280000000000000000e+03 7.758467864990234375e+01 -3.943039703369140625e+01 -3.669955953955650330e-02 8.829035758972167969e+00 2.637700796127319336e+00 5.805385112762451172e-02
1.281000000000000000e+03 7.803019714355468750e+01 1.543266391754150391e+01 -2.679535187780857086e-02 8.333816528320312500e+00 2.492106199264526367e+00 1.552236378192901611e-01
1.282000000000000000e+03 7.934213256835937500e+01 1.536200237274169922e+01 -6.704844534397125244e-03 8.511231422424316406e+00 2.551357984542846680e+00 6.425659358501434326e-02
1.283000000000000000e+03 7.932633972167968750e+01 2.233123397827148438e+01 -2.997485687956213951e-03 8.805741310119628906e+00 2.640823125839233398e+00 1.857347786426544189e-02
1.284000000000000000e+03 7.790744781494140625e+01 3.192370414733886719e+01 -4.508941492531448603e-04 8.578849792480468750e+00 2.573519468307495117e+00 4.195204935967922211e-03
1.285000000000000000e+03 7.792781829833984375e+01 2.792964172363281250e+01 4.961440339684486389e-03 8.592720985412597656e+00 2.579304695129394531e+00 5.724583752453327179e-03
1.286000000000000000e+03 7.931895446777343750e+01 2.788462638854980469e+01 -1.153721706941723824e-03 8.828332901000976562e+00 2.648153781890869141e+00 6.262551993131637573e-03
1.287000000000000000e+03 7.792760467529296875e+01 2.517188453674316406e+01 -6.277036853134632111e-03 8.586570739746093750e+00 2.574088096618652344e+00 1.350295357406139374e-02
1.288000000000000000e+03 7.795301055908203125e+01 2.378192520141601562e+01 -1.107852719724178314e-02 8.584291458129882812e+00 2.571964025497436523e+00 2.229505404829978943e-02
1.289000000000000000e+03 7.804058837890625000e+01 1.823841476440429688e+01 -2.039236761629581451e-02 8.477594375610351562e+00 2.537160634994506836e+00 9.456346184015274048e-02
1.290000000000000000e+03 7.804341125488281250e+01 1.683535385131835938e+01 -2.485628612339496613e-02 8.414986610412597656e+00 2.517039299011230469e+00 1.232224628329277039e-01
1.291000000000000000e+03 7.800604248046875000e+01 1.403648662567138672e+01 -3.072727471590042114e-02 8.232268333435058594e+00 2.460462331771850586e+00 1.927966326475143433e-01
1.292000000000000000e+03 7.656336975097656250e+01 1.132456302642822266e+01 -8.647819608449935913e-02 7.918348789215087891e+00 2.349561214447021484e+00 4.033055305480957031e-01
1.293000000000000000e+03 7.797408294677734375e+01 9.855171203613281250e+00 -3.442278504371643066e-02 7.803452968597412109e+00 2.330709218978881836e+00 3.157528638839721680e-01
1.294000000000000000e+03 7.933014678955078125e+01 9.788867950439453125e+00 -7.797063793987035751e-03 7.847269058227539062e+00 2.351841688156127930e+00 1.209486275911331177e-01
1.295000000000000000e+03 7.828693389892578125e+01 -1.516329479217529297e+01 5.686603952199220657e-03 6.520650386810302734e+00 1.957901120185852051e+00 -4.080556333065032959e-01
1.296000000000000000e+03 7.942995452880859375e+01 -1.388518047332763672e+01 4.599589388817548752e-03 5.932940483093261719e+00 1.781262040138244629e+00 -1.439384520053863525e-01
1.297000000000000000e+03 7.828460693359375000e+01 -8.268280982971191406e+00 6.882015615701675415e-02 5.470457553863525391e+00 1.661783337593078613e+00 -1.374569982290267944e-01
1.298000000000000000e+03 7.942163085937500000e+01 -6.935687065124511719e+00 1.666411012411117554e-02 4.840892314910888672e+00 1.457266926765441895e+00 -1.250142417848110199e-02
1.299000000000000000e+03 7.940255737304687500e+01 -1.944400596618652344e+01 -3.977093379944562912e-03 7.290996074676513672e+00 2.186105728149414062e+00 -1.395893990993499756e-01
1.300000000000000000e+03 7.811988830566406250e+01 -2.212549972534179688e+01 -2.876613102853298187e-02 7.785793304443359375e+00 2.327108144760131836e+00 -3.190114796161651611e-01
1.301000000000000000e+03 7.817578125000000000e+01 8.037951588630676270e-02 3.153287991881370544e-02 6.097095966339111328e+00 1.838588595390319824e+00 3.900547921657562256e-01
1.302000000000000000e+03 7.938855743408203125e+01 1.423860788345336914e+00 3.589724190533161163e-03 6.003649234771728516e+00 1.802171707153320312e+00 1.585713773965835571e-01
1.303000000000000000e+03 7.672331237792968750e+01 7.102900981903076172e+00 -7.302301377058029175e-02 7.496878623962402344e+00 2.227156639099121094e+00 5.721691250801086426e-01
1.304000000000000000e+03 7.798290252685546875e+01 2.927233314514160156e+01 -7.091203704476356506e-03 8.592339515686035156e+00 2.575574636459350586e+00 2.800428483169525862e-04
1.305000000000000000e+03 7.840456390380859375e+01 4.020682144165039062e+01 -2.740585431456565857e-02 8.596781730651855469e+00 2.570812940597534180e+00 -7.305335998535156250e-02
1.306000000000000000e+03 7.463825225830078125e+01 3.849227523803710938e+01 -1.542054954916238785e-02 8.040703773498535156e+00 2.407584905624389648e+00 2.267471048980951309e-03
1.307000000000000000e+03 7.424592590332031250e+01 3.667191696166992188e+01 -1.726142317056655884e-02 7.933489799499511719e+00 2.374868631362915039e+00 -2.366381883621215820e-02
1.308000000000000000e+03 7.696031188964843750e+01 1.247914433479309082e-01 7.740548998117446899e-02 6.471399307250976562e+00 1.964641451835632324e+00 5.831189155578613281e-01
1.309000000000000000e+03 7.816972351074218750e+01 1.478898048400878906e+00 1.724416762590408325e-02 6.354330062866210938e+00 1.911472320556640625e+00 4.225861728191375732e-01
1.310000000000000000e+03 7.821881866455078125e+01 -4.099199295043945312e+00 7.209195941686630249e-02 5.524675369262695312e+00 1.679030179977416992e+00 1.747813522815704346e-01
1.311000000000000000e+03 7.939995574951171875e+01 -2.757114171981811523e+00 1.308599859476089478e-02 5.133778095245361328e+00 1.544059276580810547e+00 9.887016564607620239e-02
1.312000000000000000e+03 7.826916503906250000e+01 -6.883760929107666016e+00 7.660570740699768066e-02 5.417084217071533203e+00 1.648107051849365234e+00 -3.743869066238403320e-02
1.313000000000000000e+03 7.829929351806640625e+01 -1.103046417236328125e+01 4.662186279892921448e-02 5.768121719360351562e+00 1.744423031806945801e+00 -2.998766601085662842e-01
1.314000000000000000e+03 7.942948150634765625e+01 -9.716716766357421875e+00 1.239129155874252319e-02 5.082579135894775391e+00 1.528491139411926270e+00 -8.291436731815338135e-02
1.315000000000000000e+03 7.830180358886718750e+01 -1.241131114959716797e+01 3.278154507279396057e-02 5.991570949554443359e+00 1.807305693626403809e+00 -3.549883365631103516e-01
1.316000000000000000e+03 7.825275421142578125e+01 -1.791669082641601562e+01 -1.418633386492729187e-02 7.070994853973388672e+00 2.117042541503906250e+00 -3.972909748554229736e-01
1.317000000000000000e+03 7.942197418212890625e+01 -1.666102218627929688e+01 -5.668571684509515762e-04 6.630118846893310547e+00 1.988865613937377930e+00 -1.508008241653442383e-01
1.318000000000000000e+03 7.821946716308593750e+01 -1.930691528320312500e+01 -2.144938893616199493e-02 7.332349300384521484e+00 2.193269968032836914e+00 -3.772733807563781738e-01
1.319000000000000000e+03 7.735784530639648438e+00 2.003041839599609375e+01 -4.859856367111206055e-01 -6.745360791683197021e-02 -1.660317778587341309e-01 2.733986675739288330e-01
1.320000000000000000e+03 9.049890518188476562e+00 1.884460258483886719e+01 -6.039116382598876953e-01 -1.179972216486930847e-01 -2.165726572275161743e-01 2.481562793254852295e-01
1.321000000000000000e+03 1.329906702041625977e+00 -4.006415939331054688e+01 9.918115101754665375e-03 -7.730625271797180176e-01 -2.289433330297470093e-01 2.282762667164206505e-03
1.322000000000000000e+03 7.636219263076782227e-01 3.739360427856445312e+01 7.914356887340545654e-03 -9.774016737937927246e-01 -2.908461987972259521e-01 1.617791131138801575e-02
1.323000000000000000e+03 7.231975793838500977e-01 3.463383865356445312e+01 5.070797633379697800e-03 -8.810071945190429688e-01 -2.627809047698974609e-01 3.202743083238601685e-02
1.324000000000000000e+03 7.211174368858337402e-01 3.323215866088867188e+01 4.921123385429382324e-03 -8.097521662712097168e-01 -2.414493262767791748e-01 4.174759238958358765e-02
1.325000000000000000e+03 6.172967553138732910e-01 2.759350776672363281e+01 -5.199762017582543194e-05 -3.884834349155426025e-01 -1.165606305003166199e-01 5.255404114723205566e-02
1.326000000000000000e+03 6.000883579254150391e-01 2.617500686645507812e+01 -5.372353480197489262e-04 -2.661861777305603027e-01 -8.001702278852462769e-02 5.193926766514778137e-02
1.327000000000000000e+03 5.872103571891784668e-01 -3.601324081420898438e+01 1.833229209296405315e-03 -7.499983906745910645e-01 -2.244495451450347900e-01 -9.098333306610584259e-03
1.328000000000000000e+03 2.403991699218750000e+00 -3.330532836914062500e+01 1.899203658103942871e-02 -5.940681099891662598e-01 -1.725228279829025269e-01 -8.784708380699157715e-02
1.329000000000000000e+03 2.903195142745971680e+00 2.591384315490722656e+01 -1.710602082312107086e-02 -3.411229550838470459e-01 -1.074686869978904724e-01 2.087325751781463623e-01
1.330000000000000000e+03 2.871480941772460938e+00 2.454875564575195312e+01 -2.622170746326446533e-02 -2.625398039817810059e-01 -8.662845194339752197e-02 1.919527053833007812e-01
1.331000000000000000e+03 2.194591045379638672e+00 3.446997070312500000e+01 2.199156768620014191e-02 -8.208324909210205078e-01 -2.396522760391235352e-01 1.035728678107261658e-01
1.332000000000000000e+03 2.189344406127929688e+00 3.307588577270507812e+01 1.881311088800430298e-02 -7.523322701454162598e-01 -2.200557440519332886e-01 1.224959045648574829e-01
1.333000000000000000e+03 2.517381429672241211e+00 3.809865570068359375e+01 2.866181172430515289e-02 -9.252386689186096191e-01 -2.689730525016784668e-01 5.210407078266143799e-02
1.334000000000000000e+03 3.463237047195434570e+00 3.907906723022460938e+01 3.279829025268554688e-02 -9.292002320289611816e-01 -2.689205706119537354e-01 6.688120961189270020e-02
1.335000000000000000e+03 2.231754302978515625e+00 -3.038678550720214844e+01 1.225622929632663727e-02 -4.874019026756286621e-01 -1.425437033176422119e-01 -1.117919534444808960e-01
1.336000000000000000e+03 2.083454847335815430e+00 -2.754784202575683594e+01 3.971327561885118484e-03 -3.558032214641571045e-01 -1.055495664477348328e-01 -1.196826919913291931e-01
1.337000000000000000e+03 2.305478096008300781e+00 -3.662636947631835938e+01 1.609124056994915009e-02 -6.901764273643493652e-01 -2.022255659103393555e-01 -5.132264643907546997e-02
1.338000000000000000e+03 5.388213634490966797e+00 -1.740558242797851562e+01 -5.460390821099281311e-02 -3.188916295766830444e-02 -2.594792097806930542e-02 3.206478198990225792e-03
1.339000000000000000e+03 5.879789590835571289e-01 2.051890754699707031e+01 -4.248512443155050278e-03 5.256860330700874329e-02 1.449602749198675156e-02 7.480389904230833054e-03
1.340000000000000000e+03 6.282542347908020020e-01 1.909931755065917969e+01 -2.797322114929556847e-03 6.111493334174156189e-02 1.749528385698795319e-02 -7.097696652635931969e-04
1.341000000000000000e+03 6.295953392982482910e-01 1.481756114959716797e+01 7.089481805451214314e-04 2.434554509818553925e-02 7.516348268836736679e-03 -6.258549634367227554e-03
1.342000000000000000e+03 6.087940931320190430e-01 1.341797256469726562e+01 1.473334850743412971e-03 1.238275319337844849e-02 4.156826529651880264e-03 -3.970309626311063766e-03
1.343000000000000000e+03 4.918977618217468262e-01 7.830172538757324219e+00 -1.246411266038194299e-04 -1.704254100332036614e-04 -8.851996244629845023e-05 -1.323561882600188255e-04
1.344000000000000000e+03 6.371349096298217773e-01 -1.910170745849609375e+01 -3.000895958393812180e-03 3.384818136692047119e-02 9.254185482859611511e-03 -5.126270465552806854e-03
1.345000000000000000e+03 1.687236309051513672e+00 -9.297398567199707031e+00 1.252706628292798996e-03 3.320185351185500622e-05 3.857725532725453377e-04 5.632544052787125111e-04
1.346000000000000000e+03 4.935626983642578125e+00 -4.035675430297851562e+01 4.033241793513298035e-02 -6.402774453163146973e-01 -1.799834966659545898e-01 -4.753388464450836182e-02
1.347000000000000000e+03 3.423445463180541992e+00 -3.915246582031250000e+01 2.376606501638889313e-02 -7.136254906654357910e-01 -2.069578319787979126e-01 -4.530153051018714905e-02
1.348000000000000000e+03 4.693076133728027344e+00 -3.626183319091796875e+01 5.154960975050926208e-02 -6.005465388298034668e-01 -1.646990776062011719e-01 -1.033919006586074829e-01
1.349000000000000000e+03 1.622609496116638184e+00 -3.540911483764648438e+01 1.269463822245597839e-02 -6.748753190040588379e-01 -1.986542046070098877e-01 -4.422033950686454773e-02
1.350000000000000000e+03 2.323346376419067383e+00 -3.183534812927246094e+01 9.185227565467357635e-03 -5.437462925910949707e-01 -1.603683233261108398e-01 -1.023881286382675171e-01
1.351000000000000000e+03 3.508367300033569336e+00 -2.744786453247070312e+01 3.540493315085768700e-03 -3.609442114830017090e-01 -1.072211116552352905e-01 -1.819162517786026001e-01
1.352000000000000000e+03 1.917949676513671875e+00 -2.472910308837890625e+01 -6.514983251690864563e-03 -2.140319198369979858e-01 -6.616406887769699097e-02 -1.062979921698570251e-01
1.353000000000000000e+03 2.003697156906127930e+00 -2.614304542541503906e+01 -4.399311728775501251e-03 -2.859478890895843506e-01 -8.710415661334991455e-02 -1.171485707163810730e-01
1.354000000000000000e+03 6.262127757072448730e-01 -2.053868293762207031e+01 -5.350821651518344879e-03 1.105048786848783493e-02 1.709899981506168842e-03 -1.457402855157852173e-02
1.355000000000000000e+03 3.024140834808349609e+00 -2.183831977844238281e+01 -4.219778999686241150e-02 -1.180195063352584839e-01 -4.806518927216529846e-02 -1.120183244347572327e-01
1.356000000000000000e+03 1.650105118751525879e+00 -1.606330299377441406e+01 6.504666525870561600e-04 5.926392506808042526e-03 1.973057864233851433e-03 1.110101304948329926e-02
1.357000000000000000e+03 1.652958035469055176e+00 -1.206230545043945312e+01 2.471233950927853584e-03 1.523334765806794167e-03 1.198370591737329960e-03 2.956192474812269211e-03
1.358000000000000000e+03 5.439583659172058105e-01 -1.208430194854736328e+01 -6.587172392755746841e-04 3.487189766019582748e-03 8.485417347401380539e-04 1.267582527361810207e-03
1.359000000000000000e+03 8.705346107482910156e+00 -9.804140090942382812e+00 2.866145805455744267e-04 -7.262187427841126919e-04 -1.318812428507953882e-04 3.574816219042986631e-04
1.360000000000000000e+03 5.325950622558593750e+00 -3.367497205734252930e+00 -7.981489034136757255e-05 2.987962216138839722e-04 6.569439574377611279e-05 2.292829303769394755e-04
1.361000000000000000e+03 3.707252740859985352e+00 -2.891392230987548828e+00 -1.092777674784883857e-04 -6.682362436549738050e-05 -5.283041900838725269e-05 -2.687581290956586599e-04
1.362000000000000000e+03 2.935515642166137695e+00 -3.098075866699218750e+00 1.855686277849599719e-04 2.018333361775148660e-05 6.172558641992509365e-05 1.528720458736643195e-04
1.363000000000000000e+03 1.372604370117187500e+00 -3.385552883148193359e+00 8.750995766604319215e-05 5.994246021145954728e-05 4.423572681844234467e-05 7.946669211378321052e-05
1.364000000000000000e+03 4.459654986858367920e-01 5.059531211853027344e+00 -1.829630928114056587e-04 -3.458481805864721537e-04 -1.586433791089802980e-04 -2.949707231891807169e-05
1.365000000000000000e+03 1.582742571830749512e+00 1.046772289276123047e+01 1.951084937900304794e-03 1.192677300423383713e-03 9.431286598555743694e-04 -1.468325383029878139e-03
1.366000000000000000e+03 5.276894569396972656e-01 1.062395858764648438e+01 4.378778103273361921e-04 1.682433066889643669e-03 6.360932602547109127e-04 -9.645227692089974880e-04
1.367000000000000000e+03 1.865405440330505371e+00 1.318448352813720703e+01 4.634817130863666534e-03 3.344064345583319664e-03 2.393664559349417686e-03 -8.268776349723339081e-03
1.368000000000000000e+03 1.915793776512145996e+00 1.457938861846923828e+01 3.896506037563085556e-03 3.960862290114164352e-03 2.357210498303174973e-03 -1.278819516301155090e-02
1.369000000000000000e+03 1.893956542015075684e+00 1.601551246643066406e+01 1.817611861042678356e-03 5.811764858663082123e-03 2.288813004270195961e-03 -1.610986702144145966e-02
1.370000000000000000e+03 1.771006226539611816e+00 2.461121177673339844e+01 -1.817296445369720459e-02 -2.140593528747558594e-01 -6.966969370841979980e-02 1.283531486988067627e-01
1.371000000000000000e+03 9.380229949951171875e+00 1.101338863372802734e+01 -4.060184292029589415e-04 4.120159894227981567e-03 1.114242477342486382e-03 1.065562362782657146e-03
1.372000000000000000e+03 1.248587703704833984e+01 8.459625244140625000e+00 1.981178997084498405e-03 1.765257329680025578e-03 1.123930909670889378e-03 1.748759881593286991e-03
1.373000000000000000e+03 1.468824005126953125e+01 4.925563812255859375e+00 1.481771585531532764e-03 -5.330537533154711127e-05 4.285398754291236401e-04 2.033186319749802351e-04
1.374000000000000000e+03 1.182852554321289062e+01 2.580796718597412109e+00 6.759727839380502701e-04 1.103674221667461097e-04 2.359020581934601068e-04 3.534472198225557804e-04
1.375000000000000000e+03 1.039635562896728516e+01 1.339681053161621094e+01 -5.805369466543197632e-03 -3.535109106451272964e-03 -2.802143571898341179e-03 -4.688428249210119247e-03
1.376000000000000000e+03 8.516758918762207031e+00 1.030990886688232422e+01 1.172319753095507622e-03 2.454669993312563747e-05 3.590599517337977886e-04 1.198411337099969387e-03
1.377000000000000000e+03 8.462794303894042969e+00 1.381398105621337891e+01 -2.224669558927416801e-03 6.838792935013771057e-03 1.384236966259777546e-03 -3.478478640317916870e-03
1.378000000000000000e+03 1.178914260864257812e+01 3.368668556213378906e+00 -9.408174664713442326e-04 -2.808398858178406954e-04 -3.664972027763724327e-04 -9.322653058916330338e-04
1.379000000000000000e+03 7.316047191619873047e+00 -1.212372589111328125e+01 2.265753137180581689e-04 2.756684843916445971e-04 1.506731350673362613e-04 -1.931368024088442326e-04
1.380000000000000000e+03 7.997512340545654297e+00 -1.095655250549316406e+01 -3.226913977414369583e-04 1.989548094570636749e-03 5.000570090487599373e-04 -8.124242885969579220e-04
1.381000000000000000e+03 5.994536972045898438e+01 -4.234508037567138672e+00 7.453291416168212891e-01 1.771386146545410156e+01 5.537757396697998047e+00 -1.354743599891662598e+00
1.382000000000000000e+03 5.988597106933593750e+01 -4.922926902770996094e+00 2.161384344100952148e+00 2.101914978027343750e+01 6.954160213470458984e+00 -2.509281039237976074e-01
1.383000000000000000e+03 5.821335983276367188e+01 -8.282619476318359375e+00 2.391131162643432617e+00 8.736220359802246094e+00 3.338205575942993164e+00 6.316693305969238281e+00
1.384000000000000000e+03 5.909069061279296875e+01 -8.439077377319335938e+00 7.281383872032165527e-01 1.548079204559326172e+01 4.862679004669189453e+00 4.961393833160400391e+00
1.385000000000000000e+03 5.760319519042968750e+01 -8.058293342590332031e+00 2.783599853515625000e+00 4.192178726196289062e+00 2.092733621597290039e+00 4.810985565185546875e+00
1.386000000000000000e+03 5.684655380249023438e+01 -8.281934738159179688e+00 1.790714740753173828e+00 2.299227714538574219e+00 1.226982712745666504e+00 3.186772584915161133e+00
1.387000000000000000e+03 5.924664688110351562e+01 -8.057772636413574219e+00 9.556391835212707520e-01 1.814562606811523438e+01 5.730379581451416016e+00 4.656283378601074219e+00
1.388000000000000000e+03 5.694847488403320312e+01 -4.450938701629638672e+00 1.881311416625976562e+00 2.677776813507080078e+00 1.367726445198059082e+00 -3.567477226257324219e+00
1.389000000000000000e+03 5.660535430908203125e+01 -4.656727790832519531e+00 1.243243336677551270e+00 1.453856110572814941e+00 8.091298341751098633e-01 -2.498272418975830078e+00
1.390000000000000000e+03 5.924849319458007812e+01 -4.698155879974365234e+00 9.403154253959655762e-01 1.803757095336914062e+01 5.693366050720214844e+00 -4.565396308898925781e+00
1.391000000000000000e+03 5.927754211425781250e+01 -4.297588825225830078e+00 4.899694621562957764e-01 1.637907791137695312e+01 5.060714244842529297e+00 -4.212467670440673828e+00
1.392000000000000000e+03 5.971388244628906250e+01 -4.789374828338623047e+00 1.358247399330139160e+00 2.025602340698242188e+01 6.484281063079833984e+00 -1.694707632064819336e+00
1.393000000000000000e+03 6.110137176513671875e+01 -6.772154808044433594e+00 9.164223670959472656e+00 1.541598415374755859e+01 7.374062538146972656e+00 -1.251814842224121094e+00
1.394000000000000000e+03 6.075557708740234375e+01 -6.710996150970458984e+00 1.041363048553466797e+01 1.668874549865722656e+01 8.130712509155273438e+00 -1.336272716522216797e+00
1.395000000000000000e+03 6.023259735107421875e+01 -4.892265319824218750e+00 3.111246347427368164e+00 1.967375183105468750e+01 6.835499763488769531e+00 1.026268720626831055e+00
1.396000000000000000e+03 6.073536300659179688e+01 -5.478971481323242188e+00 7.360177516937255859e+00 1.766135978698730469e+01 7.506461143493652344e+00 2.517372846603393555e+00
1.397000000000000000e+03 6.122495269775390625e+01 -5.753884792327880859e+00 8.096269607543945312e+00 1.510771274566650391e+01 6.961194515228271484e+00 1.670051097869873047e+00
1.398000000000000000e+03 5.967010116577148438e+01 -7.987539291381835938e+00 1.286049962043762207e+00 2.033504867553710938e+01 6.486329555511474609e+00 1.894813179969787598e+00
1.399000000000000000e+03 5.596672439575195312e+01 -8.660979270935058594e+00 9.157688021659851074e-01 1.547780036926269531e+00 7.390646338462829590e-01 2.313237190246582031e+00
1.400000000000000000e+03 5.351997756958007812e+01 -3.716070413589477539e+00 -6.256121993064880371e-01 4.674270451068878174e-01 -4.745555296540260315e-02 -8.667272925376892090e-01
1.401000000000000000e+03 5.720418930053710938e+01 -3.988021373748779297e+00 1.921727776527404785e+00 4.281768798828125000e+00 1.861048936843872070e+00 -4.431116580963134766e+00
1.402000000000000000e+03 5.463311767578125000e+01 -3.637032747268676758e+00 1.306415200233459473e-01 9.356757998466491699e-01 3.198952078819274902e-01 -1.511997222900390625e+00
1.403000000000000000e+03 5.284900665283203125e+01 -3.553719043731689453e+00 -8.299584984779357910e-01 3.972552120685577393e-01 -1.298109889030456543e-01 -6.718825101852416992e-01
1.404000000000000000e+03 2.166150474548339844e+01 -1.422176718711853027e+00 -1.025085374712944031e-01 -2.079270780086517334e-01 -9.313068538904190063e-02 2.322444766759872437e-01
1.405000000000000000e+03 2.099759483337402344e+01 -2.252622604370117188e+00 -6.756624579429626465e-02 -1.588944196701049805e-01 -6.793820112943649292e-02 1.521760672330856323e-01
1.406000000000000000e+03 5.056037521362304688e+01 -4.003269672393798828e+00 -1.857463717460632324e+00 9.289033710956573486e-02 -5.293720364570617676e-01 -8.576150238513946533e-02
1.407000000000000000e+03 2.416626739501953125e+01 -3.495052099227905273e+00 -2.457204163074493408e-01 -7.921438664197921753e-02 -9.748043864965438843e-02 2.389871180057525635e-01
1.408000000000000000e+03 2.602460861206054688e+01 -4.236222267150878906e+00 -3.807002007961273193e-01 -3.657801821827888489e-02 -1.251834630966186523e-01 2.411050796508789062e-01
1.409000000000000000e+03 1.767575454711914062e+01 -8.446134567260742188e+00 -1.244783401489257812e-01 -9.389940649271011353e-02 -6.551332771778106689e-02 -1.201109513640403748e-01
1.410000000000000000e+03 3.035450744628906250e+01 -4.270409107208251953e+00 -7.801177501678466797e-01 9.139780304394662380e-04 -2.337611317634582520e-01 2.974683046340942383e-01
1.411000000000000000e+03 2.681761360168457031e+01 -3.603554725646972656e+00 -4.440070092678070068e-01 -4.384802654385566711e-02 -1.463565081357955933e-01 3.113828897476196289e-01
1.412000000000000000e+03 3.881120920181274414e+00 2.712232112884521484e+00 -2.738020557444542646e-04 -4.009097465313971043e-04 -2.024135465035215020e-04 1.575113856233656406e-04
1.413000000000000000e+03 4.592365264892578125e+00 2.664948225021362305e+00 1.509546418674290180e-04 5.621149903163313866e-04 2.139208809239789844e-04 3.564892904250882566e-05
1.414000000000000000e+03 6.012165069580078125e+00 2.595020771026611328e+00 5.924823562963865697e-05 7.158393855206668377e-04 2.325262903468683362e-04 1.436646707588806748e-04
1.415000000000000000e+03 5.281950473785400391e+00 3.380841016769409180e+00 1.931238366523757577e-04 6.852973601780831814e-04 2.635263663250952959e-04 6.420700083253905177e-05
1.416000000000000000e+03 5.977655410766601562e+00 3.326526165008544922e+00 -8.346492541022598743e-05 -6.768672610633075237e-04 -2.280996559420600533e-04 -7.998228829819709063e-05
1.417000000000000000e+03 1.029753494262695312e+01 2.613905668258666992e+00 3.554817812982946634e-04 5.842812242917716503e-04 2.819288929458707571e-04 5.349062848836183548e-04
1.418000000000000000e+03 7.352638244628906250e+00 3.314322233200073242e+00 -1.019100600387901068e-04 -8.831794839352369308e-04 -2.955268719233572483e-04 -3.117005981039255857e-04
1.419000000000000000e+03 6.668563365936279297e+00 3.308394670486450195e+00 1.013666551443748176e-04 9.116271394304931164e-04 3.038981230929493904e-04 2.431490138405933976e-04
1.420000000000000000e+03 4.588035106658935547e+00 3.463657140731811523e+00 -2.471737097948789597e-04 -4.547684802673757076e-04 -2.105826570186764002e-04 6.996362208155915141e-05
1.421000000000000000e+03 1.866722702980041504e+00 2.675773620605468750e+00 1.054339008987881243e-04 2.428110019536688924e-04 1.044734672177582979e-04 2.329177659703418612e-04
1.422000000000000000e+03 1.020704078674316406e+01 3.388737440109252930e+00 -3.849403001368045807e-04 -8.515149238519370556e-04 -3.709365846589207649e-04 -8.566507021896541119e-04
1.423000000000000000e+03 2.295814895629882812e+01 -3.187056303024291992e+00 -1.725452393293380737e-01 -1.040291413664817810e-01 -8.297231793403625488e-02 2.107527554035186768e-01
1.424000000000000000e+03 2.543932151794433594e+01 -3.582473754882812500e+00 -3.396660089492797852e-01 -5.917628109455108643e-02 -1.196526885032653809e-01 2.765872180461883545e-01
1.425000000000000000e+03 2.235126686096191406e+01 -2.918716430664062500e+00 -1.374086141586303711e-01 -1.196198537945747375e-01 -7.710853964090347290e-02 1.957332789897918701e-01
1.426000000000000000e+03 2.171504402160644531e+01 -2.603744745254516602e+00 -1.052337661385536194e-01 -1.388981938362121582e-01 -7.323958724737167358e-02 1.797471195459365845e-01
1.427000000000000000e+03 2.129213333129882812e+01 -3.377716302871704102e+00 -7.731955498456954956e-02 -9.706157445907592773e-02 -5.231433734297752380e-02 1.159743145108222961e-01
1.428000000000000000e+03 9.555931091308593750e+00 -2.490975618362426758e+00 -5.768544724560342729e-05 -2.499982947483658791e-04 -9.230511932400986552e-05 -1.408633979735895991e-04
1.429000000000000000e+03 2.824575042724609375e+01 -3.608982086181640625e+00 -5.645483136177062988e-01 -2.507439255714416504e-02 -1.768868118524551392e-01 3.382322788238525391e-01
1.430000000000000000e+03 3.182737922668457031e+01 -4.250572204589843750e+00 -9.308785200119018555e-01 8.919306099414825439e-03 -2.765877544879913330e-01 3.038422465324401855e-01
1.431000000000000000e+03 3.114961433410644531e+01 -3.572704315185546875e+00 -8.234230875968933105e-01 3.080555936321616173e-03 -2.461027652025222778e-01 3.688033819198608398e-01
1.432000000000000000e+03 1.156116485595703125e+01 -3.559774398803710938e+00 -1.190973416669294238e-04 -2.221460745204240084e-04 -1.023730292217805982e-04 2.668680645001586527e-05
1.433000000000000000e+03 1.095842647552490234e+01 -2.634979009628295898e+00 -5.722419518860988319e-05 -2.683163911569863558e-04 -9.766217408468946815e-05 1.575463284098077565e-05
1.434000000000000000e+03 1.122053527832031250e+01 -4.385479927062988281e+00 1.647905737627297640e-04 1.045437602442689240e-05 5.257348675513640046e-05 6.620546628255397081e-05
1.435000000000000000e+03 4.659122467041015625e+01 -9.671573638916015625e+00 -1.729960083961486816e+00 6.668571382761001587e-02 -4.989823102951049805e-01 -1.252837777137756348e-01
1.436000000000000000e+03 4.442689132690429688e+01 -9.033783912658691406e+00 -2.065001010894775391e+00 1.815794222056865692e-02 -6.140529513359069824e-01 -2.123730927705764771e-01
1.437000000000000000e+03 4.665687942504882812e+01 -8.980979919433593750e+00 -2.070654392242431641e+00 3.504793718457221985e-02 -6.106818914413452148e-01 -1.521634459495544434e-01
1.438000000000000000e+03 4.882096481323242188e+01 -9.613250732421875000e+00 -1.555934667587280273e+00 1.183674037456512451e-01 -4.312701821327209473e-01 2.962198108434677124e-02
1.439000000000000000e+03 1.257341194152832031e+01 -2.802887678146362305e+00 -2.389642322668805718e-04 -1.036784960888326168e-04 -1.027928155963309109e-04 3.266752901254221797e-05
1.440000000000000000e+03 4.431893920898437500e+01 -1.044829273223876953e+01 -1.503096103668212891e+00 5.841604247689247131e-02 -4.334039986133575439e-01 -1.980528831481933594e-01
1.441000000000000000e+03 4.145315170288085938e+01 -9.100811958312988281e+00 -1.965146541595458984e+00 5.170985590666532516e-03 -5.879926681518554688e-01 -2.523172199726104736e-01
1.442000000000000000e+03 3.262461090087890625e+01 -3.546737194061279297e+00 -9.588554501533508301e-01 1.257623080164194107e-02 -2.838837802410125732e-01 3.741240203380584717e-01
1.443000000000000000e+03 5.030525588989257812e+01 -9.575860977172851562e+00 -1.325686573982238770e+00 1.827549487352371216e-01 -3.428795039653778076e-01 2.000643014907836914e-01
1.444000000000000000e+03 3.411656570434570312e+01 -3.516949176788330078e+00 -1.095715165138244629e+00 1.866282150149345398e-02 -3.231157064437866211e-01 3.735978305339813232e-01
1.445000000000000000e+03 5.255588150024414062e+01 -8.824286460876464844e+00 -1.267032980918884277e+00 2.052792608737945557e-01 -3.185261189937591553e-01 3.931481242179870605e-01
1.446000000000000000e+03 5.308067703247070312e+01 -9.443828582763671875e+00 -5.234521627426147461e-01 4.976986646652221680e-01 -7.726048119366168976e-03 8.286043405532836914e-01
1.447000000000000000e+03 4.066998672485351562e+01 -9.828919410705566406e+00 -1.709894657135009766e+00 8.867240510880947113e-03 -5.103082060813903809e-01 -2.839226126670837402e-01
1.448000000000000000e+03 3.847864532470703125e+01 -9.189454078674316406e+00 -1.800077795982360840e+00 -6.149719469249248505e-03 -5.418682694435119629e-01 -2.714105546474456787e-01
1.449000000000000000e+03 4.591297531127929688e+01 -8.998515129089355469e+00 -2.078112125396728516e+00 2.946042641997337341e-02 -6.145955324172973633e-01 -1.770632714033126831e-01
1.450000000000000000e+03 4.437053680419921875e+01 -9.739974975585937500e+00 -1.773702025413513184e+00 3.248377144336700439e-02 -5.223654508590698242e-01 -2.109708786010742188e-01
1.451000000000000000e+03 4.214856338500976562e+01 -9.792450904846191406e+00 -1.752190113067626953e+00 1.729621365666389465e-02 -5.204681754112243652e-01 -2.612706124782562256e-01
1.452000000000000000e+03 4.889283752441406250e+01 -8.932986259460449219e+00 -1.961435675621032715e+00 6.798340380191802979e-02 -5.680356621742248535e-01 -4.493878781795501709e-02
1.453000000000000000e+03 4.733333206176757812e+01 -9.650451660156250000e+00 -1.690261960029602051e+00 7.908947020769119263e-02 -4.833517670631408691e-01 -8.278793841600418091e-02
1.454000000000000000e+03 4.956478500366210938e+01 -9.595355987548828125e+00 -1.455191016197204590e+00 1.508361846208572388e-01 -3.913064301013946533e-01 1.062004342675209045e-01
1.455000000000000000e+03 4.807674407958984375e+01 -9.631035804748535156e+00 -1.633104205131530762e+00 9.902095049619674683e-02 -4.602249562740325928e-01 -3.224445134401321411e-02
1.456000000000000000e+03 3.916686248779296875e+01 -1.131919574737548828e+01 -1.274474382400512695e+00 1.519988477230072021e-02 -3.777823746204376221e-01 -3.318650126457214355e-01
1.457000000000000000e+03 3.919300079345703125e+01 -9.880177497863769531e+00 -1.647646546363830566e+00 -2.032025222433730960e-04 -4.943549335002899170e-01 -2.993708550930023193e-01
1.458000000000000000e+03 5.103697586059570312e+01 -9.553627014160156250e+00 -1.165718793869018555e+00 2.398355007171630859e-01 -2.777650058269500732e-01 3.119197189807891846e-01
1.459000000000000000e+03 5.366294479370117188e+01 -9.473634719848632812e+00 -1.672195643186569214e-01 7.094514369964599609e-01 1.626695692539215088e-01 1.165915131568908691e+00
1.460000000000000000e+03 5.750904846191406250e+01 -8.773655891418457031e+00 1.994841933250427246e+00 5.579462528228759766e+00 2.272291183471679688e+00 4.912018299102783203e+00
1.461000000000000000e+03 5.488560104370117188e+01 -9.202316284179687500e+00 3.140915334224700928e-01 1.083859443664550781e+00 4.193852841854095459e-01 1.709474682807922363e+00
1.462000000000000000e+03 3.704643249511718750e+01 -4.125172615051269531e+00 -1.471914649009704590e+00 1.757984235882759094e-02 -4.363004267215728760e-01 2.947130799293518066e-01
1.463000000000000000e+03 3.490909576416015625e+01 -2.809995412826538086e+00 -1.081018447875976562e+00 2.470253221690654755e-02 -3.168947696685791016e-01 4.304145574569702148e-01
1.464000000000000000e+03 3.623313140869140625e+01 -9.261171340942382812e+00 -1.652978181838989258e+00 -1.443087775260210037e-02 -5.002227425575256348e-01 -2.764172554016113281e-01
1.465000000000000000e+03 3.769620895385742188e+01 -1.065585994720458984e+01 -1.403013467788696289e+00 -3.216148354113101959e-03 -4.218688607215881348e-01 -3.361297845840454102e-01
1.466000000000000000e+03 3.770849609375000000e+01 -9.935037612915039062e+00 -1.573815107345581055e+00 -6.198281422257423401e-03 -4.740040004253387451e-01 -3.101189434528350830e-01
1.467000000000000000e+03 4.986128616333007812e+01 -3.353491783142089844e+00 -1.513224720954895020e+00 1.362170279026031494e-01 -4.131022989749908447e-01 -1.183164194226264954e-01
1.468000000000000000e+03 5.136009216308593750e+01 -3.418414115905761719e+00 -1.222823858261108398e+00 2.237993478775024414e-01 -2.997073531150817871e-01 -3.380340039730072021e-01
1.469000000000000000e+03 3.859746932983398438e+01 -3.402315139770507812e+00 -1.474910616874694824e+00 2.365426346659660339e-02 -4.353769123554229736e-01 3.463508486747741699e-01
1.470000000000000000e+03 4.079442596435546875e+01 -4.029860973358154297e+00 -1.813818573951721191e+00 1.438593771308660507e-02 -5.398297905921936035e-01 2.664467394351959229e-01
1.471000000000000000e+03 4.154642486572265625e+01 -4.012295246124267578e+00 -1.871675491333007812e+00 1.483759470283985138e-02 -5.570513606071472168e-01 2.579566836357116699e-01
1.472000000000000000e+03 4.009114837646484375e+01 -3.366985082626342773e+00 -1.580345869064331055e+00 2.394664660096168518e-02 -4.669197499752044678e-01 3.282530903816223145e-01
1.473000000000000000e+03 4.905826950073242188e+01 -3.968353748321533203e+00 -2.020030260086059570e+00 5.649789050221443176e-02 -5.890597105026245117e-01 3.564469143748283386e-02
1.474000000000000000e+03 4.760543060302734375e+01 -3.289078474044799805e+00 -1.717351078987121582e+00 7.248546183109283447e-02 -4.934596717357635498e-01 8.681263774633407593e-02
1.475000000000000000e+03 4.605340957641601562e+01 -3.947794198989868164e+00 -2.088054895401000977e+00 2.449149452149868011e-02 -6.190690398216247559e-01 1.716115176677703857e-01
1.476000000000000000e+03 4.910643386840820312e+01 -3.325830936431884766e+00 -1.604293704032897949e+00 1.106389462947845459e-01 -4.480964243412017822e-01 -3.309013694524765015e-02
1.477000000000000000e+03 4.309315872192382812e+01 -3.297044754028320312e+00 -1.731045722961425781e+00 3.013291582465171814e-02 -5.102738738059997559e-01 2.729031741619110107e-01
1.478000000000000000e+03 4.159314727783203125e+01 -3.329621553421020508e+00 -1.667327404022216797e+00 2.543249912559986115e-02 -4.925684630870819092e-01 3.045967221260070801e-01
1.479000000000000000e+03 4.234413146972656250e+01 -3.312711715698242188e+00 -1.702826976776123047e+00 2.788078412413597107e-02 -5.024838447570800781e-01 2.895942926406860352e-01
1.480000000000000000e+03 4.459959030151367188e+01 -3.275563716888427734e+00 -1.766206264495849609e+00 3.737052530050277710e-02 -5.186507105827331543e-01 2.289841473102569580e-01
1.481000000000000000e+03 4.384521102905273438e+01 -3.283951997756958008e+00 -1.752571463584899902e+00 3.346915543079376221e-02 -5.157306790351867676e-01 2.521885633468627930e-01
1.482000000000000000e+03 5.210996246337890625e+01 -3.467957496643066406e+00 -1.042989611625671387e+00 2.869309484958648682e-01 -2.268175929784774780e-01 -4.901139736175537109e-01
1.483000000000000000e+03 3.784706115722656250e+01 -3.420980930328369141e+00 -1.417074084281921387e+00 2.397571131587028503e-02 -4.179295003414154053e-01 3.534320592880249023e-01
1.484000000000000000e+03 3.470748901367187500e+01 -1.003506660461425781e+01 -1.400710940361022949e+00 -1.717419736087322235e-02 -4.253655374050140381e-01 -3.229168951511383057e-01
1.485000000000000000e+03 3.246153259277343750e+01 -9.373388290405273438e+00 -1.373897194862365723e+00 -1.953329890966415405e-02 -4.180291593074798584e-01 -2.760702073574066162e-01
1.486000000000000000e+03 3.395346069335937500e+01 -1.006004333496093750e+01 -1.352703332901000977e+00 -2.107626572251319885e-02 -4.121339023113250732e-01 -3.236170411109924316e-01
1.487000000000000000e+03 3.319652175903320312e+01 -1.008784866333007812e+01 -1.303183913230895996e+00 -2.008839882910251617e-02 -3.969816863536834717e-01 -3.255555331707000732e-01
1.488000000000000000e+03 3.545833587646484375e+01 -1.001062297821044922e+01 -1.447026848793029785e+00 -1.683470606803894043e-02 -4.391584694385528564e-01 -3.201521337032318115e-01
1.489000000000000000e+03 4.084063720703125000e+01 -3.348076105117797852e+00 -1.626431465148925781e+00 2.476629242300987244e-02 -4.804995357990264893e-01 3.167586028575897217e-01
1.490000000000000000e+03 4.685140228271484375e+01 -3.278187513351440430e+00 -1.747937440872192383e+00 5.955496430397033691e-02 -5.065147280693054199e-01 1.305848062038421631e-01
1.491000000000000000e+03 1.359046840667724609e+01 5.011390686035156250e+00 -1.393383136019110680e-03 -4.556508210953325033e-04 -5.547101609408855438e-04 -9.192168945446610451e-04
1.492000000000000000e+03 9.455515861511230469e+00 3.377454996109008789e+00 2.493408392183482647e-04 1.075823442079126835e-03 3.975492727477103472e-04 6.048494833521544933e-04
1.493000000000000000e+03 1.264376640319824219e+01 4.118461132049560547e+00 -1.328830840066075325e-03 -2.523578295949846506e-04 -4.743566096294671297e-04 -1.218539779074490070e-03
1.494000000000000000e+03 1.260319137573242188e+01 3.308260679244995117e+00 1.289172447286546230e-03 -3.278931253589689732e-04 2.883838023990392685e-04 4.655555239878594875e-04
1.495000000000000000e+03 3.089956092834472656e+01 -1.016785240173339844e+01 -1.144043803215026855e+00 -2.313907630741596222e-02 -3.501548767089843750e-01 -3.294533789157867432e-01
1.496000000000000000e+03 3.167103767395019531e+01 -1.014635372161865234e+01 -1.198186159133911133e+00 -2.164684236049652100e-02 -3.659498989582061768e-01 -3.279817104339599609e-01
1.497000000000000000e+03 3.012872695922851562e+01 -1.018291568756103516e+01 -1.090170979499816895e+00 -2.065948769450187683e-02 -3.332491219043731689e-01 -3.289070129394531250e-01
1.498000000000000000e+03 9.348640441894531250e+00 4.170397281646728516e+00 -1.238755503436550498e-04 -1.295111491344869137e-03 -4.256961110513657331e-04 -7.052027503959834576e-04
1.499000000000000000e+03 2.001190376281738281e+01 -8.467536926269531250e+00 -3.069694936275482178e-01 -5.712677724659442902e-03 -9.380465000867843628e-02 -1.794849485158920288e-01
1.500000000000000000e+03 6.699291706085205078e+00 -3.287811756134033203e+00 9.186582610709592700e-05 1.719644060358405113e-04 7.914906746009364724e-05 2.246702933916822076e-04
1.501000000000000000e+03 2.765978574752807617e+00 -6.719331264495849609e+00 -3.881658194586634636e-04 9.664844401413574815e-05 -8.745521336095407605e-05 -2.415507769910618663e-04
1.502000000000000000e+03 7.435394763946533203e+00 -4.079644680023193359e+00 2.303533256053924561e-04 8.403130050282925367e-05 9.431538637727499008e-05 3.318365488667041063e-04
1.503000000000000000e+03 8.851366996765136719e+00 -2.532694101333618164e+00 7.471377466572448611e-05 1.972911850316450000e-04 8.160148718161508441e-05 2.504347066860646009e-04
1.504000000000000000e+03 5.534021854400634766e+00 -4.024801731109619141e+00 1.750869123497977853e-04 -2.813161408994346857e-04 -3.186876710969954729e-05 -2.467495214659720659e-04
1.505000000000000000e+03 5.896028995513916016e+00 -2.588521718978881836e+00 -3.581048440537415445e-05 2.051476622000336647e-04 5.080115442979149520e-05 1.830628607422113419e-04
1.506000000000000000e+03 5.997071266174316406e+00 -3.284203052520751953e+00 -7.160138193285092711e-05 -1.160513202194124460e-04 -5.629581210087053478e-05 -2.103894366882741451e-04
1.507000000000000000e+03 4.303511619567871094e+00 -4.552691936492919922e+00 -9.279759251512587070e-05 -1.099859582609497011e-04 -6.083506377763114870e-05 -4.772717074956744909e-04
1.508000000000000000e+03 2.137147188186645508e+00 -3.199466943740844727e+00 -3.048952785320580006e-04 1.283453639189247042e-05 -8.761822391534224153e-05 -5.415676423581317067e-05
1.509000000000000000e+03 1.671709418296813965e+00 -5.283072948455810547e+00 -5.577314877882599831e-04 4.170500744749006117e-07 -1.671943173278123140e-04 -1.050698920153081417e-04
1.510000000000000000e+03 2.777521133422851562e+01 -1.016907882690429688e+01 -9.253595471382141113e-01 -1.051833666861057281e-02 -2.807633876800537109e-01 -3.290957212448120117e-01
1.511000000000000000e+03 2.857070159912109375e+01 -1.018286228179931641e+01 -9.805818200111389160e-01 -1.477992814034223557e-02 -2.986085116863250732e-01 -3.291766941547393799e-01
1.512000000000000000e+03 2.697744750976562500e+01 -1.014914321899414062e+01 -8.688447475433349609e-01 -3.614416811615228653e-03 -2.617377638816833496e-01 -3.279200792312622070e-01
1.513000000000000000e+03 2.150470352172851562e+01 -8.886392593383789062e+00 -4.546003937721252441e-01 1.824695430696010590e-02 -1.309060305356979370e-01 -2.302318066358566284e-01
1.514000000000000000e+03 2.383852958679199219e+01 -9.875611305236816406e+00 -6.541352272033691406e-01 2.078630775213241577e-02 -1.900046914815902710e-01 -3.126137852668762207e-01
1.515000000000000000e+03 2.126692771911621094e+01 -9.659417152404785156e+00 -4.711368381977081299e-01 7.136802654713392258e-03 -1.392000019550323486e-01 -2.882004380226135254e-01
1.516000000000000000e+03 2.462870025634765625e+01 -9.957941055297851562e+00 -7.101737856864929199e-01 1.414787210524082184e-02 -2.088077664375305176e-01 -3.177781403064727783e-01
1.517000000000000000e+03 2.540586280822753906e+01 -1.004634189605712891e+01 -7.621206045150756836e-01 9.042213670909404755e-03 -2.259235233068466187e-01 -3.227109611034393311e-01
1.518000000000000000e+03 1.902550506591796875e+01 -1.391715049743652344e+01 -4.843736588954925537e-01 -1.128750070929527283e-01 -1.791746020317077637e-01 -4.130920469760894775e-01
1.519000000000000000e+03 2.012120056152343750e+01 -2.125501394271850586e+00 -3.219928964972496033e-02 -1.438243985176086426e-01 -5.280710384249687195e-02 1.057870462536811829e-01
1.520000000000000000e+03 2.214552688598632812e+01 -9.808343887329101562e+00 -5.348575711250305176e-01 1.820925623178482056e-02 -1.549945026636123657e-01 -3.038348257541656494e-01
1.521000000000000000e+03 2.302022743225097656e+01 -9.828704833984375000e+00 -5.962682962417602539e-01 2.086685225367546082e-02 -1.726204305887222290e-01 -3.092902898788452148e-01
1.522000000000000000e+03 2.071017646789550781e+01 2.403482913970947266e+00 -9.683042019605636597e-02 -5.505909919738769531e-01 -1.942264288663864136e-01 3.521488308906555176e-01
1.523000000000000000e+03 2.085017585754394531e+01 4.916922092437744141e+00 -1.926639676094055176e-01 -7.925972342491149902e-01 -2.955783605575561523e-01 4.982144534587860107e-01
1.524000000000000000e+03 1.863818931579589844e+01 -8.411991119384765625e+00 -1.974446177482604980e-01 -6.115103885531425476e-02 -7.757870107889175415e-02 -1.617374122142791748e-01
1.525000000000000000e+03 1.800505447387695312e+01 -1.004760551452636719e+01 -2.829263508319854736e-01 -1.362059563398361206e-01 -1.257396936416625977e-01 -2.649272680282592773e-01
1.526000000000000000e+03 1.089663696289062500e+01 9.064167022705078125e+00 4.997965297661721706e-04 3.316777991130948067e-03 1.144972280599176884e-03 1.247111358679831028e-03
1.527000000000000000e+03 1.113629150390625000e+01 1.064170837402343750e+01 1.939870184287428856e-03 3.646253840997815132e-03 1.675837207585573196e-03 2.343948930501937866e-03
1.528000000000000000e+03 1.337497138977050781e+01 6.170098304748535156e+00 1.711197313852608204e-03 6.683614919893443584e-04 7.138676592148840427e-04 1.118117128498852253e-03
1.529000000000000000e+03 6.037350177764892578e+00 -1.446815299987792969e+01 7.722338195890188217e-03 -3.771479707211256027e-03 1.185257453471422195e-03 -1.547400746494531631e-02
1.530000000000000000e+03 6.663887977600097656e+00 -1.331276702880859375e+01 -1.286294311285018921e-03 1.091550197452306747e-02 2.888762392103672028e-03 -5.576859693974256516e-03
1.531000000000000000e+03 1.912372779846191406e+01 1.102453899383544922e+01 -5.421057939529418945e-01 -1.427419185638427734e+00 -5.908575057983398438e-01 7.295076251029968262e-01
1.532000000000000000e+03 2.098211860656738281e+01 7.768955707550048828e+00 -3.672278821468353271e-01 -9.568594098091125488e-01 -3.972261846065521240e-01 6.520893573760986328e-01
1.533000000000000000e+03 1.077169704437255859e+01 -3.350000619888305664e+00 5.861945828655734658e-05 1.673172664595767856e-04 6.778101669624447823e-05 1.058289781212806702e-04
1.534000000000000000e+03 8.436247825622558594e+00 -2.030704879760742188e+01 -3.231312036514282227e-01 -2.492827624082565308e-01 -1.717242002487182617e-01 -3.821010291576385498e-01
1.535000000000000000e+03 7.799635887145996094e+00 -1.879102325439453125e+01 -3.161354660987854004e-01 -4.508936405181884766e-02 -1.083674505352973938e-01 -1.773053258657455444e-01
1.536000000000000000e+03 1.010983180999755859e+01 4.177405834197998047e+00 2.706293307710438967e-04 1.362183131277561188e-03 4.898437764495611191e-04 8.012005127966403961e-04
1.537000000000000000e+03 3.902051448822021484e-01 3.801427602767944336e+00 2.166078629670664668e-04 -5.737351239076815546e-05 4.777030335390008986e-05 1.546038838569074869e-04
1.538000000000000000e+03 1.001514244079589844e+01 -6.142764568328857422e+00 2.645482600200921297e-04 -3.423884918447583914e-04 -2.335207318537868559e-05 1.478474441682919860e-04
1.539000000000000000e+03 1.557523059844970703e+01 -2.006575012207031250e+01 -2.555896639823913574e-01 -3.416904211044311523e-01 -1.791840195655822754e-01 -3.430270254611968994e-01
1.540000000000000000e+03 1.587963294982910156e+01 -1.682302284240722656e+01 -4.482597708702087402e-01 -3.166079223155975342e-01 -2.294602990150451660e-01 -3.939034342765808105e-01
1.541000000000000000e+03 9.561310768127441406e+00 -1.988864898681640625e+01 -2.958617806434631348e-01 -4.166614711284637451e-01 -2.137569785118103027e-01 -4.287398159503936768e-01
1.542000000000000000e+03 1.988120651245117188e+01 -1.611270755529403687e-01 -2.577173523604869843e-02 -2.837639451026916504e-01 -9.286070615053176880e-02 1.521408855915069580e-01
1.543000000000000000e+03 2.064989089965820312e+01 -1.106607055664062500e+01 -4.857660233974456787e-01 -2.253126539289951324e-02 -1.524891853332519531e-01 -3.639277517795562744e-01
1.544000000000000000e+03 1.341446495056152344e+01 3.118272542953491211e+00 -7.248569745570421219e-04 8.431014721281826496e-04 3.547334563336335123e-05 3.119676548521965742e-04
1.545000000000000000e+03 3.558077812194824219e+00 2.178095436096191406e+01 -8.843013644218444824e-02 -1.258510202169418335e-01 -6.428434699773788452e-02 1.318495124578475952e-01
1.546000000000000000e+03 7.704127502441406250e+01 -3.649147415161132812e+01 -4.611254110932350159e-02 8.594859123229980469e+00 2.564624071121215820e+00 -5.336159840226173401e-02
1.547000000000000000e+03 7.716003417968750000e+01 -3.493601608276367188e+01 -3.534771502017974854e-02 8.573123931884765625e+00 2.561332702636718750e+00 -6.897370517253875732e-02
1.548000000000000000e+03 7.569004058837890625e+01 -2.180014228820800781e+01 -1.317158639430999756e-01 7.790936946868896484e+00 2.297766208648681641e+00 -6.014980673789978027e-01
1.549000000000000000e+03 7.797277069091796875e+01 -2.777276992797851562e+01 -2.583678998053073883e-02 8.379032135009765625e+00 2.505958557128906250e+00 -1.824974119663238525e-01
1.550000000000000000e+03 7.543206024169921875e+01 1.973734664916992188e+01 -7.306608557701110840e-02 8.147389411926269531e+00 2.422297000885009766e+00 1.238001808524131775e-01
1.551000000000000000e+03 7.764656829833984375e+01 3.576866912841796875e+01 -1.262616273015737534e-02 8.537596702575683594e+00 2.557491064071655273e+00 -9.973256848752498627e-03
1.552000000000000000e+03 7.635992431640625000e+01 3.312256622314453125e+01 -1.494103111326694489e-02 8.282389640808105469e+00 2.480234622955322266e+00 -1.014467980712652206e-02
1.553000000000000000e+03 7.679257202148437500e+01 -2.341991615295410156e+01 -7.581565529108047485e-02 7.917742729187011719e+00 2.352578163146972656e+00 -4.288147389888763428e-01
1.554000000000000000e+03 7.648540496826171875e+01 -3.039292907714843750e+01 -5.476909130811691284e-02 8.330830574035644531e+00 2.482818365097045898e+00 -1.879633814096450806e-01
1.555000000000000000e+03 7.663777160644531250e+01 -2.906830024719238281e+01 -6.424581259489059448e-02 8.298975944519042969e+00 2.470419168472290039e+00 -2.262180447578430176e-01
1.556000000000000000e+03 7.490238189697265625e+01 -3.660400009155273438e+01 -6.216908246278762817e-02 8.234294891357421875e+00 2.451637983322143555e+00 -9.253519028425216675e-02
1.557000000000000000e+03 7.537550354003906250e+01 -2.471934318542480469e+01 -1.414171457290649414e-01 7.980261325836181641e+00 2.351653099060058594e+00 -4.742084443569183350e-01
1.558000000000000000e+03 7.661445617675781250e+01 -2.631430053710937500e+01 -7.223266363143920898e-02 8.149051666259765625e+00 2.423045635223388672e+00 -3.199855685234069824e-01
1.559000000000000000e+03 7.669496917724609375e+01 -2.486672401428222656e+01 -8.270822465419769287e-02 8.043556213378906250e+00 2.388254404067993164e+00 -3.758112490177154541e-01
1.560000000000000000e+03 7.612508392333984375e+01 -3.174460411071777344e+01 -5.731837078928947449e-02 8.328263282775878906e+00 2.481283426284790039e+00 -1.668165475130081177e-01
1.561000000000000000e+03 7.567026519775390625e+01 -3.320101928710937500e+01 -5.191936716437339783e-02 8.285892486572265625e+00 2.470191717147827148e+00 -1.377630382776260376e-01
1.562000000000000000e+03 7.521993255615234375e+01 -3.482022476196289062e+01 -7.944402843713760376e-02 8.244941711425781250e+00 2.449649333953857422e+00 -1.154976189136505127e-01
1.563000000000000000e+03 7.561714172363281250e+01 -4.051496124267578125e+01 -9.180136956274509430e-03 8.468927383422851562e+00 2.537924289703369141e+00 -6.929080188274383545e-02
1.564000000000000000e+03 7.797913360595703125e+01 2.239505386352539062e+01 -1.417415030300617218e-02 8.573470115661621094e+00 2.567788839340209961e+00 3.889903426170349121e-02
1.565000000000000000e+03 7.667213439941406250e+01 2.107147789001464844e+01 -3.381605073809623718e-02 8.344031333923339844e+00 2.493064641952514648e+00 7.681746035814285278e-02
1.566000000000000000e+03 7.528886413574218750e+01 2.245991134643554688e+01 -5.880461260676383972e-02 8.152815818786621094e+00 2.428203344345092773e+00 6.308579444885253906e-02
1.567000000000000000e+03 7.666097259521484375e+01 1.412798690795898438e+01 -7.366010546684265137e-02 8.113726615905761719e+00 2.412019729614257812e+00 2.779709994792938232e-01
1.568000000000000000e+03 7.798200225830078125e+01 1.264336204528808594e+01 -3.183832764625549316e-02 8.110402107238769531e+00 2.423569202423095703e+00 2.319684624671936035e-01
1.569000000000000000e+03 7.521237182617187500e+01 8.501236915588378906e+00 -1.549644321203231812e-01 7.729839324951171875e+00 2.272462368011474609e+00 6.444547772407531738e-01
1.570000000000000000e+03 7.658477783203125000e+01 2.381736946105957031e+01 -3.074450604617595673e-02 8.361774444580078125e+00 2.499309062957763672e+00 3.455773368477821350e-02
1.571000000000000000e+03 7.791419219970703125e+01 2.655793380737304688e+01 -6.088087335228919983e-03 8.588866233825683594e+00 2.574833393096923828e+00 5.891504697501659393e-03
1.572000000000000000e+03 7.659857177734375000e+01 1.273409271240234375e+01 -8.191512525081634521e-02 8.024149894714355469e+00 2.382670640945434570e+00 3.399099409580230713e-01
1.573000000000000000e+03 7.817230224609375000e+01 -2.071031570434570312e+01 -2.666810527443885803e-02 7.571979045867919922e+00 2.263593196868896484e+00 -3.494654893875122070e-01
1.574000000000000000e+03 7.689342498779296875e+01 -2.198201751708984375e+01 -7.241389900445938110e-02 7.772725582122802734e+00 2.310093402862548828e+00 -4.761928021907806396e-01
1.575000000000000000e+03 7.798340606689453125e+01 3.060360717773437500e+01 -1.786497654393315315e-03 8.581831932067871094e+00 2.574013471603393555e+00 1.201345468871295452e-03
1.576000000000000000e+03 7.644298553466796875e+01 2.803345298767089844e+01 -6.186090409755706787e-03 8.338822364807128906e+00 2.499790906906127930e+00 -5.196606740355491638e-03
1.577000000000000000e+03 7.663127136230468750e+01 8.505239486694335938e+00 -8.413262665271759033e-02 7.659867763519287109e+00 2.272720575332641602e+00 5.243782401084899902e-01
1.578000000000000000e+03 7.496719360351562500e+01 -1.617406272888183594e+01 -2.793948911130428314e-02 7.365571498870849609e+00 2.201289653778076172e+00 -8.908575177192687988e-01
1.579000000000000000e+03 7.698804473876953125e+01 -2.055609321594238281e+01 -6.551273912191390991e-02 7.600868225097656250e+00 2.260606765747070312e+00 -5.258266329765319824e-01
1.580000000000000000e+03 7.604573059082031250e+01 -8.227961540222167969e+00 2.987456023693084717e-01 6.323737144470214844e+00 1.986744761466979980e+00 -2.600046694278717041e-01
1.581000000000000000e+03 7.829659271240234375e+01 -1.378869247436523438e+01 1.871772482991218567e-02 6.247526168823242188e+00 1.879873156547546387e+00 -3.907958269119262695e-01
1.582000000000000000e+03 7.571157073974609375e+01 -1.244801878929138184e+00 2.052766829729080200e-01 6.670628070831298828e+00 2.062771320343017578e+00 6.458508968353271484e-01
1.583000000000000000e+03 7.715510559082031250e+01 -8.232863426208496094e+00 1.677132695913314819e-01 5.931353569030761719e+00 1.829720020294189453e+00 -2.038155496120452881e-01
1.584000000000000000e+03 7.577884674072265625e+01 1.571612000465393066e+00 5.257387459278106689e-02 6.979099273681640625e+00 2.109502077102661133e+00 7.874203324317932129e-01
1.585000000000000000e+03 7.603056335449218750e+01 3.670595550537109375e+01 -1.721355877816677094e-02 8.233504295349121094e+00 2.464887142181396484e+00 6.787526421248912811e-03
1.586000000000000000e+03 7.739929962158203125e+01 3.694385147094726562e+01 -2.963373437523841858e-02 8.532776832580566406e+00 2.550943136215209961e+00 -2.013430930674076080e-02
1.587000000000000000e+03 7.672100830078125000e+01 1.969890022277832031e+01 -3.925179690122604370e-02 8.326737403869628906e+00 2.486245632171630859e+00 1.019800305366516113e-01
1.588000000000000000e+03 7.804232025146484375e+01 7.069756031036376953e+00 -2.889868989586830139e-02 7.400808811187744141e+00 2.211573123931884766e+00 3.884870707988739014e-01
1.589000000000000000e+03 7.681941223144531250e+01 5.704565048217773438e+00 -5.549093708395957947e-02 7.310997009277343750e+00 2.176651954650878906e+00 6.112331151962280273e-01
1.590000000000000000e+03 7.818186950683593750e+01 -1.315020203590393066e+00 4.690125212073326111e-02 5.865250587463378906e+00 1.773645520210266113e+00 3.382411301136016846e-01
1.591000000000000000e+03 7.697962188720703125e+01 -2.674529314041137695e+00 1.477666944265365601e-01 6.132894992828369141e+00 1.884198546409606934e+00 4.008613824844360352e-01
1.592000000000000000e+03 7.717099761962890625e+01 -9.601619720458984375e+00 1.434888839721679688e-01 6.024698257446289062e+00 1.850456118583679199e+00 -3.361879587173461914e-01
1.593000000000000000e+03 7.714698028564453125e+01 -1.641216468811035156e+01 -1.265093963593244553e-02 6.980750560760498047e+00 2.090429782867431641e+00 -6.113017797470092773e-01
1.594000000000000000e+03 7.613194274902343750e+01 3.546455383300781250e+01 -2.108639478683471680e-02 8.269733428955078125e+00 2.474594116210937500e+00 -3.118561347946524620e-03
1.595000000000000000e+03 7.450122833251953125e+01 3.506872940063476562e+01 -1.842385344207286835e-02 7.950918674468994141e+00 2.379748582839965820e+00 -1.894479803740978241e-02
1.596000000000000000e+03 7.633900451660156250e+01 3.181180191040039062e+01 -4.701240104623138905e-04 8.300355911254882812e+00 2.489965677261352539e+00 -9.975738823413848877e-03
1.597000000000000000e+03 7.676344299316406250e+01 1.831163787841796875e+01 -5.000415816903114319e-02 8.297240257263183594e+00 2.474170923233032227e+00 1.355804055929183960e-01
1.598000000000000000e+03 7.800054168701171875e+01 8.463083267211914062e+00 -3.389982506632804871e-02 7.615068435668945312e+00 2.274350643157958984e+00 3.538792431354522705e-01
1.599000000000000000e+03 7.657260131835937500e+01 9.911535263061523438e+00 -8.943918347358703613e-02 7.799356460571289062e+00 2.312975168228149414e+00 4.655362665653228760e-01
1.600000000000000000e+03 7.716589355468750000e+01 -1.505661487579345703e+01 1.410814374685287476e-02 6.761434555053710938e+00 2.032662868499755859e+00 -6.090906858444213867e-01
1.601000000000000000e+03 7.712860870361328125e+01 -6.858957767486572266e+00 1.828345060348510742e-01 5.894493579864501953e+00 1.823198318481445312e+00 -5.472640693187713623e-02
1.602000000000000000e+03 7.781034851074218750e+01 3.451519393920898438e+01 -1.938236132264137268e-02 8.545720100402832031e+00 2.557901382446289062e+00 -1.627722755074501038e-02
1.603000000000000000e+03 7.815503692626953125e+01 2.877083301544189453e+00 1.146775088272988796e-03 6.627415180206298828e+00 1.988568544387817383e+00 4.365660846233367920e-01
1.604000000000000000e+03 7.696280670166015625e+01 1.524974465370178223e+00 3.716875612735748291e-02 6.678002834320068359e+00 2.014551639556884766e+00 6.304004788398742676e-01
1.605000000000000000e+03 7.695744323730468750e+01 -1.276702523231506348e+00 1.116374060511589050e-01 6.291715145111083984e+00 1.921005845069885254e+00 5.055904388427734375e-01
1.606000000000000000e+03 7.824592590332031250e+01 -5.494046688079833984e+00 7.848070561885833740e-02 5.435069561004638672e+00 1.654065132141113281e+00 7.016548514366149902e-02
1.607000000000000000e+03 7.708531188964843750e+01 -5.474084854125976562e+00 1.910300999879837036e-01 5.919112205505371094e+00 1.833042740821838379e+00 1.037690192461013794e-01
1.608000000000000000e+03 7.702956390380859375e+01 -4.075715065002441406e+00 1.764164716005325317e-01 6.000930309295654297e+00 1.853204011917114258e+00 2.621409595012664795e-01
1.609000000000000000e+03 7.718813323974609375e+01 -1.233793449401855469e+01 7.986440509557723999e-02 6.339987754821777344e+00 1.925955772399902344e+00 -5.285484790802001953e-01
1.610000000000000000e+03 7.718274688720703125e+01 -1.097043132781982422e+01 1.136585175991058350e-01 6.163393497467041016e+00 1.883115649223327637e+00 -4.460593461990356445e-01
1.611000000000000000e+03 7.607023620605468750e+01 -9.580864906311035156e+00 2.558403611183166504e-01 6.398762702941894531e+00 1.996380805969238281e+00 -4.255932867527008057e-01
1.612000000000000000e+03 7.706578826904296875e+01 -1.915293502807617188e+01 -5.111739784479141235e-02 7.405300140380859375e+00 2.206254720687866211e+00 -5.649372935295104980e-01
1.613000000000000000e+03 7.604629516601562500e+01 -1.628969764709472656e+01 -1.979523897171020508e-02 7.170792579650878906e+00 2.145299196243286133e+00 -7.682792544364929199e-01
1.614000000000000000e+03 7.506691932678222656e+00 1.308886909484863281e+01 -3.751865820959210396e-03 8.149760775268077850e-03 1.319368486292660236e-03 7.224008906632661819e-03
1.615000000000000000e+03 1.151331233978271484e+01 8.069321632385253906e+00 -5.859444499947130680e-04 -2.680689096450805664e-03 -9.799899999052286148e-04 -1.456072786822915077e-03
1.616000000000000000e+03 1.299888134002685547e+01 7.326160907745361328e+00 -1.802361803129315376e-03 -1.528272056020796299e-03 -9.991901461035013199e-04 -1.450808253139257431e-03
1.617000000000000000e+03 1.845785140991210938e+01 1.436673545837402344e+01 -7.179979681968688965e-01 -1.323285460472106934e+00 -6.123850345611572266e-01 7.479630708694458008e-01
1.618000000000000000e+03 1.834977626800537109e+00 2.745536994934082031e+01 -1.149593503214418888e-03 -4.078017771244049072e-01 -1.226854100823402405e-01 1.480959355831146240e-01
1.619000000000000000e+03 3.431276559829711914e+00 3.005784606933593750e+01 2.269131317734718323e-02 -5.910612940788269043e-01 -1.705109924077987671e-01 2.279351800680160522e-01
1.620000000000000000e+03 1.774940490722656250e+00 2.604420280456542969e+01 -3.465128131210803986e-03 -3.096351921558380127e-01 -9.393009543418884277e-02 1.384827345609664917e-01
1.621000000000000000e+03 3.014881134033203125e+00 2.728191566467285156e+01 -1.365218660794198513e-03 -4.286115467548370361e-01 -1.289930343627929688e-01 2.245881706476211548e-01
1.622000000000000000e+03 6.919267177581787109e+00 2.979264068603515625e+01 7.132113724946975708e-02 -6.281126141548156738e-01 -1.670374423265457153e-01 3.633598685264587402e-01
1.623000000000000000e+03 3.618959188461303711e+00 3.148179054260253906e+01 3.455507010221481323e-02 -6.567983627319335938e-01 -1.866729855537414551e-01 2.162441760301589966e-01
1.624000000000000000e+03 3.199158430099487305e+00 2.866071319580078125e+01 1.109391078352928162e-02 -5.139455199241638184e-01 -1.508554816246032715e-01 2.303279340267181396e-01
1.625000000000000000e+03 3.723757266998291016e+00 3.436888122558593750e+01 5.121247097849845886e-02 -7.718992233276367188e-01 -2.162060141563415527e-01 1.665943562984466553e-01
1.626000000000000000e+03 3.711716651916503906e+00 3.292679977416992188e+01 4.323332011699676514e-02 -7.192645668983459473e-01 -2.028093785047531128e-01 1.961991935968399048e-01
1.627000000000000000e+03 3.435169935226440430e+00 -3.567594146728515625e+01 4.194779321551322937e-02 -6.318004727363586426e-01 -1.769558042287826538e-01 -8.805625885725021362e-02
1.628000000000000000e+03 3.939004898071289062e+00 -3.453151321411132812e+01 4.313835501670837402e-02 -5.728571414947509766e-01 -1.589156389236450195e-01 -1.248626932501792908e-01
1.629000000000000000e+03 3.698957681655883789e+00 -3.027747535705566406e+01 2.222050912678241730e-02 -4.655284285545349121e-01 -1.329923719167709351e-01 -1.718862950801849365e-01
1.630000000000000000e+03 2.151376247406005859e+00 -2.895692443847656250e+01 4.617604427039623260e-03 -4.227724373340606689e-01 -1.254464536905288696e-01 -1.186115592718124390e-01
1.631000000000000000e+03 5.036418437957763672e+00 -2.736347579956054688e+01 1.305062696337699890e-02 -3.713822066783905029e-01 -1.074994802474975586e-01 -2.360726594924926758e-01
1.632000000000000000e+03 3.025131702423095703e+00 2.312626457214355469e+01 -6.362203508615493774e-02 -1.780003011226654053e-01 -7.248669862747192383e-02 1.648065596818923950e-01
1.633000000000000000e+03 1.588724255561828613e+00 -1.342225646972656250e+01 1.208191970363259315e-03 2.847204683348536491e-03 1.216619042679667473e-03 5.397730041295289993e-03
1.634000000000000000e+03 1.748231887817382812e+00 2.044001197814941406e+01 -2.070157602429389954e-02 -1.533370185643434525e-02 -1.081058289855718613e-02 2.569800801575183868e-02
1.635000000000000000e+03 1.906083583831787109e+00 1.899200439453125000e+01 -1.442725956439971924e-02 -5.187391303479671478e-03 -5.884395446628332138e-03 5.942069459706544876e-03
1.636000000000000000e+03 5.595227718353271484e+00 1.830789375305175781e+01 -8.936896920204162598e-02 -5.128131434321403503e-02 -4.219508543610572815e-02 3.077230229973793030e-02
1.637000000000000000e+03 1.927040338516235352e+00 -1.895600128173828125e+01 -2.255664952099323273e-02 -1.467682607471942902e-02 -1.117004267871379852e-02 -1.569470390677452087e-02
1.638000000000000000e+03 3.705009222030639648e+00 -1.774431228637695312e+01 -4.157221689820289612e-02 -3.121822699904441833e-02 -2.183713391423225403e-02 -9.449895587749779224e-04
1.639000000000000000e+03 5.451054573059082031e+00 1.333568000793457031e+01 6.862228270620107651e-03 -1.288901735097169876e-02 -1.808036700822412968e-03 5.070364568382501602e-03
1.640000000000000000e+03 1.833285450935363770e+00 -2.189698791503906250e+01 -1.588754914700984955e-02 -8.726505190134048462e-02 -3.094577975571155548e-02 -6.839875876903533936e-02
1.641000000000000000e+03 6.673366069793701172e+00 -1.970547485351562500e+01 -2.069624215364456177e-01 -8.556377142667770386e-02 -8.775785565376281738e-02 -1.842241734266281128e-01
1.642000000000000000e+03 3.917996168136596680e+00 5.299201965332031250e+00 9.644165402278304100e-04 2.624399203341454268e-04 3.680569352582097054e-04 3.802244827966205776e-05
1.643000000000000000e+03 2.507215976715087891e+00 7.733617782592773438e+00 -6.376017117872834206e-04 3.164718800690025091e-04 -9.633893932914361358e-05 -1.687324693193659186e-04
1.644000000000000000e+03 4.530289649963378906e+00 1.453403186798095703e+01 1.451362017542123795e-02 -1.861118525266647339e-02 -1.229269430041313171e-03 -8.723269565962255001e-04
1.645000000000000000e+03 1.884142518043518066e+00 1.747720718383789062e+01 -7.642004173249006271e-03 5.441042128950357437e-03 -6.602884968742728233e-04 -1.067994721233844757e-02
1.646000000000000000e+03 3.493685007095336914e+00 1.998789596557617188e+01 -6.521090865135192871e-02 -6.880631297826766968e-02 -4.020516946911811829e-02 5.510625988245010376e-02
1.647000000000000000e+03 2.490955352783203125e+00 9.018207550048828125e+00 2.276491839438676834e-03 -3.262278141846763901e-06 6.819688715040683746e-04 -1.071411650627851486e-03
1.648000000000000000e+03 2.833709716796875000e+00 -4.565201759338378906e+00 -5.037182127125561237e-04 1.315165136475116014e-04 -1.116605053539387882e-04 -9.559740283293649554e-05
1.649000000000000000e+03 1.976370573043823242e+00 -4.175670146942138672e+00 5.305132945068180561e-04 -2.140291617251932621e-04 9.494524420006200671e-05 -2.132746158167719841e-04
1.650000000000000000e+03 2.741178989410400391e+00 -1.578612995147705078e+01 3.504031803458929062e-03 -1.076680980622768402e-02 -2.178833587095141411e-03 9.294942021369934082e-03
1.651000000000000000e+03 7.619663238525390625e+00 -9.284817695617675781e+00 -3.444527974352240562e-04 1.102848211303353310e-03 2.275186416227370501e-04 -4.495277535170316696e-04
1.652000000000000000e+03 3.583744287490844727e+00 -2.885731887817382812e+01 1.597955077886581421e-02 -4.127601087093353271e-01 -1.190341636538505554e-01 -1.787114143371582031e-01
1.653000000000000000e+03 4.209186553955078125e+00 -2.312521362304687500e+01 -6.093501299619674683e-02 -1.938863247632980347e-01 -7.644639909267425537e-02 -1.925523281097412109e-01
1.654000000000000000e+03 4.330960750579833984e+00 -3.776757049560546875e+01 4.331715404987335205e-02 -6.454039216041564941e-01 -1.806260347366333008e-01 -8.831334859132766724e-02
1.655000000000000000e+03 2.838520050048828125e+00 -7.976336956024169922e+00 9.785527363419532776e-04 -1.423203502781689167e-04 2.508697216399013996e-04 3.371591155882924795e-04
1.656000000000000000e+03 2.685277462005615234e+00 -3.466165542602539062e+01 2.175537310540676117e-02 -6.361077427864074707e-01 -1.843057125806808472e-01 -8.361321687698364258e-02
1.657000000000000000e+03 5.359925270080566406e+00 -3.493829345703125000e+01 7.132931053638458252e-02 -5.509559512138366699e-01 -1.438879966735839844e-01 -1.431423276662826538e-01
1.658000000000000000e+03 3.034700393676757812e+00 -2.045763969421386719e+01 -4.375691339373588562e-02 -7.655043154954910278e-02 -3.609220311045646667e-02 -7.502903789281845093e-02
1.659000000000000000e+03 1.855566978454589844e+00 -2.331082916259765625e+01 -1.468294765800237656e-02 -1.441929489374160767e-01 -4.766276851296424866e-02 -9.160321950912475586e-02
1.660000000000000000e+03 3.353462696075439453e+00 -2.603059577941894531e+01 -1.660547917708754539e-03 -3.048627376556396484e-01 -9.195698052644729614e-02 -1.781475096940994263e-01
1.661000000000000000e+03 2.642916202545166016e+00 -1.459564113616943359e+01 3.906210418790578842e-03 -6.671991664916276932e-03 -8.297344320453703403e-04 8.457649499177932739e-03
1.662000000000000000e+03 2.647888422012329102e+00 -1.342762565612792969e+01 5.438612308353185654e-03 -2.581185428425669670e-03 8.572281221859157085e-04 5.079633556306362152e-03
1.663000000000000000e+03 5.944294929504394531e+00 -9.967210769653320312e+00 1.108994401874952018e-04 1.085798139683902264e-03 3.590092528611421585e-04 -2.496700908523052931e-04
1.664000000000000000e+03 2.615403652191162109e+00 1.025352191925048828e+01 8.667708607390522957e-05 3.609210252761840820e-04 1.342794421361759305e-04 -1.829238841310143471e-03
1.665000000000000000e+03 3.234912872314453125e+00 1.287499713897705078e+01 5.628356244415044785e-03 -6.784814875572919846e-03 -3.469375369604676962e-04 -5.413138773292303085e-03
1.666000000000000000e+03 6.871023178100585938e+00 1.668591308593750000e+01 -2.118952805176377296e-03 -1.171519327908754349e-02 -4.150243941694498062e-03 1.926157064735889435e-02
1.667000000000000000e+03 5.639739036560058594e+00 1.674635887145996094e+01 -1.601394638419151306e-02 -3.886124119162559509e-02 -1.646255701780319214e-02 1.047748792916536331e-02
1.668000000000000000e+03 4.353535175323486328e+00 1.704674148559570312e+01 -1.742458157241344452e-02 -4.756016656756401062e-02 -1.949542388319969177e-02 2.046014647930860519e-03
1.669000000000000000e+03 5.364334583282470703e+00 1.536546039581298828e+01 7.545809727162122726e-03 -3.369564190506935120e-02 -7.844949141144752502e-03 7.135306019335985184e-03
1.670000000000000000e+03 7.476189136505126953e+00 1.510333919525146484e+01 -5.332166329026222229e-04 1.941386237740516663e-02 5.664194002747535706e-03 2.299318835139274597e-02
1.671000000000000000e+03 4.150579452514648438e+00 -9.315695762634277344e+00 1.842958386987447739e-03 -8.730567060410976410e-04 2.909704926423728466e-04 2.535059174988418818e-04
1.672000000000000000e+03 9.242828369140625000e+00 -7.105604171752929688e+00 -1.743561151670292020e-04 4.187443701084703207e-04 7.331647793762385845e-05 -5.985785173834301531e-05
1.673000000000000000e+03 8.370872497558593750e+00 -8.127896308898925781e+00 4.536191700026392937e-04 -6.226327386684715748e-04 -5.070407496532425284e-05 8.324506052304059267e-05
1.674000000000000000e+03 1.201248168945312500e+01 7.066970825195312500e+00 9.928855579346418381e-04 2.034525619819760323e-03 9.082233882509171963e-04 1.433767145499587059e-03
1.675000000000000000e+03 1.608755493164062500e+01 1.801410102844238281e+01 -6.811955571174621582e-01 -1.256487607955932617e+00 -5.813049674034118652e-01 6.621052026748657227e-01
1.676000000000000000e+03 2.075294494628906250e+01 1.254132390022277832e+00 -7.337395846843719482e-02 -4.313867688179016113e-01 -1.514282226562500000e-01 2.976228892803192139e-01
1.677000000000000000e+03 2.303579711914062500e+01 4.487241268157958984e+00 -2.751791775226593018e-01 -5.210632085800170898e-01 -2.388727068901062012e-01 6.288539171218872070e-01
1.678000000000000000e+03 1.936091423034667969e+01 1.323345756530761719e+01 -6.559423208236694336e-01 -1.244286656379699707e+00 -5.700687170028686523e-01 7.239943146705627441e-01
1.679000000000000000e+03 1.718840217590332031e+01 -1.420416545867919922e+01 -4.716798067092895508e-01 -2.331550717353820801e-01 -2.114504724740982056e-01 -4.044486582279205322e-01
1.680000000000000000e+03 1.649643135070800781e+01 -1.545672607421875000e+01 -4.738032221794128418e-01 -2.865859568119049072e-01 -2.281167507171630859e-01 -4.111017882823944092e-01
1.681000000000000000e+03 2.110979080200195312e+01 9.403059005737304688e+00 -4.764269590377807617e-01 -9.609717130661010742e-01 -4.312196075916290283e-01 6.908128857612609863e-01
1.682000000000000000e+03 2.142788505554199219e+01 1.334960460662841797e+01 -5.712972283363342285e-01 -7.967988252639770508e-01 -4.104288220405578613e-01 6.128198504447937012e-01
1.683000000000000000e+03 1.091551780700683594e+01 -1.957810020446777344e+01 -3.033122420310974121e-01 -4.913174510002136230e-01 -2.383889108896255493e-01 -3.486560881137847900e-01
1.684000000000000000e+03 1.407413864135742188e+01 -1.984915924072265625e+01 -2.846896350383758545e-01 -3.994144201278686523e-01 -2.052312195301055908e-01 -3.463196158409118652e-01
1.685000000000000000e+03 1.868530082702636719e+01 1.614708518981933594e+01 -6.460711956024169922e-01 -1.129967212677001953e+00 -5.328115224838256836e-01 5.951476097106933594e-01
1.686000000000000000e+03 1.293887233734130859e+01 2.131126022338867188e+01 -2.962028682231903076e-01 -9.733093976974487305e-01 -3.808536827564239502e-01 6.146730780601501465e-01
1.687000000000000000e+03 1.154754829406738281e+01 2.017497253417968750e+01 -5.822573304176330566e-01 -7.993693947792053223e-01 -4.144880175590515137e-01 6.770393848419189453e-01
1.688000000000000000e+03 5.341477394104003906e+00 -9.134363174438476562e+00 4.148322914261370897e-04 1.891255815280601382e-04 1.811873662518337369e-04 -1.161392428912222385e-03
1.689000000000000000e+03 5.304586887359619141e+00 -1.102555274963378906e+01 2.972962101921439171e-03 -1.998787047341465950e-03 2.922524872701615095e-04 -2.482034033164381981e-03
1.690000000000000000e+03 5.087100028991699219e+00 4.029728317260742188e+01 6.133599206805229187e-02 -8.508610129356384277e-01 -2.368575036525726318e-01 7.179232686758041382e-02
1.691000000000000000e+03 5.885790252685546875e+01 -8.447241783142089844e+00 1.033881545066833496e+00 1.387955284118652344e+01 4.474030494689941406e+00 5.617946147918701172e+00
1.692000000000000000e+03 5.810004425048828125e+01 -8.638763427734375000e+00 1.894953489303588867e+00 8.282073020935058594e+00 3.053107976913452148e+00 5.820476055145263672e+00
1.693000000000000000e+03 5.783152008056640625e+01 -8.307225227355957031e+00 2.559345722198486328e+00 6.095413684844970703e+00 2.596427917480468750e+00 5.533443450927734375e+00
1.694000000000000000e+03 5.803917694091796875e+01 -8.483757019042968750e+00 2.197708606719970703e+00 7.757914066314697266e+00 2.986686706542968750e+00 5.939133167266845703e+00
1.695000000000000000e+03 5.740284347534179688e+01 -8.505303382873535156e+00 2.171233892440795898e+00 4.375469684600830078e+00 1.964011073112487793e+00 4.553741931915283203e+00
1.696000000000000000e+03 5.766882324218750000e+01 -4.127998828887939453e+00 2.102500200271606445e+00 5.957750320434570312e+00 2.418075084686279297e+00 -5.163642883300781250e+00
1.697000000000000000e+03 5.837778854370117188e+01 -4.473968029022216797e+00 2.052419424057006836e+00 1.013426780700683594e+01 3.656006336212158203e+00 -6.403790473937988281e+00
1.698000000000000000e+03 5.635768890380859375e+01 -3.992096900939941406e+00 1.274951815605163574e+00 2.250994443893432617e+00 1.057783842086791992e+00 -2.946394205093383789e+00
1.699000000000000000e+03 5.862227249145507812e+01 -8.402681350708007812e+00 1.475083231925964355e+00 1.220059394836425781e+01 4.102703094482421875e+00 6.140233516693115234e+00
1.700000000000000000e+03 5.669488906860351562e+01 -4.221422195434570312e+00 1.588091850280761719e+00 2.540985822677612305e+00 1.238723278045654297e+00 -3.304096221923828125e+00
1.701000000000000000e+03 6.001266479492187500e+01 -4.520653724670410156e+00 1.287688732147216797e+00 1.879559516906738281e+01 6.024985313415527344e+00 -6.918866038322448730e-01
1.702000000000000000e+03 5.853929138183593750e+01 -4.217657566070556641e+00 1.390623569488525391e+00 1.153648853302001953e+01 3.878133535385131836e+00 -5.977608680725097656e+00
1.703000000000000000e+03 5.919036483764648438e+01 -3.945119380950927734e+00 2.939374744892120361e-01 1.477450942993164062e+01 4.520534038543701172e+00 -4.228932857513427734e+00
1.704000000000000000e+03 6.101068115234375000e+01 -7.259850978851318359e+00 7.422059535980224609e+00 1.622324562072753906e+01 7.093591690063476562e+00 -2.261314630508422852e+00
1.705000000000000000e+03 6.136038589477539062e+01 -7.316566944122314453e+00 6.876925945281982422e+00 1.502173995971679688e+01 6.569600105285644531e+00 -1.977576732635498047e+00
1.706000000000000000e+03 6.110058975219726562e+01 -7.897717952728271484e+00 4.605110168457031250e+00 1.613350105285644531e+01 6.221583366394042969e+00 -2.104081392288208008e+00
1.707000000000000000e+03 6.148854064941406250e+01 -7.548400402069091797e+00 6.001177310943603516e+00 1.482388687133789062e+01 6.247519016265869141e+00 -2.060858964920043945e+00
1.708000000000000000e+03 6.126600265502929688e+01 -7.707844734191894531e+00 5.438774108886718750e+00 1.553486633300781250e+01 6.292092323303222656e+00 -2.161242723464965820e+00
1.709000000000000000e+03 6.115225219726562500e+01 -5.357023239135742188e+00 6.435002326965332031e+00 1.567136287689208984e+01 6.631909370422363281e+00 2.129896640777587891e+00
1.710000000000000000e+03 6.116374969482421875e+01 -6.029181957244873047e+00 9.097854614257812500e+00 1.516639232635498047e+01 7.279273986816406250e+00 1.144236803054809570e+00
1.711000000000000000e+03 5.528527069091796875e+01 -9.490370750427246094e+00 6.925899982452392578e-01 1.615182757377624512e+00 6.923317909240722656e-01 2.248259782791137695e+00
1.712000000000000000e+03 5.560567855834960938e+01 -9.002151489257812500e+00 8.518835902214050293e-01 1.602470397949218750e+00 7.363061904907226562e-01 2.232723712921142578e+00
1.713000000000000000e+03 5.567838668823242188e+01 -3.802860498428344727e+00 7.485914826393127441e-01 1.583132743835449219e+00 6.995172500610351562e-01 -2.271368265151977539e+00
1.714000000000000000e+03 5.409278869628906250e+01 -3.887791872024536133e+00 -4.520603716373443604e-01 4.882158339023590088e-01 1.084663998335599899e-02 -1.001668810844421387e+00
1.715000000000000000e+03 5.349084091186523438e+01 -2.939011573791503906e+00 -1.056324318051338196e-01 7.903481125831604004e-01 2.054147124290466309e-01 -1.238555788993835449e+00
1.716000000000000000e+03 5.544985961914062500e+01 -3.520392656326293945e+00 7.420057058334350586e-01 1.629248619079589844e+00 7.113763093948364258e-01 -2.283891916275024414e+00
1.717000000000000000e+03 5.322268676757812500e+01 -2.495347976684570312e+00 -2.380362339317798615e-02 9.363456368446350098e-01 2.737625837326049805e-01 -1.292918562889099121e+00
1.718000000000000000e+03 5.292047119140625000e+01 -2.958015441894531250e+00 -3.844486176967620850e-01 6.534555554389953613e-01 8.070207387208938599e-02 -9.508588314056396484e-01
1.719000000000000000e+03 2.075671768188476562e+01 3.619321823120117188e+00 -1.373517513275146484e-01 -6.697305440902709961e-01 -2.421246916055679321e-01 4.225207269191741943e-01
1.720000000000000000e+03 2.478606414794921875e+01 -3.563028812408447266e+00 -2.898117303848266602e-01 -7.005026191473007202e-02 -1.079585924744606018e-01 2.597625553607940674e-01
1.721000000000000000e+03 2.381276512145996094e+01 -2.793546676635742188e+00 -2.279370129108428955e-01 -1.113461628556251526e-01 -1.017849594354629517e-01 2.721094787120819092e-01
1.722000000000000000e+03 2.006365203857421875e+01 -1.219654917716979980e+00 -3.701958432793617249e-02 -2.043491452932357788e-01 -7.241062074899673462e-02 1.332786381244659424e-01
1.723000000000000000e+03 2.611837577819824219e+01 -3.593622207641601562e+00 -3.881060183048248291e-01 -5.152659490704536438e-02 -1.318897902965545654e-01 2.938426733016967773e-01
1.724000000000000000e+03 2.434993743896484375e+01 -2.909286499023437500e+00 -2.588818371295928955e-01 -1.020828485488891602e-01 -1.082894057035446167e-01 2.876773476600646973e-01
1.725000000000000000e+03 2.752879333496093750e+01 -3.608393192291259766e+00 -5.033563971519470215e-01 -3.353882953524589539e-02 -1.610685735940933228e-01 3.263628780841827393e-01
1.726000000000000000e+03 2.618348503112792969e+01 -2.957993507385253906e+00 -3.903194367885589600e-01 -7.064897567033767700e-02 -1.382905244827270508e-01 3.453693389892578125e-01
1.727000000000000000e+03 8.628304481506347656e+00 4.147775173187255859e+00 1.805817737476900220e-04 1.442372216843068600e-03 4.868861869908869267e-04 4.500050854403525591e-04
1.728000000000000000e+03 2.688194465637207031e+01 -2.965646266937255859e+00 -4.446848332881927490e-01 -5.714312195777893066e-02 -1.505483835935592651e-01 3.641280233860015869e-01
1.729000000000000000e+03 2.896540641784667969e+01 -3.605086088180541992e+00 -6.273831725120544434e-01 -1.633485406637191772e-02 -1.931153982877731323e-01 3.487099707126617432e-01
1.730000000000000000e+03 9.580875396728515625e+00 -3.115659713745117188e+00 -2.164286706829443574e-05 3.244533436372876167e-04 9.084314660867676139e-05 3.054609987884759903e-04
1.731000000000000000e+03 8.942300796508789062e+00 -3.264554738998413086e+00 -1.045107273967005312e-04 -2.089728222927078605e-04 -9.404506272403523326e-05 -2.255591825814917684e-04
1.732000000000000000e+03 7.942166805267333984e+00 4.108643531799316406e+00 -2.527419746911618859e-05 -1.148782437667250633e-03 -3.522170009091496468e-04 -3.353015927132219076e-04
1.733000000000000000e+03 7.816411018371582031e+00 4.912867069244384766e+00 3.125439616269432008e-05 1.659738365560770035e-03 5.072978092357516289e-04 5.317703107721172273e-05
1.734000000000000000e+03 3.712973117828369141e+00 6.477686882019042969e+00 -2.826347772497683764e-04 -1.739509170874953270e-04 -1.369757083011791110e-04 4.647349123843014240e-05
1.735000000000000000e+03 2.425600528717041016e+00 4.920264244079589844e+00 -4.457724280655384064e-04 -2.553488884586840868e-04 -2.103363949572667480e-04 1.208683897857554257e-04
1.736000000000000000e+03 4.776756286621093750e+00 5.182908058166503906e+00 -2.719797339523211122e-05 -6.376524688675999641e-04 -1.994551275856792927e-04 2.629155351314693689e-04
1.737000000000000000e+03 3.153119802474975586e+00 3.666709661483764648e+00 -3.177639737259596586e-04 -3.724910202436149120e-04 -2.070765040116384625e-04 2.342019288334995508e-04
1.738000000000000000e+03 1.394195437431335449e+00 5.009079933166503906e+00 3.830233763437718153e-04 3.788772301049903035e-05 1.262733276234939694e-04 3.741797627299092710e-05
1.739000000000000000e+03 3.041749191284179688e+01 -3.584811210632324219e+00 -7.572575211524963379e-01 -2.303366083651781082e-03 -2.278682738542556763e-01 3.640378117561340332e-01
1.740000000000000000e+03 2.973706245422363281e+01 -2.919761419296264648e+00 -6.704234480857849121e-01 -1.509885583072900772e-02 -2.056566923856735229e-01 4.156317710876464844e-01
1.741000000000000000e+03 2.549012565612792969e+01 -2.327055692672729492e+00 -3.359736800193786621e-01 -1.044034659862518311e-01 -1.321131438016891479e-01 3.690449595451354980e-01
1.742000000000000000e+03 2.281781387329101562e+01 -2.307893037796020508e+00 -1.672924458980560303e-01 -1.461147367954254150e-01 -9.402215480804443359e-02 2.518944442272186279e-01
1.743000000000000000e+03 2.904061126708984375e+01 -1.646913886070251465e+00 -5.717857480049133301e-01 -4.209327325224876404e-02 -1.841637045145034790e-01 5.006479620933532715e-01
1.744000000000000000e+03 3.188449287414550781e+01 -3.559847831726074219e+00 -8.909886479377746582e-01 8.522141724824905396e-03 -2.647399604320526123e-01 3.724134266376495361e-01
1.745000000000000000e+03 2.976154327392578125e+01 -2.247304677963256836e+00 -6.445689797401428223e-01 -2.209498733282089233e-02 -1.999991834163665771e-01 4.679678976535797119e-01
1.746000000000000000e+03 7.439226150512695312e+00 -3.327887296676635742e+00 -1.678380212979391217e-04 -7.621231634402647614e-05 -7.321510202018544078e-05 -1.491623988840728998e-04
1.747000000000000000e+03 1.068894004821777344e+01 -5.237473964691162109e+00 -1.468372502131387591e-04 9.110340761253610253e-05 -1.672015423537231982e-05 -2.808704084600321949e-05
1.748000000000000000e+03 3.337011337280273438e+01 -3.533012390136718750e+00 -1.027682662010192871e+00 1.622248999774456024e-02 -3.034380674362182617e-01 3.743973672389984131e-01
1.749000000000000000e+03 3.193069267272949219e+01 -2.863649845123291016e+00 -8.460441231727600098e-01 7.058383896946907043e-03 -2.516957223415374756e-01 4.332345426082611084e-01
1.750000000000000000e+03 2.901668930053710938e+01 -2.940110206604003906e+00 -6.125336885452270508e-01 -2.474374696612358093e-02 -1.911832243204116821e-01 4.054003953933715820e-01
1.751000000000000000e+03 3.486197662353515625e+01 -3.498586177825927734e+00 -1.163166165351867676e+00 2.079939283430576324e-02 -3.427100181579589844e-01 3.716731369495391846e-01
1.752000000000000000e+03 4.579200363159179688e+01 -1.038740825653076172e+01 -1.460024356842041016e+00 8.846635371446609497e-02 -4.114673733711242676e-01 -1.286010593175888062e-01
1.753000000000000000e+03 4.210226058959960938e+01 -1.050140571594238281e+01 -1.519250750541687012e+00 3.007082827389240265e-02 -4.467539787292480469e-01 -2.654233276844024658e-01
1.754000000000000000e+03 4.726724243164062500e+01 -1.033293533325195312e+01 -1.367381215095520020e+00 1.301447749137878418e-01 -3.711709082126617432e-01 -2.661738917231559753e-02
1.755000000000000000e+03 4.279094696044921875e+01 -1.120544624328613281e+01 -1.286689162254333496e+00 5.979504063725471497e-02 -3.680682480335235596e-01 -2.351123839616775513e-01
1.756000000000000000e+03 4.948634719848632812e+01 -1.028532314300537109e+01 -1.082586646080017090e+00 2.348259389400482178e-01 -2.543282210826873779e-01 2.183369398117065430e-01
1.757000000000000000e+03 5.022075271606445312e+01 -1.027499198913574219e+01 -9.383753538131713867e-01 3.002802431583404541e-01 -1.914285272359848022e-01 3.422864973545074463e-01
1.758000000000000000e+03 4.063595962524414062e+01 -1.053667831420898438e+01 -1.500561118125915527e+00 1.711832731962203979e-02 -4.450328350067138672e-01 -2.977294027805328369e-01
1.759000000000000000e+03 5.166591262817382812e+01 -1.024174690246582031e+01 -5.601928830146789551e-01 4.938589334487915039e-01 -1.990018039941787720e-02 6.688914895057678223e-01
1.760000000000000000e+03 3.420348358154296875e+01 -2.136417627334594727e+00 -9.509726166725158691e-01 2.540708892047405243e-02 -2.776696681976318359e-01 4.838625788688659668e-01
1.761000000000000000e+03 3.635355377197265625e+01 -3.459536075592041016e+00 -1.293787360191345215e+00 2.309072948992252350e-02 -3.812089860439300537e-01 3.648708164691925049e-01
1.762000000000000000e+03 5.237370681762695312e+01 -1.020581340789794922e+01 -3.389437198638916016e-01 6.207333803176879883e-01 8.453689515590667725e-02 8.915341496467590332e-01
1.763000000000000000e+03 3.990548324584960938e+01 -1.056469058990478516e+01 -1.481737256050109863e+00 1.257546432316303253e-02 -4.407485127449035645e-01 -3.108618557453155518e-01
1.764000000000000000e+03 5.061211776733398438e+01 -3.384549140930175781e+00 -1.392122626304626465e+00 1.706988811492919922e-01 -3.664271235466003418e-01 -2.109679728746414185e-01
1.765000000000000000e+03 4.061083602905273438e+01 -1.124350547790527344e+01 -1.303786873817443848e+00 3.590347617864608765e-02 -3.803650438785552979e-01 -3.045474588871002197e-01
1.766000000000000000e+03 4.288968658447265625e+01 -9.776559829711914062e+00 -1.764331936836242676e+00 1.964099146425724030e-02 -5.234072804450988770e-01 -2.468645274639129639e-01
1.767000000000000000e+03 4.585016632080078125e+01 -9.694071769714355469e+00 -1.755425095558166504e+00 5.234709009528160095e-02 -5.109233856201171875e-01 -1.590137034654617310e-01
1.768000000000000000e+03 4.505577087402343750e+01 -1.041897583007812500e+01 -1.485501527786254883e+00 7.013817876577377319e-02 -4.246090054512023926e-01 -1.648219376802444458e-01
1.769000000000000000e+03 4.800671768188476562e+01 -1.031259822845458984e+01 -1.295311212539672852e+00 1.547032594680786133e-01 -3.421823680400848389e-01 3.952296078205108643e-02
1.770000000000000000e+03 4.874695205688476562e+01 -1.029767131805419922e+01 -1.200257182121276855e+00 1.931856870651245117e-01 -3.021214604377746582e-01 1.208121776580810547e-01
1.771000000000000000e+03 3.993207168579101562e+01 -9.852871894836425781e+00 -1.680814743041992188e+00 2.061369130387902260e-03 -5.036259889602661133e-01 -2.920606136322021484e-01
1.772000000000000000e+03 5.175417327880859375e+01 -9.522763252258300781e+00 -9.755947589874267578e-01 3.012148737907409668e-01 -2.023139595985412598e-01 4.551488459110260010e-01
1.773000000000000000e+03 3.695918273925781250e+01 -9.961322784423828125e+00 -1.534062504768371582e+00 -1.087534055113792419e-02 -4.634813666343688965e-01 -3.136774003505706787e-01
1.774000000000000000e+03 3.843757247924804688e+01 -1.062748050689697266e+01 -1.430625081062316895e+00 1.759306294843554497e-03 -4.286597073078155518e-01 -3.292989730834960938e-01
1.775000000000000000e+03 5.011845016479492188e+01 -1.099863147735595703e+01 -6.160075068473815918e-01 4.291134476661682129e-01 -5.606821179389953613e-02 4.792481362819671631e-01
1.776000000000000000e+03 3.709893035888671875e+01 -3.440222978591918945e+00 -1.356188774108886719e+00 2.334061823785305023e-02 -3.998544514179229736e-01 3.599111139774322510e-01
1.777000000000000000e+03 3.568913650512695312e+01 -2.101021766662597656e+00 -1.043340325355529785e+00 3.387646749615669250e-02 -3.028391599655151367e-01 4.737493097782135010e-01
1.778000000000000000e+03 3.620837402343750000e+01 -9.986300468444824219e+00 -1.490964412689208984e+00 -1.168825849890708923e-02 -4.507957994937896729e-01 -3.185065090656280518e-01
1.779000000000000000e+03 3.694824218750000000e+01 -1.140423488616943359e+01 -1.212950468063354492e+00 1.453870936529710889e-04 -3.638415038585662842e-01 -3.663429021835327148e-01
1.780000000000000000e+03 5.460886764526367188e+01 -9.780043601989746094e+00 4.289747774600982666e-01 1.366027951240539551e+00 5.385007858276367188e-01 1.828606128692626953e+00
1.781000000000000000e+03 5.416852951049804688e+01 -9.594851493835449219e+00 1.002664938569068909e-01 9.604520797729492188e-01 3.182155787944793701e-01 1.458634257316589355e+00
1.782000000000000000e+03 3.416473388671875000e+01 -2.827591896057128906e+00 -1.024408578872680664e+00 2.200052887201309204e-02 -3.007224202156066895e-01 4.329768121242523193e-01
1.783000000000000000e+03 1.098751926422119141e+01 3.386823892593383789e+00 5.975427920930087566e-04 6.607723189517855644e-04 3.774945216719061136e-04 7.854650029912590981e-04
1.784000000000000000e+03 1.166997241973876953e+01 5.017608642578125000e+00 -5.771890282630920410e-04 -1.463064691051840782e-03 -6.120761390775442123e-04 -1.659366651438176632e-03
1.785000000000000000e+03 3.934535598754882812e+01 -3.384769439697265625e+00 -1.529848217964172363e+00 2.412907965481281281e-02 -4.517157673835754395e-01 3.373530507087707520e-01
1.786000000000000000e+03 3.565343093872070312e+01 -2.791319847106933594e+00 -1.136682033538818359e+00 2.749637886881828308e-02 -3.327556848526000977e-01 4.261232018470764160e-01
1.787000000000000000e+03 4.839001083374023438e+01 -2.642165660858154297e+00 -1.312234759330749512e+00 1.556665450334548950e-01 -3.469704389572143555e-01 -3.929775580763816833e-02
1.788000000000000000e+03 3.863689804077148438e+01 -2.720141887664794922e+00 -1.334939837455749512e+00 3.370843455195426941e-02 -3.903694152832031250e-01 3.941259980201721191e-01
1.789000000000000000e+03 4.835595321655273438e+01 -3.304869413375854492e+00 -1.670379638671875000e+00 9.012410044670104980e-02 -4.740766882896423340e-01 3.066933341324329376e-02
1.790000000000000000e+03 4.609928131103515625e+01 -3.272737503051757812e+00 -1.765228986740112305e+00 5.016399919986724854e-02 -5.145194530487060547e-01 1.696536689996719360e-01
1.791000000000000000e+03 4.312274932861328125e+01 -2.609421491622924805e+00 -1.500118255615234375e+00 5.119875445961952209e-02 -4.346758425235748291e-01 2.909578680992126465e-01
1.792000000000000000e+03 4.162427520751953125e+01 -2.646022796630859375e+00 -1.469831705093383789e+00 4.123173654079437256e-02 -4.285799860954284668e-01 3.355554938316345215e-01
1.793000000000000000e+03 4.763771057128906250e+01 -2.617950439453125000e+00 -1.376602530479431152e+00 1.258021444082260132e-01 -3.752401173114776611e-01 3.144890815019607544e-02
1.794000000000000000e+03 4.535034561157226562e+01 -3.272065877914428711e+00 -1.771049141883850098e+00 4.306652769446372986e-02 -5.183947682380676270e-01 2.007930427789688110e-01
1.795000000000000000e+03 4.538432312011718750e+01 -2.584745168685913086e+00 -1.485935926437377930e+00 7.621966302394866943e-02 -4.229148924350738525e-01 1.905931532382965088e-01
1.796000000000000000e+03 3.639797592163085938e+01 -2.772669315338134766e+00 -1.189710140228271484e+00 2.928593941032886505e-02 -3.481272459030151367e-01 4.206652641296386719e-01
1.797000000000000000e+03 3.694680404663085938e+01 -1.068369007110595703e+01 -1.370122551918029785e+00 -4.018292762339115143e-03 -4.122422635555267334e-01 -3.452650010585784912e-01
1.798000000000000000e+03 3.394738388061523438e+01 -1.079958057403564453e+01 -1.220641851425170898e+00 -1.792440190911293030e-02 -3.715698719024658203e-01 -3.633621335029602051e-01
1.799000000000000000e+03 3.469849395751953125e+01 -1.077136421203613281e+01 -1.260021924972534180e+00 -1.830326020717620850e-02 -3.834975659847259521e-01 -3.590876460075378418e-01
1.800000000000000000e+03 4.990155792236328125e+01 -2.710840702056884766e+00 -1.123131632804870605e+00 2.359228879213333130e-01 -2.661626040935516357e-01 -2.361137419939041138e-01
1.801000000000000000e+03 4.765170288085937500e+01 -1.930699229240417480e+00 -1.070506572723388672e+00 1.997818052768707275e-01 -2.612174153327941895e-01 -3.704385831952095032e-02
1.802000000000000000e+03 3.938356781005859375e+01 -2.702778577804565430e+00 -1.376259446144104004e+00 3.483215346932411194e-02 -4.024281799793243408e-01 3.827351629734039307e-01
1.803000000000000000e+03 4.914351272583007812e+01 -2.672627449035644531e+00 -1.228069782257080078e+00 1.892490088939666748e-01 -3.116462230682373047e-01 -1.298061609268188477e-01
1.804000000000000000e+03 4.087252044677734375e+01 -2.665759801864624023e+00 -1.444144487380981445e+00 3.835286945104598999e-02 -4.217374920845031738e-01 3.538974523544311523e-01
1.805000000000000000e+03 4.688309478759765625e+01 -2.599825859069824219e+00 -1.426835536956787109e+00 1.054759547114372253e-01 -3.964078724384307861e-01 9.443642199039459229e-02
1.806000000000000000e+03 4.313470077514648438e+01 -1.916149258613586426e+00 -1.280656456947326660e+00 7.956566661596298218e-02 -3.603272438049316406e-01 2.956333458423614502e-01
1.807000000000000000e+03 4.463315200805664062e+01 -2.586633682250976562e+00 -1.499222636222839355e+00 6.579980999231338501e-02 -4.300268292427062988e-01 2.284694761037826538e-01
1.808000000000000000e+03 4.387620162963867188e+01 -2.595103025436401367e+00 -1.503747582435607910e+00 5.810832977294921875e-02 -4.336917698383331299e-01 2.626878917217254639e-01
1.809000000000000000e+03 3.619478225708007812e+01 -1.071252727508544922e+01 -1.335348367691040039e+00 -1.100904308259487152e-02 -4.039072096347808838e-01 -3.506131172180175781e-01
1.810000000000000000e+03 3.010147285461425781e+01 -1.097193241119384766e+01 -9.936672449111938477e-01 -2.148429863154888153e-02 -3.045454621315002441e-01 -3.791043758392333984e-01
1.811000000000000000e+03 3.088211059570312500e+01 -1.095043373107910156e+01 -1.039444804191589355e+00 -2.160143107175827026e-02 -3.183138668537139893e-01 -3.759992718696594238e-01
1.812000000000000000e+03 5.393737030029296875e+01 -1.015521717071533203e+01 2.503533065319061279e-01 1.145049691200256348e+00 4.186209142208099365e-01 1.581556200981140137e+00
1.813000000000000000e+03 5.349558639526367188e+01 -1.002626705169677734e+01 8.959915488958358765e-03 9.040816426277160645e-01 2.739124596118927002e-01 1.307361960411071777e+00
1.814000000000000000e+03 5.478318786621093750e+01 -1.055058670043945312e+01 6.522716283798217773e-01 2.095626831054687500e+00 8.243695497512817383e-01 2.310188531875610352e+00
1.815000000000000000e+03 3.243708419799804688e+01 -1.011847496032714844e+01 -1.250500679016113281e+00 -2.288516797125339508e-02 -3.820157647132873535e-01 -3.269964456558227539e-01
1.816000000000000000e+03 3.243369293212890625e+01 -1.087563896179199219e+01 -1.132542014122009277e+00 -2.071761339902877808e-02 -3.459778726100921631e-01 -3.702328801155090332e-01
1.817000000000000000e+03 1.082230281829833984e+01 4.975397586822509766e+00 1.342431933153420687e-04 1.850388711318373680e-03 5.953895743004977703e-04 1.195108518004417419e-03
1.818000000000000000e+03 2.771545600891113281e+01 -1.093643951416015625e+01 -8.569024801254272461e-01 -8.667038753628730774e-03 -2.596708536148071289e-01 -3.797030746936798096e-01
1.819000000000000000e+03 9.765173912048339844e+00 -4.745349407196044922e+00 1.789441448636353016e-04 -3.276529314462095499e-04 -4.461263961275108159e-05 4.473826265893876553e-05
1.820000000000000000e+03 4.666420459747314453e+00 -3.534333944320678711e+00 1.170371251646429300e-05 -1.786263601388782263e-04 -5.007679283153265715e-05 -3.417706466279923916e-04
1.821000000000000000e+03 6.598773479461669922e+00 -4.675567150115966797e+00 4.636251542251557112e-04 -5.069692997494712472e-05 1.238784607267007232e-04 4.329835355747491121e-04
1.822000000000000000e+03 8.205653190612792969e+00 -3.346851587295532227e+00 1.767868525348603725e-04 1.316138368565589190e-04 9.252021118300035596e-05 2.484183933120220900e-04
1.823000000000000000e+03 4.091368675231933594e+00 -7.951427459716796875e+00 -9.520843741483986378e-05 2.212752151535823941e-04 3.782003113883547485e-05 -3.415116516407579184e-04
1.824000000000000000e+03 3.288745641708374023e+00 -3.975714683532714844e+00 -8.776869071880355477e-05 -5.646090721711516380e-05 -4.326887938077561557e-05 -4.849038086831569672e-04
1.825000000000000000e+03 3.720425128936767578e+00 -5.620012283325195312e+00 -2.515356463845819235e-04 2.630082008181489073e-06 -7.467166869901120663e-05 -4.060681967530399561e-04
1.826000000000000000e+03 2.725105047225952148e+00 -5.564732551574707031e+00 5.054536741226911545e-04 1.006158072414109483e-05 1.546545681776478887e-04 1.500233338447287679e-04
1.827000000000000000e+03 3.166378021240234375e+01 -1.091742420196533203e+01 -1.084791898727416992e+00 -2.282702922821044922e-02 -3.322856724262237549e-01 -3.740198016166687012e-01
1.828000000000000000e+03 2.935548973083496094e+01 -1.018884754180908203e+01 -1.036666035652160645e+00 -1.933845691382884979e-02 -3.168013691902160645e-01 -3.301796615123748779e-01
1.829000000000000000e+03 2.374967193603515625e+01 -1.055121326446533203e+01 -6.404400467872619629e-01 1.779176481068134308e-02 -1.867944896221160889e-01 -3.557392358779907227e-01
1.830000000000000000e+03 2.450516700744628906e+01 -1.068066978454589844e+01 -6.831066012382507324e-01 1.671812310814857483e-02 -1.999165415763854980e-01 -3.651149570941925049e-01
1.831000000000000000e+03 5.218626403808593750e+01 -2.830701351165771484e+00 -5.797857046127319336e-01 4.845447242259979248e-01 -2.857230044901371002e-02 -7.392908334732055664e-01
1.832000000000000000e+03 5.140351486206054688e+01 -2.793632984161376953e+00 -8.171302676200866699e-01 3.748112618923187256e-01 -1.326957046985626221e-01 -5.213861465454101562e-01
1.833000000000000000e+03 2.618610000610351562e+01 -1.011240673065185547e+01 -8.153036832809448242e-01 1.444992609322071075e-03 -2.441576123237609863e-01 -3.268806934356689453e-01
1.834000000000000000e+03 2.932033348083496094e+01 -1.097462463378906250e+01 -9.483582377433776855e-01 -1.815692149102687836e-02 -2.899545431137084961e-01 -3.789444267749786377e-01
1.835000000000000000e+03 1.175338649749755859e+01 4.172161102294921875e+00 9.226228576153516769e-04 7.741547888144850731e-04 5.090332706458866596e-04 1.202292507514357567e-03
1.836000000000000000e+03 2.852507209777832031e+01 -1.095704555511474609e+01 -9.050667881965637207e-01 -1.449019834399223328e-02 -2.758671045303344727e-01 -3.799943923950195312e-01
1.837000000000000000e+03 1.794358825683593750e+01 -1.301124095916748047e+01 -4.622302949428558350e-01 -1.688071638345718384e-01 -1.893112361431121826e-01 -3.958609700202941895e-01
1.838000000000000000e+03 2.689630317687988281e+01 -1.092654323577880859e+01 -8.088774085044860840e-01 -3.741235937923192978e-03 -2.437855899333953857e-01 -3.792533576488494873e-01
1.839000000000000000e+03 1.852138328552246094e+01 -1.178614902496337891e+01 -4.272592067718505859e-01 -1.207499802112579346e-01 -1.644027531147003174e-01 -3.664681017398834229e-01
1.840000000000000000e+03 2.527748298645019531e+01 -1.082539176940917969e+01 -7.248272895812988281e-01 9.483140893280506134e-03 -2.146032452583312988e-01 -3.730368018150329590e-01
1.841000000000000000e+03 1.971995353698730469e+01 -9.121135711669921875e+00 -3.276696801185607910e-01 -2.730540931224822998e-02 -1.064925268292427063e-01 -2.267496287822723389e-01
1.842000000000000000e+03 1.884630966186523438e+01 -8.021525382995605469e+00 -1.770058721303939819e-01 -3.882414847612380981e-02 -6.474900245666503906e-02 -1.283096969127655029e-01
1.843000000000000000e+03 2.215496635437011719e+01 -1.060717487335205078e+01 -5.491626262664794922e-01 1.234644651412963867e-02 -1.610448509454727173e-01 -3.501470983028411865e-01
1.844000000000000000e+03 2.137642097473144531e+01 -1.087430572509765625e+01 -5.190957784652709961e-01 3.678723471239209175e-03 -1.546251028776168823e-01 -3.567896187305450439e-01
1.845000000000000000e+03 1.891287422180175781e+01 -1.066342067718505859e+01 -3.860797286033630371e-01 -8.529379218816757202e-02 -1.414120495319366455e-01 -3.191773295402526855e-01
1.846000000000000000e+03 1.933176422119140625e+01 -9.814927101135253906e+00 -3.512575626373291016e-01 -5.662275850772857666e-02 -1.223641037940979004e-01 -2.744530141353607178e-01
1.847000000000000000e+03 1.018240165710449219e+01 1.004270839691162109e+01 9.225201938534155488e-05 -2.870681928470730782e-03 -8.335289894603192806e-04 -8.291424601338803768e-04
1.848000000000000000e+03 1.002881240844726562e+01 8.536678314208984375e+00 6.798630929552018642e-04 -2.427755855023860931e-03 -5.243678460828959942e-04 -8.484508725814521313e-05
1.849000000000000000e+03 2.897399902343750000e+00 1.151256847381591797e+01 5.828773137181997299e-03 -8.151297224685549736e-04 1.504092942923307419e-03 -3.360567847266793251e-03
1.850000000000000000e+03 9.823951721191406250e+00 -3.636854171752929688e+00 1.237893739016726613e-04 -3.264492552261799574e-04 -6.079796730773523450e-05 5.788308044429868460e-05
1.851000000000000000e+03 6.711629390716552734e+00 1.835072898864746094e+01 -1.392758637666702271e-01 -3.249820694327354431e-02 -5.153222009539604187e-02 3.997072204947471619e-02
1.852000000000000000e+03 3.109328269958496094e+00 1.727720832824707031e+01 -1.273950841277837753e-02 -2.528048120439052582e-02 -1.140599697828292847e-02 -9.437494911253452301e-03
1.853000000000000000e+03 1.001860523223876953e+01 4.981461048126220703e+00 9.353160567115992308e-05 -1.736360602080821991e-03 -4.928486887365579605e-04 -8.915416547097265720e-04
1.854000000000000000e+03 4.048877239227294922e+00 1.097095394134521484e+01 2.608384005725383759e-03 -3.341367933899164200e-03 -2.198952133767306805e-04 -1.158231636509299278e-03
1.855000000000000000e+03 8.306941986083984375e+00 -2.525874328613281250e+01 -6.068105343729257584e-03 -3.829678297042846680e-01 -1.167107820510864258e-01 -3.284536302089691162e-01
1.856000000000000000e+03 7.657459735870361328e+00 -2.311201286315917969e+01 -9.670069813728332520e-02 -3.109101355075836182e-01 -1.222832500934600830e-01 -3.359872400760650635e-01
1.857000000000000000e+03 3.150146245956420898e+00 -1.903169631958007812e+01 -5.129016563296318054e-02 -3.829103708267211914e-02 -2.687436155974864960e-02 -4.322309046983718872e-02
1.858000000000000000e+03 6.088110923767089844e+00 -1.836726570129394531e+01 -1.783145815134048462e-01 -2.735341899096965790e-02 -6.170039996504783630e-02 -5.859369784593582153e-02
1.859000000000000000e+03 7.401546478271484375e+00 -2.106098556518554688e+01 -2.102673947811126709e-01 -1.875023692846298218e-01 -1.193309277296066284e-01 -2.943882644176483154e-01
1.860000000000000000e+03 2.227537918090820312e+01 7.609981536865234375e+00 -3.959909081459045410e-01 -7.234056591987609863e-01 -3.358189761638641357e-01 6.912016868591308594e-01
1.861000000000000000e+03 2.092472457885742188e+01 6.293234825134277344e+00 -2.626046240329742432e-01 -8.946011662483215332e-01 -3.471617400646209717e-01 5.789882540702819824e-01
1.862000000000000000e+03 2.090798950195312500e+01 1.987227499485015869e-01 -6.954532861709594727e-02 -3.366442918777465820e-01 -1.218568831682205200e-01 2.590896785259246826e-01
1.863000000000000000e+03 9.319632530212402344e+00 9.421384811401367188e+00 -5.398331559263169765e-04 2.879619132727384567e-03 7.019357872195541859e-04 4.739605628856224939e-06
1.864000000000000000e+03 1.258347129821777344e+01 5.044131755828857422e+00 1.212188624776899815e-03 7.687528268434107304e-04 5.942824645899236202e-04 1.305833691731095314e-03
1.865000000000000000e+03 2.295102310180664062e+01 -1.343561649322509766e+00 -1.734780073165893555e-01 -2.015829831361770630e-01 -1.125182956457138062e-01 3.184313476085662842e-01
1.866000000000000000e+03 8.090652465820312500e+00 -5.104520797729492188e+00 3.875128168147057295e-04 -2.745533420238643885e-04 3.388784534763544798e-05 1.815033174352720380e-04
1.867000000000000000e+03 8.486897468566894531e+00 1.201014709472656250e+01 9.284557891078293324e-04 1.152517856098711491e-03 6.242920644581317902e-04 1.814275601645931602e-04
1.868000000000000000e+03 5.804484367370605469e+00 1.124113464355468750e+01 3.351042047142982483e-03 -5.266291089355945587e-03 -5.745747475884854794e-04 2.637187717482447624e-03
1.869000000000000000e+03 1.398120594024658203e+01 2.023128509521484375e+01 -4.368855059146881104e-01 -1.078620076179504395e+00 -4.546516835689544678e-01 6.206331253051757812e-01
1.870000000000000000e+03 7.672689819335937500e+01 1.551640033721923828e+01 -6.496456265449523926e-02 8.189488410949707031e+00 2.437357187271118164e+00 2.241538316011428833e-01
1.871000000000000000e+03 7.528983306884765625e+01 1.427348136901855469e+01 -1.298615187406539917e-01 8.018244743347167969e+00 2.366514921188354492e+00 3.331773281097412109e-01
1.872000000000000000e+03 7.575065612792968750e+01 1.750891357660293579e-01 1.363052725791931152e-01 6.822491645812988281e+00 2.087639093399047852e+00 7.442585825920104980e-01
1.873000000000000000e+03 7.499179840087890625e+01 -9.589260101318359375e+00 3.892523050308227539e-01 6.730313777923583984e+00 2.135869741439819336e+00 -5.042541623115539551e-01
1.874000000000000000e+03 7.606900024414062500e+01 -1.495828819274902344e+01 2.632994577288627625e-02 6.998037338256835938e+00 2.107310295104980469e+00 -7.662703394889831543e-01
1.875000000000000000e+03 7.718077087402343750e+01 -1.369977283477783203e+01 4.563468694686889648e-02 6.544332981109619141e+00 1.976990222930908203e+00 -5.829176306724548340e-01
1.876000000000000000e+03 7.265652465820312500e+01 3.430339813232421875e+01 -4.464894067496061325e-03 7.636202812194824219e+00 2.289521455764770508e+00 -3.964626789093017578e-02
1.877000000000000000e+03 7.476367187500000000e+01 3.130493736267089844e+01 -7.694330532103776932e-03 8.026527404785156250e+00 2.405649900436401367e+00 -2.103231288492679596e-02
1.878000000000000000e+03 7.608840942382812500e+01 -1.093245601654052734e+01 2.036220431327819824e-01 6.512939453125000000e+00 2.014968395233154297e+00 -5.632337331771850586e-01
1.879000000000000000e+03 7.399609375000000000e+01 -1.223278903961181641e+01 2.897606492042541504e-01 7.226771831512451172e+00 2.254959821701049805e+00 -8.777260780334472656e-01
1.880000000000000000e+03 7.600917816162109375e+01 -6.869800567626953125e+00 3.266671001911163330e-01 6.294966697692871094e+00 1.986490130424499512e+00 -7.170813530683517456e-02
1.881000000000000000e+03 7.584576416015625000e+01 -4.095215320587158203e+00 3.251451849937438965e-01 6.413657665252685547e+00 2.021640777587890625e+00 3.310370743274688721e-01
1.882000000000000000e+03 7.601294708251953125e+01 -1.762550735473632812e+01 -5.791510641574859619e-02 7.339280128479003906e+00 2.184409618377685547e+00 -7.479210495948791504e-01
1.883000000000000000e+03 7.676793670654296875e+01 1.691264724731445312e+01 -5.670494958758354187e-02 8.252443313598632812e+00 2.458721637725830078e+00 1.760622859001159668e-01
1.884000000000000000e+03 7.543720245361328125e+01 1.563813495635986328e+01 -1.147215142846107483e-01 8.072777748107910156e+00 2.387416839599609375e+00 2.667831182479858398e-01
1.885000000000000000e+03 7.532477569580078125e+01 2.111013031005859375e+01 -5.713274329900741577e-02 8.151331901550292969e+00 2.428259849548339844e+00 9.124203026294708252e-02
1.886000000000000000e+03 7.689639282226562500e+01 4.310348987579345703e+00 -3.077307716012001038e-02 7.104464054107666016e+00 2.122107267379760742e+00 6.350851655006408691e-01
1.887000000000000000e+03 7.694455718994140625e+01 2.918549776077270508e+00 -2.764181932434439659e-03 6.892358779907226562e+00 2.066878318786621094e+00 6.425130963325500488e-01
1.888000000000000000e+03 7.510139465332031250e+01 9.948709487915039062e+00 -1.643058508634567261e-01 7.821226596832275391e+00 2.297076225280761719e+00 5.746347904205322266e-01
1.889000000000000000e+03 7.574198150634765625e+01 -2.672351360321044922e+00 2.654360532760620117e-01 6.537961483001708984e+00 2.041019201278686523e+00 5.103988647460937500e-01
1.890000000000000000e+03 7.544114685058593750e+01 -2.904466819763183594e+01 -9.801026433706283569e-02 8.168549537658691406e+00 2.421161890029907227e+00 -2.689655721187591553e-01
1.891000000000000000e+03 7.661381530761718750e+01 -2.771958541870117188e+01 -6.462866067886352539e-02 8.229423522949218750e+00 2.449438571929931641e+00 -2.699512541294097900e-01
1.892000000000000000e+03 7.420043182373046875e+01 -2.304014778137207031e+01 -2.129889577627182007e-01 7.903571605682373047e+00 2.307174921035766602e+00 -6.166806817054748535e-01
1.893000000000000000e+03 7.711746978759765625e+01 -1.777388763427734375e+01 -3.414764627814292908e-02 7.197655677795410156e+00 2.149052381515502930e+00 -5.950073599815368652e-01
1.894000000000000000e+03 7.594913482666015625e+01 -1.898286628723144531e+01 -8.856724202632904053e-02 7.503334999084472656e+00 2.224430322647094727e+00 -7.104005217552185059e-01
1.895000000000000000e+03 7.438650512695312500e+01 1.711793136596679688e+01 -1.372419893741607666e-01 7.994846343994140625e+00 2.357281208038330078e+00 2.209226489067077637e-01
1.896000000000000000e+03 7.553746795654296875e+01 1.700033950805664062e+01 -9.775996953248977661e-02 8.113340377807617188e+00 2.404674053192138672e+00 2.071527540683746338e-01
1.897000000000000000e+03 7.569397735595703125e+01 4.311807155609130859e+00 -5.617649108171463013e-02 7.306320667266845703e+00 2.175043344497680664e+00 7.866278290748596191e-01
1.898000000000000000e+03 7.539727020263671875e+01 7.078856945037841797e+00 -1.332325339317321777e-01 7.612382411956787109e+00 2.243744850158691406e+00 7.093986272811889648e-01
1.899000000000000000e+03 7.556966400146484375e+01 5.685040473937988281e+00 -9.690701216459274292e-02 7.465211868286132812e+00 2.210491418838500977e+00 7.563948035240173340e-01
1.900000000000000000e+03 7.462267303466796875e+01 2.960196971893310547e+00 -1.341287512332201004e-02 7.374539375305175781e+00 2.208338022232055664e+00 9.144337177276611328e-01
1.901000000000000000e+03 7.509612274169921875e+01 1.141696548461914062e+01 -1.643344163894653320e-01 7.901173114776611328e+00 2.321051597595214844e+00 4.906785786151885986e-01
1.902000000000000000e+03 7.352426910400390625e+01 9.955212593078613281e+00 -2.672688364982604980e-01 7.869935989379882812e+00 2.280800104141235352e+00 6.323876380920410156e-01
1.903000000000000000e+03 7.516272735595703125e+01 -2.625343322753906250e+01 -1.427803933620452881e-01 8.047359466552734375e+00 2.371373653411865234e+00 -4.018126428127288818e-01
1.904000000000000000e+03 7.551909637451171875e+01 -2.325109100341796875e+01 -1.339957565069198608e-01 7.899172306060791016e+00 2.329552888870239258e+00 -5.343098640441894531e-01
1.905000000000000000e+03 7.647414398193359375e+01 2.660420799255371094e+01 -7.110197562724351883e-03 8.346811294555664062e+00 2.501910448074340820e+00 6.117390003055334091e-03
1.906000000000000000e+03 7.392990875244140625e+01 2.251287841796875000e+01 -8.831702172756195068e-02 7.948204994201660156e+00 2.357966423034667969e+00 6.279344856739044189e-02
1.907000000000000000e+03 7.497702026367187500e+01 2.660583114624023438e+01 -1.816043071448802948e-02 8.129337310791015625e+00 2.433353185653686523e+00 4.919377621263265610e-03
1.908000000000000000e+03 7.665637207031250000e+01 3.052082443237304688e+01 -6.085562054067850113e-03 8.356133460998535156e+00 2.505014419555664062e+00 -2.757546491920948029e-03
1.909000000000000000e+03 7.446781158447265625e+01 2.918098640441894531e+01 -3.330359235405921936e-03 8.009395599365234375e+00 2.401819467544555664e+00 -1.542727183550596237e-02
1.910000000000000000e+03 7.472637176513671875e+01 -3.129123878479003906e+01 -9.282054007053375244e-02 8.135557174682617188e+00 2.412821054458618164e+00 -2.063284665346145630e-01
1.911000000000000000e+03 7.252374267578125000e+01 -3.639904785156250000e+01 -1.204240769147872925e-01 7.813062191009521484e+00 2.307791471481323242e+00 -8.738179504871368408e-02
1.912000000000000000e+03 7.515962219238281250e+01 3.371708297729492188e+01 -5.678248591721057892e-03 8.072311401367187500e+00 2.419989824295043945e+00 -1.607988029718399048e-02
1.913000000000000000e+03 7.554328918457031250e+01 3.000503730773925781e+01 -2.719694282859563828e-03 8.178444862365722656e+00 2.452717542648315430e+00 -1.278303377330303192e-02
1.914000000000000000e+03 7.443072509765625000e+01 -2.948825073242187500e+01 -1.292733997106552124e-01 8.080421447753906250e+00 2.385344505310058594e+00 -2.808241248130798340e-01
1.915000000000000000e+03 7.530548858642578125e+01 -3.012532997131347656e+01 -9.690245240926742554e-02 8.186422348022460938e+00 2.426856040954589844e+00 -2.339354604482650757e-01
1.916000000000000000e+03 3.125221252441406250e+00 1.584318828582763672e+01 2.393250120803713799e-03 -1.994411461055278778e-02 -5.265259649604558945e-03 -1.317965425550937653e-02
1.917000000000000000e+03 3.526409626007080078e+00 -1.396530628204345703e+01 6.989947985857725143e-03 -1.217729598283767700e-02 -1.556204399093985558e-03 4.071192350238561630e-03
1.918000000000000000e+03 5.493528366088867188e+00 1.972661209106445312e+01 -1.737544834613800049e-01 -7.738769054412841797e-02 -7.534265518188476562e-02 9.573282301425933838e-02
1.919000000000000000e+03 5.244934082031250000e+00 2.108922576904296875e+01 -1.750774085521697998e-01 -1.316090822219848633e-01 -9.200594574213027954e-02 1.820286959409713745e-01
1.920000000000000000e+03 4.555820465087890625e+00 -1.665351867675781250e+01 -6.825435440987348557e-03 -2.611568942666053772e-02 -9.882337413728237152e-03 -1.300162752158939838e-03
1.921000000000000000e+03 3.279354333877563477e+00 1.436004161834716797e+01 1.045628450810909271e-02 -1.247144211083650589e-02 -6.045474437996745110e-04 -8.788950741291046143e-03
1.922000000000000000e+03 4.408328533172607422e+00 1.842525863647460938e+01 -6.533826887607574463e-02 -5.821228399872779846e-02 -3.706516698002815247e-02 2.370334044098854065e-02
1.923000000000000000e+03 3.890806913375854492e+00 2.451819229125976562e+01 -5.559745058417320251e-02 -2.966715395450592041e-01 -1.056806966662406921e-01 2.501907944679260254e-01
1.924000000000000000e+03 4.832444667816162109e+00 2.974469566345214844e+01 3.951799124479293823e-02 -5.917147397994995117e-01 -1.656590253114700317e-01 2.957953512668609619e-01
1.925000000000000000e+03 5.245476722717285156e+00 -2.308496284484863281e+01 -6.335960328578948975e-02 -2.270484119653701782e-01 -8.712240308523178101e-02 -2.308868318796157837e-01
1.926000000000000000e+03 4.283673286437988281e+00 -1.307117462158203125e+01 6.155698560178279877e-03 -6.569133140146732330e-03 -1.240303827216848731e-04 -1.685340306721627712e-03
1.927000000000000000e+03 2.879461288452148438e+00 -9.308616638183593750e+00 2.188598591601476073e-04 6.448378553614020348e-05 8.500309195369482040e-05 3.588137915357947350e-04
1.928000000000000000e+03 2.861271619796752930e+00 -1.068010902404785156e+01 2.658270532265305519e-03 -1.029172097332775593e-03 4.887295071966946125e-04 1.223792438395321369e-03
1.929000000000000000e+03 5.133826255798339844e+00 -1.907420921325683594e+01 -1.276048123836517334e-01 -5.005390942096710205e-02 -5.329761654138565063e-02 -9.367250651121139526e-02
1.930000000000000000e+03 3.057594299316406250e+00 -2.322177505493164062e+01 -3.008825890719890594e-02 -1.739240884780883789e-01 -6.120370328426361084e-02 -1.394988745450973511e-01
1.931000000000000000e+03 5.457948207855224609e+00 -2.031066131591796875e+01 -1.345146894454956055e-01 -1.081828996539115906e-01 -7.280927896499633789e-02 -1.533531099557876587e-01
1.932000000000000000e+03 5.551790714263916016e+00 2.313860511779785156e+01 -1.537140607833862305e-01 -2.744310498237609863e-01 -1.284435242414474487e-01 3.220705986022949219e-01
1.933000000000000000e+03 4.015192508697509766e+00 2.575182914733886719e+01 -2.535455487668514252e-02 -3.741875588893890381e-01 -1.198626309633255005e-01 2.764115035533905029e-01
1.934000000000000000e+03 4.741365909576416016e+00 2.403856849670410156e+01 -8.438000828027725220e-02 -3.047159314155578613e-01 -1.167287826538085938e-01 2.885057926177978516e-01
1.935000000000000000e+03 3.172256469726562500e+00 -2.462146568298339844e+01 -2.109198272228240967e-02 -2.382182925939559937e-01 -7.779308408498764038e-02 -1.669651120901107788e-01
1.936000000000000000e+03 4.222957134246826172e+00 -2.178412628173828125e+01 -7.012727856636047363e-02 -1.395718604326248169e-01 -6.290973722934722900e-02 -1.494953036308288574e-01
1.937000000000000000e+03 4.365431785583496094e+00 -2.445547103881835938e+01 -2.476280368864536285e-02 -2.624267935752868652e-01 -8.615688234567642212e-02 -2.131491303443908691e-01
1.938000000000000000e+03 3.892889499664306641e+00 -3.174038887023925781e+01 3.457052633166313171e-02 -5.114493370056152344e-01 -1.430636495351791382e-01 -1.561519205570220947e-01
1.939000000000000000e+03 5.019900321960449219e+00 -2.882200050354003906e+01 2.416652999818325043e-02 -4.133147001266479492e-01 -1.167444512248039246e-01 -2.288105785846710205e-01
1.940000000000000000e+03 4.307656764984130859e+00 9.262477874755859375e+00 2.352862386032938957e-03 -1.512077054940164089e-03 2.522355935070663691e-04 -4.970155423507094383e-04
1.941000000000000000e+03 5.279685020446777344e+00 3.279110336303710938e+01 8.028017729520797729e-02 -7.007319331169128418e-01 -1.861355155706405640e-01 2.541124522686004639e-01
1.942000000000000000e+03 5.198088169097900391e+00 3.590610122680664062e+01 8.862414211034774780e-02 -7.759146094322204590e-01 -2.061871439218521118e-01 1.743049323558807373e-01
1.943000000000000000e+03 3.633706331253051758e+00 3.577107620239257812e+01 5.260097980499267578e-02 -8.296520113945007324e-01 -2.331153154373168945e-01 1.381643712520599365e-01
1.944000000000000000e+03 6.370012760162353516e+00 -1.158971405029296875e+01 -6.574965664185583591e-04 3.627692116424441338e-03 8.910587057471275330e-04 -2.103111008182168007e-03
1.945000000000000000e+03 2.815923690795898438e+00 -1.209846591949462891e+01 2.574465936049818993e-03 -1.720308209769427776e-03 2.562472946010529995e-04 3.136165672913193703e-03
1.946000000000000000e+03 4.096729278564453125e+00 -1.070983219146728516e+01 1.678713597357273102e-03 -9.788881288841366768e-04 2.099476405419409275e-04 2.317279286216944456e-04
1.947000000000000000e+03 6.098934173583984375e+00 9.337982177734375000e+00 1.238496275618672371e-03 -2.195466309785842896e-03 -2.870909811463207006e-04 8.815190522000193596e-04
1.948000000000000000e+03 3.954406261444091797e+00 -6.703241825103759766e+00 5.181012093089520931e-04 1.225242012878879905e-04 1.921876246342435479e-04 3.810685884673148394e-04
1.949000000000000000e+03 7.052452564239501953e+00 -3.112446212768554688e+01 7.255074381828308105e-02 -4.581253826618194580e-01 -1.156723871827125549e-01 -2.364896088838577271e-01
1.950000000000000000e+03 5.080833911895751953e+00 -3.011745452880859375e+01 4.122048988938331604e-02 -4.529464840888977051e-01 -1.235177963972091675e-01 -2.099085301160812378e-01
1.951000000000000000e+03 5.492796421051025391e+00 -3.158290863037109375e+01 5.066182464361190796e-02 -4.802008867263793945e-01 -1.288617104291915894e-01 -2.030631750822067261e-01
1.952000000000000000e+03 4.008243560791015625e+00 -3.320630645751953125e+01 3.393185511231422424e-02 -5.479805469512939453e-01 -1.542146056890487671e-01 -1.417035758495330811e-01
1.953000000000000000e+03 4.408003330230712891e+00 2.837715721130371094e+01 1.586540788412094116e-02 -5.211179256439208984e-01 -1.515757590532302856e-01 2.948051095008850098e-01
1.954000000000000000e+03 5.162854194641113281e+00 3.124168777465820312e+01 5.775269865989685059e-02 -6.490425467491149902e-01 -1.773869544267654419e-01 2.851429879665374756e-01
1.955000000000000000e+03 3.556425094604492188e+00 7.822057247161865234e+00 1.750318217091262341e-03 -4.762618482345715165e-05 5.108076147735118866e-04 -7.750384393148124218e-04
1.956000000000000000e+03 3.581002950668334961e+00 -4.720710754394531250e+00 2.476117806509137154e-04 1.521824015071615577e-04 1.199382459162734449e-04 4.009012773167341948e-04
1.957000000000000000e+03 6.162312984466552734e+00 6.320377826690673828e+00 1.572429784573614597e-03 5.947018507868051529e-04 6.501395255327224731e-04 -1.151274336734786630e-04
1.958000000000000000e+03 6.253363609313964844e+00 -3.616667175292968750e+01 7.854483276605606079e-02 -5.500528216361999512e-01 -1.414523869752883911e-01 -1.352082192897796631e-01
1.959000000000000000e+03 7.420610904693603516e+00 -7.380288124084472656e+00 -1.716146944090723991e-04 8.311281562782824039e-04 1.978540385607630014e-04 3.092638798989355564e-04
1.960000000000000000e+03 1.412559890747070312e+01 -1.830131721496582031e+01 -3.974998891353607178e-01 -3.988875150680541992e-01 -2.389162182807922363e-01 -3.547853231430053711e-01
1.961000000000000000e+03 1.764088439941406250e+01 -1.607033729553222656e+01 -4.557475149631500244e-01 -2.039728760719299316e-01 -1.979161202907562256e-01 -4.026018083095550537e-01
1.962000000000000000e+03 2.070694351196289062e+01 -1.188817596435546875e+01 -5.071657299995422363e-01 -2.110725454986095428e-02 -1.584818959236145020e-01 -3.912739157676696777e-01
1.963000000000000000e+03 6.582034587860107422e+00 1.985497665405273438e+01 -2.519740760326385498e-01 -4.894969239830970764e-02 -9.027712792158126831e-02 1.243130043148994446e-01
1.964000000000000000e+03 4.461985111236572266e+00 1.965364265441894531e+01 -1.023972406983375549e-01 -7.589544355869293213e-02 -5.348780378699302673e-02 6.766374409198760986e-02
1.965000000000000000e+03 1.117155933380126953e+01 -2.117938423156738281e+01 -1.834591627120971680e-01 -4.428873360157012939e-01 -1.879039555788040161e-01 -3.667806982994079590e-01
1.966000000000000000e+03 1.558554744720458984e+01 -1.839122962951660156e+01 -3.746897578239440918e-01 -3.304031789302825928e-01 -2.115278691053390503e-01 -3.652276694774627686e-01
1.967000000000000000e+03 2.259026908874511719e+01 1.242426967620849609e+01 -5.318586826324462891e-01 -6.477009057998657227e-01 -3.538678586483001709e-01 6.173160672187805176e-01
1.968000000000000000e+03 6.999726295471191406e+00 -1.046434783935546875e+01 9.437244734726846218e-04 -5.847859429195523262e-04 1.076815533451735973e-04 -5.657364963553845882e-04
1.969000000000000000e+03 8.639508247375488281e+00 2.173670768737792969e+01 -3.038720488548278809e-01 -4.180758297443389893e-01 -2.165843546390533447e-01 5.158511996269226074e-01
1.970000000000000000e+03 2.217890739440917969e+01 6.180015087127685547e+00 -3.144277334213256836e-01 -6.888756155967712402e-01 -3.009909987449645996e-01 6.478887796401977539e-01
1.971000000000000000e+03 1.826198196411132812e+01 -1.495234775543212891e+01 -4.772712290287017822e-01 -1.648964732885360718e-01 -1.926503032445907593e-01 -4.136357307434082031e-01
1.972000000000000000e+03 3.928156137466430664e+00 -1.204357910156250000e+01 5.288789980113506317e-03 -5.097536835819482803e-03 5.737604806199669838e-05 5.297521129250526428e-04
1.973000000000000000e+03 1.706651496887207031e+01 -1.871588325500488281e+01 -3.305208683013916016e-01 -2.627997398376464844e-01 -1.779961884021759033e-01 -3.700485229492187500e-01
1.974000000000000000e+03 1.722563552856445312e+01 -1.730638313293457031e+01 -4.015122950077056885e-01 -2.388145327568054199e-01 -1.920980513095855713e-01 -3.879261910915374756e-01
1.975000000000000000e+03 1.966954803466796875e+01 -1.204320240020751953e+01 -4.749891757965087891e-01 -6.771969050168991089e-02 -1.628126651048660278e-01 -3.882752358913421631e-01
1.976000000000000000e+03 1.742069816589355469e+01 1.888168525695800781e+01 -4.539000093936920166e-01 -1.092587471008300781e+00 -4.639462530612945557e-01 4.867568612098693848e-01
1.977000000000000000e+03 1.693025970458984375e+01 1.677066993713378906e+01 -7.600086331367492676e-01 -1.307657122611999512e+00 -6.202997565269470215e-01 7.000240683555603027e-01
1.978000000000000000e+03 2.201015090942382812e+01 4.808827877044677734e+00 -2.467754930257797241e-01 -6.396858096122741699e-01 -2.659384012222290039e-01 5.838544368743896484e-01
1.979000000000000000e+03 1.508678913116455078e+01 1.916320610046386719e+01 -5.952268838882446289e-01 -1.179737091064453125e+00 -5.324891805648803711e-01 6.492293477058410645e-01
1.980000000000000000e+03 2.253291320800781250e+01 9.025499343872070312e+00 -4.578797221183776855e-01 -6.776505708694458008e-01 -3.406590819358825684e-01 6.937112212181091309e-01
1.981000000000000000e+03 2.506811141967773438e+01 8.283795356750488281e+00 -4.037836492061614990e-01 -3.565018177032470703e-01 -2.280856370925903320e-01 6.997447013854980469e-01
1.982000000000000000e+03 5.704692459106445312e+01 -3.462034225463867188e+00 1.542780637741088867e+00 4.526443958282470703e+00 1.820767402648925781e+00 -4.255817890167236328e+00
1.983000000000000000e+03 5.698606872558593750e+01 -8.659063339233398438e+00 1.771540164947509766e+00 3.478828430175781250e+00 1.575110554695129395e+00 3.874061584472656250e+00
1.984000000000000000e+03 5.788047409057617188e+01 -8.539424896240234375e+00 2.152168035507202148e+00 6.976273536682128906e+00 2.738532543182373047e+00 5.596785545349121094e+00
1.985000000000000000e+03 5.795553970336914062e+01 -4.451501846313476562e+00 2.417888402938842773e+00 6.953510761260986328e+00 2.811419725418090820e+00 -5.790807247161865234e+00
1.986000000000000000e+03 5.893913650512695312e+01 -4.068694114685058594e+00 6.821960806846618652e-01 1.381509971618652344e+01 4.349188804626464844e+00 -5.120666980743408203e+00
1.987000000000000000e+03 5.966930389404296875e+01 -3.868817090988159180e+00 1.360495239496231079e-01 1.588260650634765625e+01 4.805596828460693359e+00 -2.677974462509155273e+00
1.988000000000000000e+03 5.796140289306640625e+01 -3.832995176315307617e+00 1.576124668121337891e+00 7.886267662048339844e+00 2.838717699050903320e+00 -5.405439376831054688e+00
1.989000000000000000e+03 5.931416320800781250e+01 -8.414374351501464844e+00 6.089854836463928223e-01 1.671552848815917969e+01 5.197353839874267578e+00 4.099701881408691406e+00
1.990000000000000000e+03 5.939356231689453125e+01 -8.776445388793945312e+00 2.129397094249725342e-01 1.567970466613769531e+01 4.767793178558349609e+00 3.658164262771606445e+00
1.991000000000000000e+03 5.985488128662109375e+01 -8.711750030517578125e+00 4.258426427841186523e-01 1.686968040466308594e+01 5.188657283782958984e+00 1.912431001663208008e+00
1.992000000000000000e+03 6.144830703735351562e+01 -6.837083816528320312e+00 8.135429382324218750e+00 1.440036296844482422e+01 6.760737419128417969e+00 -1.143736839294433594e+00
1.993000000000000000e+03 6.089797210693359375e+01 -5.208961486816406250e+00 5.909875869750976562e+00 1.690501594543457031e+01 6.844467639923095703e+00 2.343378543853759766e+00
1.994000000000000000e+03 6.072148513793945312e+01 -4.574458122253417969e+00 2.995225667953491211e+00 1.716711235046386719e+01 6.048701286315917969e+00 1.462115287780761719e+00
1.995000000000000000e+03 6.154038619995117188e+01 -6.318100452423095703e+00 8.338533401489257812e+00 1.396298503875732422e+01 6.690455913543701172e+00 2.173768728971481323e-01
1.996000000000000000e+03 6.152561569213867188e+01 -5.805186748504638672e+00 7.775218963623046875e+00 1.428278732299804688e+01 6.617402076721191406e+00 1.405771732330322266e+00
1.997000000000000000e+03 6.041738891601562500e+01 -4.614397525787353516e+00 2.498567581176757812e+00 1.814448928833007812e+01 6.192916870117187500e+00 8.949315547943115234e-01
1.998000000000000000e+03 5.502385330200195312e+01 -1.001907253265380859e+01 6.870835423469543457e-01 1.891293525695800781e+00 7.735131382942199707e-01 2.278771400451660156e+00
1.999000000000000000e+03 5.539574813842773438e+01 -3.985593557357788086e+00 4.297406077384948730e-01 1.155313730239868164e+00 4.755163192749023438e-01 -1.873917818069458008e+00
2.000000000000000000e+03 5.423571014404296875e+01 -2.516056060791015625e+00 3.678428232669830322e-01 1.427527785301208496e+00 5.386111736297607422e-01 -1.848712801933288574e+00
2.001000000000000000e+03 5.472282409667968750e+01 -3.362919569015502930e+00 2.953737974166870117e-01 1.257303953170776367e+00 4.658033549785614014e-01 -1.782950401306152344e+00
2.002000000000000000e+03 5.371487808227539062e+01 -2.157018899917602539e+00 2.886277437210083008e-01 1.335555076599121094e+00 4.872548580169677734e-01 -1.684243798255920410e+00
2.003000000000000000e+03 5.397380065917968750e+01 -2.926640510559082031e+00 1.309215873479843140e-01 1.016186714172363281e+00 3.441324830055236816e-01 -1.509003996849060059e+00
2.004000000000000000e+03 2.329491233825683594e+01 -2.643213272094726562e+00 -1.920368522405624390e-01 -1.256657838821411133e-01 -9.531079232692718506e-02 2.562557160854339600e-01
2.005000000000000000e+03 2.338817214965820312e+01 -1.824661970138549805e+00 -2.049215286970138550e-01 -1.635986119508743286e-01 -1.105560436844825745e-01 3.142265975475311279e-01
2.006000000000000000e+03 2.252159500122070312e+01 -8.108541369438171387e-01 -1.500280648469924927e-01 -2.455801367759704590e-01 -1.186824589967727661e-01 3.273209035396575928e-01
2.007000000000000000e+03 2.442201232910156250e+01 -1.954858303070068359e+00 -2.677112519741058350e-01 -1.386448591947555542e-01 -1.219068393111228943e-01 3.537347316741943359e-01
2.008000000000000000e+03 2.697422409057617188e+01 -1.121852636337280273e+00 -4.259198904037475586e-01 -1.011012420058250427e-01 -1.581063419580459595e-01 4.908302128314971924e-01
2.009000000000000000e+03 2.438201141357421875e+01 -5.643414855003356934e-01 -2.619177401065826416e-01 -2.028568238019943237e-01 -1.394323706626892090e-01 4.373027086257934570e-01
2.010000000000000000e+03 2.487848472595214844e+01 -2.991951704025268555e+00 -3.042166531085968018e-01 -8.472172915935516357e-02 -1.166815161705017090e-01 3.018469214439392090e-01
2.011000000000000000e+03 3.287160634994506836e+00 4.673729419708251953e+00 2.414253103779628873e-04 4.866110975854098797e-04 2.184109325753524899e-04 8.440430246992036700e-05
2.012000000000000000e+03 7.013691902160644531e+00 5.574160575866699219e+00 1.020385883748531342e-03 4.692491493187844753e-04 4.468905099201947451e-04 -5.122277652844786644e-04
2.013000000000000000e+03 6.615583896636962891e+00 4.037087917327880859e+00 -1.014656299958005548e-04 -7.610698812641203403e-04 -2.587606431916356087e-04 -1.374560670228675008e-04
2.014000000000000000e+03 5.408715724945068359e+00 4.821887493133544922e+00 2.224619383923709393e-04 7.288207416422665119e-04 2.853847981896251440e-04 3.017052076756954193e-04
2.015000000000000000e+03 2.622592544555664062e+01 -2.341540575027465820e+00 -3.912116587162017822e-01 -8.688667416572570801e-02 -1.434295028448104858e-01 3.937394917011260986e-01
2.016000000000000000e+03 5.304480552673339844e+00 4.131505489349365234e+00 -1.319580860581481829e-06 -6.747110746800899506e-04 -2.028091985266655684e-04 1.717716804705560207e-05
2.017000000000000000e+03 2.833058166503906250e+01 -2.316974163055419922e+00 -5.422945022583007812e-01 -4.538724943995475769e-02 -1.763045340776443481e-01 4.422847330570220947e-01
2.018000000000000000e+03 5.065299224853515625e+01 -2.752657413482666016e+00 -9.844802021980285645e-01 2.802188396453857422e-01 -2.112784087657928467e-01 -3.677076101303100586e-01
2.019000000000000000e+03 2.758799171447753906e+01 -2.964644908905029297e+00 -4.996578097343444824e-01 -4.583248123526573181e-02 -1.636470854282379150e-01 3.793723583221435547e-01
2.020000000000000000e+03 8.501314163208007812e+00 4.986717700958251953e+00 3.975542131229303777e-05 -1.485739834606647491e-03 -4.337953287176787853e-04 -3.986615338362753391e-04
2.021000000000000000e+03 7.272826671600341797e+00 4.066531658172607422e+00 1.672833168413490057e-04 1.131482771597802639e-03 3.896298294421285391e-04 2.062834682874381542e-04
2.022000000000000000e+03 9.261527061462402344e+00 7.988652706146240234e+00 -5.212229443714022636e-04 2.185593126341700554e-03 4.993110196664929390e-04 -3.409479977563023567e-04
2.023000000000000000e+03 4.639480590820312500e+00 4.291187763214111328e+00 4.806998767890036106e-04 5.350195569917559624e-04 3.047158243134617805e-04 -1.008825565804727376e-04
2.024000000000000000e+03 3.119577980041503906e+01 -2.877848386764526367e+00 -7.874186038970947266e-01 7.025497616268694401e-04 -2.360148280858993530e-01 4.297173023223876953e-01
2.025000000000000000e+03 2.904357147216796875e+01 -2.286089420318603516e+00 -5.932890772819519043e-01 -3.334603831171989441e-02 -1.879905313253402710e-01 4.562481641769409180e-01
2.026000000000000000e+03 2.975320434570312500e+01 -1.582104325294494629e+00 -6.156834363937377930e-01 -2.933015674352645874e-02 -1.935040652751922607e-01 5.131177306175231934e-01
2.027000000000000000e+03 3.046381187438964844e+01 -2.897057294845581055e+00 -7.284040451049804688e-01 -7.181338500231504440e-03 -2.206756025552749634e-01 4.236337244510650635e-01
2.028000000000000000e+03 3.267111968994140625e+01 -2.852486133575439453e+00 -9.057764410972595215e-01 1.330434344708919525e-02 -2.677416205406188965e-01 4.349981248378753662e-01
2.029000000000000000e+03 4.574240112304687500e+01 -1.107855796813964844e+01 -1.193318247795104980e+00 1.320789903402328491e-01 -3.183717727661132812e-01 -8.384145051240921021e-02
2.030000000000000000e+03 4.358007049560546875e+01 -1.047117614746093750e+01 -1.512336730957031250e+00 4.490751773118972778e-02 -4.402287602424621582e-01 -2.232135832309722900e-01
2.031000000000000000e+03 4.652911758422851562e+01 -1.035833835601806641e+01 -1.421922802925109863e+00 1.059598997235298157e-01 -3.947888910770416260e-01 -8.141443878412246704e-02
2.032000000000000000e+03 4.720261001586914062e+01 -1.101013183593750000e+01 -1.084153890609741211e+00 1.883250027894973755e-01 -2.687486708164215088e-01 3.905957564711570740e-02
2.033000000000000000e+03 4.424106216430664062e+01 -1.188978576660156250e+01 -1.016159772872924805e+00 1.281129419803619385e-01 -2.664140462875366211e-01 -1.387686431407928467e-01
2.034000000000000000e+03 3.422661972045898438e+01 -7.238703221082687378e-02 -7.330811023712158203e-01 4.535237699747085571e-02 -2.063186168670654297e-01 5.865736603736877441e-01
2.035000000000000000e+03 4.427478408813476562e+01 -1.116231918334960938e+01 -1.247788786888122559e+00 8.722542971372604370e-02 -3.481689989566802979e-01 -1.697144508361816406e-01
2.036000000000000000e+03 5.226572799682617188e+01 -1.101796817779541016e+01 -3.221398964524269104e-02 9.140759706497192383e-01 2.645585834980010986e-01 1.125294923782348633e+00
2.037000000000000000e+03 4.284030532836914062e+01 -1.048800754547119141e+01 -1.519708633422851562e+00 3.844441100955009460e-02 -4.443792700767517090e-01 -2.463541775941848755e-01
2.038000000000000000e+03 4.998987579345703125e+01 -1.174628257751464844e+01 -3.583843111991882324e-01 5.809168219566345215e-01 6.675976514816284180e-02 6.120712757110595703e-01
2.039000000000000000e+03 5.083867645263671875e+01 -1.100595760345458984e+01 -4.470354616641998291e-01 5.460832715034484863e-01 2.971434965729713440e-02 6.593846678733825684e-01
2.040000000000000000e+03 3.917336273193359375e+01 -1.059651184082031250e+01 -1.457993745803833008e+00 3.883673110976815224e-03 -4.362330138683319092e-01 -3.204043507575988770e-01
2.041000000000000000e+03 4.133087539672851562e+01 -1.122248077392578125e+01 -1.306277632713317871e+00 4.263743013143539429e-02 -3.790920674800872803e-01 -2.811538875102996826e-01
2.042000000000000000e+03 5.094731521606445312e+01 -1.026332473754882812e+01 -7.616184949874877930e-01 3.679140806198120117e-01 -1.181113272905349731e-01 4.888993501663208008e-01
2.043000000000000000e+03 5.155451202392578125e+01 -1.100852775573730469e+01 -2.604908347129821777e-01 6.772211194038391113e-01 1.250190883874893188e-01 8.567998409271240234e-01
2.044000000000000000e+03 3.921189498901367188e+01 -1.284697532653808594e+01 -9.211394190788269043e-01 5.651661381125450134e-02 -2.593868374824523926e-01 -3.313065469264984131e-01
2.045000000000000000e+03 3.769701004028320312e+01 -1.137758922576904297e+01 -1.237438559532165527e+00 8.311891928315162659e-03 -3.687379956245422363e-01 -3.576995134353637695e-01
2.046000000000000000e+03 4.501021575927734375e+01 -1.112338829040527344e+01 -1.224912762641906738e+00 1.095170527696609497e-01 -3.346186876296997070e-01 -1.336391419172286987e-01
2.047000000000000000e+03 4.793343353271484375e+01 -1.099296951293945312e+01 -1.000927209854125977e+00 2.299847155809402466e-01 -2.312827408313751221e-01 1.199457719922065735e-01
2.048000000000000000e+03 4.200027465820312500e+01 -1.194191074371337891e+01 -1.096488952636718750e+00 7.611502707004547119e-02 -3.061122000217437744e-01 -2.446736544370651245e-01
2.049000000000000000e+03 3.494722366333007812e+01 -2.119412422180175781e+00 -9.988184571266174316e-01 3.025810793042182922e-02 -2.905680835247039795e-01 4.794816970825195312e-01
2.050000000000000000e+03 3.843627548217773438e+01 -1.135186100006103516e+01 -1.259886503219604492e+00 9.526818990707397461e-03 -3.751078844070434570e-01 -3.432323634624481201e-01
2.051000000000000000e+03 3.714197540283203125e+01 -2.754863500595092773e+00 -1.240943431854248047e+00 3.111248277127742767e-02 -3.629492819309234619e-01 4.133732914924621582e-01
2.052000000000000000e+03 3.497384643554687500e+01 -1.425774097442626953e+00 -9.158334732055664062e-01 3.687044605612754822e-02 -2.636889219284057617e-01 5.198934078216552734e-01
2.053000000000000000e+03 3.544582366943359375e+01 -1.074221992492675781e+01 -1.298097133636474609e+00 -1.290498953312635422e-02 -3.933006227016448975e-01 -3.564266264438629150e-01
2.054000000000000000e+03 3.917748260498046875e+01 -1.206118011474609375e+01 -1.103623628616333008e+00 2.925132401287555695e-02 -3.223116993904113770e-01 -3.350386619567871094e-01
2.055000000000000000e+03 3.788787078857421875e+01 -2.737597227096557617e+00 -1.289367198944091797e+00 3.246362879872322083e-02 -3.770710825920104980e-01 4.049199521541595459e-01
2.056000000000000000e+03 5.751644134521484375e+00 -7.176886558532714844e+00 -6.149411638034507632e-05 5.155012477189302444e-04 1.362021430395543575e-04 3.439674910623580217e-04
2.057000000000000000e+03 4.237474822998046875e+01 -2.627007007598876953e+00 -1.488367438316345215e+00 4.573750868439674377e-02 -4.327889978885650635e-01 3.153900802135467529e-01
2.058000000000000000e+03 6.796849250793457031e+00 -5.317327022552490234e+00 1.622031122678890824e-04 -2.912673226092010736e-04 -3.871926674037240446e-05 -3.629584971349686384e-04
2.059000000000000000e+03 4.973314285278320312e+00 -4.297389030456542969e+00 -1.084950708900578320e-04 3.893572138622403145e-04 8.425863779848441482e-05 3.384666342753916979e-04
2.060000000000000000e+03 3.319213867187500000e+01 -1.083325481414794922e+01 -1.176916599273681641e+00 -2.134969085454940796e-02 -3.594798743724822998e-01 -3.665834665298461914e-01
2.061000000000000000e+03 3.643152236938476562e+01 -2.083600282669067383e+00 -1.086284279823303223e+00 3.750570863485336304e-02 -3.146335780620574951e-01 4.660190641880035400e-01
2.062000000000000000e+03 3.866372680664062500e+01 -2.036515712738037109e+00 -1.197873473167419434e+00 4.636196792125701904e-02 -3.454534709453582764e-01 4.315218925476074219e-01
2.063000000000000000e+03 4.012617492675781250e+01 -2.684952497482299805e+00 -1.412952184677124023e+00 3.634437546133995056e-02 -4.129823446273803711e-01 3.687175512313842773e-01
2.064000000000000000e+03 3.940757369995117188e+01 -2.018846511840820312e+00 -1.227089166641235352e+00 4.921662807464599609e-02 -3.533617556095123291e-01 4.151881933212280273e-01
2.065000000000000000e+03 4.163687896728515625e+01 -1.958413004875183105e+00 -1.280057191848754883e+00 6.199043989181518555e-02 -3.654200136661529541e-01 3.543034493923187256e-01
2.066000000000000000e+03 4.237842941284179688e+01 -1.239798903465270996e+00 -1.092378497123718262e+00 1.000601053237915039e-01 -2.976955175399780273e-01 3.272683024406433105e-01
2.067000000000000000e+03 4.540290451049804688e+01 -1.883445143699645996e+00 -1.219001531600952148e+00 1.205290034413337708e-01 -3.295417726039886475e-01 1.628834158182144165e-01
2.068000000000000000e+03 4.464916610717773438e+01 -1.886969685554504395e+00 -1.248506069183349609e+00 1.050127744674682617e-01 -3.430479764938354492e-01 2.137325704097747803e-01
2.069000000000000000e+03 4.613169860839843750e+01 -2.588923215866088867e+00 -1.462241649627685547e+00 8.801595121622085571e-02 -4.122676849365234375e-01 1.455585509538650513e-01
2.070000000000000000e+03 4.840744781494140625e+01 -1.965259552001953125e+00 -9.913796782493591309e-01 2.380628734827041626e-01 -2.259950488805770874e-01 -1.299553066492080688e-01
2.071000000000000000e+03 4.689749908447265625e+01 -1.904391050338745117e+00 -1.130646705627441406e+00 1.649324148893356323e-01 -2.897142767906188965e-01 3.991450369358062744e-02
2.072000000000000000e+03 3.396120071411132812e+01 -1.155117797851562500e+01 -1.090750217437744141e+00 -1.643822714686393738e-02 -3.321565389633178711e-01 -3.936933577060699463e-01
2.073000000000000000e+03 3.619656753540039062e+01 -1.144003200531005859e+01 -1.184857606887817383e+00 -2.158294897526502609e-03 -3.561047613620758057e-01 -3.767957091331481934e-01
2.074000000000000000e+03 4.088868713378906250e+01 -1.979480266571044922e+00 -1.268972992897033691e+00 5.672677233815193176e-02 -3.636738657951354980e-01 3.773381710052490234e-01
2.075000000000000000e+03 4.388928985595703125e+01 -1.898413538932800293e+00 -1.268868207931518555e+00 9.117332845926284790e-02 -3.533084690570831299e-01 2.576248347759246826e-01
2.076000000000000000e+03 4.614903640747070312e+01 -1.888735413551330566e+00 -1.180230855941772461e+00 1.411055177450180054e-01 -3.117375969886779785e-01 1.062209233641624451e-01
2.077000000000000000e+03 2.929136657714843750e+01 -1.179316806793212891e+01 -8.635540008544921875e-01 -1.718270592391490936e-02 -2.642210125923156738e-01 -4.224771559238433838e-01
2.078000000000000000e+03 4.916629409790039062e+01 -2.005787849426269531e+00 -8.950378894805908203e-01 2.955447733402252197e-01 -1.798479259014129639e-01 -2.375955134630203247e-01
2.079000000000000000e+03 4.917301177978515625e+01 -1.325824737548828125e+00 -6.139100193977355957e-01 4.128961861133575439e-01 -6.030414998531341553e-02 -3.551930487155914307e-01
2.080000000000000000e+03 6.703431606292724609e+00 -3.985169410705566406e+00 -2.698712341953068972e-04 7.201953121693804860e-05 -5.935550871072337031e-05 -2.528615877963602543e-04
2.081000000000000000e+03 8.298224449157714844e+00 -4.204817295074462891e+00 -2.001752727665007114e-04 -1.119924272643402219e-04 -9.365030564367771149e-05 -2.030396281043067575e-04
2.082000000000000000e+03 6.071308135986328125e+00 -3.926751375198364258e+00 1.646544551476836205e-04 1.271601504413411021e-04 8.754438022151589394e-05 2.001031389227136970e-04
2.083000000000000000e+03 3.089360427856445312e+01 -1.176645851135253906e+01 -9.340147972106933594e-01 -2.033677697181701660e-02 -2.863054871559143066e-01 -4.158461391925811768e-01
2.084000000000000000e+03 3.168899726867675781e+01 -1.171003246307373047e+01 -9.753708243370056152e-01 -2.091444469988346100e-02 -2.988855838775634766e-01 -4.108431041240692139e-01
2.085000000000000000e+03 9.171720504760742188e+00 -4.052663326263427734e+00 1.643595396672026254e-06 4.025129892397671938e-04 1.212469724123366177e-04 2.790797443594783545e-04
2.086000000000000000e+03 3.095411491394042969e+01 -1.261874866485595703e+01 -8.324121236801147461e-01 -1.491379737854003906e-02 -2.541977763175964355e-01 -4.489044845104217529e-01
2.087000000000000000e+03 5.067937469482421875e+01 -2.102506399154663086e+00 -6.447806358337402344e-01 4.385469555854797363e-01 -6.187010928988456726e-02 -5.292328596115112305e-01
2.088000000000000000e+03 2.303598213195800781e+01 -1.116092872619628906e+01 -5.930145382881164551e-01 1.495145354419946671e-02 -1.734189242124557495e-01 -3.827755451202392578e-01
2.089000000000000000e+03 2.767247581481933594e+01 -1.169668102264404297e+01 -7.947590947151184082e-01 -9.452835656702518463e-03 -2.412635684013366699e-01 -4.189659953117370605e-01
2.090000000000000000e+03 2.848262596130371094e+01 -1.173758125305175781e+01 -8.274540305137634277e-01 -1.274095103144645691e-02 -2.520584762096405029e-01 -4.209783971309661865e-01
2.091000000000000000e+03 5.282832717895507812e+01 -1.996659398078918457e+00 2.775080874562263489e-02 1.053597331047058105e+00 3.244044482707977295e-01 -1.284150123596191406e+00
2.092000000000000000e+03 5.216019058227539062e+01 -2.173901557922363281e+00 -2.490221112966537476e-01 7.125462889671325684e-01 1.390572488307952881e-01 -9.501659274101257324e-01
2.093000000000000000e+03 2.607689094543457031e+01 -1.090782356262207031e+01 -7.635048627853393555e-01 4.156769253313541412e-03 -2.278044372797012329e-01 -3.769932389259338379e-01
2.094000000000000000e+03 1.091212844848632812e+01 4.178288459777832031e+00 -4.268074408173561096e-04 -1.119176042266190052e-03 -4.637950623873621225e-04 -1.200686674565076828e-03
2.095000000000000000e+03 1.147848224639892578e+01 5.902144432067871094e+00 4.208976170048117638e-04 1.989428186789155006e-03 7.230977644212543964e-04 1.438100705854594707e-03
2.096000000000000000e+03 5.292490386962890625e+01 -1.114004135131835938e+01 1.785538792610168457e-01 1.209941029548645020e+00 4.165484905242919922e-01 1.425152420997619629e+00
2.097000000000000000e+03 5.299819946289062500e+01 -1.007758426666259766e+01 -1.607407927513122559e-01 7.733613252639770508e-01 1.837861686944961548e-01 1.103008031845092773e+00
2.098000000000000000e+03 5.436927795410156250e+01 -1.032297897338867188e+01 4.481009840965270996e-01 1.558445930480957031e+00 6.019640564918518066e-01 1.926963448524475098e+00
2.099000000000000000e+03 2.430798530578613281e+01 -1.140211391448974609e+01 -6.497239470481872559e-01 1.295170933008193970e-02 -1.910316646099090576e-01 -4.009481668472290039e-01
2.100000000000000000e+03 2.510067558288574219e+01 -1.166690158843994141e+01 -6.757250428199768066e-01 1.029745023697614670e-02 -1.996282637119293213e-01 -4.168559610843658447e-01
2.101000000000000000e+03 2.298297309875488281e+01 -1.052231121063232422e+01 -5.962839722633361816e-01 2.049786783754825592e-02 -1.727358400821685791e-01 -3.498841822147369385e-01
2.102000000000000000e+03 2.331938552856445312e+01 -1.169294548034667969e+01 -6.021099090576171875e-01 1.280461717396974564e-02 -1.767915934324264526e-01 -4.108060598373413086e-01
2.103000000000000000e+03 1.981988906860351562e+01 -1.097327995300292969e+01 -4.445521831512451172e-01 -4.924909025430679321e-02 -1.481403857469558716e-01 -3.464236557483673096e-01
2.104000000000000000e+03 1.998852157592773438e+01 -1.319870185852050781e+01 -4.986172616481781006e-01 -6.351169198751449585e-02 -1.686386913061141968e-01 -4.157103896141052246e-01
2.105000000000000000e+03 2.157811927795410156e+01 -1.163622283935546875e+01 -5.372729301452636719e-01 -6.056716083548963070e-04 -1.613635867834091187e-01 -3.913835585117340088e-01
2.106000000000000000e+03 2.364035987854003906e+01 -1.117493724822998047e+01 -6.256422996520996094e-01 1.687391661107540131e-02 -1.826305240392684937e-01 -3.870784938335418701e-01
2.107000000000000000e+03 2.117506599426269531e+01 -7.269011139869689941e-01 -7.878941297531127930e-02 -2.571616172790527344e-01 -1.007853075861930847e-01 2.329318076372146606e-01
2.108000000000000000e+03 2.303722000122070312e+01 1.037928199768066406e+01 -4.878002405166625977e-01 -6.083117127418518066e-01 -3.288335800170898438e-01 6.704607009887695312e-01
2.109000000000000000e+03 7.615218639373779297e+00 1.123336505889892578e+01 -1.317650428973138332e-03 2.460638526827096939e-03 3.428964701015502214e-04 1.901359762996435165e-03
2.110000000000000000e+03 6.604655265808105469e+00 1.223172378540039062e+01 4.916871897876262665e-03 4.106153792236000299e-04 1.598246162757277489e-03 7.055648136883974075e-03
2.111000000000000000e+03 8.556677818298339844e+00 8.759041786193847656e+00 8.448883309029042721e-04 -1.314604305662214756e-04 2.140283759217709303e-04 1.189444796182215214e-03
2.112000000000000000e+03 8.621934890747070312e+00 7.443354129791259766e+00 6.677027558907866478e-04 -1.758736034389585257e-04 1.475487515563145280e-04 6.014599348418414593e-04
2.113000000000000000e+03 9.244826316833496094e+00 5.006404876708984375e+00 1.816185103962197900e-04 1.726216636598110199e-03 5.723505164496600628e-04 4.820282920263707638e-04
2.114000000000000000e+03 1.063371086120605469e+01 7.645248413085937500e+00 -1.283340243389829993e-04 2.950617810711264610e-03 8.466851431876420975e-04 5.915121873840689659e-04
2.115000000000000000e+03 5.773599147796630859e+00 -1.272801208496093750e+01 4.296845290809869766e-03 -2.286373870447278023e-03 6.031414959579706192e-04 -7.229336071759462357e-03
2.116000000000000000e+03 1.237516212463378906e+01 6.051639556884765625e+00 -9.866976179182529449e-04 -1.526822801679372787e-03 -7.540561491623520851e-04 -1.540669123642146587e-03
2.117000000000000000e+03 2.116685676574707031e+01 1.574383354187011719e+01 -5.108171105384826660e-01 -7.573582530021667480e-01 -3.804526031017303467e-01 4.891102313995361328e-01
2.118000000000000000e+03 2.033191490173339844e+01 1.434610939025878906e+01 -6.219336390495300293e-01 -9.714347124099731445e-01 -4.780105054378509521e-01 5.991792082786560059e-01
2.119000000000000000e+03 2.547719478607177734e+00 6.341919898986816406e+00 8.768853149376809597e-04 2.009333111345767975e-04 3.233455936424434185e-04 -2.877352235373109579e-04
2.120000000000000000e+03 9.042052268981933594e+00 -5.584277629852294922e+00 -2.188279031543061137e-04 3.698884684126824141e-04 4.531816739472560585e-05 -2.823696013365406543e-05
2.121000000000000000e+03 6.450155735015869141e+00 1.432997608184814453e+01 1.178509928286075592e-02 -4.660556092858314514e-03 2.137362957000732422e-03 1.607801951467990875e-02
2.122000000000000000e+03 2.215258026123046875e+01 -1.858570128679275513e-01 -1.355128586292266846e-01 -2.922960519790649414e-01 -1.283426731824874878e-01 3.391045033931732178e-01
2.123000000000000000e+03 2.255436515808105469e+01 1.664685606956481934e+00 -1.765676140785217285e-01 -3.967643678188323975e-01 -1.719995886087417603e-01 4.618279337882995605e-01
2.124000000000000000e+03 5.084779739379882812e+00 1.013232803344726562e+01 3.723548026755452156e-03 -7.858006283640861511e-04 8.813242311589419842e-04 7.008272223174571991e-05
2.125000000000000000e+03 7.228506469726562500e+01 2.906233406066894531e+01 -1.225990336388349533e-02 7.674748420715332031e+00 2.298746585845947266e+00 -3.411624953150749207e-02
2.126000000000000000e+03 7.517159271240234375e+01 -2.776773643493652344e+01 -1.257777065038681030e-01 8.106197357177734375e+00 2.394125938415527344e+00 -3.334935903549194336e-01
2.127000000000000000e+03 7.375281524658203125e+01 -2.833918190002441406e+01 -1.737000793218612671e-01 7.998122692108154297e+00 2.347326755523681641e+00 -3.404475152492523193e-01
2.128000000000000000e+03 7.522621917724609375e+01 2.380914878845214844e+01 -4.817349463701248169e-02 8.136096000671386719e+00 2.426376819610595703e+00 3.635565564036369324e-02
2.129000000000000000e+03 7.372263336181640625e+01 8.394789695739746094e+00 -2.465505897998809814e-01 7.823824882507324219e+00 2.273182392120361328e+00 7.263566255569458008e-01
2.130000000000000000e+03 7.456759643554687500e+01 2.627969980239868164e-01 1.791694313287734985e-01 7.145419120788574219e+00 2.197376489639282227e+00 8.705204725265502930e-01
2.131000000000000000e+03 7.463358306884765625e+01 1.632726192474365234e+00 7.012187689542770386e-02 7.251493930816650391e+00 2.196484565734863281e+00 9.048033356666564941e-01
2.132000000000000000e+03 7.576330566406250000e+01 2.945211887359619141e+00 -5.959337111562490463e-03 7.139116287231445312e+00 2.139946937561035156e+00 7.974578738212585449e-01
2.133000000000000000e+03 7.516352081298828125e+01 1.287187385559082031e+01 -1.496334075927734375e-01 7.962482452392578125e+00 2.343854665756225586e+00 4.049780666828155518e-01
2.134000000000000000e+03 7.416899108886718750e+01 1.585001850128173828e+01 -1.688927412033081055e-01 7.965384960174560547e+00 2.338947772979736328e+00 2.769685983657836914e-01
2.135000000000000000e+03 7.496163177490234375e+01 -8.255984306335449219e+00 4.519008100032806396e-01 6.663970947265625000e+00 2.134761571884155273e+00 -3.146633803844451904e-01
2.136000000000000000e+03 7.584123229980468750e+01 -2.037375450134277344e+01 -1.121001020073890686e-01 7.654552459716796875e+00 2.262735605239868164e+00 -6.607825756072998047e-01
2.137000000000000000e+03 7.451909637451171875e+01 -2.155615806579589844e+01 -1.938504427671432495e-01 7.826420783996582031e+00 2.289771080017089844e+00 -6.937749385833740234e-01
2.138000000000000000e+03 7.594469451904296875e+01 -5.496507167816162109e+00 3.358666598796844482e-01 6.323066234588623047e+00 1.997679948806762695e+00 1.266809850931167603e-01
2.139000000000000000e+03 7.484401702880859375e+01 -5.572068691253662109e+00 5.065345764160156250e-01 6.664614200592041016e+00 2.151344776153564453e+00 1.393785774707794189e-01
2.140000000000000000e+03 7.609001922607421875e+01 -1.362402343750000000e+01 8.261750638484954834e-02 6.822956562042236328e+00 2.071672201156616211e+00 -7.337947487831115723e-01
2.141000000000000000e+03 7.499644470214843750e+01 -1.487151527404785156e+01 4.255652800202369690e-02 7.228900432586669922e+00 2.181437015533447266e+00 -8.880054950714111328e-01
2.142000000000000000e+03 7.360195159912109375e+01 2.507855987548828125e+01 -5.642357841134071350e-02 7.892481327056884766e+00 2.350817203521728516e+00 1.674780808389186859e-02
2.143000000000000000e+03 7.333118438720703125e+01 2.663817596435546875e+01 -4.155224934220314026e-02 7.831431865692138672e+00 2.336963891983032227e+00 -1.909019891172647476e-03
2.144000000000000000e+03 7.508102416992187500e+01 2.519926071166992188e+01 -3.598047047853469849e-02 8.126601219177246094e+00 2.427186250686645508e+00 2.554749697446823120e-02
2.145000000000000000e+03 7.389435577392578125e+01 -8.304993629455566406e+00 6.276257634162902832e-01 6.969492435455322266e+00 2.279135465621948242e+00 -3.697880506515502930e-01
2.146000000000000000e+03 7.357925415039062500e+01 1.154692554473876953e+01 -2.579491734504699707e-01 7.891032695770263672e+00 2.289925098419189453e+00 5.216868519783020020e-01
2.147000000000000000e+03 7.501911926269531250e+01 -1.092003631591796875e+01 3.092769086360931396e-01 6.826380252838134766e+00 2.140697240829467773e+00 -6.630076169967651367e-01
2.148000000000000000e+03 7.503386688232421875e+01 -1.224674510955810547e+01 2.173882573843002319e-01 6.950310707092285156e+00 2.150309562683105469e+00 -7.816112041473388672e-01
2.149000000000000000e+03 7.609790039062500000e+01 -1.228201007843017578e+01 1.429872959852218628e-01 6.657068252563476562e+00 2.040016651153564453e+00 -6.665075421333312988e-01
2.150000000000000000e+03 7.325568389892578125e+01 -3.066296577453613281e+00 6.320135593414306641e-01 7.217043876647949219e+00 2.354717254638671875e+00 6.433088183403015137e-01
2.151000000000000000e+03 7.469453430175781250e+01 -4.188199043273925781e+00 4.963792562484741211e-01 6.754384040832519531e+00 2.175229072570800781e+00 3.723350167274475098e-01
2.152000000000000000e+03 7.492282104492187500e+01 -6.919582366943359375e+00 4.993997812271118164e-01 6.634818553924560547e+00 2.140265464782714844e+00 -9.591144323348999023e-02
2.153000000000000000e+03 7.493580627441406250e+01 -1.747622489929199219e+01 -8.419484645128250122e-02 7.494254112243652344e+00 2.223017692565917969e+00 -8.645052313804626465e-01
2.154000000000000000e+03 7.342476654052734375e+01 4.199105739593505859e+00 -1.169419512152671814e-01 7.690331459045410156e+00 2.272016763687133789e+00 9.694956541061401367e-01
2.155000000000000000e+03 7.553245544433593750e+01 1.836734771728515625e+01 -8.202787488698959351e-02 8.137911796569824219e+00 2.416764974594116211e+00 1.618176698684692383e-01
2.156000000000000000e+03 7.438694763183593750e+01 1.838152694702148438e+01 -1.163556203246116638e-01 8.004899978637695312e+00 2.366563320159912109e+00 1.747563481330871582e-01
2.157000000000000000e+03 7.487303924560546875e+01 -1.879971504211425781e+01 -1.294681727886199951e-01 7.614661693572998047e+00 2.245558023452758789e+00 -8.190906643867492676e-01
2.158000000000000000e+03 7.340027618408203125e+01 3.030845832824707031e+01 -9.798539802432060242e-03 7.833578586578369141e+00 2.347134113311767578e+00 -2.151598595082759857e-02
2.159000000000000000e+03 7.294261932373046875e+01 -2.490971946716308594e+01 -2.766444981098175049e-01 7.929904460906982422e+00 2.295978069305419922e+00 -5.320556759834289551e-01
2.160000000000000000e+03 7.382820892333984375e+01 -2.588405990600585938e+01 -2.070446908473968506e-01 7.975834846496582031e+00 2.330636978149414062e+00 -4.530222415924072266e-01
2.161000000000000000e+03 7.375590515136718750e+01 3.273788833618164062e+01 -5.333782173693180084e-03 7.853406906127929688e+00 2.354422092437744141e+00 -3.160439431667327881e-02
2.162000000000000000e+03 7.446210479736328125e+01 -2.720628738403320312e+00 4.316785931587219238e-01 6.922303199768066406e+00 2.206194639205932617e+00 6.089710593223571777e-01
2.163000000000000000e+03 7.474090576171875000e+01 -2.015634155273437500e+01 -1.647077947854995728e-01 7.729547500610351562e+00 2.269451856613159180e+00 -7.603229284286499023e-01
2.164000000000000000e+03 7.389727783203125000e+01 2.114628028869628906e+01 -9.378246963024139404e-02 7.949430942535400391e+00 2.356694459915161133e+00 9.347105771303176880e-02
2.165000000000000000e+03 7.410550689697265625e+01 6.949456214904785156e+00 -1.960129737854003906e-01 7.731115818023681641e+00 2.260530948638916016e+00 8.044129610061645508e-01
2.166000000000000000e+03 7.453549194335937500e+01 4.274194717407226562e+00 -8.580756932497024536e-02 7.500190258026123047e+00 2.224314689636230469e+00 8.950001001358032227e-01
2.167000000000000000e+03 7.387621307373046875e+01 1.452506160736083984e+01 -2.001377046108245850e-01 7.938474655151367188e+00 2.321501016616821289e+00 3.494890034198760986e-01
2.168000000000000000e+03 6.749522209167480469e+00 3.113720130920410156e+01 9.695084393024444580e-02 -6.628476977348327637e-01 -1.697690486907958984e-01 3.302005529403686523e-01
2.169000000000000000e+03 6.213697433471679688e+00 -2.952462005615234375e+01 4.611801728606224060e-02 -4.355653524398803711e-01 -1.168342009186744690e-01 -2.491849213838577271e-01
2.170000000000000000e+03 1.035828590393066406e+01 6.418555736541748047e+00 -6.712354952469468117e-04 2.253445098176598549e-03 4.746628983411937952e-04 -4.755882764584384859e-05
2.171000000000000000e+03 4.144583702087402344e+00 2.707241821289062500e+01 -4.732930567115545273e-03 -4.520680606365203857e-01 -1.370402872562408447e-01 2.846653759479522705e-01
2.172000000000000000e+03 6.655500888824462891e+00 2.756189727783203125e+01 2.883253060281276703e-02 -5.610961318016052246e-01 -1.596790850162506104e-01 4.000471830368041992e-01
2.173000000000000000e+03 4.705476760864257812e+00 -2.583288002014160156e+01 -1.073690410703420639e-02 -3.175157308578491211e-01 -9.847579151391983032e-02 -2.304486930370330811e-01
2.174000000000000000e+03 6.460411071777343750e+00 -8.987116813659667969e+00 7.759472355246543884e-04 -1.542441168567165732e-04 1.865109370555728674e-04 2.118467382388189435e-04
2.175000000000000000e+03 4.030951023101806641e+00 2.342694664001464844e+01 -8.219650387763977051e-02 -2.375976890325546265e-01 -9.593825787305831909e-02 2.321027815341949463e-01
2.176000000000000000e+03 1.210769367218017578e+01 2.251229667663574219e+01 -1.828266233205795288e-01 -8.662403225898742676e-01 -3.147200644016265869e-01 6.061013936996459961e-01
2.177000000000000000e+03 1.181471443176269531e+01 2.626287269592285156e+01 8.684185892343521118e-02 -7.835388779640197754e-01 -2.090091109275817871e-01 5.034694075584411621e-01
2.178000000000000000e+03 7.324402618408203125e+01 -3.439631652832031250e+01 -9.683816879987716675e-02 7.949547767639160156e+00 2.355813026428222656e+00 -1.349790394306182861e-01
2.179000000000000000e+03 5.471240997314453125e+00 -2.177607345581054688e+01 -1.189633980393409729e-01 -1.651773452758789062e-01 -8.524222671985626221e-02 -2.127903699874877930e-01
2.180000000000000000e+03 4.615902423858642578e+00 1.220728206634521484e+01 8.781134150922298431e-03 -4.867645911872386932e-03 1.174046308733522892e-03 -6.678544450551271439e-04
2.181000000000000000e+03 4.216065406799316406e+00 -2.045507812500000000e+01 -8.201829344034194946e-02 -9.409341961145401001e-02 -5.283351242542266846e-02 -1.150640174746513367e-01
2.182000000000000000e+03 5.369319915771484375e+00 2.477204704284667969e+01 -8.046858757734298706e-02 -3.672032356262207031e-01 -1.343015432357788086e-01 3.443199098110198975e-01
2.183000000000000000e+03 6.041182518005371094e+00 -2.541335105895996094e+01 -1.018524728715419769e-02 -3.312981724739074707e-01 -1.024450287222862244e-01 -2.711389660835266113e-01
2.184000000000000000e+03 8.301471710205078125e+00 -6.509188175201416016e+00 3.671032027341425419e-04 -5.089819896966218948e-04 -4.256363536114804447e-05 2.679634781088680029e-05
2.185000000000000000e+03 6.976122379302978516e+00 2.866861915588378906e+01 5.739627406001091003e-02 -6.008568406105041504e-01 -1.630381643772125244e-01 3.872970640659332275e-01
2.186000000000000000e+03 4.216812133789062500e+00 2.068767547607421875e+01 -1.138838455080986023e-01 -1.055322214961051941e-01 -6.582482159137725830e-02 1.113169863820075989e-01
2.187000000000000000e+03 4.668292999267578125e+00 2.233569145202636719e+01 -1.455676704645156860e-01 -1.929916143417358398e-01 -1.015677899122238159e-01 2.263183891773223877e-01
2.188000000000000000e+03 5.749722957611083984e+00 -3.336243057250976562e+01 6.818901747465133667e-02 -5.119149684906005859e-01 -1.331177949905395508e-01 -1.781897842884063721e-01
2.189000000000000000e+03 1.137243175506591797e+01 -3.127941131591796875e+01 1.497070193290710449e-01 -4.351226091384887695e-01 -8.562467992305755615e-02 -2.651302218437194824e-01
2.190000000000000000e+03 7.584187507629394531e+00 2.127998161315917969e+01 -3.584074079990386963e-01 -2.463058382272720337e-01 -1.814139783382415771e-01 4.390938878059387207e-01
2.191000000000000000e+03 5.982102394104003906e+00 2.916601753234863281e+01 5.065657198429107666e-02 -5.946337580680847168e-01 -1.631931662559509277e-01 3.486567139625549316e-01
2.192000000000000000e+03 8.043703079223632812e+00 -2.707774543762207031e+01 3.368894010782241821e-02 -4.021624624729156494e-01 -1.105420589447021484e-01 -3.085379004478454590e-01
2.193000000000000000e+03 6.546321392059326172e+00 -2.701226997375488281e+01 1.097643561661243439e-02 -3.809861838817596436e-01 -1.110029220581054688e-01 -2.807270884513854980e-01
2.194000000000000000e+03 3.573622465133666992e+00 9.937369346618652344e+00 4.164163023233413696e-03 -6.437238189391791821e-04 1.056131673976778984e-03 -1.932756626047194004e-03
2.195000000000000000e+03 3.430094718933105469e+00 8.968891143798828125e+00 -2.750191779341548681e-04 3.706935094669461250e-04 2.870230491680558771e-05 -4.802034818567335606e-04
2.196000000000000000e+03 4.637918949127197266e+00 8.118264198303222656e+00 5.757302278652787209e-04 -8.055319194681942463e-04 -6.894050602568313479e-05 -4.776593414135277271e-05
2.197000000000000000e+03 5.275268077850341797e+00 -8.015589714050292969e+00 9.241821244359016418e-04 -1.424840011168271303e-04 2.345094399061053991e-04 2.811354643199592829e-04
2.198000000000000000e+03 7.023705959320068359e+00 3.601707077026367188e+01 1.409859061241149902e-01 -7.485594153404235840e-01 -1.822720617055892944e-01 1.984107047319412231e-01
2.199000000000000000e+03 5.073424339294433594e+00 -6.367516040802001953e+00 1.897597976494580507e-04 -1.911294675664976239e-04 -4.109027997856173897e-07 -4.377723671495914459e-04
2.200000000000000000e+03 4.640921115875244141e+00 -5.421379566192626953e+00 8.519581024302169681e-05 3.512382390908896923e-04 1.309302169829607010e-04 4.400638572406023741e-04
2.201000000000000000e+03 1.404139137268066406e+01 -2.145959281921386719e+01 -1.695523560047149658e-01 -4.086672365665435791e-01 -1.734658777713775635e-01 -3.278415501117706299e-01
2.202000000000000000e+03 1.418846607208251953e+01 2.219453811645507812e+01 -1.773779839277267456e-01 -9.935384392738342285e-01 -3.512749075889587402e-01 5.364439487457275391e-01
2.203000000000000000e+03 9.863056182861328125e+00 2.262857055664062500e+01 -2.427715063095092773e-01 -5.872728824615478516e-01 -2.490133196115493774e-01 5.788980126380920410e-01
2.204000000000000000e+03 1.934690475463867188e+01 1.519968986511230469e+01 -6.400658488273620605e-01 -1.084840536117553711e+00 -5.174719095230102539e-01 6.235198974609375000e-01
2.205000000000000000e+03 6.376288414001464844e+00 -7.960995674133300781e+00 1.994575432036072016e-04 -1.128847652580589056e-04 2.597183447505813092e-05 -7.126918644644320011e-04
2.206000000000000000e+03 1.869075393676757812e+01 -1.664882659912109375e+01 -4.266069531440734863e-01 -1.589303165674209595e-01 -1.756611764430999756e-01 -4.117785394191741943e-01
2.207000000000000000e+03 1.814930152893066406e+01 1.742087745666503906e+01 -5.825724005699157715e-01 -1.125469565391540527e+00 -5.124125480651855469e-01 5.374671816825866699e-01
2.208000000000000000e+03 1.637737274169921875e+01 2.016196060180664062e+01 -3.170468509197235107e-01 -1.070981383323669434e+00 -4.164084494113922119e-01 4.812594950199127197e-01
2.209000000000000000e+03 1.997197341918945312e+01 -1.492591381072998047e+01 -4.805447459220886230e-01 -8.318449556827545166e-02 -1.691187769174575806e-01 -4.361609220504760742e-01
2.210000000000000000e+03 1.842870330810546875e+01 -1.762693977355957031e+01 -3.732314109802246094e-01 -1.875449717044830322e-01 -1.682329177856445312e-01 -3.995963931083679199e-01
2.211000000000000000e+03 2.346922302246093750e+01 6.197096347808837891e+00 -3.515670001506805420e-01 -5.301438570022583008e-01 -2.645132541656494141e-01 6.893320679664611816e-01
2.212000000000000000e+03 2.178839874267578125e+01 3.577152013778686523e+00 -1.842916160821914673e-01 -5.821339488029479980e-01 -2.299276590347290039e-01 5.049120783805847168e-01
2.213000000000000000e+03 2.167819786071777344e+01 2.483768224716186523e+00 -1.492546051740646362e-01 -5.075017213821411133e-01 -1.970268934965133667e-01 4.479780793190002441e-01
2.214000000000000000e+03 2.283909034729003906e+01 3.418290376663208008e+00 -2.300637364387512207e-01 -4.904399216175079346e-01 -2.161511033773422241e-01 5.740531086921691895e-01
2.215000000000000000e+03 1.928952598571777344e+01 -1.578269195556640625e+01 -4.570101201534271240e-01 -1.219473034143447876e-01 -1.736872345209121704e-01 -4.193581044673919678e-01
2.216000000000000000e+03 2.073394775390625000e+01 -1.421442508697509766e+01 -4.997835755348205566e-01 -5.385718494653701782e-02 -1.660922318696975708e-01 -4.394034147262573242e-01
2.217000000000000000e+03 1.396928787231445312e+01 -2.309467315673828125e+01 -5.506250634789466858e-02 -4.103335738182067871e-01 -1.396188288927078247e-01 -3.431811332702636719e-01
2.218000000000000000e+03 1.705944061279296875e+01 -2.029808807373046875e+01 -2.381267845630645752e-01 -2.826534509658813477e-01 -1.562340706586837769e-01 -3.582583665847778320e-01
2.219000000000000000e+03 7.198222351074218750e+01 4.104811477661132812e+01 3.039694391191005707e-02 7.572707653045654297e+00 2.280931472778320312e+00 -6.471204687841236591e-04
2.220000000000000000e+03 2.383984184265136719e+01 8.670351982116699219e+00 -4.307190775871276855e-01 -5.056241750717163086e-01 -2.809029817581176758e-01 6.933218240737915039e-01
2.221000000000000000e+03 2.432201576232910156e+01 9.835368156433105469e+00 -4.503675997257232666e-01 -4.443486630916595459e-01 -2.684148848056793213e-01 6.765918731689453125e-01
2.222000000000000000e+03 5.796004867553710938e+01 -8.724624633789062500e+00 1.902484774589538574e+00 7.744565486907958984e+00 2.894115209579467773e+00 5.681005477905273438e+00
2.223000000000000000e+03 5.767114257812500000e+01 -3.767326831817626953e+00 1.658937573432922363e+00 6.490919589996337891e+00 2.444957256317138672e+00 -5.077176570892333984e+00
2.224000000000000000e+03 5.821157836914062500e+01 -8.785884857177734375e+00 1.484185934066772461e+00 9.188485145568847656e+00 3.201801300048828125e+00 5.646281719207763672e+00
2.225000000000000000e+03 5.662211990356445312e+01 -8.626688003540039062e+00 1.508735060691833496e+00 2.394243955612182617e+00 1.170893669128417969e+00 3.297303676605224609e+00
2.226000000000000000e+03 5.825100708007812500e+01 -9.174848556518554688e+00 1.070540428161621094e+00 9.459090232849121094e+00 3.158889293670654297e+00 5.282475471496582031e+00
2.227000000000000000e+03 5.942421722412109375e+01 -3.699697256088256836e+00 1.978253573179244995e-02 1.487135505676269531e+01 4.467340946197509766e+00 -3.427264451980590820e+00
2.228000000000000000e+03 5.891009140014648438e+01 -8.830569267272949219e+00 5.936721563339233398e-01 1.318961620330810547e+01 4.134986400604248047e+00 5.046541690826416016e+00
2.229000000000000000e+03 5.836813354492187500e+01 -8.936442375183105469e+00 1.137060284614562988e+00 1.004933547973632812e+01 3.355918884277343750e+00 5.471461772918701172e+00
2.230000000000000000e+03 5.567247772216796875e+01 -9.796363830566406250e+00 9.505340456962585449e-01 2.470641851425170898e+00 1.026352763175964355e+00 2.784425735473632812e+00
2.231000000000000000e+03 6.036571502685546875e+01 -4.376923561096191406e+00 1.657389998435974121e+00 1.763716125488281250e+01 5.788365364074707031e+00 2.752465903759002686e-01
2.232000000000000000e+03 5.961683273315429688e+01 -8.731147766113281250e+00 2.874814569950103760e-01 1.653943061828613281e+01 5.048073768615722656e+00 2.728526115417480469e+00
2.233000000000000000e+03 6.021281814575195312e+01 -8.515729904174804688e+00 1.225385785102844238e+00 1.762044906616210938e+01 5.653750419616699219e+00 2.539404630661010742e-01
2.234000000000000000e+03 6.154056549072265625e+01 -6.050060272216796875e+00 8.049306869506835938e+00 1.402438640594482422e+01 6.622107505798339844e+00 8.441963791847229004e-01
2.235000000000000000e+03 5.623709869384765625e+01 -9.056206703186035156e+00 1.322636842727661133e+00 2.451644659042358398e+00 1.132284522056579590e+00 3.013637304306030273e+00
2.236000000000000000e+03 5.652101516723632812e+01 -3.532321214675903320e+00 1.386926293373107910e+00 3.250875473022460938e+00 1.391340494155883789e+00 -3.515487432479858398e+00
2.237000000000000000e+03 6.149493408203125000e+01 -6.584548473358154297e+00 8.398671150207519531e+00 1.412634563446044922e+01 6.757504940032958984e+00 -5.260740518569946289e-01
2.238000000000000000e+03 6.166388320922851562e+01 -7.382407665252685547e+00 6.407281398773193359e+00 1.412394618988037109e+01 6.159368038177490234e+00 -1.789222955703735352e+00
2.239000000000000000e+03 6.213734054565429688e+01 -7.282382488250732422e+00 6.126624107360839844e+00 1.300675868988037109e+01 5.740014553070068359e+00 -1.384799480438232422e+00
2.240000000000000000e+03 6.082802963256835938e+01 -8.519617080688476562e+00 2.168709754943847656e+00 1.648000526428222656e+01 5.594614505767822266e+00 -1.066657304763793945e+00
2.241000000000000000e+03 6.154951095581054688e+01 -7.962071418762207031e+00 4.530149459838867188e+00 1.468972206115722656e+01 5.765961647033691406e+00 -1.993728280067443848e+00
2.242000000000000000e+03 6.104822540283203125e+01 -4.874435424804687500e+00 4.497292518615722656e+00 1.627871894836425781e+01 6.232803344726562500e+00 2.093918800354003906e+00
2.243000000000000000e+03 5.687425613403320312e+01 -3.813194990158081055e+00 1.659678220748901367e+00 3.744163990020751953e+00 1.621152639389038086e+00 -3.967518568038940430e+00
2.244000000000000000e+03 5.515292739868164062e+01 -3.342770576477050781e+00 5.861818194389343262e-01 1.518295645713806152e+00 6.313432455062866211e-01 -2.127507209777832031e+00
2.245000000000000000e+03 5.522225570678710938e+01 -3.076067924499511719e+00 6.712810993194580078e-01 1.763831853866577148e+00 7.305338978767395020e-01 -2.299771070480346680e+00
2.246000000000000000e+03 5.439902877807617188e+01 -3.161311626434326172e+00 2.313100844621658325e-01 1.146614074707031250e+00 4.133772552013397217e-01 -1.664063215255737305e+00
2.247000000000000000e+03 5.468339157104492188e+01 -2.843738555908203125e+00 4.858475327491760254e-01 1.556975483894348145e+00 6.128469109535217285e-01 -1.996267080307006836e+00
2.248000000000000000e+03 2.376879882812500000e+01 -2.280884265899658203e+00 -2.279719859361648560e-01 -1.329113245010375977e-01 -1.082649901509284973e-01 3.008541166782379150e-01
2.249000000000000000e+03 2.468409538269042969e+01 9.439054727554321289e-01 -2.863701581954956055e-01 -2.501777410507202148e-01 -1.609643697738647461e-01 5.394496321678161621e-01
2.250000000000000000e+03 2.366131210327148438e+01 -9.103442430496215820e-01 -2.169297337532043457e-01 -2.111174613237380981e-01 -1.284141689538955688e-01 3.862812221050262451e-01
2.251000000000000000e+03 2.497084617614746094e+01 -1.487418293952941895e+00 -3.043688237667083740e-01 -1.417585164308547974e-01 -1.338382065296173096e-01 4.036009311676025391e-01
2.252000000000000000e+03 2.692798423767089844e+01 -2.346051931381225586e+00 -4.417106211185455322e-01 -7.169751077890396118e-02 -1.540224403142929077e-01 4.108642637729644775e-01
2.253000000000000000e+03 2.696112823486328125e+01 -1.738745570182800293e+00 -4.365528225898742676e-01 -8.465387672185897827e-02 -1.563620120286941528e-01 4.534752964973449707e-01
2.254000000000000000e+03 5.949317932128906250e+00 4.703018188476562500e+00 -1.330932427663356066e-04 -6.034754915162920952e-04 -2.209706290159374475e-04 -3.307898878119885921e-04
2.255000000000000000e+03 2.401560211181640625e+01 -1.433822631835937500e+00 -2.375690191984176636e-01 -1.762826740741729736e-01 -1.241555064916610718e-01 3.704566955566406250e-01
2.256000000000000000e+03 8.323421478271484375e+00 5.896271228790283203e+00 2.900037725339643657e-05 2.253427403047680855e-03 6.847283220849931240e-04 3.035186273336876184e-05
2.257000000000000000e+03 5.334057617187500000e+01 -1.678373456001281738e+00 2.906712889671325684e-01 1.401774168014526367e+00 5.077336430549621582e-01 -1.641031861305236816e+00
2.258000000000000000e+03 2.477516937255859375e+01 -2.467413902282714844e+00 -2.914295792579650879e-01 -1.094255372881889343e-01 -1.202565357089042664e-01 3.338268697261810303e-01
2.259000000000000000e+03 2.557846260070800781e+01 -1.693449020385742188e+00 -3.377789258956909180e-01 -1.240839734673500061e-01 -1.385588645935058594e-01 4.135705828666687012e-01
2.260000000000000000e+03 9.990788459777832031e+00 5.802088260650634766e+00 3.144934089505113661e-05 1.952648162841796875e-03 5.952292704023420811e-04 1.227256376296281815e-03
2.261000000000000000e+03 3.122549057006835938e+01 -2.172846794128417969e+00 -7.464099526405334473e-01 -2.937338547781109810e-03 -2.248041927814483643e-01 4.835500419139862061e-01
2.262000000000000000e+03 6.529331207275390625e+00 4.765074729919433594e+00 6.481403252109885216e-04 6.648549460805952549e-04 3.938985755667090416e-04 1.434441946912556887e-04
2.263000000000000000e+03 2.762497901916503906e+01 -2.337833404541015625e+00 -4.914399385452270508e-01 -5.771819129586219788e-02 -1.647474467754364014e-01 4.274654686450958252e-01
2.264000000000000000e+03 2.969884681701660156e+01 -9.298764467239379883e-01 -5.855949521064758301e-01 -3.638543561100959778e-02 -1.865941137075424194e-01 5.527182221412658691e-01
2.265000000000000000e+03 3.048195266723632812e+01 -1.507833600044250488e+00 -6.583932042121887207e-01 -1.725567691028118134e-02 -2.026946544647216797e-01 5.247712731361389160e-01
2.266000000000000000e+03 3.270930862426757812e+01 -2.154145002365112305e+00 -8.498489856719970703e-01 1.391802169382572174e-02 -2.507792711257934570e-01 4.879283905029296875e-01
2.267000000000000000e+03 3.274290847778320312e+01 -1.455237150192260742e+00 -7.921804189682006836e-01 1.580508984625339508e-02 -2.329126000404357910e-01 5.330512523651123047e-01
2.268000000000000000e+03 3.048827362060546875e+01 -2.205181360244750977e+00 -6.960931420326232910e-01 -1.154804322868585587e-02 -2.122923582792282104e-01 4.770889282226562500e-01
2.269000000000000000e+03 3.278180313110351562e+01 -7.698445916175842285e-01 -7.387567162513732910e-01 1.874565705657005310e-02 -2.160033285617828369e-01 5.705015659332275391e-01
2.270000000000000000e+03 4.570866775512695312e+01 -1.176617813110351562e+01 -9.497947096824645996e-01 1.907828301191329956e-01 -2.277035564184188843e-01 -3.128093853592872620e-02
2.271000000000000000e+03 4.353369522094726562e+01 -1.118904781341552734e+01 -1.271963715553283691e+00 7.487275451421737671e-02 -3.591272830963134766e-01 -2.050294727087020874e-01
2.272000000000000000e+03 4.205501556396484375e+01 -1.121448802947998047e+01 -1.299145221710205078e+00 5.085927993059158325e-02 -3.744857907295227051e-01 -2.603734135627746582e-01
2.273000000000000000e+03 4.273973464965820312e+01 -1.193281173706054688e+01 -1.069451928138732910e+00 9.115379303693771362e-02 -2.934894561767578125e-01 -2.115697711706161499e-01
2.274000000000000000e+03 5.208374786376953125e+01 -1.184732913970947266e+01 1.178323253989219666e-01 1.156012535095214844e+00 3.821534514427185059e-01 1.261066555976867676e+00
2.275000000000000000e+03 4.344765090942382812e+01 -1.265233516693115234e+01 -8.447858095169067383e-01 1.439115852117538452e-01 -2.102622687816619873e-01 -1.434842050075531006e-01
2.276000000000000000e+03 3.989030075073242188e+01 -1.128009414672851562e+01 -1.289741992950439453e+00 2.094550989568233490e-02 -3.806389570236206055e-01 -3.201694488525390625e-01
2.277000000000000000e+03 4.059995269775390625e+01 -1.194690608978271484e+01 -1.110545396804809570e+00 5.159435421228408813e-02 -3.176853358745574951e-01 -2.997657656669616699e-01
2.278000000000000000e+03 3.345681762695312500e+01 -2.148418903350830078e+00 -9.013377428054809570e-01 2.067593298852443695e-02 -2.641985416412353516e-01 4.864241182804107666e-01
2.279000000000000000e+03 4.642636871337890625e+01 -1.171341705322265625e+01 -9.025212526321411133e-01 2.183475941419601440e-01 -2.052520960569381714e-01 3.349956870079040527e-02
2.280000000000000000e+03 4.647308731079101562e+01 -1.103914928436279297e+01 -1.145830154418945312e+00 1.601731032133102417e-01 -2.956971228122711182e-01 -2.791170217096805573e-02
2.281000000000000000e+03 4.866454696655273438e+01 -1.098763179779052734e+01 -8.967371582984924316e-01 2.780124247074127197e-01 -1.856174170970916748e-01 2.176472693681716919e-01
2.282000000000000000e+03 4.939369964599609375e+01 -1.099065971374511719e+01 -7.662292122840881348e-01 3.469453752040863037e-01 -1.257851570844650269e-01 3.387365639209747314e-01
2.283000000000000000e+03 5.140162277221679688e+01 -1.181141757965087891e+01 -2.611351758241653442e-02 9.034847021102905273e-01 2.632113397121429443e-01 1.024601578712463379e+00
2.284000000000000000e+03 3.423160934448242188e+01 -1.445553898811340332e+00 -8.784400224685668945e-01 3.065967373549938202e-02 -2.543340921401977539e-01 5.258409976959228516e-01
2.285000000000000000e+03 4.129367446899414062e+01 -1.193253517150878906e+01 -1.110208749771118164e+00 7.115876674652099609e-02 -3.117149770259857178e-01 -2.776438593864440918e-01
2.286000000000000000e+03 4.498051834106445312e+01 -1.183582115173339844e+01 -9.878283143043518066e-01 1.579569429159164429e-01 -2.489614188671112061e-01 -8.776548504829406738e-02
2.287000000000000000e+03 3.571364593505859375e+01 -1.406032919883728027e+00 -9.510697722434997559e-01 4.233433678746223450e-02 -2.726206481456756592e-01 5.118597745895385742e-01
2.288000000000000000e+03 4.713750457763671875e+01 -1.168284893035888672e+01 -8.365958929061889648e-01 2.611932456493377686e-01 -1.726207882165908813e-01 1.071725115180015564e-01
2.289000000000000000e+03 4.338716888427734375e+01 -1.340944862365722656e+01 -6.588093042373657227e-01 1.908885985612869263e-01 -1.403762102127075195e-01 -1.110048666596412659e-01
2.290000000000000000e+03 3.770780563354492188e+01 -1.210220623016357422e+01 -1.080011725425720215e+00 1.782216876745223999e-02 -3.186568617820739746e-01 -3.663906157016754150e-01
2.291000000000000000e+03 5.123883438110351562e+01 -1.266961097717285156e+01 1.226377412676811218e-01 1.149798154830932617e+00 3.817307651042938232e-01 1.149311423301696777e+00
2.292000000000000000e+03 4.856616973876953125e+01 -1.168432140350341797e+01 -6.391155719757080078e-01 3.822781443595886230e-01 -7.705122232437133789e-02 3.164480626583099365e-01
2.293000000000000000e+03 4.927814865112304688e+01 -1.171153831481933594e+01 -5.089992880821228027e-01 4.655354321002960205e-01 -1.303915120661258698e-02 4.494540989398956299e-01
2.294000000000000000e+03 3.717443084716796875e+01 -2.067735671997070312e+00 -1.126532554626464844e+00 4.050119221210479736e-02 -3.258093893527984619e-01 4.566240012645721436e-01
2.295000000000000000e+03 3.544876480102539062e+01 -1.148290729522705078e+01 -1.154126048088073730e+00 -1.174607872962951660e-02 -3.497616648674011230e-01 -3.834389746189117432e-01
2.296000000000000000e+03 3.844724655151367188e+01 -1.209095668792724609e+01 -1.088386654853820801e+00 2.624517306685447693e-02 -3.186424672603607178e-01 -3.541674911975860596e-01
2.297000000000000000e+03 3.572547149658203125e+01 -7.030977010726928711e-01 -8.589008450508117676e-01 5.205834284424781799e-02 -2.420527487993240356e-01 5.420845150947570801e-01
2.298000000000000000e+03 3.470506286621093750e+01 -1.152099800109863281e+01 -1.122762680053710938e+00 -1.341415010392665863e-02 -3.408530354499816895e-01 -3.893332183361053467e-01
2.299000000000000000e+03 3.771217727661132812e+01 -1.283203411102294922e+01 -9.266777038574218750e-01 3.817993775010108948e-02 -2.665493190288543701e-01 -3.768494129180908203e-01
2.300000000000000000e+03 5.435991764068603516e+00 -5.035844326019287109e+00 2.286445960635319352e-04 -2.830568992067128420e-04 -1.632369276194367558e-05 -3.717991639859974384e-04
2.301000000000000000e+03 3.791791152954101562e+01 -2.052567005157470703e+00 -1.163975954055786133e+00 4.361760243773460388e-02 -3.361074924468994141e-01 4.447886049747467041e-01
2.302000000000000000e+03 3.645425796508789062e+01 -1.390324354171752930e+00 -9.836466908454895020e-01 4.721110686659812927e-02 -2.809306979179382324e-01 5.022520422935485840e-01
2.303000000000000000e+03 3.941580963134765625e+01 -1.328878998756408691e+00 -1.082894325256347656e+00 6.713431328535079956e-02 -3.047280013561248779e-01 4.387483298778533936e-01
2.304000000000000000e+03 4.014696121215820312e+01 -1.999809503555297852e+00 -1.250712394714355469e+00 5.224007740616798401e-02 -3.595416843891143799e-01 3.981669545173645020e-01
2.305000000000000000e+03 4.015147399902343750e+01 -1.307119369506835938e+00 -1.095233321189880371e+00 7.316377758979797363e-02 -3.066208660602569580e-01 4.155042767524719238e-01
2.306000000000000000e+03 4.238648223876953125e+01 -1.937058329582214355e+00 -1.284600377082824707e+00 6.958010047674179077e-02 -3.645060956478118896e-01 3.269247710704803467e-01
2.307000000000000000e+03 3.719545745849609375e+01 -1.377412319183349609e+00 -1.014414906501770020e+00 5.260011553764343262e-02 -2.885444462299346924e-01 4.898717999458312988e-01
2.308000000000000000e+03 4.312685012817382812e+01 -1.215000152587890625e+00 -1.075590252876281738e+00 1.144620925188064575e-01 -2.883384525775909424e-01 2.879903018474578857e-01
2.309000000000000000e+03 4.614778137207031250e+01 -1.160323739051818848e+00 -9.202434420585632324e-01 2.071347832679748535e-01 -2.139325886964797974e-01 5.352245643734931946e-02
2.310000000000000000e+03 3.321349334716796875e+01 -1.159095287322998047e+01 -1.057315468788146973e+00 -1.598193868994712830e-02 -3.219892084598541260e-01 -4.006156027317047119e-01
2.311000000000000000e+03 3.472955703735351562e+01 -1.230334854125976562e+01 -9.884618520736694336e-01 -1.047854870557785034e-02 -2.996821105480194092e-01 -4.094021916389465332e-01
2.312000000000000000e+03 3.246057128906250000e+01 -1.164883422851562500e+01 -1.015414237976074219e+00 -2.000628411769866943e-02 -3.106261491775512695e-01 -4.072991907596588135e-01
2.313000000000000000e+03 3.326448440551757812e+01 -1.236258983612060547e+01 -9.332017302513122559e-01 -1.122420001775026321e-02 -2.833277583122253418e-01 -4.290579855442047119e-01
2.314000000000000000e+03 4.163083267211914062e+01 -1.262284994125366211e+00 -1.100907564163208008e+00 8.864273875951766968e-02 -3.036794662475585938e-01 3.612420856952667236e-01
2.315000000000000000e+03 7.472866058349609375e+00 -5.903446197509765625e+00 -2.527420874685049057e-04 5.980880814604461193e-04 1.036037938320077956e-04 2.460044925101101398e-04
2.316000000000000000e+03 4.540098571777343750e+01 -1.158662080764770508e+00 -9.709364771842956543e-01 1.789355576038360596e-01 -2.376002818346023560e-01 1.231092140078544617e-01
2.317000000000000000e+03 4.464377593994140625e+01 -1.169687986373901367e+00 -1.014963030815124512e+00 1.548544317483901978e-01 -2.580325901508331299e-01 1.856551766395568848e-01
2.318000000000000000e+03 3.696370315551757812e+01 -1.211862468719482422e+01 -1.065288782119750977e+00 1.512025110423564911e-02 -3.150505721569061279e-01 -3.843734860420227051e-01
2.319000000000000000e+03 4.689463043212890625e+01 -1.180318832397460938e+00 -8.628219366073608398e-01 2.442895621061325073e-01 -1.855597048997879028e-01 -2.569019421935081482e-02
2.320000000000000000e+03 4.764904022216796875e+01 -1.219658970832824707e+00 -7.943230271339416504e-01 2.883354127407073975e-01 -1.517962813377380371e-01 -1.176825091242790222e-01
2.321000000000000000e+03 4.992858505249023438e+01 -2.051725149154663086e+00 -7.789886593818664551e-01 3.567882478237152100e-01 -1.266601234674453735e-01 -3.703069090843200684e-01
2.322000000000000000e+03 3.009321594238281250e+01 -1.180603504180908203e+01 -8.971388936042785645e-01 -1.868730969727039337e-02 -2.747478783130645752e-01 -4.192139506340026855e-01
2.323000000000000000e+03 4.916646194458007812e+01 -6.428657770156860352e-01 -3.846389651298522949e-01 5.533560514450073242e-01 5.061513185501098633e-02 -4.718762636184692383e-01
2.324000000000000000e+03 5.949991226196289062e+00 -4.521290302276611328e+00 -4.559060325846076012e-04 4.676664248108863831e-04 3.528118213580455631e-06 -4.702813839685404673e-06
2.325000000000000000e+03 6.009685993194580078e+00 -5.799798965454101562e+00 -5.653152038576081395e-05 4.822909540962427855e-04 1.277278352063149214e-04 4.008239775430411100e-04
2.326000000000000000e+03 3.010708236694335938e+01 -1.271411705017089844e+01 -7.906964421272277832e-01 -1.656106859445571899e-02 -2.421772480010986328e-01 -4.564780890941619873e-01
2.327000000000000000e+03 3.399325180053710938e+01 -1.232509136199951172e+01 -9.672219753265380859e-01 -6.439773831516504288e-03 -2.920985221862792969e-01 -4.188657402992248535e-01
2.328000000000000000e+03 1.070471191406250000e+01 5.746511936187744141e+00 4.267120093572884798e-04 -2.331606345251202583e-03 -5.714683211408555508e-04 -1.478570862673223019e-03
2.329000000000000000e+03 3.176388740539550781e+01 -1.252978801727294922e+01 -8.702658414840698242e-01 -1.734657771885395050e-02 -2.662837207317352295e-01 -4.394846558570861816e-01
2.330000000000000000e+03 4.994304275512695312e+01 -1.375176310539245605e+00 -4.845606386661529541e-01 5.149949193000793457e-01 9.130279533565044403e-03 -5.123375654220581055e-01
2.331000000000000000e+03 2.684721565246582031e+01 -1.170434093475341797e+01 -7.553609013557434082e-01 -1.589253777638077736e-03 -2.270850390195846558e-01 -4.202695488929748535e-01
2.332000000000000000e+03 2.597456550598144531e+01 -1.176329231262207031e+01 -7.095695734024047852e-01 3.783199936151504517e-03 -2.117359191179275513e-01 -4.229639470577239990e-01
2.333000000000000000e+03 2.687119674682617188e+01 -1.244393157958984375e+01 -7.085117101669311523e-01 -2.772015053778886795e-03 -2.133851051330566406e-01 -4.491588473320007324e-01
2.334000000000000000e+03 5.141394042968750000e+01 -2.155376911163330078e+00 -4.839166104793548584e-01 5.185761451721191406e-01 1.039786729961633682e-02 -6.950125098228454590e-01
2.335000000000000000e+03 5.070179367065429688e+01 -1.423550844192504883e+00 -3.439929485321044922e-01 6.136134266853332520e-01 8.088614046573638916e-02 -6.902500391006469727e-01
2.336000000000000000e+03 2.924339485168457031e+01 -1.266257667541503906e+01 -7.675758600234985352e-01 -1.593963056802749634e-02 -2.350546419620513916e-01 -4.549719989299774170e-01
2.337000000000000000e+03 2.841733360290527344e+01 -1.251128387451171875e+01 -7.574046254158020020e-01 -1.314109843224287033e-02 -2.311637103557586670e-01 -4.502015709877014160e-01
2.338000000000000000e+03 5.256835937500000000e+01 -1.448039412498474121e+00 8.811163902282714844e-02 1.145027637481689453e+00 3.699418008327484131e-01 -1.324556231498718262e+00
2.339000000000000000e+03 5.206296539306640625e+01 -1.578539133071899414e+00 -6.354086101055145264e-02 9.418435692787170410e-01 2.634908258914947510e-01 -1.107756018638610840e+00
2.340000000000000000e+03 2.235410690307617188e+01 -1.136736869812011719e+01 -5.679792761802673340e-01 1.103715971112251282e-02 -1.670826375484466553e-01 -3.884053230285644531e-01
2.341000000000000000e+03 2.089142227172851562e+01 -1.582548332214355469e+01 -4.511802494525909424e-01 -6.929910928010940552e-02 -1.561437994241714478e-01 -4.478534758090972900e-01
2.342000000000000000e+03 2.099281692504882812e+01 -1.278215122222900391e+01 -5.172665119171142578e-01 -2.537089958786964417e-02 -1.627912372350692749e-01 -4.183175861835479736e-01
2.343000000000000000e+03 2.764214134216308594e+01 -1.243550205230712891e+01 -7.366581559181213379e-01 -7.646942045539617538e-03 -2.232915312051773071e-01 -4.487259387969970703e-01
2.344000000000000000e+03 5.274988937377929688e+01 -1.195849418640136719e+01 2.946438491344451904e-01 1.522387623786926270e+00 5.451094508171081543e-01 1.572677016258239746e+00
2.345000000000000000e+03 2.395335578918457031e+01 -1.208845996856689453e+01 -6.167063117027282715e-01 1.138431299477815628e-02 -1.815965920686721802e-01 -4.267230331897735596e-01
2.346000000000000000e+03 2.473941421508789062e+01 -1.246198558807373047e+01 -6.306858062744140625e-01 7.257441524416208267e-03 -1.870284974575042725e-01 -4.462035596370697021e-01
2.347000000000000000e+03 2.266414260864257812e+01 -1.207325267791748047e+01 -5.723197460174560547e-01 7.433137856423854828e-03 -1.694659888744354248e-01 -4.180496931076049805e-01
2.348000000000000000e+03 5.451185607910156250e+01 -1.106902599334716797e+01 6.152777075767517090e-01 2.203909873962402344e+00 8.457562923431396484e-01 2.277394533157348633e+00
2.349000000000000000e+03 5.322762680053710938e+01 -1.051169681549072266e+01 9.549880772829055786e-02 1.033354997634887695e+00 3.386561274528503418e-01 1.363611340522766113e+00
2.350000000000000000e+03 1.112734794616699219e+01 6.775225162506103516e+00 4.547579737845808268e-05 -2.493397332727909088e-03 -7.343764882534742355e-04 -1.157284248620271683e-03
2.351000000000000000e+03 7.741390228271484375e+00 9.538506507873535156e+00 -1.749280636431649327e-04 6.183241493999958038e-04 1.330188242718577385e-04 1.565254206070676446e-04
2.352000000000000000e+03 8.277219772338867188e+00 6.773556232452392578e+00 4.759207949973642826e-04 -1.931173144839704037e-03 -4.365757049527019262e-04 -2.343783708056434989e-04
2.353000000000000000e+03 6.820562839508056641e+00 1.035264682769775391e+01 2.315604360774159431e-03 1.300875912420451641e-03 1.084944116882979870e-03 2.930681686848402023e-03
2.354000000000000000e+03 2.187135124206542969e+01 5.719318389892578125e-01 -1.252666264772415161e-01 -3.450010120868682861e-01 -1.410802900791168213e-01 3.550971150398254395e-01
2.355000000000000000e+03 2.353652381896972656e+01 7.455589294433593750e+00 -3.981345891952514648e-01 -5.303085446357727051e-01 -2.785329520702362061e-01 7.015745043754577637e-01
2.356000000000000000e+03 6.426811218261718750e+00 2.126545906066894531e+01 -3.047978579998016357e-01 -1.545634418725967407e-01 -1.378083974123001099e-01 2.909394204616546631e-01
2.357000000000000000e+03 9.832208633422851562e+00 7.158634662628173828e+00 9.687651763670146465e-04 -2.346177352592349052e-03 -4.132236936129629612e-04 2.140262513421475887e-04
2.358000000000000000e+03 7.285697937011718750e+01 -2.709226989746093750e+01 -2.394493371248245239e-01 7.936477661132812500e+00 2.309108495712280273e+00 -4.023096561431884766e-01
2.359000000000000000e+03 6.977410125732421875e+01 -3.243258285522460938e+01 -2.354094833135604858e-01 7.530063629150390625e+00 2.188396215438842773e+00 -1.374714672565460205e-01
2.360000000000000000e+03 7.247737121582031250e+01 -3.188426780700683594e+01 -1.631273031234741211e-01 7.868321418762207031e+00 2.311558246612548828e+00 -1.974319815635681152e-01
2.361000000000000000e+03 7.294548034667968750e+01 -2.255931472778320312e+01 -2.916474044322967529e-01 7.924050331115722656e+00 2.289720773696899414e+00 -6.747968196868896484e-01
2.362000000000000000e+03 9.679966926574707031e+00 2.974965476989746094e+01 1.584665626287460327e-01 -6.899004578590393066e-01 -1.594301611185073853e-01 4.067922532558441162e-01
2.363000000000000000e+03 8.548686027526855469e+00 3.237697219848632812e+01 1.565994620323181152e-01 -6.968149542808532715e-01 -1.620646417140960693e-01 3.193376958370208740e-01
2.364000000000000000e+03 7.343063354492187500e+01 4.470126628875732422e-01 2.078151851892471313e-01 7.430018901824951172e+00 2.291350126266479492e+00 9.697684645652770996e-01
2.365000000000000000e+03 7.188390350341796875e+01 1.702946090698242188e+01 -2.330590635538101196e-01 7.760900497436523438e+00 2.258352518081665039e+00 2.218818366527557373e-01
2.366000000000000000e+03 7.294842529296875000e+01 1.626059913635253906e+01 -2.086517959833145142e-01 7.863782882690429688e+00 2.296539306640625000e+00 2.599737346172332764e-01
2.367000000000000000e+03 7.159799194335937500e+01 2.640351867675781250e+01 -6.110562011599540710e-02 7.564821243286132812e+00 2.251114845275878906e+00 -2.759017422795295715e-02
2.368000000000000000e+03 7.188423156738281250e+01 -2.184007644653320312e+01 -3.647248148918151855e-01 7.964580059051513672e+00 2.279956579208374023e+00 -7.248030304908752441e-01
2.369000000000000000e+03 7.047354888916015625e+01 1.051301956176757812e+01 -4.747471511363983154e-01 7.933974742889404297e+00 2.237768173217773438e+00 5.350362062454223633e-01
2.370000000000000000e+03 7.241014099121093750e+01 7.920560359954833984e+00 -3.252114057540893555e-01 7.915980815887451172e+00 2.277230739593505859e+00 7.761159539222717285e-01
2.371000000000000000e+03 7.388194274902343750e+01 -1.733759307861328125e+01 -1.114948689937591553e-01 7.654907703399658203e+00 2.263023853302001953e+00 -9.521463513374328613e-01
2.372000000000000000e+03 7.389625549316406250e+01 -1.606859397888183594e+01 -3.854017704725265503e-02 7.566852092742919922e+00 2.258493661880493164e+00 -9.809477329254150391e-01
2.373000000000000000e+03 7.235791778564453125e+01 4.093245506286621094e+00 -1.543156206607818604e-01 7.880050182342529297e+00 2.317720413208007812e+00 1.016282320022583008e+00
2.374000000000000000e+03 7.387388610839843750e+01 -6.995040893554687500e+00 6.896347999572753906e-01 6.937162399291992188e+00 2.288039207458496094e+00 -1.254701018333435059e-01
2.375000000000000000e+03 7.393586730957031250e+01 -1.479338455200195312e+01 5.713487043976783752e-02 7.461965084075927734e+00 2.255729913711547852e+00 -9.875379204750061035e-01
2.376000000000000000e+03 7.502456665039062500e+01 -1.356343364715576172e+01 1.232186332345008850e-01 7.088703155517578125e+00 2.163576602935791016e+00 -8.539436459541320801e-01
2.377000000000000000e+03 7.397471618652343750e+01 -1.093706703186035156e+01 4.266869723796844482e-01 7.120475292205810547e+00 2.264148712158203125e+00 -7.571499943733215332e-01
2.378000000000000000e+03 7.397991180419921875e+01 -1.351580047607421875e+01 1.702520996332168579e-01 7.340663433074951172e+00 2.253274679183959961e+00 -9.514665603637695312e-01
2.379000000000000000e+03 7.280540466308593750e+01 -5.863777637481689453e+00 9.032508134841918945e-01 7.214828968048095703e+00 2.435423851013183594e+00 1.075854748487472534e-01
2.380000000000000000e+03 7.369457244873046875e+01 -1.989798927307128906e+01 -2.208255380392074585e-01 7.813014507293701172e+00 2.277656793594360352e+00 -8.257606029510498047e-01
2.381000000000000000e+03 7.436726379394531250e+01 5.595439434051513672e+00 -1.436562687158584595e-01 7.621150970458984375e+00 2.243248462677001953e+00 8.564146161079406738e-01
2.382000000000000000e+03 7.366859436035156250e+01 1.308772468566894531e+01 -2.258465737104415894e-01 7.911705493927001953e+00 2.305757761001586914e+00 4.298519492149353027e-01
2.383000000000000000e+03 7.141825103759765625e+01 8.859603881835937500e+00 -4.069020450115203857e-01 7.968511581420898438e+00 2.268482923507690430e+00 6.928427815437316895e-01
2.384000000000000000e+03 7.441989135742187500e+01 -1.197924971580505371e+00 3.215745985507965088e-01 7.050173759460449219e+00 2.211524486541748047e+00 7.748376727104187012e-01
2.385000000000000000e+03 7.187287902832031250e+01 -2.591000556945800781e+01 -3.284631073474884033e-01 7.891403675079345703e+00 2.268882274627685547e+00 -4.645308256149291992e-01
2.386000000000000000e+03 7.317044067382812500e+01 -8.751078844070434570e-01 3.979040980339050293e-01 7.394800662994384766e+00 2.337811470031738281e+00 9.019396305084228516e-01
2.387000000000000000e+03 7.417765045166015625e+01 1.969768524169921875e+01 -1.093121916055679321e-01 7.982940673828125000e+00 2.362088680267333984e+00 1.342035382986068726e-01
2.388000000000000000e+03 7.033285140991210938e+00 3.425567245483398438e+01 1.351718008518218994e-01 -7.176743745803833008e-01 -1.747507601976394653e-01 2.556643486022949219e-01
2.389000000000000000e+03 5.036249637603759766e+00 2.569709014892578125e+01 -4.002761840820312500e-02 -4.055328369140625000e-01 -1.336681395769119263e-01 3.285768628120422363e-01
2.390000000000000000e+03 6.746258735656738281e+00 2.499558067321777344e+01 -7.412776350975036621e-02 -4.624073505401611328e-01 -1.609605401754379272e-01 4.244386851787567139e-01
2.391000000000000000e+03 1.059094238281250000e+01 2.130858802795410156e+01 -3.918405175209045410e-01 -6.467027664184570312e-01 -3.115629851818084717e-01 6.456118226051330566e-01
2.392000000000000000e+03 7.050906181335449219e+00 -2.443239021301269531e+01 -3.831565752625465393e-02 -3.289773166179656982e-01 -1.101878881454467773e-01 -3.087986111640930176e-01
2.393000000000000000e+03 6.668526649475097656e+00 -6.568737030029296875e+00 3.353500505909323692e-04 -3.244630934204906225e-04 3.266083922426332720e-06 -4.024298104923218489e-04
2.394000000000000000e+03 9.471773147583007812e+00 2.818335533142089844e+01 1.060665547847747803e-01 -6.807883977890014648e-01 -1.724165380001068115e-01 4.504811763763427734e-01
2.395000000000000000e+03 7.909094810485839844e+00 8.019577980041503906e+00 4.229243204463273287e-04 -3.431006043683737516e-04 2.394711918896064162e-05 -2.016170183196663857e-04
2.396000000000000000e+03 4.843554019927978516e+00 6.863919734954833984e+00 1.390238525345921516e-03 1.762646279530599713e-04 4.699509590864181519e-04 -1.432636636309325695e-04
2.397000000000000000e+03 7.394348144531250000e+00 7.152500152587890625e+00 3.072121762670576572e-04 1.621679170057177544e-03 5.786673864349722862e-04 5.773842567577958107e-04
2.398000000000000000e+03 1.255461120605468750e+01 -2.123856544494628906e+01 -1.552112549543380737e-01 -4.528250694274902344e-01 -1.824108958244323730e-01 -3.439930379390716553e-01
2.399000000000000000e+03 8.949168205261230469e+00 -2.147538757324218750e+01 -1.437325328588485718e-01 -3.754347264766693115e-01 -1.557501703500747681e-01 -3.754145801067352295e-01
2.400000000000000000e+03 2.226378440856933594e+01 -1.315698051452636719e+01 -5.406722426414489746e-01 -8.671941235661506653e-03 -1.648032516241073608e-01 -4.426867365837097168e-01
2.401000000000000000e+03 1.117323875427246094e+01 -2.424663352966308594e+01 -1.669166050851345062e-02 -4.249441623687744141e-01 -1.324907392263412476e-01 -3.545564413070678711e-01
2.402000000000000000e+03 1.848458862304687500e+01 -1.891618537902832031e+01 -3.071051537990570068e-01 -2.059187889099121094e-01 -1.539071798324584961e-01 -3.889048397541046143e-01
2.403000000000000000e+03 1.518045234680175781e+01 2.118967628479003906e+01 -2.318468093872070312e-01 -1.048164606094360352e+00 -3.840034306049346924e-01 5.180075168609619141e-01
2.404000000000000000e+03 9.203804969787597656e+00 2.405240821838378906e+01 -1.017762646079063416e-01 -5.819046497344970703e-01 -2.051042765378952026e-01 5.265912413597106934e-01
2.405000000000000000e+03 1.367634391784667969e+01 2.339874458312988281e+01 -3.761498257517814636e-02 -9.176520109176635742e-01 -2.865800857543945312e-01 5.263921022415161133e-01
2.406000000000000000e+03 2.355879020690917969e+01 1.371480751037597656e+01 -4.624612033367156982e-01 -4.799937903881072998e-01 -2.827365100383758545e-01 5.380166769027709961e-01
2.407000000000000000e+03 2.447449874877929688e+01 1.704542350769042969e+01 -2.824690341949462891e-01 -3.188333809375762939e-01 -1.803907155990600586e-01 3.558367788791656494e-01
2.408000000000000000e+03 2.155426788330078125e+01 -1.508802700042724609e+01 -4.822443425655364990e-01 -4.618820548057556152e-02 -1.585297584533691406e-01 -4.568175077438354492e-01
2.409000000000000000e+03 2.394121742248535156e+01 4.301357269287109375e+00 -2.973419129848480225e-01 -4.171458184719085693e-01 -2.143463194370269775e-01 6.500252485275268555e-01
2.410000000000000000e+03 2.372487068176269531e+01 5.154186725616455078e+00 -3.164832592010498047e-01 -4.833590686321258545e-01 -2.399526983499526978e-01 6.711086630821228027e-01
2.411000000000000000e+03 8.576522827148437500e+00 -3.023689079284667969e+01 8.549882471561431885e-02 -4.463384747505187988e-01 -1.082518920302391052e-01 -2.716958820819854736e-01
2.412000000000000000e+03 1.508956813812255859e+01 2.319661140441894531e+01 -2.851120941340923309e-02 -9.528785347938537598e-01 -2.944169342517852783e-01 4.660260975360870361e-01
2.413000000000000000e+03 1.706339263916015625e+01 -2.202762413024902344e+01 -1.272662878036499023e-01 -3.003259599208831787e-01 -1.282776743173599243e-01 -3.487782180309295654e-01
2.414000000000000000e+03 2.468915939331054688e+01 7.342779159545898438e+00 -3.939784467220306396e-01 -4.095665514469146729e-01 -2.410635054111480713e-01 7.090441584587097168e-01
2.415000000000000000e+03 2.239612197875976562e+01 1.468467712402343750e+01 -4.921953082084655762e-01 -6.087896823883056641e-01 -3.302955031394958496e-01 5.140911936759948730e-01
2.416000000000000000e+03 5.126445770263671875e+00 -1.379598140716552734e+01 6.709840148687362671e-03 -9.721073321998119354e-03 -9.033700916916131973e-04 -3.634478198364377022e-03
2.417000000000000000e+03 6.599447250366210938e+00 2.255628585815429688e+01 -1.899377107620239258e-01 -2.983658015727996826e-01 -1.464910507202148438e-01 3.765831887722015381e-01
2.418000000000000000e+03 7.301351165771484375e+01 1.945981788635253906e+01 -1.431471258401870728e-01 7.855975627899169922e+00 2.313848495483398438e+00 1.419273465871810913e-01
2.419000000000000000e+03 7.360583305358886719e+00 -2.854737472534179688e+01 5.267258733510971069e-02 -4.212244153022766113e-01 -1.105655506253242493e-01 -2.785136699676513672e-01
2.420000000000000000e+03 7.084539031982421875e+01 2.825930023193359375e+01 -3.933944180607795715e-02 7.430112838745117188e+00 2.217231988906860352e+00 -3.914612159132957458e-02
2.421000000000000000e+03 5.735677719116210938e+01 -3.645003557205200195e+00 1.596060514450073242e+00 5.348324775695800781e+00 2.083315610885620117e+00 -4.604065418243408203e+00
2.422000000000000000e+03 5.873505020141601562e+01 -9.182501792907714844e+00 4.892646372318267822e-01 1.200907707214355469e+01 3.749502420425415039e+00 4.903287410736083984e+00
2.423000000000000000e+03 5.747656631469726562e+01 -3.283238410949707031e+00 1.260421037673950195e+00 6.361154556274414062e+00 2.286472558975219727e+00 -4.683701992034912109e+00
2.424000000000000000e+03 5.903782653808593750e+01 -3.685386896133422852e+00 2.491552531719207764e-01 1.330123138427734375e+01 4.065115928649902344e+00 -4.428291797637939453e+00
2.425000000000000000e+03 5.625209045410156250e+01 -9.681847572326660156e+00 1.210884928703308105e+00 3.204723358154296875e+00 1.324682474136352539e+00 3.303060054779052734e+00
2.426000000000000000e+03 5.543293762207031250e+01 -1.028580474853515625e+01 8.694728016853332520e-01 2.517126798629760742e+00 1.015979886054992676e+00 2.738215684890747070e+00
2.427000000000000000e+03 5.723796081542968750e+01 -9.251875877380371094e+00 1.592284202575683594e+00 5.119766235351562500e+00 2.013615131378173828e+00 4.465464591979980469e+00
2.428000000000000000e+03 5.725096511840820312e+01 -8.805035591125488281e+00 1.936635255813598633e+00 4.504746913909912109e+00 1.932414531707763672e+00 4.465246200561523438e+00
2.429000000000000000e+03 6.070994567871093750e+01 -4.281498432159423828e+00 2.035061836242675781e+00 1.661606407165527344e+01 5.595337867736816406e+00 9.215793013572692871e-01
2.430000000000000000e+03 6.026673889160156250e+01 -3.855672597885131836e+00 5.745549201965332031e-01 1.654424667358398438e+01 5.135640621185302734e+00 -7.197026610374450684e-01
2.431000000000000000e+03 5.956899642944335938e+01 -9.018665313720703125e+00 2.784793265163898468e-02 1.535314273834228516e+01 4.614296913146972656e+00 2.984414577484130859e+00
2.432000000000000000e+03 6.185235977172851562e+01 -5.975251197814941406e+00 7.334633350372314453e+00 1.340935039520263672e+01 6.223195075988769531e+00 8.255844116210937500e-01
2.433000000000000000e+03 6.131164169311523438e+01 -8.099035263061523438e+00 4.003040790557861328e+00 1.534099864959716797e+01 5.803211688995361328e+00 -1.947266817092895508e+00
2.434000000000000000e+03 6.174522018432617188e+01 -7.161914348602294922e+00 6.845722675323486328e+00 1.381826305389404297e+01 6.199195861816406250e+00 -1.532264113426208496e+00
2.435000000000000000e+03 6.204148864746093750e+01 -6.140872478485107422e+00 7.177687168121337891e+00 1.292537021636962891e+01 6.030917167663574219e+00 4.395596086978912354e-01
2.436000000000000000e+03 6.112895202636718750e+01 -8.452073097229003906e+00 2.743422746658325195e+00 1.580510044097900391e+01 5.564557075500488281e+00 -1.514858722686767578e+00
2.437000000000000000e+03 6.025436019897460938e+01 -8.924076080322265625e+00 5.327032804489135742e-01 1.626803398132324219e+01 5.040221214294433594e+00 8.083161711692810059e-01
2.438000000000000000e+03 6.031090545654296875e+01 -4.116712093353271484e+00 1.054621934890747070e+00 1.717319679260253906e+01 5.468345642089843750e+00 -2.391018569469451904e-01
2.439000000000000000e+03 5.600127792358398438e+01 -3.776837348937988281e+00 1.054762601852416992e+00 1.945568084716796875e+00 9.000992178916931152e-01 -2.678292512893676758e+00
2.440000000000000000e+03 5.593799972534179688e+01 -9.373932838439941406e+00 1.086549282073974609e+00 2.406285524368286133e+00 1.047850489616394043e+00 2.824861764907836914e+00
2.441000000000000000e+03 5.608659362792968750e+01 -3.313901424407958984e+00 1.122251391410827637e+00 2.676069974899291992e+00 1.139496445655822754e+00 -3.076116085052490234e+00
2.442000000000000000e+03 5.803062820434570312e+01 -3.521265268325805664e+00 1.150398731231689453e+00 8.345389366149902344e+00 2.848736286163330078e+00 -5.195072650909423828e+00
2.443000000000000000e+03 5.506100082397460938e+01 -2.243569135665893555e+00 7.069401144981384277e-01 2.278841972351074219e+00 8.957346677780151367e-01 -2.502956867218017578e+00
2.444000000000000000e+03 5.414666748046875000e+01 -1.082606029510498047e+01 4.919289648532867432e-01 1.675848722457885742e+00 6.503332853317260742e-01 1.960674643516540527e+00
2.445000000000000000e+03 5.765855407714843750e+01 -9.013218879699707031e+00 1.695435047149658203e+00 6.485342025756835938e+00 2.454233169555664062e+00 5.044421195983886719e+00
2.446000000000000000e+03 2.493237876892089844e+01 2.948121428489685059e-01 -2.984854280948638916e-01 -2.164161056280136108e-01 -1.544704586267471313e-01 5.140041708946228027e-01
2.447000000000000000e+03 5.408251953125000000e+01 -1.133159065246582031e+01 5.334809422492980957e-01 2.006327152252197266e+00 7.619424462318420410e-01 2.101473808288574219e+00
2.448000000000000000e+03 5.492616271972656250e+01 -1.138392448425292969e+01 6.823540329933166504e-01 2.759370326995849609e+00 1.032517313957214355e+00 2.584032297134399414e+00
2.449000000000000000e+03 2.627886199951171875e+01 -1.744485497474670410e+00 -3.908628523349761963e-01 -1.022003740072250366e-01 -1.479189693927764893e-01 4.352718293666839600e-01
2.450000000000000000e+03 2.520829963684082031e+01 -9.307326674461364746e-01 -3.185872435569763184e-01 -1.596556603908538818e-01 -1.434728801250457764e-01 4.545951485633850098e-01
2.451000000000000000e+03 9.189612388610839844e+00 5.907656192779541016e+00 3.151383425574749708e-04 -2.056134631857275963e-03 -5.222988547757267952e-04 -6.343307322822511196e-04
2.452000000000000000e+03 2.460940170288085938e+01 -1.082673907279968262e+00 -2.744580209255218506e-01 -1.735934168100357056e-01 -1.344154328107833862e-01 4.170970320701599121e-01
2.453000000000000000e+03 5.451651382446289062e+01 -2.085975408554077148e+00 5.666535496711730957e-01 1.928315877914428711e+00 7.484908103942871094e-01 -2.174162864685058594e+00
2.454000000000000000e+03 2.764237594604492188e+01 -1.722164154052734375e+00 -4.800558686256408691e-01 -7.104089856147766113e-02 -1.653290241956710815e-01 4.693579673767089844e-01
2.455000000000000000e+03 2.621598243713378906e+01 -6.524066925048828125e-01 -3.717119097709655762e-01 -1.398290395736694336e-01 -1.534622907638549805e-01 5.038431286811828613e-01
2.456000000000000000e+03 2.798550796508789062e+01 -5.424201488494873047e-03 -4.631169736385345459e-01 -9.336924552917480469e-02 -1.669458746910095215e-01 5.803825259208679199e-01
2.457000000000000000e+03 2.831998062133789062e+01 -1.084776639938354492e+00 -5.096939802169799805e-01 -6.689937412738800049e-02 -1.729780137538909912e-01 5.250245332717895508e-01
2.458000000000000000e+03 2.833552360534667969e+01 -1.693922877311706543e+00 -5.252487063407897949e-01 -5.668253079056739807e-02 -1.745793670415878296e-01 4.864870607852935791e-01
2.459000000000000000e+03 3.199365043640136719e+01 -1.438449263572692871e+00 -7.469197511672973633e-01 5.300688091665506363e-03 -2.224857062101364136e-01 5.340120196342468262e-01
2.460000000000000000e+03 3.042403221130371094e+01 -8.100085258483886719e-01 -6.196671128273010254e-01 -2.346977405250072479e-02 -1.929410696029663086e-01 5.635701417922973633e-01
2.461000000000000000e+03 2.900590324401855469e+01 -1.025895595550537109e+00 -5.470067858695983887e-01 -5.158631503582000732e-02 -1.795779317617416382e-01 5.384749174118041992e-01
2.462000000000000000e+03 3.107344436645507812e+01 1.245007035322487354e-03 -6.104158759117126465e-01 -1.194164156913757324e-02 -1.867072433233261108e-01 6.084631085395812988e-01
2.463000000000000000e+03 3.123612403869628906e+01 -1.449786663055419922e+00 -7.035802602767944336e-01 -5.324360914528369904e-03 -2.126713842153549194e-01 5.319110751152038574e-01
2.464000000000000000e+03 3.348848724365234375e+01 -1.458157896995544434e+00 -8.369233608245849609e-01 2.355537004768848419e-02 -2.440103888511657715e-01 5.303781628608703613e-01
2.465000000000000000e+03 3.203022384643554688e+01 -6.919248104095458984e-01 -6.915078759193420410e-01 6.632640026509761810e-03 -2.054625600576400757e-01 5.765151977539062500e-01
2.466000000000000000e+03 4.498961257934570312e+01 -1.256925106048583984e+01 -7.572665810585021973e-01 2.239297479391098022e-01 -1.600010395050048828e-01 -3.494032472372055054e-02
2.467000000000000000e+03 4.349140930175781250e+01 -1.191634273529052734e+01 -1.037505745887756348e+00 1.064345687627792358e-01 -2.793213427066802979e-01 -1.763694733381271362e-01
2.468000000000000000e+03 4.570598602294921875e+01 -1.244150733947753906e+01 -7.335609197616577148e-01 2.537743747234344482e-01 -1.439359784126281738e-01 3.070801682770252228e-02
2.469000000000000000e+03 5.192175674438476562e+01 -1.264683914184570312e+01 2.404744774103164673e-01 1.382505536079406738e+00 4.868939816951751709e-01 1.364927411079406738e+00
2.470000000000000000e+03 5.070089721679687500e+01 -1.178130435943603516e+01 -1.985717862844467163e-01 7.271685600280761719e-01 1.585790216922760010e-01 7.969960570335388184e-01
2.471000000000000000e+03 4.412842941284179688e+01 -1.337090396881103516e+01 -6.185964941978454590e-01 2.373611778020858765e-01 -1.143705844879150391e-01 -4.687424749135971069e-02
2.472000000000000000e+03 3.424330520629882812e+01 -7.571625113487243652e-01 -8.060231804847717285e-01 3.772083669900894165e-02 -2.304906994104385376e-01 5.598808526992797852e-01
2.473000000000000000e+03 3.498432922363281250e+01 -7.275872826576232910e-01 -8.339398503303527832e-01 4.546631872653961182e-02 -2.365420609712600708e-01 5.512936711311340332e-01
2.474000000000000000e+03 4.982445526123046875e+01 -1.251264572143554688e+01 -1.687172204256057739e-01 7.298406958580017090e-01 1.683370471000671387e-01 7.125285863876342773e-01
2.475000000000000000e+03 3.989439773559570312e+01 -1.200635814666748047e+01 -1.110146641731262207e+00 3.822168335318565369e-02 -3.215774893760681152e-01 -3.168525099754333496e-01
2.476000000000000000e+03 4.061534881591796875e+01 -1.262853622436523438e+01 -9.561229348182678223e-01 7.463759183883666992e-02 -2.644456028938293457e-01 -2.900800704956054688e-01
2.477000000000000000e+03 4.192165756225585938e+01 -1.271293830871582031e+01 -8.820382952690124512e-01 1.107949092984199524e-01 -2.313730120658874512e-01 -2.283592671155929565e-01
2.478000000000000000e+03 4.009625244140625000e+01 -1.355998420715332031e+01 -7.478823065757751465e-01 1.005171388387680054e-01 -1.942095607519149780e-01 -2.946689426898956299e-01
2.479000000000000000e+03 4.785154724121093750e+01 -1.167336177825927734e+01 -7.521542310714721680e-01 3.133082985877990723e-01 -1.316537708044052124e-01 2.011158168315887451e-01
2.480000000000000000e+03 4.775519180297851562e+01 -1.235535430908203125e+01 -5.384564399719238281e-01 4.129221141338348389e-01 -3.766029700636863708e-02 2.823906242847442627e-01
2.481000000000000000e+03 4.639054107666015625e+01 -1.238339424133300781e+01 -6.885310411453247070e-01 2.849466204643249512e-01 -1.210753247141838074e-01 9.298738092184066772e-02
2.482000000000000000e+03 4.706861495971679688e+01 -1.235476303100585938e+01 -6.302852630615234375e-01 3.414757847785949707e-01 -8.664283901453018188e-02 1.744097620248794556e-01
2.483000000000000000e+03 3.497055816650390625e+01 -2.365843951702117920e-02 -7.528525590896606445e-01 5.679955706000328064e-02 -2.088159024715423584e-01 5.769978761672973633e-01
2.484000000000000000e+03 5.097972869873046875e+01 -1.355113315582275391e+01 2.147670388221740723e-01 1.338498711585998535e+00 4.659797251224517822e-01 1.212229609489440918e+00
2.485000000000000000e+03 3.622001647949218750e+01 -1.216615104675292969e+01 -1.038382649421691895e+00 1.078977249562740326e-03 -3.111911118030548096e-01 -3.944219648838043213e-01
2.486000000000000000e+03 3.845933151245117188e+01 -1.285929203033447266e+01 -9.271188378334045410e-01 4.329510405659675598e-02 -2.651471197605133057e-01 -3.523713350296020508e-01
2.487000000000000000e+03 3.793664169311523438e+01 -1.364306449890136719e+00 -1.042015552520751953e+00 5.740681290626525879e-02 -2.953826189041137695e-01 4.753169715404510498e-01
2.488000000000000000e+03 3.547563934326171875e+01 -1.224071407318115234e+01 -1.011053800582885742e+00 -2.864216687157750130e-03 -3.041754066944122314e-01 -4.022989273071289062e-01
2.489000000000000000e+03 4.913028335571289062e+01 -1.244431209564208984e+01 -3.003309667110443115e-01 5.933593511581420898e-01 8.790851384401321411e-02 5.482149720191955566e-01
2.490000000000000000e+03 5.052698898315429688e+01 -1.258909416198730469e+01 -2.211203426122665405e-02 9.148722887039184570e-01 2.678280770778656006e-01 9.168989062309265137e-01
2.491000000000000000e+03 3.867736816406250000e+01 -1.348344206809997559e+00 -1.064853906631469727e+00 6.243327260017395020e-02 -3.007262051105499268e-01 4.576267004013061523e-01
2.492000000000000000e+03 3.646639633178710938e+01 -6.902565956115722656e-01 -8.837604522705078125e-01 5.967943742871284485e-02 -2.472243010997772217e-01 5.296750068664550781e-01
2.493000000000000000e+03 3.867648315429687500e+01 -6.532896757125854492e-01 -9.375340938568115234e-01 8.207652717828750610e-02 -2.566372752189636230e-01 4.760074317455291748e-01
2.494000000000000000e+03 3.794254302978515625e+01 -6.719238758087158203e-01 -9.236845970153808594e-01 7.437229156494140625e-02 -2.547937035560607910e-01 4.962868988513946533e-01
2.495000000000000000e+03 4.388195800781250000e+01 -1.189924240112304688e+00 -1.050056219100952148e+00 1.340501904487609863e-01 -2.748017907142639160e-01 2.416671216487884521e-01
2.496000000000000000e+03 3.400863647460937500e+01 -1.314209079742431641e+01 -8.292033672332763672e-01 6.573609542101621628e-03 -2.467889338731765747e-01 -4.352358281612396240e-01
2.497000000000000000e+03 4.612686538696289062e+01 -3.878550827503204346e-01 -6.814454197883605957e-01 2.901813089847564697e-01 -1.173792257905006409e-01 -9.713799692690372467e-03
2.498000000000000000e+03 4.088787841796875000e+01 -1.284414649009704590e+00 -1.100622415542602539e+00 7.957875728607177734e-02 -3.063130974769592285e-01 3.907402753829956055e-01
2.499000000000000000e+03 4.461329650878906250e+01 -4.300319850444793701e-01 -7.998586893081665039e-01 2.172291427850723267e-01 -1.747888624668121338e-01 1.510472595691680908e-01
2.500000000000000000e+03 4.013891220092773438e+01 -6.017469763755798340e-01 -9.461210370063781738e-01 9.860271215438842773e-02 -2.542555034160614014e-01 4.254764914512634277e-01
2.501000000000000000e+03 4.230451965332031250e+01 1.979616880416870117e-01 -7.481079697608947754e-01 1.795155704021453857e-01 -1.705777049064636230e-01 3.008580207824707031e-01
2.502000000000000000e+03 3.476364135742187500e+01 -1.317004585266113281e+01 -8.397770524024963379e-01 1.623194548301398754e-04 -2.518844008445739746e-01 -4.256339073181152344e-01
2.503000000000000000e+03 3.698657608032226562e+01 -1.281586933135986328e+01 -9.218891263008117676e-01 2.387663349509239197e-02 -2.694037556648254395e-01 -3.890815377235412598e-01
2.504000000000000000e+03 4.537413406372070312e+01 -3.982982933521270752e-01 -7.445102334022521973e-01 2.517828941345214844e-01 -1.478182077407836914e-01 7.315132021903991699e-02
2.505000000000000000e+03 4.160798645019531250e+01 -5.526833534240722656e-01 -9.309622645378112793e-01 1.207933798432350159e-01 -2.430506646633148193e-01 3.583861887454986572e-01
2.506000000000000000e+03 4.086980819702148438e+01 -5.752059221267700195e-01 -9.428058862686157227e-01 1.089825853705406189e-01 -2.501469850540161133e-01 3.935069739818572998e-01
2.507000000000000000e+03 4.687975311279296875e+01 -4.155365526676177979e-01 -6.186544299125671387e-01 3.393448293209075928e-01 -8.379288017749786377e-02 -9.933307766914367676e-02
2.508000000000000000e+03 3.252950668334960938e+01 -1.244590950012207031e+01 -9.026806950569152832e-01 -1.780931837856769562e-02 -2.761470079421997070e-01 -4.327766597270965576e-01
2.509000000000000000e+03 3.109511947631835938e+01 -1.349296760559082031e+01 -7.275884151458740234e-01 -1.130702719092369080e-02 -2.216686308383941650e-01 -4.725108742713928223e-01
2.510000000000000000e+03 3.190342330932617188e+01 -1.339003753662109375e+01 -7.652232050895690918e-01 -7.722428999841213226e-03 -2.318836897611618042e-01 -4.638196229934692383e-01
2.511000000000000000e+03 4.763997268676757812e+01 -4.806363582611083984e-01 -5.560060143470764160e-01 3.997064232826232910e-01 -4.688987508416175842e-02 -2.040826827287673950e-01
2.512000000000000000e+03 4.840769195556640625e+01 -1.270939350128173828e+00 -7.154909372329711914e-01 3.473477661609649658e-01 -1.104429587721824646e-01 -2.268514037132263184e-01
2.513000000000000000e+03 5.073518753051757812e+01 -7.088997364044189453e-01 -1.002003625035285950e-01 8.443506360054016113e-01 2.232450842857360840e-01 -8.694547414779663086e-01
2.514000000000000000e+03 3.335152435302734375e+01 -1.313175487518310547e+01 -8.243216872215270996e-01 -5.957738496363162994e-03 -2.490838319063186646e-01 -4.436605274677276611e-01
2.515000000000000000e+03 4.840243148803710938e+01 -5.640532374382019043e-01 -4.801620841026306152e-01 4.714090526103973389e-01 -2.625906141474843025e-03 -3.264335989952087402e-01
2.516000000000000000e+03 5.063136291503906250e+01 6.252668797969818115e-03 2.383573912084102631e-02 1.032263875007629395e+00 3.168298900127410889e-01 -9.685720801353454590e-01
2.517000000000000000e+03 3.026359367370605469e+01 -1.366728115081787109e+01 -6.926907896995544434e-01 -1.344103831797838211e-02 -2.118395417928695679e-01 -4.777353107929229736e-01
2.518000000000000000e+03 2.903507423400878906e+01 -1.343472194671630859e+01 -6.946236491203308105e-01 -1.277092378586530685e-02 -2.122183740139007568e-01 -4.784936904907226562e-01
2.519000000000000000e+03 5.142236709594726562e+01 -1.501907825469970703e+00 -1.993989199399948120e-01 7.314870357513427734e-01 1.596264243125915527e-01 -8.902494311332702637e-01
2.520000000000000000e+03 4.993740081787109375e+01 -6.950889825820922852e-01 -2.696694135665893555e-01 6.684950590133666992e-01 1.196476966142654419e-01 -6.360453367233276367e-01
2.521000000000000000e+03 2.534539222717285156e+01 -1.304771041870117188e+01 -6.195667386054992676e-01 4.278418142348527908e-03 -1.845864951610565186e-01 -4.641415476799011230e-01
2.522000000000000000e+03 2.606863975524902344e+01 -1.259679412841796875e+01 -6.656196117401123047e-01 2.736632712185382843e-03 -1.988648921251296997e-01 -4.548059999942779541e-01
2.523000000000000000e+03 5.252451324462890625e+01 -5.857902169227600098e-01 2.584784030914306641e-01 1.497852444648742676e+00 5.268992781639099121e-01 -1.516188740730285645e+00
2.524000000000000000e+03 2.333731460571289062e+01 -3.576095104217529297e-01 -2.013046741485595703e-01 -2.489021271467208862e-01 -1.350620388984680176e-01 4.010418057441711426e-01
2.525000000000000000e+03 2.428102684020996094e+01 -1.308744812011718750e+01 -5.916345715522766113e-01 4.338534083217382431e-03 -1.761888116598129272e-01 -4.601229727268218994e-01
2.526000000000000000e+03 2.185783576965332031e+01 -1.240714550018310547e+01 -5.433412194252014160e-01 -5.075709428638219833e-03 -1.645250767469406128e-01 -4.204829037189483643e-01
2.527000000000000000e+03 2.693340682983398438e+01 -1.310164546966552734e+01 -6.602317094802856445e-01 -4.129594191908836365e-03 -1.993083953857421875e-01 -4.710884690284729004e-01
2.528000000000000000e+03 2.152164077758789062e+01 -1.364620685577392578e+01 -5.200788974761962891e-01 -2.748199179768562317e-02 -1.642682552337646484e-01 -4.426957070827484131e-01
2.529000000000000000e+03 2.364131164550781250e+01 -1.273628044128417969e+01 -5.886800885200500488e-01 7.434468716382980347e-03 -1.743736863136291504e-01 -4.469581842422485352e-01
2.530000000000000000e+03 5.251494216918945312e+01 -1.271691799163818359e+01 3.447647988796234131e-01 1.697904825210571289e+00 6.128008961677551270e-01 1.610072255134582520e+00
2.531000000000000000e+03 7.051549434661865234e+00 6.309142112731933594e+00 1.324480217590462416e-05 -1.070888480171561241e-03 -3.172931028530001640e-04 3.029291983693838120e-04
2.532000000000000000e+03 7.077757835388183594e+00 8.680047988891601562e+00 8.057104423642158508e-04 1.404682290740311146e-03 6.631177966482937336e-04 1.637710724025964737e-03
2.533000000000000000e+03 2.222708702087402344e+01 -1.445678806304931641e+01 -5.071126818656921387e-01 -2.615715377032756805e-02 -1.599809527397155762e-01 -4.613589048385620117e-01
2.534000000000000000e+03 2.413574218750000000e+01 3.856163471937179565e-03 -2.501962184906005859e-01 -2.365940511226654053e-01 -1.460370719432830811e-01 4.625619649887084961e-01
2.535000000000000000e+03 2.387329483032226562e+01 6.229937076568603516e-01 -2.395861595869064331e-01 -2.786861658096313477e-01 -1.554816961288452148e-01 4.882537722587585449e-01
2.536000000000000000e+03 7.207296752929687500e+01 1.339947891235351562e+01 -3.209727704524993896e-01 7.841375827789306641e+00 2.256120920181274414e+00 3.975125253200531006e-01
2.537000000000000000e+03 7.238044738769531250e+01 -2.073000335693359375e+01 -3.163354396820068359e-01 7.942866802215576172e+00 2.287959575653076172e+00 -8.019607663154602051e-01
2.538000000000000000e+03 7.102082824707031250e+01 -2.475395393371582031e+01 -3.995392322540283203e-01 7.890810012817382812e+00 2.247381210327148438e+00 -5.016514062881469727e-01
2.539000000000000000e+03 5.841415882110595703e+00 7.213825702667236328e+00 -6.075477576814591885e-04 -1.566733772051520646e-05 -1.869645348051562905e-04 4.370984097477048635e-04
2.540000000000000000e+03 2.470832252502441406e+01 6.339545726776123047e+00 -3.705285191535949707e-01 -3.920044898986816406e-01 -2.287598997354507446e-01 7.097386717796325684e-01
2.541000000000000000e+03 2.564113998413085938e+01 9.328269958496093750e+00 -4.104389846324920654e-01 -3.038613200187683105e-01 -2.142900824546813965e-01 6.753602027893066406e-01
2.542000000000000000e+03 7.322918701171875000e+01 5.429510593414306641e+00 -1.941626667976379395e-01 7.775566577911376953e+00 2.274421215057373047e+00 9.219311475753784180e-01
2.543000000000000000e+03 2.028123474121093750e+01 -1.674744033813476562e+01 -4.043371379375457764e-01 -1.034296751022338867e-01 -1.523300409317016602e-01 -4.387664198875427246e-01
2.544000000000000000e+03 2.176178169250488281e+01 -1.656439018249511719e+01 -4.220991432666778564e-01 -6.431403011083602905e-02 -1.459239572286605835e-01 -4.592663347721099854e-01
2.545000000000000000e+03 2.327577400207519531e+01 2.036208152770996094e+00 -2.225006967782974243e-01 -3.863475620746612549e-01 -1.826544851064682007e-01 5.362328290939331055e-01
2.546000000000000000e+03 2.501502799987792969e+01 3.506119728088378906e+00 -3.186183869838714600e-01 -3.122280538082122803e-01 -1.892539411783218384e-01 6.565083265304565430e-01
2.547000000000000000e+03 6.363834381103515625e+00 5.504636764526367188e+00 -6.697120843455195427e-04 -2.008028241107240319e-04 -2.611544623505324125e-04 -1.770120579749345779e-04
2.548000000000000000e+03 1.949534034729003906e+01 -1.750257110595703125e+01 -3.741282522678375244e-01 -1.397500634193420410e-01 -1.541634947061538696e-01 -4.179529249668121338e-01
2.549000000000000000e+03 1.991602516174316406e+01 -1.887007904052734375e+01 -3.012597858905792236e-01 -1.488200724124908447e-01 -1.350239515304565430e-01 -4.154242575168609619e-01
2.550000000000000000e+03 8.400784492492675781e+00 2.524890899658203125e+01 -4.595630615949630737e-02 -5.638422966003417969e-01 -1.829395741224288940e-01 4.805701971054077148e-01
2.551000000000000000e+03 7.549677848815917969e+00 2.438970947265625000e+01 -9.909820556640625000e-02 -4.884942173957824707e-01 -1.762777268886566162e-01 4.688696861267089844e-01
2.552000000000000000e+03 7.114963531494140625e+01 -2.285005187988281250e+01 -4.145365655422210693e-01 7.961709022521972656e+00 2.264151811599731445e+00 -6.373517513275146484e-01
2.553000000000000000e+03 7.393753814697265625e+01 2.372666931152343750e+01 -6.364595890045166016e-02 7.953299522399902344e+00 2.366896152496337891e+00 4.124186933040618896e-02
2.554000000000000000e+03 7.234845733642578125e+01 7.103578448295593262e-01 2.323743104934692383e-01 7.727572441101074219e+00 2.387984037399291992e+00 1.062057971954345703e+00
2.555000000000000000e+03 7.282962036132812500e+01 -8.354640960693359375e+00 8.286290764808654785e-01 7.263295173645019531e+00 2.427577257156372070e+00 -4.325132668018341064e-01
2.556000000000000000e+03 7.196339416503906250e+01 -1.342005157470703125e+01 2.574428319931030273e-01 7.830058097839355469e+00 2.426250219345092773e+00 -1.100618124008178711e+00
2.557000000000000000e+03 7.284135437011718750e+01 -1.724098587036132812e+01 -1.512318700551986694e-01 7.840664863586425781e+00 2.306829929351806641e+00 -1.011865258216857910e+00
2.558000000000000000e+03 7.298831176757812500e+01 -1.223901844024658203e+01 3.671372234821319580e-01 7.484240055084228516e+00 2.355413198471069336e+00 -9.596870541572570801e-01
2.559000000000000000e+03 7.270108795166015625e+01 -1.960056877136230469e+01 -2.694565355777740479e-01 7.902409553527832031e+00 2.289885997772216797e+00 -8.740407228469848633e-01
2.560000000000000000e+03 7.259919738769531250e+01 -4.705242633819580078e+00 8.921611309051513672e-01 7.309533596038818359e+00 2.460508584976196289e+00 3.717757165431976318e-01
2.561000000000000000e+03 7.214279174804687500e+01 5.210278511047363281e+00 -2.430209815502166748e-01 7.936694145202636719e+00 2.308101892471313477e+00 9.600327014923095703e-01
2.562000000000000000e+03 2.392796325683593750e+01 3.374844074249267578e+00 -2.794932723045349121e-01 -3.898819684982299805e-01 -2.008125782012939453e-01 6.207612752914428711e-01
2.563000000000000000e+03 2.483331489562988281e+01 5.355702877044677734e+00 -3.524705171585083008e-01 -3.731640577316284180e-01 -2.176903635263442993e-01 7.065297365188598633e-01
2.564000000000000000e+03 7.254260253906250000e+01 -1.972566843032836914e+00 5.907482504844665527e-01 7.472526073455810547e+00 2.418982267379760742e+00 8.370989561080932617e-01
2.565000000000000000e+03 7.291947937011718750e+01 6.662781238555908203e+00 -2.539560496807098389e-01 7.848289012908935547e+00 2.278299808502197266e+00 8.586121201515197754e-01
2.566000000000000000e+03 7.102954864501953125e+01 1.591620445251464844e+01 -3.046611547470092773e-01 7.714153766632080078e+00 2.222847938537597656e+00 2.482470870018005371e-01
2.567000000000000000e+03 7.064299774169921875e+01 1.185889530181884766e+01 -4.360692501068115234e-01 7.864993572235107422e+00 2.228677272796630859e+00 4.583992362022399902e-01
2.568000000000000000e+03 7.288387298583984375e+01 -1.471467971801757812e+01 7.121396064758300781e-02 7.691913604736328125e+00 2.328938245773315430e+00 -1.061625957489013672e+00
2.569000000000000000e+03 7.280502319335937500e+01 -1.598013401031494141e+01 -5.260790139436721802e-02 7.780836105346679688e+00 2.318468570709228516e+00 -1.055463552474975586e+00
2.570000000000000000e+03 8.166461944580078125e+00 2.843408584594726562e+01 7.485741376876831055e-02 -6.310037970542907715e-01 -1.668439209461212158e-01 4.280432760715484619e-01
2.571000000000000000e+03 1.122545433044433594e+01 2.966747474670410156e+01 1.948402523994445801e-01 -7.089788317680358887e-01 -1.542415767908096313e-01 4.023353755474090576e-01
2.572000000000000000e+03 7.197142028808593750e+01 1.892089080810546875e+01 -1.913072913885116577e-01 7.733803749084472656e+00 2.262748956680297852e+00 1.486382931470870972e-01
2.573000000000000000e+03 7.246463775634765625e+01 -2.944636344909667969e+01 -2.227849364280700684e-01 7.891626834869384766e+00 2.300652503967285156e+00 -2.920027077198028564e-01
2.574000000000000000e+03 6.860214996337890625e+01 -2.990133094787597656e+01 -3.450575172901153564e-01 7.463002204895019531e+00 2.135383367538452148e+00 -1.664757132530212402e-01
2.575000000000000000e+03 6.995597839355468750e+01 2.571324539184570312e+01 -1.030878052115440369e-01 7.330431938171386719e+00 2.168203353881835938e+00 -3.245195746421813965e-02
2.576000000000000000e+03 2.586670684814453125e+01 6.482420444488525391e+00 -3.724839091300964355e-01 -2.816160917282104492e-01 -1.962299942970275879e-01 7.180278301239013672e-01
2.577000000000000000e+03 2.456811904907226562e+01 1.490848922729492188e+01 -3.757182955741882324e-01 -3.357518315315246582e-01 -2.134410291910171509e-01 4.629627764225006104e-01
2.578000000000000000e+03 6.986768341064453125e+01 -2.560029792785644531e+01 -4.462483525276184082e-01 7.803690433502197266e+00 2.207232713699340820e+00 -4.001970589160919189e-01
2.579000000000000000e+03 1.123778724670410156e+01 2.360444068908691406e+01 -1.016613021492958069e-01 -7.584897279739379883e-01 -2.580453157424926758e-01 5.854953527450561523e-01
2.580000000000000000e+03 1.896263694763183594e+01 2.100097084045410156e+01 -1.501527577638626099e-01 -8.658875226974487305e-01 -3.048121035099029541e-01 3.410139977931976318e-01
2.581000000000000000e+03 1.741514778137207031e+01 2.150814628601074219e+01 -1.430913060903549194e-01 -9.415307641029357910e-01 -3.253866136074066162e-01 3.847468793392181396e-01
2.582000000000000000e+03 7.182762145996093750e+01 6.286858081817626953e+00 -3.204983174800872803e-01 7.977071285247802734e+00 2.296971797943115234e+00 8.853249549865722656e-01
2.583000000000000000e+03 9.711074829101562500e+00 -2.562043952941894531e+01 1.811488717794418335e-02 -4.152014553546905518e-01 -1.191259697079658508e-01 -3.409223854541778564e-01
2.584000000000000000e+03 7.332014083862304688e+00 2.596534347534179688e+01 -1.642166450619697571e-02 -5.383587479591369629e-01 -1.664341241121292114e-01 4.437886178493499756e-01
2.585000000000000000e+03 6.976216125488281250e+01 1.496967220306396484e+01 -3.900074958801269531e-01 7.641543388366699219e+00 2.175460815429687500e+00 2.353268861770629883e-01
2.586000000000000000e+03 1.859979629516601562e+01 -2.220183372497558594e+01 -1.103704273700714111e-01 -2.502655684947967529e-01 -1.081908047199249268e-01 -3.665918409824371338e-01
2.587000000000000000e+03 1.555024909973144531e+01 -2.174982452392578125e+01 -1.481328904628753662e-01 -3.506359755992889404e-01 -1.496306657791137695e-01 -3.425478935241699219e-01
2.588000000000000000e+03 7.287438964843750000e+01 -7.067209243774414062e+00 8.950465917587280273e-01 7.203958034515380859e+00 2.429701328277587891e+00 -1.489037126302719116e-01
2.589000000000000000e+03 7.249954986572265625e+01 2.087863159179687500e+01 -1.372545212507247925e-01 7.770261287689208984e+00 2.289902210235595703e+00 9.219928085803985596e-02
2.590000000000000000e+03 6.825437164306640625e+01 -3.436240386962890625e+01 -2.055735886096954346e-01 7.279989242553710938e+00 2.122324705123901367e+00 -7.375367730855941772e-02
2.591000000000000000e+03 7.784527301788330078e+00 2.237306404113769531e+01 -2.535888850688934326e-01 -3.737416267395019531e-01 -1.881991475820541382e-01 4.559404253959655762e-01
2.592000000000000000e+03 2.141727256774902344e+01 -1.882121658325195312e+01 -2.838202416896820068e-01 -1.088703870773315430e-01 -1.178071871399879456e-01 -4.405122995376586914e-01
2.593000000000000000e+03 3.708504676818847656e+00 -1.596642684936523438e+01 -2.346368739381432533e-03 -2.652340941131114960e-02 -8.660933934152126312e-03 4.573864396661520004e-03
2.594000000000000000e+03 9.929997444152832031e+00 -2.407479858398437500e+01 -2.819410897791385651e-02 -4.104932248592376709e-01 -1.316062062978744507e-01 -3.470196127891540527e-01
2.595000000000000000e+03 1.082341480255126953e+01 3.415290832519531250e+01 2.415980100631713867e-01 -6.958218812942504883e-01 -1.362671554088592529e-01 2.767169773578643799e-01
2.596000000000000000e+03 7.153204345703125000e+01 -2.819085884094238281e+01 -2.799331843852996826e-01 7.826596260070800781e+00 2.263998746871948242e+00 -3.361727297306060791e-01
2.597000000000000000e+03 6.862724304199218750e+01 -2.633297157287597656e+01 -4.664516150951385498e-01 7.669206142425537109e+00 2.160826444625854492e+00 -2.898930609226226807e-01
2.598000000000000000e+03 1.855403327941894531e+01 -2.046026992797851562e+01 -2.178871333599090576e-01 -2.261355966329574585e-01 -1.332068145275115967e-01 -3.767220675945281982e-01
2.599000000000000000e+03 7.088653564453125000e+01 3.004183197021484375e+01 -3.434421867132186890e-02 7.407494068145751953e+00 2.211945056915283203e+00 -6.384459882974624634e-02
2.600000000000000000e+03 6.755345153808593750e+01 2.895013046264648438e+01 -4.881893098354339600e-02 6.890152931213378906e+00 2.052400112152099609e+00 -1.041966527700424194e-01
2.601000000000000000e+03 2.547427940368652344e+01 -1.591514968872070312e+01 -4.470869302749633789e-01 -1.523970719426870346e-02 -1.386979818344116211e-01 -5.029432773590087891e-01
2.602000000000000000e+03 7.341230010986328125e+01 -2.119829177856445312e+01 -2.517334520816802979e-01 7.876295566558837891e+00 2.287368535995483398e+00 -7.585386633872985840e-01
2.603000000000000000e+03 7.834887027740478516e+00 2.711690521240234375e+01 2.716104127466678619e-02 -5.869960784912109375e-01 -1.679505109786987305e-01 4.367828667163848877e-01
2.604000000000000000e+03 9.096650123596191406e+00 2.659062767028808594e+01 2.442782185971736908e-02 -6.301915049552917480e-01 -1.817291080951690674e-01 4.865958392620086670e-01
2.605000000000000000e+03 2.339999008178710938e+01 1.593165874481201172e+01 -3.821552395820617676e-01 -4.595699310302734375e-01 -2.525175511837005615e-01 4.299970269203186035e-01
2.606000000000000000e+03 9.629096031188964844e+00 -3.240589904785156250e+01 1.269669234752655029e-01 -4.536166191101074219e-01 -9.799490869045257568e-02 -2.403591275215148926e-01
2.607000000000000000e+03 1.105803108215332031e+01 -2.576445388793945312e+01 3.792823106050491333e-02 -4.260408282279968262e-01 -1.164337769150733948e-01 -3.383359014987945557e-01
2.608000000000000000e+03 1.102053451538085938e+01 -2.724239921569824219e+01 7.065545022487640381e-02 -4.270416498184204102e-01 -1.069158539175987244e-01 -3.264606297016143799e-01
2.609000000000000000e+03 5.822315597534179688e+01 -3.900142192840576172e+00 1.410374879837036133e+00 9.360103607177734375e+00 3.231143474578857422e+00 -5.600618362426757812e+00
2.610000000000000000e+03 5.803840637207031250e+01 -9.148782730102539062e+00 1.293906092643737793e+00 8.338196754455566406e+00 2.889630794525146484e+00 5.223238945007324219e+00
2.611000000000000000e+03 5.731417465209960938e+01 -9.713286399841308594e+00 1.190935254096984863e+00 5.864497184753417969e+00 2.116629838943481445e+00 4.416950702667236328e+00
2.612000000000000000e+03 5.519823837280273438e+01 -1.081483936309814453e+01 7.864837050437927246e-01 2.690947294235229492e+00 1.043229341506958008e+00 2.693723440170288086e+00
2.613000000000000000e+03 5.679349899291992188e+01 -3.160379648208618164e+00 1.320574522018432617e+00 4.302339553833007812e+00 1.686874151229858398e+00 -3.955844163894653320e+00
2.614000000000000000e+03 5.882999801635742188e+01 -3.809463262557983398e+00 5.318720936775207520e-01 1.266448116302490234e+01 3.958905935287475586e+00 -4.974646568298339844e+00
2.615000000000000000e+03 5.918770980834960938e+01 -9.228412628173828125e+00 4.536146670579910278e-02 1.364601993560791016e+01 4.107414722442626953e+00 3.939908504486083984e+00
2.616000000000000000e+03 5.905090713500976562e+01 -9.489915847778320312e+00 7.677821815013885498e-02 1.261652183532714844e+01 3.807990074157714844e+00 4.019288063049316406e+00
2.617000000000000000e+03 5.979690170288085938e+01 -9.186821937561035156e+00 -2.457185089588165283e-02 1.513237571716308594e+01 4.532341003417968750e+00 2.318593025207519531e+00
2.618000000000000000e+03 5.561567306518554688e+01 -3.176086187362670898e+00 8.414505720138549805e-01 2.127085924148559570e+00 8.905609250068664551e-01 -2.596842527389526367e+00
2.619000000000000000e+03 6.001904296875000000e+01 -9.057610511779785156e+00 1.724443882703781128e-01 1.583111476898193359e+01 4.801067829132080078e+00 1.630388379096984863e+00
2.620000000000000000e+03 6.191320800781250000e+01 -6.388181209564208984e+00 7.495558738708496094e+00 1.310546398162841797e+01 6.180306911468505859e+00 1.129762269556522369e-02
2.621000000000000000e+03 6.161829376220703125e+01 -8.749458312988281250e+00 2.516745805740356445e+00 1.444833660125732422e+01 5.089524745941162109e+00 -1.552763104438781738e+00
2.622000000000000000e+03 6.093804550170898438e+01 -8.867410659790039062e+00 1.522781372070312500e+00 1.569785213470458984e+01 5.166190147399902344e+00 -7.488067150115966797e-01
2.623000000000000000e+03 6.179370498657226562e+01 -7.784335136413574219e+00 5.124722480773925781e+00 1.406986236572265625e+01 5.758375644683837891e+00 -1.973813056945800781e+00
2.624000000000000000e+03 6.217021179199218750e+01 -7.000276565551757812e+00 6.531101703643798828e+00 1.278964424133300781e+01 5.796223640441894531e+00 -1.072641611099243164e+00
2.625000000000000000e+03 6.206737518310546875e+01 -5.605623722076416016e+00 6.442808151245117188e+00 1.302226066589355469e+01 5.839520931243896484e+00 1.274765491485595703e+00
2.626000000000000000e+03 6.102941894531250000e+01 -4.275161743164062500e+00 2.424037694931030273e+00 1.589691925048828125e+01 5.496287345886230469e+00 1.314293622970581055e+00
2.627000000000000000e+03 6.180471038818359375e+01 -8.272523880004882812e+00 3.771136522293090820e+00 1.411555194854736328e+01 5.366006374359130859e+00 -1.861650466918945312e+00
2.628000000000000000e+03 6.065499114990234375e+01 -3.974545001983642578e+00 1.307946681976318359e+00 1.610688972473144531e+01 5.224451065063476562e+00 3.514230549335479736e-01
2.629000000000000000e+03 5.605677032470703125e+01 -1.007791519165039062e+01 1.080810904502868652e+00 3.226771593093872070e+00 1.292274713516235352e+00 3.231442928314208984e+00
2.630000000000000000e+03 5.776274871826171875e+01 -3.422078132629394531e+00 1.211840748786926270e+00 7.222734928131103516e+00 2.530372619628906250e+00 -4.972248077392578125e+00
2.631000000000000000e+03 5.833951187133789062e+01 -3.272325277328491211e+00 6.012886166572570801e-01 9.785548210144042969e+00 3.116050958633422852e+00 -4.862610340118408203e+00
2.632000000000000000e+03 5.474917984008789062e+01 -1.150148630142211914e+00 6.060334444046020508e-01 2.802169561386108398e+00 1.022460937500000000e+00 -2.543399810791015625e+00
2.633000000000000000e+03 5.405056381225585938e+01 -1.822700142860412598e+00 4.794203639030456543e-01 1.692193269729614258e+00 6.514840722084045410e-01 -1.966902732849121094e+00
2.634000000000000000e+03 2.578412437438964844e+01 -1.071224808692932129e+00 -3.484106957912445068e-01 -1.427761763334274292e-01 -1.473560631275177002e-01 4.659210741519927979e-01
2.635000000000000000e+03 2.410655593872070312e+01 2.457693338394165039e+00 -2.696402072906494141e-01 -3.454545438289642334e-01 -1.845284253358840942e-01 5.897698402404785156e-01
2.636000000000000000e+03 2.515084838867187500e+01 -3.256422281265258789e-01 -3.112009763717651367e-01 -1.837574243545532227e-01 -1.484875231981277466e-01 4.863310456275939941e-01
2.637000000000000000e+03 2.764517784118652344e+01 -1.108069896697998047e+00 -4.652309417724609375e-01 -8.538263291120529175e-02 -1.651840806007385254e-01 5.105785131454467773e-01
2.638000000000000000e+03 2.596208572387695312e+01 -8.799713104963302612e-02 -3.551728129386901855e-01 -1.641724407672882080e-01 -1.558035761117935181e-01 5.267078280448913574e-01
2.639000000000000000e+03 5.342585754394531250e+01 -1.201004123687744141e+01 4.261562526226043701e-01 1.880421280860900879e+00 6.919732689857482910e-01 1.873589754104614258e+00
2.640000000000000000e+03 5.471645736694335938e+01 -1.200097751617431641e+01 6.117560863494873047e-01 2.862620115280151367e+00 1.042312860488891602e+00 2.513746500015258789e+00
2.641000000000000000e+03 2.695007514953613281e+01 -4.743436574935913086e-01 -4.153405725955963135e-01 -1.190930902957916260e-01 -1.603301018476486206e-01 5.346229076385498047e-01
2.642000000000000000e+03 3.027809143066406250e+01 -9.888055175542831421e-02 -5.780929923057556152e-01 -3.073543682694435120e-02 -1.826485395431518555e-01 5.979720950126647949e-01
2.643000000000000000e+03 2.765688514709472656e+01 -4.924201965332031250e-01 -4.533549249172210693e-01 -9.776089340448379517e-02 -1.653347462415695190e-01 5.479992628097534180e-01
2.644000000000000000e+03 3.122416305541992188e+01 -6.928083300590515137e-01 -6.536586880683898926e-01 -9.511922486126422882e-03 -1.989511847496032715e-01 5.740778446197509766e-01
2.645000000000000000e+03 3.031680297851562500e+01 1.420953273773193359e+00 -5.063239932060241699e-01 -3.143155574798583984e-02 -1.613266617059707642e-01 6.592915654182434082e-01
2.646000000000000000e+03 2.942373275756835938e+01 7.539611458778381348e-01 -5.044446587562561035e-01 -5.814938992261886597e-02 -1.687782108783721924e-01 6.323330402374267578e-01
2.647000000000000000e+03 3.284436035156250000e+01 -1.292966157197952271e-01 -6.944297552108764648e-01 2.063349634408950806e-02 -2.021388709545135498e-01 5.937154293060302734e-01
2.648000000000000000e+03 3.223077774047851562e+01 3.601184487342834473e-02 -6.513920426368713379e-01 1.381239946931600571e-02 -1.912738978862762451e-01 6.100029945373535156e-01
2.649000000000000000e+03 4.516866683959960938e+01 -1.325100612640380859e+01 -5.620443224906921387e-01 3.018917143344879150e-01 -7.804578542709350586e-02 3.387939929962158203e-02
2.650000000000000000e+03 4.422341156005859375e+01 -1.265039443969726562e+01 -7.888211011886596680e-01 1.817964911460876465e-01 -1.821073889732360840e-01 -8.702310919761657715e-02
2.651000000000000000e+03 4.269303894042968750e+01 -1.266468334197998047e+01 -8.684338331222534180e-01 1.288946568965911865e-01 -2.218617647886276245e-01 -1.858193129301071167e-01
2.652000000000000000e+03 3.351077270507812500e+01 -7.782597541809082031e-01 -7.753102779388427734e-01 2.736053988337516785e-02 -2.243849188089370728e-01 5.654346346855163574e-01
2.653000000000000000e+03 4.574211120605468750e+01 -1.308828639984130859e+01 -5.598918795585632324e-01 3.214867711067199707e-01 -7.152153551578521729e-02 9.357066452503204346e-02
2.654000000000000000e+03 3.351124954223632812e+01 -1.066014096140861511e-01 -7.124773263931274414e-01 3.156251087784767151e-02 -2.042744457721710205e-01 5.922198295593261719e-01
2.655000000000000000e+03 3.927029800415039062e+01 -1.370854759216308594e+01 -7.374216914176940918e-01 7.430207729339599609e-02 -1.989358812570571899e-01 -3.158434033393859863e-01
2.656000000000000000e+03 4.083771514892578125e+01 -1.322783565521240234e+01 -7.972726225852966309e-01 1.135687530040740967e-01 -2.051111459732055664e-01 -2.593134641647338867e-01
2.657000000000000000e+03 3.994401931762695312e+01 -1.276244068145751953e+01 -9.360716342926025391e-01 5.728854984045028687e-02 -2.636349201202392578e-01 -3.086794912815093994e-01
2.658000000000000000e+03 4.122960662841796875e+01 -1.386752891540527344e+01 -6.441115140914916992e-01 1.525997966527938843e-01 -1.474535167217254639e-01 -2.227501720190048218e-01
2.659000000000000000e+03 4.122790908813476562e+01 -1.265779018402099609e+01 -9.173896908760070801e-01 9.967507421970367432e-02 -2.453143745660781860e-01 -2.539191842079162598e-01
2.660000000000000000e+03 3.647103118896484375e+01 2.004944533109664917e-02 -7.851754426956176758e-01 7.355720549821853638e-02 -2.134854793548583984e-01 5.492659211158752441e-01
2.661000000000000000e+03 5.029470062255859375e+01 -1.340374565124511719e+01 8.999855816364288330e-02 1.075607538223266602e+00 3.496818244457244873e-01 9.780554175376892090e-01
2.662000000000000000e+03 3.699195480346679688e+01 -1.347867774963378906e+01 -8.014045357704162598e-01 3.209650889039039612e-02 -2.307924181222915649e-01 -3.871984183788299561e-01
2.663000000000000000e+03 4.635351562500000000e+01 -1.307344913482666016e+01 -5.116276741027832031e-01 3.554531633853912354e-01 -4.685235396027565002e-02 1.549035757780075073e-01
2.664000000000000000e+03 3.570395660400390625e+01 7.538576126098632812e-01 -6.784893870353698730e-01 8.012871444225311279e-02 -1.795082092285156250e-01 5.816629528999328613e-01
2.665000000000000000e+03 3.627875900268554688e+01 -1.287702465057373047e+01 -9.101313948631286621e-01 1.591760106384754181e-02 -2.682641446590423584e-01 -4.049957394599914551e-01
2.666000000000000000e+03 3.678853607177734375e+01 -1.410609722137451172e+01 -6.855945587158203125e-01 4.710491374135017395e-02 -1.915468871593475342e-01 -3.882156312465667725e-01
2.667000000000000000e+03 4.844312667846679688e+01 -1.238840484619140625e+01 -4.289756119251251221e-01 4.894481897354125977e-01 1.814177259802818298e-02 4.055041074752807617e-01
2.668000000000000000e+03 4.893745803833007812e+01 -1.318938064575195312e+01 -1.457652598619461060e-01 7.141371369361877441e-01 1.705115586519241333e-01 6.174496412277221680e-01
2.669000000000000000e+03 4.699529647827148438e+01 -1.303151416778564453e+01 -4.480059742927551270e-01 4.414763748645782471e-01 -1.958881039172410965e-03 2.419145554304122925e-01
2.670000000000000000e+03 4.961042404174804688e+01 -1.328894519805908203e+01 -2.499356679618358612e-02 8.742248415946960449e-01 2.547693848609924316e-01 7.875922918319702148e-01
2.671000000000000000e+03 4.828336715698242188e+01 -1.309971904754638672e+01 -2.504594027996063232e-01 5.968086123466491699e-01 1.039047613739967346e-01 4.811833500862121582e-01
2.672000000000000000e+03 3.555366134643554688e+01 -1.301700019836425781e+01 -8.747918009757995605e-01 1.140618231147527695e-03 -2.620953619480133057e-01 -4.167389273643493652e-01
2.673000000000000000e+03 3.940842056274414062e+01 -6.289617419242858887e-01 -9.444414377212524414e-01 8.943034708499908447e-02 -2.565033137798309326e-01 4.514668881893157959e-01
2.674000000000000000e+03 3.937911224365234375e+01 8.622454851865768433e-02 -8.132550120353698730e-01 1.158625409007072449e-01 -2.092177420854568481e-01 4.583273530006408691e-01
2.675000000000000000e+03 3.766803359985351562e+01 -1.357362079620361328e+01 -7.799332141876220703e-01 4.892337322235107422e-02 -2.193029522895812988e-01 -3.782891631126403809e-01
2.676000000000000000e+03 4.686857986450195312e+01 4.091635644435882568e-01 -4.069937765598297119e-01 4.555177390575408936e-01 1.455719117075204849e-02 -1.799947321414947510e-01
2.677000000000000000e+03 4.378735351562500000e+01 2.658226788043975830e-01 -6.717286705970764160e-01 2.425034046173095703e-01 -1.287675797939300537e-01 1.834129840135574341e-01
2.678000000000000000e+03 4.309516143798828125e+01 -5.022514462471008301e-01 -8.874126672744750977e-01 1.581902801990509033e-01 -2.187667191028594971e-01 2.707931995391845703e-01
2.679000000000000000e+03 4.304013824462890625e+01 2.216602265834808350e-01 -7.158849239349365234e-01 2.074119448661804199e-01 -1.525418907403945923e-01 2.497943937778472900e-01
2.680000000000000000e+03 3.367375183105468750e+01 -1.381922912597656250e+01 -7.231718897819519043e-01 9.242413565516471863e-03 -2.141788303852081299e-01 -4.520842730998992920e-01
2.681000000000000000e+03 3.428332138061523438e+01 -1.456626415252685547e+01 -6.220810413360595703e-01 2.438314445316791534e-02 -1.793093681335449219e-01 -4.491075873374938965e-01
2.682000000000000000e+03 3.640682220458984375e+01 -1.354867458343505859e+01 -7.879159450531005859e-01 3.642810881137847900e-02 -2.254463434219360352e-01 -4.020558595657348633e-01
2.683000000000000000e+03 4.083304214477539062e+01 1.553230732679367065e-01 -7.913547158241271973e-01 1.454442590475082397e-01 -1.937731355428695679e-01 3.897276520729064941e-01
2.684000000000000000e+03 4.454719161987304688e+01 3.330828845500946045e-01 -6.063497066497802734e-01 2.832770049571990967e-01 -9.692182391881942749e-02 1.076888963580131531e-01
2.685000000000000000e+03 4.151630783081054688e+01 9.409202337265014648e-01 -6.227517127990722656e-01 2.097515165805816650e-01 -1.239000558853149414e-01 3.297797441482543945e-01
2.686000000000000000e+03 5.302932357788085938e+01 -1.095408916473388672e+00 2.879057824611663818e-01 1.520852446556091309e+00 5.426275134086608887e-01 -1.625369191169738770e+00
2.687000000000000000e+03 3.266743469238281250e+01 -1.329344940185546875e+01 -7.969834208488464355e-01 -1.197329070419073105e-02 -2.426870167255401611e-01 -4.515791535377502441e-01
2.688000000000000000e+03 3.206151580810546875e+01 -1.431413173675537109e+01 -6.417205333709716797e-01 2.520486305002123117e-04 -1.924405395984649658e-01 -4.757120311260223389e-01
2.689000000000000000e+03 2.829765319824218750e+01 -1.326718807220458984e+01 -6.910629868507385254e-01 -1.018885616213083267e-02 -2.103755474090576172e-01 -4.752807915210723877e-01
2.690000000000000000e+03 4.846652603149414062e+01 8.443356156349182129e-01 -1.202691793441772461e-01 7.583647966384887695e-01 1.914286911487579346e-01 -5.312212705612182617e-01
2.691000000000000000e+03 4.764918899536132812e+01 2.861966490745544434e-01 -3.469371199607849121e-01 5.399733781814575195e-01 5.791088193655014038e-02 -2.999260127544403076e-01
2.692000000000000000e+03 2.887380790710449219e+01 -1.413567066192626953e+01 -6.153207421302795410e-01 -7.986989803612232208e-03 -1.869923174381256104e-01 -4.939901828765869141e-01
2.693000000000000000e+03 2.745232009887695312e+01 -1.390492916107177734e+01 -6.110433936119079590e-01 -6.087691523134708405e-03 -1.851393282413482666e-01 -4.923974573612213135e-01
2.694000000000000000e+03 2.303700447082519531e+01 2.490473985671997070e-01 -1.865233480930328369e-01 -2.928896248340606689e-01 -1.438238918781280518e-01 4.188812673091888428e-01
2.695000000000000000e+03 2.816499328613281250e+01 -1.405298233032226562e+01 -6.123304963111877441e-01 -9.664382785558700562e-03 -1.865984648466110229e-01 -4.952454864978790283e-01
2.696000000000000000e+03 5.042073822021484375e+01 6.651057600975036621e-01 9.436131268739700317e-02 1.184315681457519531e+00 3.836031258106231689e-01 -1.000966906547546387e+00
2.697000000000000000e+03 2.582716369628906250e+01 -1.374841976165771484e+01 -5.932621359825134277e-01 -1.493443269282579422e-03 -1.784266680479049683e-01 -4.858109652996063232e-01
2.698000000000000000e+03 2.295818710327148438e+01 -1.275066184997558594e+01 -5.704566836357116699e-01 3.616565139964222908e-03 -1.700520217418670654e-01 -4.419550299644470215e-01
2.699000000000000000e+03 5.151771545410156250e+01 -8.303728699684143066e-01 2.509811148047447205e-02 1.031866908073425293e+00 3.170894980430603027e-01 -1.095121264457702637e+00
2.700000000000000000e+03 2.636228561401367188e+01 -1.326928615570068359e+01 -6.308692693710327148e-01 2.774869790300726891e-04 -1.891775280237197876e-01 -4.763534963130950928e-01
2.701000000000000000e+03 5.216735076904296875e+01 -1.076790571212768555e+00 9.229146689176559448e-02 1.157732486724853516e+00 3.750071823596954346e-01 -1.262702107429504395e+00
2.702000000000000000e+03 4.988915252685546875e+01 -2.390810102224349976e-02 -1.040825545787811279e-01 8.177833557128906250e-01 2.141102403402328491e-01 -7.405861616134643555e-01
2.703000000000000000e+03 5.181993103027343750e+01 -2.159910351037979126e-01 1.744026988744735718e-01 1.350752115249633789e+00 4.575464427471160889e-01 -1.296718120574951172e+00
2.704000000000000000e+03 2.520013618469238281e+01 -1.438684940338134766e+01 -5.415636301040649414e-01 -4.450003616511821747e-03 -1.638040840625762939e-01 -4.909318685531616211e-01
2.705000000000000000e+03 7.616010665893554688e+00 5.741780757904052734e+00 3.615923342294991016e-04 -1.079076202586293221e-03 -2.152451634174212813e-04 9.496088605374097824e-04
2.706000000000000000e+03 9.061677932739257812e+00 6.778055191040039062e+00 -4.629380127880722284e-04 2.970597241073846817e-03 7.522977539338171482e-04 8.671196701470762491e-05
2.707000000000000000e+03 2.304912567138671875e+01 -1.523687076568603516e+01 -4.793720245361328125e-01 -2.587688714265823364e-02 -1.515746712684631348e-01 -4.783483743667602539e-01
2.708000000000000000e+03 2.240092086791992188e+01 -1.591888427734375000e+01 -4.471885561943054199e-01 -4.426718875765800476e-02 -1.474367231130599976e-01 -4.688468873500823975e-01
2.709000000000000000e+03 2.828913116455078125e+01 -4.887913465499877930e-01 -4.957140088081359863e-01 -7.429443299770355225e-02 -1.710025370121002197e-01 5.586681962013244629e-01
2.710000000000000000e+03 2.603776359558105469e+01 4.500169754028320312e+00 -3.581069111824035645e-01 -2.588586509227752686e-01 -1.850896626710891724e-01 7.057033181190490723e-01
2.711000000000000000e+03 5.297650909423828125e+01 -1.311513137817382812e+01 3.987424969673156738e-01 2.081094980239868164e+00 7.439512610435485840e-01 1.820374846458435059e+00
2.712000000000000000e+03 4.608536911010742188e+01 4.530034661293029785e-01 -4.654627740383148193e-01 3.935060799121856689e-01 -2.158700488507747650e-02 -7.805264741182327271e-02
2.713000000000000000e+03 2.284779739379882812e+01 -1.386237716674804688e+01 -5.329285860061645508e-01 -1.167318224906921387e-02 -1.633805185556411743e-01 -4.630858600139617920e-01
2.714000000000000000e+03 6.548524379730224609e+00 7.778675079345703125e+00 1.408634707331657410e-03 -1.571417087689042091e-03 -4.883472138317301869e-05 -9.200486965710297227e-05
2.715000000000000000e+03 7.134611511230468750e+01 3.967899322509765625e+00 -1.935299187898635864e-01 8.063009262084960938e+00 2.360843896865844727e+00 1.036628007888793945e+00
2.716000000000000000e+03 2.262475013732910156e+01 2.462658166885375977e+00 -1.984099745750427246e-01 -4.426789879798889160e-01 -1.923266798257827759e-01 5.141876935958862305e-01
2.717000000000000000e+03 2.360049629211425781e+01 1.300808429718017578e+00 -2.327246516942977905e-01 -3.215245902538299561e-01 -1.662747710943222046e-01 5.144497752189636230e-01
2.718000000000000000e+03 7.285836791992187500e+01 -9.697291374206542969e+00 7.038431167602539062e-01 7.330572128295898438e+00 2.410324573516845703e+00 -6.633492708206176758e-01
2.719000000000000000e+03 2.668072128295898438e+01 1.130707645416259766e+01 -3.636360168457031250e-01 -1.715837121009826660e-01 -1.605659276247024536e-01 5.938192605972290039e-01
2.720000000000000000e+03 2.493211364746093750e+01 1.098283863067626953e+01 -4.349137246608734131e-01 -3.619809448719024658e-01 -2.390684038400650024e-01 6.340080499649047852e-01
2.721000000000000000e+03 7.296276855468750000e+01 -1.099409770965576172e+01 5.284383893013000488e-01 7.395204067230224609e+00 2.377092599868774414e+00 -8.456130027770996094e-01
2.722000000000000000e+03 7.200476074218750000e+01 -1.226292705535888672e+01 4.378714263439178467e-01 7.740673542022705078e+00 2.453563451766967773e+00 -1.036783933639526367e+00
2.723000000000000000e+03 2.611284065246582031e+01 3.570166826248168945e+00 -3.508735299110412598e-01 -2.465794831514358521e-01 -1.792359054088592529e-01 6.820930838584899902e-01
2.724000000000000000e+03 6.946727752685546875e+01 -2.275650596618652344e+01 -5.290757417678833008e-01 7.984064102172851562e+00 2.236496448516845703e+00 -5.504990220069885254e-01
2.725000000000000000e+03 6.911648559570312500e+01 -2.443375205993652344e+01 -5.177294611930847168e-01 7.844093799591064453e+00 2.197909355163574219e+00 -4.118932783603668213e-01
2.726000000000000000e+03 7.247158050537109375e+01 1.835025429725646973e+00 7.441238313913345337e-02 7.763145446777343750e+00 2.351267337799072266e+00 1.074227213859558105e+00
2.727000000000000000e+03 7.160932159423828125e+01 -1.257627129554748535e+00 5.831237435340881348e-01 7.795510768890380859e+00 2.513590335845947266e+00 9.975047707557678223e-01
2.728000000000000000e+03 7.246816253662109375e+01 2.967606306076049805e+00 -5.109773203730583191e-02 7.820125102996826172e+00 2.330708026885986328e+00 1.053526401519775391e+00
2.729000000000000000e+03 2.594832611083984375e+01 5.475280284881591797e+00 -3.653109371662139893e-01 -2.732533812522888184e-01 -1.915692985057830811e-01 7.130173444747924805e-01
2.730000000000000000e+03 6.942081451416015625e+01 1.189226627349853516e+01 -5.118503570556640625e-01 7.827712059020996094e+00 2.194758415222167969e+00 3.790858387947082520e-01
2.731000000000000000e+03 7.073909759521484375e+01 7.884607791900634766e+00 -4.565084278583526611e-01 8.053543090820312500e+00 2.279110193252563477e+00 7.400417327880859375e-01
2.732000000000000000e+03 7.101308441162109375e+01 1.812400436401367188e+01 -2.533219158649444580e-01 7.648209095001220703e+00 2.218466043472290039e+00 1.538978517055511475e-01
2.733000000000000000e+03 1.047453212738037109e+01 2.630243110656738281e+01 4.063855111598968506e-02 -7.081135511398315430e-01 -2.002424895763397217e-01 5.115795731544494629e-01
2.734000000000000000e+03 2.377913284301757812e+01 1.165447044372558594e+01 -4.859999120235443115e-01 -4.970420002937316895e-01 -2.949125766754150391e-01 6.260328292846679688e-01
2.735000000000000000e+03 2.574560356140136719e+01 7.529807567596435547e+00 -3.851640820503234863e-01 -2.886509895324707031e-01 -2.021445184946060181e-01 7.095906734466552734e-01
2.736000000000000000e+03 7.128536224365234375e+01 -1.796725654602050781e+01 -2.866474092006683350e-01 8.099423408508300781e+00 2.343832969665527344e+00 -9.859974384307861328e-01
2.737000000000000000e+03 7.140881347656250000e+01 -2.021111106872558594e+01 -3.720367848873138428e-01 8.024509429931640625e+00 2.295741796493530273e+00 -8.345789313316345215e-01
2.738000000000000000e+03 7.184279632568359375e+01 -9.957617759704589844e+00 8.413133025169372559e-01 7.607738494873046875e+00 2.534715414047241211e+00 -7.697345614433288574e-01
2.739000000000000000e+03 7.133128356933593750e+01 -4.086334705352783203e+00 1.117420792579650879e+00 7.668715953826904297e+00 2.635840892791748047e+00 5.700219869613647461e-01
2.740000000000000000e+03 7.222774505615234375e+01 -3.624132156372070312e+00 8.836103677749633789e-01 7.468789100646972656e+00 2.505719661712646484e+00 6.114923954010009766e-01
2.741000000000000000e+03 7.237294006347656250e+01 1.497221183776855469e+01 -2.701835930347442627e-01 7.832034587860107422e+00 2.268555402755737305e+00 3.190398216247558594e-01
2.742000000000000000e+03 6.922431182861328125e+01 1.297663402557373047e+01 -4.881221652030944824e-01 7.725203037261962891e+00 2.171124219894409180e+00 3.010698556900024414e-01
2.743000000000000000e+03 7.112626647949218750e+01 4.971125125885009766e+00 -2.881270349025726318e-01 8.102752685546875000e+00 2.344387531280517578e+00 9.792184829711914062e-01
2.744000000000000000e+03 8.744598388671875000e+00 -2.375089073181152344e+01 -5.073920264840126038e-02 -3.813805878162384033e-01 -1.296359300613403320e-01 -3.542122542858123779e-01
2.745000000000000000e+03 7.017853546142578125e+01 -2.062294006347656250e+01 -4.776083528995513916e-01 8.100066184997558594e+00 2.286737442016601562e+00 -7.435176968574523926e-01
2.746000000000000000e+03 7.097261047363281250e+01 -2.116965675354003906e+01 -4.281544685363769531e-01 8.035023689270019531e+00 2.282060623168945312e+00 -7.473428249359130859e-01
2.747000000000000000e+03 1.082810306549072266e+01 2.794575119018554688e+01 1.389955282211303711e-01 -7.191273570060729980e-01 -1.740395426750183105e-01 4.565016627311706543e-01
2.748000000000000000e+03 7.112664794921875000e+01 -3.075499725341796875e+01 -2.377710938453674316e-01 7.720397472381591797e+00 2.244787931442260742e+00 -2.166391909122467041e-01
2.749000000000000000e+03 1.356511211395263672e+01 3.154382514953613281e+01 2.876185476779937744e-01 -6.933246254920959473e-01 -1.217118203639984131e-01 3.250200450420379639e-01
2.750000000000000000e+03 9.561489105224609375e+00 3.134711074829101562e+01 1.784953624010086060e-01 -6.988976001739501953e-01 -1.561206579208374023e-01 3.548250794410705566e-01
2.751000000000000000e+03 7.182550048828125000e+01 -1.461608123779296875e+01 8.059505373239517212e-02 7.927517414093017578e+00 2.402433872222900391e+00 -1.120767235755920410e+00
2.752000000000000000e+03 7.076757812500000000e+01 -1.594800376892089844e+01 -1.262561678886413574e-01 8.196449279785156250e+00 2.421057939529418945e+00 -1.097167372703552246e+00
2.753000000000000000e+03 7.019805145263671875e+01 -2.370753097534179688e+01 -4.655780494213104248e-01 7.922072887420654297e+00 2.236948490142822266e+00 -5.310549139976501465e-01
2.754000000000000000e+03 7.127072143554687500e+01 2.020769500732421875e+01 -1.868951022624969482e-01 7.621946811676025391e+00 2.230515480041503906e+00 9.212289750576019287e-02
2.755000000000000000e+03 7.183837127685546875e+01 -8.214806556701660156e+00 1.047725081443786621e+00 7.510844230651855469e+00 2.567570686340332031e+00 -4.508521556854248047e-01
2.756000000000000000e+03 7.079579925537109375e+01 2.401789855957031250e+01 -1.197897642850875854e-01 7.473528861999511719e+00 2.206121683120727539e+00 4.312937147915363312e-03
2.757000000000000000e+03 1.015325927734375000e+01 -2.935155296325683594e+01 9.876447170972824097e-02 -4.331487119197845459e-01 -1.003152728080749512e-01 -2.996391654014587402e-01
2.758000000000000000e+03 2.019709587097167969e+01 2.004666328430175781e+01 -2.053180187940597534e-01 -7.529370784759521484e-01 -2.874765396118164062e-01 3.251491487026214600e-01
2.759000000000000000e+03 1.248238563537597656e+01 -2.441833877563476562e+01 1.980864675715565681e-03 -4.226549863815307617e-01 -1.262022256851196289e-01 -3.474768698215484619e-01
2.760000000000000000e+03 7.192166137695312500e+01 -1.740456581115722656e+01 -2.054713219404220581e-01 7.990428924560546875e+00 2.335487127304077148e+00 -1.018764734268188477e+00
2.761000000000000000e+03 1.006943416595458984e+01 -2.265046691894531250e+01 -8.684661239385604858e-02 -4.160695374011993408e-01 -1.508748531341552734e-01 -3.706232607364654541e-01
2.762000000000000000e+03 8.208091735839843750e+00 -2.204377937316894531e+01 -1.394608169794082642e-01 -3.298575282096862793e-01 -1.407954990863800049e-01 -3.694881498813629150e-01
2.763000000000000000e+03 6.933978271484375000e+01 -2.770363807678222656e+01 -4.018241167068481445e-01 7.652931690216064453e+00 2.175332307815551758e+00 -2.783592641353607178e-01
2.764000000000000000e+03 7.066480255126953125e+01 -2.686608886718750000e+01 -3.601196706295013428e-01 7.791060447692871094e+00 2.229282140731811523e+00 -3.741751313209533691e-01
2.765000000000000000e+03 7.187909698486328125e+01 -6.021736621856689453e+00 1.123389840126037598e+00 7.460249423980712891e+00 2.575091838836669922e+00 8.790378272533416748e-02
2.766000000000000000e+03 1.876022338867187500e+01 2.397983741760253906e+01 8.436813950538635254e-02 -7.658671736717224121e-01 -2.044497132301330566e-01 3.019540309906005859e-01
2.767000000000000000e+03 1.518033218383789062e+01 2.582013511657714844e+01 1.568208634853363037e-01 -8.468254208564758301e-01 -2.070013731718063354e-01 4.086474478244781494e-01
2.768000000000000000e+03 1.866994094848632812e+01 -2.422384452819824219e+01 -2.641755389049649239e-03 -2.656078636646270752e-01 -8.047488331794738770e-02 -3.509040772914886475e-01
2.769000000000000000e+03 2.558501434326171875e+01 1.604208183288574219e+01 -2.682264149188995361e-01 -2.059617638587951660e-01 -1.422564536333084106e-01 3.929479420185089111e-01
2.770000000000000000e+03 1.214081954956054688e+01 2.758353614807128906e+01 1.528053581714630127e-01 -7.616571784019470215e-01 -1.826555430889129639e-01 4.515739977359771729e-01
2.771000000000000000e+03 1.889701461791992188e+01 1.943002891540527344e+01 -3.151941299438476562e-01 -9.178546667098999023e-01 -3.699146211147308350e-01 3.820303678512573242e-01
2.772000000000000000e+03 7.200197601318359375e+01 -1.831596565246582031e+01 -2.642732560634613037e-01 7.973596572875976562e+00 2.312797069549560547e+00 -9.635335803031921387e-01
2.773000000000000000e+03 2.167580413818359375e+01 -2.052621459960937500e+01 -1.852849572896957397e-01 -1.246493011713027954e-01 -9.298027306795120239e-02 -4.262699782848358154e-01
2.774000000000000000e+03 1.052989196777343750e+01 2.475553894042968750e+01 -4.836472868919372559e-02 -6.822792887687683105e-01 -2.191932052373886108e-01 5.447515845298767090e-01
2.775000000000000000e+03 6.838066101074218750e+01 2.486701011657714844e+01 -1.363992244005203247e-01 7.067522048950195312e+00 2.079336881637573242e+00 -5.424919351935386658e-02
2.776000000000000000e+03 7.171775817871093750e+01 2.243043518066406250e+01 -1.286284178495407104e-01 7.649256706237792969e+00 2.256188392639160156e+00 4.634010046720504761e-02
2.777000000000000000e+03 5.807643127441406250e+01 -9.899596214294433594e+00 6.336849927902221680e-01 8.528443336486816406e+00 2.748638391494750977e+00 4.609755039215087891e+00
2.778000000000000000e+03 5.856359481811523438e+01 -3.304684400558471680e+00 4.508741796016693115e-01 1.062862873077392578e+01 3.323851108551025391e+00 -4.780740261077880859e+00
2.779000000000000000e+03 5.890506744384765625e+01 -3.491661548614501953e+00 2.511062026023864746e-01 1.247247886657714844e+01 3.817075490951538086e+00 -4.532274246215820312e+00
2.780000000000000000e+03 5.974408721923828125e+01 -2.735615730285644531e+00 -4.145435988903045654e-01 1.312792396545410156e+01 3.814014196395874023e+00 -2.511456727981567383e+00
2.781000000000000000e+03 6.147072601318359375e+01 -4.899855613708496094e+00 4.823890209197998047e+00 1.496071338653564453e+01 5.935381412506103516e+00 2.030045270919799805e+00
2.782000000000000000e+03 5.511931610107421875e+01 -2.700065374374389648e+00 6.963132023811340332e-01 1.975157380104064941e+00 8.014411330223083496e-01 -2.377195835113525391e+00
2.783000000000000000e+03 5.715241241455078125e+01 -3.115164995193481445e+00 1.217519283294677734e+00 5.342031002044677734e+00 1.967865109443664551e+00 -4.293178558349609375e+00
2.784000000000000000e+03 6.224557495117187500e+01 -6.486441612243652344e+00 6.862154960632324219e+00 1.253528022766113281e+01 5.819230556488037109e+00 -1.621649116277694702e-01
2.785000000000000000e+03 5.641101074218750000e+01 -2.170479774475097656e+00 8.812230825424194336e-01 4.373939514160156250e+00 1.576548814773559570e+00 -3.586079597473144531e+00
2.786000000000000000e+03 6.213849258422851562e+01 -8.080986022949218750e+00 4.318432807922363281e+00 1.338123226165771484e+01 5.309899330139160156e+00 -1.847008585929870605e+00
2.787000000000000000e+03 6.201034927368164062e+01 -5.122742652893066406e+00 5.238334178924560547e+00 1.349320793151855469e+01 5.619462490081787109e+00 1.735884904861450195e+00
2.788000000000000000e+03 6.146876907348632812e+01 -8.394348144531250000e+00 3.291549682617187500e+00 1.488233089447021484e+01 5.452164173126220703e+00 -1.775039434432983398e+00
2.789000000000000000e+03 5.685461807250976562e+01 -9.299152374267578125e+00 1.520150423049926758e+00 3.998926639556884766e+00 1.655723094940185547e+00 3.951858043670654297e+00
2.790000000000000000e+03 5.649820709228515625e+01 -9.427762031555175781e+00 1.371501207351684570e+00 3.434358119964599609e+00 1.441757798194885254e+00 3.570262670516967773e+00
2.791000000000000000e+03 5.555398178100585938e+01 -1.900255799293518066e+00 7.849830389022827148e-01 3.167704343795776367e+00 1.185806155204772949e+00 -2.986256599426269531e+00
2.792000000000000000e+03 5.584832000732421875e+01 -1.054660129547119141e+01 9.358628392219543457e-01 3.382682085037231445e+00 1.295563459396362305e+00 3.166969537734985352e+00
2.793000000000000000e+03 5.360799789428710938e+01 -8.819316029548645020e-01 4.385124444961547852e-01 1.919707179069519043e+00 7.074658870697021484e-01 -1.943659186363220215e+00
2.794000000000000000e+03 5.376820755004882812e+01 -1.450459122657775879e+00 4.246439337730407715e-01 1.701887607574462891e+00 6.379594802856445312e-01 -1.895773410797119141e+00
2.795000000000000000e+03 5.410036468505859375e+01 -1.194231605529785156e+01 5.558088421821594238e-01 2.340188503265380859e+00 8.687991499900817871e-01 2.209288597106933594e+00
2.796000000000000000e+03 5.646345138549804688e+01 -1.029792022705078125e+01 1.052042484283447266e+00 4.308352470397949219e+00 1.608118534088134766e+00 3.676329135894775391e+00
2.797000000000000000e+03 3.720301437377929688e+01 7.207000851631164551e-01 -7.045421600341796875e-01 1.039923280477523804e-01 -1.801649481058120728e-01 5.413437485694885254e-01
2.798000000000000000e+03 4.010424804687500000e+01 1.229722648859024048e-01 -8.053844571113586426e-01 1.291871666908264160e-01 -2.028591781854629517e-01 4.261218309402465820e-01
2.799000000000000000e+03 2.815568351745605469e+01 8.086873292922973633e-01 -4.487895667552947998e-01 -1.012131348252296448e-01 -1.650008112192153931e-01 6.221308708190917969e-01
2.800000000000000000e+03 2.893785095214843750e+01 -4.220896363258361816e-01 -5.224115252494812012e-01 -6.237852573394775391e-02 -1.754370182752609253e-01 5.682422518730163574e-01
2.801000000000000000e+03 2.850208854675292969e+01 3.002191543579101562e+00 -4.105143845081329346e-01 -1.047890484333038330e-01 -1.545910239219665527e-01 6.954911351203918457e-01
2.802000000000000000e+03 3.164479064941406250e+01 4.081387221813201904e-01 -6.049971580505371094e-01 -1.462564832763746381e-04 -1.815430372953414917e-01 6.204622387886047363e-01
2.803000000000000000e+03 3.099575614929199219e+01 6.258892416954040527e-01 -5.657455325126647949e-01 -1.491031516343355179e-02 -1.741967499256134033e-01 6.304398775100708008e-01
2.804000000000000000e+03 4.370040130615234375e+01 -1.496098518371582031e+01 -2.865597903728485107e-01 3.646262288093566895e-01 2.341992594301700592e-02 2.640579454600811005e-02
2.805000000000000000e+03 4.513541412353515625e+01 -1.431636142730712891e+01 -3.117138147354125977e-01 4.150260388851165771e-01 3.099366277456283569e-02 1.307207942008972168e-01
2.806000000000000000e+03 4.233558654785156250e+01 -1.396027088165283203e+01 -5.695722699165344238e-01 1.899826973676681519e-01 -1.138768717646598816e-01 -1.461982578039169312e-01
2.807000000000000000e+03 4.869264984130859375e+01 -1.394843864440917969e+01 -2.578919008374214172e-02 8.330439925193786621e-01 2.421764433383941650e-01 6.691843867301940918e-01
2.808000000000000000e+03 5.064073562622070312e+01 -1.438301467895507812e+01 2.497913390398025513e-01 1.486062288284301758e+00 5.207561254501342773e-01 1.196700811386108398e+00
2.809000000000000000e+03 5.526035690307617188e+01 -1.221505641937255859e+01 5.658972263336181641e-01 3.642268419265747070e+00 1.262449622154235840e+00 2.798951148986816406e+00
2.810000000000000000e+03 3.416814422607421875e+01 5.951320528984069824e-01 -6.640246510505676270e-01 5.204598605632781982e-02 -1.835936009883880615e-01 6.061930060386657715e-01
2.811000000000000000e+03 3.720513534545898438e+01 1.652093976736068726e-02 -8.011621236801147461e-01 8.475797623395919800e-02 -2.149212509393692017e-01 5.317300558090209961e-01
2.812000000000000000e+03 4.628620529174804688e+01 -1.384557628631591797e+01 -3.213652670383453369e-01 4.646599590778350830e-01 4.298840090632438660e-02 2.260349541902542114e-01
2.813000000000000000e+03 4.196705245971679688e+01 -1.343973255157470703e+01 -7.221720814704895020e-01 1.449097692966461182e-01 -1.731786876916885376e-01 -1.948901861906051636e-01
2.814000000000000000e+03 4.443372726440429688e+01 -1.471652793884277344e+01 -2.863542735576629639e-01 3.853114247322082520e-01 2.968714945018291473e-02 7.996057718992233276e-02
2.815000000000000000e+03 4.038816452026367188e+01 -1.445620822906494141e+01 -5.419246554374694824e-01 1.599358916282653809e-01 -1.145966276526451111e-01 -2.457915395498275757e-01
2.816000000000000000e+03 4.265958786010742188e+01 -1.337979984283447266e+01 -6.979262232780456543e-01 1.697611063718795776e-01 -1.584495306015014648e-01 -1.552384942770004272e-01
2.817000000000000000e+03 3.793365478515625000e+01 2.329014986753463745e-02 -8.129825592041015625e-01 9.470715373754501343e-02 -2.154826372861862183e-01 5.099463462829589844e-01
2.818000000000000000e+03 3.491749191284179688e+01 6.842620372772216797e-01 -6.701608896255493164e-01 6.885265558958053589e-02 -1.803924590349197388e-01 5.949963331222534180e-01
2.819000000000000000e+03 3.831815719604492188e+01 -1.451440048217773438e+01 -5.780937671661376953e-01 1.103707998991012573e-01 -1.403168886899948120e-01 -3.379144966602325439e-01
2.820000000000000000e+03 4.805832672119140625e+01 -1.382277393341064453e+01 -1.275784373283386230e-01 6.909995675086975098e-01 1.690263301134109497e-01 5.266631841659545898e-01
2.821000000000000000e+03 3.865765380859375000e+01 4.975137859582901001e-02 -8.152480125427246094e-01 1.053150892257690430e-01 -2.129798829555511475e-01 4.848321974277496338e-01
2.822000000000000000e+03 3.516563034057617188e+01 1.711801171302795410e+00 -5.790243744850158691e-01 8.920708298683166504e-02 -1.469451785087585449e-01 6.022300124168395996e-01
2.823000000000000000e+03 3.575512695312500000e+01 -1.380479240417480469e+01 -7.617833614349365234e-01 1.776018179953098297e-02 -2.232069522142410278e-01 -4.154996275901794434e-01
2.824000000000000000e+03 4.907497787475585938e+01 -1.484743499755859375e+01 1.558724641799926758e-01 1.109473466873168945e+00 3.796037733554840088e-01 8.518407940864562988e-01
2.825000000000000000e+03 4.763994979858398438e+01 -1.303389167785644531e+01 -3.604316711425781250e-01 5.157275199890136719e-01 4.658875986933708191e-02 3.600085973739624023e-01
2.826000000000000000e+03 3.768368148803710938e+01 -1.510604858398437500e+01 -5.055732727050781250e-01 9.468276053667068481e-02 -1.232671514153480530e-01 -3.452360928058624268e-01
2.827000000000000000e+03 3.750526428222656250e+01 -1.433179378509521484e+01 -6.451651453971862793e-01 6.161185726523399353e-02 -1.750659942626953125e-01 -3.677157759666442871e-01
2.828000000000000000e+03 3.932066345214843750e+01 8.209009170532226562e-01 -6.908333301544189453e-01 1.478706449270248413e-01 -1.628887951374053955e-01 4.596878290176391602e-01
2.829000000000000000e+03 4.749620437622070312e+01 -1.368210124969482422e+01 -2.099678367376327515e-01 6.121292710304260254e-01 1.206484287977218628e-01 4.195489287376403809e-01
2.830000000000000000e+03 3.514817810058593750e+01 -1.490852451324462891e+01 -5.659273266792297363e-01 4.278558492660522461e-02 -1.569425165653228760e-01 -4.267757534980773926e-01
2.831000000000000000e+03 3.496912384033203125e+01 -1.403642654418945312e+01 -7.206540703773498535e-01 1.133882347494363785e-02 -2.127945870161056519e-01 -4.326725602149963379e-01
2.832000000000000000e+03 4.531240844726562500e+01 4.080093801021575928e-01 -5.325884222984313965e-01 3.401721715927124023e-01 -5.772486701607704163e-02 2.178020216524600983e-02
2.833000000000000000e+03 4.369206237792968750e+01 9.950835704803466797e-01 -5.130558013916015625e-01 3.080999255180358887e-01 -6.148676574230194092e-02 1.505108624696731567e-01
2.834000000000000000e+03 4.225089263916015625e+01 9.553321599960327148e-01 -5.992373824119567871e-01 2.290751636028289795e-01 -1.110486686229705811e-01 2.775893211364746094e-01
2.835000000000000000e+03 4.156831741333007812e+01 1.794890314340591431e-01 -7.750486135482788086e-01 1.603363454341888428e-01 -1.844136714935302734e-01 3.468649089336395264e-01
2.836000000000000000e+03 4.695026397705078125e+01 -1.369302177429199219e+01 -2.848558723926544189e-01 5.461519360542297363e-01 7.838881760835647583e-02 3.152678012847900391e-01
2.837000000000000000e+03 4.297178268432617188e+01 9.546988606452941895e-01 -5.676040053367614746e-01 2.620120644569396973e-01 -9.167757630348205566e-02 2.220950871706008911e-01
2.838000000000000000e+03 4.442464447021484375e+01 1.110097169876098633e+00 -4.464185535907745361e-01 3.520403504371643066e-01 -2.831345610320568085e-02 6.921076029539108276e-02
2.839000000000000000e+03 3.241455841064453125e+01 -1.597401714324951172e+01 -4.451667964458465576e-01 2.660737745463848114e-02 -1.255678236484527588e-01 -4.770111739635467529e-01
2.840000000000000000e+03 3.174371337890625000e+01 -1.508188724517822266e+01 -5.496507883071899414e-01 2.898936858400702477e-03 -1.640255600214004517e-01 -4.875576794147491455e-01
2.841000000000000000e+03 4.601984024047851562e+01 1.401755094528198242e+00 -2.630513310432434082e-01 5.301725864410400391e-01 8.013638854026794434e-02 -1.566357910633087158e-01
2.842000000000000000e+03 3.861176300048828125e+01 7.625648379325866699e-01 -7.013987302780151367e-01 1.285431534051895142e-01 -1.718566715717315674e-01 4.895938336849212646e-01
2.843000000000000000e+03 3.090138435363769531e+01 -1.556232547760009766e+01 -4.898813366889953613e-01 6.372143980115652084e-03 -1.450527608394622803e-01 -4.994414746761322021e-01
2.844000000000000000e+03 4.931879425048828125e+01 1.959102869033813477e+00 1.192723736166954041e-01 1.163301944732666016e+00 3.847722709178924561e-01 -8.316644430160522461e-01
2.845000000000000000e+03 4.841168212890625000e+01 1.477981805801391602e-01 -2.787241339683532715e-01 6.071748137474060059e-01 9.853520244359970093e-02 -4.320580363273620605e-01
2.846000000000000000e+03 2.890496444702148438e+01 -1.498649406433105469e+01 -5.427861809730529785e-01 -8.657492697238922119e-03 -1.654331088066101074e-01 -5.058076381683349609e-01
2.847000000000000000e+03 2.974559020996093750e+01 -1.486490154266357422e+01 -5.642368197441101074e-01 -6.944011896848678589e-03 -1.713542491197586060e-01 -5.032746791839599609e-01
2.848000000000000000e+03 4.981787872314453125e+01 6.282593607902526855e-01 2.101476304233074188e-02 9.895617961883544922e-01 3.031729459762573242e-01 -8.289625644683837891e-01
2.849000000000000000e+03 2.401034927368164062e+01 -1.372694396972656250e+01 -5.548956990242004395e-01 -7.209077593870460987e-04 -1.666849851608276367e-01 -4.734511077404022217e-01
2.850000000000000000e+03 2.470813369750976562e+01 -1.364483928680419922e+01 -5.706702470779418945e-01 1.156493090093135834e-03 -1.708541214466094971e-01 -4.750441908836364746e-01
2.851000000000000000e+03 5.159363555908203125e+01 -1.386400032043457031e+01 2.981835603713989258e-01 1.658559799194335938e+00 5.870230197906494141e-01 1.418049693107604980e+00
2.852000000000000000e+03 2.488550758361816406e+01 -1.689456367492675781e+01 -3.820262253284454346e-01 -2.421418763697147369e-02 -1.218721196055412292e-01 -4.993872046470642090e-01
2.853000000000000000e+03 2.455028152465820312e+01 -1.517249011993408203e+01 -4.907400012016296387e-01 -1.051484607160091400e-02 -1.503764539957046509e-01 -4.936732947826385498e-01
2.854000000000000000e+03 7.167285156250000000e+01 -2.712512016296386719e+00 8.454930782318115234e-01 7.659480094909667969e+00 2.551491975784301758e+00 7.976409196853637695e-01
2.855000000000000000e+03 7.167652893066406250e+01 -5.010362148284912109e+00 1.126651525497436523e+00 7.542021274566650391e+00 2.600601911544799805e+00 3.423519432544708252e-01
2.856000000000000000e+03 5.219177627563476562e+01 3.420567214488983154e-01 2.843830585479736328e-01 1.701899886131286621e+00 5.958848595619201660e-01 -1.508817195892333984e+00
2.857000000000000000e+03 5.166115570068359375e+01 6.788715720176696777e-01 2.533511817455291748e-01 1.593665599822998047e+00 5.541050434112548828e-01 -1.375017523765563965e+00
2.858000000000000000e+03 5.125376129150390625e+01 2.531377375125885010e-01 1.484568119049072266e-01 1.284191370010375977e+00 4.297944605350494385e-01 -1.186185121536254883e+00
2.859000000000000000e+03 2.680998420715332031e+01 -1.368450260162353516e+01 -6.158227324485778809e-01 -3.403968177735805511e-03 -1.857680082321166992e-01 -4.883294999599456787e-01
2.860000000000000000e+03 2.797596168518066406e+01 1.372579455375671387e+00 -4.307643175125122070e-01 -1.155587956309318542e-01 -1.638969331979751587e-01 6.408514380455017090e-01
2.861000000000000000e+03 7.074137115478515625e+01 -9.470449447631835938e+00 1.078018069267272949e+00 7.887030124664306641e+00 2.689514398574829102e+00 -7.887508273124694824e-01
2.862000000000000000e+03 7.197972869873046875e+01 -1.111040878295898438e+01 6.199104189872741699e-01 7.657040596008300781e+00 2.483085155487060547e+00 -9.309752583503723145e-01
2.863000000000000000e+03 2.645072364807128906e+01 -1.430783176422119141e+01 -5.640977025032043457e-01 -2.896870719268918037e-03 -1.700983643531799316e-01 -4.970139265060424805e-01
2.864000000000000000e+03 2.721690368652343750e+01 -1.469850444793701172e+01 -5.447320342063903809e-01 -6.972887553274631500e-03 -1.655114740133285522e-01 -5.048711299896240234e-01
2.865000000000000000e+03 7.133342742919921875e+01 9.758678078651428223e-01 2.164837867021560669e-01 8.014216423034667969e+00 2.469209909439086914e+00 1.126802444458007812e+00
2.866000000000000000e+03 7.207038116455078125e+01 -3.508242666721343994e-01 4.140575826168060303e-01 7.742743015289306641e+00 2.447040081024169922e+00 1.029747247695922852e+00
2.867000000000000000e+03 4.077659606933593750e+01 9.121965765953063965e-01 -6.508858799934387207e-01 1.852130293846130371e-01 -1.397018432617187500e-01 3.767197430133819580e-01
2.868000000000000000e+03 2.754143714904785156e+01 4.903088510036468506e-01 -4.293397367000579834e-01 -1.188964620232582092e-01 -1.644708663225173950e-01 5.988341569900512695e-01
2.869000000000000000e+03 7.090433502197265625e+01 -1.439421844482421875e+01 9.009069949388504028e-02 8.144966125488281250e+00 2.470517158508300781e+00 -1.146521210670471191e+00
2.870000000000000000e+03 7.102513122558593750e+01 -1.230077457427978516e+01 4.875771105289459229e-01 8.007779121398925781e+00 2.548606872558593750e+00 -1.104861974716186523e+00
2.871000000000000000e+03 7.025118255615234375e+01 4.721235275268554688e+00 -3.237110078334808350e-01 8.236023902893066406e+00 2.373693943023681641e+00 9.756822586059570312e-01
2.872000000000000000e+03 7.145649719238281250e+01 2.962244749069213867e+00 -8.427169919013977051e-02 8.032386779785156250e+00 2.384434461593627930e+00 1.084568142890930176e+00
2.873000000000000000e+03 3.344804382324218750e+01 5.665969252586364746e-01 -6.510797142982482910e-01 3.685826063156127930e-02 -1.842664331197738647e-01 6.131467819213867188e-01
2.874000000000000000e+03 2.572992897033691406e+01 5.573866963386535645e-01 -3.380630612373352051e-01 -1.932705789804458618e-01 -1.594000905752182007e-01 5.551310777664184570e-01
2.875000000000000000e+03 2.525674247741699219e+01 1.916005849838256836e+00 -3.151161074638366699e-01 -2.569837868213653564e-01 -1.716299653053283691e-01 6.056258678436279297e-01
2.876000000000000000e+03 3.290694046020507812e+01 -1.424396800994873047e+01 -6.606281995773315430e-01 2.421702025458216667e-03 -1.974619477987289429e-01 -4.679188728332519531e-01
2.877000000000000000e+03 7.086449432373046875e+01 -3.282663583755493164e+00 1.087900996208190918e+00 7.844546794891357422e+00 2.679734468460083008e+00 7.553340196609497070e-01
2.878000000000000000e+03 6.841054534912109375e+01 1.223150634765625000e+01 -5.585262775421142578e-01 7.731253623962402344e+00 2.151818275451660156e+00 2.693276107311248779e-01
2.879000000000000000e+03 6.915125274658203125e+01 1.078389930725097656e+01 -5.512139797210693359e-01 7.904006958007812500e+00 2.205837965011596680e+00 4.309802353382110596e-01
2.880000000000000000e+03 7.079556274414062500e+01 -1.876473999023437500e+01 -3.718951046466827393e-01 8.139219284057617188e+00 2.330197334289550781e+00 -9.188303947448730469e-01
2.881000000000000000e+03 2.295268440246582031e+01 -1.872291564941406250e+01 -2.778398394584655762e-01 -6.973470002412796021e-02 -1.042723581194877625e-01 -4.684256017208099365e-01
2.882000000000000000e+03 2.713931274414062500e+01 4.602844238281250000e+00 -3.728487193584442139e-01 -1.904425173997879028e-01 -1.689873635768890381e-01 7.086614966392517090e-01
2.883000000000000000e+03 7.095692443847656250e+01 -7.982973098754882812e+00 1.308102130889892578e+00 7.741391181945800781e+00 2.714848041534423828e+00 -4.418030977249145508e-01
2.884000000000000000e+03 7.193700408935546875e+01 -7.090778827667236328e+00 1.089853167533874512e+00 7.439888954162597656e+00 2.558922767639160156e+00 -1.719116568565368652e-01
2.885000000000000000e+03 2.716304206848144531e+01 9.093857765197753906e+00 -3.617493212223052979e-01 -1.598493009805679321e-01 -1.564795821905136108e-01 6.668305397033691406e-01
2.886000000000000000e+03 2.468773651123046875e+01 1.285796356201171875e+01 -4.337073564529418945e-01 -3.590238690376281738e-01 -2.378193736076354980e-01 5.558344125747680664e-01
2.887000000000000000e+03 7.146115112304687500e+01 1.955955386161804199e+00 4.733422026038169861e-02 8.014288902282714844e+00 2.418487071990966797e+00 1.114558100700378418e+00
2.888000000000000000e+03 7.038699340820312500e+01 3.850186586380004883e+00 -2.368044555187225342e-01 8.238549232482910156e+00 2.400523424148559570e+00 1.032602310180664062e+00
2.889000000000000000e+03 7.049080657958984375e+01 2.951150655746459961e+00 -1.294909864664077759e-01 8.239927291870117188e+00 2.433130741119384766e+00 1.085286021232604980e+00
2.890000000000000000e+03 7.143357086181640625e+01 7.252614021301269531e+00 -3.838190436363220215e-01 8.015275001525878906e+00 2.289436817169189453e+00 8.216499090194702148e-01
2.891000000000000000e+03 7.047940826416015625e+01 6.950234889984130859e+00 -4.541760087013244629e-01 8.122426986694335938e+00 2.300475120544433594e+00 8.031316399574279785e-01
2.892000000000000000e+03 2.218050003051757812e+01 1.712676429748535156e+01 -3.800638914108276367e-01 -5.940849184989929199e-01 -2.922446429729461670e-01 3.921017944812774658e-01
2.893000000000000000e+03 2.347428512573242188e+01 1.828874588012695312e+01 -2.347072064876556396e-01 -4.129836857318878174e-01 -1.943072676658630371e-01 3.187527656555175781e-01
2.894000000000000000e+03 7.010198211669921875e+01 9.331354141235351562e+00 -5.027171373367309570e-01 7.999370574951171875e+00 2.248996019363403320e+00 5.902269482612609863e-01
2.895000000000000000e+03 6.839633941650390625e+01 1.409593582153320312e+01 -4.876424968242645264e-01 7.579912662506103516e+00 2.127681016921997070e+00 1.862493902444839478e-01
2.896000000000000000e+03 7.017326354980468750e+01 1.938074874877929688e+01 -2.390132248401641846e-01 7.499468326568603516e+00 2.178136587142944336e+00 8.507142961025238037e-02
2.897000000000000000e+03 6.814764404296875000e+01 1.970052528381347656e+01 -2.719690501689910889e-01 7.222865581512451172e+00 2.085268974304199219e+00 8.920525200664997101e-03
2.898000000000000000e+03 7.013332366943359375e+01 -1.431206226348876953e+01 9.885164350271224976e-02 8.362226486206054688e+00 2.538323402404785156e+00 -1.176459312438964844e+00
2.899000000000000000e+03 7.044969940185546875e+01 -1.970229721069335938e+01 -4.359849095344543457e-01 8.141163825988769531e+00 2.311553716659545898e+00 -8.343940973281860352e-01
2.900000000000000000e+03 7.100810241699218750e+01 -1.124494552612304688e+01 7.185863852500915527e-01 7.949816226959228516e+00 2.600520849227905273e+00 -1.017081975936889648e+00
2.901000000000000000e+03 2.014563751220703125e+01 2.256441116333007812e+01 -3.830237081274390221e-03 -7.052220702171325684e-01 -2.127156853675842285e-01 2.765987515449523926e-01
2.902000000000000000e+03 2.135147857666015625e+01 -1.744019699096679688e+01 -3.711252212524414062e-01 -8.476678282022476196e-02 -1.367675960063934326e-01 -4.511535167694091797e-01
2.903000000000000000e+03 1.300571537017822266e+01 2.917251205444335938e+01 2.268219888210296631e-01 -7.378982305526733398e-01 -1.533228754997253418e-01 3.925886750221252441e-01
2.904000000000000000e+03 9.613760948181152344e+00 -2.740249252319335938e+01 5.539033561944961548e-02 -4.233732521533966064e-01 -1.103948727250099182e-01 -3.179785311222076416e-01
2.905000000000000000e+03 1.392610836029052734e+01 -2.610945510864257812e+01 7.459198683500289917e-02 -3.987399637699127197e-01 -9.724439680576324463e-02 -3.390278816223144531e-01
2.906000000000000000e+03 1.578978919982910156e+01 -2.875576782226562500e+01 1.682224720716476440e-01 -3.525560200214385986e-01 -5.530006438493728638e-02 -3.153939247131347656e-01
2.907000000000000000e+03 7.010261535644531250e+01 -2.927217292785644531e+01 -3.237931430339813232e-01 7.657927513122558594e+00 2.200240373611450195e+00 -2.400044053792953491e-01
2.908000000000000000e+03 1.346051502227783203e+01 2.501676750183105469e+01 6.515808403491973877e-02 -8.572539091110229492e-01 -2.376287579536437988e-01 4.909285604953765869e-01
2.909000000000000000e+03 1.304043483734130859e+01 2.662754440307617188e+01 1.432424187660217285e-01 -8.013429641723632812e-01 -1.974301636219024658e-01 4.608744084835052490e-01
2.910000000000000000e+03 7.041609191894531250e+01 2.164178466796875000e+01 -1.741094589233398438e-01 7.470034599304199219e+00 2.188777685165405273e+00 3.694308176636695862e-02
2.911000000000000000e+03 6.951434326171875000e+01 -2.031867980957031250e+01 -5.108771920204162598e-01 8.154112815856933594e+00 2.292970657348632812e+00 -7.313910126686096191e-01
2.912000000000000000e+03 6.504065704345703125e+01 -3.401574707031250000e+01 -2.386785447597503662e-01 6.651354312896728516e+00 1.923802733421325684e+00 4.493467137217521667e-02
2.913000000000000000e+03 9.281381607055664062e+00 3.573389434814453125e+01 2.157549113035202026e-01 -7.143692374229431152e-01 -1.495842933654785156e-01 2.228567451238632202e-01
2.914000000000000000e+03 1.697487068176269531e+01 -2.395132637023925781e+01 -2.032614126801490784e-02 -3.162594735622406006e-01 -1.009756848216056824e-01 -3.466909527778625488e-01
2.915000000000000000e+03 6.843492126464843750e+01 -2.333523941040039062e+01 -5.866872072219848633e-01 7.913630962371826172e+00 2.198083162307739258e+00 -4.170296192169189453e-01
2.916000000000000000e+03 6.942711639404296875e+01 2.318340873718261719e+01 -1.505960524082183838e-01 7.297039508819580078e+00 2.143933057785034180e+00 -1.112253591418266296e-02
2.917000000000000000e+03 5.882913589477539062e+01 -9.638770103454589844e+00 1.883554756641387939e-01 1.158753490447998047e+01 3.532767057418823242e+00 4.332528114318847656e+00
2.918000000000000000e+03 5.869361114501953125e+01 -3.058111190795898438e+00 2.019549757242202759e-01 1.081604385375976562e+01 3.305399656295776367e+00 -4.426405429840087891e+00
2.919000000000000000e+03 5.902064132690429688e+01 -1.027091884613037109e+01 -2.257667630910873413e-01 1.129471683502197266e+01 3.320685148239135742e+00 3.602916717529296875e+00
2.920000000000000000e+03 5.904351043701171875e+01 -3.305135250091552734e+00 7.780335843563079834e-02 1.248156452178955078e+01 3.767810344696044922e+00 -4.178359031677246094e+00
2.921000000000000000e+03 5.939050674438476562e+01 -2.847030878067016602e+00 -3.674619495868682861e-01 1.279655933380126953e+01 3.728729248046875000e+00 -3.225798368453979492e+00
2.922000000000000000e+03 6.171384811401367188e+01 -4.213051319122314453e+00 2.985512495040893555e+00 1.435080051422119141e+01 5.200893878936767578e+00 1.697149157524108887e+00
2.923000000000000000e+03 6.245676422119140625e+01 -5.421256065368652344e+00 5.681442260742187500e+00 1.249566364288330078e+01 5.453131675720214844e+00 1.309042215347290039e+00
2.924000000000000000e+03 6.156680297851562500e+01 -4.533769607543945312e+00 3.658452272415161133e+00 1.475925731658935547e+01 5.525312900543212891e+00 1.836395859718322754e+00
2.925000000000000000e+03 6.014549636840820312e+01 -9.398418426513671875e+00 1.777584291994571686e-02 1.502294158935546875e+01 4.512215137481689453e+00 1.450895428657531738e+00
2.926000000000000000e+03 5.695810317993164062e+01 -9.810774803161621094e+00 1.236718297004699707e+00 5.013751029968261719e+00 1.875140786170959473e+00 4.134095668792724609e+00
2.927000000000000000e+03 5.611090850830078125e+01 -2.781548738479614258e+00 1.082498669624328613e+00 3.296312332153320312e+00 1.313643336296081543e+00 -3.332073211669921875e+00
2.928000000000000000e+03 5.973473358154296875e+01 -9.746732711791992188e+00 -2.805176377296447754e-01 1.391079139709472656e+01 4.089082241058349609e+00 2.572889566421508789e+00
2.929000000000000000e+03 5.970341491699218750e+01 -9.427629470825195312e+00 -1.429844796657562256e-01 1.442330360412597656e+01 4.284095764160156250e+00 2.620707750320434570e+00
2.930000000000000000e+03 5.776993179321289062e+01 -1.001837158203125000e+01 7.645587325096130371e-01 7.568837165832519531e+00 2.500018835067749023e+00 4.559930801391601562e+00
2.931000000000000000e+03 5.849122619628906250e+01 -9.618326187133789062e+00 4.723687767982482910e-01 1.043655967712402344e+01 3.272678613662719727e+00 4.716525554656982422e+00
2.932000000000000000e+03 5.895449829101562500e+01 -9.936757087707519531e+00 -8.776425570249557495e-02 1.149809837341308594e+01 3.423100233078002930e+00 3.849452733993530273e+00
2.933000000000000000e+03 6.280990982055664062e+01 -6.109263420104980469e+00 5.938320159912109375e+00 1.173864269256591797e+01 5.303088665008544922e+00 3.643283843994140625e-01
2.934000000000000000e+03 6.214167785644531250e+01 -5.890111923217773438e+00 6.655509948730468750e+00 1.276897907257080078e+01 5.827346801757812500e+00 8.579515218734741211e-01
2.935000000000000000e+03 6.302526092529296875e+01 -7.005637168884277344e+00 5.495848655700683594e+00 1.155567932128906250e+01 5.115458488464355469e+00 -7.470812201499938965e-01
2.936000000000000000e+03 6.258050918579101562e+01 -7.418362140655517578e+00 5.453784942626953125e+00 1.228585624694824219e+01 5.321892261505126953e+00 -1.319125533103942871e+00
2.937000000000000000e+03 6.239831161499023438e+01 -7.779861450195312500e+00 4.877564907073974609e+00 1.278432941436767578e+01 5.298568248748779297e+00 -1.691102385520935059e+00
2.938000000000000000e+03 6.203086853027343750e+01 -4.290314674377441406e+00 3.344859838485717773e+00 1.373684024810791016e+01 5.124510288238525391e+00 1.810238599777221680e+00
2.939000000000000000e+03 5.563964462280273438e+01 -1.106601142883300781e+01 7.811045050621032715e-01 3.418124437332153320e+00 1.259768724441528320e+00 3.025552988052368164e+00
2.940000000000000000e+03 5.419166564941406250e+01 -1.448192715644836426e+00 5.253002643585205078e-01 2.061622619628906250e+00 7.760768532752990723e-01 -2.155188322067260742e+00
2.941000000000000000e+03 5.609104537963867188e+01 -1.128883743286132812e+01 7.227923274040222168e-01 4.280428409576416016e+00 1.500966310501098633e+00 3.320003986358642578e+00
2.942000000000000000e+03 5.421928405761718750e+01 -9.545028805732727051e-01 5.343920588493347168e-01 2.393223524093627930e+00 8.782846927642822266e-01 -2.264730215072631836e+00
2.943000000000000000e+03 5.286204147338867188e+01 3.266974166035652161e-02 3.512286841869354248e-01 1.907544255256652832e+00 6.776319146156311035e-01 -1.739610791206359863e+00
2.944000000000000000e+03 2.873569679260253906e+01 8.949785232543945312e-01 -4.720099270343780518e-01 -8.182876557111740112e-02 -1.661515980958938599e-01 6.329415440559387207e-01
2.945000000000000000e+03 3.022346878051757812e+01 6.515185236930847168e-01 -5.389503836631774902e-01 -3.522513061761856079e-02 -1.722526401281356812e-01 6.314597725868225098e-01
2.946000000000000000e+03 3.638327789306640625e+01 2.311495304107666016e+00 -5.141769647598266602e-01 1.342927515506744385e-01 -1.139652729034423828e-01 5.670577287673950195e-01
2.947000000000000000e+03 3.790830612182617188e+01 7.149983048439025879e-01 -7.059746980667114258e-01 1.203487068414688110e-01 -1.756877899169921875e-01 5.150387287139892578e-01
2.948000000000000000e+03 5.350856018066406250e+01 -1.270775222778320312e+01 4.682838916778564453e-01 2.237202644348144531e+00 8.116459846496582031e-01 2.011159420013427734e+00
2.949000000000000000e+03 5.543585586547851562e+01 -1.162772464752197266e+01 6.756910085678100586e-01 3.539489269256591797e+00 1.264554142951965332e+00 2.909630537033081055e+00
2.950000000000000000e+03 2.871960067749023438e+01 1.500767946243286133e+00 -4.544692039489746094e-01 -8.724460005760192871e-02 -1.625141352415084839e-01 6.534844040870666504e-01
2.951000000000000000e+03 3.275121307373046875e+01 4.664449095726013184e-01 -6.369993686676025391e-01 2.552998997271060944e-02 -1.834408193826675415e-01 6.195772886276245117e-01
2.952000000000000000e+03 2.838128662109375000e+01 3.854790687561035156e+00 -3.923754394054412842e-01 -1.143803894519805908e-01 -1.520267426967620850e-01 7.075517773628234863e-01
2.953000000000000000e+03 4.473803329467773438e+01 -1.557537460327148438e+01 -1.115699782967567444e-01 5.108187794685363770e-01 1.197746396064758301e-01 1.766008585691452026e-01
2.954000000000000000e+03 4.562086105346679688e+01 -1.373592185974121094e+01 -3.877871632575988770e-01 3.973954319953918457e-01 2.882479690015316010e-03 1.408875584602355957e-01
2.955000000000000000e+03 4.297974777221679688e+01 -1.509870910644531250e+01 -3.007978200912475586e-01 3.265189230442047119e-01 7.716327439993619919e-03 -2.392612956464290619e-02
2.956000000000000000e+03 4.771569442749023438e+01 -1.457211399078369141e+01 -2.007025852799415588e-02 7.874810099601745605e-01 2.302232235670089722e-01 5.462731719017028809e-01
2.957000000000000000e+03 4.104993057250976562e+01 -1.524640560150146484e+01 -3.805240094661712646e-01 2.217048257589340210e-01 -4.764575883746147156e-02 -1.784651577472686768e-01
2.958000000000000000e+03 4.296525192260742188e+01 -1.591035461425781250e+01 -1.665668785572052002e-01 4.005641639232635498e-01 7.019919157028198242e-02 1.886384747922420502e-02
2.959000000000000000e+03 3.613170242309570312e+01 -1.461223411560058594e+01 -6.060868501663208008e-01 5.240281298756599426e-02 -1.661052256822586060e-01 -4.000165760517120361e-01
2.960000000000000000e+03 4.200968933105468750e+01 -1.571901607513427734e+01 -2.446134090423583984e-01 3.285751938819885254e-01 2.518853731453418732e-02 -8.223420381546020508e-02
2.961000000000000000e+03 4.231895065307617188e+01 -1.496592235565185547e+01 -3.787474334239959717e-01 2.699992060661315918e-01 -3.262446820735931396e-02 -9.669364243745803833e-02
2.962000000000000000e+03 3.409176254272460938e+01 1.217557668685913086e+00 -6.089268922805786133e-01 6.191767007112503052e-02 -1.641027629375457764e-01 6.188854575157165527e-01
2.963000000000000000e+03 5.008761978149414062e+01 -1.582306766510009766e+01 2.911085784435272217e-01 1.649914264678955078e+00 5.823068618774414062e-01 1.158192276954650879e+00
2.964000000000000000e+03 5.034545898437500000e+01 -1.515128612518310547e+01 2.764925062656402588e-01 1.553671240806579590e+00 5.490491390228271484e-01 1.171849489212036133e+00
2.965000000000000000e+03 4.279425430297851562e+01 -1.444697761535644531e+01 -4.610778093338012695e-01 2.490235567092895508e-01 -6.361627578735351562e-02 -9.303320944309234619e-02
2.966000000000000000e+03 4.171286010742187500e+01 -1.451293373107910156e+01 -4.851424992084503174e-01 2.119411081075668335e-01 -8.196041733026504517e-02 -1.664870232343673706e-01
2.967000000000000000e+03 3.648000717163085938e+01 7.451515197753906250e-01 -6.948949098587036133e-01 9.153585880994796753e-02 -1.810077130794525146e-01 5.611829161643981934e-01
2.968000000000000000e+03 3.565639877319335938e+01 2.079068660736083984e+00 -5.425429344177246094e-01 1.133925542235374451e-01 -1.287451088428497314e-01 5.917921662330627441e-01
2.969000000000000000e+03 3.659484481811523438e+01 -1.552203845977783203e+01 -4.677826464176177979e-01 8.679746091365814209e-02 -1.142955571413040161e-01 -3.800673186779022217e-01
2.970000000000000000e+03 3.786177444458007812e+01 1.379970669746398926e+00 -6.161257624626159668e-01 1.374245136976242065e-01 -1.436103731393814087e-01 5.159763097763061523e-01
2.971000000000000000e+03 4.841325759887695312e+01 -1.472156524658203125e+01 7.521640509366989136e-02 9.501057267189025879e-01 3.075966536998748779e-01 7.045766711235046387e-01
2.972000000000000000e+03 3.602949142456054688e+01 -1.711146163940429688e+01 -2.573030292987823486e-01 1.261793524026870728e-01 -3.933709859848022461e-02 -3.680586218833923340e-01
2.973000000000000000e+03 4.881209182739257812e+01 -1.566780567169189453e+01 2.113118320703506470e-01 1.233176231384277344e+00 4.333464205265045166e-01 8.619132041931152344e-01
2.974000000000000000e+03 3.922488784790039062e+01 1.580851793289184570e+00 -5.750590562820434570e-01 1.838921010494232178e-01 -1.173500791192054749e-01 4.522884190082550049e-01
2.975000000000000000e+03 2.995488548278808594e+01 -1.587957096099853516e+01 -4.594663083553314209e-01 -2.062908788502682000e-05 -1.378460824489593506e-01 -5.045289397239685059e-01
2.976000000000000000e+03 2.804848098754882812e+01 -1.492437839508056641e+01 -5.352208614349365234e-01 -6.578208878636360168e-03 -1.625397205352783203e-01 -5.056971311569213867e-01
2.977000000000000000e+03 3.347016906738281250e+01 -1.530069637298583984e+01 -5.257070064544677734e-01 2.417558617889881134e-02 -1.504594385623931885e-01 -4.593559801578521729e-01
2.978000000000000000e+03 4.069891738891601562e+01 1.694157481193542480e+00 -5.234920978546142578e-01 2.382493615150451660e-01 -8.557282388210296631e-02 3.586265444755554199e-01
2.979000000000000000e+03 4.518578720092773438e+01 1.257779359817504883e+00 -3.665622174739837646e-01 4.277100265026092529e-01 1.834434270858764648e-02 -2.676330879330635071e-02
2.980000000000000000e+03 4.356065750122070312e+01 1.686040043830871582e+00 -3.920334279537200928e-01 3.522991836071014404e-01 -1.192027237266302109e-02 1.256442815065383911e-01
2.981000000000000000e+03 4.293633651733398438e+01 1.695822358131408691e+00 -4.253819286823272705e-01 3.326953351497650146e-01 -2.780597284436225891e-02 1.860737502574920654e-01
2.982000000000000000e+03 4.272898101806640625e+01 2.926788091659545898e+00 -2.446825653314590454e-01 4.403107762336730957e-01 5.868846550583839417e-02 1.409124583005905151e-01
2.983000000000000000e+03 3.023093223571777344e+01 -1.702591323852539062e+01 -3.446359038352966309e-01 1.559575833380222321e-02 -9.871204197406768799e-02 -4.979048371315002441e-01
2.984000000000000000e+03 3.334941101074218750e+01 1.304521203041076660e+00 -5.881081819534301758e-01 4.748542234301567078e-02 -1.621868163347244263e-01 6.349514126777648926e-01
2.985000000000000000e+03 3.187051582336425781e+01 1.111882448196411133e+00 -5.746393799781799316e-01 6.339012645184993744e-03 -1.704901158809661865e-01 6.423990726470947266e-01
2.986000000000000000e+03 5.334186172485351562e+01 -1.355515193939208984e+01 4.246615171432495117e-01 2.514547586441040039e+00 8.817627429962158203e-01 2.029309988021850586e+00
2.987000000000000000e+03 2.322046279907226562e+01 -1.684065055847167969e+01 -3.948139250278472900e-01 -4.424255713820457458e-02 -1.317169368267059326e-01 -4.783151745796203613e-01
2.988000000000000000e+03 5.121969223022460938e+01 -1.463188552856445312e+01 3.172566890716552734e-01 1.734692335128784180e+00 6.155847311019897461e-01 1.379683613777160645e+00
2.989000000000000000e+03 5.208018112182617188e+01 -1.326701641082763672e+01 3.105900585651397705e-01 1.676344394683837891e+00 5.960803627967834473e-01 1.513675808906555176e+00
2.990000000000000000e+03 4.772595977783203125e+01 1.058513760566711426e+00 -1.606759727001190186e-01 6.918619275093078613e-01 1.593557894229888916e-01 -4.084883332252502441e-01
2.991000000000000000e+03 2.894297218322753906e+01 -1.601467514038085938e+01 -4.492823183536529541e-01 -3.895579371601343155e-03 -1.359533667564392090e-01 -5.117209553718566895e-01
2.992000000000000000e+03 5.028689575195312500e+01 1.262520313262939453e+00 1.385564953088760376e-01 1.315264463424682617e+00 4.361462891101837158e-01 -1.028695583343505859e+00
2.993000000000000000e+03 2.748853111267089844e+01 2.808974504470825195e+00 -3.891620635986328125e-01 -1.585178524255752563e-01 -1.643039733171463013e-01 6.818466186523437500e-01
2.994000000000000000e+03 3.851735305786132812e+01 1.491772770881652832e+00 -5.995675325393676758e-01 1.589635312557220459e-01 -1.321812123060226440e-01 4.908714592456817627e-01
2.995000000000000000e+03 7.173886871337890625e+01 -1.579637241363525391e+01 -6.649791449308395386e-02 8.006190299987792969e+00 2.381907701492309570e+00 -1.105487346649169922e+00
2.996000000000000000e+03 7.100877380371093750e+01 -1.336147117614746094e+01 2.959915995597839355e-01 8.066085815429687500e+00 2.508623123168945312e+00 -1.144628405570983887e+00
2.997000000000000000e+03 5.092034530639648438e+01 8.156538605690002441e-01 1.669045537710189819e-01 1.346927285194396973e+00 4.541495442390441895e-01 -1.153382062911987305e+00
2.998000000000000000e+03 5.128958129882812500e+01 1.040709257125854492e+00 2.398661971092224121e-01 1.517339468002319336e+00 5.271616578102111816e-01 -1.292690396308898926e+00
2.999000000000000000e+03 4.221940231323242188e+01 1.772120714187622070e+00 -4.462451338768005371e-01 2.947058379650115967e-01 -4.546178877353668213e-02 2.446857392787933350e-01
3.000000000000000000e+03 4.134892272949218750e+01 2.549191474914550781e+00 -3.687019646167755127e-01 3.252983391284942627e-01 -1.302108913660049438e-02 2.786645591259002686e-01
3.001000000000000000e+03 5.241820144653320312e+01 9.393030405044555664e-01 3.478826582431793213e-01 2.024417877197265625e+00 7.116901874542236328e-01 -1.667821288108825684e+00
3.002000000000000000e+03 2.690434837341308594e+01 -1.557284641265869141e+01 -4.728548526763916016e-01 -7.064776029437780380e-03 -1.439758837223052979e-01 -5.102986097335815430e-01
3.003000000000000000e+03 4.972121047973632812e+01 -1.497565364837646484e+01 2.140561640262603760e-01 1.324966073036193848e+00 4.617066681385040283e-01 1.016227364540100098e+00
3.004000000000000000e+03 2.950355911254882812e+01 1.490412592887878418e+00 -4.803131222724914551e-01 -5.923970416188240051e-02 -1.618658453226089478e-01 6.608625054359436035e-01
3.005000000000000000e+03 2.669812393188476562e+01 2.429931879043579102e+00 -3.685848116874694824e-01 -1.935919821262359619e-01 -1.686530411243438721e-01 6.610122919082641602e-01
3.006000000000000000e+03 5.254887390136718750e+01 -1.372260093688964844e+01 3.576184511184692383e-01 2.052812099456787109e+00 7.231291532516479492e-01 1.694099187850952148e+00
3.007000000000000000e+03 4.420499801635742188e+01 1.887838840484619141e+00 -3.245139718055725098e-01 4.281003475189208984e-01 3.107591532170772552e-02 4.722835868597030640e-02
3.008000000000000000e+03 4.573885345458984375e+01 2.378781318664550781e+00 -1.337567567825317383e-01 6.326789855957031250e-01 1.496766805648803711e-01 -1.921309381723403931e-01
3.009000000000000000e+03 3.421606063842773438e+01 -1.649587249755859375e+01 -3.707621097564697266e-01 6.235413625836372375e-02 -9.252239018678665161e-02 -4.362616837024688721e-01
3.010000000000000000e+03 2.604250335693359375e+01 2.765361547470092773e+00 -3.485059142112731934e-01 -2.314245998859405518e-01 -1.739791482686996460e-01 6.575124859809875488e-01
3.011000000000000000e+03 2.627183341979980469e+01 1.471867084503173828e+00 -3.561297059059143066e-01 -1.980912387371063232e-01 -1.662662923336029053e-01 6.145784258842468262e-01
3.012000000000000000e+03 7.003177642822265625e+01 -1.664309310913085938e+01 -2.426522821187973022e-01 8.322976112365722656e+00 2.424097061157226562e+00 -1.054233551025390625e+00
3.013000000000000000e+03 6.891875457763671875e+01 -2.190592002868652344e+01 -5.645399093627929688e-01 8.047411918640136719e+00 2.244861602783203125e+00 -5.625419616699218750e-01
3.014000000000000000e+03 7.143202209472656250e+01 -9.102067947387695312e+00 1.008135437965393066e+00 7.656177997589111328e+00 2.599293947219848633e+00 -6.482272744178771973e-01
3.015000000000000000e+03 6.924311828613281250e+01 -1.055110168457031250e+01 1.096399188041687012e+00 8.410139083862304688e+00 2.851961374282836914e+00 -1.070279121398925781e+00
3.016000000000000000e+03 6.943916320800781250e+01 3.792984724044799805e+00 -3.001715540885925293e-01 8.430469512939453125e+00 2.439089536666870117e+00 1.003189563751220703e+00
3.017000000000000000e+03 7.105770111083984375e+01 -7.073561668395996094e+00 1.321967363357543945e+00 7.687551021575927734e+00 2.702855587005615234e+00 -1.910572052001953125e-01
3.018000000000000000e+03 4.920882034301757812e+01 1.330771207809448242e+00 5.014413967728614807e-02 1.007446527481079102e+00 3.172772228717803955e-01 -7.601769566535949707e-01
3.019000000000000000e+03 3.541518020629882812e+01 -1.596556854248046875e+01 -4.257133901119232178e-01 7.315344363451004028e-02 -1.057679876685142517e-01 -4.121115505695343018e-01
3.020000000000000000e+03 2.704382514953613281e+01 5.570293426513671875e+00 -3.698902130126953125e-01 -1.931600719690322876e-01 -1.689150780439376831e-01 7.178067564964294434e-01
3.021000000000000000e+03 7.053820037841796875e+01 -4.468659400939941406e+00 1.353626966476440430e+00 7.861917972564697266e+00 2.764663457870483398e+00 5.236196517944335938e-01
3.022000000000000000e+03 7.084237670898437500e+01 -5.278762340545654297e+00 1.358636617660522461e+00 7.741826057434082031e+00 2.730138778686523438e+00 2.998587787151336670e-01
3.023000000000000000e+03 6.788930511474609375e+01 1.116816329956054688e+01 -6.245042681694030762e-01 7.810363292694091797e+00 2.155757665634155273e+00 2.733998596668243408e-01
3.024000000000000000e+03 6.968032836914062500e+01 8.232112884521484375e+00 -5.276004672050476074e-01 8.080279350280761719e+00 2.265803575515747070e+00 6.516227126121520996e-01
3.025000000000000000e+03 7.001148223876953125e+01 -1.039584350585937500e+01 1.039484024047851562e+00 8.162446022033691406e+00 2.760579109191894531e+00 -9.899352192878723145e-01
3.026000000000000000e+03 7.107935333251953125e+01 7.282018661499023438e-02 3.920239806175231934e-01 8.020017623901367188e+00 2.523612499237060547e+00 1.114405393600463867e+00
3.027000000000000000e+03 7.012848663330078125e+01 -3.742514371871948242e+00 1.316995620727539062e+00 8.023679733276367188e+00 2.802202463150024414e+00 7.178653478622436523e-01
3.028000000000000000e+03 7.031166076660156250e+01 -1.429904580116271973e+00 7.407311797142028809e-01 8.152588844299316406e+00 2.667995929718017578e+00 1.075987815856933594e+00
3.029000000000000000e+03 7.074165344238281250e+01 5.960680007934570312e+00 -3.956623077392578125e-01 8.139735221862792969e+00 2.323221921920776367e+00 8.895955681800842285e-01
3.030000000000000000e+03 7.064763641357421875e+01 -1.733633422851562500e+01 -2.739361226558685303e-01 8.191242218017578125e+00 2.375191926956176758e+00 -1.022478461265563965e+00
3.031000000000000000e+03 2.251337814331054688e+01 1.971839141845703125e+01 -1.628510057926177979e-01 -5.060968399047851562e-01 -2.006843537092208862e-01 2.877746224403381348e-01
3.032000000000000000e+03 2.700082778930664062e+01 7.758411407470703125e+00 -3.684397637844085693e-01 -1.946265250444412231e-01 -1.689198911190032959e-01 6.979789733886718750e-01
3.033000000000000000e+03 6.643170928955078125e+01 1.725056266784667969e+01 -4.122745096683502197e-01 7.129365444183349609e+00 2.015127420425415039e+00 -4.345860704779624939e-02
3.034000000000000000e+03 6.898209381103515625e+01 1.640081787109375000e+01 -3.811446726322174072e-01 7.499778747558593750e+00 2.135590076446533203e+00 1.311837732791900635e-01
3.035000000000000000e+03 2.701962471008300781e+01 6.598554134368896484e+00 -3.676635622978210449e-01 -1.933639347553253174e-01 -1.683082431554794312e-01 7.114964127540588379e-01
3.036000000000000000e+03 2.016375541687011719e+01 -2.225017547607421875e+01 -9.771901369094848633e-02 -1.978497207164764404e-01 -8.867062628269195557e-02 -3.853943645954132080e-01
3.037000000000000000e+03 2.413787460327148438e+01 -1.799197769165039062e+01 -3.112010061740875244e-01 -4.413933306932449341e-02 -1.066021025180816650e-01 -4.842561185359954834e-01
3.038000000000000000e+03 6.740293884277343750e+01 1.295714092254638672e+01 -5.833569765090942383e-01 7.590763092041015625e+00 2.102221727371215820e+00 1.431020498275756836e-01
3.039000000000000000e+03 7.049929809570312500e+01 1.340234375000000000e+01 -4.077518284320831299e-01 7.776716232299804688e+00 2.210689306259155273e+00 3.477297425270080566e-01
3.040000000000000000e+03 2.570842742919921875e+01 1.400567245483398438e+01 -3.562043309211730957e-01 -2.259379625320434570e-01 -1.746426969766616821e-01 4.882593750953674316e-01
3.041000000000000000e+03 2.575102043151855469e+01 1.207138538360595703e+01 -3.989204764366149902e-01 -2.533530592918395996e-01 -1.956820487976074219e-01 5.768884420394897461e-01
3.042000000000000000e+03 6.967910766601562500e+01 -2.136096000671386719e+01 -5.215014219284057617e-01 8.075345993041992188e+00 2.266153335571289062e+00 -6.584301590919494629e-01
3.043000000000000000e+03 7.034358978271484375e+01 -1.512753009796142578e+01 -4.478060081601142883e-02 8.289082527160644531e+00 2.473290443420410156e+00 -1.139143109321594238e+00
3.044000000000000000e+03 6.795381164550781250e+01 -2.507608032226562500e+01 -5.529335737228393555e-01 7.711189270019531250e+00 2.147476673126220703e+00 -2.825273871421813965e-01
3.045000000000000000e+03 6.726409149169921875e+01 -2.697013664245605469e+01 -4.957857728004455566e-01 7.504032135009765625e+00 2.102473735809326172e+00 -1.766747087240219116e-01
3.046000000000000000e+03 1.154881954193115234e+01 -2.856468009948730469e+01 1.019528359174728394e-01 -4.260983467102050781e-01 -9.724365919828414917e-02 -3.122768402099609375e-01
3.047000000000000000e+03 2.865498924255371094e+01 8.870652198791503906e+00 -3.199092745780944824e-01 -4.868937283754348755e-02 -1.105795949697494507e-01 6.513600349426269531e-01
3.048000000000000000e+03 6.720560455322265625e+01 1.853489112854003906e+01 -3.374419808387756348e-01 7.163383483886718750e+00 2.047782421112060547e+00 -1.840849034488201141e-02
3.049000000000000000e+03 2.146573257446289062e+01 2.120689773559570312e+01 -9.159887582063674927e-02 -6.018840670585632324e-01 -2.080448865890502930e-01 2.666760087013244629e-01
3.050000000000000000e+03 2.015736961364746094e+01 2.562013435363769531e+01 2.150258123874664307e-01 -6.005557179450988770e-01 -1.156589686870574951e-01 2.387328147888183594e-01
3.051000000000000000e+03 6.920504760742187500e+01 -2.085373115539550781e+01 -5.604200363159179688e-01 8.138548851013183594e+00 2.273438692092895508e+00 -6.585870981216430664e-01
3.052000000000000000e+03 1.228474998474121094e+01 -2.740235519409179688e+01 9.121736139059066772e-02 -4.216580986976623535e-01 -9.913221746683120728e-02 -3.257332146167755127e-01
3.053000000000000000e+03 1.243396377563476562e+01 -2.593969535827636719e+01 5.425537377595901489e-02 -4.185052216053009033e-01 -1.092749536037445068e-01 -3.394472599029541016e-01
3.054000000000000000e+03 6.812644958496093750e+01 2.218044281005859375e+01 -1.940473914146423340e-01 7.121961593627929688e+00 2.078374385833740234e+00 -3.405256569385528564e-02
3.055000000000000000e+03 2.602854728698730469e+01 1.043046379089355469e+01 -3.963196873664855957e-01 -2.561101317405700684e-01 -1.957289427518844604e-01 6.415803432464599609e-01
3.056000000000000000e+03 6.508623504638671875e+01 -3.030061149597167969e+01 -3.777318894863128662e-01 6.880091190338134766e+00 1.950707793235778809e+00 6.101535633206367493e-02
3.057000000000000000e+03 6.465638732910156250e+01 -3.199852943420410156e+01 -3.011577427387237549e-01 6.683518409729003906e+00 1.914708137512207031e+00 9.168571978807449341e-02
3.058000000000000000e+03 1.614498519897460938e+01 2.431211280822753906e+01 8.925572782754898071e-02 -8.847401738166809082e-01 -2.386453300714492798e-01 3.965137004852294922e-01
3.059000000000000000e+03 6.791343688964843750e+01 -2.838998222351074219e+01 -4.263870418071746826e-01 7.473888874053955078e+00 2.114250421524047852e+00 -1.724476963281631470e-01
3.060000000000000000e+03 6.985279846191406250e+01 5.475815773010253906e+00 -4.323398172855377197e-01 8.277401924133300781e+00 2.353518724441528320e+00 8.904054760932922363e-01
3.061000000000000000e+03 5.678606414794921875e+01 -1.946373462677001953e+00 7.361186742782592773e-01 5.202345371246337891e+00 1.781539201736450195e+00 -3.799425601959228516e+00
3.062000000000000000e+03 6.267366409301757812e+01 -6.362195014953613281e+00 6.225741386413574219e+00 1.191304588317871094e+01 5.441636085510253906e+00 1.802115701138973236e-02
3.063000000000000000e+03 6.077468872070312500e+01 -9.253010749816894531e+00 7.100957036018371582e-01 1.517497253417968750e+01 4.765520572662353516e+00 -8.779136091470718384e-02
3.064000000000000000e+03 6.105270767211914062e+01 -9.228007316589355469e+00 1.033434271812438965e+00 1.494318199157714844e+01 4.792984962463378906e+00 -4.865694940090179443e-01
3.065000000000000000e+03 6.128248596191406250e+01 -4.402771472930908203e+00 3.172362565994262695e+00 1.538253593444824219e+01 5.566469669342041016e+00 1.740380167961120605e+00
3.066000000000000000e+03 5.762280273437500000e+01 -2.951869726181030273e+00 9.688906669616699219e-01 7.008065700531005859e+00 2.393086910247802734e+00 -4.628079891204833984e+00
3.067000000000000000e+03 6.083984756469726562e+01 -3.466149091720581055e+00 6.685658097267150879e-01 1.509117984771728516e+01 4.727923393249511719e+00 7.323782891035079956e-02
3.068000000000000000e+03 5.987982177734375000e+01 -3.108013868331909180e+00 -2.552371323108673096e-01 1.412339973449707031e+01 4.160448551177978516e+00 -2.243984460830688477e+00
3.069000000000000000e+03 5.833202362060546875e+01 -1.019640636444091797e+01 2.727817296981811523e-01 9.241299629211425781e+00 2.854224443435668945e+00 4.317242622375488281e+00
3.070000000000000000e+03 5.921340560913085938e+01 -9.826118469238281250e+00 -1.628344655036926270e-01 1.240668869018554688e+01 3.673156261444091797e+00 3.522086143493652344e+00
3.071000000000000000e+03 6.291239166259765625e+01 -5.275087833404541016e+00 5.006052017211914062e+00 1.188081073760986328e+01 5.066058635711669922e+00 1.258823752403259277e+00
3.072000000000000000e+03 5.659512710571289062e+01 -2.677512407302856445e+00 1.077243447303771973e+00 4.320720195770263672e+00 1.619389057159423828e+00 -3.774242401123046875e+00
3.073000000000000000e+03 5.885863494873046875e+01 -2.661285638809204102e+00 -9.638244658708572388e-02 1.109288692474365234e+01 3.298951148986816406e+00 -3.942606925964355469e+00
3.074000000000000000e+03 5.959778976440429688e+01 -1.017250251770019531e+01 -4.087364077568054199e-01 1.265510845184326172e+01 3.673911571502685547e+00 2.765160799026489258e+00
3.075000000000000000e+03 5.811682510375976562e+01 -3.229064941406250000e+00 8.061185479164123535e-01 8.698588371276855469e+00 2.851412296295166016e+00 -4.973995685577392578e+00
3.076000000000000000e+03 5.875752639770507812e+01 -3.379499912261962891e+00 3.115152120590209961e-01 1.162152671813964844e+01 3.579912424087524414e+00 -4.646890163421630859e+00
3.077000000000000000e+03 5.731187820434570312e+01 -2.734092235565185547e+00 9.837442636489868164e-01 6.122695922851562500e+00 2.131932020187377930e+00 -4.353387832641601562e+00
3.078000000000000000e+03 6.015631484985351562e+01 -9.710824966430664062e+00 -1.456236690282821655e-01 1.437607383728027344e+01 4.269134998321533203e+00 1.530840396881103516e+00
3.079000000000000000e+03 6.044320678710937500e+01 -9.471977233886718750e+00 1.334223002195358276e-01 1.497564983367919922e+01 4.532721519470214844e+00 8.826162815093994141e-01
3.080000000000000000e+03 5.302466964721679688e+01 7.634885907173156738e-01 3.943964242935180664e-01 2.301837205886840820e+00 8.088700771331787109e-01 -1.884477734565734863e+00
3.081000000000000000e+03 5.512672805786132812e+01 -1.782207727432250977e+00 7.272866368293762207e-01 2.747585535049438477e+00 1.042461633682250977e+00 -2.702499866485595703e+00
3.082000000000000000e+03 5.601369857788085938e+01 -2.289519071578979492e+00 9.292311668395996094e-01 3.657751321792602539e+00 1.376094818115234375e+00 -3.321872234344482422e+00
3.083000000000000000e+03 5.626758193969726562e+01 -1.077564239501953125e+01 8.519366383552551270e-01 4.230125904083251953e+00 1.524618864059448242e+00 3.456535339355468750e+00
3.084000000000000000e+03 5.566311645507812500e+01 -1.572116255760192871e+00 7.251870632171630859e-01 3.582901000976562500e+00 1.292426466941833496e+00 -3.078617334365844727e+00
3.085000000000000000e+03 5.462803268432617188e+01 -1.258183288574218750e+01 5.233339071273803711e-01 3.055597782135009766e+00 1.073679566383361816e+00 2.488735198974609375e+00
3.086000000000000000e+03 5.298793411254882812e+01 2.271715402603149414e+00 3.257656693458557129e-01 2.805272340774536133e+00 9.393113851547241211e-01 -1.887028455734252930e+00
3.087000000000000000e+03 2.604629516601562500e+01 2.104080915451049805e+00 -3.482675850391387939e-01 -2.222234159708023071e-01 -1.711473017930984497e-01 6.321169137954711914e-01
3.088000000000000000e+03 2.701358604431152344e+01 1.762252211570739746e+00 -3.875295221805572510e-01 -1.643585562705993652e-01 -1.655664294958114624e-01 6.444153785705566406e-01
3.089000000000000000e+03 3.721406555175781250e+01 2.654688358306884766e+00 -4.696945250034332275e-01 1.774079352617263794e-01 -8.768597990274429321e-02 5.343234539031982422e-01
3.090000000000000000e+03 3.723665618896484375e+01 1.439833283424377441e+00 -6.085488796234130859e-01 1.351146399974822998e-01 -1.420302838087081909e-01 5.433318018913269043e-01
3.091000000000000000e+03 3.112752151489257812e+01 1.311464667320251465e+00 -5.395091176033020020e-01 -1.010496914386749268e-02 -1.648842245340347290e-01 6.506297588348388672e-01
3.092000000000000000e+03 3.040884208679199219e+01 2.195178747177124023e+00 -4.747483134269714355e-01 -2.630456164479255676e-02 -1.503158658742904663e-01 6.796902418136596680e-01
3.093000000000000000e+03 3.131338691711425781e+01 2.057982683181762695e+00 -5.014561414718627930e-01 2.276669489219784737e-03 -1.497538387775421143e-01 6.713556051254272461e-01
3.094000000000000000e+03 2.808392906188964844e+01 5.638123989105224609e+00 -3.697215318679809570e-01 -1.349287033081054688e-01 -1.513950675725936890e-01 7.121111750602722168e-01
3.095000000000000000e+03 4.746273803710937500e+01 -1.536337089538574219e+01 6.401211768388748169e-02 8.882682919502258301e-01 2.856841385364532471e-01 5.863944292068481445e-01
3.096000000000000000e+03 4.054772567749023438e+01 -1.625655555725097656e+01 -2.374417334794998169e-01 2.599266469478607178e-01 6.745477207005023956e-03 -1.682225912809371948e-01
3.097000000000000000e+03 3.931913757324218750e+01 -1.472669219970703125e+01 -5.242597460746765137e-01 1.299594342708587646e-01 -1.182900965213775635e-01 -2.898719906806945801e-01
3.098000000000000000e+03 4.293627166748046875e+01 -1.691366577148437500e+01 -1.787016727030277252e-02 5.089666247367858887e-01 1.473289430141448975e-01 6.382796168327331543e-02
3.099000000000000000e+03 3.470534133911132812e+01 1.317054152488708496e+00 -6.076480746269226074e-01 7.517588883638381958e-02 -1.597416549921035767e-01 6.089956760406494141e-01
3.100000000000000000e+03 3.258375167846679688e+01 2.549810171127319336e+00 -4.894891381263732910e-01 4.533573612570762634e-02 -1.332460194826126099e-01 6.615116596221923828e-01
3.101000000000000000e+03 3.575406646728515625e+01 1.458623886108398438e+00 -6.035730242729187012e-01 9.875899553298950195e-02 -1.514442116022109985e-01 5.861976146697998047e-01
3.102000000000000000e+03 3.761415863037109375e+01 1.974195837974548340e+00 -5.406315326690673828e-01 1.587280929088592529e-01 -1.145710349082946777e-01 5.219645500183105469e-01
3.103000000000000000e+03 3.651920318603515625e+01 1.517240643501281738e+00 -6.005350351333618164e-01 1.117712333798408508e-01 -1.466291397809982300e-01 5.643923282623291016e-01
3.104000000000000000e+03 5.003551101684570312e+01 -1.643727493286132812e+01 3.280608057975769043e-01 1.806940078735351562e+00 6.405003070831298828e-01 1.184999585151672363e+00
3.105000000000000000e+03 5.410427093505859375e+01 -1.258440017700195312e+01 5.108604431152343750e-01 2.654582500457763672e+00 9.496328830718994141e-01 2.279078483581542969e+00
3.106000000000000000e+03 5.373915481567382812e+01 -1.372476673126220703e+01 4.173427224159240723e-01 2.819161415100097656e+00 9.709512591361999512e-01 2.142621517181396484e+00
3.107000000000000000e+03 3.215010452270507812e+01 1.772298932075500488e+00 -5.326810479164123535e-01 2.223792113363742828e-02 -1.531329452991485596e-01 6.556653976440429688e-01
3.108000000000000000e+03 4.209561538696289062e+01 2.601448297500610352e+00 -3.288891017436981201e-01 3.434661030769348145e-01 4.373099654912948608e-03 2.168873250484466553e-01
3.109000000000000000e+03 4.204566955566406250e+01 3.426293849945068359e+00 -1.996921896934509277e-01 4.287086427211761475e-01 6.870493292808532715e-02 1.791617721319198608e-01
3.110000000000000000e+03 4.335390472412109375e+01 3.351212263107299805e+00 -1.501509398221969604e-01 5.201335549354553223e-01 1.109947785735130310e-01 5.395811423659324646e-02
3.111000000000000000e+03 4.714791107177734375e+01 -1.425136566162109375e+01 -1.307311803102493286e-01 6.602749228477478027e-01 1.588631272315979004e-01 4.219536781311035156e-01
3.112000000000000000e+03 4.048222732543945312e+01 3.335621356964111328e+00 -2.979986667633056641e-01 3.410553336143493652e-01 1.291699521243572235e-02 3.236628770828247070e-01
3.113000000000000000e+03 4.144993972778320312e+01 1.733621120452880859e+00 -4.896034598350524902e-01 2.591474056243896484e-01 -6.913681328296661377e-02 3.028361797332763672e-01
3.114000000000000000e+03 3.188713073730468750e+01 -1.781549072265625000e+01 -2.562212049961090088e-01 4.732180759310722351e-02 -6.266982108354568481e-02 -4.710413515567779541e-01
3.115000000000000000e+03 5.370774459838867188e+01 -1.323939990997314453e+01 4.351185858249664307e-01 2.637368440628051758e+00 9.217461347579956055e-01 2.132067203521728516e+00
3.116000000000000000e+03 3.927855682373046875e+01 -1.586759090423583984e+01 -3.469057977199554443e-01 1.899321675300598145e-01 -4.709208756685256958e-02 -2.533467411994934082e-01
3.117000000000000000e+03 5.062134552001953125e+01 1.926768660545349121e+00 2.270177304744720459e-01 1.572654962539672852e+00 5.399017930030822754e-01 -1.179231047630310059e+00
3.118000000000000000e+03 4.977546691894531250e+01 1.243772149085998535e+00 8.740027993917465210e-02 1.148107290267944336e+00 3.706522583961486816e-01 -8.822407722473144531e-01
3.119000000000000000e+03 4.643289566040039062e+01 -1.468078041076660156e+01 -1.296115070581436157e-01 6.251584887504577637e-01 1.486640870571136475e-01 3.341048955917358398e-01
3.120000000000000000e+03 2.722249984741210938e+01 -1.817650604248046875e+01 -2.808622121810913086e-01 -1.075970008969306946e-02 -8.748657256364822388e-02 -5.005651116371154785e-01
3.121000000000000000e+03 3.257626724243164062e+01 1.166367292404174805e+00 -5.820512771606445312e-01 2.967596799135208130e-02 -1.657125949859619141e-01 6.407007575035095215e-01
3.122000000000000000e+03 5.111603927612304688e+01 1.986169815063476562e+00 2.803250849246978760e-01 1.737122774124145508e+00 6.052343845367431641e-01 -1.330106377601623535e+00
3.123000000000000000e+03 4.690244293212890625e+01 1.324934363365173340e+00 -1.994105875492095947e-01 6.184410452842712402e-01 1.257091462612152100e-01 -2.813155651092529297e-01
3.124000000000000000e+03 4.720306777954101562e+01 2.195999860763549805e+00 -3.794946894049644470e-02 8.038963675498962402e-01 2.297840565443038940e-01 -4.130315184593200684e-01
3.125000000000000000e+03 5.200703811645507812e+01 1.645318269729614258e+00 3.349394202232360840e-01 2.055041790008544922e+00 7.169944047927856445e-01 -1.582562446594238281e+00
3.126000000000000000e+03 5.042411422729492188e+01 2.531259536743164062e+00 2.582996487617492676e-01 1.664483547210693359e+00 5.768349766731262207e-01 -1.174227595329284668e+00
3.127000000000000000e+03 2.548600959777832031e+01 1.216584563255310059e+00 -3.245501518249511719e-01 -2.251005619764328003e-01 -1.648952066898345947e-01 5.788142085075378418e-01
3.128000000000000000e+03 3.942449188232421875e+01 -1.759849166870117188e+01 -9.806849062442779541e-02 2.917892932891845703e-01 5.811623856425285339e-02 -1.868572235107421875e-01
3.129000000000000000e+03 5.249456024169921875e+01 1.579181313514709473e+00 3.534670174121856689e-01 2.285143136978149414e+00 7.915830016136169434e-01 -1.726529717445373535e+00
3.130000000000000000e+03 4.528210449218750000e+01 3.279082536697387695e+00 -3.532071411609649658e-02 7.220861315727233887e-01 2.060296237468719482e-01 -1.901290118694305420e-01
3.131000000000000000e+03 4.859290313720703125e+01 1.500669956207275391e+00 2.621646737679839134e-03 9.263896346092224121e-01 2.787033915519714355e-01 -6.366671323776245117e-01
3.132000000000000000e+03 4.557131195068359375e+01 -1.512023639678955078e+01 -1.311163157224655151e-01 5.590975284576416016e-01 1.283943653106689453e-01 2.396765798330307007e-01
3.133000000000000000e+03 5.212771987915039062e+01 -1.431874275207519531e+01 3.696637749671936035e-01 2.042935132980346680e+00 7.237796783447265625e-01 1.614941596984863281e+00
3.134000000000000000e+03 6.936104583740234375e+01 -1.447142791748046875e+01 4.743380472064018250e-02 8.523947715759277344e+00 2.571414470672607422e+00 -1.169750452041625977e+00
3.135000000000000000e+03 7.007054138183593750e+01 -1.338535594940185547e+01 2.848309576511383057e-01 8.353981018066406250e+00 2.591643810272216797e+00 -1.188602089881896973e+00
3.136000000000000000e+03 6.923603820800781250e+01 -1.633800506591796875e+01 -2.799299061298370361e-01 8.490804672241210938e+00 2.463262557983398438e+00 -1.028909921646118164e+00
3.137000000000000000e+03 7.076219940185546875e+01 -8.777135848999023438e+00 1.218951463699340820e+00 7.823705673217773438e+00 2.712797164916992188e+00 -6.078756451606750488e-01
3.138000000000000000e+03 2.777899360656738281e+01 2.042676448822021484e+00 -4.100645184516906738e-01 -1.305790096521377563e-01 -1.621930599212646484e-01 6.614371538162231445e-01
3.139000000000000000e+03 7.090822601318359375e+01 -1.026880836486816406e+01 9.514076113700866699e-01 7.908998012542724609e+00 2.658121585845947266e+00 -9.008471369743347168e-01
3.140000000000000000e+03 6.880202484130859375e+01 -1.305181312561035156e+01 3.535432815551757812e-01 8.682235717773437500e+00 2.710733890533447266e+00 -1.215937256813049316e+00
3.141000000000000000e+03 7.099626922607421875e+01 -1.994491815567016602e+00 7.797967195510864258e-01 7.899978637695312500e+00 2.603932619094848633e+00 9.508994817733764648e-01
3.142000000000000000e+03 7.031350708007812500e+01 -2.595668077468872070e+00 1.036532044410705566e+00 8.058588981628417969e+00 2.728536367416381836e+00 9.191506505012512207e-01
3.143000000000000000e+03 7.101812744140625000e+01 -6.155712604522705078e+00 1.344519615173339844e+00 7.683093070983886719e+00 2.708283901214599609e+00 6.602287292480468750e-02
3.144000000000000000e+03 7.022293090820312500e+01 -6.262015342712402344e+00 1.565615415573120117e+00 7.888502120971679688e+00 2.836235284805297852e+00 2.949268557131290436e-02
3.145000000000000000e+03 6.914614105224609375e+01 -1.867182159423828125e+01 -4.963986575603485107e-01 8.332867622375488281e+00 2.350940704345703125e+00 -8.265241384506225586e-01
3.146000000000000000e+03 4.596131896972656250e+01 -1.606168937683105469e+01 4.790475592017173767e-02 7.557770609855651855e-01 2.411045432090759277e-01 3.663200438022613525e-01
3.147000000000000000e+03 7.003124237060546875e+01 -1.235146903991699219e+01 5.316264629364013672e-01 8.312788009643554688e+00 2.653324365615844727e+00 -1.167052745819091797e+00
3.148000000000000000e+03 7.074122619628906250e+01 -7.282528877258300781e-01 5.530535578727722168e-01 8.062910079956054688e+00 2.584789037704467773e+00 1.092580676078796387e+00
3.149000000000000000e+03 6.864834594726562500e+01 2.728848695755004883e+00 -2.085200101137161255e-01 8.687546730041503906e+00 2.543708086013793945e+00 1.046985149383544922e+00
3.150000000000000000e+03 7.052493286132812500e+01 2.066264867782592773e+00 8.455241098999977112e-03 8.240137100219726562e+00 2.474577665328979492e+00 1.127366542816162109e+00
3.151000000000000000e+03 6.955894470214843750e+01 2.908586502075195312e+00 -1.736017465591430664e-01 8.438927650451660156e+00 2.479597806930541992e+00 1.066699266433715820e+00
3.152000000000000000e+03 6.927947998046875000e+01 8.537889122962951660e-01 2.138905376195907593e-01 8.554301261901855469e+00 2.630457639694213867e+00 1.186696290969848633e+00
3.153000000000000000e+03 3.808179855346679688e+01 3.070111036300659180e+00 -4.021865427494049072e-01 2.270021140575408936e-01 -5.255533009767532349e-02 4.791902303695678711e-01
3.154000000000000000e+03 3.995650482177734375e+01 1.644562482833862305e+00 -5.499221682548522949e-01 2.103407979011535645e-01 -1.018744185566902161e-01 4.115688800811767578e-01
3.155000000000000000e+03 3.833161926269531250e+01 2.238249301910400391e+00 -4.969426691532135010e-01 1.883256733417510986e-01 -9.258510172367095947e-02 4.855453670024871826e-01
3.156000000000000000e+03 3.374428176879882812e+01 -1.847765541076660156e+01 -1.571213603019714355e-01 1.034109890460968018e-01 -1.611311361193656921e-02 -4.179676473140716553e-01
3.157000000000000000e+03 2.554833793640136719e+01 1.798842430114746094e+01 -1.780662238597869873e-01 -1.928930431604385376e-01 -1.112877801060676575e-01 3.001945614814758301e-01
3.158000000000000000e+03 3.422687149047851562e+01 1.754938006401062012e+00 -5.605919957160949707e-01 7.447364926338195801e-02 -1.458355039358139038e-01 6.236638426780700684e-01
3.159000000000000000e+03 6.879713439941406250e+01 9.662240028381347656e+00 -5.898138284683227539e-01 7.989811897277832031e+00 2.219999551773071289e+00 4.750489890575408936e-01
3.160000000000000000e+03 6.847195434570312500e+01 8.543425559997558594e+00 -6.209209561347961426e-01 8.102294921875000000e+00 2.244412183761596680e+00 5.191177725791931152e-01
3.161000000000000000e+03 2.722964096069335938e+01 1.036111164093017578e+01 -3.500960767269134521e-01 -1.380455046892166138e-01 -1.464424729347229004e-01 6.249738931655883789e-01
3.162000000000000000e+03 2.824660301208496094e+01 4.746145725250244141e+00 -3.791457414627075195e-01 -1.261093765497207642e-01 -1.515765339136123657e-01 7.149212956428527832e-01
3.163000000000000000e+03 6.664691162109375000e+01 1.172619342803955078e+01 -6.590412259101867676e-01 7.652157306671142578e+00 2.097934961318969727e+00 1.046161949634552002e-01
3.164000000000000000e+03 6.527025604248046875e+01 -2.345563125610351562e+01 -7.065193653106689453e-01 7.668947219848632812e+00 2.088728427886962891e+00 -1.660443842411041260e-02
3.165000000000000000e+03 6.687789916992187500e+01 2.377666664123535156e+01 -1.629530787467956543e-01 6.892206192016601562e+00 2.018775939941406250e+00 -9.560029953718185425e-02
3.166000000000000000e+03 6.862469482421875000e+01 -2.120162010192871094e+01 -5.982836484909057617e-01 8.110037803649902344e+00 2.253526210784912109e+00 -5.739633440971374512e-01
3.167000000000000000e+03 2.725232505798339844e+01 3.677176475524902344e+00 -3.767785131931304932e-01 -1.777282357215881348e-01 -1.663520336151123047e-01 6.984255313873291016e-01
3.168000000000000000e+03 2.647455978393554688e+01 1.716492652893066406e+01 -1.883047968149185181e-01 -1.064446121454238892e-01 -8.842482417821884155e-02 3.255529999732971191e-01
3.169000000000000000e+03 2.773690795898437500e+01 1.215871524810791016e+01 -3.124859929084777832e-01 -7.438647001981735229e-02 -1.160617396235466003e-01 5.441700220108032227e-01
3.170000000000000000e+03 6.795199584960937500e+01 6.360703945159912109e+00 -6.393570303916931152e-01 8.371638298034667969e+00 2.319684505462646484e+00 6.271783709526062012e-01
3.171000000000000000e+03 6.937744140625000000e+01 7.107875823974609375e+00 -5.389785766601562500e-01 8.197318077087402344e+00 2.297501802444458008e+00 7.203819155693054199e-01
3.172000000000000000e+03 3.135902595520019531e+01 -1.659994697570800781e+01 -3.785108029842376709e-01 2.073637954890727997e-02 -1.073323264718055725e-01 -4.861698746681213379e-01
3.173000000000000000e+03 3.306791687011718750e+01 -1.717609405517578125e+01 -3.059299588203430176e-01 5.668349936604499817e-02 -7.477393001317977905e-02 -4.540381431579589844e-01
3.174000000000000000e+03 6.676463317871093750e+01 -2.566301155090332031e+01 -5.504584312438964844e-01 7.531785488128662109e+00 2.094398021697998047e+00 -1.657812148332595825e-01
3.175000000000000000e+03 1.283770561218261719e+01 -2.980030822753906250e+01 1.535578817129135132e-01 -4.153945446014404297e-01 -7.855100184679031372e-02 -2.997095286846160889e-01
3.176000000000000000e+03 2.351798820495605469e+01 -2.247539520263671875e+01 -3.136396780610084534e-02 -9.481295198202133179e-02 -3.785307705402374268e-02 -4.222005903720855713e-01
3.177000000000000000e+03 2.339404678344726562e+01 -2.049841690063476562e+01 -1.635055094957351685e-01 -8.249603211879730225e-02 -7.380045950412750244e-02 -4.466410577297210693e-01
3.178000000000000000e+03 6.827826690673828125e+01 1.754848670959472656e+01 -3.472951352596282959e-01 7.339824199676513672e+00 2.097758769989013672e+00 6.230212375521659851e-02
3.179000000000000000e+03 6.712178802490234375e+01 1.507980155944824219e+01 -4.880092740058898926e-01 7.381476879119873047e+00 2.068040132522583008e+00 5.980196222662925720e-02
3.180000000000000000e+03 2.651064682006835938e+01 -1.654019927978515625e+01 -4.051613807678222656e-01 -1.453575957566499710e-02 -1.259091496467590332e-01 -5.091917514801025391e-01
3.181000000000000000e+03 6.771742248535156250e+01 1.642717552185058594e+01 -4.074148535728454590e-01 7.350150108337402344e+00 2.082820653915405273e+00 6.463005393743515015e-02
3.182000000000000000e+03 6.922013092041015625e+01 2.073540878295898438e+01 -2.230170071125030518e-01 7.338602066040039062e+00 2.134675502777099609e+00 2.258896268904209137e-02
3.183000000000000000e+03 6.952554321289062500e+01 -1.953546333312988281e+01 -4.977432191371917725e-01 8.221094131469726562e+00 2.317005157470703125e+00 -7.857866287231445312e-01
3.184000000000000000e+03 6.831834411621093750e+01 -1.927983093261718750e+01 -5.948061347007751465e-01 8.351516723632812500e+00 2.327013254165649414e+00 -6.889657378196716309e-01
3.185000000000000000e+03 6.637099456787109375e+01 -2.911621284484863281e+01 -4.072052240371704102e-01 7.145269870758056641e+00 2.021419525146484375e+00 -3.379476815462112427e-02
3.186000000000000000e+03 6.933146667480468750e+01 -1.724106407165527344e+01 -3.852322399616241455e-01 8.439808845520019531e+00 2.416373014450073242e+00 -9.594616889953613281e-01
3.187000000000000000e+03 6.945601654052734375e+01 4.689485073089599609e+00 -3.971514701843261719e-01 8.388674736022949219e+00 2.397456884384155273e+00 9.315105080604553223e-01
3.188000000000000000e+03 1.675239372253417969e+01 2.660580635070800781e+01 2.148565053939819336e-01 -7.756416797637939453e-01 -1.682355552911758423e-01 3.343979716300964355e-01
3.189000000000000000e+03 2.238851737976074219e+01 -1.740403175354003906e+01 -3.682704567909240723e-01 -6.448841840028762817e-02 -1.298276633024215698e-01 -4.648303687572479248e-01
3.190000000000000000e+03 6.267624282836914062e+01 -7.116984844207763672e+00 5.758708477020263672e+00 1.204713916778564453e+01 5.341753959655761719e+00 -9.723700284957885742e-01
3.191000000000000000e+03 6.098372268676757812e+01 -3.775654315948486328e+00 1.356375455856323242e+00 1.542324066162109375e+01 5.033885002136230469e+00 6.808139085769653320e-01
3.192000000000000000e+03 6.202915954589843750e+01 -8.664126396179199219e+00 2.999550104141235352e+00 1.365587425231933594e+01 4.996627330780029297e+00 -1.740864753723144531e+00
3.193000000000000000e+03 5.827437973022460938e+01 -2.993078231811523438e+00 4.932437837123870850e-01 9.349011421203613281e+00 2.952676534652709961e+00 -4.685047626495361328e+00
3.194000000000000000e+03 6.235573577880859375e+01 -6.240007400512695312e+00 6.750107765197753906e+00 1.236698913574218750e+01 5.735128879547119141e+00 2.334553748369216919e-01
3.195000000000000000e+03 6.007455062866210938e+01 -9.955663681030273438e+00 -3.274217844009399414e-01 1.379595279693603516e+01 4.040559291839599609e+00 1.835161924362182617e+00
3.196000000000000000e+03 6.129258346557617188e+01 -3.703733444213867188e+00 1.528998017311096191e+00 1.471914386749267578e+01 4.874442577362060547e+00 9.370145797729492188e-01
3.197000000000000000e+03 6.136336517333984375e+01 -9.177605628967285156e+00 1.431401371955871582e+00 1.455988502502441406e+01 4.797386169433593750e+00 -9.331133961677551270e-01
3.198000000000000000e+03 6.265774536132812500e+01 -5.703323841094970703e+00 5.859209060668945312e+00 1.210627555847167969e+01 5.389645099639892578e+00 9.306323528289794922e-01
3.199000000000000000e+03 6.247186279296875000e+01 -5.962140560150146484e+00 6.353122711181640625e+00 1.226842880249023438e+01 5.586465358734130859e+00 6.769986748695373535e-01
3.200000000000000000e+03 5.487155914306640625e+01 -7.073001265525817871e-01 5.861530303955078125e-01 3.164958953857421875e+00 1.125333547592163086e+00 -2.659790277481079102e+00
3.201000000000000000e+03 6.289640808105468750e+01 -4.882218360900878906e+00 4.462423324584960938e+00 1.204359340667724609e+01 4.951805114746093750e+00 1.504747152328491211e+00
3.202000000000000000e+03 6.067692184448242188e+01 -3.156355142593383789e+00 1.632420271635055542e-01 1.460848903656005859e+01 4.431519508361816406e+00 -5.139068365097045898e-01
3.203000000000000000e+03 5.701760482788085938e+01 -2.389456033706665039e+00 9.110362529754638672e-01 5.531981945037841797e+00 1.932905435562133789e+00 -4.078630924224853516e+00
3.204000000000000000e+03 5.939307785034179688e+01 -1.061916542053222656e+01 -4.737097918987274170e-01 1.159216213226318359e+01 3.335535526275634766e+00 2.969048261642456055e+00
3.205000000000000000e+03 6.212972259521484375e+01 -9.104717254638671875e+00 2.223903656005859375e+00 1.337139415740966797e+01 4.678589344024658203e+00 -1.512679457664489746e+00
3.206000000000000000e+03 6.824481964111328125e+01 -1.143303489685058594e+01 8.941195011138916016e-01 8.827805519104003906e+00 2.916577577590942383e+00 -1.214558720588684082e+00
3.207000000000000000e+03 6.245059967041015625e+01 -8.483043670654296875e+00 3.448993206024169922e+00 1.292628192901611328e+01 4.912582397460937500e+00 -1.742748141288757324e+00
3.208000000000000000e+03 5.465084075927734375e+01 -1.618319272994995117e+00 6.269727945327758789e-01 2.408701181411743164e+00 9.107021689414978027e-01 -2.396800279617309570e+00
3.209000000000000000e+03 5.906418228149414062e+01 -1.062211608886718750e+01 -3.586880266666412354e-01 1.097537231445312500e+01 3.185005187988281250e+00 3.379200696945190430e+00
3.210000000000000000e+03 5.432524490356445312e+01 -3.839851021766662598e-01 5.188333392143249512e-01 2.781073093414306641e+00 9.899719357490539551e-01 -2.380196809768676758e+00
3.211000000000000000e+03 5.524508285522460938e+01 -1.348664879798889160e+00 6.786367297172546387e-01 3.225881814956665039e+00 1.171355605125427246e+00 -2.838634252548217773e+00
3.212000000000000000e+03 5.366655349731445312e+01 1.471500873565673828e+00 3.509146869182586670e-01 2.999375343322753906e+00 1.005087018013000488e+00 -2.112045764923095703e+00
3.213000000000000000e+03 2.937045860290527344e+01 4.962422847747802734e+00 -3.745399117469787598e-01 -5.219627171754837036e-02 -1.280208528041839600e-01 7.082470655441284180e-01
3.214000000000000000e+03 5.418548965454101562e+01 -1.315145874023437500e+01 4.497919082641601562e-01 2.946749448776245117e+00 1.018962383270263672e+00 2.295871973037719727e+00
3.215000000000000000e+03 5.592953109741210938e+01 -1.184686851501464844e+01 5.902708768844604492e-01 4.309020042419433594e+00 1.469787359237670898e+00 3.162528038024902344e+00
3.216000000000000000e+03 3.349636459350585938e+01 2.086140155792236328e+00 -5.287165641784667969e-01 6.448272615671157837e-02 -1.392701566219329834e-01 6.405664086341857910e-01
3.217000000000000000e+03 3.464961624145507812e+01 2.241197824478149414e+00 -5.267287492752075195e-01 9.098342061042785645e-02 -1.307236105203628540e-01 6.183615922927856445e-01
3.218000000000000000e+03 3.971858978271484375e+01 3.271965503692626953e+00 -3.251940011978149414e-01 3.101432323455810547e-01 -4.515227861702442169e-03 3.720801770687103271e-01
3.219000000000000000e+03 4.947400283813476562e+01 -1.574245357513427734e+01 2.631555795669555664e-01 1.422759532928466797e+00 5.057744979858398438e-01 1.003487944602966309e+00
3.220000000000000000e+03 7.025299835205078125e+01 -7.050765991210937500e+00 1.567665219306945801e+00 7.890642166137695312e+00 2.837492227554321289e+00 -1.997565180063247681e-01
3.221000000000000000e+03 7.014074707031250000e+01 -7.864893436431884766e+00 1.528298616409301758e+00 7.950904369354248047e+00 2.843760967254638672e+00 -4.398951530456542969e-01
3.222000000000000000e+03 3.553577423095703125e+01 3.812364101409912109e+00 -3.821025788784027100e-01 1.649354994297027588e-01 -6.515011936426162720e-02 5.788214206695556641e-01
3.223000000000000000e+03 3.524911117553710938e+01 2.687546968460083008e+00 -4.854890406131744385e-01 1.165011301636695862e-01 -1.106963679194450378e-01 6.017758250236511230e-01
3.224000000000000000e+03 4.322183227539062500e+01 2.268407821655273438e+00 -3.154788911342620850e-01 3.924991190433502197e-01 2.310606651008129120e-02 1.252921223640441895e-01
3.225000000000000000e+03 5.306083679199218750e+01 1.515827775001525879e+00 3.519915640354156494e-01 2.621783494949340820e+00 8.921325206756591797e-01 -1.922504305839538574e+00
3.226000000000000000e+03 4.453395080566406250e+01 3.008064985275268555e+00 -1.149313151836395264e-01 5.940331816673278809e-01 1.437305510044097900e-01 -7.610701769590377808e-02
3.227000000000000000e+03 4.397285079956054688e+01 3.759361028671264648e+00 -5.046631023287773132e-02 6.418474912643432617e-01 1.774143427610397339e-01 -5.599071830511093140e-02
3.228000000000000000e+03 4.384090042114257812e+01 2.631729602813720703e+00 -2.295665293931961060e-01 4.784181416034698486e-01 7.465548813343048096e-02 4.156479984521865845e-02
3.229000000000000000e+03 4.349297332763671875e+01 4.985066413879394531e+00 2.404029853641986847e-02 7.226583361625671387e-01 2.240095883607864380e-01 -6.123933941125869751e-02
3.230000000000000000e+03 4.934631347656250000e+01 -1.655517196655273438e+01 2.905156016349792480e-01 1.596566677093505859e+00 5.661246776580810547e-01 1.016923666000366211e+00
3.231000000000000000e+03 5.059665298461914062e+01 -1.610904312133789062e+01 3.357492387294769287e-01 1.911568522453308105e+00 6.741953492164611816e-01 1.304907441139221191e+00
3.232000000000000000e+03 5.094889831542968750e+01 -1.543286037445068359e+01 3.236764967441558838e-01 1.889492750167846680e+00 6.639508008956909180e-01 1.358607172966003418e+00
3.233000000000000000e+03 4.320882034301757812e+01 4.123263359069824219e+00 -6.553690880537033081e-02 5.972822308540344238e-01 1.595235913991928101e-01 1.616756431758403778e-02
3.234000000000000000e+03 6.764152526855468750e+01 -1.870046043395996094e+01 -6.345735192298889160e-01 8.479604721069335938e+00 2.353509426116943359e+00 -6.579930782318115234e-01
3.235000000000000000e+03 5.477732086181640625e+01 -1.369111728668212891e+01 3.569045066833496094e-01 3.687010526657104492e+00 1.213174462318420410e+00 2.509849309921264648e+00
3.236000000000000000e+03 2.862905883789062500e+01 2.211057186126708984e+00 -4.324669241905212402e-01 -9.844425320625305176e-02 -1.592733561992645264e-01 6.750302910804748535e-01
3.237000000000000000e+03 4.793481826782226562e+01 1.777797937393188477e+00 -2.847475931048393250e-02 8.572208881378173828e-01 2.486238330602645874e-01 -5.169203281402587891e-01
3.238000000000000000e+03 4.778900527954101562e+01 2.913946628570556641e+00 9.508950263261795044e-02 1.054059863090515137e+00 3.447448015213012695e-01 -5.888119935989379883e-01
3.239000000000000000e+03 6.947534179687500000e+01 -4.134848117828369141e+00 1.557847619056701660e+00 8.180894851684570312e+00 2.921622753143310547e+00 6.755723357200622559e-01
3.240000000000000000e+03 7.009101867675781250e+01 -5.500533580780029297e+00 1.591380119323730469e+00 7.936232089996337891e+00 2.858283758163452148e+00 2.650124430656433105e-01
3.241000000000000000e+03 6.921539306640625000e+01 -1.364171504974365234e+01 2.343511581420898438e-01 8.584129333496093750e+00 2.645544290542602539e+00 -1.209829092025756836e+00
3.242000000000000000e+03 6.940467834472656250e+01 -1.536887454986572266e+01 -1.284266263246536255e-01 8.494318962097167969e+00 2.509767770767211914e+00 -1.105612277984619141e+00
3.243000000000000000e+03 7.040523529052734375e+01 1.223318815231323242e+00 1.600553542375564575e-01 8.261521339416503906e+00 2.526473045349121094e+00 1.154970765113830566e+00
3.244000000000000000e+03 6.975129699707031250e+01 -2.003305673599243164e+00 9.457721710205078125e-01 8.274147987365722656e+00 2.765975952148437500e+00 1.051582336425781250e+00
3.245000000000000000e+03 3.908687591552734375e+01 2.366046190261840820e+00 -4.679891467094421387e-01 2.249730229377746582e-01 -7.290484011173248291e-02 4.461865425109863281e-01
3.246000000000000000e+03 4.059680938720703125e+01 2.499008893966674805e+00 -4.006679058074951172e-01 2.894335985183715820e-01 -3.337028995156288147e-02 3.432174921035766602e-01
3.247000000000000000e+03 4.716526031494140625e+01 -1.613945770263671875e+01 1.558988839387893677e-01 1.007429838180541992e+00 3.489986062049865723e-01 5.957623124122619629e-01
3.248000000000000000e+03 4.674043655395507812e+01 -1.550982284545898438e+01 2.679128758609294891e-02 8.157413601875305176e-01 2.527597844600677490e-01 4.581359624862670898e-01
3.249000000000000000e+03 5.087859725952148438e+01 3.418974876403808594e+00 2.842704355716705322e-01 2.082136631011962891e+00 7.099221348762512207e-01 -1.304968714714050293e+00
3.250000000000000000e+03 5.158713531494140625e+01 1.830953598022460938e+00 3.025478422641754150e-01 1.885558485984802246e+00 6.564319133758544922e-01 -1.439722418785095215e+00
3.251000000000000000e+03 5.103352737426757812e+01 2.648249864578247070e+00 2.846534550189971924e-01 1.887143135070800781e+00 6.515389680862426758e-01 -1.331701874732971191e+00
3.252000000000000000e+03 5.189418411254882812e+01 2.133110046386718750e+00 3.152998387813568115e-01 2.124109745025634766e+00 7.318228483200073242e-01 -1.552930831909179688e+00
3.253000000000000000e+03 5.241651535034179688e+01 2.223988533020019531e+00 3.190577030181884766e-01 2.472612142562866211e+00 8.375009894371032715e-01 -1.723763465881347656e+00
3.254000000000000000e+03 5.167435455322265625e+01 2.687603235244750977e+00 2.950246036052703857e-01 2.187725543975830078e+00 7.448250651359558105e-01 -1.510085225105285645e+00
3.255000000000000000e+03 4.388026428222656250e+01 -1.584698200225830078e+01 -1.242190599441528320e-01 4.669483900070190430e-01 1.028188019990921021e-01 1.010682433843612671e-01
3.256000000000000000e+03 6.337424850463867188e+01 -5.243154525756835938e+00 4.635296821594238281e+00 1.132412147521972656e+01 4.787825584411621094e+00 1.130457639694213867e+00
3.257000000000000000e+03 6.983850860595703125e+01 -4.785232067108154297e+00 1.573334217071533203e+00 8.037962913513183594e+00 2.883388996124267578e+00 4.774215221405029297e-01
3.258000000000000000e+03 6.932972717285156250e+01 -1.126040458679199219e+01 8.831863403320312500e-01 8.430458068847656250e+00 2.794093370437622070e+00 -1.147722482681274414e+00
3.259000000000000000e+03 7.000536346435546875e+01 -8.701573371887207031e+00 1.408706665039062500e+00 8.038295745849609375e+00 2.834100961685180664e+00 -6.469287872314453125e-01
3.260000000000000000e+03 6.988183593750000000e+01 -3.468618988990783691e-01 5.188922882080078125e-01 8.347851753234863281e+00 2.660023212432861328e+00 1.173174619674682617e+00
3.261000000000000000e+03 4.859023666381835938e+01 -1.659912109375000000e+01 2.693728506565093994e-01 1.342210412025451660e+00 4.834749996662139893e-01 8.638749122619628906e-01
3.262000000000000000e+03 4.783933639526367188e+01 -1.647744941711425781e+01 2.231740802526473999e-01 1.156999826431274414e+00 4.140521883964538574e-01 7.366355061531066895e-01
3.263000000000000000e+03 3.470967102050781250e+01 3.340340375900268555e+00 -4.334793090820312500e-01 1.214183419942855835e-01 -9.361828863620758057e-02 6.143870949745178223e-01
3.264000000000000000e+03 2.842553901672363281e+01 7.594044685363769531e+00 -3.484462201595306396e-01 -8.428192138671875000e-02 -1.298184394836425781e-01 6.898809671401977539e-01
3.265000000000000000e+03 2.392374038696289062e+01 -1.604680442810058594e+01 -4.347880482673645020e-01 -2.410231716930866241e-02 -1.376671195030212402e-01 -4.889801144599914551e-01
3.266000000000000000e+03 6.961538696289062500e+01 1.482372999191284180e+00 9.203854948282241821e-02 8.473587989807128906e+00 2.569687843322753906e+00 1.160732269287109375e+00
3.267000000000000000e+03 6.701310729980468750e+01 7.669601917266845703e+00 -7.296441197395324707e-01 8.222292900085449219e+00 2.247794866561889648e+00 3.928731083869934082e-01
3.268000000000000000e+03 6.899639129638671875e+01 5.994700908660888672e+00 -5.400234460830688477e-01 8.331750869750976562e+00 2.337518215179443359e+00 7.735099792480468750e-01
3.269000000000000000e+03 6.791486358642578125e+01 -2.221811866760253906e+01 -6.358624696731567383e-01 8.024756431579589844e+00 2.216668367385864258e+00 -4.347783625125885010e-01
3.270000000000000000e+03 6.901892852783203125e+01 1.934218406677246094e+00 -4.052416607737541199e-02 8.633416175842285156e+00 2.577867507934570312e+00 1.120185613632202148e+00
3.271000000000000000e+03 2.600312042236328125e+01 -1.761477279663085938e+01 -3.366118967533111572e-01 -2.271507307887077332e-02 -1.077980920672416687e-01 -5.043826103210449219e-01
3.272000000000000000e+03 2.770214653015136719e+01 -1.706682205200195312e+01 -3.568979203701019287e-01 -7.752724457532167435e-03 -1.093951910734176636e-01 -5.092861056327819824e-01
3.273000000000000000e+03 3.063475990295410156e+01 -1.833866119384765625e+01 -2.217329740524291992e-01 3.172376006841659546e-02 -5.700276419520378113e-02 -4.799715280532836914e-01
3.274000000000000000e+03 3.894347763061523438e+01 3.199501276016235352e+00 -3.679843544960021973e-01 2.681124210357666016e-01 -2.996157482266426086e-02 4.322447478771209717e-01
3.275000000000000000e+03 2.542160987854003906e+01 -1.891320037841796875e+01 -2.385875284671783447e-01 -3.750833868980407715e-02 -8.282876014709472656e-02 -4.852555394172668457e-01
3.276000000000000000e+03 6.548326873779296875e+01 -2.584648704528808594e+01 -6.112837791442871094e-01 7.392267227172851562e+00 2.034295082092285156e+00 2.524114027619361877e-02
3.277000000000000000e+03 2.951304435729980469e+01 2.252081155776977539e+00 -4.525609612464904785e-01 -6.102711334824562073e-02 -1.540764123201370239e-01 6.807247400283813477e-01
3.278000000000000000e+03 3.054414176940917969e+01 3.836206197738647461e+00 -4.116715192794799805e-01 -1.063197571784257889e-02 -1.266910433769226074e-01 6.977680325508117676e-01
3.279000000000000000e+03 4.650721740722656250e+01 2.861645936965942383e+00 -1.098670065402984619e-02 8.179326057434082031e-01 2.420837730169296265e-01 -3.499540984630584717e-01
3.280000000000000000e+03 2.787003326416015625e+01 1.660748863220214844e+01 -1.466294825077056885e-01 3.053027763962745667e-02 -3.482976183295249939e-02 3.331037759780883789e-01
3.281000000000000000e+03 6.996508789062500000e+01 -1.806473350524902344e+01 -3.958557844161987305e-01 8.287660598754882812e+00 2.367541551589965820e+00 -9.324961304664611816e-01
3.282000000000000000e+03 3.676906204223632812e+01 -1.821421432495117188e+01 -1.122568696737289429e-01 2.009179890155792236e-01 2.659833244979381561e-02 -3.084545731544494629e-01
3.283000000000000000e+03 3.490938568115234375e+01 -1.776258850097656250e+01 -2.072325348854064941e-01 1.194175481796264648e-01 -2.634449675679206848e-02 -3.943665921688079834e-01
3.284000000000000000e+03 4.406184387207031250e+01 -1.692304229736328125e+01 3.570445254445075989e-02 6.016309261322021484e-01 1.912005990743637085e-01 1.881828010082244873e-01
3.285000000000000000e+03 4.041837692260742188e+01 -1.737637519836425781e+01 -9.171286970376968384e-02 3.282065689563751221e-01 7.094811648130416870e-02 -1.267241388559341431e-01
3.286000000000000000e+03 6.537993621826171875e+01 1.240232849121093750e+01 -6.622269749641418457e-01 7.435058593750000000e+00 2.031849384307861328e+00 -6.134388223290443420e-02
3.287000000000000000e+03 4.158522796630859375e+01 -1.773973846435546875e+01 8.853365667164325714e-03 4.351276755332946777e-01 1.331943124532699585e-01 -1.647556386888027191e-02
3.288000000000000000e+03 3.874419021606445312e+01 -1.678202247619628906e+01 -2.157482802867889404e-01 2.167932689189910889e-01 3.134964208584278822e-04 -2.497380524873733521e-01
3.289000000000000000e+03 3.814945983886718750e+01 -1.596483135223388672e+01 -3.808832168579101562e-01 1.352274119853973389e-01 -7.369673997163772583e-02 -3.124822974205017090e-01
3.290000000000000000e+03 6.621613311767578125e+01 1.374780941009521484e+01 -5.772195458412170410e-01 7.387650966644287109e+00 2.043129444122314453e+00 9.135188534855842590e-03
3.291000000000000000e+03 6.853564453125000000e+01 4.895289897918701172e+00 -5.027526021003723145e-01 8.523248672485351562e+00 2.406148910522460938e+00 8.401382565498352051e-01
3.292000000000000000e+03 2.679233551025390625e+01 1.519298267364501953e+01 -2.620142698287963867e-01 -1.010231524705886841e-01 -1.089112311601638794e-01 4.162573814392089844e-01
3.293000000000000000e+03 2.899452972412109375e+01 -1.725462532043457031e+01 -3.344094157218933105e-01 1.657770131714642048e-03 -9.982549399137496948e-02 -5.051921606063842773e-01
3.294000000000000000e+03 7.012525177001953125e+01 4.292016625404357910e-01 3.345807790756225586e-01 8.320547103881835938e+00 2.596538543701171875e+00 1.177372336387634277e+00
3.295000000000000000e+03 6.848348999023437500e+01 -1.783781242370605469e+01 -4.891064763069152832e-01 8.495074272155761719e+00 2.401790380477905273e+00 -8.504146933555603027e-01
3.296000000000000000e+03 2.819290924072265625e+01 6.529336452484130859e+00 -3.566018939018249512e-01 -1.162701696157455444e-01 -1.418616175651550293e-01 7.059578895568847656e-01
3.297000000000000000e+03 2.976621627807617188e+01 7.481787681579589844e+00 -3.164907097816467285e-01 1.658616820350289345e-04 -9.489745646715164185e-02 6.686025261878967285e-01
3.298000000000000000e+03 3.261633300781250000e+01 5.951586246490478516e+00 -2.939802408218383789e-01 1.263900697231292725e-01 -5.027705058455467224e-02 6.333147287368774414e-01
3.299000000000000000e+03 6.363163757324218750e+01 1.539823246002197266e+01 -5.122789144515991211e-01 6.811644077301025391e+00 1.889809489250183105e+00 -2.671765685081481934e-01
3.300000000000000000e+03 6.572221374511718750e+01 1.590701580047607422e+01 -4.774738848209381104e-01 7.106782436370849609e+00 1.988792538642883301e+00 -7.841000705957412720e-02
3.301000000000000000e+03 2.677814292907714844e+01 1.312119960784912109e+01 -3.338070213794708252e-01 -1.364626288414001465e-01 -1.410809010267257690e-01 5.117490291595458984e-01
3.302000000000000000e+03 6.400350952148437500e+01 -2.769315338134765625e+01 -4.745608866214752197e-01 6.918320655822753906e+00 1.933127880096435547e+00 1.478116214275360107e-01
3.303000000000000000e+03 6.911017608642578125e+01 2.756767654418945312e+01 -5.150615796446800232e-02 7.180685997009277344e+00 2.138753890991210938e+00 -6.230501085519790649e-02
3.304000000000000000e+03 1.625735473632812500e+01 2.855226325988769531e+01 2.724239230155944824e-01 -7.347428202629089355e-01 -1.386956721544265747e-01 3.259509503841400146e-01
3.305000000000000000e+03 1.440811729431152344e+01 2.774018859863281250e+01 2.179671823978424072e-01 -7.748814225196838379e-01 -1.670742779970169067e-01 3.920549452304840088e-01
3.306000000000000000e+03 6.821978759765625000e+01 7.438142776489257812e+00 -6.409047842025756836e-01 8.236218452453613281e+00 2.278594255447387695e+00 5.738661885261535645e-01
3.307000000000000000e+03 6.697691345214843750e+01 6.654671192169189453e+00 -7.388150095939636230e-01 8.404028892517089844e+00 2.299564123153686523e+00 4.556151628494262695e-01
3.308000000000000000e+03 2.353852272033691406e+01 2.576116180419921875e+01 2.473265230655670166e-01 -2.774225175380706787e-01 -9.028797969222068787e-03 1.538757681846618652e-01
3.309000000000000000e+03 1.841700172424316406e+01 2.664224052429199219e+01 2.411504685878753662e-01 -6.890112757682800293e-01 -1.343582421541213989e-01 2.767938971519470215e-01
3.310000000000000000e+03 1.838437652587890625e+01 2.852871513366699219e+01 3.041793406009674072e-01 -6.353205442428588867e-01 -9.934235364198684692e-02 2.541164755821228027e-01
3.311000000000000000e+03 2.583273315429687500e+01 2.180042648315429688e+01 6.487434357404708862e-02 -1.009622663259506226e-01 -1.082637626677751541e-02 1.777478456497192383e-01
3.312000000000000000e+03 2.485603523254394531e+01 1.928586578369140625e+01 -1.237100288271903992e-01 -2.499699443578720093e-01 -1.121039912104606628e-01 2.694342732429504395e-01
3.313000000000000000e+03 2.795109367370605469e+01 1.426529407501220703e+01 -2.469655871391296387e-01 -1.766929961740970612e-02 -7.939046621322631836e-02 4.427837729454040527e-01
3.314000000000000000e+03 6.209582138061523438e+01 -3.993202686309814453e+00 2.715367078781127930e+00 1.355234813690185547e+01 4.880314350128173828e+00 1.649230241775512695e+00
3.315000000000000000e+03 6.157784271240234375e+01 -3.804139614105224609e+00 1.983301043510437012e+00 1.435465717315673828e+01 4.901387691497802734e+00 1.308723449707031250e+00
3.316000000000000000e+03 6.009831237792968750e+01 -2.625785589218139648e+00 -4.149083495140075684e-01 1.339698028564453125e+01 3.894621610641479492e+00 -1.828278422355651855e+00
3.317000000000000000e+03 5.739252471923828125e+01 -2.067535161972045898e+00 5.589138865470886230e-01 6.684617042541503906e+00 2.173059463500976562e+00 -4.079574108123779297e+00
3.318000000000000000e+03 5.861132812500000000e+01 -1.937319517135620117e+00 -1.956113427877426147e-01 9.647569656372070312e+00 2.835587501525878906e+00 -3.701460838317871094e+00
3.319000000000000000e+03 6.299069976806640625e+01 -6.525820732116699219e+00 5.759649276733398438e+00 1.152544593811035156e+01 5.185528278350830078e+00 -1.956039816141128540e-01
3.320000000000000000e+03 5.684230804443359375e+01 -1.052627944946289062e+01 8.858207464218139648e-01 5.179734230041503906e+00 1.819666504859924316e+00 3.866193056106567383e+00
3.321000000000000000e+03 5.658343887329101562e+01 -9.843321800231933594e+00 1.248437643051147461e+00 4.130123615264892578e+00 1.613568305969238281e+00 3.777231931686401367e+00
3.322000000000000000e+03 5.892914962768554688e+01 -2.957277536392211914e+00 -7.976751774549484253e-02 1.156323337554931641e+01 3.445039510726928711e+00 -4.069771766662597656e+00
3.323000000000000000e+03 6.004215621948242188e+01 -1.050998306274414062e+01 -5.194160342216491699e-01 1.274314498901367188e+01 3.667118787765502930e+00 1.978138089179992676e+00
3.324000000000000000e+03 5.595069122314453125e+01 -1.326721668243408203e+00 6.573776602745056152e-01 4.121675968170166016e+00 1.433716177940368652e+00 -3.213287353515625000e+00
3.325000000000000000e+03 5.782205200195312500e+01 -2.678205490112304688e+00 6.571421623229980469e-01 7.665829181671142578e+00 2.496891260147094727e+00 -4.508181095123291016e+00
3.326000000000000000e+03 6.021993255615234375e+01 -2.957398891448974609e+00 -2.409529387950897217e-01 1.401951789855957031e+01 4.133569717407226562e+00 -1.507547020912170410e+00
3.327000000000000000e+03 6.329232406616210938e+01 -5.942974090576171875e+00 5.339044094085693359e+00 1.124328613281250000e+01 4.974699020385742188e+00 4.863643050193786621e-01
3.328000000000000000e+03 5.868651962280273438e+01 -1.029626083374023438e+01 -5.147609859704971313e-02 1.027772617340087891e+01 3.067875146865844727e+00 3.961179018020629883e+00
3.329000000000000000e+03 5.759481430053710938e+01 -1.079345130920410156e+01 4.458779096603393555e-01 7.158452510833740234e+00 2.281299114227294922e+00 4.035426139831542969e+00
3.330000000000000000e+03 5.546258926391601562e+01 -6.149329543113708496e-01 5.358022451400756836e-01 3.847868204116821289e+00 1.315101146697998047e+00 -2.908146619796752930e+00
3.331000000000000000e+03 5.360775375366210938e+01 2.280473470687866211e+00 2.845045328140258789e-01 3.198249578475952148e+00 1.044826269149780273e+00 -2.049690723419189453e+00
3.332000000000000000e+03 5.507768249511718750e+01 -1.279228115081787109e+01 4.685747325420379639e-01 3.634454488754272461e+00 1.230908751487731934e+00 2.669409990310668945e+00
3.333000000000000000e+03 5.872430038452148438e+01 -1.061622619628906250e+01 -1.399832963943481445e-01 1.007396602630615234e+01 2.980195045471191406e+00 3.763395786285400391e+00
3.334000000000000000e+03 5.464287948608398438e+01 6.463488191366195679e-02 4.526459872722625732e-01 3.241941928863525391e+00 1.108376383781433105e+00 -2.504127979278564453e+00
3.335000000000000000e+03 5.280015945434570312e+01 3.046977281570434570e+00 2.883829176425933838e-01 2.847840070724487305e+00 9.408668875694274902e-01 -1.801323056221008301e+00
3.336000000000000000e+03 3.553331375122070312e+01 5.134867668151855469e+00 -2.798021435737609863e-01 2.221192419528961182e-01 -1.730486936867237091e-02 5.517932772636413574e-01
3.337000000000000000e+03 3.399851226806640625e+01 2.783185482025146484e+00 -4.791874885559082031e-01 8.840522170066833496e-02 -1.172346770763397217e-01 6.344134807586669922e-01
3.338000000000000000e+03 4.225502777099609375e+01 4.351402282714843750e+00 -1.048674955964088440e-01 5.419439077377319336e-01 1.311229318380355835e-01 1.169828400015830994e-01
3.339000000000000000e+03 5.020563125610351562e+01 -1.712112998962402344e+01 3.356798291206359863e-01 1.988786697387695312e+00 6.973399519920349121e-01 1.225458860397338867e+00
3.340000000000000000e+03 4.148155212402343750e+01 5.642954349517822266e+00 -1.557535491883754730e-02 6.147598028182983398e-01 1.797553449869155884e-01 1.208978444337844849e-01
3.341000000000000000e+03 5.470561599731445312e+01 -1.309981632232666016e+01 4.418810307979583740e-01 3.418799638748168945e+00 1.158204197883605957e+00 2.519967317581176758e+00
3.342000000000000000e+03 5.246014404296875000e+01 -1.602159309387207031e+01 3.435114920139312744e-01 2.670478343963623047e+00 9.041969776153564453e-01 1.726759910583496094e+00
3.343000000000000000e+03 2.949992179870605469e+01 3.064379453659057617e+00 -4.282154142856597900e-01 -6.168027967214584351e-02 -1.469687074422836304e-01 6.947624683380126953e-01
3.344000000000000000e+03 6.953425598144531250e+01 -7.025294780731201172e+00 1.776462435722351074e+00 8.074338912963867188e+00 2.955240249633789062e+00 -1.973188668489456177e-01
3.345000000000000000e+03 6.902391052246093750e+01 -3.540785074234008789e+00 1.499450564384460449e+00 8.360974311828613281e+00 2.958127498626708984e+00 8.476166129112243652e-01
3.346000000000000000e+03 4.942005920410156250e+01 4.085474491119384766e+00 2.596253454685211182e-01 1.722466111183166504e+00 5.946274399757385254e-01 -9.999133944511413574e-01
3.347000000000000000e+03 4.829215621948242188e+01 2.392880916595458984e+00 8.241938799619674683e-02 1.060862064361572266e+00 3.429844379425048828e-01 -6.447629928588867188e-01
3.348000000000000000e+03 5.377394485473632812e+01 -1.509933757781982422e+01 3.269485533237457275e-01 3.325283527374267578e+00 1.095669627189636230e+00 2.116177558898925781e+00
3.349000000000000000e+03 5.265297317504882812e+01 -1.481768894195556641e+01 3.790919184684753418e-01 2.507941961288452148e+00 8.661102056503295898e-01 1.796933770179748535e+00
3.350000000000000000e+03 6.827630615234375000e+01 -1.620891761779785156e+01 -3.446482419967651367e-01 8.695106506347656250e+00 2.505137443542480469e+00 -9.806355237960815430e-01
3.351000000000000000e+03 6.837004089355468750e+01 -2.066224861145019531e+01 -6.386147141456604004e-01 8.223888397216796875e+00 2.275582313537597656e+00 -5.837137699127197266e-01
3.352000000000000000e+03 5.038405227661132812e+01 -1.785922241210937500e+01 3.547001481056213379e-01 2.163118362426757812e+00 7.553455233573913574e-01 1.254827618598937988e+00
3.353000000000000000e+03 5.096109390258789062e+01 -1.678495216369628906e+01 3.488935232162475586e-01 2.182756662368774414e+00 7.594950199127197266e-01 1.397107601165771484e+00
3.354000000000000000e+03 6.906193542480468750e+01 -8.109519958496093750e+00 1.759730577468872070e+00 8.251358032226562500e+00 3.003326654434204102e+00 -5.533664822578430176e-01
3.355000000000000000e+03 6.995116424560546875e+01 -9.540966033935546875e+00 1.224318504333496094e+00 8.121650695800781250e+00 2.803790807723999023e+00 -8.581889867782592773e-01
3.356000000000000000e+03 4.507991027832031250e+01 -1.661389732360839844e+01 5.394161865115165710e-02 6.744713783264160156e-01 2.185239046812057495e-01 2.792611122131347656e-01
3.357000000000000000e+03 4.940285491943359375e+01 -1.741648292541503906e+01 3.353829681873321533e-01 1.802010297775268555e+00 6.412179470062255859e-01 1.067682981491088867e+00
3.358000000000000000e+03 6.914390563964843750e+01 -1.235786247253417969e+01 5.649026036262512207e-01 8.575286865234375000e+00 2.742056846618652344e+00 -1.218771815299987793e+00
3.359000000000000000e+03 6.767288208007812500e+01 -1.357610416412353516e+01 1.614263206720352173e-01 9.032334327697753906e+00 2.758128166198730469e+00 -1.181399583816528320e+00
3.360000000000000000e+03 3.501919937133789062e+01 4.503272533416748047e+00 -3.324359655380249023e-01 1.782178431749343872e-01 -4.626543447375297546e-02 5.851632952690124512e-01
3.361000000000000000e+03 3.410997390747070312e+01 4.080234050750732422e+00 -3.835416138172149658e-01 1.275791823863983154e-01 -7.678872346878051758e-02 6.259855031967163086e-01
3.362000000000000000e+03 6.963407897949218750e+01 -3.089519023895263672e+00 1.275876522064208984e+00 8.216924667358398438e+00 2.847840547561645508e+00 8.869531154632568359e-01
3.363000000000000000e+03 5.102329254150390625e+01 4.187586784362792969e+00 2.782314121723175049e-01 2.292845964431762695e+00 7.713232040405273438e-01 -1.342767715454101562e+00
3.364000000000000000e+03 5.169873428344726562e+01 3.282708406448364258e+00 3.048836290836334229e-01 2.421720504760742188e+00 8.179812431335449219e-01 -1.558262705802917480e+00
3.365000000000000000e+03 6.843634796142578125e+01 3.768428087234497070e+00 -3.957695960998535156e-01 8.641123771667480469e+00 2.473606348037719727e+00 9.271620512008666992e-01
3.366000000000000000e+03 5.220415878295898438e+01 2.875761985778808594e+00 3.103715777397155762e-01 2.542583465576171875e+00 8.558865189552307129e-01 -1.688376188278198242e+00
3.367000000000000000e+03 6.916820526123046875e+01 -9.433191299438476562e+00 1.390452742576599121e+00 8.340449333190917969e+00 2.919270753860473633e+00 -8.958352804183959961e-01
3.368000000000000000e+03 6.928777313232421875e+01 -8.715177536010742188e+00 1.568383574485778809e+00 8.223581314086914062e+00 2.937589406967163086e+00 -7.059312462806701660e-01
3.369000000000000000e+03 3.153409385681152344e+01 2.882122278213500977e+00 -4.582185447216033936e-01 2.009325288236141205e-02 -1.314375847578048706e-01 6.782470345497131348e-01
3.370000000000000000e+03 6.890434265136718750e+01 -4.492647171020507812e+00 1.775430560111999512e+00 8.324211120605468750e+00 3.029892444610595703e+00 6.125375628471374512e-01
3.371000000000000000e+03 6.947011566162109375e+01 -6.343701839447021484e+00 1.819655895233154297e+00 8.094647407531738281e+00 2.974291086196899414e+00 1.484791282564401627e-03
3.372000000000000000e+03 2.981410598754882812e+01 -2.032086753845214844e+01 -6.472962349653244019e-02 3.863726183772087097e-02 -7.827708497643470764e-03 -4.565652906894683838e-01
3.373000000000000000e+03 6.875936889648437500e+01 3.071494698524475098e-01 3.457987010478973389e-01 8.726111412048339844e+00 2.721572875976562500e+00 1.212162733078002930e+00
3.374000000000000000e+03 6.737165832519531250e+01 -1.736988544464111328e+00 1.070984840393066406e+00 9.163723945617675781e+00 3.070412397384643555e+00 1.254609107971191406e+00
3.375000000000000000e+03 4.128688430786132812e+01 4.759693622589111328e+00 -1.059705466032028198e-01 5.023971199989318848e-01 1.189279705286026001e-01 1.806098669767379761e-01
3.376000000000000000e+03 4.123712921142578125e+01 3.392767190933227539e+00 -2.407202571630477905e-01 4.017095565795898438e-01 4.829679429531097412e-02 2.446770817041397095e-01
3.377000000000000000e+03 6.853454589843750000e+01 -1.531670284271240234e+01 -1.763293445110321045e-01 8.707616806030273438e+00 2.559386253356933594e+00 -1.080780029296875000e+00
3.378000000000000000e+03 6.859783935546875000e+01 1.394080877304077148e+00 3.065158426761627197e-02 8.750302314758300781e+00 2.634286165237426758e+00 1.140366673469543457e+00
3.379000000000000000e+03 4.593545150756835938e+01 3.630030870437622070e+00 4.565071314573287964e-02 8.590440750122070312e-01 2.714084386825561523e-01 -3.105336427688598633e-01
3.380000000000000000e+03 4.125444412231445312e+01 -1.887793159484863281e+01 1.227744519710540771e-01 5.061267018318176270e-01 1.886703521013259888e-01 7.692813524045050144e-04
3.381000000000000000e+03 3.569319534301757812e+01 -1.899406051635742188e+01 -5.750813335180282593e-02 1.908444315195083618e-01 4.000088945031166077e-02 -3.356306254863739014e-01
3.382000000000000000e+03 3.777604293823242188e+01 -1.748227310180664062e+01 -1.592279970645904541e-01 2.034064233303070068e-01 1.325352489948272705e-02 -2.776593863964080811e-01
3.383000000000000000e+03 3.711426544189453125e+01 -1.651480865478515625e+01 -3.189193904399871826e-01 1.350718289613723755e-01 -5.515426397323608398e-02 -3.424958884716033936e-01
3.384000000000000000e+03 6.316241073608398438e+01 -8.075982093811035156e+00 4.025175094604492188e+00 1.171419525146484375e+01 4.721811294555664062e+00 -1.464456439018249512e+00
3.385000000000000000e+03 6.877002716064453125e+01 -1.125894546508789062e+01 9.622104763984680176e-01 8.651203155517578125e+00 2.884024143218994141e+00 -1.198207616806030273e+00
3.386000000000000000e+03 2.981835937500000000e+01 8.515437126159667969e+00 -2.923381328582763672e-01 3.015486150979995728e-02 -7.865498214960098267e-02 6.400398612022399902e-01
3.387000000000000000e+03 6.807293701171875000e+01 -2.003574943542480469e+01 -6.399271488189697266e-01 8.316694259643554688e+00 2.303030252456665039e+00 -6.133165359497070312e-01
3.388000000000000000e+03 6.876443481445312500e+01 -1.979225540161132812e+01 -5.599036216735839844e-01 8.268780708312988281e+00 2.312663078308105469e+00 -7.089997529983520508e-01
3.389000000000000000e+03 3.250195312500000000e+01 -1.918856048583984375e+01 -1.122523471713066101e-01 8.895473927259445190e-02 -6.989283021539449692e-03 -4.334998130798339844e-01
3.390000000000000000e+03 6.669518280029296875e+01 5.879434585571289062e+00 -7.434103488922119141e-01 8.565497398376464844e+00 2.346626043319702148e+00 4.727514088153839111e-01
3.391000000000000000e+03 6.754804992675781250e+01 5.309776782989501953e+00 -6.251612901687622070e-01 8.583255767822265625e+00 2.387428283691406250e+00 6.736366152763366699e-01
3.392000000000000000e+03 3.047605705261230469e+01 5.341175079345703125e+00 -3.595924973487854004e-01 6.637721322476863861e-03 -1.058864369988441467e-01 6.915708780288696289e-01
3.393000000000000000e+03 3.061757659912109375e+01 1.100221157073974609e+01 -2.045680731534957886e-01 1.423710137605667114e-01 -1.865911483764648438e-02 5.277970433235168457e-01
3.394000000000000000e+03 2.983434104919433594e+01 1.205821228027343750e+01 -2.122180908918380737e-01 1.146965250372886658e-01 -2.925647050142288208e-02 5.011115670204162598e-01
3.395000000000000000e+03 3.923293685913085938e+01 3.958342552185058594e+00 -2.687862515449523926e-01 3.241430819034576416e-01 1.660704612731933594e-02 3.859742283821105957e-01
3.396000000000000000e+03 3.003005409240722656e+01 6.390193939208984375e+00 -3.369562327861785889e-01 -2.476186724379658699e-03 -1.018297299742698669e-01 6.863960027694702148e-01
3.397000000000000000e+03 4.650030517578125000e+01 4.284532546997070312e+00 1.338041126728057861e-01 1.049936294555664062e+00 3.551221191883087158e-01 -4.463814795017242432e-01
3.398000000000000000e+03 4.526186370849609375e+01 4.109339237213134766e+00 5.055769905447959900e-02 8.289802074432373047e-01 2.638613581657409668e-01 -2.376351356506347656e-01
3.399000000000000000e+03 3.048234748840332031e+01 2.993845939636230469e+00 -4.420011937618255615e-01 -2.144850231707096100e-02 -1.390349119901657104e-01 6.926249265670776367e-01
3.400000000000000000e+03 3.452279663085937500e+01 -1.983127784729003906e+01 -5.924155935645103455e-03 1.795748323202133179e-01 5.209520086646080017e-02 -3.597186505794525146e-01
3.401000000000000000e+03 4.654243850708007812e+01 -1.696536445617675781e+01 1.941569000482559204e-01 1.025183081626892090e+00 3.658019900321960449e-01 5.323196649551391602e-01
3.402000000000000000e+03 2.518243217468261719e+01 -2.063904762268066406e+01 -1.292342692613601685e-01 -4.674579203128814697e-02 -5.279402062296867371e-02 -4.611497223377227783e-01
3.403000000000000000e+03 2.896689414978027344e+01 1.318416690826416016e+01 -2.300108820199966431e-01 5.973729491233825684e-02 -5.108207836747169495e-02 4.717471897602081299e-01
3.404000000000000000e+03 2.926460838317871094e+01 1.561605072021484375e+01 -1.292155981063842773e-01 1.396535038948059082e-01 3.131371457129716873e-03 3.483462631702423096e-01
3.405000000000000000e+03 4.016235733032226562e+01 -1.833091926574707031e+01 3.095167316496372223e-02 3.907777369022369385e-01 1.265188306570053101e-01 -1.064123362302780151e-01
3.406000000000000000e+03 3.951001358032226562e+01 -1.926135444641113281e+01 9.550074487924575806e-02 4.040987193584442139e-01 1.498798429965972900e-01 -1.120615676045417786e-01
3.407000000000000000e+03 6.568636322021484375e+01 -2.025095558166503906e+01 -8.006433248519897461e-01 8.249758720397949219e+00 2.234734535217285156e+00 -2.119335532188415527e-01
3.408000000000000000e+03 6.789506530761718750e+01 -2.122417068481445312e+01 -6.515083909034729004e-01 8.125955581665039062e+00 2.242334127426147461e+00 -4.814974069595336914e-01
3.409000000000000000e+03 2.928865814208984375e+01 -1.871310424804687500e+01 -2.086865305900573730e-01 1.640081778168678284e-02 -5.768571421504020691e-02 -4.880818724632263184e-01
3.410000000000000000e+03 3.123097229003906250e+01 1.298232078552246094e+01 -1.325422823429107666e-01 2.431026995182037354e-01 3.316812589764595032e-02 4.241295754909515381e-01
3.411000000000000000e+03 3.190427207946777344e+01 1.526755619049072266e+01 -3.017829172313213348e-02 3.694255352020263672e-01 1.017741709947586060e-01 3.069546818733215332e-01
3.412000000000000000e+03 6.596939086914062500e+01 1.961194229125976562e+01 -3.097649216651916504e-01 6.918908119201660156e+00 1.982743024826049805e+00 -9.341080486774444580e-02
3.413000000000000000e+03 6.314765930175781250e+01 1.758806610107421875e+01 -4.005264639854431152e-01 6.529743194580078125e+00 1.838765025138854980e+00 -2.819109261035919189e-01
3.414000000000000000e+03 2.803075981140136719e+01 -1.914719009399414062e+01 -1.922722160816192627e-01 -3.579112933948636055e-03 -5.875539779663085938e-02 -4.874067306518554688e-01
3.415000000000000000e+03 2.834274101257324219e+01 1.839285278320312500e+01 -4.548540338873863220e-02 9.833693504333496094e-02 1.585545949637889862e-02 2.533919215202331543e-01
3.416000000000000000e+03 2.676384735107421875e+01 1.843570137023925781e+01 -1.032678782939910889e-01 -6.957707554101943970e-02 -5.185348540544509888e-02 2.714272737503051758e-01
3.417000000000000000e+03 2.405627632141113281e+01 2.084647560119628906e+01 -4.254608601331710815e-02 -3.163940012454986572e-01 -1.076820269227027893e-01 2.389669865369796753e-01
3.418000000000000000e+03 6.344244766235351562e+01 -2.965653800964355469e+01 -4.003058075904846191e-01 6.675927162170410156e+00 1.882686495780944824e+00 1.987478882074356079e-01
3.419000000000000000e+03 6.330624389648437500e+01 -6.731414794921875000e+00 5.331792831420898438e+00 1.119416236877441406e+01 4.957786560058593750e+00 -3.855696320533752441e-01
3.420000000000000000e+03 6.736029052734375000e+01 -4.654213905334472656e+00 2.310741662979125977e+00 8.840143203735351562e+00 3.345265388488769531e+00 6.903410553932189941e-01
3.421000000000000000e+03 5.827505874633789062e+01 -2.045332908630371094e+00 4.382641986012458801e-02 8.876505851745605469e+00 2.676099777221679688e+00 -3.959978342056274414e+00
3.422000000000000000e+03 5.761513519287109375e+01 -2.415713071823120117e+00 6.204132437705993652e-01 7.143705368041992188e+00 2.329235553741455078e+00 -4.291792392730712891e+00
3.423000000000000000e+03 5.719861984252929688e+01 -1.068855857849121094e+01 7.039654850959777832e-01 6.236874103546142578e+00 2.082252025604248047e+00 4.052705287933349609e+00
3.424000000000000000e+03 6.299412536621093750e+01 -7.588787555694580078e+00 4.903130531311035156e+00 1.180863666534423828e+01 5.013530254364013672e+00 -1.304726958274841309e+00
3.425000000000000000e+03 5.871374511718750000e+01 -2.323283195495605469e+00 -1.349500715732574463e-01 1.031157875061035156e+01 3.052988767623901367e+00 -3.864275693893432617e+00
3.426000000000000000e+03 6.078847122192382812e+01 -9.609696388244628906e+00 3.470935821533203125e-01 1.456594657897949219e+01 4.473911762237548828e+00 2.299525439739227295e-01
3.427000000000000000e+03 5.906620025634765625e+01 -1.099429798126220703e+01 -4.258319735527038574e-01 1.048126316070556641e+01 3.016629457473754883e+00 3.207019805908203125e+00
3.428000000000000000e+03 6.184149932861328125e+01 -3.907711267471313477e+00 2.447713613510131836e+00 1.398062610626220703e+01 4.928502082824707031e+00 1.554680824279785156e+00
3.429000000000000000e+03 6.144314193725585938e+01 -3.372746944427490234e+00 1.128372192382812500e+00 1.422143363952636719e+01 4.604941844940185547e+00 7.835491895675659180e-01
3.430000000000000000e+03 5.808102798461914062e+01 -2.534124851226806641e+00 3.744279146194458008e-01 8.559221267700195312e+00 2.680094957351684570e+00 -4.369093418121337891e+00
3.431000000000000000e+03 5.716632461547851562e+01 -1.657230973243713379e+00 4.801624417304992676e-01 6.179001331329345703e+00 1.997749090194702148e+00 -3.869225978851318359e+00
3.432000000000000000e+03 5.746044158935546875e+01 -1.012911891937255859e+01 8.830667138099670410e-01 6.531029701232910156e+00 2.224228858947753906e+00 4.364562034606933594e+00
3.433000000000000000e+03 5.621326446533203125e+01 -1.731111645698547363e+00 7.446547150611877441e-01 4.318328380584716797e+00 1.518894910812377930e+00 -3.432311773300170898e+00
3.434000000000000000e+03 5.973512649536132812e+01 -2.301914453506469727e+00 -5.464907288551330566e-01 1.238310146331787109e+01 3.550983190536499023e+00 -2.507136344909667969e+00
3.435000000000000000e+03 5.577803802490234375e+01 -1.244936370849609375e+01 4.660388827323913574e-01 4.362138271331787109e+00 1.448453187942504883e+00 3.006956100463867188e+00
3.436000000000000000e+03 6.268228912353515625e+01 -3.811683893203735352e+00 2.687415599822998047e+00 1.258871078491210938e+01 4.582838058471679688e+00 1.658381938934326172e+00
3.437000000000000000e+03 5.667911911010742188e+01 -1.097461414337158203e+01 7.499124407768249512e-01 5.121594905853271484e+00 1.761452198028564453e+00 3.709107398986816406e+00
3.438000000000000000e+03 6.101939392089843750e+01 -2.939193487167358398e+00 2.606421709060668945e-01 1.411168956756591797e+01 4.311699390411376953e+00 -9.122723340988159180e-02
3.439000000000000000e+03 6.223034667968750000e+01 -3.747567892074584961e+00 2.351794719696044922e+00 1.325389194488525391e+01 4.681705951690673828e+00 1.544154405593872070e+00
3.440000000000000000e+03 5.603834533691406250e+01 -6.911081671714782715e-01 4.737663269042968750e-01 4.564299583435058594e+00 1.511419773101806641e+00 -3.181515216827392578e+00
3.441000000000000000e+03 5.571947097778320312e+01 -9.335854649543762207e-01 5.796195864677429199e-01 3.979454755783081055e+00 1.367722272872924805e+00 -3.067611932754516602e+00
3.442000000000000000e+03 6.214733505249023438e+01 -9.528711318969726562e+00 1.493444442749023438e+00 1.317117214202880859e+01 4.399384975433349609e+00 -1.215243577957153320e+00
3.443000000000000000e+03 6.732554626464843750e+01 -1.285090732574462891e+01 3.679425418376922607e-01 9.183850288391113281e+00 2.865537881851196289e+00 -1.211042523384094238e+00
3.444000000000000000e+03 5.507493972778320312e+01 -3.379868268966674805e-01 5.125788450241088867e-01 3.547392606735229492e+00 1.217991471290588379e+00 -2.746020555496215820e+00
3.445000000000000000e+03 5.352367782592773438e+01 3.095983982086181641e+00 2.306182980537414551e-01 3.369138717651367188e+00 1.079927086830139160e+00 -1.958811759948730469e+00
3.446000000000000000e+03 5.436019897460937500e+01 6.953294277191162109e-01 3.960171937942504883e-01 3.214459896087646484e+00 1.083143115043640137e+00 -2.382039308547973633e+00
3.447000000000000000e+03 5.653684234619140625e+01 -1.147331142425537109e+01 5.816223621368408203e-01 5.107152938842773438e+00 1.706632614135742188e+00 3.514082431793212891e+00
3.448000000000000000e+03 5.305723571777343750e+01 -1.416571426391601562e+01 4.029546380043029785e-01 2.531850099563598633e+00 8.804414272308349609e-01 1.926531195640563965e+00
3.449000000000000000e+03 6.806157684326171875e+01 -1.442901325225830078e+01 -3.268056362867355347e-02 8.894611358642578125e+00 2.658579349517822266e+00 -1.128479361534118652e+00
3.450000000000000000e+03 6.743904876708984375e+01 -1.582769680023193359e+01 -3.759982883930206299e-01 8.900072097778320312e+00 2.557222127914428711e+00 -9.164645075798034668e-01
3.451000000000000000e+03 5.435845184326171875e+01 -1.478359413146972656e+01 3.029295206069946289e-01 3.673621654510498047e+00 1.192965388298034668e+00 2.304341316223144531e+00
3.452000000000000000e+03 5.466108703613281250e+01 -1.430089569091796875e+01 3.266417086124420166e-01 3.802395343780517578e+00 1.238711118698120117e+00 2.431832313537597656e+00
3.453000000000000000e+03 6.861911010742187500e+01 -7.672668457031250000e+00 2.014310598373413086e+00 8.383111953735351562e+00 3.119226694107055664e+00 -4.406682550907135010e-01
3.454000000000000000e+03 5.026105117797851562e+01 -1.862630081176757812e+01 3.355563282966613770e-01 2.243941307067871094e+00 7.738493084907531738e-01 1.222790598869323730e+00
3.455000000000000000e+03 5.206578445434570312e+01 -1.739120674133300781e+01 3.050240278244018555e-01 2.766072273254394531e+00 9.213289022445678711e-01 1.580063700675964355e+00
3.456000000000000000e+03 6.941956329345703125e+01 -5.664662361145019531e+00 1.809172630310058594e+00 8.116198539733886719e+00 2.977611541748046875e+00 2.317101508378982544e-01
3.457000000000000000e+03 6.876194763183593750e+01 -6.287658214569091797e+00 2.046658515930175781e+00 8.287892341613769531e+00 3.100365161895751953e+00 2.700535580515861511e-02
3.458000000000000000e+03 3.634155273437500000e+01 4.897607326507568359e+00 -2.747247219085693359e-01 2.455723434686660767e-01 -8.745710365474224091e-03 5.206056833267211914e-01
3.459000000000000000e+03 3.319708251953125000e+01 3.439864873886108398e+00 -4.302920997142791748e-01 8.034794032573699951e-02 -1.049832478165626526e-01 6.533426642417907715e-01
3.460000000000000000e+03 5.407563781738281250e+01 -1.584588432312011719e+01 2.318302690982818604e-01 3.709324121475219727e+00 1.182346343994140625e+00 2.100673913955688477e+00
3.461000000000000000e+03 5.213705062866210938e+01 -1.534013652801513672e+01 3.656499683856964111e-01 2.379847526550292969e+00 8.236492872238159180e-01 1.660613775253295898e+00
3.462000000000000000e+03 5.506906509399414062e+01 2.935790419578552246e-01 3.819670975208282471e-01 3.809973001480102539e+00 1.257582068443298340e+00 -2.657639026641845703e+00
3.463000000000000000e+03 5.338768005371093750e+01 3.879797697067260742e+00 1.931304484605789185e-01 3.390198945999145508e+00 1.074998855590820312e+00 -1.884890079498291016e+00
3.464000000000000000e+03 6.922923278808593750e+01 -5.048475265502929688e+00 1.786753177642822266e+00 8.198426246643066406e+00 2.995553731918334961e+00 4.395863115787506104e-01
3.465000000000000000e+03 3.149881744384765625e+01 3.730136632919311523e+00 -4.172058999538421631e-01 3.013069741427898407e-02 -1.161225587129592896e-01 6.829653978347778320e-01
3.466000000000000000e+03 6.753814697265625000e+01 -3.202454805374145508e+00 1.699514865875244141e+00 8.946472167968750000e+00 3.193796157836914062e+00 1.079567313194274902e+00
3.467000000000000000e+03 4.854109573364257812e+01 3.496294021606445312e+00 2.035188972949981689e-01 1.340994358062744141e+00 4.633539617061614990e-01 -7.892715930938720703e-01
3.468000000000000000e+03 4.886100387573242188e+01 2.756024360656738281e+00 1.683983206748962402e-01 1.280580163002014160e+00 4.346935451030731201e-01 -8.141565918922424316e-01
3.469000000000000000e+03 5.119762802124023438e+01 -1.773470687866210938e+01 3.302852809429168701e-01 2.467669010162353516e+00 8.393863439559936523e-01 1.422219038009643555e+00
3.470000000000000000e+03 6.909316253662109375e+01 -9.368512630462646484e-01 6.950306892395019531e-01 8.553397178649902344e+00 2.774528503417968750e+00 1.188905358314514160e+00
3.471000000000000000e+03 6.848305511474609375e+01 -2.978957891464233398e+00 1.440340995788574219e+00 8.594283103942871094e+00 3.010387182235717773e+00 1.016640543937683105e+00
3.472000000000000000e+03 5.422203826904296875e+01 -1.370337677001953125e+01 3.858213722705841064e-01 3.174693107604980469e+00 1.068154335021972656e+00 2.284608125686645508e+00
3.473000000000000000e+03 5.310526275634765625e+01 -1.549161338806152344e+01 3.466535508632659912e-01 2.941110849380493164e+00 9.863293170928955078e-01 1.894426465034484863e+00
3.474000000000000000e+03 6.773306274414062500e+01 -1.713277816772460938e+01 -5.043504834175109863e-01 8.672077178955078125e+00 2.450318098068237305e+00 -8.279882073402404785e-01
3.475000000000000000e+03 6.694171905517578125e+01 -1.658858871459960938e+01 -5.297597050666809082e-01 8.883299827575683594e+00 2.506062030792236328e+00 -7.693414092063903809e-01
3.476000000000000000e+03 6.846787261962890625e+01 -1.185576534271240234e+01 7.008759379386901855e-01 8.794334411621093750e+00 2.848563194274902344e+00 -1.230354785919189453e+00
3.477000000000000000e+03 3.765299224853515625e+01 3.900508642196655273e+00 -3.271566331386566162e-01 2.543856203556060791e-01 -2.183130197227001190e-02 4.825033247470855713e-01
3.478000000000000000e+03 3.680550384521484375e+01 3.429830551147460938e+00 -4.016670584678649902e-01 1.905176490545272827e-01 -6.334482878446578979e-02 5.381567478179931641e-01
3.479000000000000000e+03 3.660730361938476562e+01 -2.020068740844726562e+01 8.463727682828903198e-02 2.931965589523315430e-01 1.133501529693603516e-01 -2.555857002735137939e-01
3.480000000000000000e+03 3.867795944213867188e+01 -2.028625488281250000e+01 1.577859222888946533e-01 4.149674475193023682e-01 1.718260049819946289e-01 -1.338362097740173340e-01
3.481000000000000000e+03 6.283034515380859375e+01 -9.468497276306152344e+00 1.982143282890319824e+00 1.232200527191162109e+01 4.291244506835937500e+00 -1.493890762329101562e+00
3.482000000000000000e+03 4.058824539184570312e+01 5.430810451507568359e+00 -7.100292295217514038e-02 5.367401838302612305e-01 1.397211700677871704e-01 2.169717997312545776e-01
3.483000000000000000e+03 6.851902770996093750e+01 -6.848334312438964844e+00 2.140094757080078125e+00 8.369383811950683594e+00 3.152843475341796875e+00 -1.760776340961456299e-01
3.484000000000000000e+03 5.185546875000000000e+01 3.956882715225219727e+00 2.793336808681488037e-01 2.606892585754394531e+00 8.658678531646728516e-01 -1.578230857849121094e+00
3.485000000000000000e+03 6.826578521728515625e+01 -8.044805526733398438e+00 2.006665945053100586e+00 8.536735534667968750e+00 3.163020372390747070e+00 -5.885570049285888672e-01
3.486000000000000000e+03 6.819261932373046875e+01 -9.391179084777832031e+00 1.655572772026062012e+00 8.685850143432617188e+00 3.102426767349243164e+00 -9.796078205108642578e-01
3.487000000000000000e+03 6.907842254638671875e+01 -2.469615697860717773e+00 1.193200707435607910e+00 8.455237388610839844e+00 2.894531250000000000e+00 1.043832182884216309e+00
3.488000000000000000e+03 6.929201507568359375e+01 -1.482757925987243652e+00 8.630374073982238770e-01 8.447272300720214844e+00 2.793092966079711914e+00 1.144294857978820801e+00
3.489000000000000000e+03 6.847348785400390625e+01 -3.982724428176879883e+00 1.771126031875610352e+00 8.509636878967285156e+00 3.084228992462158203e+00 7.945048213005065918e-01
3.490000000000000000e+03 4.286159515380859375e+01 -1.810679244995117188e+01 1.122357696294784546e-01 6.134157180786132812e-01 2.176954448223114014e-01 1.102114394307136536e-01
3.491000000000000000e+03 4.413424301147460938e+01 -1.990298080444335938e+01 3.171968758106231689e-01 9.729599952697753906e-01 3.870470523834228516e-01 3.274523317813873291e-01
3.492000000000000000e+03 6.772055053710937500e+01 -1.241161441802978516e+01 5.521581172943115234e-01 9.069001197814941406e+00 2.886347770690917969e+00 -1.268131971359252930e+00
3.493000000000000000e+03 6.818557739257812500e+01 8.635756373405456543e-01 1.518819034099578857e-01 8.901249885559082031e+00 2.715939521789550781e+00 1.169460773468017578e+00
3.494000000000000000e+03 6.837493896484375000e+01 -2.969326376914978027e-01 5.079787969589233398e-01 8.859704017639160156e+00 2.810304641723632812e+00 1.224054932594299316e+00
3.495000000000000000e+03 2.951073265075683594e+01 3.973866462707519531e+00 -4.005014300346374512e-01 -5.496413260698318481e-02 -1.366396695375442505e-01 7.061300277709960938e-01
3.496000000000000000e+03 4.718239212036132812e+01 3.572121381759643555e+00 1.257188618183135986e-01 1.060264348983764648e+00 3.557949960231781006e-01 -5.231367349624633789e-01
3.497000000000000000e+03 3.032938385009765625e+01 9.346096992492675781e+00 -2.536989748477935791e-01 7.788676023483276367e-02 -5.274366587400436401e-02 6.003051400184631348e-01
3.498000000000000000e+03 6.864857482910156250e+01 -1.457198047637939453e+01 -2.111538872122764587e-02 8.713321685791015625e+00 2.607661724090576172e+00 -1.138851642608642578e+00
3.499000000000000000e+03 6.851145172119140625e+01 -1.398351097106933594e+01 1.174449548125267029e-01 8.782341003417968750e+00 2.669935941696166992e+00 -1.180001497268676758e+00
3.500000000000000000e+03 3.990713500976562500e+01 4.680782318115234375e+00 -1.686227172613143921e-01 4.276178181171417236e-01 7.769853621721267700e-02 3.079395890235900879e-01
3.501000000000000000e+03 6.570185089111328125e+01 7.663785934448242188e+00 -8.271678686141967773e-01 8.215520858764648438e+00 2.216506004333496094e+00 1.557020843029022217e-01
3.502000000000000000e+03 6.654782104492187500e+01 3.151373624801635742e+00 -5.229470729827880859e-01 9.086821556091308594e+00 2.569162368774414062e+00 7.596317529678344727e-01
3.503000000000000000e+03 6.619982147216796875e+01 3.934892177581787109e+00 -6.557892560958862305e-01 8.956449508666992188e+00 2.490198135375976562e+00 5.926421880722045898e-01
3.504000000000000000e+03 6.771456909179687500e+01 2.458555936813354492e+00 -2.437292635440826416e-01 8.894556045532226562e+00 2.595247983932495117e+00 1.002006411552429199e+00
3.505000000000000000e+03 3.856162643432617188e+01 -1.839983558654785156e+01 -3.586959838867187500e-02 2.887368500232696533e-01 7.586017251014709473e-02 -2.091233581304550171e-01
3.506000000000000000e+03 4.067699050903320312e+01 -2.005215072631835938e+01 2.118035852909088135e-01 5.563110113143920898e-01 2.304343879222869873e-01 -2.789098536595702171e-03
3.507000000000000000e+03 3.101016044616699219e+01 7.666710376739501953e+00 -2.760715782642364502e-01 8.960951119661331177e-02 -5.593862384557723999e-02 6.329413652420043945e-01
3.508000000000000000e+03 4.251822662353515625e+01 5.338275432586669922e+00 1.464929617941379547e-02 6.926478147506713867e-01 2.121891379356384277e-01 2.322879619896411896e-02
3.509000000000000000e+03 4.441102218627929688e+01 4.519376277923583984e+00 3.230058401823043823e-02 7.798698544502258301e-01 2.436511367559432983e-01 -1.475814282894134521e-01
3.510000000000000000e+03 6.442004394531250000e+01 1.676501655578613281e+01 -4.527297317981719971e-01 6.844179630279541016e+00 1.917434930801391602e+00 -1.891241371631622314e-01
3.511000000000000000e+03 3.191044998168945312e+01 1.176368236541748047e+01 -1.251989901065826416e-01 2.665860950946807861e-01 4.241612553596496582e-02 4.571212232112884521e-01
3.512000000000000000e+03 6.603985595703125000e+01 -2.463393020629882812e+01 -6.381056904792785645e-01 7.586303710937500000e+00 2.084459304809570312e+00 -8.464884757995605469e-02
3.513000000000000000e+03 6.725506591796875000e+01 -2.055751609802246094e+01 -6.905850172042846680e-01 8.229693412780761719e+00 2.261732578277587891e+00 -4.611762762069702148e-01
3.514000000000000000e+03 3.705879211425781250e+01 4.555368423461914062e+00 -2.768339812755584717e-01 2.627240419387817383e-01 -4.232986364513635635e-03 4.951815009117126465e-01
3.515000000000000000e+03 4.743103790283203125e+01 -1.765276718139648438e+01 2.906139194965362549e-01 1.303318023681640625e+00 4.781796038150787354e-01 7.156712412834167480e-01
3.516000000000000000e+03 4.165719604492187500e+01 6.659254074096679688e+00 6.345127522945404053e-02 7.369449734687805176e-01 2.401188760995864868e-01 5.403045937418937683e-02
3.517000000000000000e+03 2.682933235168457031e+01 -1.931203269958496094e+01 -1.872855424880981445e-01 -1.555692590773105621e-02 -6.085273995995521545e-02 -4.833794534206390381e-01
3.518000000000000000e+03 3.118457794189453125e+01 -1.981899833679199219e+01 -8.454959094524383545e-02 6.603997945785522461e-02 -5.552881862968206406e-03 -4.491336643695831299e-01
3.519000000000000000e+03 6.563224029541015625e+01 9.028186798095703125e+00 -8.072484731674194336e-01 7.990097999572753906e+00 2.154854774475097656e+00 7.590375095605850220e-02
3.520000000000000000e+03 6.462328338623046875e+01 7.076776981353759766e+00 -8.785315155982971191e-01 8.231324195861816406e+00 2.205837726593017578e+00 -1.615508459508419037e-02
3.521000000000000000e+03 6.713935089111328125e+01 8.819312095642089844e+00 -7.105173468589782715e-01 8.079674720764160156e+00 2.210747241973876953e+00 3.438601791858673096e-01
3.522000000000000000e+03 4.664463806152343750e+01 -1.903508567810058594e+01 3.344126939773559570e-01 1.323043823242187500e+00 4.972369670867919922e-01 6.277992725372314453e-01
3.523000000000000000e+03 6.492523956298828125e+01 1.455066394805908203e+01 -5.526106357574462891e-01 7.127636909484863281e+00 1.972507953643798828e+00 -1.330171078443527222e-01
3.524000000000000000e+03 6.393695068359375000e+01 6.110290527343750000e+00 -9.375870227813720703e-01 8.390943527221679688e+00 2.236006975173950195e+00 -1.772555410861968994e-01
3.525000000000000000e+03 4.258226776123046875e+01 -1.941690826416015625e+01 2.215044051408767700e-01 6.828229427337646484e-01 2.712981998920440674e-01 1.364789754152297974e-01
3.526000000000000000e+03 2.899341583251953125e+01 5.948809146881103516e+00 -3.585036695003509521e-01 -6.522142887115478516e-02 -1.271175295114517212e-01 7.081324458122253418e-01
3.527000000000000000e+03 2.711665725708007812e+01 -2.275039482116699219e+01 4.622890427708625793e-02 -8.332538418471813202e-03 1.136890985071659088e-02 -4.232269525527954102e-01
3.528000000000000000e+03 2.531763839721679688e+01 -2.268322563171386719e+01 5.956271197646856308e-03 -5.448495596647262573e-02 -1.455860584974288940e-02 -4.235430061817169189e-01
3.529000000000000000e+03 6.669196319580078125e+01 -2.265709114074707031e+01 -6.908400058746337891e-01 7.928769111633300781e+00 2.171378612518310547e+00 -2.590715289115905762e-01
3.530000000000000000e+03 6.616954040527343750e+01 -2.137310028076171875e+01 -7.538095116615295410e-01 8.081753730773925781e+00 2.198383092880249023e+00 -2.428259104490280151e-01
3.531000000000000000e+03 6.515470123291015625e+01 1.818085479736328125e+01 -3.749006986618041992e-01 6.855132102966308594e+00 1.944069504737854004e+00 -1.376665681600570679e-01
3.532000000000000000e+03 6.696138000488281250e+01 2.097504806518554688e+01 -2.507525086402893066e-01 7.009881496429443359e+00 2.027738809585571289e+00 -6.846228986978530884e-02
3.533000000000000000e+03 3.284602355957031250e+01 1.377756309509277344e+01 -3.581392019987106323e-02 4.106972515583038330e-01 1.124650016427040100e-01 3.390028178691864014e-01
3.534000000000000000e+03 3.035366439819335938e+01 1.426776885986328125e+01 -1.239558234810829163e-01 2.111597061157226562e-01 2.616116404533386230e-02 3.891757726669311523e-01
3.535000000000000000e+03 5.813941955566406250e+01 -1.621528029441833496e+00 -2.653151191771030426e-02 8.409874916076660156e+00 2.515002965927124023e+00 -3.793395280838012695e+00
3.536000000000000000e+03 5.630091476440429688e+01 -1.112180590629577637e+00 5.434631109237670898e-01 4.797895908355712891e+00 1.602407693862915039e+00 -3.364590883255004883e+00
3.537000000000000000e+03 5.776578903198242188e+01 -1.803098678588867188e+00 2.392031997442245483e-01 7.626082420349121094e+00 2.359585762023925781e+00 -3.972469329833984375e+00
3.538000000000000000e+03 5.814619064331054688e+01 -1.054849147796630859e+01 2.113629877567291260e-01 8.623724937438964844e+00 2.650526285171508789e+00 4.120113849639892578e+00
3.539000000000000000e+03 6.200339126586914062e+01 -3.602733612060546875e+00 1.945851087570190430e+00 1.356706333160400391e+01 4.653874397277832031e+00 1.379655480384826660e+00
3.540000000000000000e+03 5.981783294677734375e+01 -1.101223468780517578e+01 -6.330423355102539062e-01 1.169311237335205078e+01 3.318021059036254883e+00 2.305711746215820312e+00
3.541000000000000000e+03 6.089019393920898438e+01 -2.690521717071533203e+00 -4.810566082596778870e-02 1.379826641082763672e+01 4.125048160552978516e+00 -4.711732864379882812e-01
3.542000000000000000e+03 6.804296875000000000e+01 -3.498243808746337891e+00 1.738667845726013184e+00 8.711342811584472656e+00 3.135003089904785156e+00 9.592625498771667480e-01
3.543000000000000000e+03 6.332013320922851562e+01 -7.283953666687011719e+00 4.958291530609130859e+00 1.128849029541015625e+01 4.874034404754638672e+00 -9.287448525428771973e-01
3.544000000000000000e+03 6.652608489990234375e+01 -1.342568492889404297e+01 8.828879147768020630e-02 9.436672210693359375e+00 2.857488393783569336e+00 -1.106218576431274414e+00
3.545000000000000000e+03 6.112860870361328125e+01 -9.627813339233398438e+00 5.829913020133972168e-01 1.425437641143798828e+01 4.451210021972656250e+00 -2.260687202215194702e-01
3.546000000000000000e+03 6.283416366577148438e+01 -4.510169029235839844e+00 3.844448328018188477e+00 1.222031593322753906e+01 4.819429397583007812e+00 1.659124374389648438e+00
3.547000000000000000e+03 5.943313980102539062e+01 -1.103748130798339844e+01 -5.698480010032653809e-01 1.112925910949707031e+01 3.167823314666748047e+00 2.798688888549804688e+00
3.548000000000000000e+03 5.774810028076171875e+01 -1.038458633422851562e+01 5.640426278114318848e-01 7.500554084777832031e+00 2.419378995895385742e+00 4.327391624450683594e+00
3.549000000000000000e+03 5.663267898559570312e+01 -8.703679442405700684e-01 3.876326978206634521e-01 5.408552646636962891e+00 1.738855719566345215e+00 -3.415957450866699219e+00
3.550000000000000000e+03 6.252681732177734375e+01 -9.578788757324218750e+00 1.664339780807495117e+00 1.274671745300292969e+01 4.323317527770996094e+00 -1.379547476768493652e+00
3.551000000000000000e+03 5.983979797363281250e+01 -1.903476119041442871e+00 -6.313224434852600098e-01 1.187362766265869141e+01 3.372691631317138672e+00 -2.310222625732421875e+00
3.552000000000000000e+03 6.119111633300781250e+01 -3.187953948974609375e+00 6.785408854484558105e-01 1.431252479553222656e+01 4.497319698333740234e+00 3.841641247272491455e-01
3.553000000000000000e+03 6.071974182128906250e+01 -9.979511260986328125e+00 -3.319801762700080872e-02 1.394897079467773438e+01 4.174731731414794922e+00 6.440334916114807129e-01
3.554000000000000000e+03 5.641425704956054688e+01 -1.202383232116699219e+01 4.445302188396453857e-01 5.129609107971191406e+00 1.672241806983947754e+00 3.320147991180419922e+00
3.555000000000000000e+03 5.794056320190429688e+01 -2.192735195159912109e+00 3.138568699359893799e-01 8.120859146118164062e+00 2.530414819717407227e+00 -4.195118427276611328e+00
3.556000000000000000e+03 6.505941772460937500e+01 -1.173079681396484375e+01 6.129190921783447266e-01 1.028147029876708984e+01 3.268316745758056641e+00 -1.213322877883911133e+00
3.557000000000000000e+03 6.178537750244140625e+01 -9.511981964111328125e+00 1.286441922187805176e+00 1.366424083709716797e+01 4.485204696655273438e+00 -1.024156808853149414e+00
3.558000000000000000e+03 5.691336441040039062e+01 -1.251186370849609375e+00 4.320593476295471191e-01 5.783449649810791016e+00 1.864652752876281738e+00 -3.642891645431518555e+00
3.559000000000000000e+03 6.253155136108398438e+01 -9.194965362548828125e+00 2.298689365386962891e+00 1.283373737335205078e+01 4.539728164672851562e+00 -1.568666815757751465e+00
3.560000000000000000e+03 5.789308547973632812e+01 -1.136733531951904297e+01 8.634170144796371460e-02 7.786884307861328125e+00 2.361967802047729492e+00 3.736472845077514648e+00
3.561000000000000000e+03 5.708557891845703125e+01 -1.113305187225341797e+01 5.305929183959960938e-01 6.096774101257324219e+00 1.988210082054138184e+00 3.819284439086914062e+00
3.562000000000000000e+03 5.532759475708007812e+01 -4.733629897236824036e-02 3.958204090595245361e-01 3.911982059478759766e+00 1.292340755462646484e+00 -2.773334026336669922e+00
3.563000000000000000e+03 5.533408737182617188e+01 -9.417070150375366211e-01 6.167585849761962891e-01 3.535590887069702148e+00 1.245704889297485352e+00 -2.891699075698852539e+00
3.564000000000000000e+03 5.570629501342773438e+01 -3.203604817390441895e-01 4.346675276756286621e-01 4.246216773986816406e+00 1.404265284538269043e+00 -2.968702554702758789e+00
3.565000000000000000e+03 5.538539886474609375e+01 -1.383573150634765625e+01 2.871992290019989014e-01 4.257883071899414062e+00 1.363524675369262695e+00 2.651860952377319336e+00
3.566000000000000000e+03 5.630766296386718750e+01 -1.263716506958007812e+01 3.079007565975189209e-01 5.112354755401611328e+00 1.626076579093933105e+00 3.123578310012817383e+00
3.567000000000000000e+03 5.492727661132812500e+01 -1.657130622863769531e+01 5.299660563468933105e-02 4.386149406433105469e+00 1.331743717193603516e+00 2.106158733367919922e+00
3.568000000000000000e+03 5.427109146118164062e+01 1.465402603149414062e+00 3.113781213760375977e-01 3.407079219818115234e+00 1.115537166595458984e+00 -2.290731191635131836e+00
3.569000000000000000e+03 5.558533859252929688e+01 -1.310721588134765625e+01 3.554445803165435791e-01 4.334570884704589844e+00 1.407004594802856445e+00 2.821680307388305664e+00
3.570000000000000000e+03 6.816749572753906250e+01 -7.325270652770996094e+00 2.221313953399658203e+00 8.507781982421875000e+00 3.218728780746459961e+00 -3.632446527481079102e-01
3.571000000000000000e+03 6.900124359130859375e+01 -7.245995521545410156e+00 1.949976086616516113e+00 8.250995635986328125e+00 3.060291528701782227e+00 -2.927829325199127197e-01
3.572000000000000000e+03 6.785018920898437500e+01 -7.748433589935302734e+00 2.235119581222534180e+00 8.648243904113769531e+00 3.265008926391601562e+00 -5.311395525932312012e-01
3.573000000000000000e+03 3.841572570800781250e+01 4.588757038116455078e+00 -2.356926798820495605e-01 3.314009606838226318e-01 2.871248312294483185e-02 4.162587225437164307e-01
3.574000000000000000e+03 6.834931182861328125e+01 -5.588415145874023438e+00 2.166053056716918945e+00 8.450169563293457031e+00 3.184866905212402344e+00 2.962276339530944824e-01
3.575000000000000000e+03 5.494749450683593750e+01 8.189384937286376953e-01 3.326691091060638428e-01 3.839408636093139648e+00 1.251623392105102539e+00 -2.568868637084960938e+00
3.576000000000000000e+03 5.486959075927734375e+01 1.478908061981201172e+00 2.547070682048797607e-01 3.909691095352172852e+00 1.249319434165954590e+00 -2.477648973464965820e+00
3.577000000000000000e+03 3.187833786010742188e+01 4.861412048339843750e+00 -3.627400696277618408e-01 6.358351558446884155e-02 -8.974695950746536255e-02 6.733989119529724121e-01
3.578000000000000000e+03 3.240168762207031250e+01 4.135593891143798828e+00 -3.973843455314636230e-01 6.891972571611404419e-02 -9.853938221931457520e-02 6.665332913398742676e-01
3.579000000000000000e+03 6.313113021850585938e+01 -8.655012130737304688e+00 3.232541799545288086e+00 1.196811294555664062e+01 4.560196399688720703e+00 -1.650644302368164062e+00
3.580000000000000000e+03 4.847138595581054688e+01 -1.774510002136230469e+01 3.169245421886444092e-01 1.553620815277099609e+00 5.611636042594909668e-01 8.843193054199218750e-01
3.581000000000000000e+03 6.866488647460937500e+01 -1.792371630668640137e+00 1.029784321784973145e+00 8.652291297912597656e+00 2.904622793197631836e+00 1.162580728530883789e+00
3.582000000000000000e+03 6.777156829833984375e+01 -2.605688095092773438e+00 1.416436791419982910e+00 8.909035682678222656e+00 3.097641706466674805e+00 1.142386674880981445e+00
3.583000000000000000e+03 3.471833419799804688e+01 5.230156898498535156e+00 -2.912941575050354004e-01 1.916283220052719116e-01 -2.989974990487098694e-02 5.804663300514221191e-01
3.584000000000000000e+03 3.367212295532226562e+01 6.088986396789550781e+00 -2.683402299880981445e-01 1.812987923622131348e-01 -2.611242607235908508e-02 5.961775779724121094e-01
3.585000000000000000e+03 4.789588546752929688e+01 4.267733097076416016e+00 2.127080261707305908e-01 1.356433391571044922e+00 4.707424342632293701e-01 -7.017400264739990234e-01
3.586000000000000000e+03 6.836045074462890625e+01 -8.647804260253906250e+00 1.856879830360412598e+00 8.579184532165527344e+00 3.130819320678710938e+00 -7.909180521965026855e-01
3.587000000000000000e+03 6.875024414062500000e+01 -8.754551887512207031e+00 1.704460978507995605e+00 8.428339958190917969e+00 3.039840221405029297e+00 -7.692862153053283691e-01
3.588000000000000000e+03 5.003519439697265625e+01 3.238105535507202148e+00 2.668299376964569092e-01 1.715455174446105957e+00 5.946855545043945312e-01 -1.103091478347778320e+00
3.589000000000000000e+03 6.843015289306640625e+01 -1.054842948913574219e+00 7.392182350158691406e-01 8.808298110961914062e+00 2.864254713058471680e+00 1.220359086990356445e+00
3.590000000000000000e+03 6.841869354248046875e+01 -4.846247673034667969e+00 1.977949619293212891e+00 8.445000648498535156e+00 3.126885175704956055e+00 5.395774245262145996e-01
3.591000000000000000e+03 5.266311264038085938e+01 3.848598480224609375e+00 2.494049966335296631e-01 2.964524507522583008e+00 9.641788601875305176e-01 -1.736317753791809082e+00
3.592000000000000000e+03 5.234503173828125000e+01 5.070584774017333984e+00 2.191894501447677612e-01 3.063181400299072266e+00 9.847112894058227539e-01 -1.592161655426025391e+00
3.593000000000000000e+03 6.709935760498046875e+01 -1.336176967620849609e+01 1.716720908880233765e-01 9.252781867980957031e+00 2.827336072921752930e+00 -1.162157773971557617e+00
3.594000000000000000e+03 6.775302124023437500e+01 -1.168439769744873047e+01 8.003367781639099121e-01 9.037806510925292969e+00 2.951442956924438477e+00 -1.268583059310913086e+00
3.595000000000000000e+03 5.172456359863281250e+01 -1.642512702941894531e+01 3.498423993587493896e-01 2.394650220870971680e+00 8.233477473258972168e-01 1.548591256141662598e+00
3.596000000000000000e+03 5.326433563232421875e+01 -1.913743782043457031e+01 1.515293270349502563e-01 3.681157827377319336e+00 1.149806141853332520e+00 1.628984928131103516e+00
3.597000000000000000e+03 3.102014160156250000e+01 4.484177589416503906e+00 -3.783847093582153320e-01 1.858208328485488892e-02 -1.079407855868339539e-01 6.885703206062316895e-01
3.598000000000000000e+03 6.674343872070312500e+01 2.155883550643920898e+00 -3.089637756347656250e-01 9.175669670104980469e+00 2.660011529922485352e+00 9.119737148284912109e-01
3.599000000000000000e+03 5.161528396606445312e+01 4.702696800231933594e+00 2.681940495967864990e-01 2.687659978866577148e+00 8.867561817169189453e-01 -1.504932641983032227e+00
3.600000000000000000e+03 6.758157348632812500e+01 5.568716526031494141e-01 2.136955708265304565e-01 9.067057609558105469e+00 2.784225940704345703e+00 1.179572463035583496e+00
3.601000000000000000e+03 6.790216827392578125e+01 1.565325856208801270e+00 -5.945007875561714172e-02 8.930856704711914062e+00 2.661422014236450195e+00 1.096337080001831055e+00
3.602000000000000000e+03 6.612059783935546875e+01 6.584861755371093750e+00 -8.055734038352966309e-01 8.435666084289550781e+00 2.289027690887451172e+00 3.024746179580688477e-01
3.603000000000000000e+03 6.473769378662109375e+01 5.348758697509765625e+00 -8.782553076744079590e-01 8.666573524475097656e+00 2.336495399475097656e+00 1.158493086695671082e-01
3.604000000000000000e+03 3.133275413513183594e+01 1.000099849700927734e+01 -2.088456153869628906e-01 1.630620658397674561e-01 -1.373506616801023483e-02 5.544964075088500977e-01
3.605000000000000000e+03 6.778742980957031250e+01 -1.509245681762695312e+01 -2.077688127756118774e-01 8.912549018859863281e+00 2.611433982849121094e+00 -1.038521647453308105e+00
3.606000000000000000e+03 6.748015594482421875e+01 -1.413753128051757812e+01 -2.503717318177223206e-02 9.073452949523925781e+00 2.714524745941162109e+00 -1.114376902580261230e+00
3.607000000000000000e+03 4.482361221313476562e+01 5.453832626342773438e+00 1.312529891729354858e-01 9.654085636138916016e-01 3.289984762668609619e-01 -2.550106644630432129e-01
3.608000000000000000e+03 3.669978713989257812e+01 5.751045703887939453e+00 -2.044895142316818237e-01 3.076326549053192139e-01 3.094294108450412750e-02 4.816143512725830078e-01
3.609000000000000000e+03 3.472688674926757812e+01 6.158509731292724609e+00 -2.391118258237838745e-01 2.253866046667098999e-01 -4.117567092180252075e-03 5.569559335708618164e-01
3.610000000000000000e+03 4.203860092163085938e+01 -2.075454711914062500e+01 3.144729435443878174e-01 7.420432567596435547e-01 3.169548511505126953e-01 1.335633397102355957e-01
3.611000000000000000e+03 3.759696960449218750e+01 5.261959075927734375e+00 -2.150347679853439331e-01 3.279730379581451416e-01 3.388148173689842224e-02 4.438748657703399658e-01
3.612000000000000000e+03 6.767921447753906250e+01 -1.426995247602462769e-01 4.521555006504058838e-01 9.055681228637695312e+00 2.852350950241088867e+00 1.237379550933837891e+00
3.613000000000000000e+03 6.560968780517578125e+01 -1.556098175048828125e+01 -5.608537197113037109e-01 9.307619094848632812e+00 2.624029636383056641e+00 -6.399944424629211426e-01
3.614000000000000000e+03 6.420346069335937500e+01 -1.807414817810058594e+01 -9.028767943382263184e-01 8.682236671447753906e+00 2.333808183670043945e+00 1.145104970782995224e-02
3.615000000000000000e+03 3.907861709594726562e+01 5.415426731109619141e+00 -1.442176401615142822e-01 4.211764037609100342e-01 8.308763056993484497e-02 3.375447094440460205e-01
3.616000000000000000e+03 6.185937881469726562e+01 1.278551959991455078e+01 -6.299550533294677734e-01 6.769745826721191406e+00 1.841937303543090820e+00 -5.285404920578002930e-01
3.617000000000000000e+03 4.280683135986328125e+01 6.324535846710205078e+00 9.690973907709121704e-02 8.082433342933654785e-01 2.715459167957305908e-01 -5.021675676107406616e-02
3.618000000000000000e+03 6.483776092529296875e+01 -2.200252723693847656e+01 -7.850626707077026367e-01 7.829276084899902344e+00 2.113264083862304688e+00 3.188247606158256531e-02
3.619000000000000000e+03 6.614880371093750000e+01 -1.872544860839843750e+01 -7.679821848869323730e-01 8.543904304504394531e+00 2.332776546478271484e+00 -3.981190323829650879e-01
3.620000000000000000e+03 4.560323333740234375e+01 -1.788036727905273438e+01 2.239005863666534424e-01 9.551639556884765625e-01 3.537193536758422852e-01 4.305949211120605469e-01
3.621000000000000000e+03 4.428557205200195312e+01 -1.830106353759765625e+01 2.040885835886001587e-01 8.197910785675048828e-01 3.071638941764831543e-01 2.906867265701293945e-01
3.622000000000000000e+03 6.612380981445312500e+01 5.252406597137451172e+00 -7.605502009391784668e-01 8.679368972778320312e+00 2.375645637512207031e+00 4.303680360317230225e-01
3.623000000000000000e+03 3.081014251708984375e+01 8.586284637451171875e+00 -2.558542490005493164e-01 8.980452269315719604e-02 -4.981492087244987488e-02 6.131813526153564453e-01
3.624000000000000000e+03 4.865647125244140625e+01 4.964829444885253906e+00 2.607162594795227051e-01 1.682542443275451660e+00 5.829775929450988770e-01 -8.670604228973388672e-01
3.625000000000000000e+03 3.125051307678222656e+01 6.689536571502685547e+00 -2.998138964176177979e-01 7.572630047798156738e-02 -6.722627580165863037e-02 6.516266465187072754e-01
3.626000000000000000e+03 6.394383621215820312e+01 9.459157943725585938e+00 -8.297053575515747070e-01 7.696350574493408203e+00 2.059993505477905273e+00 -2.399075329303741455e-01
3.627000000000000000e+03 6.462828063964843750e+01 1.099903869628906250e+01 -7.385437488555908203e-01 7.513117313385009766e+00 2.032371997833251953e+00 -1.391796320676803589e-01
3.628000000000000000e+03 3.544093704223632812e+01 -2.118929862976074219e+01 1.353862881660461426e-01 2.775265574455261230e-01 1.238738521933555603e-01 -2.864178121089935303e-01
3.629000000000000000e+03 2.687746810913085938e+01 -2.083667182922363281e+01 -9.121152013540267944e-02 -1.848083361983299255e-02 -3.290770575404167175e-02 -4.637328684329986572e-01
3.630000000000000000e+03 2.839831352233886719e+01 -2.069457244873046875e+01 -6.737203150987625122e-02 1.262256409972906113e-02 -1.642484031617641449e-02 -4.605985879898071289e-01
3.631000000000000000e+03 6.550963592529296875e+01 4.608911514282226562e+00 -7.839951515197753906e-01 8.864503860473632812e+00 2.424152612686157227e+00 3.756929337978363037e-01
3.632000000000000000e+03 5.110060501098632812e+01 -1.878293800354003906e+01 3.172604441642761230e-01 2.618865013122558594e+00 8.808376193046569824e-01 1.372214078903198242e+00
3.633000000000000000e+03 3.650476837158203125e+01 -2.249654960632324219e+01 2.689217329025268555e-01 4.124416410923004150e-01 2.044090032577514648e-01 -1.915703117847442627e-01
3.634000000000000000e+03 6.352982330322265625e+01 -2.413184928894042969e+01 -6.868242621421813965e-01 7.293078422546386719e+00 1.981876254081726074e+00 2.601534426212310791e-01
3.635000000000000000e+03 6.557681274414062500e+01 2.232424354553222656e+01 -2.098760455846786499e-01 6.728603839874267578e+00 1.955618381500244141e+00 -1.229693964123725891e-01
3.636000000000000000e+03 6.239199066162109375e+01 1.627311325073242188e+01 -4.573177993297576904e-01 6.496896266937255859e+00 1.811873555183410645e+00 -3.752639889717102051e-01
3.637000000000000000e+03 7.013430786132812500e+01 -3.563523101806640625e+01 -1.539071053266525269e-01 7.507183074951171875e+00 2.205982923507690430e+00 -7.139956951141357422e-02
3.638000000000000000e+03 6.859892272949218750e+01 -3.808532714843750000e+01 -1.218062266707420349e-01 7.174007415771484375e+00 2.115660429000854492e+00 -2.370425686240196228e-02
3.639000000000000000e+03 6.369674682617187500e+01 -6.059965133666992188e+00 4.931247234344482422e+00 1.080846118927001953e+01 4.721912384033203125e+00 3.207366466522216797e-01
3.640000000000000000e+03 6.379005050659179688e+01 -5.662821769714355469e+00 4.676330566406250000e+00 1.078131008148193359e+01 4.637292385101318359e+00 6.689966320991516113e-01
3.641000000000000000e+03 6.451869201660156250e+01 -3.782409906387329102e+00 2.641680717468261719e+00 1.060688686370849609e+01 3.974570274353027344e+00 1.394132256507873535e+00
3.642000000000000000e+03 5.892866897583007812e+01 -1.133449935913085938e+01 -4.474427103996276855e-01 9.997530937194824219e+00 2.865026235580444336e+00 3.165507793426513672e+00
3.643000000000000000e+03 6.155452346801757812e+01 -9.891340255737304688e+00 6.322009563446044922e-01 1.363705635070800781e+01 4.280776977539062500e+00 -5.051402449607849121e-01
3.644000000000000000e+03 6.275712966918945312e+01 -8.882389068603515625e+00 2.791122674942016602e+00 1.252643966674804688e+01 4.595268726348876953e+00 -1.652238130569458008e+00
3.645000000000000000e+03 6.173896789550781250e+01 -3.487644672393798828e+00 1.611242413520812988e+00 1.389291191101074219e+01 4.651246547698974609e+00 1.162718892097473145e+00
3.646000000000000000e+03 6.821035003662109375e+01 -8.999183654785156250e+00 1.831192255020141602e+00 8.650197029113769531e+00 3.144416809082031250e+00 -8.950226902961730957e-01
3.647000000000000000e+03 6.114590835571289062e+01 -2.474269390106201172e+00 -3.581845387816429138e-02 1.339190196990966797e+01 4.006824970245361328e+00 -2.564429044723510742e-01
3.648000000000000000e+03 6.167352294921875000e+01 -3.054892063140869141e+00 8.488166928291320801e-01 1.365974044799804688e+01 4.352567195892333984e+00 7.429726719856262207e-01
3.649000000000000000e+03 5.874103546142578125e+01 -1.090830802917480469e+01 -2.624289393424987793e-01 9.880609512329101562e+00 2.885454177856445312e+00 3.542611122131347656e+00
3.650000000000000000e+03 6.622769927978515625e+01 -1.285913562774658203e+01 2.487474679946899414e-01 9.576077461242675781e+00 2.947447299957275391e+00 -1.149657726287841797e+00
3.651000000000000000e+03 6.315753936767578125e+01 -6.251019954681396484e+00 5.545781612396240234e+00 1.135485267639160156e+01 5.070190429687500000e+00 1.545295566320419312e-01
3.652000000000000000e+03 5.827523803710937500e+01 -1.145363903045654297e+01 -1.327787190675735474e-01 8.575221061706542969e+00 2.532732486724853516e+00 3.570362567901611328e+00
3.653000000000000000e+03 6.056238555908203125e+01 -1.026871299743652344e+01 -2.811298966407775879e-01 1.338533306121826172e+01 3.931261062622070312e+00 1.062284588813781738e+00
3.654000000000000000e+03 5.756838607788085938e+01 -1.340384483337402344e+00 1.650545001029968262e-01 7.139342784881591797e+00 2.191319227218627930e+00 -3.745065450668334961e+00
3.655000000000000000e+03 5.481507110595703125e+01 2.199467897415161133e+00 1.808019280433654785e-01 4.057849884033203125e+00 1.271595478057861328e+00 -2.360700130462646484e+00
3.656000000000000000e+03 6.130467224121093750e+01 -2.685421943664550781e+00 2.772345542907714844e-01 1.355910968780517578e+01 4.150903224945068359e+00 1.363248378038406372e-01
3.657000000000000000e+03 6.702172088623046875e+01 -2.316625595092773438e+00 1.358829140663146973e+00 9.269231796264648438e+00 3.188418388366699219e+00 1.243860602378845215e+00
3.658000000000000000e+03 6.215685272216796875e+01 -9.926703453063964844e+00 1.028286218643188477e+00 1.299540805816650391e+01 4.207108020782470703e+00 -9.984666109085083008e-01
3.659000000000000000e+03 6.182495880126953125e+01 -9.857574462890625000e+00 8.899942040443420410e-01 1.333028507232666016e+01 4.266083717346191406e+00 -8.026196360588073730e-01
3.660000000000000000e+03 5.697420883178710938e+01 -1.161497020721435547e+01 3.995459973812103271e-01 5.951402187347412109e+00 1.905284404754638672e+00 3.603360891342163086e+00
3.661000000000000000e+03 6.803202056884765625e+01 -4.435579299926757812e+00 2.029320001602172852e+00 8.637006759643554688e+00 3.199898004531860352e+00 7.086055278778076172e-01
3.662000000000000000e+03 6.883722686767578125e+01 -5.733761787414550781e+00 2.005580186843872070e+00 8.276305198669433594e+00 3.084565639495849609e+00 2.192194163799285889e-01
3.663000000000000000e+03 6.825695037841796875e+01 -9.854524612426757812e+00 1.460771679878234863e+00 8.695786476135253906e+00 3.046967506408691406e+00 -1.041471958160400391e+00
3.664000000000000000e+03 6.741266632080078125e+01 -7.474772930145263672e+00 2.468382835388183594e+00 8.774750709533691406e+00 3.372940063476562500e+00 -4.674564599990844727e-01
3.665000000000000000e+03 5.515441894531250000e+01 -1.453248786926269531e+01 2.404697835445404053e-01 4.206421375274658203e+00 1.334067344665527344e+00 2.506534337997436523e+00
3.666000000000000000e+03 5.663158416748046875e+01 -2.610043585300445557e-01 2.111226618289947510e-01 5.598859786987304688e+00 1.742994785308837891e+00 -3.250065326690673828e+00
3.667000000000000000e+03 5.645680618286132812e+01 3.481875061988830566e-01 1.184905469417572021e-01 5.428277969360351562e+00 1.664030551910400391e+00 -3.045935869216918945e+00
3.668000000000000000e+03 6.794181823730468750e+01 -6.585320949554443359e+00 2.389327049255371094e+00 8.561759948730468750e+00 3.285326004028320312e+00 -7.865002751350402832e-02
3.669000000000000000e+03 6.813184356689453125e+01 -6.069952964782714844e+00 2.314679145812988281e+00 8.509159088134765625e+00 3.247151374816894531e+00 1.248205453157424927e-01
3.670000000000000000e+03 3.275946426391601562e+01 4.959510803222656250e+00 -3.481855392456054688e-01 9.955290704965591431e-02 -7.458979636430740356e-02 6.477051377296447754e-01
3.671000000000000000e+03 5.537866592407226562e+01 2.164512395858764648e+00 8.379951864480972290e-02 4.560616970062255859e+00 1.393324971199035645e+00 -2.475539922714233398e+00
3.672000000000000000e+03 5.422544097900390625e+01 2.258401632308959961e+00 2.488362938165664673e-01 3.612427711486816406e+00 1.158379197120666504e+00 -2.216219663619995117e+00
3.673000000000000000e+03 6.712256622314453125e+01 -1.475597000122070312e+01 -2.177810817956924438e-01 9.098622322082519531e+00 2.664252519607543945e+00 -9.923595786094665527e-01
3.674000000000000000e+03 6.714710235595703125e+01 -7.875701427459716797e+00 2.448266267776489258e+00 8.905895233154296875e+00 3.406248569488525391e+00 -6.401802897453308105e-01
3.675000000000000000e+03 6.796589660644531250e+01 -1.930492401123046875e+00 1.111781120300292969e+00 8.877845764160156250e+00 2.996887922286987305e+00 1.192717790603637695e+00
3.676000000000000000e+03 6.729095458984375000e+01 -1.203020191192626953e+01 6.796689629554748535e-01 9.214017868041992188e+00 2.968106269836425781e+00 -1.275550246238708496e+00
3.677000000000000000e+03 6.799921417236328125e+01 -1.097103023529052734e+01 1.097714304924011230e+00 8.890128135681152344e+00 2.996352672576904297e+00 -1.229409575462341309e+00
3.678000000000000000e+03 5.493362808227539062e+01 -1.755143165588378906e+01 7.902328856289386749e-03 4.448791027069091797e+00 1.337007999420166016e+00 1.977256059646606445e+00
3.679000000000000000e+03 6.783038330078125000e+01 -1.047348690032958984e+01 1.284199237823486328e+00 8.916100502014160156e+00 3.060089826583862305e+00 -1.204408049583435059e+00
3.680000000000000000e+03 6.779435729980468750e+01 -1.287139654159545898e+00 8.296867012977600098e-01 8.990737915039062500e+00 2.946127414703369141e+00 1.242480754852294922e+00
3.681000000000000000e+03 5.296735382080078125e+01 4.491969108581542969e+00 1.892278343439102173e-01 3.241028785705566406e+00 1.029076933860778809e+00 -1.751487970352172852e+00
3.682000000000000000e+03 6.732202148437500000e+01 -8.009871244430541992e-01 6.612067818641662598e-01 9.178089141845703125e+00 2.951788663864135742e+00 1.258747220039367676e+00
3.683000000000000000e+03 6.555965423583984375e+01 -1.803005981445312500e+01 -7.959557771682739258e-01 8.725878715515136719e+00 2.378976821899414062e+00 -3.358480334281921387e-01
3.684000000000000000e+03 3.375623321533203125e+01 5.021754741668701172e+00 -3.249296545982360840e-01 1.476603448390960693e-01 -5.318079143762588501e-02 6.194146871566772461e-01
3.685000000000000000e+03 5.023494338989257812e+01 4.828363895416259766e+00 2.898525893688201904e-01 2.137206792831420898e+00 7.281177639961242676e-01 -1.179318428039550781e+00
3.686000000000000000e+03 6.284516906738281250e+01 4.477262496948242188e+00 -1.000716924667358398e+00 8.786701202392578125e+00 2.335795164108276367e+00 -4.216198623180389404e-01
3.687000000000000000e+03 6.576282501220703125e+01 3.300593614578247070e+00 -6.316339373588562012e-01 9.168221473693847656e+00 2.560976266860961914e+00 5.940911173820495605e-01
3.688000000000000000e+03 3.155275344848632812e+01 5.729645729064941406e+00 -3.315494954586029053e-01 6.547117233276367188e-02 -7.982349395751953125e-02 6.676775217056274414e-01
3.689000000000000000e+03 6.584895324707031250e+01 1.835304498672485352e+00 -3.726448118686676025e-01 9.447875022888183594e+00 2.722568988800048828e+00 8.165929317474365234e-01
3.690000000000000000e+03 6.486484527587890625e+01 2.172609090805053711e+00 -5.808435678482055664e-01 9.589618682861328125e+00 2.702632665634155273e+00 5.229494571685791016e-01
3.691000000000000000e+03 6.654992675781250000e+01 6.445145606994628906e-01 6.063132360577583313e-02 9.421122550964355469e+00 2.844526052474975586e+00 1.085745573043823242e+00
3.692000000000000000e+03 5.351246261596679688e+01 -1.624342155456542969e+01 2.657728195190429688e-01 3.385798454284667969e+00 1.095471382141113281e+00 1.947095632553100586e+00
3.693000000000000000e+03 5.257812881469726562e+01 -1.830691337585449219e+01 2.507311701774597168e-01 3.140219688415527344e+00 1.017285227775573730e+00 1.622019290924072266e+00
3.694000000000000000e+03 5.286923599243164062e+01 5.630490303039550781e+00 1.374772787094116211e-01 3.489576578140258789e+00 1.088116168975830078e+00 -1.635151028633117676e+00
3.695000000000000000e+03 6.709455871582031250e+01 1.603207290172576904e-01 2.991396486759185791e-01 9.271096229553222656e+00 2.871070623397827148e+00 1.193754434585571289e+00
3.696000000000000000e+03 3.573953247070312500e+01 6.052372455596923828e+00 -2.104440927505493164e-01 2.743210196495056152e-01 1.916307583451271057e-02 5.135298967361450195e-01
3.697000000000000000e+03 4.797941207885742188e+01 -1.999137115478515625e+01 3.844510912895202637e-01 1.808746218681335449e+00 6.579592227935791016e-01 8.313652873039245605e-01
3.698000000000000000e+03 6.530767059326171875e+01 -1.933530998229980469e+01 -8.218809366226196289e-01 8.402553558349609375e+00 2.274201869964599609e+00 -1.895500868558883667e-01
3.699000000000000000e+03 6.455921936035156250e+01 -2.069855690002441406e+01 -8.449441790580749512e-01 8.066148757934570312e+00 2.166361331939697266e+00 5.631688982248306274e-02
3.700000000000000000e+03 4.713466644287109375e+01 5.028652191162109375e+00 2.123891264200210571e-01 1.316189646720886230e+00 4.585736393928527832e-01 -5.987600684165954590e-01
3.701000000000000000e+03 4.212829589843750000e+01 8.672605514526367188e+00 1.693974882364273071e-01 9.785849452018737793e-01 3.443947136402130127e-01 -6.807041168212890625e-02
3.702000000000000000e+03 4.051371002197265625e+01 7.207333087921142578e+00 4.163635522127151489e-02 6.763944625854492188e-01 2.154092341661453247e-01 1.471723169088363647e-01
3.703000000000000000e+03 3.597696685791015625e+01 7.113409042358398438e+00 -1.503814607858657837e-01 3.354979455471038818e-01 5.553495138883590698e-02 4.716489911079406738e-01
3.704000000000000000e+03 3.333040237426757812e+01 1.235626506805419922e+01 -5.035980418324470520e-02 4.049731194972991943e-01 1.063840016722679138e-01 3.775533735752105713e-01
3.705000000000000000e+03 4.782613372802734375e+01 5.802137851715087891e+00 2.601531744003295898e-01 1.612692475318908691e+00 5.618537068367004395e-01 -7.401302456855773926e-01
3.706000000000000000e+03 6.672166442871093750e+01 -1.539871883392333984e+01 -3.819575905799865723e-01 9.107130050659179688e+00 2.617551803588867188e+00 -8.714507222175598145e-01
3.707000000000000000e+03 3.324348068237304688e+01 -2.067494392395019531e+01 3.630900382995605469e-02 1.502029597759246826e-01 5.595358833670616150e-02 -3.836436867713928223e-01
3.708000000000000000e+03 3.990022277832031250e+01 -2.127845764160156250e+01 2.836461067199707031e-01 5.729162096977233887e-01 2.569687068462371826e-01 -1.281857211142778397e-02
3.709000000000000000e+03 3.764182662963867188e+01 -1.927544784545898438e+01 3.164223954081535339e-02 2.895711660385131836e-01 9.636402130126953125e-02 -2.287244796752929688e-01
3.710000000000000000e+03 6.415011596679687500e+01 4.561974525451660156e+00 -9.037711620330810547e-01 8.878993034362792969e+00 2.392566442489624023e+00 -2.301846398040652275e-03
3.711000000000000000e+03 6.342248153686523438e+01 7.917304515838623047e+00 -9.127554893493652344e-01 7.930135250091552734e+00 2.105213880538940430e+00 -3.273426592350006104e-01
3.712000000000000000e+03 4.531625747680664062e+01 6.408790588378906250e+00 2.002574652433395386e-01 1.182195305824279785e+00 4.147358238697052002e-01 -3.568696677684783936e-01
3.713000000000000000e+03 4.589912033081054688e+01 7.396282672882080078e+00 2.533594369888305664e-01 1.436481118202209473e+00 5.069521665573120117e-01 -4.796302914619445801e-01
3.714000000000000000e+03 6.276582717895507812e+01 1.407870388031005859e+01 -5.745484828948974609e-01 6.803672313690185547e+00 1.868737220764160156e+00 -3.770613074302673340e-01
3.715000000000000000e+03 6.407678985595703125e+01 1.318558502197265625e+01 -6.313452124595642090e-01 7.141100406646728516e+00 1.952926635742187500e+00 -2.229357212781906128e-01
3.716000000000000000e+03 6.190626907348632812e+01 1.827423477172851562e+01 -3.437425792217254639e-01 6.252753734588623047e+00 1.772703409194946289e+00 -3.690188229084014893e-01
3.717000000000000000e+03 3.355281829833984375e+01 1.626367759704589844e+01 5.883805453777313232e-02 5.614086985588073730e-01 1.860740184783935547e-01 2.149563282728195190e-01
3.718000000000000000e+03 6.167192840576171875e+01 -2.415789985656738281e+01 -6.352528333663940430e-01 6.882645130157470703e+00 1.874217748641967773e+00 5.259593129158020020e-01
3.719000000000000000e+03 6.093751525878906250e+01 -2.616961479187011719e+01 -5.057930350303649902e-01 6.450324535369873047e+00 1.783359408378601074e+00 5.379527807235717773e-01
3.720000000000000000e+03 4.978120803833007812e+01 -1.955633544921875000e+01 3.624905347824096680e-01 2.268906831741333008e+00 7.894191741943359375e-01 1.127290725708007812e+00
3.721000000000000000e+03 5.192864227294921875e+01 -1.907954978942871094e+01 2.789460420608520508e-01 2.985090017318725586e+00 9.792107939720153809e-01 1.469361066818237305e+00
3.722000000000000000e+03 4.967985153198242188e+01 -1.818629646301269531e+01 3.477115035057067871e-01 1.987504005432128906e+00 7.005646228790283203e-01 1.123806953430175781e+00
3.723000000000000000e+03 5.390108489990234375e+01 -2.015806961059570312e+01 4.997434839606285095e-02 4.072769165039062500e+00 1.236823081970214844e+00 1.539320111274719238e+00
3.724000000000000000e+03 6.228953552246093750e+01 1.981756591796875000e+01 -2.877643108367919922e-01 6.227732658386230469e+00 1.781990528106689453e+00 -3.036876320838928223e-01
3.725000000000000000e+03 6.128208923339843750e+01 1.718226814270019531e+01 -3.943628072738647461e-01 6.175759792327880859e+00 1.734419107437133789e+00 -4.471563398838043213e-01
3.726000000000000000e+03 3.040107154846191406e+01 -2.208145141601562500e+01 7.277572900056838989e-02 8.123431354761123657e-02 4.620301350951194763e-02 -4.125382304191589355e-01
3.727000000000000000e+03 6.546775817871093750e+01 2.568440818786621094e+01 -1.190639883279800415e-01 6.575353622436523438e+00 1.936886906623840332e+00 -1.372359693050384521e-01
3.728000000000000000e+03 5.902349090576171875e+01 -1.616829514503479004e+00 -4.748863279819488525e-01 1.023612785339355469e+01 2.928372383117675781e+00 -3.235075235366821289e+00
3.729000000000000000e+03 6.054597854614257812e+01 -2.563519716262817383e+00 -2.815597355365753174e-01 1.346359062194824219e+01 3.954609155654907227e+00 -1.115032911300659180e+00
3.730000000000000000e+03 6.021596908569335938e+01 -1.097294139862060547e+01 -6.284363269805908203e-01 1.217359066009521484e+01 3.463546276092529297e+00 1.750209689140319824e+00
3.731000000000000000e+03 5.930479431152343750e+01 -1.721888661384582520e+00 -5.678498744964599609e-01 1.098705959320068359e+01 3.125762939453125000e+00 -2.974349260330200195e+00
3.732000000000000000e+03 6.192726898193359375e+01 -3.146669149398803711e+00 1.195716977119445801e+00 1.337125587463378906e+01 4.370091915130615234e+00 1.019028544425964355e+00
3.733000000000000000e+03 6.306721496582031250e+01 -9.207659721374511719e+00 2.352656602859497070e+00 1.204833507537841797e+01 4.320297718048095703e+00 -1.552308678627014160e+00
3.734000000000000000e+03 5.841991424560546875e+01 -1.060104727745056152e+00 -3.160035312175750732e-01 8.744132995605468750e+00 2.528438806533813477e+00 -3.362614154815673828e+00
3.735000000000000000e+03 6.236326599121093750e+01 -3.966306924819946289e+00 2.797005891799926758e+00 1.310360622406005859e+01 4.770183563232421875e+00 1.692071557044982910e+00
3.736000000000000000e+03 6.638166046142578125e+01 -1.000583887100219727e+00 7.035096287727355957e-01 9.619285583496093750e+00 3.096838712692260742e+00 1.262269854545593262e+00
3.737000000000000000e+03 6.176115036010742188e+01 -1.013809394836425781e+01 5.230611562728881836e-01 1.315363597869873047e+01 4.103009223937988281e+00 -5.191088914871215820e-01
3.738000000000000000e+03 5.949167251586914062e+01 -1.145133972167968750e+01 -6.398646831512451172e-01 1.075663089752197266e+01 3.035029888153076172e+00 2.634274721145629883e+00
3.739000000000000000e+03 6.083148956298828125e+01 -1.056330490112304688e+01 -3.195051252841949463e-01 1.305488204956054688e+01 3.820612907409667969e+00 8.190522193908691406e-01
3.740000000000000000e+03 5.863486099243164062e+01 -1.148361682891845703e+01 -3.389619588851928711e-01 9.327740669250488281e+00 2.696633577346801758e+00 3.341159820556640625e+00
3.741000000000000000e+03 6.351710128784179688e+01 -6.416174888610839844e+00 5.168406009674072266e+00 1.096179771423339844e+01 4.839060783386230469e+00 -6.197493895888328552e-02
3.742000000000000000e+03 5.740610885620117188e+01 -1.171995162963867188e+01 1.979331672191619873e-01 6.774474143981933594e+00 2.091722249984741211e+00 3.598471879959106445e+00
3.743000000000000000e+03 6.247290802001953125e+01 -3.498565673828125000e+00 2.016676187515258789e+00 1.285010814666748047e+01 4.460035324096679688e+00 1.459367871284484863e+00
3.744000000000000000e+03 5.883821487426757812e+01 -1.385687232017517090e+00 -4.238231778144836426e-01 9.719541549682617188e+00 2.788715600967407227e+00 -3.274790287017822266e+00
3.745000000000000000e+03 5.618420410156250000e+01 -1.333023834228515625e+01 1.960299909114837646e-01 5.125129699707031250e+00 1.596347928047180176e+00 2.935020208358764648e+00
3.746000000000000000e+03 5.603088760375976562e+01 6.287336945533752441e-01 1.855803728103637695e-01 4.949502468109130859e+00 1.540524840354919434e+00 -2.868735551834106445e+00
3.747000000000000000e+03 6.768643951416015625e+01 -7.048820495605468750e+00 2.423238754272460938e+00 8.658973693847656250e+00 3.324663639068603516e+00 -2.814004421234130859e-01
3.748000000000000000e+03 6.696070098876953125e+01 -7.223706245422363281e+00 2.695804595947265625e+00 8.938365936279296875e+00 3.490251064300537109e+00 -3.881016373634338379e-01
3.749000000000000000e+03 6.755558013916015625e+01 -8.156045913696289062e+00 2.229550600051879883e+00 8.787004470825195312e+00 3.304966449737548828e+00 -6.997095942497253418e-01
3.750000000000000000e+03 6.735835266113281250e+01 -5.029023170471191406e+00 2.417517900466918945e+00 8.817052841186523438e+00 3.370371103286743164e+00 5.659041404724121094e-01
3.751000000000000000e+03 6.742382812500000000e+01 -6.393779754638671875e+00 2.611066341400146484e+00 8.733861923217773438e+00 3.403478622436523438e+00 -1.157900877296924591e-02
3.752000000000000000e+03 6.755441284179687500e+01 -3.716241836547851562e+00 1.943210959434509277e+00 8.886792182922363281e+00 3.249001026153564453e+00 9.544544816017150879e-01
3.753000000000000000e+03 5.693849182128906250e+01 -5.631774663925170898e-01 1.905526816844940186e-01 5.974640846252441406e+00 1.849558115005493164e+00 -3.376486778259277344e+00
3.754000000000000000e+03 5.572162628173828125e+01 -1.491081905364990234e+01 6.753055006265640259e-02 4.831016540527343750e+00 1.469564199447631836e+00 2.499253273010253906e+00
3.755000000000000000e+03 5.579323196411132812e+01 2.787621736526489258e+00 -3.144232556223869324e-02 4.894697666168212891e+00 1.458976626396179199e+00 -2.379509925842285156e+00
3.756000000000000000e+03 6.773416137695312500e+01 -9.986049652099609375e+00 1.514601588249206543e+00 8.915746688842773438e+00 3.129104614257812500e+00 -1.133508443832397461e+00
3.757000000000000000e+03 6.619307708740234375e+01 -8.662975579500198364e-02 2.758878171443939209e-01 9.651278495788574219e+00 2.978149890899658203e+00 1.154482245445251465e+00
3.758000000000000000e+03 3.242176055908203125e+01 6.953991889953613281e+00 -2.588547170162200928e-01 1.424375772476196289e-01 -3.492514044046401978e-02 6.132058501243591309e-01
3.759000000000000000e+03 5.527198410034179688e+01 3.409617662429809570e+00 -1.868131570518016815e-02 4.586960315704345703e+00 1.370483756065368652e+00 -2.218980073928833008e+00
3.760000000000000000e+03 5.486013793945312500e+01 2.955139160156250000e+00 1.048329398036003113e-01 4.247297286987304688e+00 1.305639028549194336e+00 -2.237728595733642578e+00
3.761000000000000000e+03 6.334307479858398438e+01 -9.488999366760253906e+00 2.093116760253906250e+00 1.175022888183593750e+01 4.153003692626953125e+00 -1.490138530731201172e+00
3.762000000000000000e+03 6.743919372558593750e+01 -1.124759960174560547e+01 9.960641860961914062e-01 9.132000923156738281e+00 3.038419485092163086e+00 -1.273609161376953125e+00
3.763000000000000000e+03 6.502108001708984375e+01 -1.509943485260009766e+01 -5.832098722457885742e-01 9.511807441711425781e+00 2.678579330444335938e+00 -5.488148331642150879e-01
3.764000000000000000e+03 6.442085266113281250e+01 -1.956646919250488281e+01 -8.854993581771850586e-01 8.319629669189453125e+00 2.230239152908325195e+00 4.729002341628074646e-02
3.765000000000000000e+03 6.601808929443359375e+01 -2.725558042526245117e+00 1.631344795227050781e+00 9.716714859008789062e+00 3.404417991638183594e+00 1.302134275436401367e+00
3.766000000000000000e+03 5.104706954956054688e+01 5.543223857879638672e+00 2.589454650878906250e-01 2.645900487899780273e+00 8.714538216590881348e-01 -1.336687564849853516e+00
3.767000000000000000e+03 4.943971252441406250e+01 5.703761100769042969e+00 2.849461734294891357e-01 2.032118558883666992e+00 6.951194405555725098e-01 -1.028815031051635742e+00
3.768000000000000000e+03 5.364799118041992188e+01 5.034235000610351562e+00 9.376996755599975586e-02 3.799675703048706055e+00 1.168033719062805176e+00 -1.819953918457031250e+00
3.769000000000000000e+03 5.424597549438476562e+01 3.125970125198364258e+00 1.654406785964965820e-01 3.850141763687133789e+00 1.204674720764160156e+00 -2.143353223800659180e+00
3.770000000000000000e+03 6.674169158935546875e+01 -4.266802072525024414e-01 4.546749591827392578e-01 9.423822402954101562e+00 2.963549375534057617e+00 1.221843719482421875e+00
3.771000000000000000e+03 6.587811279296875000e+01 -6.999772787094116211e-01 4.888873398303985596e-01 9.834795951843261719e+00 3.097105026245117188e+00 1.202410697937011719e+00
3.772000000000000000e+03 6.154896926879882812e+01 -2.422382593154907227e+00 2.169064730405807495e-01 1.312518978118896484e+01 4.002628803253173828e+00 2.440835088491439819e-01
3.773000000000000000e+03 5.466792678833007812e+01 -1.856983566284179688e+01 -7.234824355691671371e-03 4.348984241485595703e+00 1.302524805068969727e+00 1.781769752502441406e+00
3.774000000000000000e+03 5.331812286376953125e+01 -1.766946983337402344e+01 2.070280760526657104e-01 3.456741094589233398e+00 1.099130749702453613e+00 1.773767232894897461e+00
3.775000000000000000e+03 5.198527526855468750e+01 5.865888595581054688e+00 2.009471952915191650e-01 3.039306402206420898e+00 9.720760583877563477e-01 -1.475887417793273926e+00
3.776000000000000000e+03 5.406942367553710938e+01 -1.744013786315917969e+01 1.269924938678741455e-01 3.901347160339355469e+00 1.208501935005187988e+00 1.910643577575683594e+00
3.777000000000000000e+03 3.693919372558593750e+01 9.672814369201660156e+00 4.582441877573728561e-03 5.530381798744201660e-01 1.672861874103546143e-01 3.161059021949768066e-01
3.778000000000000000e+03 3.815275955200195312e+01 6.107460498809814453e+00 -1.271390169858932495e-01 4.163099825382232666e-01 8.675129711627960205e-02 3.749744594097137451e-01
3.779000000000000000e+03 6.680908203125000000e+01 -1.244577121734619141e+01 4.600369334220886230e-01 9.392866134643554688e+00 2.955870866775512695e+00 -1.227471232414245605e+00
3.780000000000000000e+03 3.478547668457031250e+01 7.259601593017578125e+00 -1.753162145614624023e-01 2.797009646892547607e-01 3.131542727351188660e-02 5.191255807876586914e-01
3.781000000000000000e+03 3.710982894897460938e+01 6.702941894531250000e+00 -1.286272108554840088e-01 3.914451599121093750e-01 7.884538918733596802e-02 4.226041734218597412e-01
3.782000000000000000e+03 3.482400512695312500e+01 8.563680648803710938e+00 -1.145279258489608765e-01 3.468961417675018311e-01 6.971046328544616699e-02 4.716682136058807373e-01
3.783000000000000000e+03 6.629684448242187500e+01 -1.733129310607910156e+01 -6.760273575782775879e-01 8.818209648132324219e+00 2.442654609680175781e+00 -5.651017427444458008e-01
3.784000000000000000e+03 6.624233245849609375e+01 -1.606897735595703125e+01 -5.497841238975524902e-01 9.081335067749023438e+00 2.559465408325195312e+00 -7.064750194549560547e-01
3.785000000000000000e+03 6.331920623779296875e+01 5.245326519012451172e+00 -9.838908314704895020e-01 8.616504669189453125e+00 2.289784193038940430e+00 -3.168734312057495117e-01
3.786000000000000000e+03 6.301449203491210938e+01 -1.773418045043945312e+01 -9.683316349983215332e-01 8.683429718017578125e+00 2.314529418945312500e+00 3.579256236553192139e-01
3.787000000000000000e+03 6.340306091308593750e+01 -2.237497901916503906e+01 -7.921797633171081543e-01 7.570853710174560547e+00 2.033602237701416016e+00 3.045116662979125977e-01
3.788000000000000000e+03 6.444113922119140625e+01 2.514930486679077148e+00 -7.225652933120727539e-01 9.545853614807128906e+00 2.646986484527587891e+00 3.182885348796844482e-01
3.789000000000000000e+03 6.566089630126953125e+01 -1.674390792846679688e+01 -7.004615068435668945e-01 9.018298149108886719e+00 2.495350837707519531e+00 -4.950823485851287842e-01
3.790000000000000000e+03 4.691058731079101562e+01 6.614933490753173828e+00 2.614674270153045654e-01 1.527446508407592773e+00 5.366742014884948730e-01 -6.112818717956542969e-01
3.791000000000000000e+03 4.627344894409179688e+01 5.752571105957031250e+00 2.099365741014480591e-01 1.257651686668395996e+00 4.402764737606048584e-01 -4.821929335594177246e-01
3.792000000000000000e+03 4.315047454833984375e+01 7.379464626312255859e+00 1.606641113758087158e-01 9.627069234848022461e-01 3.370113074779510498e-01 -1.278638392686843872e-01
3.793000000000000000e+03 5.075817871093750000e+01 -1.990160560607910156e+01 3.224427700042724609e-01 2.676361322402954102e+00 8.996412158012390137e-01 1.259020566940307617e+00
3.794000000000000000e+03 5.167689895629882812e+01 -2.002661705017089844e+01 2.690648138523101807e-01 2.992828369140625000e+00 9.785679578781127930e-01 1.362081408500671387e+00
3.795000000000000000e+03 3.875823974609375000e+01 7.022686481475830078e+00 -4.038120433688163757e-02 5.251764059066772461e-01 1.454385519027709961e-01 2.937696278095245361e-01
3.796000000000000000e+03 3.760089111328125000e+01 7.739490509033203125e+00 -4.966952651739120483e-02 4.916285872459411621e-01 1.325877159833908081e-01 3.459263443946838379e-01
3.797000000000000000e+03 4.351524734497070312e+01 -2.146560096740722656e+01 3.972521126270294189e-01 1.049604177474975586e+00 4.340569078922271729e-01 3.001434206962585449e-01
3.798000000000000000e+03 4.650743484497070312e+01 -2.328763961791992188e+01 4.537279307842254639e-01 1.823753118515014648e+00 6.832443475723266602e-01 6.275229454040527344e-01
3.799000000000000000e+03 6.092908477783203125e+01 1.151462554931640625e+01 -6.581060290336608887e-01 6.684562206268310547e+00 1.807936787605285645e+00 -7.053425908088684082e-01
3.800000000000000000e+03 4.573265075683593750e+01 -2.062121391296386719e+01 3.890944123268127441e-01 1.350242614746093750e+00 5.218011140823364258e-01 5.288341045379638672e-01
3.801000000000000000e+03 4.723528671264648438e+01 -2.156675529479980469e+01 4.247744083404541016e-01 1.809178233146667480e+00 6.701857447624206543e-01 7.277912497520446777e-01
3.802000000000000000e+03 3.252283859252929688e+01 1.059212303161621094e+01 -1.367230564355850220e-01 2.762612402439117432e-01 4.186145588755607605e-02 4.837187528610229492e-01
3.803000000000000000e+03 6.148387908935546875e+01 1.507087802886962891e+01 -4.907869100570678711e-01 6.418618679046630859e+00 1.778349518775939941e+00 -4.988263547420501709e-01
3.804000000000000000e+03 6.322401428222656250e+01 1.180265426635742188e+01 -7.097929716110229492e-01 7.199100017547607422e+00 1.946792125701904297e+00 -3.430756032466888428e-01
3.805000000000000000e+03 3.981655883789062500e+01 6.257759571075439453e+00 -4.802542924880981445e-02 5.396047234535217285e-01 1.474737823009490967e-01 2.421341389417648315e-01
3.806000000000000000e+03 6.249372100830078125e+01 -2.706426620483398438e+01 -5.107156038284301758e-01 6.718087196350097656e+00 1.862211465835571289e+00 3.473570644855499268e-01
3.807000000000000000e+03 6.727989959716796875e+01 -2.390140914916992188e+01 -6.256173849105834961e-01 7.787827491760253906e+00 2.148663043975830078e+00 -2.646715939044952393e-01
3.808000000000000000e+03 3.387517547607421875e+01 -2.504891967773437500e+01 3.495451807975769043e-01 3.371408879756927490e-01 2.060058116912841797e-01 -2.520389854907989502e-01
3.809000000000000000e+03 3.882771682739257812e+01 -2.244449806213378906e+01 3.304208517074584961e-01 5.763429403305053711e-01 2.720291316509246826e-01 -4.778657481074333191e-02
3.810000000000000000e+03 3.186656761169433594e+01 -2.144680213928222656e+01 6.723446398973464966e-02 1.199341118335723877e-01 5.615057423710823059e-02 -3.974468410015106201e-01
3.811000000000000000e+03 4.924106216430664062e+01 -2.079081535339355469e+01 3.775042891502380371e-01 2.297218561172485352e+00 8.024168610572814941e-01 1.020113110542297363e+00
3.812000000000000000e+03 4.873995208740234375e+01 -2.236193275451660156e+01 3.916009366512298584e-01 2.341241359710693359e+00 8.198526501655578613e-01 8.885479569435119629e-01
3.813000000000000000e+03 6.196929168701171875e+01 2.499130630493164062e+01 -1.069610044360160828e-01 5.941706180572509766e+00 1.750423431396484375e+00 -2.564113438129425049e-01
3.814000000000000000e+03 6.093905639648437500e+01 2.247665405273437500e+01 -1.655879765748977661e-01 5.819780349731445312e+00 1.696257710456848145e+00 -3.353643715381622314e-01
3.815000000000000000e+03 6.104536819458007812e+01 -1.026315784454345703e+01 -4.426145460456609726e-03 1.347538471221923828e+01 4.041287422180175781e+00 2.903540730476379395e-01
3.816000000000000000e+03 6.221757888793945312e+01 -3.259111881256103516e+00 1.548150420188903809e+00 1.310698413848876953e+01 4.396540164947509766e+00 1.259189605712890625e+00
3.817000000000000000e+03 6.255488586425781250e+01 -1.000769138336181641e+01 1.172033548355102539e+00 1.252774810791015625e+01 4.109934329986572266e+00 -1.164211273193359375e+00
3.818000000000000000e+03 5.968961334228515625e+01 -1.464948654174804688e+00 -6.911528110504150391e-01 1.117152786254882812e+01 3.144112586975097656e+00 -2.422561883926391602e+00
3.819000000000000000e+03 6.365945816040039062e+01 -6.969479560852050781e+00 4.876284122467041016e+00 1.088626861572265625e+01 4.728765487670898438e+00 -5.819791555404663086e-01
3.820000000000000000e+03 6.010074996948242188e+01 -1.953086495399475098e+00 -6.434319019317626953e-01 1.230506038665771484e+01 3.498488426208496094e+00 -1.951769709587097168e+00
3.821000000000000000e+03 5.996466827392578125e+01 -1.543188571929931641e+00 -7.091937661170959473e-01 1.159556770324707031e+01 3.265912294387817383e+00 -2.101542472839355469e+00
3.822000000000000000e+03 6.349429321289062500e+01 -4.413552284240722656e+00 3.554713487625122070e+00 1.144448089599609375e+01 4.499758243560791016e+00 1.482374191284179688e+00
3.823000000000000000e+03 6.660945129394531250e+01 -2.889122486114501953e+00 1.676414489746093750e+00 9.387034416198730469e+00 3.319034576416015625e+00 1.226060748100280762e+00
3.824000000000000000e+03 6.335409545898437500e+01 -8.994758605957031250e+00 2.691632509231567383e+00 1.173901939392089844e+01 4.329195499420166016e+00 -1.588246822357177734e+00
3.825000000000000000e+03 6.410157012939453125e+01 -1.334204006195068359e+01 -3.520039618015289307e-01 1.025523471832275391e+01 2.970969200134277344e+00 -5.850796103477478027e-01
3.826000000000000000e+03 6.678128051757812500e+01 -9.945421218872070312e+00 1.644997596740722656e+00 9.325595855712890625e+00 3.291177988052368164e+00 -1.225828409194946289e+00
3.827000000000000000e+03 6.057284164428710938e+01 -1.082985687255859375e+01 -5.319845676422119141e-01 1.259272670745849609e+01 3.618222713470458984e+00 1.281695604324340820e+00
3.828000000000000000e+03 6.388937377929687500e+01 -6.611128807067871094e+00 4.785059928894042969e+00 1.065150356292724609e+01 4.630969047546386719e+00 -2.201085537672042847e-01
3.829000000000000000e+03 5.738436126708984375e+01 2.919369935989379883e-01 -1.380354017019271851e-01 6.665867805480957031e+00 1.958349823951721191e+00 -3.102199077606201172e+00
3.830000000000000000e+03 5.728285980224609375e+01 -9.076355695724487305e-01 1.590476036071777344e-01 6.582492828369140625e+00 2.022462129592895508e+00 -3.561001777648925781e+00
3.831000000000000000e+03 5.749251556396484375e+01 -1.125503063201904297e+01 3.103623688220977783e-01 6.947777271270751953e+00 2.177441835403442383e+00 3.787607669830322266e+00
3.832000000000000000e+03 5.688692092895507812e+01 -1.214292907714843750e+01 2.728969454765319824e-01 5.888514518737792969e+00 1.848423480987548828e+00 3.407494544982910156e+00
3.833000000000000000e+03 5.851117706298828125e+01 -1.507539033889770508e+00 -2.502712309360504150e-01 9.126382827758789062e+00 2.662833452224731445e+00 -3.527532339096069336e+00
3.834000000000000000e+03 5.629936218261718750e+01 -7.674142718315124512e-02 2.580567300319671631e-01 5.100119113922119141e+00 1.607452750205993652e+00 -3.105380058288574219e+00
3.835000000000000000e+03 5.800135803222656250e+01 -1.134011626243591309e+00 -8.879013359546661377e-02 7.946150779724121094e+00 2.357208251953125000e+00 -3.570291519165039062e+00
3.836000000000000000e+03 5.665538406372070312e+01 7.538662552833557129e-01 2.242783829569816589e-02 5.743341922760009766e+00 1.729730963706970215e+00 -2.980812788009643555e+00
3.837000000000000000e+03 6.473165893554687500e+01 -1.409630393981933594e+01 -4.090746045112609863e-01 9.843615531921386719e+00 2.830362319946289062e+00 -6.484440565109252930e-01
3.838000000000000000e+03 5.551737594604492188e+01 8.253406882286071777e-01 2.484088987112045288e-01 4.431780338287353516e+00 1.404056787490844727e+00 -2.738755702972412109e+00
3.839000000000000000e+03 5.547057342529296875e+01 3.034153878688812256e-01 3.509350121021270752e-01 4.204207420349121094e+00 1.366542696952819824e+00 -2.799319267272949219e+00
3.840000000000000000e+03 6.227091979980468750e+01 -2.560435533523559570e+00 7.801024913787841797e-01 1.263421154022216797e+01 4.024294376373291016e+00 8.756353855133056641e-01
3.841000000000000000e+03 6.148184967041015625e+01 -2.880244731903076172e+00 5.951595902442932129e-01 1.364398002624511719e+01 4.271741867065429688e+00 4.805098772048950195e-01
3.842000000000000000e+03 6.688955688476562500e+01 -5.086956024169921875e+00 2.613023281097412109e+00 8.985545158386230469e+00 3.479570627212524414e+00 5.641275644302368164e-01
3.843000000000000000e+03 6.339310073852539062e+01 -4.842334270477294922e+00 4.130266666412353516e+00 1.142718219757080078e+01 4.667234420776367188e+00 1.363272309303283691e+00
3.844000000000000000e+03 6.755617523193359375e+01 -5.924644470214843750e+00 2.523169755935668945e+00 8.694499015808105469e+00 3.365300655364990234e+00 2.074089795351028442e-01
3.845000000000000000e+03 5.938254928588867188e+01 -1.213625240325927734e+01 -6.976360678672790527e-01 1.007927131652832031e+01 2.814490556716918945e+00 2.565589904785156250e+00
3.846000000000000000e+03 5.783716201782226562e+01 -1.180599308013916016e+01 -2.649362944066524506e-02 7.605383396148681641e+00 2.273667097091674805e+00 3.509664535522460938e+00
3.847000000000000000e+03 5.525973510742187500e+01 -1.549751377105712891e+01 9.634196013212203979e-02 4.492348194122314453e+00 1.376606941223144531e+00 2.324398994445800781e+00
3.848000000000000000e+03 5.670806503295898438e+01 -1.426947784423828125e+01 -8.923210948705673218e-02 5.801638126373291016e+00 1.713721871376037598e+00 2.712057828903198242e+00
3.849000000000000000e+03 6.775009155273437500e+01 -8.825615882873535156e+00 1.968789458274841309e+00 8.773604393005371094e+00 3.222718238830566406e+00 -8.880407810211181641e-01
3.850000000000000000e+03 6.725683593750000000e+01 -8.567507743835449219e+00 2.200298070907592773e+00 8.949849128723144531e+00 3.345044136047363281e+00 -8.682341575622558594e-01
3.851000000000000000e+03 5.603036499023437500e+01 -1.413442707061767578e+01 9.991800040006637573e-02 5.080478668212890625e+00 1.554118990898132324e+00 2.714452743530273438e+00
3.852000000000000000e+03 6.720783996582031250e+01 -6.818100452423095703e+00 2.661652803421020508e+00 8.823261260986328125e+00 3.445474147796630859e+00 -1.976706385612487793e-01
3.853000000000000000e+03 6.750743865966796875e+01 -5.443202495574951172e+00 2.465217351913452148e+00 8.734806060791015625e+00 3.360007047653198242e+00 3.912841081619262695e-01
3.854000000000000000e+03 6.703285980224609375e+01 -3.723405361175537109e+00 2.073643922805786133e+00 9.060996055603027344e+00 3.340391874313354492e+00 1.001193881034851074e+00
3.855000000000000000e+03 6.696092987060546875e+01 -4.172942638397216797e+00 2.264120817184448242e+00 9.066378593444824219e+00 3.399149894714355469e+00 9.081395864486694336e-01
3.856000000000000000e+03 5.683058929443359375e+01 1.056442707777023315e-01 8.193366229534149170e-02 5.889304161071777344e+00 1.791371345520019531e+00 -3.182131767272949219e+00
3.857000000000000000e+03 6.543035125732421875e+01 -1.443598461151123047e+01 -3.718623220920562744e-01 9.603005409240722656e+00 2.769343137741088867e+00 -7.691982388496398926e-01
3.858000000000000000e+03 6.455238342285156250e+01 -1.570664691925048828e+01 -7.270495295524597168e-01 9.390965461730957031e+00 2.599174737930297852e+00 -3.304572701454162598e-01
3.859000000000000000e+03 6.602575683593750000e+01 -1.502129316329956055e+00 9.329693913459777832e-01 9.798378944396972656e+00 3.219404458999633789e+00 1.294372081756591797e+00
3.860000000000000000e+03 5.548162460327148438e+01 1.483228325843811035e+00 1.528999656438827515e-01 4.545469284057617188e+00 1.409510850906372070e+00 -2.617570638656616211e+00
3.861000000000000000e+03 5.663319778442382812e+01 1.825100779533386230e+00 -1.348754167556762695e-01 5.775417804718017578e+00 1.692162752151489258e+00 -2.675776243209838867e+00
3.862000000000000000e+03 6.356953430175781250e+01 -8.532946586608886719e+00 3.372698068618774414e+00 1.139901733398437500e+01 4.431514739990234375e+00 -1.521822333335876465e+00
3.863000000000000000e+03 6.760031890869140625e+01 -9.257926940917968750e+00 1.829182863235473633e+00 8.875595092773437500e+00 3.211433410644531250e+00 -1.003112435340881348e+00
3.864000000000000000e+03 6.524998474121093750e+01 -6.619409084320068359e+00 3.728553771972656250e+00 9.695704460144042969e+00 4.027277469635009766e+00 -1.619673967361450195e-01
3.865000000000000000e+03 5.543820953369140625e+01 -1.884591102600097656e+01 -1.258290410041809082e-01 4.857247829437255859e+00 1.419425606727600098e+00 1.786408662796020508e+00
3.866000000000000000e+03 5.471297073364257812e+01 -1.574847221374511719e+01 1.646458506584167480e-01 4.075366497039794922e+00 1.272003769874572754e+00 2.231567382812500000e+00
3.867000000000000000e+03 6.660533142089843750e+01 -3.640599727630615234e+00 2.094908475875854492e+00 9.339084625244140625e+00 3.430197954177856445e+00 1.085225343704223633e+00
3.868000000000000000e+03 5.428650283813476562e+01 5.845644474029541016e+00 -2.279463224112987518e-02 4.231774330139160156e+00 1.262693881988525391e+00 -1.770879864692687988e+00
3.869000000000000000e+03 5.415853118896484375e+01 4.136526584625244141e+00 8.096152544021606445e-02 3.949975490570068359e+00 1.209281086921691895e+00 -1.994103193283081055e+00
3.870000000000000000e+03 6.647396087646484375e+01 -1.894639611244201660e+00 1.197726845741271973e+00 9.559290885925292969e+00 3.227105379104614258e+00 1.313921689987182617e+00
3.871000000000000000e+03 6.554791259765625000e+01 -1.322592639923095703e+01 -1.501765847206115723e-02 9.812265396118164062e+00 2.939174175262451172e+00 -9.900686740875244141e-01
3.872000000000000000e+03 6.548253631591796875e+01 -1.188566875457763672e+01 5.884557962417602539e-01 1.001265716552734375e+01 3.180334091186523438e+00 -1.219998002052307129e+00
3.873000000000000000e+03 5.583478546142578125e+01 -1.787702369689941406e+01 -1.604076772928237915e-01 5.066696643829345703e+00 1.471886754035949707e+00 1.949724316596984863e+00
3.874000000000000000e+03 6.497198486328125000e+01 3.890340805053710938e+00 -7.956572175025939941e-01 9.087096214294433594e+00 2.487431764602661133e+00 3.072436451911926270e-01
3.875000000000000000e+03 6.512001037597656250e+01 1.590025305747985840e+00 -4.453500509262084961e-01 9.693574905395507812e+00 2.774467468261718750e+00 6.778766512870788574e-01
3.876000000000000000e+03 6.201982879638671875e+01 -2.251515865325927734e+00 2.961841523647308350e-01 1.257754325866699219e+01 3.862118244171142578e+00 4.709358811378479004e-01
3.877000000000000000e+03 6.639959716796875000e+01 -1.192187690734863281e+01 6.549995541572570801e-01 9.582522392272949219e+00 3.071256637573242188e+00 -1.254919886589050293e+00
3.878000000000000000e+03 5.326287841796875000e+01 6.427714347839355469e+00 7.391685992479324341e-02 3.729159355163574219e+00 1.140922904014587402e+00 -1.619001626968383789e+00
3.879000000000000000e+03 3.358776473999023438e+01 7.166549682617187500e+00 -2.140244096517562866e-01 2.154757231473922729e-01 4.353949043434113264e-04 5.726004838943481445e-01
3.880000000000000000e+03 5.214341735839843750e+01 6.819924354553222656e+00 1.584003567695617676e-01 3.249513864517211914e+00 1.022374272346496582e+00 -1.435073256492614746e+00
3.881000000000000000e+03 6.587840270996093750e+01 9.184763431549072266e-01 -1.159462332725524902e-01 9.582829475402832031e+00 2.840065002441406250e+00 9.599223136901855469e-01
3.882000000000000000e+03 6.308219528198242188e+01 6.700565814971923828e+00 -9.724843502044677734e-01 8.205072402954101562e+00 2.169776439666748047e+00 -4.030944406986236572e-01
3.883000000000000000e+03 6.354043197631835938e+01 3.896238803863525391e+00 -9.360255599021911621e-01 9.056973457336425781e+00 2.436284303665161133e+00 -1.215405538678169250e-01
3.884000000000000000e+03 6.195845031738281250e+01 7.914889812469482422e+00 -8.796596527099609375e-01 7.596597671508789062e+00 2.015081405639648438e+00 -6.482086777687072754e-01
3.885000000000000000e+03 6.507698822021484375e+01 -1.619665145874023438e+01 -7.209238409996032715e-01 9.208292961120605469e+00 2.546210765838623047e+00 -4.127022922039031982e-01
3.886000000000000000e+03 6.338574218750000000e+01 -1.961594009399414062e+01 -9.037915468215942383e-01 8.166119575500488281e+00 2.178698539733886719e+00 2.818554043769836426e-01
3.887000000000000000e+03 6.336139297485351562e+01 -2.090364074707031250e+01 -8.547349572181701660e-01 7.854091167449951172e+00 2.099807024002075195e+00 3.052944540977478027e-01
3.888000000000000000e+03 6.445891571044921875e+01 -1.679821968078613281e+01 -8.339644670486450195e-01 9.044511795043945312e+00 2.463164329528808594e+00 -1.662061661481857300e-01
3.889000000000000000e+03 3.574908065795898438e+01 1.080874347686767578e+01 -5.216936580836772919e-03 5.306938886642456055e-01 1.576430946588516235e-01 3.394476175308227539e-01
3.890000000000000000e+03 3.628061676025390625e+01 8.380752563476562500e+00 -7.225254923105239868e-02 4.335850477218627930e-01 1.083997488021850586e-01 4.058036506175994873e-01
3.891000000000000000e+03 4.475429153442382812e+01 8.142992973327636719e+00 2.387621253728866577e-01 1.313356041908264160e+00 4.656354188919067383e-01 -3.418546617031097412e-01
3.892000000000000000e+03 4.205992889404296875e+01 9.910156250000000000e+00 2.076973766088485718e-01 1.085224270820617676e+00 3.878765106201171875e-01 -1.058722063899040222e-01
3.893000000000000000e+03 4.115184783935546875e+01 8.207531929016113281e+00 1.194256171584129333e-01 8.361057043075561523e-01 2.866593897342681885e-01 3.717805445194244385e-02
3.894000000000000000e+03 5.172767257690429688e+01 -2.120601081848144531e+01 2.532925307750701904e-01 3.171663284301757812e+00 1.027486681938171387e+00 1.291231274604797363e+00
3.895000000000000000e+03 5.918096542358398438e+01 1.508187484741210938e+01 -3.926111161708831787e-01 5.883357524871826172e+00 1.647223949432373047e+00 -6.868393421173095703e-01
3.896000000000000000e+03 5.480293655395507812e+01 -1.953011703491210938e+01 -4.349111393094062805e-02 4.486293792724609375e+00 1.332840800285339355e+00 1.673022508621215820e+00
3.897000000000000000e+03 4.856672286987304688e+01 6.587367534637451172e+00 2.827190756797790527e-01 1.949216604232788086e+00 6.695806980133056641e-01 -8.772932291030883789e-01
3.898000000000000000e+03 5.140464782714843750e+01 -2.860562324523925781e+01 2.648491263389587402e-01 3.462792634963989258e+00 1.118292570114135742e+00 7.346070408821105957e-01
3.899000000000000000e+03 3.260951995849609375e+01 1.771927833557128906e+01 8.169432729482650757e-02 5.117928981781005859e-01 1.780461668968200684e-01 1.910854876041412354e-01
3.900000000000000000e+03 5.921360015869140625e+01 -2.542444038391113281e+01 -4.438936114311218262e-01 6.037662029266357422e+00 1.678130507469177246e+00 7.695388197898864746e-01
3.901000000000000000e+03 5.983509063720703125e+01 -2.826707077026367188e+01 -3.438616096973419189e-01 5.965983390808105469e+00 1.686636567115783691e+00 5.309610962867736816e-01
3.902000000000000000e+03 3.766332244873046875e+01 -2.135119438171386719e+01 2.149691432714462280e-01 4.128775298595428467e-01 1.883540004491806030e-01 -1.594098061323165894e-01
3.903000000000000000e+03 4.413669967651367188e+01 -2.387852668762207031e+01 4.807647168636322021e-01 1.387584209442138672e+00 5.605046749114990234e-01 3.751581311225891113e-01
3.904000000000000000e+03 3.967015457153320312e+01 -2.358324432373046875e+01 4.101643860340118408e-01 7.179828286170959473e-01 3.384441733360290527e-01 3.925524279475212097e-02
3.905000000000000000e+03 6.218784713745117188e+01 6.743219375610351562e+00 -9.624201655387878418e-01 8.007678985595703125e+00 2.113577604293823242e+00 -6.260201334953308105e-01
3.906000000000000000e+03 3.273090744018554688e+01 -2.320137596130371094e+01 2.122917324304580688e-01 1.973270624876022339e-01 1.228856369853019714e-01 -3.364497125148773193e-01
3.907000000000000000e+03 3.987611770629882812e+01 -2.646715164184570312e+01 5.288096666336059570e-01 9.467843174934387207e-01 4.426782131195068359e-01 9.573380649089813232e-02
3.908000000000000000e+03 3.414810943603515625e+01 -2.221848297119140625e+01 1.828130483627319336e-01 2.513278126716613770e-01 1.302422583103179932e-01 -3.139443695545196533e-01
3.909000000000000000e+03 5.601692962646484375e+01 1.759920120239257812e+01 -1.344774365425109863e-01 4.896472930908203125e+00 1.428598642349243164e+00 -7.069221735000610352e-01
3.910000000000000000e+03 6.026231765747070312e+01 1.625174713134765625e+01 -3.941262364387512207e-01 6.041499614715576172e+00 1.694211959838867188e+00 -5.643422603607177734e-01
3.911000000000000000e+03 6.361629867553710938e+01 -7.874486446380615234e+00 4.042542934417724609e+00 1.114714717864990234e+01 4.556906700134277344e+00 -1.245277523994445801e+00
3.912000000000000000e+03 5.915855026245117188e+01 -1.157800960540771484e+01 -5.486683249473571777e-01 1.011256217956542969e+01 2.869168281555175781e+00 2.921442270278930664e+00
3.913000000000000000e+03 6.410014343261718750e+01 -6.247554302215576172e+00 4.593386173248291016e+00 1.046793079376220703e+01 4.518394947052001953e+00 1.151567697525024414e-01
3.914000000000000000e+03 5.756790542602539062e+01 -4.408407807350158691e-01 -6.691998243331909180e-02 7.060613632202148438e+00 2.098108053207397461e+00 -3.364139556884765625e+00
3.915000000000000000e+03 6.053671646118164062e+01 -2.338533639907836914e+00 -3.853932023048400879e-01 1.300918197631835938e+01 3.787136554718017578e+00 -1.203545570373535156e+00
3.916000000000000000e+03 5.878994750976562500e+01 -1.005357742309570312e+00 -4.720219373703002930e-01 9.344592094421386719e+00 2.661771059036254883e+00 -3.175432205200195312e+00
3.917000000000000000e+03 5.762332153320312500e+01 2.617706060409545898e+00 -4.721750915050506592e-01 6.693696498870849609e+00 1.866456508636474609e+00 -2.372925043106079102e+00
3.918000000000000000e+03 5.723951721191406250e+01 1.088078141212463379e+00 -2.243768423795700073e-01 6.431655406951904297e+00 1.862183570861816406e+00 -2.858165740966796875e+00
3.919000000000000000e+03 5.897639083862304688e+01 -1.260924148559570312e+01 -6.248913407325744629e-01 9.094102859497070312e+00 2.540763378143310547e+00 2.714430332183837891e+00
3.920000000000000000e+03 6.481432342529296875e+01 -1.339070892333984375e+01 -2.012239694595336914e-01 1.001491928100585938e+01 2.944108486175537109e+00 -8.050571084022521973e-01
3.921000000000000000e+03 6.381731414794921875e+01 -5.262612819671630859e+00 4.334429264068603516e+00 1.085944557189941406e+01 4.558162689208984375e+00 1.002040982246398926e+00
3.922000000000000000e+03 6.276300811767578125e+01 -4.172822952270507812e+00 3.242369413375854492e+00 1.240639877319335938e+01 4.694630146026611328e+00 1.680237293243408203e+00
3.923000000000000000e+03 5.734342575073242188e+01 -1.220364475250244141e+01 8.045029640197753906e-02 6.640752792358398438e+00 2.016360759735107422e+00 3.392426729202270508e+00
3.924000000000000000e+03 5.685164260864257812e+01 -1.275024509429931641e+01 1.243111565709114075e-01 5.938398838043212891e+00 1.818812966346740723e+00 3.192707061767578125e+00
3.925000000000000000e+03 6.539756774902343750e+01 -4.650851190090179443e-01 3.063263297080993652e-01 1.000561141967773438e+01 3.093581199645996094e+00 1.120254039764404297e+00
3.926000000000000000e+03 6.707878875732421875e+01 -1.084548473358154297e+01 1.176901698112487793e+00 9.273518562316894531e+00 3.135126113891601562e+00 -1.290721654891967773e+00
3.927000000000000000e+03 6.703044891357421875e+01 -9.007458686828613281e+00 2.098310708999633789e+00 9.102733612060546875e+00 3.360313177108764648e+00 -1.015982747077941895e+00
3.928000000000000000e+03 6.601079559326171875e+01 -1.016757774353027344e+01 1.599646806716918945e+00 9.732604026794433594e+00 3.399675130844116211e+00 -1.322846174240112305e+00
3.929000000000000000e+03 6.609597778320312500e+01 -1.136131954193115234e+01 8.893691897392272949e-01 9.749948501586914062e+00 3.191795110702514648e+00 -1.296864151954650879e+00
3.930000000000000000e+03 6.705732727050781250e+01 -5.903068542480468750e+00 2.766630649566650391e+00 8.885957717895507812e+00 3.495776653289794922e+00 2.328104674816131592e-01
3.931000000000000000e+03 6.472051239013671875e+01 -2.953108549118041992e+00 1.865305662155151367e+00 1.053596210479736328e+01 3.720380306243896484e+00 1.428335666656494141e+00
3.932000000000000000e+03 5.905052566528320312e+01 -1.223053932189941406e+01 -6.031399965286254883e-01 9.559452056884765625e+00 2.686893463134765625e+00 2.758206844329833984e+00
3.933000000000000000e+03 5.631429672241210938e+01 1.056710600852966309e+00 5.942213535308837891e-02 5.291486740112304688e+00 1.605272650718688965e+00 -2.819082021713256836e+00
3.934000000000000000e+03 6.625867462158203125e+01 -3.384604215621948242e+00 2.079340457916259766e+00 9.519771575927734375e+00 3.479733467102050781e+00 1.203101038932800293e+00
3.935000000000000000e+03 6.578728485107421875e+01 -5.139420032501220703e+00 3.129421949386596680e+00 9.506192207336425781e+00 3.790684223175048828e+00 6.703372001647949219e-01
3.936000000000000000e+03 6.556061553955078125e+01 -1.214544892311096191e+00 7.307198047637939453e-01 1.000797939300537109e+01 3.221609830856323242e+00 1.253205180168151855e+00
3.937000000000000000e+03 6.377770233154296875e+01 -1.733944511413574219e+01 -9.207953810691833496e-01 8.879045486450195312e+00 2.387475013732910156e+00 9.110227972269058228e-02
3.938000000000000000e+03 6.564579772949218750e+01 1.476176083087921143e-01 1.267372071743011475e-01 9.810568809509277344e+00 2.981191873550415039e+00 1.047236919403076172e+00
3.939000000000000000e+03 6.293011093139648438e+01 3.334327220916748047e+00 -9.843665957450866699e-01 9.250028610229492188e+00 2.479698657989501953e+00 -3.448228240013122559e-01
3.940000000000000000e+03 6.344100570678710938e+01 2.863781929016113281e+00 -8.916559219360351562e-01 9.435747146606445312e+00 2.563227415084838867e+00 -8.810203522443771362e-02
3.941000000000000000e+03 6.176891326904296875e+01 5.377636909484863281e+00 -1.006460428237915039e+00 8.302251815795898438e+00 2.188737392425537109e+00 -7.632295489311218262e-01
3.942000000000000000e+03 6.530963897705078125e+01 -1.260403919219970703e+01 1.937659531831741333e-01 1.002206325531005859e+01 3.064748764038085938e+00 -1.064532637596130371e+00
3.943000000000000000e+03 6.208909988403320312e+01 -1.031567955017089844e+01 5.721490383148193359e-01 1.274120235443115234e+01 3.994005441665649414e+00 -7.026452422142028809e-01
3.944000000000000000e+03 5.534767150878906250e+01 2.786970615386962891e+00 4.703584313392639160e-02 4.661114692687988281e+00 1.412445187568664551e+00 -2.406554222106933594e+00
3.945000000000000000e+03 6.660578918457031250e+01 -1.111636257171630859e+01 1.033476114273071289e+00 9.475866317749023438e+00 3.152802944183349609e+00 -1.290387749671936035e+00
3.946000000000000000e+03 6.545645141601562500e+01 -8.101124763488769531e+00 3.054783821105957031e+00 9.785835266113281250e+00 3.852185726165771484e+00 -9.571554064750671387e-01
3.947000000000000000e+03 6.599848937988281250e+01 -2.236503124237060547e+00 1.366774678230285645e+00 9.769299507141113281e+00 3.340822458267211914e+00 1.330920219421386719e+00
3.948000000000000000e+03 4.762777709960937500e+01 7.476758003234863281e+00 2.821532785892486572e-01 1.828113555908203125e+00 6.330800652503967285e-01 -7.288740277290344238e-01
3.949000000000000000e+03 4.662033462524414062e+01 8.377019882202148438e+00 2.791597843170166016e-01 1.710103273391723633e+00 5.967789292335510254e-01 -5.948362350463867188e-01
3.950000000000000000e+03 5.768887710571289062e+01 -1.604228782653808594e+01 -4.652408063411712646e-01 6.613284587860107422e+00 1.844413161277770996e+00 2.181402444839477539e+00
3.951000000000000000e+03 5.529671478271484375e+01 5.306921482086181641e+00 -1.422646492719650269e-01 4.772965431213378906e+00 1.389210224151611328e+00 -1.926922678947448730e+00
3.952000000000000000e+03 6.498305511474609375e+01 -1.740529823303222656e+01 -8.155207037925720215e-01 8.887310981750488281e+00 2.421537160873413086e+00 -2.595418095588684082e-01
3.953000000000000000e+03 6.325703430175781250e+01 2.301968097686767578e+00 -8.617765307426452637e-01 9.671669006347656250e+00 2.642967700958251953e+00 -9.724814444780349731e-02
3.954000000000000000e+03 6.510884094238281250e+01 -1.212434959411621094e+01 3.704008162021636963e-01 1.017892646789550781e+01 3.164798021316528320e+00 -1.123915433883666992e+00
3.955000000000000000e+03 6.632077026367187500e+01 -1.060981655120849609e+01 1.341171026229858398e+00 9.611579895019531250e+00 3.285825252532958984e+00 -1.313132405281066895e+00
3.956000000000000000e+03 5.818614578247070312e+01 1.370895004272460938e+01 -3.893209993839263916e-01 5.678274154663085938e+00 1.586685895919799805e+00 -8.276618719100952148e-01
3.957000000000000000e+03 6.258131408691406250e+01 5.902668952941894531e+00 -9.989393353462219238e-01 8.331762313842773438e+00 2.199846982955932617e+00 -5.344349145889282227e-01
3.958000000000000000e+03 6.129878234863281250e+01 6.304029464721679688e+00 -9.245399832725524902e-01 7.805434703826904297e+00 2.064268350601196289e+00 -8.590099811553955078e-01
3.959000000000000000e+03 5.104217147827148438e+01 7.334087371826171875e+00 2.045463174581527710e-01 2.903337478637695312e+00 9.323651194572448730e-01 -1.253858566284179688e+00
3.960000000000000000e+03 5.011634445190429688e+01 8.155983924865722656e+00 2.363052219152450562e-01 2.653494596481323242e+00 8.669399619102478027e-01 -1.074645280838012695e+00
3.961000000000000000e+03 5.741033554077148438e+01 -2.220438766479492188e+01 -3.855321407318115234e-01 5.690510749816894531e+00 1.591493606567382812e+00 1.235620021820068359e+00
3.962000000000000000e+03 6.213769149780273438e+01 -2.089704895019531250e+01 -8.497332930564880371e-01 7.618513107299804688e+00 2.030633926391601562e+00 5.745853781700134277e-01
3.963000000000000000e+03 3.823878860473632812e+01 8.795370101928710938e+00 2.745771221816539764e-02 6.106435060501098633e-01 1.914303749799728394e-01 2.635796070098876953e-01
3.964000000000000000e+03 3.901937484741210938e+01 9.800737380981445312e+00 8.972909301519393921e-02 7.523413896560668945e-01 2.526211440563201904e-01 1.669500023126602173e-01
3.965000000000000000e+03 6.194981384277343750e+01 -2.237650299072265625e+01 -7.553183436393737793e-01 7.273083209991455078e+00 1.955329418182373047e+00 5.518856048583984375e-01
3.966000000000000000e+03 4.344893646240234375e+01 8.584825515747070312e+00 2.160379588603973389e-01 1.162471890449523926e+00 4.135529696941375732e-01 -2.089113891124725342e-01
3.967000000000000000e+03 5.625695800781250000e+01 -1.553397083282470703e+01 -1.068449765443801880e-01 5.394139766693115234e+00 1.586188435554504395e+00 2.413350105285644531e+00
3.968000000000000000e+03 5.566616821289062500e+01 -1.620381164550781250e+01 -3.151686489582061768e-02 4.864384174346923828e+00 1.449860215187072754e+00 2.244489431381225586e+00
3.969000000000000000e+03 4.551264953613281250e+01 9.304978370666503906e+00 2.755776643753051758e-01 1.594734668731689453e+00 5.610936880111694336e-01 -4.571332037448883057e-01
3.970000000000000000e+03 3.765745544433593750e+01 -2.366196823120117188e+01 3.684548139572143555e-01 5.592384934425354004e-01 2.783080041408538818e-01 -9.244193881750106812e-02
3.971000000000000000e+03 4.499700927734375000e+01 -2.231573486328125000e+01 4.363482594490051270e-01 1.400049924850463867e+00 5.509194135665893555e-01 4.572986960411071777e-01
3.972000000000000000e+03 5.030312347412109375e+01 -2.281485176086425781e+01 3.202325701713562012e-01 2.857848405838012695e+00 9.534243345260620117e-01 1.054547786712646484e+00
3.973000000000000000e+03 6.395722198486328125e+01 -1.622742271423339844e+01 -8.574655652046203613e-01 9.237581253051757812e+00 2.514034748077392578e+00 -5.466834455728530884e-02
3.974000000000000000e+03 3.941675567626953125e+01 7.988287925720214844e+00 3.345615044236183167e-02 6.392314434051513672e-01 2.018062919378280640e-01 2.063113600015640259e-01
3.975000000000000000e+03 3.308295822143554688e+01 9.443012237548828125e+00 -1.600719690322875977e-01 2.553499341011047363e-01 2.858338691294193268e-02 5.121596455574035645e-01
3.976000000000000000e+03 3.186737632751464844e+01 8.995553016662597656e+00 -2.141708433628082275e-01 1.756057143211364746e-01 -1.156953815370798111e-02 5.705132484436035156e-01
3.977000000000000000e+03 5.532344818115234375e+01 8.059550285339355469e+00 -2.149697393178939819e-01 4.844638347625732422e+00 1.388900518417358398e+00 -1.540524244308471680e+00
3.978000000000000000e+03 5.585637664794921875e+01 9.329531669616699219e+00 -2.840337455272674561e-01 5.057123661041259766e+00 1.431926965713500977e+00 -1.371253848075866699e+00
3.979000000000000000e+03 5.644546127319335938e+01 -2.625047683715820312e+01 -1.813244521617889404e-01 5.063015460968017578e+00 1.464507341384887695e+00 8.814797401428222656e-01
3.980000000000000000e+03 5.809963607788085938e+01 -2.732744216918945312e+01 -2.756755650043487549e-01 5.550328731536865234e+00 1.582395911216735840e+00 7.011254429817199707e-01
3.981000000000000000e+03 6.056853485107421875e+01 -2.206293869018554688e+01 -6.954600811004638672e-01 6.918693542480468750e+00 1.866970062255859375e+00 8.192484378814697266e-01
3.982000000000000000e+03 6.077812194824218750e+01 7.279496669769287109e+00 -8.584083914756774902e-01 7.360319137573242188e+00 1.950573205947875977e+00 -9.742836356163024902e-01
3.983000000000000000e+03 6.233850860595703125e+01 1.038620090484619141e+01 -7.804096341133117676e-01 7.240179061889648438e+00 1.937930822372436523e+00 -5.234501361846923828e-01
3.984000000000000000e+03 3.793759918212890625e+01 1.079657554626464844e+01 8.249974995851516724e-02 7.227508425712585449e-01 2.415751814842224121e-01 2.058880478143692017e-01
3.985000000000000000e+03 3.816397094726562500e+01 -2.611617851257324219e+01 4.934295117855072021e-01 7.403342723846435547e-01 3.701291382312774658e-01 -5.511401686817407608e-03
3.986000000000000000e+03 3.876820755004882812e+01 -2.455393028259277344e+01 4.420133531093597412e-01 6.921437382698059082e-01 3.402471244335174561e-01 -9.088548831641674042e-03
3.987000000000000000e+03 2.941958236694335938e+01 -2.469249153137207031e+01 2.159935683012008667e-01 8.480674028396606445e-02 9.024009108543395996e-02 -3.583967983722686768e-01
3.988000000000000000e+03 3.226420211791992188e+01 -2.624887084960937500e+01 3.651511967182159424e-01 2.498526126146316528e-01 1.845011413097381592e-01 -2.740511298179626465e-01
3.989000000000000000e+03 6.058784103393554688e+01 2.017894935607910156e+01 -2.394170612096786499e-01 5.865501880645751953e+00 1.687825441360473633e+00 -4.122847020626068115e-01
3.990000000000000000e+03 6.354802703857421875e+01 -8.193372726440429688e+00 3.766566514968872070e+00 1.132157039642333984e+01 4.526441097259521484e+00 -1.418411493301391602e+00
3.991000000000000000e+03 6.009697723388671875e+01 -1.190163254737854004e+00 -7.698874473571777344e-01 1.132324600219726562e+01 3.166007757186889648e+00 -1.942060589790344238e+00
3.992000000000000000e+03 6.070484161376953125e+01 -1.955544233322143555e+00 -5.247521996498107910e-01 1.267126941680908203e+01 3.643954992294311523e+00 -1.083001017570495605e+00
3.993000000000000000e+03 6.098160171508789062e+01 -2.277610540390014648e+00 -2.708591222763061523e-01 1.319467353820800781e+01 3.877144336700439453e+00 -5.757375955581665039e-01
3.994000000000000000e+03 5.987406921386718750e+01 -1.186266136169433594e+01 -7.519504427909851074e-01 1.080042171478271484e+01 3.014541387557983398e+00 2.163132190704345703e+00
3.995000000000000000e+03 6.450901794433593750e+01 1.427502393722534180e+00 -5.302680134773254395e-01 9.887561798095703125e+00 2.807188272476196289e+00 5.243172645568847656e-01
3.996000000000000000e+03 6.158124923706054688e+01 -1.037394618988037109e+01 1.831558495759963989e-01 1.309246349334716797e+01 3.982685804367065430e+00 -1.767784655094146729e-01
3.997000000000000000e+03 6.028779602050781250e+01 -1.144901084899902344e+01 -7.071587443351745605e-01 1.164823341369628906e+01 3.282322168350219727e+00 1.685868382453918457e+00
3.998000000000000000e+03 5.913837051391601562e+01 -6.015598773956298828e-01 -6.481255888938903809e-01 9.620478630065917969e+00 2.691705703735351562e+00 -2.744339466094970703e+00
3.999000000000000000e+03 6.456407928466796875e+01 -5.674805164337158203e+00 4.019022464752197266e+00 1.016429138183593750e+01 4.254994392395019531e+00 5.512850880622863770e-01
4.000000000000000000e+03 5.753627395629882812e+01 1.697884321212768555e+00 -3.701730072498321533e-01 6.716687679290771484e+00 1.903954386711120605e+00 -2.640419721603393555e+00
4.001000000000000000e+03 6.406839752197265625e+01 -8.795208930969238281e+00 2.975545883178710938e+00 1.094156074523925781e+01 4.175131797790527344e+00 -1.441557526588439941e+00
4.002000000000000000e+03 5.866614913940429688e+01 -1.185728168487548828e+01 -3.964780867099761963e-01 9.073420524597167969e+00 2.603082656860351562e+00 3.155059576034545898e+00
4.003000000000000000e+03 5.828074264526367188e+01 -1.232849788665771484e+01 -3.339599072933197021e-01 8.254115104675292969e+00 2.376046657562255859e+00 3.183702707290649414e+00
4.004000000000000000e+03 6.038173294067382812e+01 -1.279158473014831543e+00 -7.538779973983764648e-01 1.167300987243652344e+01 3.275739669799804688e+00 -1.628099441528320312e+00
4.005000000000000000e+03 6.299039840698242188e+01 -1.013370704650878906e+01 1.253638625144958496e+00 1.204780197143554688e+01 3.990432262420654297e+00 -1.270498871803283691e+00
4.006000000000000000e+03 6.697491455078125000e+01 -5.515243530273437500e+00 2.700740098953247070e+00 8.931296348571777344e+00 3.489610910415649414e+00 4.002270698547363281e-01
4.007000000000000000e+03 6.161157989501953125e+01 -1.095745658874511719e+01 -1.688749939203262329e-01 1.244138240814208984e+01 3.681752204895019531e+00 5.379852280020713806e-02
4.008000000000000000e+03 6.118875885009765625e+01 -1.088207817077636719e+01 -3.230522572994232178e-01 1.264245414733886719e+01 3.695820569992065430e+00 4.699914157390594482e-01
4.009000000000000000e+03 5.739620208740234375e+01 -1.358039474487304688e+01 -1.994904279708862305e-01 6.664512157440185547e+00 1.939506530761718750e+00 2.894979953765869141e+00
4.010000000000000000e+03 5.679333496093750000e+01 -1.346076202392578125e+01 1.418685819953680038e-02 5.891548633575439453e+00 1.771720647811889648e+00 2.974693775177001953e+00
4.011000000000000000e+03 5.826023864746093750e+01 -1.186323547363281250e+01 -2.392125278711318970e-01 8.391059875488281250e+00 2.445554256439208984e+00 3.403034925460815430e+00
4.012000000000000000e+03 5.779997634887695312e+01 -1.225844955444335938e+01 -1.245093345642089844e-01 7.453789710998535156e+00 2.198784112930297852e+00 3.330929040908813477e+00
4.013000000000000000e+03 5.775849914550781250e+01 -1.269004917144775391e+01 -1.709943115711212158e-01 7.346803188323974609e+00 2.152742624282836914e+00 3.203732728958129883e+00
4.014000000000000000e+03 5.733691787719726562e+01 -1.271347618103027344e+01 -2.073398604989051819e-02 6.634251117706298828e+00 1.984055161476135254e+00 3.203128337860107422e+00
4.015000000000000000e+03 6.485940551757812500e+01 -4.560904979705810547e+00 3.234369993209838867e+00 1.018062591552734375e+01 4.024498462677001953e+00 1.098928809165954590e+00
4.016000000000000000e+03 6.493569946289062500e+01 -2.922313809394836426e-01 1.496541202068328857e-01 1.014925003051757812e+01 3.089671373367309570e+00 1.003638505935668945e+00
4.017000000000000000e+03 5.799432754516601562e+01 -5.864518284797668457e-01 -2.100122272968292236e-01 7.773255825042724609e+00 2.268973112106323242e+00 -3.341427326202392578e+00
4.018000000000000000e+03 6.698142242431640625e+01 -6.246728420257568359e+00 2.788705825805664062e+00 8.911326408386230469e+00 3.510009765625000000e+00 6.531167775392532349e-02
4.019000000000000000e+03 6.689050292968750000e+01 -9.466828346252441406e+00 1.905904173851013184e+00 9.214181900024414062e+00 3.336025714874267578e+00 -1.131412625312805176e+00
4.020000000000000000e+03 6.414258575439453125e+01 -3.782491207122802734e+00 2.701932668685913086e+00 1.093731784820556641e+01 4.091775417327880859e+00 1.465687274932861328e+00
4.021000000000000000e+03 6.353145217895507812e+01 -9.969366073608398438e+00 1.549106597900390625e+00 1.152535820007324219e+01 3.922339439392089844e+00 -1.380999326705932617e+00
4.022000000000000000e+03 6.680984497070312500e+01 -1.043557262420654297e+01 1.433494448661804199e+00 9.379609107971191406e+00 3.243931293487548828e+00 -1.286079168319702148e+00
4.023000000000000000e+03 5.606908416748046875e+01 1.603675127029418945e+00 2.574531547725200653e-02 5.112975120544433594e+00 1.541616082191467285e+00 -2.693985462188720703e+00
4.024000000000000000e+03 5.676182937622070312e+01 1.229851126670837402e+00 -1.173870265483856201e-01 5.883941173553466797e+00 1.729966282844543457e+00 -2.803835868835449219e+00
4.025000000000000000e+03 6.517739868164062500e+01 9.190168976783752441e-01 -2.562337219715118408e-01 9.835785865783691406e+00 2.873865842819213867e+00 8.098511099815368652e-01
4.026000000000000000e+03 6.402768707275390625e+01 -1.394763660430908203e+01 -5.196767449378967285e-01 1.007295608520507812e+01 2.865983724594116211e+00 -4.346175789833068848e-01
4.027000000000000000e+03 6.444104003906250000e+01 -1.475362682342529297e+01 -6.137573719024658203e-01 9.679145812988281250e+00 2.719616651535034180e+00 -4.313938021659851074e-01
4.028000000000000000e+03 5.759976196289062500e+01 7.508569955825805664e-01 -3.009828627109527588e-01 6.952526092529296875e+00 1.995462894439697266e+00 -2.898191452026367188e+00
4.029000000000000000e+03 6.047803497314453125e+01 5.764717102050781250e+00 -8.910250663757324219e-01 7.646696567535400391e+00 2.026701450347900391e+00 -1.149916410446166992e+00
4.030000000000000000e+03 6.435659790039062500e+01 1.964935660362243652e+00 -6.373652815818786621e-01 9.757065773010253906e+00 2.735910177230834961e+00 4.018296897411346436e-01
4.031000000000000000e+03 6.337674331665039062e+01 -1.672412872314453125e+01 -9.367327094078063965e-01 9.063513755798339844e+00 2.438034296035766602e+00 1.799025833606719971e-01
4.032000000000000000e+03 6.392039489746093750e+01 4.428566992282867432e-01 -3.765349090099334717e-01 1.037187099456787109e+01 2.998600721359252930e+00 5.451753139495849609e-01
4.033000000000000000e+03 6.525691986083984375e+01 -1.667903900146484375e+00 9.496445655822753906e-01 1.019696998596191406e+01 3.343984365463256836e+00 1.289687752723693848e+00
4.034000000000000000e+03 5.584060668945312500e+01 3.318044424057006836e+00 -1.257781982421875000e-01 5.047302246093750000e+00 1.476457238197326660e+00 -2.228636264801025391e+00
4.035000000000000000e+03 5.507221603393554688e+01 4.293278694152832031e+00 -4.097878932952880859e-02 4.526871681213378906e+00 1.345767855644226074e+00 -2.069885015487670898e+00
4.036000000000000000e+03 6.192949295043945312e+01 -1.069526290893554688e+01 1.497169733047485352e-01 1.250107192993164062e+01 3.795236587524414062e+00 -3.282168507575988770e-01
4.037000000000000000e+03 6.392975616455078125e+01 2.642527818679809570e+00 -7.881749272346496582e-01 9.538990974426269531e+00 2.625244855880737305e+00 1.749617159366607666e-01
4.038000000000000000e+03 6.239398193359375000e+01 3.882175207138061523e+00 -1.020277500152587891e+00 8.961026191711425781e+00 2.382224798202514648e+00 -5.627996325492858887e-01
4.039000000000000000e+03 6.380272674560546875e+01 2.055282592773437500e+00 -7.303116321563720703e-01 9.754109382629394531e+00 2.707139253616333008e+00 2.180819809436798096e-01
4.040000000000000000e+03 5.684771347045898438e+01 -1.506969833374023438e+01 -1.997665911912918091e-01 5.915578842163085938e+00 1.714743614196777344e+00 2.517350673675537109e+00
4.041000000000000000e+03 6.489213562011718750e+01 -9.492907524108886719e+00 2.207576990127563477e+00 1.040409183502197266e+01 3.783500671386718750e+00 -1.426552295684814453e+00
4.042000000000000000e+03 6.559525299072265625e+01 -1.145624828338623047e+01 7.960960268974304199e-01 9.953032493591308594e+00 3.224738597869873047e+00 -1.263745069503784180e+00
4.043000000000000000e+03 3.219560241699218750e+01 7.972479343414306641e+00 -2.308774739503860474e-01 1.579182595014572144e-01 -2.188776247203350067e-02 5.901513695716857910e-01
4.044000000000000000e+03 5.721336746215820312e+01 4.191137313842773438e+00 -4.291583001613616943e-01 6.059477329254150391e+00 1.689095616340637207e+00 -2.103985786437988281e+00
4.045000000000000000e+03 6.328750228881835938e+01 -1.855117988586425781e+01 -9.441354870796203613e-01 8.438897132873535156e+00 2.248428344726562500e+00 2.999120652675628662e-01
4.046000000000000000e+03 5.258505249023437500e+01 7.852619171142578125e+00 8.615054190158843994e-02 3.545519828796386719e+00 1.089501142501831055e+00 -1.401654243469238281e+00
4.047000000000000000e+03 5.629739379882812500e+01 -1.695375251770019531e+01 -2.053157091140747070e-01 5.385263442993164062e+00 1.553984284400939941e+00 2.123533964157104492e+00
4.048000000000000000e+03 5.622447204589843750e+01 -1.948029136657714844e+01 -2.555079162120819092e-01 5.291448593139648438e+00 1.510782241821289062e+00 1.689954042434692383e+00
4.049000000000000000e+03 4.350817108154296875e+01 1.119122505187988281e+01 2.633984982967376709e-01 1.441406130790710449e+00 5.114414095878601074e-01 -2.742646336555480957e-01
4.050000000000000000e+03 4.017634201049804688e+01 8.990674972534179688e+00 1.125185415148735046e-01 8.061820268630981445e-01 2.756101787090301514e-01 9.678872674703598022e-02
4.051000000000000000e+03 6.124336242675781250e+01 -1.948645019531250000e+01 -8.812913298606872559e-01 7.689208030700683594e+00 2.042375087738037109e+00 8.566734194755554199e-01
4.052000000000000000e+03 5.481204223632812500e+01 6.905885219573974609e+00 -1.296007484197616577e-01 4.571489810943603516e+00 1.332566738128662109e+00 -1.673382520675659180e+00
4.053000000000000000e+03 5.454772567749023438e+01 -2.133026313781738281e+01 -4.643997550010681152e-02 4.446603298187255859e+00 1.320048928260803223e+00 1.425893187522888184e+00
4.054000000000000000e+03 5.550098419189453125e+01 -2.044009399414062500e+01 -1.597137898206710815e-01 4.866385936737060547e+00 1.412001729011535645e+00 1.548553466796875000e+00
4.055000000000000000e+03 4.343144226074218750e+01 9.875484466552734375e+00 2.447691112756729126e-01 1.277974247932434082e+00 4.568230211734771729e-01 -2.389126420021057129e-01
4.056000000000000000e+03 5.370339965820312500e+01 7.416581153869628906e+00 -9.457324631512165070e-03 4.027491092681884766e+00 1.205410122871398926e+00 -1.546178340911865234e+00
4.057000000000000000e+03 5.643735122680664062e+01 7.538593292236328125e+00 -3.580756485462188721e-01 5.408143520355224609e+00 1.515020251274108887e+00 -1.576205730438232422e+00
4.058000000000000000e+03 4.078110122680664062e+01 1.005986976623535156e+01 1.667810231447219849e-01 9.636086225509643555e-01 3.391169011592864990e-01 6.370251066982746124e-03
4.059000000000000000e+03 5.637705993652343750e+01 -2.134302902221679688e+01 -2.717218995094299316e-01 5.285510540008544922e+00 1.504136562347412109e+00 1.411412000656127930e+00
4.060000000000000000e+03 3.446639251708984375e+01 9.940766334533691406e+00 -8.572492748498916626e-02 3.761824369430541992e-01 8.713725209236145020e-02 4.357415437698364258e-01
4.061000000000000000e+03 5.334716796875000000e+01 -2.215202140808105469e+01 8.794774115085601807e-02 3.909046411514282227e+00 1.199098229408264160e+00 1.297106266021728516e+00
4.062000000000000000e+03 5.640031433105468750e+01 -2.357450675964355469e+01 -2.358911186456680298e-01 5.185661792755126953e+00 1.484931111335754395e+00 1.147470831871032715e+00
4.063000000000000000e+03 5.678369140625000000e+01 1.479313373565673828e+01 -2.628259360790252686e-01 5.207714080810546875e+00 1.483466506004333496e+00 -8.461328744888305664e-01
4.064000000000000000e+03 5.025942230224609375e+01 9.845659255981445312e+00 1.963278800249099731e-01 2.899078845977783203e+00 9.286220073699951172e-01 -1.025300979614257812e+00
4.065000000000000000e+03 4.748454666137695312e+01 9.319497108459472656e+00 2.787846624851226807e-01 2.037347316741943359e+00 6.948395967483520508e-01 -7.020212411880493164e-01
4.066000000000000000e+03 4.842582702636718750e+01 8.322938919067382812e+00 2.736941576004028320e-01 2.161253929138183594e+00 7.304844260215759277e-01 -8.396608829498291016e-01
4.067000000000000000e+03 3.543430709838867188e+01 -2.684175300598144531e+01 4.805147647857666016e-01 5.328606963157653809e-01 3.040126264095306396e-01 -1.472423672676086426e-01
4.068000000000000000e+03 3.660014724731445312e+01 -2.513691139221191406e+01 4.177773892879486084e-01 5.606742501258850098e-01 2.935355007648468018e-01 -1.224990263581275940e-01
4.069000000000000000e+03 6.228028106689453125e+01 -1.967227935791015625e+01 -9.075312018394470215e-01 7.949353694915771484e+00 2.112546682357788086e+00 5.673385262489318848e-01
4.070000000000000000e+03 5.789188385009765625e+01 5.163273811340332031e-01 -3.590267002582550049e-01 7.387880802154541016e+00 2.108656406402587891e+00 -2.958177089691162109e+00
4.071000000000000000e+03 5.993245697021484375e+01 -7.615899443626403809e-01 -7.912890315055847168e-01 1.072347354888916016e+01 2.979655265808105469e+00 -2.072115659713745117e+00
4.072000000000000000e+03 6.023484802246093750e+01 -1.625940918922424316e+00 -7.015382647514343262e-01 1.194431400299072266e+01 3.372832775115966797e+00 -1.789012312889099121e+00
4.073000000000000000e+03 5.879454421997070312e+01 -5.966051220893859863e-01 -5.326552987098693848e-01 9.142984390258789062e+00 2.583098649978637695e+00 -2.993461132049560547e+00
4.074000000000000000e+03 6.645579528808593750e+01 -5.641830444335937500e+00 2.990294218063354492e+00 9.147319793701171875e+00 3.641284227371215820e+00 3.729992806911468506e-01
4.075000000000000000e+03 6.024427413940429688e+01 -1.188955211639404297e+01 -7.723687291145324707e-01 1.105766296386718750e+01 3.085588216781616211e+00 1.737419247627258301e+00
4.076000000000000000e+03 6.329978561401367188e+01 -3.840789556503295898e+00 2.791210412979125977e+00 1.178978252410888672e+01 4.374298095703125000e+00 1.597151160240173340e+00
4.077000000000000000e+03 6.313675308227539062e+01 -9.762717247009277344e+00 1.706357359886169434e+00 1.200488758087158203e+01 4.113373279571533203e+00 -1.439347743988037109e+00
4.078000000000000000e+03 6.249094772338867188e+01 -1.046290969848632812e+01 6.411494612693786621e-01 1.235697650909423828e+01 3.899437665939331055e+00 -8.757815957069396973e-01
4.079000000000000000e+03 6.096513748168945312e+01 -1.121838665008544922e+01 -5.585207343101501465e-01 1.224159812927246094e+01 3.504923105239868164e+00 8.792039752006530762e-01
4.080000000000000000e+03 6.136041641235351562e+01 -1.059424114227294922e+01 -4.526009783148765564e-02 1.305151939392089844e+01 3.901877641677856445e+00 7.620120048522949219e-02
4.081000000000000000e+03 6.534033966064453125e+01 -9.925942420959472656e+00 1.801092743873596191e+00 1.011839008331298828e+01 3.575844764709472656e+00 -1.370364427566528320e+00
4.082000000000000000e+03 6.445956420898437500e+01 -2.962682247161865234e-01 4.608397930860519409e-02 1.036145401000976562e+01 3.122261524200439453e+00 8.927296400070190430e-01
4.083000000000000000e+03 6.675491333007812500e+01 -6.593765258789062500e+00 2.895858526229858398e+00 8.991839408874511719e+00 3.566309452056884766e+00 -1.048686653375625610e-01
4.084000000000000000e+03 6.050274658203125000e+01 -1.737624168395996094e+00 -6.488874554634094238e-01 1.232864475250244141e+01 3.503927230834960938e+00 -1.396635651588439941e+00
4.085000000000000000e+03 6.634406280517578125e+01 -9.306075096130371094e+00 2.078995704650878906e+00 9.455357551574707031e+00 3.460306167602539062e+00 -1.173180818557739258e+00
4.086000000000000000e+03 6.550472259521484375e+01 -2.268385171890258789e+00 1.385008692741394043e+00 1.006707191467285156e+01 3.435624122619628906e+00 1.353027582168579102e+00
4.087000000000000000e+03 6.411640930175781250e+01 -7.168946266174316406e+00 4.420832633972167969e+00 1.055761146545410156e+01 4.493533134460449219e+00 -6.750887632369995117e-01
4.088000000000000000e+03 6.435555267333984375e+01 -5.948241233825683594e+00 4.342860698699951172e+00 1.029963970184326172e+01 4.392750263214111328e+00 3.611438572406768799e-01
4.089000000000000000e+03 6.399847030639648438e+01 -7.889590263366699219e+00 3.866130590438842773e+00 1.082761764526367188e+01 4.408124446868896484e+00 -1.160689711570739746e+00
4.090000000000000000e+03 6.462709808349609375e+01 -7.317123413085937500e+00 3.916431665420532227e+00 1.017258262634277344e+01 4.226704120635986328e+00 -6.783878207206726074e-01
4.091000000000000000e+03 6.667610168457031250e+01 -6.018077850341796875e+00 2.942438364028930664e+00 9.037242889404296875e+00 3.593904256820678711e+00 1.802244186401367188e-01
4.092000000000000000e+03 6.251827621459960938e+01 -2.878202915191650391e+00 1.222117543220520020e+00 1.262684154510498047e+01 4.154687881469726562e+00 1.168744802474975586e+00
4.093000000000000000e+03 6.470330047607421875e+01 -1.273899364471435547e+01 1.576376892626285553e-02 1.023331260681152344e+01 3.074723005294799805e+00 -9.206351637840270996e-01
4.094000000000000000e+03 5.870218276977539062e+01 -1.228737640380859375e+01 -4.616087079048156738e-01 8.826949119567871094e+00 2.509602069854736328e+00 2.970199108123779297e+00
4.095000000000000000e+03 5.822481536865234375e+01 -1.279756927490234375e+01 -3.722122907638549805e-01 7.985230445861816406e+00 2.283905506134033203e+00 3.018155097961425781e+00
4.096000000000000000e+03 5.805844116210937500e+01 -1.323114013671875000e+01 -3.984461128711700439e-01 7.607780456542968750e+00 2.162800312042236328e+00 2.869668483734130859e+00
4.097000000000000000e+03 6.386587142944335938e+01 -4.877255439758300781e+00 3.926930904388427734e+00 1.091276741027832031e+01 4.451909542083740234e+00 1.192923426628112793e+00
4.098000000000000000e+03 6.634736633300781250e+01 -5.156335830688476562e+00 2.889712333679199219e+00 9.242376327514648438e+00 3.639626741409301758e+00 5.938454270362854004e-01
4.099000000000000000e+03 6.672673034667968750e+01 -7.618168830871582031e+00 2.718405961990356445e+00 9.072050094604492188e+00 3.537136793136596680e+00 -5.784353613853454590e-01
4.100000000000000000e+03 6.154121017456054688e+01 -1.204178142547607422e+01 -6.217800378799438477e-01 1.147598552703857422e+01 3.256261587142944336e+00 4.935604631900787354e-01
4.101000000000000000e+03 6.637619018554687500e+01 -4.633338928222656250e+00 2.671651601791381836e+00 9.297326087951660156e+00 3.590693473815917969e+00 8.260327577590942383e-01
4.102000000000000000e+03 6.587041473388671875e+01 -3.641094207763671875e+00 2.287325382232666016e+00 9.691602706909179688e+00 3.593678236007690430e+00 1.203167676925659180e+00
4.103000000000000000e+03 6.646093750000000000e+01 -8.824788093566894531e+00 2.334260702133178711e+00 9.322089195251464844e+00 3.496904850006103516e+00 -1.039008736610412598e+00
4.104000000000000000e+03 6.597880554199218750e+01 -8.256196975708007812e+00 2.742000102996826172e+00 9.500649452209472656e+00 3.672795057296752930e+00 -9.361016750335693359e-01
4.105000000000000000e+03 6.384170532226562500e+01 -9.137550354003906250e+00 2.543109893798828125e+00 1.127021503448486328e+01 4.143997669219970703e+00 -1.528953075408935547e+00
4.106000000000000000e+03 6.652951049804687500e+01 -7.988796710968017578e+00 2.682638645172119141e+00 9.183618545532226562e+00 3.559877157211303711e+00 -7.540064454078674316e-01
4.107000000000000000e+03 6.393056869506835938e+01 -6.023624539375305176e-01 4.820101335644721985e-02 1.073270320892333984e+01 3.234271287918090820e+00 8.211935758590698242e-01
4.108000000000000000e+03 6.276638412475585938e+01 2.257179498672485352e+00 -9.164935946464538574e-01 9.663599967956542969e+00 2.624131917953491211e+00 -3.035921156406402588e-01
4.109000000000000000e+03 5.774367904663085938e+01 7.236596941947937012e-02 -2.521700263023376465e-01 7.295077800750732422e+00 2.112872362136840820e+00 -3.110575914382934570e+00
4.110000000000000000e+03 6.587116241455078125e+01 -3.216038703918457031e+00 1.985850334167480469e+00 9.737070083618164062e+00 3.516876220703125000e+00 1.260476708412170410e+00
4.111000000000000000e+03 6.501638793945312500e+01 -2.130262374877929688e+00 1.233057260513305664e+00 1.035950946807861328e+01 3.477769851684570312e+00 1.338207006454467773e+00
4.112000000000000000e+03 6.301021957397460938e+01 -3.551213979721069336e+00 2.382725954055786133e+00 1.216621398925781250e+01 4.364682197570800781e+00 1.586472153663635254e+00
4.113000000000000000e+03 6.510680389404296875e+01 -9.662037491798400879e-01 5.159472227096557617e-01 1.022917556762695312e+01 3.223536729812622070e+00 1.175504684448242188e+00
4.114000000000000000e+03 6.506948089599609375e+01 2.627948820590972900e-01 -2.349086478352546692e-02 9.988779067993164062e+00 2.989586353302001953e+00 9.222222566604614258e-01
4.115000000000000000e+03 6.510753631591796875e+01 -1.062876224517822266e+01 1.279980897903442383e+00 1.030101776123046875e+01 3.474299669265747070e+00 -1.364495277404785156e+00
4.116000000000000000e+03 6.625257110595703125e+01 -9.799486160278320312e+00 1.800934314727783203e+00 9.587924003601074219e+00 3.416657447814941406e+00 -1.271131753921508789e+00
4.117000000000000000e+03 5.746715164184570312e+01 -1.489116573333740234e+01 -3.532240688800811768e-01 6.601120948791503906e+00 1.874369025230407715e+00 2.522984027862548828e+00
4.118000000000000000e+03 6.238523101806640625e+01 -1.092840194702148438e+01 2.104138284921646118e-01 1.211689758300781250e+01 3.698193311691284180e+00 -5.697615742683410645e-01
4.119000000000000000e+03 6.358780288696289062e+01 1.448232054710388184e+00 -6.763190031051635742e-01 1.004467487335205078e+01 2.810506582260131836e+00 2.138569205999374390e-01
4.120000000000000000e+03 6.328300476074218750e+01 -1.442149162292480469e+01 -7.591119408607482910e-01 9.984796524047851562e+00 2.767705202102661133e+00 -4.005532711744308472e-02
4.121000000000000000e+03 6.410758972167968750e+01 -1.531198120117187500e+01 -7.444872260093688965e-01 9.530366897583007812e+00 2.635763883590698242e+00 -2.415631264448165894e-01
4.122000000000000000e+03 5.867807388305664062e+01 8.246097564697265625e-01 -6.277223825454711914e-01 8.198869705200195312e+00 2.271344184875488281e+00 -2.565908908843994141e+00
4.123000000000000000e+03 5.639554595947265625e+01 2.409804821014404297e+00 -1.576240956783294678e-01 5.513058662414550781e+00 1.606630325317382812e+00 -2.529654026031494141e+00
4.124000000000000000e+03 6.584262084960937500e+01 -1.083763027191162109e+01 1.201378345489501953e+00 9.881407737731933594e+00 3.324835777282714844e+00 -1.340809822082519531e+00
4.125000000000000000e+03 6.579237365722656250e+01 -9.776635169982910156e+00 1.881895184516906738e+00 9.820822715759277344e+00 3.510815382003784180e+00 -1.318633317947387695e+00
4.126000000000000000e+03 6.311127853393554688e+01 -2.893367052078247070e+00 1.544343948364257812e+00 1.198411750793457031e+01 4.058538436889648438e+00 1.391613245010375977e+00
4.127000000000000000e+03 6.236650085449218750e+01 2.805557250976562500e+00 -1.009825468063354492e+00 9.429214477539062500e+00 2.525816679000854492e+00 -5.252686142921447754e-01
4.128000000000000000e+03 6.554171752929687500e+01 -1.037823486328125000e+01 1.459101200103759766e+00 1.001751422882080078e+01 3.442984580993652344e+00 -1.354010343551635742e+00
4.129000000000000000e+03 6.278413391113281250e+01 -1.706843376159667969e+01 -9.645406603813171387e-01 8.827041625976562500e+00 2.358750343322753906e+00 4.014169871807098389e-01
4.130000000000000000e+03 6.207086563110351562e+01 4.535079479217529297e+00 -1.014719247817993164e+00 8.629692077636718750e+00 2.284492015838623047e+00 -6.748397350311279297e-01
4.131000000000000000e+03 5.874017715454101562e+01 -1.968579864501953125e+01 -6.248121261596679688e-01 6.601647377014160156e+00 1.793050527572631836e+00 1.381655573844909668e+00
4.132000000000000000e+03 5.589260864257812500e+01 6.355735301971435547e+00 -2.645367980003356934e-01 5.133358955383300781e+00 1.460646629333496094e+00 -1.765721440315246582e+00
4.133000000000000000e+03 5.936919403076171875e+01 4.612082004547119141e+00 -8.225055336952209473e-01 7.483540058135986328e+00 1.998310327529907227e+00 -1.577648878097534180e+00
4.134000000000000000e+03 5.177137756347656250e+01 9.207590103149414062e+00 1.106006130576133728e-01 3.406799316406250000e+00 1.055220007896423340e+00 -1.211633324623107910e+00
4.135000000000000000e+03 5.596918869018554688e+01 4.576373577117919922e+00 -2.221165597438812256e-01 5.236536026000976562e+00 1.504325866699218750e+00 -2.058865547180175781e+00
4.136000000000000000e+03 4.079977035522460938e+01 1.121276760101318359e+01 2.035389393568038940e-01 1.070843100547790527e+00 3.823146224021911621e-01 -3.627514839172363281e-02
4.137000000000000000e+03 3.816305923461914062e+01 1.301676559448242188e+01 1.500713527202606201e-01 8.866357803344726562e-01 3.110121488571166992e-01 1.119654700160026550e-01
4.138000000000000000e+03 4.454522705078125000e+01 1.034855461120605469e+01 2.725359797477722168e-01 1.535690665245056152e+00 5.424680113792419434e-01 -3.672592043876647949e-01
4.139000000000000000e+03 5.086700439453125000e+01 8.859192848205566406e+00 1.847430467605590820e-01 3.002756118774414062e+00 9.562497138977050781e-01 -1.140324234962463379e+00
4.140000000000000000e+03 4.952988433837890625e+01 1.101791286468505859e+01 2.180943340063095093e-01 2.798609495162963867e+00 9.050111770629882812e-01 -8.959172368049621582e-01
4.141000000000000000e+03 5.955801391601562500e+01 1.260755825042724609e+01 -5.282241106033325195e-01 6.178951740264892578e+00 1.695218205451965332e+00 -7.917839884757995605e-01
4.142000000000000000e+03 6.217470169067382812e+01 -1.798183250427246094e+01 -9.622645378112792969e-01 8.382427215576171875e+00 2.226048946380615234e+00 6.368125677108764648e-01
4.143000000000000000e+03 5.980899429321289062e+01 -2.024146080017089844e+01 -7.289177775382995605e-01 6.991990089416503906e+00 1.878921627998352051e+00 1.117473244667053223e+00
4.144000000000000000e+03 6.094195938110351562e+01 -2.066693687438964844e+01 -7.992348074913024902e-01 7.324292182922363281e+00 1.957517147064208984e+00 8.424727320671081543e-01
4.145000000000000000e+03 5.747596359252929688e+01 7.009392738342285156e+00 -5.110757946968078613e-01 5.963069915771484375e+00 1.635598182678222656e+00 -1.573208808898925781e+00
4.146000000000000000e+03 6.002941513061523438e+01 8.260036468505859375e+00 -7.711483836174011230e-01 6.937341690063476562e+00 1.849857926368713379e+00 -1.044813752174377441e+00
4.147000000000000000e+03 6.156509399414062500e+01 -1.852037811279296875e+01 -9.347215294837951660e-01 8.070744514465332031e+00 2.140806913375854492e+00 8.063101172447204590e-01
4.148000000000000000e+03 5.816423797607421875e+01 -2.090129280090332031e+01 -5.134691596031188965e-01 6.161622524261474609e+00 1.694445967674255371e+00 1.310264348983764648e+00
4.149000000000000000e+03 5.504233551025390625e+01 -2.501789474487304688e+01 -7.041261345148086548e-02 4.631676197052001953e+00 1.368379116058349609e+00 1.040669322013854980e+00
4.150000000000000000e+03 4.929298782348632812e+01 9.127356529235839844e+00 2.450945675373077393e-01 2.511532545089721680e+00 8.269881010055541992e-01 -9.339036345481872559e-01
4.151000000000000000e+03 4.754131317138671875e+01 1.135196018218994141e+01 2.749727368354797363e-01 2.283403873443603516e+00 7.675130367279052734e-01 -6.794837713241577148e-01
4.152000000000000000e+03 5.459340286254882812e+01 9.767261505126953125e+00 -1.467733979225158691e-01 4.540944576263427734e+00 1.318251371383666992e+00 -1.338499426841735840e+00
4.153000000000000000e+03 5.768689727783203125e+01 -2.455849647521972656e+01 -3.388559222221374512e-01 5.604745388031005859e+00 1.579766869544982910e+00 9.669973254203796387e-01
4.154000000000000000e+03 5.517668151855468750e+01 1.562271022796630859e+01 -1.397548615932464600e-01 4.700853347778320312e+00 1.368329644203186035e+00 -8.529163002967834473e-01
4.155000000000000000e+03 5.980521774291992188e+01 -1.105592727661132812e+00 -7.596050500869750977e-01 1.092969894409179688e+01 3.051028251647949219e+00 -2.235083341598510742e+00
4.156000000000000000e+03 6.076485443115234375e+01 -2.240687608718872070e+00 -3.711465895175933838e-01 1.306080532073974609e+01 3.806897401809692383e+00 -9.229065179824829102e-01
4.157000000000000000e+03 6.357943344116210938e+01 -7.571506977081298828e+00 4.453171253204345703e+00 1.110490798950195312e+01 4.667423725128173828e+00 -1.082625389099121094e+00
4.158000000000000000e+03 6.277091598510742188e+01 -3.198503255844116211e+00 1.763806700706481934e+00 1.242476463317871094e+01 4.256571292877197266e+00 1.419084787368774414e+00
4.159000000000000000e+03 6.603129577636718750e+01 -6.707866668701171875e+00 3.254688501358032227e+00 9.319244384765625000e+00 3.772179841995239258e+00 -1.854794323444366455e-01
4.160000000000000000e+03 5.963961791992187500e+01 -6.551355719566345215e-01 -7.674496173858642578e-01 1.027720451354980469e+01 2.852926492691040039e+00 -2.345227718353271484e+00
4.161000000000000000e+03 6.458458709716796875e+01 9.029979705810546875e-01 -3.661969602108001709e-01 1.004439640045166016e+01 2.903459787368774414e+00 6.758605241775512695e-01
4.162000000000000000e+03 6.071928787231445312e+01 -1.158359527587890625e+01 -6.903856396675109863e-01 1.173209667205810547e+01 3.312513113021850586e+00 1.232283115386962891e+00
4.163000000000000000e+03 6.135079956054687500e+01 -1.160781764984130859e+01 -5.523428320884704590e-01 1.190456676483154297e+01 3.405667066574096680e+00 5.587265491485595703e-01
4.164000000000000000e+03 6.592063140869140625e+01 -8.690406799316406250e+00 2.542310476303100586e+00 9.586467742919921875e+00 3.638633251190185547e+00 -1.067693829536437988e+00
4.165000000000000000e+03 6.649852752685546875e+01 -6.979380607604980469e+00 2.960537672042846680e+00 9.115612983703613281e+00 3.622845172882080078e+00 -3.028835654258728027e-01
4.166000000000000000e+03 6.635494995117187500e+01 -6.314608573913574219e+00 3.093714952468872070e+00 9.156271934509277344e+00 3.674996137619018555e+00 4.713733121752738953e-02
4.167000000000000000e+03 6.526521301269531250e+01 -5.033228397369384766e+00 3.355140924453735352e+00 9.826948165893554688e+00 3.954626560211181641e+00 8.026333451271057129e-01
4.168000000000000000e+03 6.585584259033203125e+01 -4.617885112762451172e+00 2.845772743225097656e+00 9.545747756958007812e+00 3.717456102371215820e+00 8.982849717140197754e-01
4.169000000000000000e+03 6.403793334960937500e+01 -1.164122390747070312e+01 3.953632712364196777e-01 1.082484149932861328e+01 3.366061449050903320e+00 -1.026110649108886719e+00
4.170000000000000000e+03 6.132420349121093750e+01 -1.726763844490051270e+00 -3.675852119922637939e-01 1.246582221984863281e+01 3.629471063613891602e+00 -3.781347870826721191e-01
4.171000000000000000e+03 6.438909149169921875e+01 -7.954203605651855469e+00 3.645408868789672852e+00 1.047705841064453125e+01 4.236740112304687500e+00 -1.094903707504272461e+00
4.172000000000000000e+03 6.401992034912109375e+01 -7.540359497070312500e+00 4.237324714660644531e+00 1.070583724975585938e+01 4.482948780059814453e+00 -9.474964141845703125e-01
4.173000000000000000e+03 6.458025360107421875e+01 -1.168463516235351562e+01 5.132329463958740234e-01 1.052394008636474609e+01 3.311151981353759766e+00 -1.137561202049255371e+00
4.174000000000000000e+03 6.294064712524414062e+01 -1.057806587219238281e+01 7.427194118499755859e-01 1.191579818725585938e+01 3.797555208206176758e+00 -1.022763609886169434e+00
4.175000000000000000e+03 6.175839614868164062e+01 3.365361928939819336e+00 -1.026519536972045898e+00 8.986272811889648438e+00 2.387926101684570312e+00 -8.051375150680541992e-01
4.176000000000000000e+03 6.353549194335937500e+01 -3.512192726135253906e+00 2.382770299911499023e+00 1.157045745849609375e+01 4.185968399047851562e+00 1.545258283615112305e+00
4.177000000000000000e+03 6.394796371459960938e+01 -4.490837574005126953e+00 3.518376111984252930e+00 1.094438266754150391e+01 4.338827610015869141e+00 1.336085319519042969e+00
4.178000000000000000e+03 6.424806976318359375e+01 -5.283617019653320312e+00 4.088848590850830078e+00 1.048705673217773438e+01 4.372771739959716797e+00 8.789402842521667480e-01
4.179000000000000000e+03 5.736084747314453125e+01 -1.424140644073486328e+01 -2.734652757644653320e-01 6.564488410949707031e+00 1.887306928634643555e+00 2.702446937561035156e+00
4.180000000000000000e+03 6.600843811035156250e+01 -5.948527812957763672e+00 3.245958566665649414e+00 9.320614814758300781e+00 3.769972085952758789e+00 2.481358945369720459e-01
4.181000000000000000e+03 6.608940124511718750e+01 -7.821493625640869141e+00 2.931303739547729492e+00 9.375136375427246094e+00 3.691931962966918945e+00 -7.316707372665405273e-01
4.182000000000000000e+03 5.811484527587890625e+01 -5.371055006980895996e-02 -3.541074693202972412e-01 7.808386325836181641e+00 2.236283779144287109e+00 -3.087799310684204102e+00
4.183000000000000000e+03 6.512149047851562500e+01 -7.475279331207275391e+00 3.522148609161376953e+00 9.860252380371093750e+00 4.014720439910888672e+00 -6.987046003341674805e-01
4.184000000000000000e+03 6.626702117919921875e+01 -7.391821861267089844e+00 2.984627246856689453e+00 9.241084098815917969e+00 3.667713403701782227e+00 -5.193533897399902344e-01
4.185000000000000000e+03 6.537808990478515625e+01 -3.209366321563720703e+00 2.008463144302368164e+00 1.005892276763916016e+01 3.620215654373168945e+00 1.336217641830444336e+00
4.186000000000000000e+03 6.490888977050781250e+01 -2.605615615844726562e+00 1.582649469375610352e+00 1.042993259429931641e+01 3.603774785995483398e+00 1.408400297164916992e+00
4.187000000000000000e+03 6.644088745117187500e+01 -4.120856285095214844e+00 2.395805835723876953e+00 9.329985618591308594e+00 3.517737388610839844e+00 9.918487668037414551e-01
4.188000000000000000e+03 6.490048980712890625e+01 -3.303189516067504883e+00 2.144189357757568359e+00 1.038998985290527344e+01 3.760253667831420898e+00 1.399032473564147949e+00
4.189000000000000000e+03 6.478663635253906250e+01 -1.420880913734436035e+00 7.433905005455017090e-01 1.045624637603759766e+01 3.359890937805175781e+00 1.227848052978515625e+00
4.190000000000000000e+03 5.679571151733398438e+01 -1.622433662414550781e+01 -2.729952633380889893e-01 5.836466789245605469e+00 1.669041514396667480e+00 2.260941982269287109e+00
4.191000000000000000e+03 5.720446014404296875e+01 -1.570426464080810547e+01 -3.311652839183807373e-01 6.196922302246093750e+00 1.759727120399475098e+00 2.314368486404418945e+00
4.192000000000000000e+03 6.292928314208984375e+01 -1.573862361907958984e+01 -9.271541833877563477e-01 9.375525474548339844e+00 2.534511566162109375e+00 2.743665277957916260e-01
4.193000000000000000e+03 6.235593795776367188e+01 -1.871735000610351562e+01 -9.319081306457519531e-01 8.178838729858398438e+00 2.174079179763793945e+00 5.589389801025390625e-01
4.194000000000000000e+03 6.425771331787109375e+01 -1.028803062438964844e+01 1.439330577850341797e+00 1.089408206939697266e+01 3.700023651123046875e+00 -1.389082312583923340e+00
4.195000000000000000e+03 6.539757537841796875e+01 -1.103243541717529297e+01 1.037313580513000488e+00 1.010891819000244141e+01 3.343869686126708984e+00 -1.311843514442443848e+00
4.196000000000000000e+03 6.408647155761718750e+01 -1.274625968933105469e+01 -1.355347931385040283e-01 1.045116043090820312e+01 3.094687700271606445e+00 -7.275266647338867188e-01
4.197000000000000000e+03 6.341963577270507812e+01 -1.384250450134277344e+01 -6.219048500061035156e-01 1.020793533325195312e+01 2.875809192657470703e+00 -2.125764787197113037e-01
4.198000000000000000e+03 6.384877395629882812e+01 -1.454865837097167969e+01 -6.739236116409301758e-01 9.851727485656738281e+00 2.753341197967529297e+00 -2.462688982486724854e-01
4.199000000000000000e+03 6.400769805908203125e+01 -8.505545616149902344e+00 3.288690567016601562e+00 1.089950466156005859e+01 4.256458759307861328e+00 -1.396642327308654785e+00
4.200000000000000000e+03 6.585774993896484375e+01 -9.113745689392089844e+00 2.318204879760742188e+00 9.691684722900390625e+00 3.602966785430908203e+00 -1.205680489540100098e+00
4.201000000000000000e+03 6.238119125366210938e+01 -1.259282398223876953e+01 -5.560521483421325684e-01 1.101215839385986328e+01 3.136831760406494141e+00 5.802361294627189636e-02
4.202000000000000000e+03 6.310518646240234375e+01 1.818132400512695312e+00 -8.336136341094970703e-01 9.922194480895996094e+00 2.726574182510375977e+00 -8.555243164300918579e-02
4.203000000000000000e+03 6.408557128906250000e+01 1.073959827423095703e+00 -5.227568745613098145e-01 1.009937000274658203e+01 2.872983932495117188e+00 4.648333191871643066e-01
4.204000000000000000e+03 6.278688430786132812e+01 -1.429556560516357422e+01 -8.134799003601074219e-01 1.000957679748535156e+01 2.758829116821289062e+00 1.672349870204925537e-01
4.205000000000000000e+03 6.363766098022460938e+01 -1.512061882019042969e+01 -7.961660027503967285e-01 9.631087303161621094e+00 2.650476455688476562e+00 -7.068617641925811768e-02
4.206000000000000000e+03 5.654159927368164062e+01 3.214609622955322266e+00 -2.465353608131408691e-01 5.649404525756835938e+00 1.620860695838928223e+00 -2.393977880477905273e+00
4.207000000000000000e+03 5.787855148315429688e+01 2.216646909713745117e+00 -5.175533890724182129e-01 6.974337577819824219e+00 1.937035202980041504e+00 -2.451426744461059570e+00
4.208000000000000000e+03 5.675131988525390625e+01 -1.847670364379882812e+01 -3.379296362400054932e-01 5.696008205413818359e+00 1.607423543930053711e+00 1.829918026924133301e+00
4.209000000000000000e+03 5.765545654296875000e+01 -1.547970485687255859e+01 -4.505263268947601318e-01 6.672529220581054688e+00 1.866600871086120605e+00 2.343647241592407227e+00
4.210000000000000000e+03 5.792755126953125000e+01 9.546194672584533691e-01 -4.274277687072753906e-01 7.290070533752441406e+00 2.058792829513549805e+00 -2.782724618911743164e+00
4.211000000000000000e+03 6.125665664672851562e+01 4.075002670288085938e+00 -1.005378961563110352e+00 8.543505668640136719e+00 2.261437892913818359e+00 -9.845488667488098145e-01
4.212000000000000000e+03 6.054698562622070312e+01 2.803937673568725586e+00 -9.937834739685058594e-01 8.764147758483886719e+00 2.331109285354614258e+00 -1.343180060386657715e+00
4.213000000000000000e+03 5.749832534790039062e+01 -1.672064208984375000e+01 -4.453158378601074219e-01 6.312742710113525391e+00 1.760228037834167480e+00 2.059849023818969727e+00
4.214000000000000000e+03 5.617241287231445312e+01 2.921049594879150391e+00 -1.826524734497070312e-01 5.430757999420166016e+00 1.574431657791137695e+00 -2.379490375518798828e+00
4.215000000000000000e+03 5.840290069580078125e+01 6.447246551513671875e+00 -6.564701795578002930e-01 6.539934158325195312e+00 1.765039205551147461e+00 -1.538309216499328613e+00
4.216000000000000000e+03 6.091226959228515625e+01 4.924862384796142578e+00 -9.755001068115234375e-01 8.122251510620117188e+00 2.144025564193725586e+00 -1.077201962471008301e+00
4.217000000000000000e+03 5.714235305786132812e+01 -2.019742774963378906e+01 -4.003065526485443115e-01 5.752139091491699219e+00 1.605549812316894531e+00 1.517391800880432129e+00
4.218000000000000000e+03 5.979229354858398438e+01 5.237109184265136719e+00 -8.507056236267089844e-01 7.486906528472900391e+00 1.990860223770141602e+00 -1.356921434402465820e+00
4.219000000000000000e+03 6.218857955932617188e+01 -1.572786617279052734e+01 -9.759707450866699219e-01 9.272908210754394531e+00 2.489081382751464844e+00 5.885777473449707031e-01
4.220000000000000000e+03 5.292554473876953125e+01 9.010293006896972656e+00 3.263838589191436768e-02 3.812042713165283203e+00 1.153404355049133301e+00 -1.327627301216125488e+00
4.221000000000000000e+03 5.680799865722656250e+01 4.909609317779541016e+00 -3.675701320171356201e-01 5.750764846801757812e+00 1.614958405494689941e+00 -1.986891746520996094e+00
4.222000000000000000e+03 5.705976867675781250e+01 8.760043144226074219e+00 -4.336236715316772461e-01 5.621089458465576172e+00 1.556239724159240723e+00 -1.364512324333190918e+00
4.223000000000000000e+03 3.688342285156250000e+01 1.196638679504394531e+01 8.219031244516372681e-02 6.890159249305725098e-01 2.313618808984756470e-01 2.262709885835647583e-01
4.224000000000000000e+03 3.570539474487304688e+01 1.326439952850341797e+01 6.933478266000747681e-02 6.360399723052978516e-01 2.116124182939529419e-01 2.441524714231491089e-01
4.225000000000000000e+03 5.988055419921875000e+01 6.568988800048828125e+00 -8.188462853431701660e-01 7.202139854431152344e+00 1.914988040924072266e+00 -1.211050629615783691e+00
4.226000000000000000e+03 5.862479782104492188e+01 1.133279609680175781e+01 -5.201265811920166016e-01 6.015081405639648438e+00 1.648486495018005371e+00 -9.773507714271545410e-01
4.227000000000000000e+03 3.903503036499023438e+01 1.175182628631591797e+01 1.549162417650222778e-01 8.900279402732849121e-01 3.134832680225372314e-01 9.321626275777816772e-02
4.228000000000000000e+03 4.429275512695312500e+01 1.246249294281005859e+01 2.825768589973449707e-01 1.666560411453247070e+00 5.847411751747131348e-01 -3.542203307151794434e-01
4.229000000000000000e+03 4.318572616577148438e+01 1.362327194213867188e+01 2.799587845802307129e-01 1.589844942092895508e+00 5.609411001205444336e-01 -2.830047309398651123e-01
4.230000000000000000e+03 5.402187347412109375e+01 -2.361474609375000000e+01 1.465439703315496445e-02 4.265872955322265625e+00 1.284158229827880859e+00 1.170458436012268066e+00
4.231000000000000000e+03 4.845220565795898438e+01 1.020629787445068359e+01 2.581277787685394287e-01 2.403203487396240234e+00 7.983993887901306152e-01 -8.062212467193603516e-01
4.232000000000000000e+03 5.158524703979492188e+01 8.237132072448730469e+00 1.498940736055374146e-01 3.247056722640991211e+00 1.019085168838500977e+00 -1.267668485641479492e+00
4.233000000000000000e+03 5.995650482177734375e+01 1.031952857971191406e+01 -6.581203937530517578e-01 6.572345733642578125e+00 1.774267554283142090e+00 -8.855766654014587402e-01
4.234000000000000000e+03 5.911367797851562500e+01 7.345891952514648438e+00 -7.225204706192016602e-01 6.729395389556884766e+00 1.802062511444091797e+00 -1.296026229858398438e+00
4.235000000000000000e+03 5.220769500732421875e+01 -2.467158317565917969e+01 1.908382624387741089e-01 3.584095239639282227e+00 1.132480025291442871e+00 1.030766844749450684e+00
4.236000000000000000e+03 5.049810409545898438e+01 -2.119436645507812500e+01 3.234348297119140625e-01 2.732431888580322266e+00 9.167600274085998535e-01 1.151732683181762695e+00
4.237000000000000000e+03 5.536653518676757812e+01 -2.248514556884765625e+01 -1.385001689195632935e-01 4.800644874572753906e+00 1.398643374443054199e+00 1.298671722412109375e+00
4.238000000000000000e+03 5.481733703613281250e+01 1.262571144104003906e+01 -1.638181805610656738e-01 4.654775619506835938e+00 1.347287297248840332e+00 -1.053412914276123047e+00
4.239000000000000000e+03 5.415133666992187500e+01 8.547800064086914062e+00 -8.919964730739593506e-02 4.323104381561279297e+00 1.270171403884887695e+00 -1.449719190597534180e+00
4.240000000000000000e+03 5.356996917724609375e+01 1.123859310150146484e+01 -5.561146512627601624e-02 4.168075084686279297e+00 1.233739018440246582e+00 -1.158994078636169434e+00
4.241000000000000000e+03 5.720951461791992188e+01 1.228656578063964844e+01 -3.606903851032257080e-01 5.438770771026611328e+00 1.523424148559570312e+00 -1.002100467681884766e+00
4.242000000000000000e+03 6.063792037963867188e+01 1.840223121643066406e+01 -3.041709661483764648e-01 5.962401390075683594e+00 1.697469115257263184e+00 -4.488056004047393799e-01
4.243000000000000000e+03 5.657209777832031250e+01 1.990879821777343750e+01 -1.039369627833366394e-01 4.985772132873535156e+00 1.464550495147705078e+00 -5.669505000114440918e-01
4.244000000000000000e+03 5.887081909179687500e+01 -1.516974717378616333e-01 -6.165665984153747559e-01 8.973939895629882812e+00 2.507211923599243164e+00 -2.761147260665893555e+00
4.245000000000000000e+03 6.429819488525390625e+01 -6.803371906280517578e+00 4.410001754760742188e+00 1.034595966339111328e+01 4.426788330078125000e+00 -3.533844351768493652e-01
4.246000000000000000e+03 5.989801025390625000e+01 -1.223545837402343750e+01 -7.997860908508300781e-01 1.043882751464843750e+01 2.891712427139282227e+00 2.094126224517822266e+00
4.247000000000000000e+03 6.560997009277343750e+01 -7.645570755004882812e+00 3.223653316497802734e+00 9.616672515869140625e+00 3.852097749710083008e+00 -7.210345864295959473e-01
4.248000000000000000e+03 5.896579360961914062e+01 3.196716308593750000e-01 -6.798788309097290039e-01 8.777550697326660156e+00 2.429301738739013672e+00 -2.573686122894287109e+00
4.249000000000000000e+03 5.841738510131835938e+01 -5.936806201934814453e-01 -3.779969215393066406e-01 8.536619186401367188e+00 2.447586536407470703e+00 -3.196804285049438477e+00
4.250000000000000000e+03 6.169961166381835938e+01 -2.103010892868041992e+00 3.229499096050858498e-03 1.271251583099365234e+01 3.814723491668701172e+00 1.677827686071395874e-01
4.251000000000000000e+03 6.060194778442382812e+01 -1.200122165679931641e+01 -7.818259596824645996e-01 1.120816326141357422e+01 3.127901315689086914e+00 1.416511774063110352e+00
4.252000000000000000e+03 6.288343429565429688e+01 -1.376506137847900391e+01 -7.204682230949401855e-01 1.032520294189453125e+01 2.881420373916625977e+00 2.464996278285980225e-02
4.253000000000000000e+03 5.823002243041992188e+01 4.256483912467956543e-01 -4.497294425964355469e-01 7.797195434570312500e+00 2.204239845275878906e+00 -2.875161647796630859e+00
4.254000000000000000e+03 5.879074859619140625e+01 1.279598832130432129e+00 -6.847030520439147949e-01 8.137415885925292969e+00 2.235813856124877930e+00 -2.405698537826538086e+00
4.255000000000000000e+03 5.872026443481445312e+01 -1.300933933258056641e+01 -5.763947367668151855e-01 8.564958572387695312e+00 2.396569252014160156e+00 2.710872173309326172e+00
4.256000000000000000e+03 6.514105224609375000e+01 -1.133494281768798828e+01 8.072074055671691895e-01 1.028977680206298828e+01 3.329095363616943359e+00 -1.272377490997314453e+00
4.257000000000000000e+03 6.370158386230468750e+01 -8.855358123779296875e+00 2.903439998626708984e+00 1.134241008758544922e+01 4.273755073547363281e+00 -1.553567767143249512e+00
4.258000000000000000e+03 6.246523284912109375e+01 1.126149415969848633e+00 -8.230113983154296875e-01 1.023269653320312500e+01 2.822905540466308594e+00 -2.601741850376129150e-01
4.259000000000000000e+03 6.447853851318359375e+01 -6.459005832672119141e+00 4.270544052124023438e+00 1.019426822662353516e+01 4.339443683624267578e+00 -7.180143892765045166e-02
4.260000000000000000e+03 6.420301818847656250e+01 -5.654518127441406250e+00 4.340592384338378906e+00 1.044809722900390625e+01 4.436606884002685547e+00 6.092121005058288574e-01
4.261000000000000000e+03 6.291025543212890625e+01 -1.153270530700683594e+01 8.532121777534484863e-02 1.148830413818359375e+01 3.472087621688842773e+00 -6.351961493492126465e-01
4.262000000000000000e+03 5.849273300170898438e+01 -1.124903261661529541e-01 -4.849633574485778809e-01 8.368513107299804688e+00 2.365064859390258789e+00 -2.972121238708496094e+00
4.263000000000000000e+03 5.804940414428710938e+01 -1.480721855163574219e+01 -4.982230067253112793e-01 7.172370433807373047e+00 2.002244234085083008e+00 2.450511693954467773e+00
4.264000000000000000e+03 6.291598129272460938e+01 -2.486826181411743164e+00 9.833462834358215332e-01 1.204321861267089844e+01 3.907969474792480469e+00 1.137173056602478027e+00
4.265000000000000000e+03 6.360896682739257812e+01 -3.007028102874755859e+00 1.798289418220520020e+00 1.151152229309082031e+01 3.992943525314331055e+00 1.450888991355895996e+00
4.266000000000000000e+03 5.847938537597656250e+01 -1.337350940704345703e+01 -5.268645882606506348e-01 8.053791046142578125e+00 2.258078098297119141e+00 2.714872598648071289e+00
4.267000000000000000e+03 6.365800476074218750e+01 -4.019725322723388672e+00 3.021536350250244141e+00 1.136567783355712891e+01 4.316164016723632812e+00 1.532059788703918457e+00
4.268000000000000000e+03 6.577626800537109375e+01 -7.168828964233398438e+00 3.309648990631103516e+00 9.469347953796386719e+00 3.833698987960815430e+00 -4.396439194679260254e-01
4.269000000000000000e+03 6.431877136230468750e+01 -4.911760807037353516e+00 3.746394395828247070e+00 1.051808929443359375e+01 4.279345035552978516e+00 1.069840312004089355e+00
4.270000000000000000e+03 5.839634704589843750e+01 -1.374041843414306641e+01 -5.222093462944030762e-01 7.822444915771484375e+00 2.190070629119873047e+00 2.624484300613403320e+00
4.271000000000000000e+03 5.794136047363281250e+01 -1.369684982299804688e+01 -3.972270488739013672e-01 7.362408638000488281e+00 2.089554548263549805e+00 2.760354042053222656e+00
4.272000000000000000e+03 6.398093032836914062e+01 -8.207077026367187500e+00 3.527832984924316406e+00 1.088089084625244141e+01 4.322617053985595703e+00 -1.296684384346008301e+00
4.273000000000000000e+03 6.561985778808593750e+01 -9.391012191772460938e+00 2.121525764465332031e+00 9.905953407287597656e+00 3.608243942260742188e+00 -1.304044723510742188e+00
4.274000000000000000e+03 6.537866210937500000e+01 -8.575066566467285156e+00 2.790075540542602539e+00 9.920861244201660156e+00 3.813281059265136719e+00 -1.143669486045837402e+00
4.275000000000000000e+03 6.439726257324218750e+01 -4.532876968383789062e+00 3.390083074569702148e+00 1.053267002105712891e+01 4.176826000213623047e+00 1.204428315162658691e+00
4.276000000000000000e+03 6.491352081298828125e+01 -4.151760578155517578e+00 2.898819923400878906e+00 1.021358108520507812e+01 3.933720350265502930e+00 1.229592442512512207e+00
4.277000000000000000e+03 6.559696197509765625e+01 -5.632839202880859375e+00 3.411658763885498047e+00 9.551743507385253906e+00 3.889020681381225586e+00 4.525486826896667480e-01
4.278000000000000000e+03 6.530171203613281250e+01 -6.036142349243164062e+00 3.718181133270263672e+00 9.687941551208496094e+00 4.021836757659912109e+00 2.204435169696807861e-01
4.279000000000000000e+03 6.460671234130859375e+01 -1.218465995788574219e+01 2.454937249422073364e-01 1.040435695648193359e+01 3.194955110549926758e+00 -1.018817901611328125e+00
4.280000000000000000e+03 6.493483734130859375e+01 -3.734591007232666016e+00 2.533635377883911133e+00 1.026401710510253906e+01 3.839295625686645508e+00 1.319583773612976074e+00
4.281000000000000000e+03 6.190799713134765625e+01 2.297000885009765625e+00 -1.002287268638610840e+00 9.530845642089843750e+00 2.558567523956298828e+00 -6.871861815452575684e-01
4.282000000000000000e+03 6.469747924804687500e+01 -7.022686004638671875e-01 2.881194353103637695e-01 1.037235736846923828e+01 3.198143005371093750e+00 1.049370169639587402e+00
4.283000000000000000e+03 6.447251129150390625e+01 2.977594733238220215e-01 -1.904860287904739380e-01 1.022676086425781250e+01 3.010882616043090820e+00 7.659588456153869629e-01
4.284000000000000000e+03 6.538795471191406250e+01 -4.137857913970947266e+00 2.743624687194824219e+00 9.907222747802734375e+00 3.795254230499267578e+00 1.160302162170410156e+00
4.285000000000000000e+03 6.451322937011718750e+01 -1.900864839553833008e+00 1.006245255470275879e+00 1.065480041503906250e+01 3.498313665390014648e+00 1.286729454994201660e+00
4.286000000000000000e+03 6.264379501342773438e+01 -2.163684844970703125e+00 6.013355255126953125e-01 1.211406326293945312e+01 3.814619541168212891e+00 8.811929821968078613e-01
4.287000000000000000e+03 6.466320800781250000e+01 -1.076162052154541016e+01 1.077707052230834961e+00 1.057521724700927734e+01 3.495877265930175781e+00 -1.305302619934082031e+00
4.288000000000000000e+03 6.448725891113281250e+01 -2.650599241256713867e+00 1.541480422019958496e+00 1.071854686737060547e+01 3.678008079528808594e+00 1.390708684921264648e+00
4.289000000000000000e+03 6.389197158813476562e+01 -1.017356014251708984e+01 1.458484053611755371e+00 1.116518878936767578e+01 3.787101745605468750e+00 -1.378491878509521484e+00
4.290000000000000000e+03 6.413247680664062500e+01 -9.550016403198242188e+00 2.101320028305053711e+00 1.100080204010009766e+01 3.930636644363403320e+00 -1.478380918502807617e+00
4.291000000000000000e+03 5.717507553100585938e+01 -1.754637336730957031e+01 -4.053402543067932129e-01 6.017146587371826172e+00 1.683542013168334961e+00 1.946499109268188477e+00
4.292000000000000000e+03 6.152435302734375000e+01 -1.572941398620605469e+01 -9.988004565238952637e-01 9.124737739562988281e+00 2.437781095504760742e+00 8.864999413490295410e-01
4.293000000000000000e+03 6.208217620849609375e+01 -1.644012832641601562e+01 -9.875581264495849609e-01 8.956248283386230469e+00 2.390607118606567383e+00 6.579145193099975586e-01
4.294000000000000000e+03 6.281439590454101562e+01 -1.643693923950195312e+01 -9.569889903068542480e-01 9.071317672729492188e+00 2.434298515319824219e+00 3.550927042961120605e-01
4.295000000000000000e+03 5.842960357666015625e+01 1.377551078796386719e+00 -5.916966199874877930e-01 7.733152866363525391e+00 2.142436742782592773e+00 -2.513048887252807617e+00
4.296000000000000000e+03 5.800474929809570312e+01 1.474997639656066895e+00 -4.798007309436798096e-01 7.253758430480957031e+00 2.032187223434448242e+00 -2.643089294433593750e+00
4.297000000000000000e+03 6.109798431396484375e+01 1.939191579818725586e+00 -1.009670495986938477e+00 9.452980995178222656e+00 2.532993316650390625e+00 -1.131293416023254395e+00
4.298000000000000000e+03 5.772110748291015625e+01 -1.908964157104492188e+01 -4.957459568977355957e-01 6.188349723815917969e+00 1.707781076431274414e+00 1.606747508049011230e+00
4.299000000000000000e+03 5.624953842163085938e+01 3.742169380187988281e+00 -2.258949428796768188e-01 5.434226512908935547e+00 1.562499403953552246e+00 -2.211387395858764648e+00
4.300000000000000000e+03 5.733631515502929688e+01 3.164755344390869141e+00 -4.275361597537994385e-01 6.345605850219726562e+00 1.775420904159545898e+00 -2.303520679473876953e+00
4.301000000000000000e+03 6.199494171142578125e+01 -1.722883987426757812e+01 -9.836807250976562500e-01 8.610236167907714844e+00 2.287966728210449219e+00 6.832752227783203125e-01
4.302000000000000000e+03 5.836477661132812500e+01 -1.699330329895019531e+01 -6.284396052360534668e-01 6.935634613037109375e+00 1.892158508300781250e+00 1.853622913360595703e+00
4.303000000000000000e+03 6.035901260375976562e+01 3.679453372955322266e+00 -9.588780403137207031e-01 8.308202743530273438e+00 2.204797267913818359e+00 -1.345377206802368164e+00
4.304000000000000000e+03 6.011417770385742188e+01 4.535071849822998047e+00 -9.117972850799560547e-01 7.869337558746337891e+00 2.087262153625488281e+00 -1.363030076026916504e+00
4.305000000000000000e+03 5.789166641235351562e+01 5.578619480133056641e+00 -5.782928466796875000e-01 6.422939300537109375e+00 1.753393888473510742e+00 -1.739820003509521484e+00
4.306000000000000000e+03 5.826075363159179688e+01 4.386681079864501953e+00 -6.515338420867919922e-01 6.816386699676513672e+00 1.849455833435058594e+00 -1.870249271392822266e+00
4.307000000000000000e+03 5.138517761230468750e+01 1.039344120025634766e+01 1.143178790807723999e-01 3.364688873291015625e+00 1.043702006340026855e+00 -1.110139250755310059e+00
4.308000000000000000e+03 6.024757766723632812e+01 -1.908910560607910156e+01 -8.204651474952697754e-01 7.430676937103271484e+00 1.983063578605651855e+00 1.119202256202697754e+00
4.309000000000000000e+03 4.652812957763671875e+01 1.252390861511230469e+01 2.742635905742645264e-01 2.155703067779541016e+00 7.289900183677673340e-01 -5.711370110511779785e-01
4.310000000000000000e+03 5.923434829711914062e+01 -1.853893470764160156e+01 -7.283154129981994629e-01 7.099910736083984375e+00 1.911478519439697266e+00 1.426591753959655762e+00
4.311000000000000000e+03 5.777988052368164062e+01 1.004313659667968750e+01 -4.840887188911437988e-01 5.834465503692626953e+00 1.605113029479980469e+00 -1.161667227745056152e+00
4.312000000000000000e+03 5.899862289428710938e+01 9.194791793823242188e+00 -6.388379335403442383e-01 6.410995960235595703e+00 1.731647372245788574e+00 -1.114246606826782227e+00
4.313000000000000000e+03 4.650388717651367188e+01 1.035584640502929688e+01 2.879967987537384033e-01 1.937646865844726562e+00 6.676930785179138184e-01 -5.839713215827941895e-01
4.314000000000000000e+03 3.982468795776367188e+01 1.069355297088623047e+01 1.517572551965713501e-01 8.895433545112609863e-01 3.123901784420013428e-01 7.320143282413482666e-02
4.315000000000000000e+03 5.816254425048828125e+01 8.091835975646972656e+00 -5.850435495376586914e-01 6.195255279541015625e+00 1.683063507080078125e+00 -1.346994280815124512e+00
4.316000000000000000e+03 4.031108474731445312e+01 1.247584819793701172e+01 2.115112990140914917e-01 1.099259138107299805e+00 3.932311236858367920e-01 -3.051251918077468872e-02
4.317000000000000000e+03 4.211850357055664062e+01 1.139237976074218750e+01 2.410545051097869873e-01 1.265815854072570801e+00 4.520610868930816650e-01 -1.637031733989715576e-01
4.318000000000000000e+03 5.071522521972656250e+01 1.172137641906738281e+01 1.431173682212829590e-01 3.240247488021850586e+00 1.015009522438049316e+00 -9.567216634750366211e-01
4.319000000000000000e+03 5.681236648559570312e+01 -2.936025810241699219e+01 -1.212854161858558655e-01 5.079381465911865234e+00 1.487428784370422363e+00 6.107487082481384277e-01
4.320000000000000000e+03 5.198253631591796875e+01 1.228238868713378906e+01 5.642760917544364929e-02 3.675857067108154297e+00 1.119685411453247070e+00 -1.023457527160644531e+00
4.321000000000000000e+03 5.641632080078125000e+01 1.078478050231933594e+01 -3.289946913719177246e-01 5.234838962554931641e+00 1.471753358840942383e+00 -1.181501150131225586e+00
4.322000000000000000e+03 5.596232986450195312e+01 1.331611919403076172e+01 -2.412425875663757324e-01 4.992682456970214844e+00 1.425431966781616211e+00 -9.897606968879699707e-01
4.323000000000000000e+03 5.216596984863281250e+01 1.881074333190917969e+01 8.158233761787414551e-02 3.982862710952758789e+00 1.219333529472351074e+00 -6.627778410911560059e-01
4.324000000000000000e+03 6.097803115844726562e+01 -1.448087930679321289e+00 -6.118171811103820801e-01 1.219147014617919922e+01 3.473896026611328125e+00 -9.329592585563659668e-01
4.325000000000000000e+03 5.940889358520507812e+01 -1.273950290679931641e+01 -7.447516918182373047e-01 9.525170326232910156e+00 2.634125471115112305e+00 2.385978937149047852e+00
4.326000000000000000e+03 5.982043457031250000e+01 -3.635472059249877930e-01 -8.303387165069580078e-01 1.023236560821533203e+01 2.820608139038085938e+00 -2.138147592544555664e+00
4.327000000000000000e+03 5.963090515136718750e+01 -1.850187331438064575e-01 -8.092272877693176270e-01 9.919486999511718750e+00 2.733078002929687500e+00 -2.267887115478515625e+00
4.328000000000000000e+03 5.950779342651367188e+01 -1.318772029876708984e+01 -7.928135395050048828e-01 9.330959320068359375e+00 2.561443805694580078e+00 2.228043317794799805e+00
4.329000000000000000e+03 6.450089263916015625e+01 -7.661011219024658203e+00 3.831587314605712891e+00 1.032829952239990234e+01 4.247965812683105469e+00 -9.209040403366088867e-01
4.330000000000000000e+03 6.235910034179687500e+01 -1.418104743957519531e+01 -8.505910038948059082e-01 1.003575801849365234e+01 2.755550146102905273e+00 3.795285820960998535e-01
4.331000000000000000e+03 6.092788314819335938e+01 -1.212807941436767578e+01 -7.805957794189453125e-01 1.132341003417968750e+01 3.162844419479370117e+00 1.121845841407775879e+00
4.332000000000000000e+03 6.052027130126953125e+01 -9.045779109001159668e-01 -8.099436163902282715e-01 1.136193180084228516e+01 3.165596485137939453e+00 -1.499386191368103027e+00
4.333000000000000000e+03 6.235637664794921875e+01 -1.858516216278076172e+00 1.652999371290206909e-01 1.216320037841796875e+01 3.698550224304199219e+00 5.399926900863647461e-01
4.334000000000000000e+03 6.414034271240234375e+01 -9.962768554687500000e+00 1.702677011489868164e+00 1.098653507232666016e+01 3.806763887405395508e+00 -1.428109407424926758e+00
4.335000000000000000e+03 6.485277557373046875e+01 -6.612634181976318359e+00 4.011542797088623047e+00 9.963140487670898438e+00 4.192404747009277344e+00 -1.833299547433853149e-01
4.336000000000000000e+03 6.348037338256835938e+01 -2.664674997329711914e+00 1.416691660881042480e+00 1.159682083129882812e+01 3.904053688049316406e+00 1.365047097206115723e+00
4.337000000000000000e+03 6.564250946044921875e+01 -6.362346172332763672e+00 3.524133443832397461e+00 9.502209663391113281e+00 3.907902956008911133e+00 7.336886133998632431e-03
4.338000000000000000e+03 6.346994018554687500e+01 -1.108602619171142578e+01 5.758572816848754883e-01 1.134088039398193359e+01 3.575021266937255859e+00 -1.039741754531860352e+00
4.339000000000000000e+03 6.447245788574218750e+01 -4.151966571807861328e+00 3.021990537643432617e+00 1.055422019958496094e+01 4.072863101959228516e+00 1.312960982322692871e+00
4.340000000000000000e+03 6.348805236816406250e+01 -1.270251083374023438e+01 -2.898872792720794678e-01 1.069497585296630859e+01 3.121526718139648438e+00 -5.114743113517761230e-01
4.341000000000000000e+03 6.463645172119140625e+01 -1.120799827575683594e+01 8.247476220130920410e-01 1.055014705657958984e+01 3.412468433380126953e+00 -1.250343084335327148e+00
4.342000000000000000e+03 6.467915344238281250e+01 -5.333838939666748047e+00 3.832864284515380859e+00 1.013425064086914062e+01 4.190134525299072266e+00 7.397273778915405273e-01
4.343000000000000000e+03 5.794471359252929688e+01 -1.423144245147705078e+01 -4.328611791133880615e-01 7.215555191040039062e+00 2.034808158874511719e+00 2.618242979049682617e+00
4.344000000000000000e+03 5.875748825073242188e+01 -1.364561653137207031e+01 -6.328696012496948242e-01 8.304160118103027344e+00 2.301387071609497070e+00 2.534186363220214844e+00
4.345000000000000000e+03 6.373542785644531250e+01 -1.048599720001220703e+01 1.131321668624877930e+00 1.127264404296875000e+01 3.721189737319946289e+00 -1.269329667091369629e+00
4.346000000000000000e+03 6.278984832763671875e+01 1.455278396606445312e+00 -8.177142739295959473e-01 1.004778003692626953e+01 2.769019842147827148e+00 -1.462002694606781006e-01
4.347000000000000000e+03 6.169726562500000000e+01 -1.703399658203125000e+00 -1.951024830341339111e-01 1.235590076446533203e+01 3.648239374160766602e+00 -2.603370882570743561e-02
4.348000000000000000e+03 6.534690093994140625e+01 -4.589570522308349609e+00 3.038553714752197266e+00 9.847575187683105469e+00 3.865838766098022461e+00 9.915714263916015625e-01
4.349000000000000000e+03 5.831665802001953125e+01 8.941494226455688477e-01 -5.341877341270446777e-01 7.763457775115966797e+00 2.168781042098999023e+00 -2.687714815139770508e+00
4.350000000000000000e+03 6.414953613281250000e+01 -9.076560020446777344e+00 2.585659980773925781e+00 1.094216156005859375e+01 4.058346748352050781e+00 -1.465622663497924805e+00
4.351000000000000000e+03 6.440140533447265625e+01 -3.149258136749267578e+00 2.026661872863769531e+00 1.074138832092285156e+01 3.830415010452270508e+00 1.429748177528381348e+00
4.352000000000000000e+03 6.393442535400390625e+01 -2.854347467422485352e+00 1.662413716316223145e+00 1.120001792907714844e+01 3.858729362487792969e+00 1.426412343978881836e+00
4.353000000000000000e+03 6.429692077636718750e+01 -1.105375647544860840e+00 4.266329109668731689e-01 1.069903373718261719e+01 3.337700128555297852e+00 1.072034358978271484e+00
4.354000000000000000e+03 6.506394195556640625e+01 -9.168951988220214844e+00 2.434032201766967773e+00 1.021184062957763672e+01 3.793761730194091797e+00 -1.337914824485778809e+00
4.355000000000000000e+03 5.819868850708007812e+01 -1.542064189910888672e+01 -5.696359872817993164e-01 7.155985355377197266e+00 1.975904822349548340e+00 2.272063255310058594e+00
4.356000000000000000e+03 6.405109405517578125e+01 -1.217695617675781250e+01 1.066763401031494141e-01 1.066087055206298828e+01 3.230264186859130859e+00 -8.741110563278198242e-01
4.357000000000000000e+03 6.071827316284179688e+01 -1.485455703735351562e+01 -9.688038229942321777e-01 9.219790458679199219e+00 2.475296020507812500e+00 1.294364929199218750e+00
4.358000000000000000e+03 6.257161331176757812e+01 -1.483051490783691406e+01 -8.848105072975158691e-01 9.719400405883789062e+00 2.650376796722412109e+00 3.234879076480865479e-01
4.359000000000000000e+03 6.036999511718750000e+01 -1.530809020996093750e+01 -9.432387351989746094e-01 8.789310455322265625e+00 2.353821516036987305e+00 1.432059168815612793e+00
4.360000000000000000e+03 6.448283386230468750e+01 -9.062414169311523438e+00 2.570976495742797852e+00 1.060392856597900391e+01 3.952471494674682617e+00 -1.410614371299743652e+00
4.361000000000000000e+03 5.846872329711914062e+01 -1.419208812713623047e+01 -5.708630681037902832e-01 7.775237560272216797e+00 2.161312341690063477e+00 2.489154815673828125e+00
4.362000000000000000e+03 5.824876785278320312e+01 2.017268657684326172e+00 -5.721995830535888672e-01 7.285793781280517578e+00 2.014078140258789062e+00 -2.392370223999023438e+00
4.363000000000000000e+03 6.208127975463867188e+01 1.474382638931274414e+00 -9.388160705566406250e-01 9.987330436706542969e+00 2.714554309844970703e+00 -5.418319702148437500e-01
4.364000000000000000e+03 6.343755340576171875e+01 4.575105309486389160e-01 -5.134605765342712402e-01 1.046817874908447266e+01 2.986415386199951172e+00 3.251673579216003418e-01
4.365000000000000000e+03 6.067316436767578125e+01 -1.387923359870910645e+00 -6.864840388298034668e-01 1.197891998291015625e+01 3.387730598449707031e+00 -1.265556097030639648e+00
4.366000000000000000e+03 6.237842559814453125e+01 1.882775545120239258e+00 -9.470504522323608398e-01 9.811919212341308594e+00 2.659460544586181641e+00 -4.465067982673645020e-01
4.367000000000000000e+03 6.052433013916015625e+01 2.005728960037231445e+00 -9.962387681007385254e-01 9.192192077636718750e+00 2.458786010742187500e+00 -1.426131844520568848e+00
4.368000000000000000e+03 6.129776382446289062e+01 2.680622816085815430e+00 -1.023455262184143066e+00 9.126682281494140625e+00 2.430968046188354492e+00 -1.012198925018310547e+00
4.369000000000000000e+03 5.818175888061523438e+01 -1.802280235290527344e+01 -5.871883630752563477e-01 6.630383491516113281e+00 1.812958478927612305e+00 1.722559213638305664e+00
4.370000000000000000e+03 6.036577987670898438e+01 -1.684864997863769531e+01 -9.172146320343017578e-01 8.162865638732910156e+00 2.173695325851440430e+00 1.320090413093566895e+00
4.371000000000000000e+03 6.484040832519531250e+01 -9.916193962097167969e+00 1.787234544754028320e+00 1.049318695068359375e+01 3.684126377105712891e+00 -1.423865079879760742e+00
4.372000000000000000e+03 5.839591598510742188e+01 3.308022260665893555e+00 -6.594254374504089355e-01 7.175859928131103516e+00 1.954930305480957031e+00 -2.070331811904907227e+00
4.373000000000000000e+03 5.888673019409179688e+01 2.391963005065917969e+00 -7.499508857727050781e-01 7.800705909729003906e+00 2.115226507186889648e+00 -2.082206487655639648e+00
4.374000000000000000e+03 6.200639724731445312e+01 -3.200150430202484131e-01 -6.579885482788085938e-01 1.114553356170654297e+01 3.146263599395751953e+00 -3.244515657424926758e-01
4.375000000000000000e+03 6.319021224975585938e+01 9.976984262466430664e-01 -6.792421340942382812e-01 1.030432987213134766e+01 2.887526512145996094e+00 1.255144327878952026e-01
4.376000000000000000e+03 5.782049560546875000e+01 3.720324277877807617e+00 -5.555928945541381836e-01 6.654976367950439453e+00 1.829815149307250977e+00 -2.099647760391235352e+00
4.377000000000000000e+03 5.758016586303710938e+01 4.792055606842041016e+00 -5.284576416015625000e-01 6.312154769897460938e+00 1.735109210014343262e+00 -1.903273582458496094e+00
4.378000000000000000e+03 5.917949295043945312e+01 5.840145587921142578e+00 -7.652176022529602051e-01 7.081773281097412109e+00 1.894966721534729004e+00 -1.449802994728088379e+00
4.379000000000000000e+03 5.867028045654296875e+01 5.101071834564208984e+00 -7.076696753501892090e-01 6.937455177307128906e+00 1.868935704231262207e+00 -1.685397028923034668e+00
4.380000000000000000e+03 6.073318862915039062e+01 -1.809159278869628906e+01 -9.080685377120971680e-01 7.892650604248046875e+00 2.095374584197998047e+00 1.069750547409057617e+00
4.381000000000000000e+03 6.136279296875000000e+01 -1.638025665283203125e+01 -9.893030524253845215e-01 8.802271842956542969e+00 2.343890666961669922e+00 9.366821050643920898e-01
4.382000000000000000e+03 4.414650726318359375e+01 1.479861164093017578e+01 2.920956313610076904e-01 1.864954471588134766e+00 6.471150517463684082e-01 -3.678100109100341797e-01
4.383000000000000000e+03 5.333995819091796875e+01 1.013196277618408203e+01 -2.419764362275600433e-02 4.025649547576904297e+00 1.200435519218444824e+00 -1.243909358978271484e+00
4.384000000000000000e+03 5.493807601928710938e+01 1.117098331451416016e+01 -1.840690821409225464e-01 4.668287277221679688e+00 1.345265388488769531e+00 -1.181903004646301270e+00
4.385000000000000000e+03 4.113814163208007812e+01 1.458258533477783203e+01 2.620607018470764160e-01 1.389410853385925293e+00 4.954414665699005127e-01 -1.421123445034027100e-01
4.386000000000000000e+03 4.177910614013671875e+01 1.297486209869384766e+01 2.519810795783996582e-01 1.362586259841918945e+00 4.843702018260955811e-01 -1.698182374238967896e-01
4.387000000000000000e+03 3.620782852172851562e+01 1.592378997802734375e+01 1.557551473379135132e-01 8.239890933036804199e-01 2.939232885837554932e-01 1.143075525760650635e-01
4.388000000000000000e+03 3.454875564575195312e+01 1.472759914398193359e+01 5.721442401409149170e-02 5.937157869338989258e-01 1.952790766954421997e-01 2.380204349756240845e-01
4.389000000000000000e+03 3.960933303833007812e+01 1.389464759826660156e+01 2.201164364814758301e-01 1.120567083358764648e+00 4.022050499916076660e-01 -2.466708980500698090e-02
4.390000000000000000e+03 4.923596191406250000e+01 -2.736400794982910156e+01 3.735359609127044678e-01 2.859185695648193359e+00 9.698165059089660645e-01 7.297253012657165527e-01
4.391000000000000000e+03 4.997998428344726562e+01 1.314639568328857422e+01 1.715655177831649780e-01 3.098316431045532227e+00 9.809646010398864746e-01 -8.359998464584350586e-01
4.392000000000000000e+03 4.869038009643554688e+01 1.229052448272705078e+01 2.278576344251632690e-01 2.684696435928344727e+00 8.737662434577941895e-01 -7.687641978263854980e-01
4.393000000000000000e+03 5.930176925659179688e+01 -2.154462242126464844e+01 -6.099486947059631348e-01 6.538945198059082031e+00 1.778698921203613281e+00 1.081769108772277832e+00
4.394000000000000000e+03 4.816080856323242188e+01 -2.422568702697753906e+01 4.228371381759643555e-01 2.326814651489257812e+00 8.248955011367797852e-01 7.625513672828674316e-01
4.395000000000000000e+03 5.864673233032226562e+01 2.001320266723632812e+01 -1.808826625347137451e-01 5.445479393005371094e+00 1.579379081726074219e+00 -5.121051669120788574e-01
4.396000000000000000e+03 6.088578414916992188e+01 -1.252228546142578125e+01 -8.465543985366821289e-01 1.089233207702636719e+01 3.013733148574829102e+00 1.221912860870361328e+00
4.397000000000000000e+03 5.996144485473632812e+01 1.979580521583557129e+00 -9.432180523872375488e-01 8.859666824340820312e+00 2.374934434890747070e+00 -1.700943589210510254e+00
4.398000000000000000e+03 5.976121139526367188e+01 -1.268214893341064453e+01 -7.985864281654357910e-01 9.946607589721679688e+00 2.744406223297119141e+00 2.052577018737792969e+00
4.399000000000000000e+03 6.502523803710937500e+01 -6.334604263305664062e+00 3.888311147689819336e+00 9.829339027404785156e+00 4.115294933319091797e+00 5.468618869781494141e-02
4.400000000000000000e+03 6.469367218017578125e+01 -6.145147323608398438e+00 4.131373882293701172e+00 1.003799915313720703e+01 4.250812053680419922e+00 1.727184653282165527e-01
4.401000000000000000e+03 6.080912017822265625e+01 -1.001991152763366699e+00 -7.497938275337219238e-01 1.157496833801269531e+01 3.247552156448364258e+00 -1.189787387847900391e+00
4.402000000000000000e+03 6.477996063232421875e+01 -4.957902908325195312e+00 3.548510551452636719e+00 1.014666938781738281e+01 4.108553886413574219e+00 9.324012994766235352e-01
4.403000000000000000e+03 6.234762191772460938e+01 -1.144960689544677734e+01 -1.070464700460433960e-01 1.182089233398437500e+01 3.514153718948364258e+00 -3.224232196807861328e-01
4.404000000000000000e+03 6.525618743896484375e+01 -7.034928798675537109e+00 3.630267858505249023e+00 9.723088264465332031e+00 4.006007194519042969e+00 -4.178229570388793945e-01
4.405000000000000000e+03 6.475373840332031250e+01 -6.952294349670410156e+00 4.041095733642578125e+00 1.004250240325927734e+01 4.225079536437988281e+00 -4.150415062904357910e-01
4.406000000000000000e+03 6.106381607055664062e+01 -1.183438682556152344e+01 -6.999374628067016602e-01 1.165664291381835938e+01 3.287011623382568359e+00 9.283264279365539551e-01
4.407000000000000000e+03 6.436771392822265625e+01 -8.224549293518066406e+00 3.364649295806884766e+00 1.059068584442138672e+01 4.186600208282470703e+00 -1.250427126884460449e+00
4.408000000000000000e+03 5.893586349487304688e+01 -1.407164096832275391e+01 -6.942008733749389648e-01 8.321087837219238281e+00 2.288066148757934570e+00 2.345584392547607422e+00
4.409000000000000000e+03 6.384977340698242188e+01 -2.160042285919189453e+00 1.005788922309875488e+00 1.115918064117431641e+01 3.649490833282470703e+00 1.241211295127868652e+00
4.410000000000000000e+03 6.161106109619140625e+01 -1.285409808158874512e+00 -4.598947465419769287e-01 1.193083381652832031e+01 3.441281795501708984e+00 -2.895734310150146484e-01
4.411000000000000000e+03 6.495872497558593750e+01 -7.880420684814453125e+00 3.394126176834106445e+00 1.003779029846191406e+01 4.029574871063232422e+00 -9.479508996009826660e-01
4.412000000000000000e+03 6.471051788330078125e+01 -8.156134605407714844e+00 3.318172454833984375e+00 1.024886322021484375e+01 4.070110797882080078e+00 -1.114576101303100586e+00
4.413000000000000000e+03 6.270433044433593750e+01 -4.572705030441284180e-01 -3.905903697013854980e-01 1.112151145935058594e+01 3.219276189804077148e+00 2.311923652887344360e-01
4.414000000000000000e+03 6.211887741088867188e+01 -1.518075823783874512e+00 -1.033643782138824463e-01 1.199976348876953125e+01 3.568919658660888672e+00 2.283890098333358765e-01
4.415000000000000000e+03 6.317394638061523438e+01 -3.162610232830047607e-01 -2.946709394454956055e-01 1.089062595367431641e+01 3.178786516189575195e+00 4.386120736598968506e-01
4.416000000000000000e+03 6.291741561889648438e+01 -1.103710842132568359e+01 3.798550367355346680e-01 1.172923278808593750e+01 3.632726430892944336e+00 -8.211291432380676270e-01
4.417000000000000000e+03 6.392666625976562500e+01 -9.708169937133789062e+00 1.920187473297119141e+00 1.116448497772216797e+01 3.925401687622070312e+00 -1.471535325050354004e+00
4.418000000000000000e+03 6.347213745117187500e+01 -1.159383678436279297e+01 2.472249269485473633e-01 1.115001678466796875e+01 3.419172525405883789e+00 -8.539096713066101074e-01
4.419000000000000000e+03 6.347750473022460938e+01 -1.327435779571533203e+01 -4.721136689186096191e-01 1.045192527770996094e+01 2.993943452835083008e+00 -3.586731255054473877e-01
4.420000000000000000e+03 6.365291213989257812e+01 -5.854624882340431213e-02 -2.665649950504302979e-01 1.064590358734130859e+01 3.113801717758178711e+00 5.772293806076049805e-01
4.421000000000000000e+03 6.299363327026367188e+01 2.254133969545364380e-01 -5.699809789657592773e-01 1.066286182403564453e+01 3.027864217758178711e+00 1.786231249570846558e-01
4.422000000000000000e+03 6.376446151733398438e+01 -3.264684915542602539e+00 2.112123250961303711e+00 1.134307384490966797e+01 4.036559104919433594e+00 1.492446064949035645e+00
4.423000000000000000e+03 6.452281951904296875e+01 -9.388344764709472656e+00 2.267497539520263672e+00 1.063151359558105469e+01 3.869703292846679688e+00 -1.444151759147644043e+00
4.424000000000000000e+03 6.290609741210937500e+01 -1.321946811676025391e+01 -5.843003988265991211e-01 1.057722568511962891e+01 2.997877597808837891e+00 -1.053935214877128601e-01
4.425000000000000000e+03 5.860458374023437500e+01 -1.472303295135498047e+01 -6.310304999351501465e-01 7.731707572937011719e+00 2.130203247070312500e+00 2.312254190444946289e+00
4.426000000000000000e+03 6.158921432495117188e+01 -1.518406391143798828e+01 -9.831312298774719238e-01 9.383475303649902344e+00 2.520103216171264648e+00 8.412618637084960938e-01
4.427000000000000000e+03 6.213618850708007812e+01 -1.512005805969238281e+01 -9.549115300178527832e-01 9.557276725769042969e+00 2.580709695816040039e+00 5.764776468276977539e-01
4.428000000000000000e+03 6.512443542480468750e+01 -5.448790073394775391e+00 3.601756334304809570e+00 9.853024482727050781e+00 4.036434173583984375e+00 6.081652045249938965e-01
4.429000000000000000e+03 5.925708007812500000e+01 1.582709431648254395e+00 -7.916076779365539551e-01 8.399041175842285156e+00 2.282230138778686523e+00 -2.111301660537719727e+00
4.430000000000000000e+03 5.830678176879882812e+01 -1.611513328552246094e+01 -6.155920028686523438e-01 7.088898181915283203e+00 1.941991925239562988e+00 2.068970441818237305e+00
4.431000000000000000e+03 6.217002105712890625e+01 8.420078754425048828e-01 -8.323737382888793945e-01 1.036996173858642578e+01 2.861276388168334961e+00 -3.748916983604431152e-01
4.432000000000000000e+03 6.033625411987304688e+01 -4.512089192867279053e-01 -8.538348078727722168e-01 1.079695320129394531e+01 2.982935667037963867e+00 -1.653366446495056152e+00
4.433000000000000000e+03 6.162196350097656250e+01 1.745680809020996094e+00 -9.872040748596191406e-01 9.692943572998046875e+00 2.611721754074096680e+00 -8.364762067794799805e-01
4.434000000000000000e+03 6.113213729858398438e+01 -1.718092536926269531e+01 -9.595663547515869141e-01 8.362539291381835938e+00 2.220891714096069336e+00 9.985296726226806641e-01
4.435000000000000000e+03 5.948810958862304688e+01 3.296510219573974609e+00 -8.568322658538818359e-01 7.925457954406738281e+00 2.120587825775146484e+00 -1.730528116226196289e+00
4.436000000000000000e+03 6.334642791748046875e+01 -9.202409982681274414e-01 3.709053620696067810e-02 1.110846233367919922e+01 3.343665838241577148e+00 7.116894125938415527e-01
4.437000000000000000e+03 5.809239578247070312e+01 2.725158214569091797e+00 -5.815747976303100586e-01 7.024844169616699219e+00 1.932980775833129883e+00 -2.257592201232910156e+00
4.438000000000000000e+03 5.863004302978515625e+01 1.871962547302246094e+00 -6.784958839416503906e-01 7.775430679321289062e+00 2.129080533981323242e+00 -2.313997507095336914e+00
4.439000000000000000e+03 5.980387496948242188e+01 2.598488092422485352e+00 -9.060220718383789062e-01 8.412017822265625000e+00 2.251798629760742188e+00 -1.702715873718261719e+00
4.440000000000000000e+03 5.894718551635742188e+01 3.920641183853149414e+00 -7.746569514274597168e-01 7.397285461425781250e+00 1.986788511276245117e+00 -1.776486992835998535e+00
4.441000000000000000e+03 5.954092407226562500e+01 -1.580706119537353516e+01 -8.307212591171264648e-01 8.047550201416015625e+00 2.165048599243164062e+00 1.716536998748779297e+00
4.442000000000000000e+03 6.216039657592773438e+01 -1.462749481201171875e+01 -9.343021512031555176e-01 9.827785491943359375e+00 2.668045043945312500e+00 5.346263051033020020e-01
4.443000000000000000e+03 6.093355178833007812e+01 -1.558656120300292969e+01 -9.829591512680053711e-01 8.963414192199707031e+00 2.394136428833007812e+00 1.146439194679260254e+00
4.444000000000000000e+03 5.979769515991210938e+01 -1.638855361938476562e+01 -8.614127039909362793e-01 8.005848884582519531e+00 2.143330812454223633e+00 1.534193754196166992e+00
4.445000000000000000e+03 5.335984802246093750e+01 1.256600761413574219e+01 -4.496158659458160400e-02 4.134812831878662109e+00 1.226955294609069824e+00 -1.070671558380126953e+00
4.446000000000000000e+03 5.247755813598632812e+01 1.093723487854003906e+01 3.672057017683982849e-02 3.754589080810546875e+00 1.137392878532409668e+00 -1.153170704841613770e+00
4.447000000000000000e+03 4.516828918457031250e+01 1.619829368591308594e+01 2.893276810646057129e-01 2.146009922027587891e+00 7.306013107299804688e-01 -4.235076010227203369e-01
4.448000000000000000e+03 4.228729629516601562e+01 1.689216613769531250e+01 2.960701286792755127e-01 1.704066276550292969e+00 6.000409126281738281e-01 -2.506355345249176025e-01
4.449000000000000000e+03 5.145909500122070312e+01 1.387802314758300781e+01 9.129128605127334595e-02 3.593318462371826172e+00 1.105382919311523438e+00 -8.799393177032470703e-01
4.450000000000000000e+03 4.548160934448242188e+01 1.142462635040283203e+01 2.907911539077758789e-01 1.824013590812683105e+00 6.344414353370666504e-01 -4.781284928321838379e-01
4.451000000000000000e+03 3.880989074707031250e+01 1.545030403137207031e+01 2.227913886308670044e-01 1.128677368164062500e+00 4.054406285285949707e-01 -1.080295164138078690e-02
4.452000000000000000e+03 4.755924987792968750e+01 -2.995174407958984375e+01 4.600411653518676758e-01 2.586600780487060547e+00 9.139925837516784668e-01 5.095049142837524414e-01
4.453000000000000000e+03 5.992705917358398438e+01 -1.301877212524414062e+01 -8.397780656814575195e-01 9.853952407836914062e+00 2.704252243041992188e+00 1.930837988853454590e+00
4.454000000000000000e+03 6.004462814331054688e+01 -4.448763132095336914e-01 -8.416709303855895996e-01 1.048350715637207031e+01 2.892550706863403320e+00 -1.948025822639465332e+00
4.455000000000000000e+03 5.909915161132812500e+01 -1.339739227294921875e+01 -7.058995962142944336e-01 8.810598373413085938e+00 2.431409597396850586e+00 2.415099143981933594e+00
4.456000000000000000e+03 6.019174575805664062e+01 -1.225744533538818359e+01 -8.226519823074340820e-01 1.067372989654541016e+01 2.955323457717895508e+00 1.808584451675415039e+00
4.457000000000000000e+03 5.965768432617187500e+01 2.745427191257476807e-01 -8.420237898826599121e-01 9.619811058044433594e+00 2.633336067199707031e+00 -2.118254899978637695e+00
4.458000000000000000e+03 6.277000427246093750e+01 7.090858221054077148e-01 -7.013656497001647949e-01 1.043971729278564453e+01 2.921505451202392578e+00 -2.438917756080627441e-02
4.459000000000000000e+03 6.122199630737304688e+01 -1.213437938690185547e+01 -7.377320528030395508e-01 1.141300201416015625e+01 3.202580928802490234e+00 8.061116337776184082e-01
4.460000000000000000e+03 6.239561843872070312e+01 -1.374175834655761719e+01 -8.030655384063720703e-01 1.031290626525878906e+01 2.852952241897583008e+00 2.919859290122985840e-01
4.461000000000000000e+03 6.050880432128906250e+01 -1.241999721527099609e+01 -8.441520929336547852e-01 1.075712966918945312e+01 2.973893165588378906e+00 1.510679006576538086e+00
4.462000000000000000e+03 6.281503677368164062e+01 -1.666594147682189941e+00 2.581962049007415771e-01 1.176228141784667969e+01 3.606143236160278320e+00 7.411214709281921387e-01
4.463000000000000000e+03 6.022795104980468750e+01 -8.313698768615722656e-01 -8.224076032638549805e-01 1.107778835296630859e+01 3.076614141464233398e+00 -1.788113713264465332e+00
4.464000000000000000e+03 6.239315032958984375e+01 -1.201374244689941406e+01 -3.636715710163116455e-01 1.140326118469238281e+01 3.311876773834228516e+00 -1.238413155078887939e-01
4.465000000000000000e+03 6.492563629150390625e+01 -5.822257995605468750e+00 3.871136426925659180e+00 9.916908264160156250e+00 4.136413574218750000e+00 4.138971865177154541e-01
4.466000000000000000e+03 6.414216613769531250e+01 -1.068466472625732422e+01 1.060783982276916504e+00 1.094526100158691406e+01 3.601813554763793945e+00 -1.293240427970886230e+00
4.467000000000000000e+03 6.096507263183593750e+01 -6.110927462577819824e-01 -8.091548681259155273e-01 1.122326564788818359e+01 3.124233245849609375e+00 -1.128489971160888672e+00
4.468000000000000000e+03 6.110029220581054688e+01 -1.127144098281860352e+00 -6.731429696083068848e-01 1.178669834136962891e+01 3.334066390991210938e+00 -8.703188300132751465e-01
4.469000000000000000e+03 6.199411010742187500e+01 2.830516695976257324e-01 -7.825008630752563477e-01 1.070240783691406250e+01 2.975972175598144531e+00 -4.224089980125427246e-01
4.470000000000000000e+03 6.140687179565429688e+01 6.213037967681884766e-01 -9.122638106346130371e-01 1.040446376800537109e+01 2.847660064697265625e+00 -8.806443214416503906e-01
4.471000000000000000e+03 6.238800430297851562e+01 4.767447113990783691e-01 -7.415180206298828125e-01 1.057748985290527344e+01 2.950791597366333008e+00 -1.912311464548110962e-01
4.472000000000000000e+03 6.184329223632812500e+01 6.851952672004699707e-01 -8.646994233131408691e-01 1.043866348266601562e+01 2.872189283370971680e+00 -5.828486084938049316e-01
4.473000000000000000e+03 6.098552703857421875e+01 1.274563193321228027e+00 -9.844903945922851562e-01 9.778405189514160156e+00 2.638174295425415039e+00 -1.188500285148620605e+00
4.474000000000000000e+03 5.976433944702148438e+01 8.143885135650634766e-01 -8.903719782829284668e-01 9.320803642272949219e+00 2.529129505157470703e+00 -2.002479076385498047e+00
4.475000000000000000e+03 6.442259979248046875e+01 -8.789606094360351562e+00 2.942007303237915039e+00 1.061781978607177734e+01 4.067948341369628906e+00 -1.366780519485473633e+00
4.476000000000000000e+03 6.348008728027343750e+01 -1.213535118103027344e+01 -3.872651979327201843e-02 1.092292594909667969e+01 3.265259742736816406e+00 -6.814608573913574219e-01
4.477000000000000000e+03 6.405309295654296875e+01 -1.113752174377441406e+01 7.311202287673950195e-01 1.094900608062744141e+01 3.504037857055664062e+00 -1.178389906883239746e+00
4.478000000000000000e+03 6.258177185058593750e+01 5.115100368857383728e-02 -6.104962825775146484e-01 1.080556774139404297e+01 3.058521509170532227e+00 3.087861696258187294e-04
4.479000000000000000e+03 6.234835433959960938e+01 -1.320371437072753906e+01 -7.111310958862304688e-01 1.063574409484863281e+01 2.977384090423583984e+00 2.195344269275665283e-01
4.480000000000000000e+03 5.897508621215820312e+01 1.730728626251220703e+00 -7.465927600860595703e-01 8.105790138244628906e+00 2.207759141921997070e+00 -2.230771064758300781e+00
4.481000000000000000e+03 5.877237701416015625e+01 -1.532651710510253906e+01 -6.871664524078369141e-01 7.638483524322509766e+00 2.085395097732543945e+00 2.117355346679687500e+00
4.482000000000000000e+03 5.935502624511718750e+01 -1.387069797515869141e+01 -7.830436229705810547e-01 8.810022354125976562e+00 2.408093690872192383e+00 2.157494783401489258e+00
4.483000000000000000e+03 6.070287704467773438e+01 -1.616884231567382812e+01 -9.610973596572875977e-01 8.619720458984375000e+00 2.297586679458618164e+00 1.214573383331298828e+00
4.484000000000000000e+03 5.919489288330078125e+01 -1.684219360351562500e+01 -7.707093358039855957e-01 7.491981506347656250e+00 2.016381502151489258e+00 1.678793072700500488e+00
4.485000000000000000e+03 6.050808334350585938e+01 1.324218392372131348e+00 -9.886378049850463867e-01 9.586359024047851562e+00 2.579316377639770508e+00 -1.473449468612670898e+00
4.486000000000000000e+03 6.174402999877929688e+01 -1.441784667968750000e+01 -9.535731673240661621e-01 9.863785743713378906e+00 2.673063755035400391e+00 7.361042499542236328e-01
4.487000000000000000e+03 6.113179779052734375e+01 -1.511794090270996094e+01 -9.910943508148193359e-01 9.241641044616699219e+00 2.475163936614990234e+00 1.088140249252319336e+00
4.488000000000000000e+03 5.937370300292968750e+01 -1.516736030578613281e+01 -8.066169023513793945e-01 8.190398216247558594e+00 2.215134382247924805e+00 1.906159877777099609e+00
4.489000000000000000e+03 5.913197326660156250e+01 -1.458089351654052734e+01 -7.523202300071716309e-01 8.270886421203613281e+00 2.255569696426391602e+00 2.132772684097290039e+00
4.490000000000000000e+03 6.011220932006835938e+01 -1.586016845703125000e+01 -9.180172681808471680e-01 8.426516532897949219e+00 2.252549886703491211e+00 1.500375270843505859e+00
4.491000000000000000e+03 5.981389236450195312e+01 -1.759448051452636719e+01 -8.296623229980468750e-01 7.613327026367187500e+00 2.035099506378173828e+00 1.416548132896423340e+00
4.492000000000000000e+03 5.885591125488281250e+01 2.899800300598144531e+00 -7.494958639144897461e-01 7.632118225097656250e+00 2.064786672592163086e+00 -2.027291297912597656e+00
4.493000000000000000e+03 5.849185943603515625e+01 2.516167163848876953e+00 -6.667925715446472168e-01 7.385434150695800781e+00 2.015592336654663086e+00 -2.198777198791503906e+00
4.494000000000000000e+03 5.313950347900390625e+01 1.416831588745117188e+01 -2.147585898637771606e-02 4.125040054321289062e+00 1.231069326400756836e+00 -9.289433956146240234e-01
4.495000000000000000e+03 4.932757949829101562e+01 1.750068664550781250e+01 1.846225559711456299e-01 3.174385547637939453e+00 1.007702469825744629e+00 -6.101590991020202637e-01
4.496000000000000000e+03 4.049969100952148438e+01 1.629214096069335938e+01 2.639939785003662109e-01 1.395234823226928711e+00 4.977686405181884766e-01 -1.315126717090606689e-01
4.497000000000000000e+03 3.885406875610351562e+01 2.035612297058105469e+01 3.062668144702911377e-01 1.367666840553283691e+00 5.021800994873046875e-01 -1.090184152126312256e-01
4.498000000000000000e+03 4.654417037963867188e+01 1.494081878662109375e+01 2.738285660743713379e-01 2.355763196945190430e+00 7.888775467872619629e-01 -5.383692979812622070e-01
4.499000000000000000e+03 3.521599197387695312e+01 1.742757987976074219e+01 1.578856408596038818e-01 7.779778242111206055e-01 2.807590365409851074e-01 1.036892756819725037e-01
4.500000000000000000e+03 6.276431655883789062e+01 -1.057446599006652832e+00 -8.463507890701293945e-02 1.144654178619384766e+01 3.408572196960449219e+00 4.718277454376220703e-01
4.501000000000000000e+03 6.338485336303710938e+01 -1.601595282554626465e+00 4.441162943840026855e-01 1.134140968322753906e+01 3.535657882690429688e+00 9.459944367408752441e-01
4.502000000000000000e+03 6.158826446533203125e+01 -8.924669027328491211e-01 -5.789120197296142578e-01 1.163153839111328125e+01 3.315788030624389648e+00 -4.428641796112060547e-01
4.503000000000000000e+03 6.028828430175781250e+01 -1.277423000335693359e+01 -8.635509014129638672e-01 1.030246162414550781e+01 2.831673145294189453e+00 1.690386056900024414e+00
4.504000000000000000e+03 6.292015075683593750e+01 -1.207586765289306641e+01 -2.065834850072860718e-01 1.121051788330078125e+01 3.301180362701416016e+00 -4.317823052406311035e-01
4.505000000000000000e+03 6.192835235595703125e+01 -1.198967170715332031e+01 -4.829988777637481689e-01 1.144735717773437500e+01 3.289307594299316406e+00 1.801839321851730347e-01
4.506000000000000000e+03 6.386950302124023438e+01 -2.541194915771484375e+00 1.408632397651672363e+00 1.123347091674804688e+01 3.792631149291992188e+00 1.369044184684753418e+00
4.507000000000000000e+03 6.291831207275390625e+01 -1.264748859405517578e+01 -4.306905865669250488e-01 1.086885070800781250e+01 3.131448268890380859e+00 -2.420283108949661255e-01
4.508000000000000000e+03 5.940465545654296875e+01 7.580230832099914551e-01 -8.276047110557556152e-01 9.019053459167480469e+00 2.457434654235839844e+00 -2.221689701080322266e+00
4.509000000000000000e+03 6.090120697021484375e+01 6.256267428398132324e-01 -9.479452967643737793e-01 1.022609519958496094e+01 2.783445119857788086e+00 -1.240812301635742188e+00
4.510000000000000000e+03 6.172768783569335938e+01 -1.278404617309570312e+01 -7.287824153900146484e-01 1.090403366088867188e+01 3.052575349807739258e+00 5.046992897987365723e-01
4.511000000000000000e+03 6.145479965209960938e+01 1.188731074333190918e+00 -9.658079147338867188e-01 9.997199058532714844e+00 2.709417343139648438e+00 -9.168564081192016602e-01
4.512000000000000000e+03 6.093968963623046875e+01 -1.294357776641845703e+01 -8.908191919326782227e-01 1.057589340209960938e+01 2.905522346496582031e+00 1.192190885543823242e+00
4.513000000000000000e+03 5.893965911865234375e+01 -1.601664352416992188e+01 -7.312999367713928223e-01 7.546339035034179688e+00 2.044511795043945312e+00 1.943993330001831055e+00
4.514000000000000000e+03 5.977904510498046875e+01 1.164210557937622070e+00 -9.198112487792968750e-01 9.146206855773925781e+00 2.467918634414672852e+00 -1.961743831634521484e+00
4.515000000000000000e+03 6.142905044555664062e+01 -4.386129975318908691e-01 -7.346889376640319824e-01 1.117791557312011719e+01 3.132967948913574219e+00 -6.957513093948364258e-01
4.516000000000000000e+03 5.951634597778320312e+01 1.860979318618774414e+00 -8.543967008590698242e-01 8.513761520385742188e+00 2.297809600830078125e+00 -1.929627060890197754e+00
4.517000000000000000e+03 4.649636840820312500e+01 1.764656829833984375e+01 2.651062309741973877e-01 2.524401664733886719e+00 8.368523716926574707e-01 -4.821608662605285645e-01
4.518000000000000000e+03 4.770681381225585938e+01 1.361584377288818359e+01 2.537402212619781494e-01 2.528496265411376953e+00 8.346709609031677246e-01 -6.465572714805603027e-01
4.519000000000000000e+03 4.505803680419921875e+01 1.878607177734375000e+01 2.867448031902313232e-01 2.320857524871826172e+00 7.822806835174560547e-01 -3.962754011154174805e-01
4.520000000000000000e+03 7.071097564697265625e+01 3.302803039550781250e+01 9.762628003954887390e-03 7.346936225891113281e+00 2.207009792327880859e+00 -5.820894241333007812e-02
4.521000000000000000e+03 6.126961517333984375e+01 -7.874947190284729004e-01 -6.993236541748046875e-01 1.147043418884277344e+01 3.231333255767822266e+00 -7.544869184494018555e-01
4.522000000000000000e+03 6.169227981567382812e+01 -2.559982836246490479e-01 -7.378903627395629883e-01 1.110832881927490234e+01 3.111131668090820312e+00 -5.299394130706787109e-01
4.523000000000000000e+03 6.220965576171875000e+01 -8.600482344627380371e-02 -6.673226952552795410e-01 1.097229576110839844e+01 3.091491937637329102e+00 -1.997863948345184326e-01
4.524000000000000000e+03 5.960709381103515625e+01 -1.435886001586914062e+01 -8.277251720428466797e-01 8.735855102539062500e+00 2.372438907623291016e+00 1.944685459136962891e+00
4.525000000000000000e+03 6.160989761352539062e+01 -1.244089603424072266e+01 -7.112559080123901367e-01 1.118921756744384766e+01 3.143388271331787109e+00 5.305714607238769531e-01
4.526000000000000000e+03 6.230704116821289062e+01 -1.121901154518127441e+00 -2.348194569349288940e-01 1.172372817993164062e+01 3.446672439575195312e+00 2.365722358226776123e-01
4.527000000000000000e+03 5.975641250610351562e+01 -1.364152908325195312e+01 -8.372913599014282227e-01 9.248737335205078125e+00 2.523433923721313477e+00 1.973665833473205566e+00
4.528000000000000000e+03 5.912382888793945312e+01 1.198554515838623047e+00 -7.541083693504333496e-01 8.485125541687011719e+00 2.319304943084716797e+00 -2.261562347412109375e+00
4.529000000000000000e+03 6.202236175537109375e+01 -1.396881484985351562e+01 -8.879753351211547852e-01 1.018437671661376953e+01 2.788920402526855469e+00 5.357775092124938965e-01
4.530000000000000000e+03 6.141415023803710938e+01 -1.477987003326416016e+01 -9.629704952239990234e-01 9.545626640319824219e+00 2.574796915054321289e+00 9.118270277976989746e-01
4.531000000000000000e+03 6.168036651611328125e+01 -1.371722793579101562e+01 -8.942619562149047852e-01 1.025106620788574219e+01 2.807041168212890625e+00 6.973365545272827148e-01
4.532000000000000000e+03 5.990197753906250000e+01 5.424273014068603516e-01 -8.917413949966430664e-01 9.614156723022460938e+00 2.616724729537963867e+00 -1.928056240081787109e+00
4.533000000000000000e+03 6.105670547485351562e+01 -1.447903347015380859e+01 -9.636732339859008789e-01 9.606788635253906250e+00 2.592934608459472656e+00 1.107528924942016602e+00
4.534000000000000000e+03 5.991563034057617188e+01 -1.487539577484130859e+01 -8.854690790176391602e-01 8.698445320129394531e+00 2.343892812728881836e+00 1.693563580513000488e+00
4.535000000000000000e+03 5.945537948608398438e+01 1.163225889205932617e+00 -8.291833400726318359e-01 8.854951858520507812e+00 2.407730579376220703e+00 -2.074687004089355469e+00
4.536000000000000000e+03 6.194630432128906250e+01 -1.248689460754394531e+01 -6.309817433357238770e-01 1.110576343536376953e+01 3.142434597015380859e+00 2.967477142810821533e-01
4.537000000000000000e+03 5.054516601562500000e+01 1.561114788055419922e+01 1.288389712572097778e-01 3.420530796051025391e+00 1.064810872077941895e+00 -7.587791681289672852e-01
4.538000000000000000e+03 4.348263931274414062e+01 1.922397804260253906e+01 3.046950101852416992e-01 2.008154153823852539e+00 6.938547492027282715e-01 -2.981217503547668457e-01
4.539000000000000000e+03 4.166177749633789062e+01 1.892800521850585938e+01 3.094541728496551514e-01 1.719341754913330078e+00 6.086387634277343750e-01 -2.172374576330184937e-01
4.540000000000000000e+03 6.693278503417968750e+01 3.285292816162109375e+01 1.474180072546005249e-02 6.745900154113769531e+00 2.028192520141601562e+00 -9.113884717226028442e-02
4.541000000000000000e+03 6.922704315185546875e+01 3.493350219726562500e+01 2.062443830072879791e-02 7.065552234649658203e+00 2.125853061676025391e+00 -6.575882434844970703e-02
4.542000000000000000e+03 5.987952423095703125e+01 6.436268985271453857e-02 -8.761533498764038086e-01 9.979272842407226562e+00 2.730936050415039062e+00 -2.008940458297729492e+00
4.543000000000000000e+03 6.003397369384765625e+01 -1.682618111371994019e-01 -8.731684684753417969e-01 1.025532341003417969e+01 2.814646482467651367e+00 -1.937461495399475098e+00
4.544000000000000000e+03 6.065554809570312500e+01 -4.913904666900634766e-01 -8.629468679428100586e-01 1.104920864105224609e+01 3.055878400802612305e+00 -1.389925241470336914e+00
4.545000000000000000e+03 6.036317825317382812e+01 -2.397240325808525085e-02 -9.105905890464782715e-01 1.038239479064941406e+01 2.841541290283203125e+00 -1.636627674102783203e+00
4.546000000000000000e+03 6.054270553588867188e+01 -1.313122558593750000e+01 -9.046901464462280273e-01 1.023796844482421875e+01 2.799983739852905273e+00 1.479265332221984863e+00
4.547000000000000000e+03 6.132075500488281250e+01 -1.354779720306396484e+01 -9.184835553169250488e-01 1.029280471801757812e+01 2.812296390533447266e+00 9.372545480728149414e-01
4.548000000000000000e+03 6.134114837646484375e+01 -1.286802482604980469e+01 -8.384384512901306152e-01 1.077620887756347656e+01 2.981331110000610352e+00 8.341035246849060059e-01
4.549000000000000000e+03 6.192531585693359375e+01 -6.170274019241333008e-01 -6.161780357360839844e-01 1.138729858398437500e+01 3.231336116790771484e+00 -2.977452874183654785e-01
4.550000000000000000e+03 6.117173767089843750e+01 -1.805927157402038574e-01 -8.502660393714904785e-01 1.092287826538085938e+01 3.021783590316772461e+00 -9.693646430969238281e-01
4.551000000000000000e+03 6.108949661254882812e+01 -1.330592823028564453e+01 -9.226733446121215820e-01 1.035731220245361328e+01 2.830391883850097656e+00 1.082383632659912109e+00
4.552000000000000000e+03 6.141359329223632812e+01 -1.322257900238037109e+01 -8.885828256607055664e-01 1.053347396850585938e+01 2.893467426300048828e+00 8.516213297843933105e-01
4.553000000000000000e+03 6.044393920898437500e+01 7.399743795394897461e-01 -9.598589539527893066e-01 9.924557685852050781e+00 2.689409494400024414e+00 -1.554646492004394531e+00
4.554000000000000000e+03 6.010277557373046875e+01 1.250824928283691406e+00 -9.554666876792907715e-01 9.362912178039550781e+00 2.522233486175537109e+00 -1.731016755104064941e+00
4.555000000000000000e+03 5.954058837890625000e+01 1.525732994079589844e+00 -8.501325845718383789e-01 8.728109359741210938e+00 2.363393068313598633e+00 -1.961652159690856934e+00
4.556000000000000000e+03 6.034333038330078125e+01 -1.450041294097900391e+01 -9.349873065948486328e-01 9.221094131469726562e+00 2.485832214355468750e+00 1.504167914390563965e+00
4.557000000000000000e+03 6.078917312622070312e+01 1.271014288067817688e-02 -9.059027433395385742e-01 1.062601184844970703e+01 2.916032791137695312e+00 -1.296579241752624512e+00
4.558000000000000000e+03 6.182832336425781250e+01 -1.321864032745361328e+01 -8.143956065177917480e-01 1.061531543731689453e+01 2.940275907516479492e+00 5.274299979209899902e-01
4.559000000000000000e+03 5.084959793090820312e+01 1.825497817993164062e+01 1.370763480663299561e-01 3.568251609802246094e+00 1.111598372459411621e+00 -6.382290124893188477e-01
4.560000000000000000e+03 4.784439086914062500e+01 1.931595039367675781e+01 2.390305250883102417e-01 2.902805805206298828e+00 9.425508975982666016e-01 -5.028446912765502930e-01
4.561000000000000000e+03 3.975923919677734375e+01 1.820357322692871094e+01 2.940295338630676270e-01 1.413638234138488770e+00 5.123003721237182617e-01 -1.200755015015602112e-01
4.562000000000000000e+03 6.002841949462890625e+01 -1.408224487304687500e+01 -8.874421119689941406e-01 9.206378936767578125e+00 2.495681047439575195e+00 1.736460804939270020e+00
4.563000000000000000e+03 6.015528488159179688e+01 -1.339861297607421875e+01 -8.895556330680847168e-01 9.738394737243652344e+00 2.654651641845703125e+00 1.748931765556335449e+00
4.564000000000000000e+03 6.077250289916992188e+01 -1.352194976806640625e+01 -9.330559968948364258e-01 1.007646465301513672e+01 2.743022680282592773e+00 1.296536684036254883e+00
4.565000000000000000e+03 6.138246154785156250e+01 -1.412432956695556641e+01 -9.541652798652648926e-01 9.904143333435058594e+00 2.684993267059326172e+00 9.307842254638671875e-01
4.566000000000000000e+03 5.185418319702148438e+01 1.660619163513183594e+01 6.292085349559783936e-02 3.761379480361938477e+00 1.147290110588073730e+00 -7.562910914421081543e-01
4.567000000000000000e+03 5.335552215576171875e+01 1.589832782745361328e+01 -2.598122321069240570e-02 4.199740886688232422e+00 1.252127885818481445e+00 -7.993462681770324707e-01
4.568000000000000000e+03 5.435137939453125000e+01 1.842084884643554688e+01 -1.749368198215961456e-02 4.445909023284912109e+00 1.328524589538574219e+00 -6.819114685058593750e-01
4.569000000000000000e+03 6.071766662597656250e+01 -1.416024208068847656e+01 -9.565151333808898926e-01 9.622707366943359375e+00 2.599857807159423828e+00 1.315064072608947754e+00
4.570000000000000000e+03 5.100253677368164062e+01 1.996398925781250000e+01 1.321046352386474609e-01 3.647144079208374023e+00 1.133774638175964355e+00 -5.947847962379455566e-01
4.571000000000000000e+03 5.311097717285156250e+01 1.742475509643554688e+01 1.066805329173803329e-02 4.197453022003173828e+00 1.262436389923095703e+00 -7.194484472274780273e-01
4.572000000000000000e+03 5.333875656127929688e+01 1.967054367065429688e+01 3.701274469494819641e-02 4.177305221557617188e+00 1.264295458793640137e+00 -6.235225200653076172e-01
4.573000000000000000e+03 5.245235824584960938e+01 2.125790786743164062e+01 8.604744076728820801e-02 3.983335494995117188e+00 1.220814943313598633e+00 -5.661363005638122559e-01
4.574000000000000000e+03 4.108386993408203125e+01 -2.467792320251464844e+01 4.840909838676452637e-01 9.613336920738220215e-01 4.336273968219757080e-01 1.454193443059921265e-01
4.575000000000000000e+03 3.989505767822265625e+01 -2.486546707153320312e+01 4.791519641876220703e-01 8.608018755912780762e-01 4.019861519336700439e-01 8.478372544050216675e-02
4.576000000000000000e+03 2.737714767456054688e+01 2.480738258361816406e+01 2.481135278940200806e-01 9.535156190395355225e-02 1.030395254492759705e-01 1.020780280232429504e-01
4.577000000000000000e+03 5.867424774169921875e+01 2.262226867675781250e+01 -9.805750101804733276e-02 5.347492694854736328e+00 1.574830532073974609e+00 -4.179505109786987305e-01
4.578000000000000000e+03 6.698455047607421875e+01 -3.289248275756835938e+01 -2.650430202484130859e-01 7.103393077850341797e+00 2.051505088806152344e+00 -6.746979057788848877e-02
4.579000000000000000e+03 8.893440246582031250e+00 3.393249893188476562e+01 1.705374270677566528e-01 -7.079085707664489746e-01 -1.612113416194915771e-01 2.868137657642364502e-01
4.580000000000000000e+03 2.813865852355957031e+01 2.034636116027832031e+01 5.964704602956771851e-02 1.046082749962806702e-01 4.927659407258033752e-02 1.826340109109878540e-01
4.581000000000000000e+03 5.431650924682617188e+01 2.199460983276367188e+01 2.508021146059036255e-02 4.421122550964355469e+00 1.333860874176025391e+00 -5.407326817512512207e-01
4.582000000000000000e+03 5.474245452880859375e+01 2.005982398986816406e+01 -2.245544083416461945e-02 4.533975601196289062e+00 1.353456020355224609e+00 -6.217713952064514160e-01
4.583000000000000000e+03 3.750348663330078125e+01 -2.816838264465332031e+01 5.556244850158691406e-01 7.952911257743835449e-01 4.052746891975402832e-01 -2.646780386567115784e-02
4.584000000000000000e+03 3.027501296997070312e+01 -2.713235473632812500e+01 3.673672974109649658e-01 1.610990315675735474e-01 1.585399061441421509e-01 -2.881688177585601807e-01
4.585000000000000000e+03 5.869829559326171875e+01 -3.049707221984863281e+01 -2.021298557519912720e-01 5.558048248291015625e+00 1.606775522232055664e+00 4.785517156124114990e-01
4.586000000000000000e+03 6.068875885009765625e+01 -3.138948631286621094e+01 -2.437340319156646729e-01 5.979186534881591797e+00 1.720635771751403809e+00 3.536592125892639160e-01
4.587000000000000000e+03 6.360354614257812500e+01 2.749272727966308594e+01 -5.168568342924118042e-02 6.202655792236328125e+00 1.845291018486022949e+00 -1.660870313644409180e-01
4.588000000000000000e+03 7.220305633544921875e+01 -4.119393920898437500e+01 -6.271649897098541260e-02 7.824486732482910156e+00 2.328531026840209961e+00 -2.617360651493072510e-02
4.589000000000000000e+03 7.204593658447265625e+01 -3.868516540527343750e+01 -7.924797385931015015e-02 7.784080505371093750e+00 2.311449766159057617e+00 -6.669726222753524780e-02
4.590000000000000000e+03 4.417411041259765625e+01 2.384264945983886719e+01 3.367641866207122803e-01 2.330661296844482422e+00 8.002276420593261719e-01 -2.881754636764526367e-01
4.591000000000000000e+03 4.118291091918945312e+01 2.133194541931152344e+01 3.305684924125671387e-01 1.730455160140991211e+00 6.183071136474609375e-01 -1.954136490821838379e-01
4.592000000000000000e+03 2.027930450439453125e+01 -2.407299804687500000e+01 1.628374308347702026e-02 -2.137926816940307617e-01 -5.925267934799194336e-02 -3.658623397350311279e-01
4.593000000000000000e+03 4.302215194702148438e+01 -2.522449684143066406e+01 5.119857788085937500e-01 1.286167383193969727e+00 5.394459366798400879e-01 2.927742004394531250e-01
4.594000000000000000e+03 6.546100616455078125e+00 3.802526092529296875e+01 1.230519190430641174e-01 -7.677552700042724609e-01 -1.934110075235366821e-01 1.350761055946350098e-01
4.595000000000000000e+03 2.526811981201171875e+01 -2.745217323303222656e+01 2.801663577556610107e-01 -5.002653226256370544e-02 6.904194504022598267e-02 -3.285761773586273193e-01
4.596000000000000000e+03 1.848773574829101562e+01 3.054483413696289062e+01 3.703272640705108643e-01 -5.748847126960754395e-01 -6.136723980307579041e-02 2.270177304744720459e-01
4.597000000000000000e+03 6.610610961914062500e+01 -3.144703483581542969e+01 -3.201983273029327393e-01 6.994492053985595703e+00 2.002288103103637695e+00 -3.506358712911605835e-02
4.598000000000000000e+03 5.737399291992187500e+01 -3.291297149658203125e+01 -4.567470401525497437e-02 5.162133693695068359e+00 1.534937739372253418e+00 3.835703432559967041e-01
4.599000000000000000e+03 1.077935504913330078e+01 -3.477418136596679688e+01 1.698447018861770630e-01 -4.512292742729187012e-01 -8.441537618637084961e-02 -1.986311376094818115e-01
4.600000000000000000e+03 1.383124542236328125e+01 -2.791538810729980469e+01 1.159365251660346985e-01 -4.000528752803802490e-01 -8.523490279912948608e-02 -3.214470148086547852e-01
4.601000000000000000e+03 2.745949363708496094e+01 -2.502177619934082031e+01 1.832900047302246094e-01 1.124158315360546112e-02 5.835947394371032715e-02 -3.705871701240539551e-01
4.602000000000000000e+03 7.491590118408203125e+01 -3.850648117065429688e+01 -7.469061762094497681e-02 8.231211662292480469e+00 2.446956157684326172e+00 -6.879152357578277588e-02
4.603000000000000000e+03 2.346570205688476562e+01 -2.449879646301269531e+01 8.856970071792602539e-02 -1.124870330095291138e-01 -7.175199221819639206e-03 -3.893061280250549316e-01
4.604000000000000000e+03 3.184377479553222656e+01 1.915944862365722656e+01 1.035951673984527588e-01 4.667261838912963867e-01 1.710964143276214600e-01 1.637582778930664062e-01
4.605000000000000000e+03 5.557805252075195312e+01 2.725907707214355469e+01 9.761247783899307251e-02 4.639150619506835938e+00 1.421028971672058105e+00 -3.326127827167510986e-01
4.606000000000000000e+03 4.223914337158203125e+01 -2.809612083435058594e+01 5.664849281311035156e-01 1.360172390937805176e+00 5.779972076416015625e-01 2.298876494169235229e-01
4.607000000000000000e+03 5.323751068115234375e+01 -2.657553672790527344e+01 1.208328455686569214e-01 3.949547052383422852e+00 1.221113920211791992e+00 9.023615717887878418e-01
4.608000000000000000e+03 3.312214660644531250e+01 2.014589500427246094e+01 1.832310110330581665e-01 6.547812819480895996e-01 2.514036893844604492e-01 1.033933311700820923e-01
4.609000000000000000e+03 4.719775390625000000e+01 -2.628373146057128906e+01 4.551370739936828613e-01 2.258584976196289062e+00 8.141166567802429199e-01 6.330375075340270996e-01
4.610000000000000000e+03 8.076873779296875000e+00 -4.103444290161132812e+01 1.065264046192169189e-01 -5.341719388961791992e-01 -1.282936632633209229e-01 -3.554257750511169434e-02
4.611000000000000000e+03 1.292478084564208984e+01 -3.326597213745117188e+01 1.960254311561584473e-01 -4.189286231994628906e-01 -6.687095761299133301e-02 -2.328841686248779297e-01
4.612000000000000000e+03 1.125711154937744141e+01 3.172859382629394531e+01 2.333443611860275269e-01 -6.971896886825561523e-01 -1.391535997390747070e-01 3.501251935958862305e-01
4.613000000000000000e+03 9.375236511230468750e+00 3.804168701171875000e+01 2.103424966335296631e-01 -7.236763238906860352e-01 -1.540001481771469116e-01 1.509396582841873169e-01
4.614000000000000000e+03 2.164558601379394531e+01 2.736629676818847656e+01 3.043589591979980469e-01 -4.309662282466888428e-01 -3.798218071460723877e-02 1.856012642383575439e-01
4.615000000000000000e+03 6.521312713623046875e+01 3.018140220642089844e+01 -1.628818176686763763e-02 6.454797267913818359e+00 1.931552648544311523e+00 -9.865827858448028564e-02
4.616000000000000000e+03 6.456664276123046875e+01 3.497549438476562500e+01 5.944897979497909546e-02 6.270584106445312500e+00 1.899009943008422852e+00 -7.729516923427581787e-02
4.617000000000000000e+03 4.927613830566406250e+01 2.141463088989257812e+01 2.091392129659652710e-01 3.301375150680541992e+00 1.053154349327087402e+00 -4.810195267200469971e-01
4.618000000000000000e+03 8.284123420715332031e+00 4.098736572265625000e+01 1.623262912034988403e-01 -7.483096718788146973e-01 -1.757950037717819214e-01 4.710713028907775879e-02
4.619000000000000000e+03 1.209243965148925781e+01 -3.753709411621093750e+01 2.136540710926055908e-01 -4.308202862739562988e-01 -6.514986604452133179e-02 -1.329918950796127319e-01
4.620000000000000000e+03 2.232761383056640625e+01 -3.774974060058593750e+01 4.790798425674438477e-01 -1.349526047706604004e-01 1.032381728291511536e-01 -1.142354458570480347e-01
4.621000000000000000e+03 3.429749298095703125e+01 -3.825541687011718750e+01 6.904135942459106445e-01 7.046828269958496094e-01 4.185289144515991211e-01 -1.811951957643032074e-02
4.622000000000000000e+03 4.382307815551757812e+01 -3.631753540039062500e+01 6.115500330924987793e-01 1.986271262168884277e+00 7.793463468551635742e-01 1.545898616313934326e-01
4.623000000000000000e+03 5.220780944824218750e+01 -3.712523269653320312e+01 2.835376560688018799e-01 3.821580171585083008e+00 1.231535315513610840e+00 2.557862699031829834e-01
4.624000000000000000e+03 6.251222229003906250e+01 -3.445721817016601562e+01 -1.868283301591873169e-01 6.161458015441894531e+00 1.792388916015625000e+00 1.737568378448486328e-01
4.625000000000000000e+03 6.268387222290039062e+01 -3.743159103393554688e+01 -1.155737936496734619e-01 6.154355049133300781e+00 1.811634302139282227e+00 8.547010272741317749e-02
4.626000000000000000e+03 6.774677276611328125e+01 3.742116928100585938e+01 5.018186941742897034e-02 6.777083396911621094e+00 2.048179626464843750e+00 -5.115516856312751770e-02
4.627000000000000000e+03 5.656334304809570312e+01 3.705026245117187500e+01 1.980495601892471313e-01 4.774407863616943359e+00 1.491737246513366699e+00 -1.038976013660430908e-01
4.628000000000000000e+03 4.306634902954101562e+01 3.703816986083984375e+01 4.659060835838317871e-01 2.325231313705444336e+00 8.373411893844604492e-01 -9.384043514728546143e-02
4.629000000000000000e+03 3.647318649291992188e+01 3.697669601440429688e+01 5.285810828208923340e-01 1.372876405715942383e+00 5.704372525215148926e-01 -5.505841597914695740e-02
4.630000000000000000e+03 2.122275352478027344e+01 3.510610198974609375e+01 4.890872836112976074e-01 -3.098480999469757080e-01 5.377175658941268921e-02 1.063718050718307495e-01
4.631000000000000000e+03 2.433651542663574219e+01 3.683470916748046875e+01 5.459252595901489258e-01 -5.582690238952636719e-02 1.470295041799545288e-01 4.852204397320747375e-02
4.632000000000000000e+03 1.320633411407470703e+01 3.770885467529296875e+01 3.258467316627502441e-01 -6.360046267509460449e-01 -9.304736554622650146e-02 1.547439694404602051e-01
4.633000000000000000e+03 4.554821395874023438e+01 -2.506594276428222656e+01 4.827117323875427246e-01 1.796377420425415039e+00 6.837267279624938965e-01 5.022225379943847656e-01
4.634000000000000000e+03 3.693238067626953125e+01 1.878725433349609375e+01 2.392116785049438477e-01 1.026960253715515137e+00 3.798515796661376953e-01 4.008668009191751480e-03
4.635000000000000000e+03 4.123621749877929688e+01 2.426908874511718750e+01 3.592838644981384277e-01 1.847351193428039551e+00 6.619905233383178711e-01 -1.967715322971343994e-01
4.636000000000000000e+03 5.595404434204101562e+01 2.469902992248535156e+01 4.489041492342948914e-02 4.744017124176025391e+00 1.436672210693359375e+00 -4.246065616607666016e-01
4.637000000000000000e+03 5.639572525024414062e+01 2.233848190307617188e+01 -3.846598416566848755e-02 4.881424903869628906e+00 1.452887654304504395e+00 -4.847924113273620605e-01
4.638000000000000000e+03 3.990614318847656250e+01 -2.863624382019042969e+01 5.745379328727722168e-01 1.080388426780700684e+00 4.964778721332550049e-01 1.097652465105056763e-01
4.639000000000000000e+03 6.129237365722656250e+01 2.887294387817382812e+01 8.653274737298488617e-03 5.750134944915771484e+00 1.727636456489562988e+00 -2.102554589509963989e-01
4.640000000000000000e+03 2.782515335083007812e+01 -2.768642997741699219e+01 3.443554043769836426e-01 5.722717568278312683e-02 1.204747781157493591e-01 -3.063950240612030029e-01
4.641000000000000000e+03 1.455513000488281250e+01 -3.119319343566894531e+01 2.102859169244766235e-01 -3.852437436580657959e-01 -5.248734727501869202e-02 -2.729456126689910889e-01
4.642000000000000000e+03 1.496803283691406250e+01 -3.553604507446289062e+01 2.692357301712036133e-01 -3.710585236549377441e-01 -3.054683469235897064e-02 -1.810787171125411987e-01
4.643000000000000000e+03 2.162653350830078125e+01 3.084108924865722656e+01 4.160299897193908691e-01 -3.610861599445343018e-01 1.648315228521823883e-02 1.557782292366027832e-01
4.644000000000000000e+03 1.667656135559082031e+01 3.399184036254882812e+01 3.908565044403076172e-01 -5.670553445816040039e-01 -5.285964906215667725e-02 2.058181762695312500e-01
4.645000000000000000e+03 2.120465278625488281e+01 -2.550941467285156250e+01 1.023571044206619263e-01 -1.992290765047073364e-01 -2.906159311532974243e-02 -3.522947132587432861e-01
4.646000000000000000e+03 2.304304695129394531e+01 -2.651008033752441406e+01 1.818141639232635498e-01 -1.434464156627655029e-01 1.151032280176877975e-02 -3.456068038940429688e-01
4.647000000000000000e+03 3.731502151489257812e+01 2.206948852539062500e+01 3.204362392425537109e-01 1.234916448593139648e+00 4.666058123111724854e-01 -7.859992980957031250e-02
4.648000000000000000e+03 2.032782745361328125e+01 -2.700041580200195312e+01 1.502203792333602905e-01 -2.215070724487304688e-01 -2.138600870966911316e-02 -3.324895501136779785e-01
4.649000000000000000e+03 2.779296493530273438e+01 2.240248870849609375e+01 1.280810087919235229e-01 9.873381257057189941e-02 6.804444640874862671e-02 1.306581050157546997e-01
4.650000000000000000e+03 3.168907546997070312e+01 2.074820327758789062e+01 1.671224385499954224e-01 4.976777732372283936e-01 1.994400620460510254e-01 1.186380088329315186e-01
4.651000000000000000e+03 3.015615844726562500e+01 1.859501838684082031e+01 2.641346864402294159e-02 2.849509418010711670e-01 9.340932220220565796e-02 2.198264598846435547e-01
4.652000000000000000e+03 4.693988418579101562e+01 2.296900367736816406e+01 2.828194499015808105e-01 2.846499443054199219e+00 9.387956857681274414e-01 -3.821691274642944336e-01
4.653000000000000000e+03 2.176647186279296875e+01 -2.405204200744628906e+01 3.567557409405708313e-02 -1.663059443235397339e-01 -3.918911144137382507e-02 -3.813502490520477295e-01
4.654000000000000000e+03 4.549844360351562500e+01 -3.278492736816406250e+01 5.552757382392883301e-01 2.202620267868041992e+00 8.273687958717346191e-01 2.935015857219696045e-01
4.655000000000000000e+03 4.866144561767578125e+01 -3.396657943725585938e+01 4.247417449951171875e-01 2.969835042953491211e+00 1.018373012542724609e+00 3.410090506076812744e-01
4.656000000000000000e+03 5.382094192504882812e+01 -3.340481185913085938e+01 1.645577698945999146e-01 4.142955780029296875e+00 1.292254090309143066e+00 4.316295683383941650e-01
4.657000000000000000e+03 5.548679351806640625e+01 -3.550560760498046875e+01 1.053017079830169678e-01 4.584857463836669922e+00 1.407047867774963379e+00 2.908926010131835938e-01
4.658000000000000000e+03 4.910235595703125000e+01 2.829511642456054688e+01 2.954486012458801270e-01 3.356429100036621094e+00 1.095563292503356934e+00 -2.863244116306304932e-01
4.659000000000000000e+03 5.974888992309570312e+01 -3.404168701171875000e+01 -1.168614700436592102e-01 5.651419639587402344e+00 1.660367488861083984e+00 2.969397008419036865e-01
4.660000000000000000e+03 2.500644111633300781e+01 2.390733337402343750e+01 1.709388047456741333e-01 -1.680371165275573730e-01 8.705056388862431049e-04 1.500118225812911987e-01
4.661000000000000000e+03 4.157032012939453125e+01 -2.614834594726562500e+01 5.327919721603393555e-01 1.136605739593505859e+00 5.008193254470825195e-01 1.918499022722244263e-01
4.662000000000000000e+03 4.415840530395507812e+01 -2.675871276855468750e+01 5.293006896972656250e-01 1.636665225028991699e+00 6.497897505760192871e-01 3.568184375762939453e-01
4.663000000000000000e+03 5.345035552978515625e+01 -3.003692054748535156e+01 1.396015435457229614e-01 4.046980857849121094e+00 1.255974650382995605e+00 6.406959295272827148e-01
4.664000000000000000e+03 5.210680007934570312e+01 -3.208531570434570312e+01 2.385085523128509521e-01 3.705232381820678711e+00 1.183122277259826660e+00 5.367004275321960449e-01
4.665000000000000000e+03 1.927816772460937500e+01 -3.401088714599609375e+01 3.415889143943786621e-01 -2.599040567874908447e-01 2.450545504689216614e-02 -2.132553756237030029e-01
4.666000000000000000e+03 3.561767578125000000e+01 -3.418140029907226562e+01 6.652309298515319824e-01 7.757612466812133789e-01 4.322976469993591309e-01 -3.892095386981964111e-02
4.667000000000000000e+03 4.006237792968750000e+01 -3.155838012695312500e+01 6.379417777061462402e-01 1.270960569381713867e+00 5.726706981658935547e-01 1.117854714393615723e-01
4.668000000000000000e+03 4.327304458618164062e+01 -3.059962081909179688e+01 5.961619615554809570e-01 1.714931607246398926e+00 6.933280825614929199e-01 2.577095925807952881e-01
4.669000000000000000e+03 5.585110473632812500e+01 3.346450805664062500e+01 1.880646049976348877e-01 4.682052135467529297e+00 1.461035013198852539e+00 -1.844992488622665405e-01
4.670000000000000000e+03 1.953655242919921875e+01 3.269728088378906250e+01 4.196112155914306641e-01 -4.815299212932586670e-01 -1.857561059296131134e-02 1.731548607349395752e-01
4.671000000000000000e+03 6.005345535278320312e+01 2.635198783874511719e+01 -3.531078249216079712e-02 5.551104545593261719e+00 1.654738068580627441e+00 -2.806702256202697754e-01
4.672000000000000000e+03 5.028936004638671875e+01 2.575046920776367188e+01 2.231708765029907227e-01 3.622794151306152344e+00 1.153789520263671875e+00 -3.776113688945770264e-01
4.673000000000000000e+03 2.867848014831542969e+01 -3.033316993713378906e+01 4.403773248195648193e-01 1.061756238341331482e-01 1.639658808708190918e-01 -2.311113029718399048e-01
4.674000000000000000e+03 2.485249328613281250e+01 2.775584411621093750e+01 3.404835462570190430e-01 -1.213379204273223877e-01 6.574369221925735474e-02 1.094902604818344116e-01
4.675000000000000000e+03 3.419685745239257812e+01 1.883185195922851562e+01 1.686294823884963989e-01 7.335698604583740234e-01 2.706598043441772461e-01 1.047498062252998352e-01
4.676000000000000000e+03 4.498641967773437500e+01 2.674712371826171875e+01 3.403123319149017334e-01 2.566549777984619141e+00 8.720586299896240234e-01 -2.908450067043304443e-01
4.677000000000000000e+03 4.184374237060546875e+01 2.750029182434082031e+01 3.934049308300018311e-01 2.058625459671020508e+00 7.356091737747192383e-01 -1.745141297578811646e-01
4.678000000000000000e+03 3.541897583007812500e+01 2.290551567077636719e+01 3.207326531410217285e-01 1.029127478599548340e+00 4.049580395221710205e-01 -2.394014969468116760e-02
4.679000000000000000e+03 3.179747009277343750e+01 2.265599822998046875e+01 2.414040863513946533e-01 5.454803705215454102e-01 2.360653430223464966e-01 7.870230078697204590e-02
4.680000000000000000e+03 2.313278579711914062e+01 2.896368217468261719e+01 3.674892783164978027e-01 -2.758615314960479736e-01 2.748832479119300842e-02 1.400444358587265015e-01
4.681000000000000000e+03 5.806428527832031250e+01 2.724147796630859375e+01 3.548930212855339050e-02 5.125610828399658203e+00 1.548330068588256836e+00 -2.955308854579925537e-01
4.682000000000000000e+03 3.153459930419921875e+01 -2.993100357055664062e+01 5.051236748695373535e-01 3.193772733211517334e-01 2.473502755165100098e-01 -2.016077637672424316e-01
4.683000000000000000e+03 3.831074905395507812e+01 2.475078582763671875e+01 3.728075921535491943e-01 1.422392487525939941e+00 5.385600328445434570e-01 -1.076881512999534607e-01
4.684000000000000000e+03 2.615493774414062500e+01 3.347394561767578125e+01 5.117821693420410156e-01 8.823981136083602905e-02 1.800065934658050537e-01 5.408429354429244995e-02
4.685000000000000000e+03 2.719858932495117188e+01 3.047130966186523438e+01 4.484365284442901611e-01 1.413228213787078857e-01 1.769278049468994141e-01 5.663136392831802368e-02
4.686000000000000000e+03 5.551068496704101562e+01 3.018224716186523438e+01 1.364604830741882324e-01 4.623980998992919922e+00 1.428132534027099609e+00 -2.527878284454345703e-01
4.687000000000000000e+03 2.882094192504882812e+01 -3.504901885986328125e+01 5.703865289688110352e-01 1.960778087377548218e-01 2.299393117427825928e-01 -1.344272494316101074e-01
4.688000000000000000e+03 2.426150512695312500e+01 -3.002848243713378906e+01 3.403544425964355469e-01 -8.608780801296234131e-02 7.627999037504196167e-02 -2.696478366851806641e-01
4.689000000000000000e+03 2.981605148315429688e+01 2.495504188537597656e+01 2.782652080059051514e-01 3.571807444095611572e-01 1.906337887048721313e-01 5.339211598038673401e-02
4.690000000000000000e+03 2.733364295959472656e+01 2.756757926940917969e+01 3.559460341930389404e-01 1.168898418545722961e-01 1.418507695198059082e-01 7.456763088703155518e-02
4.691000000000000000e+03 1.993486785888671875e+01 -3.149482917785644531e+01 3.236348330974578857e-01 -2.326304614543914795e-01 2.730131149291992188e-02 -2.656732797622680664e-01
4.692000000000000000e+03 4.776841354370117188e+01 2.570914268493652344e+01 3.013040125370025635e-01 3.032762289047241211e+00 1.000219941139221191e+00 -3.476279973983764648e-01
4.693000000000000000e+03 6.265837097167968750e+01 3.175532913208007812e+01 3.125248849391937256e-02 5.915488719940185547e+00 1.784022450447082520e+00 -1.432109922170639038e-01
4.694000000000000000e+03 2.854127502441406250e+01 3.751706695556640625e+01 5.815505981445312500e-01 3.788008093833923340e-01 2.881054282188415527e-01 5.106648430228233337e-03
4.695000000000000000e+03 2.618083000183105469e+01 -3.782852554321289062e+01 5.834373235702514648e-01 6.866107136011123657e-02 1.956295222043991089e-01 -9.890609979629516602e-02
4.696000000000000000e+03 4.748462677001953125e+01 4.075288772583007812e+01 4.034938514232635498e-01 3.132621765136718750e+00 1.060834765434265137e+00 -3.480796143412590027e-02
4.697000000000000000e+03 3.438142395019531250e+01 2.139937210083007812e+01 2.586542069911956787e-01 8.392874002456665039e-01 3.293824791908264160e-01 4.213976114988327026e-02
4.698000000000000000e+03 2.214140319824218750e+01 -2.834379768371582031e+01 2.272459864616394043e-01 -1.775203794240951538e-01 1.491768099367618561e-02 -3.144408166408538818e-01
4.699000000000000000e+03 3.034113693237304688e+01 2.763702774047851562e+01 3.877473175525665283e-01 4.742194712162017822e-01 2.585900425910949707e-01 2.086569741368293762e-02
4.700000000000000000e+03 2.979627227783203125e+01 2.264223098754882812e+01 1.929864287376403809e-01 2.945094406604766846e-01 1.462487578392028809e-01 1.017296537756919861e-01
4.701000000000000000e+03 3.855250167846679688e+01 2.799029922485351562e+01 4.281299412250518799e-01 1.532599687576293945e+00 5.882188677787780762e-01 -1.151124164462089539e-01
4.702000000000000000e+03 3.569324493408203125e+01 2.512748908996582031e+01 3.649484515190124512e-01 1.070363163948059082e+00 4.305934906005859375e-01 -6.184662878513336182e-02
4.703000000000000000e+03 2.477145767211914062e+01 2.999164772033691406e+01 4.221691489219665527e-01 -7.903689146041870117e-02 1.029396802186965942e-01 9.206224232912063599e-02
4.704000000000000000e+03 1.662964439392089844e+01 -3.274740600585937500e+01 2.771063148975372314e-01 -3.281914591789245605e-01 -1.532554160803556442e-02 -2.423778772354125977e-01
4.705000000000000000e+03 3.050947380065917969e+01 3.078122138977050781e+01 4.616045057773590088e-01 5.099662542343139648e-01 2.914712429046630859e-01 6.058394908905029297e-03
4.706000000000000000e+03 4.749916076660156250e+01 3.721828079223632812e+01 3.823660016059875488e-01 3.134377002716064453e+00 1.055022954940795898e+00 -9.605752676725387573e-02
4.707000000000000000e+03 4.732011795043945312e+01 3.351961135864257812e+01 3.701539337635040283e-01 3.065460205078125000e+00 1.030684232711791992e+00 -1.715755164623260498e-01
4.708000000000000000e+03 5.202041244506835938e+01 2.981878280639648438e+01 2.348055839538574219e-01 3.900763273239135742e+00 1.240670680999755859e+00 -2.849579453468322754e-01
4.709000000000000000e+03 3.270913696289062500e+01 2.669021606445312500e+01 3.793440163135528564e-01 7.257000207901000977e-01 3.315132260322570801e-01 2.254876308143138885e-03
4.710000000000000000e+03 4.256211853027343750e+01 3.075365066528320312e+01 4.345528781414031982e-01 2.266556024551391602e+00 8.103326559066772461e-01 -1.653976738452911377e-01
4.711000000000000000e+03 2.661171913146972656e+01 -3.180882644653320312e+01 4.376364350318908691e-01 2.714438363909721375e-02 1.394342482089996338e-01 -2.264641225337982178e-01
4.712000000000000000e+03 3.520048141479492188e+01 2.790859985351562500e+01 4.274694621562957764e-01 1.044989943504333496e+00 4.417378008365631104e-01 -6.343967467546463013e-02
4.713000000000000000e+03 3.873224258422851562e+01 3.146379280090332031e+01 4.672986567020416260e-01 1.608061671257019043e+00 6.226080656051635742e-01 -9.266291558742523193e-02
4.714000000000000000e+03 2.915821075439453125e+01 -3.270394134521484375e+01 5.218515396118164062e-01 1.670880019664764404e-01 2.066818624734878540e-01 -1.725885123014450073e-01
4.715000000000000000e+03 3.353915786743164062e+01 3.479477310180664062e+01 5.411921739578247070e-01 9.716808199882507324e-01 4.538618922233581543e-01 -3.877242654561996460e-02
4.716000000000000000e+03 1.860267448425292969e+01 -3.498183250427246094e+00 -1.369707519188523293e-03 -4.998710472136735916e-03 -1.910525374114513397e-03 6.308863405138254166e-03
4.717000000000000000e+03 3.872089087963104248e-01 2.100304603576660156e+00 -1.592696498846635222e-04 -1.640393602428957820e-04 -9.699270594865083694e-05 8.082681597443297505e-05
4.718000000000000000e+03 5.682781600952148438e+01 -4.723418712615966797e+00 1.534151554107666016e+00 1.881836652755737305e+00 1.024796485900878906e+00 -2.819350957870483398e+00
4.719000000000000000e+03 5.732445144653320312e+01 -4.572490215301513672e+00 2.245507955551147461e+00 3.435616493225097656e+00 1.704337358474731445e+00 -4.129245758056640625e+00
4.720000000000000000e+03 5.759124755859375000e+01 -4.757101535797119141e+00 2.724539041519165039e+00 4.045969009399414062e+00 2.031152248382568359e+00 -4.720931053161621094e+00
4.721000000000000000e+03 5.773685836791992188e+01 -4.455362796783447266e+00 2.523662567138671875e+00 5.664016723632812500e+00 2.456303834915161133e+00 -5.379318714141845703e+00
4.722000000000000000e+03 5.840180969238281250e+01 -4.746163368225097656e+00 2.651601552963256836e+00 1.007671642303466797e+01 3.818495512008666992e+00 -6.891674518585205078e+00
4.723000000000000000e+03 5.881102371215820312e+01 -4.729209423065185547e+00 1.672231793403625488e+00 1.444475650787353516e+01 4.835096836090087891e+00 -6.618166446685791016e+00
4.724000000000000000e+03 5.949279785156250000e+01 -4.706590175628662109e+00 9.254390001296997070e-01 1.939669418334960938e+01 6.096639633178710938e+00 -3.103859901428222656e+00
4.725000000000000000e+03 5.958839797973632812e+01 -4.272229194641113281e+00 4.704309999942779541e-01 1.737381744384765625e+01 5.353274345397949219e+00 -2.821238994598388672e+00
4.726000000000000000e+03 6.013151550292968750e+01 -4.724195003509521484e+00 2.207737684249877930e+00 1.950482940673828125e+01 6.513770103454589844e+00 2.583124041557312012e-01
4.727000000000000000e+03 6.020182418823242188e+01 -5.179062843322753906e+00 4.474381446838378906e+00 2.049159622192382812e+01 7.489793300628662109e+00 1.820650219917297363e+00
4.728000000000000000e+03 6.037497329711914062e+01 -5.317634582519531250e+00 5.923062324523925781e+00 1.962748336791992188e+01 7.665163993835449219e+00 2.440766096115112305e+00
4.729000000000000000e+03 5.617415237426757812e+01 -4.341145992279052734e+00 9.996145963668823242e-01 1.326682329177856445e+00 6.978890895843505859e-01 -2.343005418777465820e+00
4.730000000000000000e+03 6.078440475463867188e+01 -6.499108791351318359e+00 1.078870773315429688e+01 1.640085601806640625e+01 8.156868934631347656e+00 -4.889677464962005615e-01
4.731000000000000000e+03 6.113755035400390625e+01 -6.533452033996582031e+00 9.459099769592285156e+00 1.517932128906250000e+01 7.391526222229003906e+00 -4.726510345935821533e-01
4.732000000000000000e+03 6.063671875000000000e+01 -7.123484611511230469e+00 8.494096755981445312e+00 1.797150993347167969e+01 7.939682006835937500e+00 -2.605208635330200195e+00
4.733000000000000000e+03 6.091818618774414062e+01 -7.504297256469726562e+00 6.251588821411132812e+00 1.679061126708984375e+01 6.912660121917724609e+00 -2.397134542465209961e+00
4.734000000000000000e+03 6.041507720947265625e+01 -7.511147499084472656e+00 5.582475662231445312e+00 1.930440902709960938e+01 7.466065406799316406e+00 -2.304820537567138672e+00
4.735000000000000000e+03 5.986878204345703125e+01 -7.895164489746093750e+00 1.997106075286865234e+00 2.077177047729492188e+01 6.830663204193115234e+00 4.672837257385253906e-01
4.736000000000000000e+03 5.954059600830078125e+01 -8.382791519165039062e+00 5.764497518539428711e-01 1.788462066650390625e+01 5.538321018218994141e+00 2.996909856796264648e+00
4.737000000000000000e+03 5.977195358276367188e+01 -8.351644515991210938e+00 8.048967719078063965e-01 1.853328895568847656e+01 5.801455497741699219e+00 1.826914191246032715e+00
4.738000000000000000e+03 5.903937149047851562e+01 -8.069469451904296875e+00 1.232979297637939453e+00 1.652212142944335938e+01 5.326529979705810547e+00 5.668726921081542969e+00
4.739000000000000000e+03 5.862512588500976562e+01 -8.057672500610351562e+00 2.196647405624389648e+00 1.261719799041748047e+01 4.444153785705566406e+00 6.897202968597412109e+00
4.740000000000000000e+03 5.821776199340820312e+01 -8.025650024414062500e+00 2.949018001556396484e+00 8.294032096862792969e+00 3.372915029525756836e+00 6.557762622833251953e+00
4.741000000000000000e+03 5.781471252441406250e+01 -8.034632682800292969e+00 2.913230895996093750e+00 5.325650215148925781e+00 2.471664190292358398e+00 5.386969566345214844e+00
4.742000000000000000e+03 5.702605819702148438e+01 -8.028468132019042969e+00 1.978868484497070312e+00 2.136327028274536133e+00 1.234558582305908203e+00 3.256399869918823242e+00
4.743000000000000000e+03 5.704896926879882812e+01 -8.325966835021972656e+00 2.097651243209838867e+00 3.074697256088256836e+00 1.551704525947570801e+00 3.743435144424438477e+00
4.744000000000000000e+03 5.642681121826171875e+01 -8.056622505187988281e+00 9.875932931900024414e-01 1.245751142501831055e+00 6.700032949447631836e-01 2.110953330993652344e+00
4.745000000000000000e+03 5.626721191406250000e+01 -8.480572700500488281e+00 9.765144586563110352e-01 1.567074656486511230e+00 7.630767226219177246e-01 2.467644691467285156e+00
4.746000000000000000e+03 1.294031023979187012e+00 2.756351232528686523e+00 -8.381488441955298185e-06 -2.824643161147832870e-04 -8.725374209461733699e-05 1.251461653737351298e-04
4.747000000000000000e+03 1.803259658813476562e+01 -8.126691818237304688e+00 -1.195996031165122986e-01 -4.764320328831672668e-02 -5.017284303903579712e-02 -9.624151885509490967e-02
4.748000000000000000e+03 5.510191345214843750e+01 -4.364192962646484375e+00 -2.465957254171371460e-01 6.286507844924926758e-01 1.146165207028388977e-01 -1.243381857872009277e+00
4.749000000000000000e+03 5.555502319335937500e+01 -4.300405979156494141e+00 3.722062706947326660e-01 1.021250844001770020e+00 4.180371165275573730e-01 -1.702501654624938965e+00
4.750000000000000000e+03 2.496011734008789062e+00 2.743547916412353516e+00 -4.179769312031567097e-04 -2.219050657004117966e-04 -1.919646019814535975e-04 3.898041177308186889e-05
4.751000000000000000e+03 1.819273948669433594e+01 -8.685002326965332031e+00 -1.710481494665145874e-01 -1.004093885421752930e-01 -8.143725991249084473e-02 -1.683055013418197632e-01
4.752000000000000000e+03 1.841203498840332031e+01 -7.995338439941406250e+00 -1.299834996461868286e-01 -6.473484635353088379e-02 -5.841550230979919434e-02 -1.124946549534797668e-01
4.753000000000000000e+03 5.646181869506835938e+01 -8.804125785827636719e+00 1.485059261322021484e+00 2.526105403900146484e+00 1.203349471092224121e+00 3.218168497085571289e+00
4.754000000000000000e+03 5.901207733154296875e+01 -4.372360229492187500e+00 8.092647194862365723e-01 1.500389671325683594e+01 4.743948459625244141e+00 -5.321815967559814453e+00
4.755000000000000000e+03 9.958648681640625000e+00 -2.127576637268066406e+01 -1.759073734283447266e-01 -4.124984145164489746e-01 -1.765217334032058716e-01 -3.554638922214508057e-01
4.756000000000000000e+03 5.872252655029296875e+01 -4.150158405303955078e+00 1.026449799537658691e+00 1.261064338684082031e+01 4.091127872467041016e+00 -5.680827617645263672e+00
4.757000000000000000e+03 5.858047103881835938e+01 -4.462628841400146484e+00 1.679992318153381348e+00 1.189422225952148438e+01 4.072264194488525391e+00 -6.377402305603027344e+00
4.758000000000000000e+03 5.836622619628906250e+01 -4.227936744689941406e+00 1.697851061820983887e+00 1.005551338195800781e+01 3.526009321212768555e+00 -6.050823211669921875e+00
4.759000000000000000e+03 5.817078781127929688e+01 -4.463627338409423828e+00 2.332383632659912109e+00 8.464768409729003906e+00 3.239145755767822266e+00 -6.232361793518066406e+00
4.760000000000000000e+03 5.793423461914062500e+01 -4.147365570068359375e+00 2.016333818435668945e+00 7.455155372619628906e+00 2.841446876525878906e+00 -5.621937751770019531e+00
4.761000000000000000e+03 5.667116546630859375e+01 -8.292636871337890625e+00 1.550000190734863281e+00 1.886034488677978516e+00 1.030810356140136719e+00 2.924260616302490234e+00
4.762000000000000000e+03 5.678385162353515625e+01 -8.487788200378417969e+00 1.711178541183471680e+00 2.420206069946289062e+00 1.239415407180786133e+00 3.327201128005981445e+00
4.763000000000000000e+03 5.461057662963867188e+01 -3.976612329483032227e+00 -1.977919638156890869e-01 6.775770187377929688e-01 1.439355164766311646e-01 -1.243327498435974121e+00
4.764000000000000000e+03 5.518097305297851562e+01 -3.762545585632324219e+00 3.733110725879669189e-01 1.159269213676452637e+00 4.597740769386291504e-01 -1.836636900901794434e+00
4.765000000000000000e+03 7.713019561767578125e+01 -3.802819442749023438e+01 -5.226783454418182373e-02 8.707665443420410156e+00 2.596619129180908203e+00 -5.053415521979331970e-02
4.766000000000000000e+03 6.095575332641601562e+01 -5.626319408416748047e+00 7.986918926239013672e+00 1.634473991394042969e+01 7.299497604370117188e+00 2.130003452301025391e+00
4.767000000000000000e+03 5.770815658569335938e+01 -8.632462501525878906e+00 2.092291831970214844e+00 6.186128139495849609e+00 2.483525991439819336e+00 5.251721858978271484e+00
4.768000000000000000e+03 5.802398300170898438e+01 -8.276238441467285156e+00 2.570451974868774414e+00 7.286555767059326172e+00 2.957102298736572266e+00 5.974267959594726562e+00
4.769000000000000000e+03 5.834188079833984375e+01 -8.576938629150390625e+00 1.687361121177673340e+00 1.004541015625000000e+01 3.519831418991088867e+00 6.023775577545166016e+00
4.770000000000000000e+03 5.852939987182617188e+01 -8.698509216308593750e+00 1.207050919532775879e+00 1.129952430725097656e+01 3.751972675323486328e+00 5.757336139678955078e+00
4.771000000000000000e+03 5.916209411621093750e+01 -8.828685760498046875e+00 3.384434878826141357e-01 1.462295913696289062e+01 4.488420486450195312e+00 4.301230907440185547e+00
4.772000000000000000e+03 6.000184631347656250e+01 -8.375782966613769531e+00 1.130894541740417480e+00 1.834626579284667969e+01 5.843148231506347656e+00 9.352335333824157715e-01
4.773000000000000000e+03 6.031155014038085938e+01 -8.331126213073730469e+00 1.737778663635253906e+00 1.780508613586425781e+01 5.862859249114990234e+00 -2.834108173847198486e-01
4.774000000000000000e+03 6.041295242309570312e+01 -7.933182239532470703e+00 3.465544700622558594e+00 1.876434135437011719e+01 6.668965816497802734e+00 -1.480250120162963867e+00
4.775000000000000000e+03 5.718549346923828125e+01 -4.311961650848388672e+00 2.036551475524902344e+00 3.544657468795776367e+00 1.674362659454345703e+00 -4.110844135284423828e+00
4.776000000000000000e+03 5.996747589111328125e+01 -3.900811672210693359e+00 3.487747311592102051e-01 1.650407028198242188e+01 5.055853366851806641e+00 -1.628725886344909668e+00
4.777000000000000000e+03 6.044292068481445312e+01 -4.825636386871337891e+00 3.424501180648803711e+00 1.864858627319335938e+01 6.621926307678222656e+00 1.447793006896972656e+00
4.778000000000000000e+03 6.059506225585937500e+01 -5.106628894805908203e+00 5.039222717285156250e+00 1.837582588195800781e+01 7.024514198303222656e+00 2.193351268768310547e+00
4.779000000000000000e+03 6.070568084716796875e+01 -4.844354152679443359e+00 3.956835746765136719e+00 1.764865493774414062e+01 6.481647014617919922e+00 1.878983020782470703e+00
4.780000000000000000e+03 2.159020423889160156e+00 3.706419372558593750e+01 1.544556394219398499e-02 -9.122612476348876953e-01 -2.690446972846984863e-01 6.381436437368392944e-02
4.781000000000000000e+03 6.161903762817382812e+01 -5.589950561523437500e+00 7.141506671905517578e+00 1.426961421966552734e+01 6.423336029052734375e+00 1.671017646789550781e+00
4.782000000000000000e+03 5.860989761352539062e+01 -3.890759229660034180e+00 9.539172649383544922e-01 1.147723388671875000e+01 3.729345321655273438e+00 -5.436084270477294922e+00
4.783000000000000000e+03 5.961982727050781250e+01 -3.361621141433715820e+00 -1.845968365669250488e-01 1.440081501007080078e+01 4.264865398406982422e+00 -2.785849332809448242e+00
4.784000000000000000e+03 5.981033706665039062e+01 -3.556131124496459961e+00 -4.644168168306350708e-02 1.511365795135498047e+01 4.520164966583251953e+00 -2.290357828140258789e+00
4.785000000000000000e+03 5.922723388671875000e+01 -3.478616952896118164e+00 4.054966568946838379e-02 1.356444549560546875e+01 4.081498622894287109e+00 -3.856113672256469727e+00
4.786000000000000000e+03 6.002639770507812500e+01 -3.612922191619873047e+00 7.448361814022064209e-02 1.551979827880859375e+01 4.678284645080566406e+00 -1.715191721916198730e+00
4.787000000000000000e+03 6.030316543579101562e+01 -3.589499235153198242e+00 2.709031105041503906e-01 1.565651321411132812e+01 4.778224945068359375e+00 -9.614958763122558594e-01
4.788000000000000000e+03 4.883046150207519531e+00 -1.219216632843017578e+01 3.788807895034551620e-03 -3.505694679915904999e-03 8.493397763231769204e-05 -1.604943885467946529e-03
4.789000000000000000e+03 5.674957656860351562e+01 -8.890752792358398438e+00 1.682764768600463867e+00 3.218588113784790039e+00 1.470405817031860352e+00 3.700354099273681641e+00
4.790000000000000000e+03 2.012187194824218750e+01 -1.012641429901123047e+01 -4.208429455757141113e-01 -2.551418915390968323e-02 -1.339071393013000488e-01 -3.021494746208190918e-01
4.791000000000000000e+03 7.137709045410156250e+01 -3.358178710937500000e+01 -1.571962684392929077e-01 7.703699588775634766e+00 2.263950824737548828e+00 -1.321459561586380005e-01
4.792000000000000000e+03 5.843177413940429688e+01 -4.019935607910156250e+00 1.256138563156127930e+00 1.058243465423583984e+01 3.551571846008300781e+00 -5.738920211791992188e+00
4.793000000000000000e+03 5.816748046875000000e+01 -4.184418678283691406e+00 1.847711682319641113e+00 8.815094947814941406e+00 3.198842048645019531e+00 -5.936064720153808594e+00
4.794000000000000000e+03 6.136562347412109375e+01 -5.496050834655761719e+00 6.984697818756103516e+00 1.490610790252685547e+01 6.567241668701171875e+00 1.936652421951293945e+00
4.795000000000000000e+03 5.494617843627929688e+01 -3.563779830932617188e+00 3.807693719863891602e-01 1.201132297515869141e+00 4.745705127716064453e-01 -1.838239789009094238e+00
4.796000000000000000e+03 5.421303176879882812e+01 -3.513180494308471680e+00 -1.008912175893783569e-01 7.360754013061523438e-01 1.905552446842193604e-01 -1.289774775505065918e+00
4.797000000000000000e+03 6.632899761199951172e+00 -2.224545097351074219e+01 -1.190464347600936890e-01 -2.244721204042434692e-01 -1.030555665493011475e-01 -2.768496572971343994e-01
4.798000000000000000e+03 9.046147346496582031e+00 -2.253555488586425781e+01 -1.085593327879905701e-01 -3.741355240345001221e-01 -1.448084563016891479e-01 -3.552345037460327148e-01
4.799000000000000000e+03 5.370206451416015625e+01 -1.069909572601318359e+01 3.001362085342407227e-01 1.390896916389465332e+00 5.073099136352539062e-01 1.696464657783508301e+00
4.800000000000000000e+03 5.782861328125000000e+01 -8.843091964721679688e+00 1.827193021774291992e+00 7.108788013458251953e+00 2.680794477462768555e+00 5.341075897216796875e+00
4.801000000000000000e+03 5.755865478515625000e+01 -9.277974128723144531e+00 1.521606087684631348e+00 6.335672855377197266e+00 2.357183694839477539e+00 4.854871749877929688e+00
4.802000000000000000e+03 6.065022659301757812e+01 -8.272068977355957031e+00 2.546707391738891602e+00 1.721679115295410156e+01 5.929049491882324219e+00 -1.158429980278015137e+00
4.803000000000000000e+03 6.104538726806640625e+01 -8.131246566772460938e+00 3.628119707107543945e+00 1.622809410095214844e+01 5.956864356994628906e+00 -1.834239125251770020e+00
4.804000000000000000e+03 6.139879989624023438e+01 -7.076820373535156250e+00 7.672729015350341797e+00 1.473142719268798828e+01 6.721246719360351562e+00 -1.651726007461547852e+00
4.805000000000000000e+03 6.179895401000976562e+01 -6.918073654174804688e+00 7.267409801483154297e+00 1.354443740844726562e+01 6.243554115295410156e+00 -1.100011944770812988e+00
4.806000000000000000e+03 6.184676361083984375e+01 -6.657189846038818359e+00 7.541311264038085938e+00 1.329561710357666016e+01 6.251078605651855469e+00 -5.521633625030517578e-01
4.807000000000000000e+03 6.177811431884765625e+01 -5.750800132751464844e+00 7.217821121215820312e+00 1.371266460418701172e+01 6.279145717620849609e+00 1.236356019973754883e+00
4.808000000000000000e+03 6.181267547607421875e+01 -5.356655120849609375e+00 6.103878974914550781e+00 1.383520984649658203e+01 5.981726646423339844e+00 1.769071102142333984e+00
4.809000000000000000e+03 6.145101928710937500e+01 -5.238281250000000000e+00 5.957693099975585938e+00 1.492206954956054688e+01 6.263928890228271484e+00 2.072350025177001953e+00
4.810000000000000000e+03 6.184592056274414062e+01 -4.874985218048095703e+00 4.923869609832763672e+00 1.398915576934814453e+01 5.673907756805419922e+00 1.997183322906494141e+00
4.811000000000000000e+03 5.939527893066406250e+01 -3.193879842758178711e+00 -2.079375237226486206e-01 1.353809642791748047e+01 3.999047756195068359e+00 -3.253223419189453125e+00
4.812000000000000000e+03 1.187253093719482422e+01 2.484544754028320312e+01 8.219861425459384918e-03 -8.188556432723999023e-01 -2.431907355785369873e-01 5.478913784027099609e-01
4.813000000000000000e+03 5.818555831909179688e+01 -8.494373321533203125e+00 2.035879850387573242e+00 8.768817901611328125e+00 3.241409301757812500e+00 5.998563289642333984e+00
4.814000000000000000e+03 5.854678726196289062e+01 -9.079750061035156250e+00 8.520334959030151367e-01 1.082584190368652344e+01 3.503362655639648438e+00 5.263932228088378906e+00
4.815000000000000000e+03 5.869334793090820312e+01 -8.903335571289062500e+00 7.769303917884826660e-01 1.204696655273437500e+01 3.847169160842895508e+00 5.286817550659179688e+00
4.816000000000000000e+03 5.895043563842773438e+01 -9.188735008239746094e+00 2.992910146713256836e-01 1.271038627624511719e+01 3.902903318405151367e+00 4.550611495971679688e+00
4.817000000000000000e+03 6.006671524047851562e+01 -8.643934249877929688e+00 6.904330253601074219e-01 1.727191925048828125e+01 5.388705730438232422e+00 1.105530142784118652e+00
4.818000000000000000e+03 6.052794647216796875e+01 -3.701648235321044922e+00 6.726949810981750488e-01 1.582015800476074219e+01 4.947855949401855469e+00 -2.557043731212615967e-01
4.819000000000000000e+03 5.874442291259765625e+01 -3.583679437637329102e+00 4.719509184360504150e-01 1.187131595611572266e+01 3.702980041503906250e+00 -4.855611324310302734e+00
4.820000000000000000e+03 5.853603363037109375e+01 -3.610600948333740234e+00 7.343612313270568848e-01 1.085452175140380859e+01 3.476664781570434570e+00 -5.157686710357666016e+00
4.821000000000000000e+03 5.829059219360351562e+01 -3.592492818832397461e+00 9.873321652412414551e-01 9.687664985656738281e+00 3.202499151229858398e+00 -5.266782283782958984e+00
4.822000000000000000e+03 6.031639099121093750e+01 -3.284864902496337891e+00 1.444170437753200531e-02 1.489604759216308594e+01 4.473146915435791016e+00 -1.154289126396179199e+00
4.823000000000000000e+03 6.001103973388671875e+01 -3.372092485427856445e+00 -7.276724278926849365e-02 1.488703918457031250e+01 4.444281578063964844e+00 -1.863839030265808105e+00
4.824000000000000000e+03 5.916893386840820312e+01 -3.050757884979248047e+00 -1.706643551588058472e-01 1.231262207031250000e+01 3.642587184906005859e+00 -3.758906126022338867e+00
4.825000000000000000e+03 5.561927032470703125e+01 -2.735868692398071289e+00 9.113422036170959473e-01 2.567168474197387695e+00 1.043553233146667480e+00 -2.827554225921630859e+00
4.826000000000000000e+03 6.125825119018554688e+01 -8.810853958129882812e+00 2.026232719421386719e+00 1.515913677215576172e+01 5.155610561370849609e+00 -1.229789614677429199e+00
4.827000000000000000e+03 6.103915786743164062e+01 -4.559153556823730469e+00 3.346489191055297852e+00 1.611370658874511719e+01 5.838058471679687500e+00 1.681908130645751953e+00
4.828000000000000000e+03 5.323207855224609375e+00 3.433136749267578125e+01 8.665844053030014038e-02 -7.444632649421691895e-01 -1.973414570093154907e-01 2.166385054588317871e-01
4.829000000000000000e+03 2.087932014465332031e+01 -2.982102203369140625e+01 2.688005864620208740e-01 -2.055933624505996704e-01 1.896216720342636108e-02 -2.901874482631683350e-01
4.830000000000000000e+03 1.784515190124511719e+01 -3.018078422546386719e+01 2.405412495136260986e-01 -3.025372028350830078e-01 -1.859878003597259521e-02 -2.893185317516326904e-01
4.831000000000000000e+03 6.734185028076171875e+01 2.681166648864746094e+01 -1.012496501207351685e-01 6.854207992553710938e+00 2.025887489318847656e+00 -8.547365665435791016e-02
4.832000000000000000e+03 5.496334075927734375e+01 -2.807492828369140625e+01 5.143666930962353945e-05 4.519722461700439453e+00 1.355932116508483887e+00 7.459283471107482910e-01
4.833000000000000000e+03 6.056127548217773438e+01 -8.494726181030273438e+00 1.769116640090942383e+00 1.693590164184570312e+01 5.611505508422851562e+00 -5.741561055183410645e-01
4.834000000000000000e+03 3.175420284271240234e+00 1.874183082580566406e+01 -3.772845119237899780e-02 -4.486022889614105225e-02 -2.477660402655601501e-02 1.858497969806194305e-02
4.835000000000000000e+03 2.169595909118652344e+01 1.476556062698364258e+00 -1.276627480983734131e-01 -4.228239059448242188e-01 -1.651459932327270508e-01 3.936737179756164551e-01
4.836000000000000000e+03 2.276930236816406250e+01 9.265678524971008301e-01 -1.761236637830734253e-01 -3.508675396442413330e-01 -1.580973565578460693e-01 4.415961503982543945e-01
4.837000000000000000e+03 7.162570476531982422e+00 4.829210758209228516e+00 -7.488811388611793518e-05 -8.108154870569705963e-04 -2.657110744621604681e-04 2.284981019329279661e-04
4.838000000000000000e+03 3.960641145706176758e+00 4.408926010131835938e+00 -3.965866344515234232e-04 -1.903043885249644518e-04 -1.760673039825633168e-04 -1.026530953822657466e-04
4.839000000000000000e+03 5.831580734252929688e+01 -9.517566680908203125e+00 7.306731939315795898e-01 9.586149215698242188e+00 3.095046758651733398e+00 4.859513282775878906e+00
4.840000000000000000e+03 6.199998092651367188e+01 -7.554072856903076172e+00 5.687947273254394531e+00 1.347635173797607422e+01 5.749289989471435547e+00 -1.745951771736145020e+00
4.841000000000000000e+03 5.374619674682617188e+01 -3.305691719055175781e+00 -2.039535790681838989e-01 6.758370995521545410e-01 1.415650546550750732e-01 -1.174334645271301270e+00
4.842000000000000000e+03 5.943289184570312500e+01 -2.201183557510375977e+00 -5.155181884765625000e-01 1.179960727691650391e+01 3.385226726531982422e+00 -2.926745176315307617e+00
4.843000000000000000e+03 5.788589477539062500e+01 -3.110332489013671875e+00 9.286852478981018066e-01 7.939128875732421875e+00 2.660344362258911133e+00 -4.848971366882324219e+00
4.844000000000000000e+03 5.557180404663085938e+01 -2.297530889511108398e+00 8.965172171592712402e-01 2.889056921005249023e+00 1.135672211647033691e+00 -2.950255870819091797e+00
4.845000000000000000e+03 5.589624404907226562e+01 -1.886093020439147949e+00 7.940758466720581055e-01 3.765123128890991211e+00 1.367759704589843750e+00 -3.237496614456176758e+00
4.846000000000000000e+03 5.492964553833007812e+01 -3.149591684341430664e+00 5.087324976921081543e-01 1.489650368690490723e+00 5.995148420333862305e-01 -2.050060510635375977e+00
4.847000000000000000e+03 5.945564651489257812e+01 -9.341936111450195312e+00 -8.317029476165771484e-02 1.409841346740722656e+01 4.204573154449462891e+00 3.258373260498046875e+00
4.848000000000000000e+03 6.044646835327148438e+01 -8.724444389343261719e+00 1.170487999916076660e+00 1.668952751159667969e+01 5.358005046844482422e+00 -6.513820588588714600e-02
4.849000000000000000e+03 5.813174819946289062e+01 -9.390195846557617188e+00 1.018025994300842285e+00 8.797621726989746094e+00 2.944694280624389648e+00 5.007921695709228516e+00
4.850000000000000000e+03 5.843768310546875000e+01 -9.297477722167968750e+00 8.066929578781127930e-01 1.028683090209960938e+01 3.328057050704956055e+00 5.122318744659423828e+00
4.851000000000000000e+03 6.222563171386718750e+01 -4.958361625671386719e+00 4.747823715209960938e+00 1.312367343902587891e+01 5.361449241638183594e+00 1.691915988922119141e+00
4.852000000000000000e+03 6.249780654907226562e+01 -4.918005466461181641e+00 4.789925098419189453e+00 1.270770263671875000e+01 5.249288558959960938e+00 1.707459211349487305e+00
4.853000000000000000e+03 6.212583923339843750e+01 -4.737194061279296875e+00 4.445204257965087891e+00 1.329216575622558594e+01 5.321210861206054688e+00 1.761210441589355469e+00
4.854000000000000000e+03 6.190859222412109375e+01 -4.592107295989990234e+00 4.093872070312500000e+00 1.396267223358154297e+01 5.416963100433349609e+00 1.957340598106384277e+00
4.855000000000000000e+03 6.116419219970703125e+01 -3.994025468826293945e+00 2.008487939834594727e+00 1.544259262084960938e+01 5.235324382781982422e+00 1.165514707565307617e+00
4.856000000000000000e+03 6.217439270019531250e+01 -6.731978416442871094e+00 6.849138736724853516e+00 1.268014526367187500e+01 5.858785152435302734e+00 -6.021807193756103516e-01
4.857000000000000000e+03 1.379615211486816406e+01 -2.462858772277832031e+01 -4.165621357969939709e-04 -4.066767692565917969e-01 -1.221280023455619812e-01 -3.374970853328704834e-01
4.858000000000000000e+03 5.780764389038085938e+01 -9.243268013000488281e+00 1.405352354049682617e+00 7.455192089080810547e+00 2.658163309097290039e+00 5.109512329101562500e+00
4.859000000000000000e+03 5.801763916015625000e+01 -8.906945228576660156e+00 1.543367862701416016e+00 8.133010864257812500e+00 2.902913570404052734e+00 5.427601814270019531e+00
4.860000000000000000e+03 5.948085784912109375e+01 -9.761192321777343750e+00 -2.386267632246017456e-01 1.321117401123046875e+01 3.891764163970947266e+00 3.124060630798339844e+00
4.861000000000000000e+03 6.244565200805664062e+01 -4.602348804473876953e+00 4.062499523162841797e+00 1.285483169555664062e+01 5.075199127197265625e+00 1.716180801391601562e+00
4.862000000000000000e+03 5.991158676147460938e+01 -9.431221961975097656e+00 -9.430170804262161255e-02 1.483842849731445312e+01 4.423238277435302734e+00 2.076002597808837891e+00
4.863000000000000000e+03 6.050504302978515625e+01 -9.163382530212402344e+00 5.112889409065246582e-01 1.563224983215332031e+01 4.843061923980712891e+00 4.675361216068267822e-01
4.864000000000000000e+03 6.067442703247070312e+01 -8.968426704406738281e+00 1.076921701431274414e+00 1.597781753540039062e+01 5.116421699523925781e+00 -2.005904316902160645e-01
4.865000000000000000e+03 6.124627113342285156e+00 -2.348229789733886719e+01 -6.934471428394317627e-02 -2.609554827213287354e-01 -9.909006208181381226e-02 -2.666258215904235840e-01
4.866000000000000000e+03 5.763290786743164062e+01 -9.642409324645996094e+00 1.122976183891296387e+00 6.924404144287109375e+00 2.414214134216308594e+00 4.736242771148681641e+00
4.867000000000000000e+03 6.172173309326171875e+01 -9.131531715393066406e+00 1.866256713867187500e+00 1.406360435485839844e+01 4.778958320617675781e+00 -1.295753359794616699e+00
4.868000000000000000e+03 5.791762924194335938e+01 -9.548403739929199219e+00 1.035905957221984863e+00 8.051310539245605469e+00 2.726165056228637695e+00 4.929031848907470703e+00
4.869000000000000000e+03 1.752739524841308594e+01 2.528638839721679688e+01 1.682689338922500610e-01 -7.818552255630493164e-01 -1.840758919715881348e-01 3.292602598667144775e-01
4.870000000000000000e+03 3.183153152465820312e+01 2.472607612609863281e+01 3.053800463676452637e-01 5.482074022293090820e-01 2.560762465000152588e-01 4.356799647212028503e-02
4.871000000000000000e+03 1.854557418823242188e+01 -2.648850250244140625e+01 1.162607595324516296e-01 -2.789254486560821533e-01 -4.879940673708915710e-02 -3.387071490287780762e-01
4.872000000000000000e+03 1.660919380187988281e+01 -2.621674919128417969e+01 8.506086468696594238e-02 -3.372645378112792969e-01 -7.566110044717788696e-02 -3.307267725467681885e-01
4.873000000000000000e+03 5.655419540405273438e+01 -1.519396424293518066e+00 6.171695590019226074e-01 5.001296043395996094e+00 1.685539722442626953e+00 -3.555940389633178711e+00
4.874000000000000000e+03 6.728919219970703125e+01 -3.046798133850097656e+01 -3.546633720397949219e-01 7.213035106658935547e+00 2.057511568069458008e+00 -9.549800306558609009e-02
4.875000000000000000e+03 6.166163444519042969e+00 2.410303115844726562e+01 -1.151541993021965027e-01 -3.755921125411987305e-01 -1.472238898277282715e-01 3.852753639221191406e-01
4.876000000000000000e+03 5.909559726715087891e+00 2.550632095336914062e+01 -4.793384671211242676e-02 -4.489262700080871582e-01 -1.490580439567565918e-01 3.875618278980255127e-01
4.877000000000000000e+03 4.204722595214843750e+01 -2.402878379821777344e+01 4.698905944824218750e-01 1.039836764335632324e+00 4.529182016849517822e-01 2.145988196134567261e-01
4.878000000000000000e+03 6.836641693115234375e+01 -3.145041847229003906e+01 -2.883656919002532959e-01 7.376805782318115234e+00 2.126532077789306641e+00 -1.284595280885696411e-01
4.879000000000000000e+03 6.232188034057617188e+01 -5.153199195861816406e+00 5.345703601837158203e+00 1.287367153167724609e+01 5.465812683105468750e+00 1.677167654037475586e+00
4.880000000000000000e+03 6.003797531127929688e+01 -2.286877393722534180e+00 -5.623950362205505371e-01 1.279025268554687500e+01 3.668357372283935547e+00 -2.028511524200439453e+00
4.881000000000000000e+03 6.034972381591796875e+01 -2.476676464080810547e+00 -4.049818515777587891e-01 1.332074356079101562e+01 3.874728441238403320e+00 -1.443135380744934082e+00
4.882000000000000000e+03 6.239068222045898438e+01 -4.275428771972656250e+00 3.415138006210327148e+00 1.300920772552490234e+01 4.927303791046142578e+00 1.767296195030212402e+00
4.883000000000000000e+03 6.057249069213867188e+01 -2.837881803512573242e+00 -1.513708382844924927e-01 1.399575138092041016e+01 4.153314113616943359e+00 -9.528797864913940430e-01
4.884000000000000000e+03 5.886045837402343750e+01 -3.186514616012573242e+00 1.024740636348724365e-01 1.174374580383300781e+01 3.553865909576416016e+00 -4.396438121795654297e+00
4.885000000000000000e+03 5.408349990844726562e+00 -2.418371963500976562e+01 -4.856796190142631531e-02 -2.692286074161529541e-01 -9.533897042274475098e-02 -2.535366714000701904e-01
4.886000000000000000e+03 6.261386871337890625e+01 -6.903845310211181641e+00 5.924994468688964844e+00 1.197270393371582031e+01 5.369309425354003906e+00 -7.105462551116943359e-01
4.887000000000000000e+03 2.090135765075683594e+01 -1.037480449676513672e+01 -4.772062301635742188e-01 -7.540696766227483749e-03 -1.454240828752517700e-01 -3.273339867591857910e-01
4.888000000000000000e+03 8.276153564453125000e+00 2.978977775573730469e+01 1.152964159846305847e-01 -6.688268184661865234e-01 -1.660591214895248413e-01 3.869096636772155762e-01
4.889000000000000000e+03 6.310599899291992188e+01 -4.239721298217773438e+00 3.407268762588500977e+00 1.196461868286132812e+01 4.611566066741943359e+00 1.633150339126586914e+00
4.890000000000000000e+03 6.143677520751953125e+01 -4.107263565063476562e+00 2.583428144454956055e+00 1.487398529052734375e+01 5.237224102020263672e+00 1.498330831527709961e+00
4.891000000000000000e+03 6.027294921875000000e+01 -2.243599891662597656e+00 -5.521913766860961914e-01 1.295842647552490234e+01 3.721870422363281250e+00 -1.643461465835571289e+00
4.892000000000000000e+03 5.957298660278320312e+01 -1.826239824295043945e+00 -6.083354353904724121e-01 1.148392963409423828e+01 3.262678384780883789e+00 -2.605695724487304688e+00
4.893000000000000000e+03 5.919132995605468750e+01 -2.503332138061523438e+00 -3.279508054256439209e-01 1.168422126770019531e+01 3.406881093978881836e+00 -3.377075433731079102e+00
4.894000000000000000e+03 5.899503707885742188e+01 -2.216341972351074219e+00 -3.242659270763397217e-01 1.076749229431152344e+01 3.132967710494995117e+00 -3.509275197982788086e+00
4.895000000000000000e+03 5.870350265502929688e+01 -1.000247383117675781e+01 8.507075160741806030e-02 1.061534118652343750e+01 3.210123538970947266e+00 4.208441257476806641e+00
4.896000000000000000e+03 5.863962936401367188e+01 -9.430132865905761719e+00 4.415332376956939697e-01 1.120393848419189453e+01 3.493641376495361328e+00 4.753487586975097656e+00
4.897000000000000000e+03 6.144942474365234375e+01 -9.551187515258789062e+00 9.447504878044128418e-01 1.405397224426269531e+01 4.499616622924804688e+00 -6.720987558364868164e-01
4.898000000000000000e+03 6.253937530517578125e+01 -6.590633392333984375e+00 6.389173030853271484e+00 1.206540966033935547e+01 5.536374568939208984e+00 -3.191442489624023438e-01
4.899000000000000000e+03 6.297340011596679688e+01 -5.587878227233886719e+00 5.408943653106689453e+00 1.170437335968017578e+01 5.133995056152343750e+00 9.841554760932922363e-01
4.900000000000000000e+03 5.931669998168945312e+01 -1.022550487518310547e+01 -3.413949608802795410e-01 1.204932594299316406e+01 3.512379407882690430e+00 3.190205335617065430e+00
4.901000000000000000e+03 5.994963455200195312e+01 -9.704459190368652344e+00 -2.277577817440032959e-01 1.418128108978271484e+01 4.186057090759277344e+00 2.045789241790771484e+00
4.902000000000000000e+03 5.986791229248046875e+01 -1.010350608825683594e+01 -4.198092520236968994e-01 1.325816535949707031e+01 3.851506948471069336e+00 2.266537904739379883e+00
4.903000000000000000e+03 2.441752815246582031e+01 1.653066873550415039e+00 -2.758999466896057129e-01 -2.927415966987609863e-01 -1.705924719572067261e-01 5.629259943962097168e-01
4.904000000000000000e+03 5.712525939941406250e+01 -1.027127456665039062e+01 9.136415719985961914e-01 5.751255989074707031e+00 1.999469280242919922e+00 4.101326465606689453e+00
4.905000000000000000e+03 6.455467987060546875e+01 2.069913673400878906e+01 -2.687273323535919189e-01 6.610208511352539062e+00 1.902444362640380859e+00 -1.755978912115097046e-01
4.906000000000000000e+03 4.134025955200195312e+01 -2.209192657470703125e+01 3.797918260097503662e-01 7.826270461082458496e-01 3.487256467342376709e-01 1.169475391507148743e-01
4.907000000000000000e+03 5.918322753906250000e+01 -2.019539833068847656e+00 -4.635232388973236084e-01 1.104077625274658203e+01 3.173175811767578125e+00 -3.211323976516723633e+00
4.908000000000000000e+03 6.293811798095703125e+01 -5.853168487548828125e+00 5.703267097473144531e+00 1.165972614288330078e+01 5.208898067474365234e+00 6.546471118927001953e-01
4.909000000000000000e+03 6.336090850830078125e+01 -5.605240821838378906e+00 5.046265602111816406e+00 1.124308681488037109e+01 4.886806011199951172e+00 8.417823910713195801e-01
4.910000000000000000e+03 5.351714324951171875e+01 -1.129654884338378906e+01 4.027467370033264160e-01 1.609519600868225098e+00 6.036798954010009766e-01 1.764434576034545898e+00
4.911000000000000000e+03 6.031119155883789062e+01 -1.010661029815673828e+01 -3.030461072921752930e-01 1.361381340026855469e+01 3.993230104446411133e+00 1.473730564117431641e+00
4.912000000000000000e+03 6.040740585327148438e+01 -9.812113761901855469e+00 -8.177532255649566650e-02 1.427127552032470703e+01 4.256850242614746094e+00 1.162837505340576172e+00
4.913000000000000000e+03 7.354570770263671875e+01 2.813724708557128906e+01 -2.171870507299900055e-02 7.849450588226318359e+00 2.348319530487060547e+00 -1.725381985306739807e-02
4.914000000000000000e+03 5.684012413024902344e+00 8.230582237243652344e+00 2.264232840389013290e-03 6.037285784259438515e-04 8.603884489275515079e-04 -6.110320828156545758e-05
4.915000000000000000e+03 5.761272430419921875e+00 5.288232326507568359e+00 3.971296246163547039e-04 5.418487126007676125e-04 2.816935011651366949e-04 2.897215017583221197e-04
4.916000000000000000e+03 5.290663242340087891e+00 5.917285919189453125e+00 -1.750345982145518064e-04 1.280308497371152043e-04 -1.410112599842250347e-05 -1.033056541928090155e-04
4.917000000000000000e+03 6.281858444213867188e+00 2.647895050048828125e+01 -1.200609654188156128e-02 -5.037508606910705566e-01 -1.547270864248275757e-01 3.921667933464050293e-01
4.918000000000000000e+03 5.224093914031982422e+00 2.682997512817382812e+01 -4.486325196921825409e-03 -4.750653505325317383e-01 -1.438654959201812744e-01 3.439202308654785156e-01
4.919000000000000000e+03 6.280771636962890625e+01 -7.936194896697998047e+00 4.451841354370117188e+00 1.224040508270263672e+01 5.007673740386962891e+00 -1.580264568328857422e+00
4.920000000000000000e+03 6.287522888183593750e+01 -8.292602539062500000e+00 3.843822240829467773e+00 1.222248077392578125e+01 4.819890975952148438e+00 -1.665098190307617188e+00
4.921000000000000000e+03 5.839472961425781250e+01 -2.441891193389892578e+00 1.504390388727188110e-01 9.439116477966308594e+00 2.876866579055786133e+00 -4.187982082366943359e+00
4.922000000000000000e+03 7.496916198730468750e+01 2.798561668395996094e+01 -1.643935032188892365e-02 8.114860534667968750e+00 2.429526329040527344e+00 -4.753520712256431580e-03
4.923000000000000000e+03 6.079576110839843750e+01 -2.472210407257080078e+00 -2.656066715717315674e-01 1.353863620758056641e+01 3.981909036636352539e+00 -7.609262466430664062e-01
4.924000000000000000e+03 6.032489013671875000e+01 -2.006749629974365234e+00 -6.116860508918762207e-01 1.263695335388183594e+01 3.607580423355102539e+00 -1.615379929542541504e+00
4.925000000000000000e+03 5.853621673583984375e+01 -2.803791284561157227e+00 1.966818869113922119e-01 1.006011104583740234e+01 3.077037811279296875e+00 -4.371914386749267578e+00
4.926000000000000000e+03 5.831616210937500000e+01 -9.748725891113281250e+00 5.464518070220947266e-01 9.530092239379882812e+00 3.022963047027587891e+00 4.690338134765625000e+00
4.927000000000000000e+03 5.848149871826171875e+01 -9.943984985351562500e+00 2.922027409076690674e-01 9.942049980163574219e+00 3.070275783538818359e+00 4.447426319122314453e+00
4.928000000000000000e+03 5.863391113281250000e+01 -9.785312652587890625e+00 2.661596834659576416e-01 1.066788387298583984e+01 3.280213117599487305e+00 4.457930564880371094e+00
4.929000000000000000e+03 2.495339012145996094e+01 4.408399105072021484e+00 -3.274428248405456543e-01 -3.465357422828674316e-01 -2.021935731172561646e-01 6.804976463317871094e-01
4.930000000000000000e+03 5.972000503540039062e+01 -1.058301258087158203e+01 -5.286427140235900879e-01 1.218572521209716797e+01 3.497124671936035156e+00 2.488604307174682617e+00
4.931000000000000000e+03 6.129220581054687500e+01 -1.003128147125244141e+01 3.002467155456542969e-01 1.372999286651611328e+01 4.209071636199951172e+00 -1.474592983722686768e-01
4.932000000000000000e+03 5.535526275634765625e+00 2.799219131469726562e+01 2.115911617875099182e-02 -5.375971198081970215e-01 -1.549314111471176147e-01 3.419402241706848145e-01
4.933000000000000000e+03 5.636096191406250000e+01 -4.860773384571075439e-01 3.352821767330169678e-01 5.067321777343750000e+00 1.620781064033508301e+00 -3.207240343093872070e+00
4.934000000000000000e+03 6.280027389526367188e+01 -6.756153106689453125e+00 5.949593544006347656e+00 1.179080677032470703e+01 5.322120189666748047e+00 -5.175206065177917480e-01
4.935000000000000000e+03 2.179189300537109375e+01 -2.231001091003417969e+01 -6.299692392349243164e-02 -1.448609530925750732e-01 -6.235736235976219177e-02 -4.077899754047393799e-01
4.936000000000000000e+03 6.243800735473632812e+01 -6.790171623229980469e+00 6.408072471618652344e+00 1.227369022369384766e+01 5.604528903961181641e+00 -5.830282568931579590e-01
4.937000000000000000e+03 5.010253143310546875e+01 -2.491156387329101562e+01 3.298941552639007568e-01 2.963080167770385742e+00 9.878923296928405762e-01 8.971215486526489258e-01
4.938000000000000000e+03 5.804830169677734375e+01 -2.830091953277587891e+00 5.775195956230163574e-01 8.553948402404785156e+00 2.739440441131591797e+00 -4.588280200958251953e+00
4.939000000000000000e+03 5.892535018920898438e+01 -1.913625955581665039e+00 -3.566600084304809570e-01 1.031932830810546875e+01 2.988800287246704102e+00 -3.433114290237426758e+00
4.940000000000000000e+03 5.798841857910156250e+01 -1.094990444183349609e+01 1.756171584129333496e-01 8.090017318725585938e+00 2.479690313339233398e+00 3.931123733520507812e+00
4.941000000000000000e+03 6.046516799926757812e+01 -2.136582851409912109e+00 -5.228136777877807617e-01 1.288316726684570312e+01 3.708106040954589844e+00 -1.355694651603698730e+00
4.942000000000000000e+03 2.109625244140625000e+01 1.857869529724121094e+01 -3.125338256359100342e-01 -6.895303726196289062e-01 -3.006192743778228760e-01 3.503518998622894287e-01
4.943000000000000000e+03 7.408198547363281250e+01 -2.451881408691406250e+01 -2.127310931682586670e-01 7.958627700805664062e+00 2.323768854141235352e+00 -5.371447205543518066e-01
4.944000000000000000e+03 6.033942031860351562e+01 -1.042819690704345703e+01 -4.617503583431243896e-01 1.308896255493164062e+01 3.788163661956787109e+00 1.537522435188293457e+00
4.945000000000000000e+03 6.119385528564453125e+01 -2.020812511444091797e+00 -2.989009320735931396e-01 1.282668304443359375e+01 3.758334636688232422e+00 -4.312816262245178223e-01
4.946000000000000000e+03 6.138778305053710938e+01 -2.222965002059936523e+00 -8.054648339748382568e-02 1.295960140228271484e+01 3.863716602325439453e+00 -9.303069114685058594e-02
4.947000000000000000e+03 6.330832672119140625e+01 -7.781983375549316406e+00 4.376316547393798828e+00 1.145794963836669922e+01 4.750279903411865234e+00 -1.302497148513793945e+00
4.948000000000000000e+03 5.718621063232421875e+01 -1.625018566846847534e-01 3.542512655258178711e-02 6.379070281982421875e+00 1.924348592758178711e+00 -3.289880037307739258e+00
4.949000000000000000e+03 5.702624893188476562e+01 5.445687174797058105e-01 -5.526111274957656860e-02 6.132102012634277344e+00 1.823052287101745605e+00 -3.070349693298339844e+00
4.950000000000000000e+03 2.599178123474121094e+01 -1.505393314361572266e+01 -5.059735774993896484e-01 -8.806047029793262482e-03 -1.544338911771774292e-01 -5.040274858474731445e-01
4.951000000000000000e+03 6.381221389770507812e+01 -3.694328546524047852e+00 2.616508483886718750e+00 1.127485179901123047e+01 4.167407989501953125e+00 1.522575139999389648e+00
4.952000000000000000e+03 6.405228424072265625e+01 -4.118194103240966797e+00 3.085092544555664062e+00 1.095135116577148438e+01 4.210933208465576172e+00 1.426265954971313477e+00
4.953000000000000000e+03 6.340000152587890625e+01 -1.028075122833251953e+01 1.244212746620178223e+00 1.162475872039794922e+01 3.860691308975219727e+00 -1.313127994537353516e+00
4.954000000000000000e+03 4.886806488037109375e+01 -1.885279273986816406e+01 3.525093495845794678e-01 1.836639404296875000e+00 6.567445993423461914e-01 9.731941819190979004e-01
4.955000000000000000e+03 4.177310180664062500e+01 -1.666291999816894531e+01 -1.112736165523529053e-01 3.814494609832763672e-01 8.105275034904479980e-02 -5.664629861712455750e-02
4.956000000000000000e+03 5.759024810791015625e+01 -1.307417869567871094e+01 -1.871487945318222046e-01 6.956991672515869141e+00 2.030952930450439453e+00 3.066240549087524414e+00
4.957000000000000000e+03 4.394200134277343750e+01 1.755372238159179688e+01 2.990573346614837646e-01 1.998122692108154297e+00 6.891540288925170898e-01 -3.422906398773193359e-01
4.958000000000000000e+03 2.641928672790527344e+01 1.997835731506347656e+01 -2.673014625906944275e-02 -7.619766145944595337e-02 -3.087834082543849945e-02 2.201259583234786987e-01
4.959000000000000000e+03 5.287932205200195312e+01 -2.083308410644531250e+01 1.570592522621154785e-01 3.603813171386718750e+00 1.128261685371398926e+00 1.420902848243713379e+00
4.960000000000000000e+03 6.244688415527343750e+01 -6.993066310882568359e+00 6.082427978515625000e+00 1.234566879272460938e+01 5.528429031372070312e+00 -9.041134715080261230e-01
4.961000000000000000e+03 6.356691360473632812e+01 -9.278475761413574219e+00 2.363945722579956055e+00 1.151176357269287109e+01 4.162712574005126953e+00 -1.537464737892150879e+00
4.962000000000000000e+03 6.364183044433593750e+01 -9.694653511047363281e+00 1.899859428405761719e+00 1.143007755279541016e+01 3.998980998992919922e+00 -1.460622429847717285e+00
4.963000000000000000e+03 6.377023696899414062e+01 -9.498226165771484375e+00 2.180678367614746094e+00 1.135127162933349609e+01 4.059585094451904297e+00 -1.514249920845031738e+00
4.964000000000000000e+03 5.589226531982421875e+01 1.017789319157600403e-01 3.004230856895446777e-01 4.619814395904541016e+00 1.476071238517761230e+00 -2.951148509979248047e+00
4.965000000000000000e+03 2.678532981872558594e+01 1.830108612775802612e-01 -3.988164961338043213e-01 -1.389300525188446045e-01 -1.613239645957946777e-01 5.670691728591918945e-01
4.966000000000000000e+03 6.330899810791015625e+01 -3.243150949478149414e+00 2.015034914016723633e+00 1.179604339599609375e+01 4.143323421478271484e+00 1.504402041435241699e+00
4.967000000000000000e+03 6.100897979736328125e+01 -1.787459731101989746e+00 -4.907035529613494873e-01 1.251285266876220703e+01 3.606644630432128906e+00 -8.004689216613769531e-01
4.968000000000000000e+03 5.846848678588867188e+01 -1.076571273803710938e+01 -5.291406065225601196e-02 9.419326782226562500e+00 2.809923648834228516e+00 3.912287712097167969e+00
4.969000000000000000e+03 5.987338638305664062e+01 -1.143887138366699219e+01 -7.072428464889526367e-01 1.127851963043212891e+01 3.171383142471313477e+00 2.218091964721679688e+00
4.970000000000000000e+03 6.128045654296875000e+01 -1.376835227012634277e+00 -5.159105062484741211e-01 1.211417388916015625e+01 3.479479074478149414e+00 -5.460417270660400391e-01
4.971000000000000000e+03 6.340815353393554688e+01 -1.064126968383789062e+01 9.080584645271301270e-01 1.151844024658203125e+01 3.727949380874633789e+00 -1.187171220779418945e+00
4.972000000000000000e+03 6.396851348876953125e+01 -9.371978759765625000e+00 2.278983354568481445e+00 1.116876411437988281e+01 4.034324169158935547e+00 -1.499793410301208496e+00
4.973000000000000000e+03 2.633686447143554688e+01 -1.171288728713989258e+00 -3.897154927253723145e-01 -1.153080537915229797e-01 -1.515070647001266479e-01 4.743331968784332275e-01
4.974000000000000000e+03 6.450659179687500000e+01 -3.441273212432861328e+00 2.331630706787109375e+00 1.067064762115478516e+01 3.900683403015136719e+00 1.454624056816101074e+00
4.975000000000000000e+03 6.419262695312500000e+01 -3.503293752670288086e+00 2.397688865661621094e+00 1.092744731903076172e+01 3.997540950775146484e+00 1.460790991783142090e+00
4.976000000000000000e+03 5.949467086791992188e+01 -1.012392163276672363e+00 -6.960976719856262207e-01 1.043510246276855469e+01 2.921701431274414062e+00 -2.540805816650390625e+00
4.977000000000000000e+03 5.940707778930664062e+01 -1.386219024658203125e+00 -6.542828083038330078e-01 1.069040298461914062e+01 3.010836124420166016e+00 -2.726190805435180664e+00
4.978000000000000000e+03 5.865116119384765625e+01 -1.118605136871337891e+01 -2.857482433319091797e-01 9.618271827697753906e+00 2.799757242202758789e+00 3.513733863830566406e+00
4.979000000000000000e+03 5.833773422241210938e+01 -1.108776760101318359e+01 -7.199963927268981934e-02 8.903848648071289062e+00 2.649554729461669922e+00 3.765180349349975586e+00
4.980000000000000000e+03 5.156556320190429688e+01 -1.558829975128173828e+01 3.559440374374389648e-01 2.133522987365722656e+00 7.468400597572326660e-01 1.515159726142883301e+00
4.981000000000000000e+03 5.288338851928710938e+01 -1.683355522155761719e+01 2.809725701808929443e-01 3.104564189910888672e+00 1.015661001205444336e+00 1.784433364868164062e+00
4.982000000000000000e+03 5.249053192138671875e+01 -1.977684974670410156e+01 2.123945504426956177e-01 3.365561008453369141e+00 1.073386669158935547e+00 1.491988897323608398e+00
4.983000000000000000e+03 6.441533660888671875e+01 -8.511465072631835938e+00 3.178579330444335938e+00 1.061486816406250000e+01 4.138034343719482422e+00 -1.328511834144592285e+00
4.984000000000000000e+03 5.858883666992187500e+01 3.626802861690521240e-01 -5.686312913894653320e-01 8.295921325683593750e+00 2.318186998367309570e+00 -2.755338430404663086e+00
4.985000000000000000e+03 6.420297241210937500e+01 -9.337344169616699219e+00 2.322605609893798828e+00 1.094242191314697266e+01 3.979508161544799805e+00 -1.496366977691650391e+00
4.986000000000000000e+03 6.193737792968750000e+01 -2.829816341400146484e+00 8.321891427040100098e-01 1.315587139129638672e+01 4.196418285369873047e+00 7.881063818931579590e-01
4.987000000000000000e+03 7.006497192382812500e+01 1.720910644531250000e+01 -3.152771890163421631e-01 7.573391914367675781e+00 2.177434444427490234e+00 1.535392105579376221e-01
4.988000000000000000e+03 6.472562408447265625e+01 -1.034636402130126953e+01 1.459741115570068359e+00 1.055926895141601562e+01 3.605703115463256836e+00 -1.380638122558593750e+00
4.989000000000000000e+03 6.337961578369140625e+01 -2.214968204498291016e+00 9.397289752960205078e-01 1.157856750488281250e+01 3.755489110946655273e+00 1.185162663459777832e+00
4.990000000000000000e+03 6.395367813110351562e+01 -3.444335222244262695e+00 2.329635381698608398e+00 1.118619728088378906e+01 4.054749965667724609e+00 1.512127399444580078e+00
4.991000000000000000e+03 6.421437835693359375e+01 -2.907965183258056641e+00 1.734590291976928711e+00 1.093250274658203125e+01 3.800127983093261719e+00 1.407316803932189941e+00
4.992000000000000000e+03 5.912135314941406250e+01 -1.328846931457519531e+00 -5.564655661582946777e-01 1.022207355499267578e+01 2.899682521820068359e+00 -2.991672515869140625e+00
4.993000000000000000e+03 5.941088867187500000e+01 -4.575008451938629150e-01 -7.566512227058410645e-01 9.930285453796386719e+00 2.752090215682983398e+00 -2.500761985778808594e+00
4.994000000000000000e+03 2.790567970275878906e+01 -1.591094303131103516e+01 -4.545275866985321045e-01 -7.525051943957805634e-03 -1.386157870292663574e-01 -5.139483809471130371e-01
4.995000000000000000e+03 6.414033508300781250e+01 -3.285936117172241211e+00 2.142919540405273438e+00 1.102325153350830078e+01 3.949851512908935547e+00 1.461938738822937012e+00
4.996000000000000000e+03 5.914944458007812500e+01 -9.715070724487304688e-01 -6.244188547134399414e-01 9.955723762512207031e+00 2.799391508102416992e+00 -2.836637020111083984e+00
4.997000000000000000e+03 5.919239807128906250e+01 -2.488292604684829712e-01 -6.967737078666687012e-01 9.409967422485351562e+00 2.613958120346069336e+00 -2.601574182510375977e+00
4.998000000000000000e+03 5.480701065063476562e+01 -1.511899566650390625e+01 2.189893424510955811e-01 4.053965568542480469e+00 1.281886458396911621e+00 2.337673425674438477e+00
4.999000000000000000e+03 6.538990783691406250e+01 -3.686485767364501953e+00 2.435700416564941406e+00 9.975258827209472656e+00 3.723287820816040039e+00 1.259200930595397949e+00
5.000000000000000000e+03 5.174213027954101562e+01 -1.491069793701171875e+01 3.539625108242034912e-01 2.022964000701904297e+00 7.130779623985290527e-01 1.538731336593627930e+00
5.001000000000000000e+03 5.387783050537109375e+01 -1.832794761657714844e+01 1.058553084731101990e-01 3.904698371887207031e+00 1.203166127204895020e+00 1.770665049552917480e+00
5.002000000000000000e+03 3.373838043212890625e+01 1.114780139923095703e+01 -7.225474715232849121e-02 3.726462721824645996e-01 9.011745452880859375e-02 4.148246049880981445e-01
5.003000000000000000e+03 6.175241470336914062e+01 -2.592263460159301758e+00 4.707573354244232178e-01 1.315785217285156250e+01 4.088582992553710938e+00 4.964942038059234619e-01
5.004000000000000000e+03 2.651775360107421875e+01 8.273523449897766113e-01 -3.750710189342498779e-01 -1.682797819375991821e-01 -1.630052477121353149e-01 5.928910374641418457e-01
5.005000000000000000e+03 6.440966796875000000e+01 -9.735576629638671875e+00 1.924436211585998535e+00 1.078373908996582031e+01 3.812452554702758789e+00 -1.451400160789489746e+00
5.006000000000000000e+03 2.726127624511718750e+01 1.114327669143676758e+00 -4.035984873771667480e-01 -1.421282738447189331e-01 -1.637180298566818237e-01 6.211020350456237793e-01
5.007000000000000000e+03 6.485583496093750000e+01 -8.528005599975585938e+00 2.991163730621337891e+00 1.023703670501708984e+01 3.968460321426391602e+00 -1.233533740043640137e+00
5.008000000000000000e+03 6.476194763183593750e+01 -8.901499748229980469e+00 2.701448678970336914e+00 1.036299419403076172e+01 3.919332742691040039e+00 -1.342812180519104004e+00
5.009000000000000000e+03 7.260310363769531250e+01 1.788733673095703125e+01 -1.930441111326217651e-01 7.820161342620849609e+00 2.288135051727294922e+00 1.943136155605316162e-01
5.010000000000000000e+03 6.400522613525390625e+01 -3.095317363739013672e+00 1.966130137443542480e+00 1.114227199554443359e+01 3.932520627975463867e+00 1.462805151939392090e+00
5.011000000000000000e+03 7.174494934082031250e+01 -1.924297904968261719e+01 -3.215521275997161865e-01 8.004707336425781250e+00 2.304946422576904297e+00 -8.998528122901916504e-01
5.012000000000000000e+03 5.473535919189453125e+01 1.400402355194091797e+01 -1.404513865709304810e-01 4.603896617889404297e+00 1.339033603668212891e+00 -9.355687499046325684e-01
5.013000000000000000e+03 5.411934280395507812e+01 -1.660039520263671875e+01 1.661709398031234741e-01 3.822967529296875000e+00 1.196741580963134766e+00 1.991135239601135254e+00
5.014000000000000000e+03 2.851046562194824219e+01 3.979871571063995361e-01 -4.766193330287933350e-01 -8.372205495834350586e-02 -1.681024134159088135e-01 6.093687415122985840e-01
5.015000000000000000e+03 5.927613067626953125e+01 -1.185455226898193359e+01 -6.605108976364135742e-01 1.018070411682128906e+01 2.856058120727539062e+00 2.718228340148925781e+00
5.016000000000000000e+03 5.901027679443359375e+01 -1.187194919586181641e+01 -5.673491358757019043e-01 9.746043205261230469e+00 2.753607988357543945e+00 2.942332983016967773e+00
5.017000000000000000e+03 5.954056930541992188e+01 -1.183580303192138672e+01 -6.724433898925781250e-01 1.037945270538330078e+01 2.912102699279785156e+00 2.464928865432739258e+00
5.018000000000000000e+03 5.903419113159179688e+01 7.737423181533813477e-01 -7.224119901657104492e-01 8.625827789306640625e+00 2.371024608612060547e+00 -2.415658712387084961e+00
5.019000000000000000e+03 5.941887664794921875e+01 2.567420527338981628e-02 -7.827780842781066895e-01 9.513205528259277344e+00 2.619128227233886719e+00 -2.398078680038452148e+00
5.020000000000000000e+03 6.423445129394531250e+01 -2.326742410659790039e+00 1.269366860389709473e+00 1.087678623199462891e+01 3.643845796585083008e+00 1.350177645683288574e+00
5.021000000000000000e+03 6.398448181152343750e+01 -1.644371747970581055e+00 6.697574257850646973e-01 1.097465801239013672e+01 3.493324518203735352e+00 1.129941821098327637e+00
5.022000000000000000e+03 5.934713745117187500e+01 3.406079113483428955e-01 -7.761477231979370117e-01 9.232003211975097656e+00 2.536756515502929688e+00 -2.357468366622924805e+00
5.023000000000000000e+03 4.814447021484375000e+01 -1.554248523712158203e+01 1.548907160758972168e-01 1.037429451942443848e+00 3.576960563659667969e-01 7.223836779594421387e-01
5.024000000000000000e+03 5.715265274047851562e+01 2.170016288757324219e+00 -3.039906919002532959e-01 6.235833168029785156e+00 1.779552817344665527e+00 -2.563198328018188477e+00
5.025000000000000000e+03 5.685899734497070312e+01 2.730522394180297852e+00 -2.788886427879333496e-01 5.921390533447265625e+00 1.692750692367553711e+00 -2.452606201171875000e+00
5.026000000000000000e+03 5.590658187866210938e+01 2.229183197021484375e+00 -9.335914626717567444e-03 5.056741714477539062e+00 1.514221668243408203e+00 -2.539752006530761719e+00
5.027000000000000000e+03 6.590900421142578125e+01 -4.103946208953857422e+00 2.551150083541870117e+00 9.604145050048828125e+00 3.646588563919067383e+00 1.078564286231994629e+00
5.028000000000000000e+03 6.542501831054687500e+01 -2.714297056198120117e+00 1.664697885513305664e+00 1.010071372985839844e+01 3.529623508453369141e+00 1.369585871696472168e+00
5.029000000000000000e+03 6.478250122070312500e+01 -1.870498847961425781e+01 -8.730527758598327637e-01 8.539385795593261719e+00 2.299899816513061523e+00 -8.537820726633071899e-02
5.030000000000000000e+03 5.190233993530273438e+01 1.149460077285766602e+00 3.019331395626068115e-01 1.856839179992675781e+00 6.476317048072814941e-01 -1.493373394012451172e+00
5.031000000000000000e+03 6.196076965332031250e+01 -1.199759483337402344e+00 -3.882254064083099365e-01 1.184474372863769531e+01 3.436955451965332031e+00 -7.407934963703155518e-02
5.032000000000000000e+03 6.189986038208007812e+01 -8.854622840881347656e-01 -4.481756091117858887e-01 1.166518211364746094e+01 3.365101814270019531e+00 -1.862010806798934937e-01
5.033000000000000000e+03 2.758924484252929688e+01 -1.316200733184814453e+01 -6.785412430763244629e-01 -7.313996087759733200e-03 -2.057565599679946899e-01 -4.728540480136871338e-01
5.034000000000000000e+03 2.953014945983886719e+01 -1.396307277679443359e+01 -6.539300680160522461e-01 -1.218577101826667786e-02 -1.998347491025924683e-01 -4.856411814689636230e-01
5.035000000000000000e+03 6.894108581542968750e+01 -2.037744522094726562e+01 -5.677761435508728027e-01 8.209893226623535156e+00 2.292635202407836914e+00 -6.863274574279785156e-01
5.036000000000000000e+03 6.019488906860351562e+01 3.266744613647460938e-01 -9.143747091293334961e-01 1.003605079650878906e+01 2.736502885818481445e+00 -1.735730886459350586e+00
5.037000000000000000e+03 6.179388046264648438e+01 -1.145168495178222656e+01 -3.179963231086730957e-01 1.195828247070312500e+01 3.492085933685302734e+00 1.049896478652954102e-01
5.038000000000000000e+03 2.912695312500000000e+01 1.321998089551925659e-01 -5.135505199432373047e-01 -6.193759292364120483e-02 -1.726464480161666870e-01 6.015135049819946289e-01
5.039000000000000000e+03 6.217369461059570312e+01 -7.672600746154785156e-01 -4.157480597496032715e-01 1.144961833953857422e+01 3.310161113739013672e+00 -6.981802172958850861e-03
5.040000000000000000e+03 4.467789840698242188e+01 -1.367643833160400391e+01 -5.186051726341247559e-01 2.838402390480041504e-01 -7.042947411537170410e-02 1.996634155511856079e-02
5.041000000000000000e+03 5.927837753295898438e+01 2.203867197036743164e+00 -8.246588706970214844e-01 8.183277130126953125e+00 2.207585573196411133e+00 -1.989864349365234375e+00
5.042000000000000000e+03 5.073398208618164062e+01 1.362223982810974121e+00 2.047521919012069702e-01 1.462302088737487793e+00 5.001162886619567871e-01 -1.169864416122436523e+00
5.043000000000000000e+03 5.148826980590820312e+01 1.373289704322814941e+00 2.739306390285491943e-01 1.713392615318298340e+00 5.961970090866088867e-01 -1.384868025779724121e+00
5.044000000000000000e+03 4.004401016235351562e+01 8.714192509651184082e-01 -6.739898324012756348e-01 1.682026088237762451e-01 -1.517361700534820557e-01 4.198726713657379150e-01
5.045000000000000000e+03 6.126871871948242188e+01 -1.249872493743896484e+01 -7.725846171379089355e-01 1.109058952331542969e+01 3.095401525497436523e+00 8.039373159408569336e-01
5.046000000000000000e+03 6.003825378417968750e+01 -1.250981235504150391e+01 -8.375225663185119629e-01 1.029126930236816406e+01 2.836124181747436523e+00 1.933195710182189941e+00
5.047000000000000000e+03 5.958885574340820312e+01 -1.239910030364990234e+01 -7.441530227661132812e-01 9.966048240661621094e+00 2.766568422317504883e+00 2.317329168319702148e+00
5.048000000000000000e+03 6.166373443603515625e+01 -5.617852807044982910e-01 -6.794577836990356445e-01 1.137477302551269531e+01 3.208594560623168945e+00 -4.839568436145782471e-01
5.049000000000000000e+03 6.647552490234375000e+01 -8.375862121582031250e+00 2.511672258377075195e+00 9.260058403015136719e+00 3.531519174575805664e+00 -9.055253863334655762e-01
5.050000000000000000e+03 6.231356811523437500e+01 -4.591382145881652832e-01 -5.052928328514099121e-01 1.124878501892089844e+01 3.223047494888305664e+00 1.683422364294528961e-02
5.051000000000000000e+03 6.569232177734375000e+01 -1.896844863891601562e+00 1.125894427299499512e+00 9.949730873107910156e+00 3.322687625885009766e+00 1.322643160820007324e+00
5.052000000000000000e+03 6.524828338623046875e+01 -9.514854431152343750e+00 2.106931686401367188e+00 1.012910938262939453e+01 3.670812368392944336e+00 -1.350478172302246094e+00
5.053000000000000000e+03 6.543209075927734375e+01 -9.020735740661621094e+00 2.512000083923339844e+00 9.987631797790527344e+00 3.749889373779296875e+00 -1.267953753471374512e+00
5.054000000000000000e+03 7.136334228515625000e+01 -1.666641426086425781e+01 -1.849052757024765015e-01 8.060174942016601562e+00 2.362581014633178711e+00 -1.049541711807250977e+00
5.055000000000000000e+03 6.041646575927734375e+01 -1.379341506958007812e+01 -9.278682470321655273e-01 9.691623687744140625e+00 2.629126548767089844e+00 1.528946161270141602e+00
5.056000000000000000e+03 5.112428283691406250e+01 1.453531861305236816e+00 2.466098070144653320e-01 1.569265723228454590e+00 5.447626709938049316e-01 -1.273035049438476562e+00
5.057000000000000000e+03 4.979362487792968750e+01 1.801260590553283691e+00 1.352234482765197754e-01 1.312751173973083496e+00 4.343923926353454590e-01 -9.258033037185668945e-01
5.058000000000000000e+03 6.908950805664062500e+01 -2.839815318584442139e-01 5.136182308197021484e-01 8.582908630371093750e+00 2.728958129882812500e+00 1.198487401008605957e+00
5.059000000000000000e+03 6.968901824951171875e+01 -1.029421210289001465e+00 6.968371272087097168e-01 8.352083206176757812e+00 2.714676141738891602e+00 1.146459937095642090e+00
5.060000000000000000e+03 4.385155868530273438e+01 5.931843757629394531e+00 1.209170520305633545e-01 8.819195628166198730e-01 3.008509874343872070e-01 -1.489665657281875610e-01
5.061000000000000000e+03 5.988928604125976562e+01 1.506025671958923340e+00 -9.122557640075683594e-01 9.084829330444335938e+00 2.451772212982177734e+00 -1.805048704147338867e+00
5.062000000000000000e+03 6.686910247802734375e+01 -8.245567321777343750e+00 2.437165498733520508e+00 9.074458122253417969e+00 3.453486919403076172e+00 -8.071972131729125977e-01
5.063000000000000000e+03 6.688348388671875000e+01 -1.361350178718566895e+00 9.152813553810119629e-01 9.366933822631835938e+00 3.084664583206176758e+00 1.277433276176452637e+00
5.064000000000000000e+03 6.689015960693359375e+01 -4.633927345275878906e+00 2.467706918716430664e+00 9.037433624267578125e+00 3.451542139053344727e+00 7.573415637016296387e-01
5.065000000000000000e+03 6.105169677734375000e+01 -1.384770488739013672e+01 -9.428659677505493164e-01 9.987957000732421875e+00 2.713527202606201172e+00 1.107128500938415527e+00
5.066000000000000000e+03 6.154309082031250000e+01 1.189239472150802612e-01 -8.345399498939514160e-01 1.077965545654296875e+01 2.983534574508666992e+00 -7.266558408737182617e-01
5.067000000000000000e+03 5.684781646728515625e+01 3.664166927337646484e+00 -3.509057462215423584e-01 5.882087230682373047e+00 1.659354448318481445e+00 -2.227489709854125977e+00
5.068000000000000000e+03 4.878291702270507812e+01 2.110304594039916992e+00 9.605237841606140137e-02 1.101467251777648926e+00 3.592559099197387695e-01 -7.470903992652893066e-01
5.069000000000000000e+03 6.538747406005859375e+01 6.069783210754394531e+00 -8.498618006706237793e-01 8.538768768310546875e+00 2.306672096252441406e+00 2.210791558027267456e-01
5.070000000000000000e+03 5.020199203491210938e+01 1.799876213073730469e+00 1.864334046840667725e-01 1.435832381248474121e+00 4.866797327995300293e-01 -1.070151329040527344e+00
5.071000000000000000e+03 4.951608657836914062e+01 2.635724067687988281e+00 1.888824552297592163e-01 1.433058023452758789e+00 4.865821301937103271e-01 -9.342577457427978516e-01
5.072000000000000000e+03 6.606806945800781250e+01 -1.493127346038818359e+01 -3.815549612045288086e-01 9.330744743347167969e+00 2.684756994247436523e+00 -8.277389407157897949e-01
5.073000000000000000e+03 5.694904327392578125e+01 5.936975002288818359e+00 -4.248303174972534180e-01 5.753678798675537109e+00 1.598654508590698242e+00 -1.815981268882751465e+00
5.074000000000000000e+03 3.599232864379882812e+01 3.063694953918457031e+00 -4.426809847354888916e-01 1.551859229803085327e-01 -8.624851703643798828e-02 5.740915536880493164e-01
5.075000000000000000e+03 3.637587356567382812e+01 4.145102977752685547e+00 -3.364626467227935791e-01 2.131368517875671387e-01 -3.699774295091629028e-02 5.423449277877807617e-01
5.076000000000000000e+03 4.492796325683593750e+01 2.127030372619628906e+00 -2.344192564487457275e-01 5.079107880592346191e-01 8.204746246337890625e-02 -5.917833372950553894e-02
5.077000000000000000e+03 3.984225082397460938e+01 2.441168785095214844e+00 -4.349949955940246582e-01 2.579820454120635986e-01 -5.310388654470443726e-02 3.919042944908142090e-01
5.078000000000000000e+03 4.571452713012695312e+01 4.915510177612304688e+00 1.331347227096557617e-01 1.025147914886474609e+00 3.474847972393035889e-01 -3.485351204872131348e-01
5.079000000000000000e+03 6.751725006103515625e+01 -4.212998867034912109e+00 2.117249011993408203e+00 8.834820747375488281e+00 3.285620927810668945e+00 8.316482305526733398e-01
5.080000000000000000e+03 6.742031860351562500e+01 -9.653271675109863281e+00 1.707406759262084961e+00 8.996708869934082031e+00 3.211234569549560547e+00 -1.107167005538940430e+00
5.081000000000000000e+03 6.797392272949218750e+01 -8.420089721679687500e+00 2.043495893478393555e+00 8.673092842102050781e+00 3.214976787567138672e+00 -7.655994892120361328e-01
5.082000000000000000e+03 6.008846282958984375e+01 8.426532149314880371e-01 -9.277889728546142578e-01 9.577611923217773438e+00 2.594946861267089844e+00 -1.752214193344116211e+00
5.083000000000000000e+03 6.689888000488281250e+01 -1.385596847534179688e+01 -2.320364303886890411e-02 9.277940750122070312e+00 2.776421070098876953e+00 -1.083460569381713867e+00
5.084000000000000000e+03 6.697570037841796875e+01 -3.281447172164916992e+00 1.790215134620666504e+00 9.170454978942871094e+00 3.288200855255126953e+00 1.113616228103637695e+00
5.085000000000000000e+03 4.998934555053710938e+01 2.240313053131103516e+00 1.991919130086898804e-01 1.506955146789550781e+00 5.118440985679626465e-01 -1.041967868804931641e+00
5.086000000000000000e+03 6.187086105346679688e+01 1.075962901115417480e+00 -9.117789864540100098e-01 1.018419265747070312e+01 2.781723976135253906e+00 -6.203271150588989258e-01
5.087000000000000000e+03 6.536583709716796875e+01 2.628270626068115234e+00 -5.900017619132995605e-01 9.349873542785644531e+00 2.627961635589599609e+00 5.915538668632507324e-01
5.088000000000000000e+03 6.969804382324218750e+01 2.130166530609130859e+00 -4.229343682527542114e-02 8.439932823181152344e+00 2.519291877746582031e+00 1.119897365570068359e+00
5.089000000000000000e+03 6.771585083007812500e+01 -4.833893299102783203e+00 2.253019094467163086e+00 8.714337348937988281e+00 3.290206670761108398e+00 6.094568967819213867e-01
5.090000000000000000e+03 6.713361358642578125e+01 1.249799609184265137e+00 -6.053344532847404480e-02 9.186654090881347656e+00 2.737836122512817383e+00 1.075791716575622559e+00
5.091000000000000000e+03 6.650243377685546875e+01 -1.435190391540527344e+01 -1.975851058959960938e-01 9.305900573730468750e+00 2.732494592666625977e+00 -9.703742861747741699e-01
5.092000000000000000e+03 6.593624877929687500e+01 -1.384973049163818359e+01 -1.401304751634597778e-01 9.586294174194335938e+00 2.833849191665649414e+00 -9.600491523742675781e-01
5.093000000000000000e+03 6.692928314208984375e+01 -1.158979129791259766e+01 8.312366604804992676e-01 9.366302490234375000e+00 3.059261798858642578e+00 -1.289207935333251953e+00
5.094000000000000000e+03 6.861911773681640625e+01 -8.367046356201171875e+00 1.839567184448242188e+00 8.438258171081542969e+00 3.083347797393798828e+00 -6.737370491027832031e-01
5.095000000000000000e+03 6.586425781250000000e+01 -1.229013252258300781e+01 4.441659152507781982e-01 9.792551040649414062e+00 3.071014881134033203e+00 -1.194442510604858398e+00
5.096000000000000000e+03 6.729952239990234375e+01 -1.046926879882812500e+01 1.355638384819030762e+00 9.126224517822265625e+00 3.144558668136596680e+00 -1.228068470954895020e+00
5.097000000000000000e+03 6.729384613037109375e+01 -1.002932548522949219e+01 1.542297363281250000e+00 9.089456558227539062e+00 3.189526081085205078e+00 -1.176503777503967285e+00
5.098000000000000000e+03 6.306041717529296875e+01 -1.504153442382812500e+01 -8.610171079635620117e-01 9.699824333190917969e+00 2.651642084121704102e+00 1.505736857652664185e-01
5.099000000000000000e+03 6.362171936035156250e+01 -1.567249393463134766e+01 -8.502601981163024902e-01 9.413155555725097656e+00 2.568868637084960938e+00 -2.227611839771270752e-03
5.100000000000000000e+03 6.872046661376953125e+01 -5.273550510406494141e+00 1.977680563926696777e+00 8.336802482604980469e+00 3.094344854354858398e+00 4.025965929031372070e-01
5.101000000000000000e+03 4.074615097045898438e+01 4.065104484558105469e+00 -1.946929544210433960e-01 4.182825088500976562e-01 6.707686930894851685e-02 2.580324411392211914e-01
5.102000000000000000e+03 6.946334838867187500e+01 -7.655922889709472656e+00 1.722203969955444336e+00 8.115428924560546875e+00 2.951289892196655273e+00 -4.179138243198394775e-01
5.103000000000000000e+03 6.394156265258789062e+01 3.239017724990844727e+00 -8.678259849548339844e-01 9.284715652465820312e+00 2.525066852569580078e+00 6.250943243503570557e-02
5.104000000000000000e+03 6.885536193847656250e+01 -1.000912570953369141e+01 1.316402554512023926e+00 8.485084533691406250e+00 2.940446138381958008e+00 -1.027594685554504395e+00
5.105000000000000000e+03 6.861433410644531250e+01 -9.185686111450195312e+00 1.625098586082458496e+00 8.520636558532714844e+00 3.043720722198486328e+00 -8.855748772621154785e-01
5.106000000000000000e+03 6.860816955566406250e+01 -1.077290821075439453e+01 1.120366930961608887e+00 8.669409751892089844e+00 2.936932802200317383e+00 -1.165959835052490234e+00
5.107000000000000000e+03 6.838772583007812500e+01 -1.031539821624755859e+01 1.237744331359863281e+00 8.688017845153808594e+00 2.977728605270385742e+00 -1.118584990501403809e+00
5.108000000000000000e+03 6.799076080322265625e+01 -5.215384483337402344e+00 2.233898639678955078e+00 8.592493057250976562e+00 3.247917413711547852e+00 4.442628920078277588e-01
5.109000000000000000e+03 6.464437103271484375e+01 3.141919374465942383e+00 -7.824813723564147949e-01 9.292550086975097656e+00 2.553020715713500977e+00 2.868094444274902344e-01
5.110000000000000000e+03 7.007373809814453125e+01 -1.132214736938476562e+01 8.045549392700195312e-01 8.233526229858398438e+00 2.711424112319946289e+00 -1.099580049514770508e+00
5.111000000000000000e+03 6.787094116210937500e+01 -1.313134479522705078e+01 3.007065057754516602e-01 8.984816551208496094e+00 2.785657167434692383e+00 -1.210078477859497070e+00
5.112000000000000000e+03 6.806993103027343750e+01 -1.205658149719238281e+01 6.729473471641540527e-01 8.942770957946777344e+00 2.884715557098388672e+00 -1.255269885063171387e+00
5.113000000000000000e+03 6.901014709472656250e+01 -1.171558380126953125e+01 7.398520708084106445e-01 8.567256927490234375e+00 2.792132854461669922e+00 -1.185647487640380859e+00
5.114000000000000000e+03 6.849561309814453125e+01 -1.227915382385253906e+01 5.972821116447448730e-01 8.803832054138183594e+00 2.820334196090698242e+00 -1.254766225814819336e+00
5.115000000000000000e+03 6.823291778564453125e+01 -1.272280216217041016e+01 4.693078994750976562e-01 8.887198448181152344e+00 2.806951999664306641e+00 -1.237966895103454590e+00
5.116000000000000000e+03 6.823105621337890625e+01 -1.349598789215087891e+01 2.039321213960647583e-01 8.867815971374511719e+00 2.721524477005004883e+00 -1.200442671775817871e+00
5.117000000000000000e+03 1.488040065765380859e+01 1.046121835708618164e+00 1.599311071913689375e-04 4.969147848896682262e-04 1.970537559827789664e-04 5.292611967888660729e-05
5.118000000000000000e+03 1.433596038818359375e+01 8.109902739524841309e-01 1.396812440361827612e-04 -1.136891660280525684e-04 7.797623766236938536e-06 3.586673992685973644e-04
5.119000000000000000e+03 1.339948463439941406e+01 9.943951964378356934e-01 2.988471824210137129e-04 3.051920430152677000e-05 9.880991274258121848e-05 -2.667901571840047836e-05
5.120000000000000000e+03 1.399857616424560547e+01 1.078236818313598633e+00 -3.848467604257166386e-04 -2.752149594016373158e-04 -1.980185188585892320e-04 -5.368898928281851113e-05
5.121000000000000000e+03 1.342517852783203125e+01 2.516243755817413330e-01 -6.596987077500671148e-05 1.930667394844931550e-06 -1.921176044561434537e-05 1.015322504827054217e-05
5.122000000000000000e+03 1.503903388977050781e+01 3.840551078319549561e-01 -5.331292049959301949e-05 -8.474892092635855079e-05 -4.141855242778547108e-05 -6.201163341756910086e-05
5.123000000000000000e+03 1.424006271362304688e+01 2.423980534076690674e-01 5.413659437181195244e-06 7.010658737272024155e-05 2.265607326989993453e-05 1.229614190378924832e-05
5.124000000000000000e+03 1.447602939605712891e+01 1.142013788223266602e+00 3.502718172967433929e-04 -8.746157618588767946e-06 1.024576995405368507e-04 4.419467950356192887e-05
5.125000000000000000e+03 1.113503360748291016e+01 3.384475409984588623e-01 -5.689214231097139418e-05 -7.156284846132621169e-05 -3.853649832308292389e-05 3.812877912423573434e-05
5.126000000000000000e+03 1.115649890899658203e+01 1.078244447708129883e+00 -3.417060652282088995e-04 -5.100432827020995319e-05 -1.178131133201532066e-04 -2.502318238839507103e-04
5.127000000000000000e+03 1.038435840606689453e+01 3.729175329208374023e-01 -2.468154416419565678e-04 7.956859008118044585e-06 -7.165757415350526571e-05 -1.065113174263387918e-04
5.128000000000000000e+03 1.188578510284423828e+01 3.038018345832824707e-01 -1.278525160159915686e-04 1.015139569062739611e-04 -7.901569006207864732e-06 -6.468831270467489958e-05
5.129000000000000000e+03 1.263660717010498047e+01 2.689834535121917725e-01 4.790409730048850179e-05 -8.996218093670904636e-05 -1.261742454516934231e-05 -1.378178467348334379e-06
5.130000000000000000e+03 1.266393947601318359e+01 1.008509635925292969e+00 -2.333917946089059114e-04 -8.739452459849417210e-05 -9.623589721741154790e-05 -1.447434478905051947e-04
5.131000000000000000e+03 1.040289020538330078e+01 1.112849831581115723e+00 1.139551095548085868e-04 1.491001603426411748e-04 7.891657878644764423e-05 2.279818290844559669e-04
5.132000000000000000e+03 1.191018390655517578e+01 1.043463349342346191e+00 1.220718986587598920e-04 6.113172275945544243e-05 5.496108497027307749e-05 4.913683005725033581e-05
5.133000000000000000e+03 9.630480766296386719e+00 3.871794641017913818e-01 -1.402823982061818242e-04 1.326081983279436827e-04 -2.302260099895647727e-06 1.157990918727591634e-04
5.134000000000000000e+03 8.873666763305664062e+00 3.829238712787628174e-01 -3.039173607248812914e-04 -2.969535416923463345e-04 -1.802612678147852421e-04 -1.613659842405468225e-04
5.135000000000000000e+03 9.660673141479492188e+00 1.127179503440856934e+00 -3.472501120995730162e-04 -2.546029281802475452e-04 -1.805559004424139857e-04 -3.831379290204495192e-04
5.136000000000000000e+03 8.116720199584960938e+00 3.805542886257171631e-01 -1.796084834495559335e-04 4.572630859911441803e-04 8.329638512805104256e-05 1.580796670168638229e-04
5.137000000000000000e+03 7.360193252563476562e+00 3.795430362224578857e-01 -3.379555419087409973e-04 -5.747724208049476147e-04 -2.738183829933404922e-04 -1.764075132086873055e-04
5.138000000000000000e+03 5.847065925598144531e+00 3.768712580204010010e-01 -3.261014644522219896e-04 -6.509063532575964928e-04 -2.931023482233285904e-04 -1.607238809810951352e-04
5.139000000000000000e+03 5.091114044189453125e+00 3.758820295333862305e-01 -1.490520080551505089e-04 6.101345061324536800e-04 1.383247436024248600e-04 1.671203790465369821e-04
5.140000000000000000e+03 3.579006433486938477e+00 3.681437373161315918e-01 -6.257891072891652584e-05 4.250153142493218184e-04 1.087309210561215878e-04 1.463910448364913464e-04
5.141000000000000000e+03 2.823871612548828125e+00 3.614119887351989746e-01 -1.944999821716919541e-04 -3.344712604302912951e-04 -1.586913713254034519e-04 -9.935587877407670021e-05
5.142000000000000000e+03 2.070111274719238281e+00 3.578882515430450439e-01 3.143406866001896560e-05 2.548611955717206001e-04 8.588857599534094334e-05 1.279549469472840428e-04
5.143000000000000000e+03 2.362852334976196289e+00 1.097888231277465820e+00 -2.047245070571079850e-04 -2.519442059565335512e-04 -1.370006066281348467e-04 -3.586703678593039513e-05
5.144000000000000000e+03 1.328713655471801758e+00 3.659794926643371582e-01 -7.038460171315819025e-05 -1.760854647727683187e-04 -7.394101703539490700e-05 -5.532310387934558094e-05
5.145000000000000000e+03 1.647709608078002930e+00 1.105979442596435547e+00 4.864791117142885923e-05 2.034235076280310750e-04 7.562142127426341176e-05 1.215208831126801670e-04
5.146000000000000000e+03 6.516475677490234375e-01 3.939257264137268066e-01 5.422671165433712304e-06 5.160788350622169673e-05 1.710916694719344378e-05 5.769494237028993666e-06
5.147000000000000000e+03 3.489431142807006836e-01 9.570703506469726562e-01 7.504196400986984372e-05 4.829864337807521224e-05 3.700218439917080104e-05 -1.598973767613642849e-06
5.148000000000000000e+03 3.090358018875122070e+00 1.101411938667297363e+00 6.789813778595998883e-05 3.174016310367733240e-04 1.155899299192242324e-04 1.502502273069694638e-04
5.149000000000000000e+03 3.819237709045410156e+00 1.108143687248229980e+00 -2.655173302628099918e-04 -3.895738336723297834e-04 -1.965273550013080239e-04 -3.330532854306511581e-05
5.150000000000000000e+03 4.335169315338134766e+00 3.733847737312316895e-01 -2.693438727874308825e-04 -5.203980836085975170e-04 -2.369225840084254742e-04 -1.200110637000761926e-04
5.151000000000000000e+03 6.008533000946044922e+00 1.116871237754821777e+00 -3.690318771987222135e-05 5.546499742195010185e-04 1.553240290377289057e-04 2.191589592257514596e-04
5.152000000000000000e+03 6.603851795196533203e+00 3.786112964153289795e-01 -1.838433090597391129e-04 6.469307118095457554e-04 1.389262179145589471e-04 1.780090387910604477e-04
5.153000000000000000e+03 8.930113792419433594e+00 1.122923851013183594e+00 2.750253406702540815e-05 3.643996024038642645e-04 1.175706420326605439e-04 3.297392977401614189e-04
5.154000000000000000e+03 8.199422836303710938e+00 1.120554327964782715e+00 -3.529292298480868340e-04 -4.315171099733561277e-04 -2.353339077671989799e-04 -3.642400261014699936e-04
5.155000000000000000e+03 7.469150543212890625e+00 1.119543075561523438e+00 -1.590405008755624294e-05 5.155024118721485138e-04 1.498795027146115899e-04 3.002723969984799623e-04
5.156000000000000000e+03 6.739063739776611328e+00 1.118611335754394531e+00 -3.315882058814167976e-04 -5.264250212348997593e-04 -2.574039681348949671e-04 -2.492929052095860243e-04
5.157000000000000000e+03 5.278835773468017578e+00 1.115882039070129395e+00 -2.903121931012719870e-04 -5.093262880109250546e-04 -2.398915385128930211e-04 -1.162489788839593530e-04
5.158000000000000000e+03 4.549146175384521484e+00 1.113384723663330078e+00 -1.599722600076347589e-05 4.824291681870818138e-04 1.399295870214700699e-04 1.542576501378789544e-04
5.159000000000000000e+03 9.968983530998229980e-01 1.133925795555114746e+00 -5.023358971811830997e-05 -2.474201901350170374e-04 -8.929613250074908137e-05 3.278705480624921620e-05
5.160000000000000000e+03 7.947246074676513672e+00 -3.790149092674255371e-01 -7.362263568211346865e-05 2.215732965851202607e-04 4.438520045368932188e-05 1.450295167160220444e-05
5.161000000000000000e+03 8.798082351684570312e+00 -1.121163964271545410e+00 -8.129217349051032215e-06 1.844108192017301917e-04 5.288448301143944263e-05 7.723229646217077971e-05
5.162000000000000000e+03 9.582462310791015625e+00 -3.862577378749847412e-01 -4.099385478184558451e-05 2.251316327601671219e-04 5.524133302969858050e-05 1.725793845253065228e-05
5.163000000000000000e+03 7.128131389617919922e+00 -3.778152763843536377e-01 -1.305930636590346694e-04 -2.017140650423243642e-04 -9.969213715521618724e-05 4.335886956141621340e-07
5.164000000000000000e+03 6.302709579467773438e+00 -3.771458566188812256e-01 -1.056933615473099053e-04 1.761318708304315805e-04 2.113155278493650258e-05 1.349707963527180254e-05
5.165000000000000000e+03 5.439445972442626953e+00 -3.834656774997711182e-01 -1.020153868012130260e-04 -1.191257615573704243e-04 -6.634234159719198942e-05 -4.908247865387238562e-05
5.166000000000000000e+03 4.549984931945800781e+00 -3.402172923088073730e-01 -4.480744246393442154e-05 7.744588947389274836e-05 9.791534466785378754e-06 4.066632754984311759e-05
5.167000000000000000e+03 4.365737915039062500e+00 -8.721476197242736816e-01 -3.600518975872546434e-04 -1.085356416297145188e-05 -1.112716417992487550e-04 -1.520427176728844643e-04
5.168000000000000000e+03 2.784216165542602539e+00 -7.810403704643249512e-01 -1.557137729832902551e-04 6.936000136192888021e-05 -2.590613257780205458e-05 -2.261719200760126114e-04
5.169000000000000000e+03 1.180924773216247559e+00 -3.613742887973785400e-01 1.147908697021193802e-04 -4.435101072886027396e-05 2.113195841957349330e-05 2.784313983283936977e-05
5.170000000000000000e+03 4.100910127162933350e-01 -5.529776215553283691e-01 -5.077411969978129491e-06 2.263494206999894232e-05 5.267258984531508759e-06 6.706647582177538425e-06
5.171000000000000000e+03 7.475960254669189453e-01 -1.101374268531799316e+00 -3.893775574397295713e-04 3.836744781438028440e-06 -1.156622456619516015e-04 -7.251276838360354304e-05
5.172000000000000000e+03 9.582078933715820312e+00 -1.126257777214050293e+00 -8.290623372886329889e-05 -1.939637586474418640e-04 -8.306100062327459455e-05 -1.197103483718819916e-05
5.173000000000000000e+03 8.013586997985839844e+00 -1.119014978408813477e+00 -1.220443082274869084e-04 -1.608942984603345394e-04 -8.488158346153795719e-05 -4.289596108719706535e-05
5.174000000000000000e+03 7.227835178375244141e+00 -1.117815256118774414e+00 -2.989450513268820941e-05 1.447079994250088930e-04 3.444404501351527870e-05 8.208122017094865441e-05
5.175000000000000000e+03 6.435775756835937500e+00 -1.117145895957946777e+00 -9.572321141604334116e-05 -9.871365182334557176e-05 -5.833105751662515104e-05 -7.755854312563315034e-05
5.176000000000000000e+03 5.605874538421630859e+00 -1.123465657234191895e+00 -1.411648408975452185e-04 8.089667971944436431e-05 -1.808044726203661412e-05 9.844935993896797299e-05
5.177000000000000000e+03 4.870606899261474609e+00 -1.221678614616394043e+00 1.277088158531114459e-04 -8.915038051782175899e-06 3.563813152140937746e-05 -7.965836266521364450e-05
5.178000000000000000e+03 4.215381145477294922e+00 -1.291930317878723145e+00 6.336297519737854600e-05 -4.839427856495603919e-05 4.490609171625692397e-06 1.518204226158559322e-04
5.179000000000000000e+03 3.483533143997192383e+00 -1.264367222785949707e+00 -2.574488462414592505e-04 3.818351615336723626e-05 -6.577960448339581490e-05 -3.161574713885784149e-04
5.180000000000000000e+03 2.720056772232055664e+00 -1.259521603584289551e+00 1.413325226167216897e-04 1.813072594814002514e-05 4.783897384186275303e-05 2.598504070192575455e-04
5.181000000000000000e+03 1.356012225151062012e+00 -1.203287243843078613e+00 4.634131910279393196e-04 4.987924694432877004e-05 1.539877412142232060e-04 3.723355985130183399e-05
5.182000000000000000e+03 1.973117947578430176e+00 -8.476541042327880859e-01 -1.526816777186468244e-04 -7.727963384240865707e-05 -6.898839637869969010e-05 2.246648073196411133e-04
5.183000000000000000e+03 8.765102386474609375e+00 -3.811639845371246338e-01 -9.727019642014056444e-05 -2.302029024576768279e-04 -9.824192966334521770e-05 -1.552047592667804565e-06
5.184000000000000000e+03 3.694828748703002930e+00 -2.827752828598022461e-01 -1.126339484471827745e-04 -7.315253606066107750e-05 -5.573594535235315561e-05 -5.895752474316395819e-05
5.185000000000000000e+03 2.863922595977783203e+00 -2.815187871456146240e-01 6.232908617676002905e-06 6.281967944232746959e-05 2.071577728202100843e-05 4.818541128770448267e-05
5.186000000000000000e+03 1.994147539138793945e+00 -3.323310017585754395e-01 -4.368948793853633106e-05 -2.825582123477943242e-05 -2.158359166060108691e-05 -8.701856859261170030e-05
5.187000000000000000e+03 1.978801369667053223e+00 -1.275323033332824707e+00 -2.311732678208500147e-04 -1.221373095177114010e-04 -1.059931746567599475e-04 -2.524665324017405510e-04
5.188000000000000000e+03 3.578665971755981445e+00 -7.871425151824951172e-01 7.727643242105841637e-05 8.584702300140634179e-06 2.575833968876395375e-05 1.486170367570593953e-04
5.189000000000000000e+03 1.511178874969482422e+01 -1.151870131492614746e+00 -7.017950701992958784e-05 -5.407494609244167805e-05 -3.727633520611561835e-05 -9.182843314192723483e-06
5.190000000000000000e+03 1.328532791137695312e+01 -1.267471551895141602e+00 4.585354326991364360e-05 9.535939898341894150e-05 4.236388122080825269e-05 4.255017483956180513e-05
5.191000000000000000e+03 1.480503654479980469e+01 -5.744030475616455078e-01 3.535839641699567437e-05 -1.983759284485131502e-05 4.656240434997016564e-06 3.060689050471410155e-05
5.192000000000000000e+03 1.453040313720703125e+01 -1.313965797424316406e+00 -1.450466061214683577e-05 1.255377574125304818e-04 3.330992694827727973e-05 -3.595814996515400708e-05
5.193000000000000000e+03 1.393833351135253906e+01 -1.278923630714416504e+00 -1.649320256547071040e-05 -9.741320536704733968e-05 -3.417192056076601148e-05 -6.010837751091457903e-06
5.194000000000000000e+03 1.336329460144042969e+01 -5.279909372329711914e-01 -1.857913593994453549e-05 -1.324240583926439285e-04 -4.530095975496806204e-05 -2.340959326829761267e-05
5.195000000000000000e+03 1.411463356018066406e+01 -5.394020080566406250e-01 1.355502809019526467e-05 1.008115796139463782e-04 3.430998185649514198e-05 1.329553742834832519e-05
5.196000000000000000e+03 1.111242771148681641e+01 -4.403275847434997559e-01 -5.078632511867908761e-06 1.833527785493060946e-04 5.348224658519029617e-05 1.160061492555541918e-05
5.197000000000000000e+03 1.260764503479003906e+01 -5.095726251602172852e-01 2.140812648576684296e-05 1.380425528623163700e-04 4.783520125783979893e-05 2.201301504101138562e-05
5.198000000000000000e+03 1.185993289947509766e+01 -4.741277396678924561e-01 -3.578998439479619265e-05 -1.559821248520165682e-04 -5.753163350163958967e-05 -2.745971414697123691e-06
5.199000000000000000e+03 1.109096240997314453e+01 -1.180124521255493164e+00 -7.573414768557995558e-05 -1.840510230977088213e-04 -7.793555414536967874e-05 2.013172706938348711e-05
5.200000000000000000e+03 1.036482620239257812e+01 -4.067706167697906494e-01 -5.662380863213911653e-05 -2.203604672104120255e-04 -8.309528493555262685e-05 4.970313966623507440e-06
5.201000000000000000e+03 1.034629440307617188e+01 -1.146702885627746582e+00 1.057564077200368047e-05 1.996758510358631611e-04 6.307545118033885956e-05 3.602787546697072685e-05
5.202000000000000000e+03 1.258031177520751953e+01 -1.249099493026733398e+00 -8.158980926964432001e-05 -1.162547850981354713e-04 -5.935338049312122166e-05 -2.159573523385915905e-05
5.203000000000000000e+03 1.183553314208984375e+01 -1.213789224624633789e+00 6.615104211959987879e-05 1.380897592753171921e-04 6.127223605290055275e-05 2.489736471034120768e-05
5.204000000000000000e+03 5.901590347290039062e+01 -6.398391246795654297e+00 3.342866134643554688e+01 6.406764030456542969e+00 1.195062828063964844e+01 1.225917434692382812e+01
5.205000000000000000e+03 5.901982116699218750e+01 -6.417460918426513672e+00 3.055240440368652344e+01 1.871761322021484375e+01 1.478100490570068359e+01 2.351057815551757812e+01
5.206000000000000000e+03 5.902737808227539062e+01 -6.435402393341064453e+00 2.816651725769042969e+01 3.076198387145996094e+01 1.767855072021484375e+01 2.735221290588378906e+01
5.207000000000000000e+03 5.903828430175781250e+01 -6.451529979705810547e+00 2.417947578430175781e+01 4.327481079101562500e+01 2.023628616333007812e+01 2.845970535278320312e+01
5.208000000000000000e+03 5.905211639404296875e+01 -6.465225696563720703e+00 2.071276283264160156e+01 5.457093048095703125e+01 2.258510780334472656e+01 2.654008483886718750e+01
5.209000000000000000e+03 5.906835556030273438e+01 -6.475965499877929688e+00 1.744041633605957031e+01 6.423164367675781250e+01 2.450161743164062500e+01 2.213023376464843750e+01
5.210000000000000000e+03 5.908637237548828125e+01 -6.483339309692382812e+00 1.586093425750732422e+01 7.128889465332031250e+01 2.614494895935058594e+01 1.588445472717285156e+01
5.211000000000000000e+03 5.910548019409179688e+01 -6.487063884735107422e+00 1.588585472106933594e+01 7.518566131591796875e+01 2.732145500183105469e+01 8.583006858825683594e+00
5.212000000000000000e+03 5.912495040893554688e+01 -6.486997127532958984e+00 1.799024581909179688e+01 7.584706115722656250e+01 2.815119171142578125e+01 1.423238515853881836e+00
5.213000000000000000e+03 5.914403152465820312e+01 -6.483141422271728516e+00 2.195870018005371094e+01 7.368230438232421875e+01 2.869230270385742188e+01 -4.716086387634277344e+00
5.214000000000000000e+03 5.916199874877929688e+01 -6.475644588470458984e+00 2.707135200500488281e+01 6.937497711181640625e+01 2.893389892578125000e+01 -9.079640388488769531e+00
5.215000000000000000e+03 5.917816162109375000e+01 -6.464793205261230469e+00 3.266217803955078125e+01 6.396350860595703125e+01 2.898770713806152344e+01 -1.126192569732666016e+01
5.216000000000000000e+03 5.919190597534179688e+01 -6.451003074645996094e+00 3.798444366455078125e+01 5.844601821899414062e+01 2.892913818359375000e+01 -1.126968669891357422e+01
5.217000000000000000e+03 5.920269775390625000e+01 -6.434801101684570312e+00 4.241361999511718750e+01 5.359244918823242188e+01 2.880182075500488281e+01 -9.420561790466308594e+00
5.218000000000000000e+03 5.921013259887695312e+01 -6.416808128356933594e+00 4.553780364990234375e+01 5.009359741210937500e+01 2.868942070007324219e+01 -6.203301906585693359e+00
5.219000000000000000e+03 5.921392059326171875e+01 -6.397712230682373047e+00 4.714466094970703125e+01 4.823796081542968750e+01 2.861478614807128906e+01 -2.145704984664916992e+00
5.220000000000000000e+03 5.921392059326171875e+01 -6.378243923187255859e+00 4.715103530883789062e+01 4.825116348266601562e+01 2.862065887451171875e+01 2.159795522689819336e+00
5.221000000000000000e+03 5.921012496948242188e+01 -6.359148502349853516e+00 4.553102493286132812e+01 5.008647155761718750e+01 2.868524932861328125e+01 6.229011535644531250e+00
5.222000000000000000e+03 5.920269012451171875e+01 -6.341156959533691406e+00 4.242385864257812500e+01 5.358953475952148438e+01 2.880401802062988281e+01 9.435381889343261719e+00
5.223000000000000000e+03 5.919189453125000000e+01 -6.324957370758056641e+00 3.797244644165039062e+01 5.845439910888671875e+01 2.892805290222167969e+01 1.129526710510253906e+01
5.224000000000000000e+03 5.917815017700195312e+01 -6.311169624328613281e+00 3.266440200805664062e+01 6.396504974365234375e+01 2.898883438110351562e+01 1.128733539581298828e+01
5.225000000000000000e+03 5.916198348999023438e+01 -6.300321578979492188e+00 2.703734588623046875e+01 6.938866424560546875e+01 2.892780303955078125e+01 9.102175712585449219e+00
5.226000000000000000e+03 5.914401626586914062e+01 -6.292828083038330078e+00 2.194035720825195312e+01 7.368167114257812500e+01 2.868660926818847656e+01 4.754947185516357422e+00
5.227000000000000000e+03 5.912493133544921875e+01 -6.288976192474365234e+00 1.795939826965332031e+01 7.585988616943359375e+01 2.814578628540039062e+01 -1.410204648971557617e+00
5.228000000000000000e+03 5.910546112060546875e+01 -6.288913249969482422e+00 1.584423255920410156e+01 7.519624328613281250e+01 2.731214141845703125e+01 -8.557899475097656250e+00
5.229000000000000000e+03 5.908635330200195312e+01 -6.292641162872314453e+00 1.578893661499023438e+01 7.128490447998046875e+01 2.612215423583984375e+01 -1.586950683593750000e+01
5.230000000000000000e+03 5.906834030151367188e+01 -6.300018310546875000e+00 1.736848258972167969e+01 6.424125671386718750e+01 2.448292350769042969e+01 -2.210716247558593750e+01
5.231000000000000000e+03 5.905210494995117188e+01 -6.310761451721191406e+00 2.067338943481445312e+01 5.460135269165039062e+01 2.258242225646972656e+01 -2.651017379760742188e+01
5.232000000000000000e+03 5.903826904296875000e+01 -6.324460029602050781e+00 2.409475517272949219e+01 4.321397781372070312e+01 2.019261932373046875e+01 -2.846032524108886719e+01
5.233000000000000000e+03 5.902736663818359375e+01 -6.340589523315429688e+00 2.805363273620605469e+01 3.079543876647949219e+01 1.765472221374511719e+01 -2.736270141601562500e+01
5.234000000000000000e+03 5.901981353759765625e+01 -6.358532428741455078e+00 3.051217842102050781e+01 1.875947380065917969e+01 1.478149604797363281e+01 -2.347357177734375000e+01
5.235000000000000000e+03 5.901589965820312500e+01 -6.377603054046630859e+00 3.331409072875976562e+01 6.304446220397949219e+00 1.188556098937988281e+01 -1.225811958312988281e+01
